<?xml version="1.0"?>
<VTKFile type="UnstructuredGrid" version="0.1" byte_order="LittleEndian">
<UnstructuredGrid>
<Piece NumberOfPoints="31938" NumberOfCells="11229">
<Points>
<DataArray type="Float64" NumberOfComponents="3" format="ascii">
-0.5 -0.5 0 -0.44726781941254989 -0.47819601817682189 0 -0.41125833763128877 -0.5 0 -0.5 -0.5 0 -0.47677418566113811 -0.47226591654547062 0 -0.44726781941254989 -0.47819601817682189 0 -0.5 -0.5 0 -0.49999999999999961 -0.48079158807978961 0 -0.47677418566113811 -0.47226591654547062 0 -0.49999999999999961 -0.48079158807978961 0 -0.47677418566113811 -0.47226591654547062 0 -0.47677418566113811 -0.47226591654547062 0 -0.44726781941254989 -0.47819601817682189 0 -0.45354837132227649 -0.46374024501115152 0 -0.44251345449664742 -0.446267939543326 0 -0.4565573651062389 -0.44066179865068988 0 -0.43441323328287967 -0.43349896710203939 0 -0.44251345449664742 -0.446267939543326 0 -0.45354837132227649 -0.46374024501115152 0 -0.4565573651062389 -0.44066179865068988 0 -0.44251345449664742 -0.446267939543326 0 -0.45354837132227649 -0.46374024501115152 0 -0.43032255698341509 -0.45521457347683247 0 -0.45354837132227649 -0.46374024501115152 0 -0.43032255698341509 -0.45521457347683247 0 -0.44726781941254989 -0.47819601817682189 0 -0.45354837132227649 -0.46374024501115152 0 -0.43032255698341509 -0.45521457347683247 0 -0.47677418566113811 -0.47226591654547062 0 -0.45354837132227649 -0.46374024501115152 0 -0.4734066104760557 -0.45317059373215901 0 -0.47677418566113811 -0.47226591654547062 0 -0.45354837132227649 -0.46374024501115152 0 -0.45354837132227649 -0.46374024501115152 0 -0.4565573651062389 -0.44066179865068988 0 -0.4734066104760557 -0.45317059373215901 0 -0.4565573651062389 -0.44066179865068988 0 -0.48015313029062501 -0.4380826266216909 0 -0.4734066104760557 -0.45317059373215901 0 -0.47677418566113811 -0.47226591654547062 0 -0.4734066104760557 -0.45317059373215901 0 -0.5 -0.45110238183179191 0 -0.49999999999999961 -0.48079158807978961 0 -0.47677418566113811 -0.47226591654547062 0 -0.5 -0.45110238183179191 0 -0.48015313029062501 -0.4380826266216909 0 -0.4734066104760557 -0.45317059373215901 0 -0.5 -0.45110238183179191 0 -0.48015313029062501 -0.4380826266216909 0 -0.5 -0.4214131755837941 0 -0.46569579133502531 -0.41925717541023849 0 -0.5 -0.4214131755837941 0 -0.47526778257535468 -0.3960463478059823 0 -0.46569579133502531 -0.41925717541023849 0 -0.48015313029062501 -0.4380826266216909 0 -0.5 -0.45110238183179191 0 -0.5 -0.4214131755837941 0 -0.48512354646623262 -0.37845451176912731 0 -0.5 -0.39172396933579651 0 -0.47526778257535468 -0.3960463478059823 0 -0.48512354646623262 -0.37845451176912731 0 -0.5 -0.39172396933579651 0 -0.5 -0.36203476308779881 0 -0.5 -0.4214131755837941 0 -0.5 -0.39172396933579651 0 -0.47526778257535468 -0.3960463478059823 0 -0.48512354646623262 -0.37845451176912731 0 -0.47526778257535468 -0.3960463478059823 0 -0.46632774584278519 -0.366218592632641 0 -0.45467336078224002 -0.38653695153103662 0 -0.46632774584278519 -0.366218592632641 0 -0.43840205183134873 -0.37327149302653928 0 -0.47526778257535468 -0.3960463478059823 0 -0.45467336078224002 -0.38653695153103662 0 -0.46632774584278519 -0.366218592632641 0 -0.47526778257535468 -0.3960463478059823 0 -0.45467336078224002 -0.38653695153103662 0 -0.45612463221827632 -0.40301768298745461 0 -0.47526778257535468 -0.3960463478059823 0 -0.45612463221827632 -0.40301768298745461 0 -0.46569579133502531 -0.41925717541023849 0 -0.45612463221827632 -0.40301768298745461 0 -0.44555011804718231 -0.41648402294867082 0 -0.43664677819207132 -0.39461019324690672 0 -0.45467336078224002 -0.38653695153103662 0 -0.45612463221827632 -0.40301768298745461 0 -0.43664677819207132 -0.39461019324690672 0 -0.45467336078224002 -0.38653695153103662 0 -0.43664677819207132 -0.39461019324690672 0 -0.43840205183134873 -0.37327149302653928 0 -0.4565573651062389 -0.44066179865068988 0 -0.46569579133502531 -0.41925717541023849 0 -0.44555011804718231 -0.41648402294867082 0 -0.4565573651062389 -0.44066179865068988 0 -0.48015313029062501 -0.4380826266216909 0 -0.46569579133502531 -0.41925717541023849 0 -0.45612463221827632 -0.40301768298745461 0 -0.46569579133502531 -0.41925717541023849 0 -0.44555011804718231 -0.41648402294867082 0 -0.4565573651062389 -0.44066179865068988 0 -0.44555011804718231 -0.41648402294867082 0 -0.43441323328287967 -0.43349896710203939 0 -0.43441323328287967 -0.43349896710203939 0 -0.41878792609240728 -0.43877004790664148 0 -0.44555011804718231 -0.41648402294867082 0 -0.43441323328287967 -0.43349896710203939 0 -0.43246201599272982 -0.42020224759738151 0 -0.43441323328287967 -0.43349896710203939 0 -0.41979095212567957 -0.42257677103220642 0 -0.41878792609240728 -0.43877004790664148 0 -0.43441323328287967 -0.43349896710203939 0 -0.43246201599272982 -0.42020224759738151 0 -0.41979095212567957 -0.42257677103220642 0 -0.44555011804718231 -0.41648402294867082 0 -0.43246201599272982 -0.42020224759738151 0 -0.42714828224681067 -0.40782891081931161 0 -0.44555011804718231 -0.41648402294867082 0 -0.42714828224681067 -0.40782891081931161 0 -0.43664677819207132 -0.39461019324690672 0 -0.43246201599272982 -0.42020224759738151 0 -0.42714828224681067 -0.40782891081931161 0 -0.41979095212567957 -0.42257677103220642 0 -0.41407448751549403 -0.40799100044148351 0 -0.41979095212567957 -0.42257677103220642 0 -0.40330871272756408 -0.41980414477326378 0 -0.41407448751549403 -0.40799100044148351 0 -0.40345480655319249 -0.39556716083528382 0 -0.40330871272756408 -0.41980414477326378 0 -0.42714828224681067 -0.40782891081931161 0 -0.41407448751549403 -0.40799100044148351 0 -0.41979095212567957 -0.42257677103220642 0 -0.41126255246189652 -0.43129802310583892 0 -0.41979095212567957 -0.42257677103220642 0 -0.41878792609240728 -0.43877004790664148 0 -0.41126255246189652 -0.43129802310583892 0 -0.41979095212567957 -0.42257677103220642 0 -0.40330871272756408 -0.41980414477326378 0 -0.42467989906095949 -0.38357616753810653 0 -0.43664677819207132 -0.39461019324690672 0 -0.43840205183134873 -0.37327149302653928 0 -0.42467989906095949 -0.38357616753810653 0 -0.43840205183134873 -0.37327149302653928 0 -0.41833152443854382 -0.37077521388388007 0 -0.42714828224681067 -0.40782891081931161 0 -0.43664677819207132 -0.39461019324690672 0 -0.41989193607327929 -0.3954431299435795 0 -0.42467989906095949 -0.38357616753810653 0 -0.43664677819207132 -0.39461019324690672 0 -0.41989193607327929 -0.3954431299435795 0 -0.41989193607327929 -0.3954431299435795 0 -0.41334736287114798 -0.38308534678038508 0 -0.40345480655319249 -0.39556716083528382 0 -0.41407448751549403 -0.40799100044148351 0 -0.41989193607327929 -0.3954431299435795 0 -0.40345480655319249 -0.39556716083528382 0 -0.42714828224681067 -0.40782891081931161 0 -0.41407448751549403 -0.40799100044148351 0 -0.41989193607327929 -0.3954431299435795 0 -0.41334736287114798 -0.38308534678038508 0 -0.40345480655319249 -0.39556716083528382 0 -0.40360090037882101 -0.37133017689730369 0 -0.42467989906095949 -0.38357616753810653 0 -0.41989193607327929 -0.3954431299435795 0 -0.41334736287114798 -0.38308534678038508 0 -0.41334736287114798 -0.38308534678038508 0 -0.41833152443854382 -0.37077521388388007 0 -0.40360090037882101 -0.37133017689730369 0 -0.42467989906095949 -0.38357616753810653 0 -0.41334736287114798 -0.38308534678038508 0 -0.41833152443854382 -0.37077521388388007 0 -0.40345480655319249 -0.39556716083528382 0 -0.40360090037882101 -0.37133017689730369 0 -0.39619478813844722 -0.38324387396841109 0 -0.40345480655319249 -0.39556716083528382 0 -0.40360090037882101 -0.37133017689730369 0 -0.39619478813844722 -0.38324387396841109 0 -0.38625554332273548 -0.37540101329966569 0 -0.39491524436931091 -0.37363015639529162 0 -0.39619478813844722 -0.38324387396841109 0 -0.40360090037882101 -0.37133017689730369 0 -0.39491524436931091 -0.37363015639529162 0 -0.40345480655319249 -0.39556716083528382 0 -0.38749974168635931 -0.39976248933738279 0 -0.40330871272756408 -0.41980414477326378 0 -0.39619478813844722 -0.38324387396841109 0 -0.40345480655319249 -0.39556716083528382 0 -0.38749974168635931 -0.39976248933738279 0 -0.38749974168635931 -0.39976248933738279 0 -0.3769664123283914 -0.4109003045795378 0 -0.37469442256259078 -0.39815904361029281 0 -0.38749974168635931 -0.39976248933738279 0 -0.37913170969305299 -0.38884127204369368 0 -0.37469442256259078 -0.39815904361029281 0 -0.39619478813844722 -0.38324387396841109 0 -0.38749974168635931 -0.39976248933738279 0 -0.38625554332273548 -0.37540101329966569 0 -0.38749974168635931 -0.39976248933738279 0 -0.37913170969305299 -0.38884127204369368 0 -0.38625554332273548 -0.37540101329966569 0 -0.38749974168635931 -0.39976248933738279 0 -0.38625554332273548 -0.37540101329966569 0 -0.37913170969305299 -0.38884127204369368 0 -0.38625554332273548 -0.37540101329966569 0 -0.36863989712025741 -0.38042445352763138 0 -0.41126255246189652 -0.43129802310583892 0 -0.40330871272756408 -0.41980414477326378 0 -0.403162618901935 -0.4440411287112439 0 -0.40330871272756408 -0.41980414477326378 0 -0.38874394004998297 -0.42412396537509989 0 -0.403162618901935 -0.4440411287112439 0 -0.40330871272756408 -0.41980414477326378 0 -0.403162618901935 -0.4440411287112439 0 -0.40345480655319249 -0.39556716083528382 0 -0.40330871272756408 -0.41980414477326378 0 -0.38749974168635931 -0.39976248933738279 0 -0.40330871272756408 -0.41980414477326378 0 -0.38874394004998297 -0.42412396537509989 0 -0.3769664123283914 -0.4109003045795378 0 -0.38874394004998297 -0.42412396537509989 0 -0.3720968394384 -0.42320741441149762 0 -0.38749974168635931 -0.39976248933738279 0 -0.38874394004998297 -0.42412396537509989 0 -0.38749974168635931 -0.39976248933738279 0 -0.3769664123283914 -0.4109003045795378 0 -0.38874394004998297 -0.42412396537509989 0 -0.38874394004998297 -0.42412396537509989 0 -0.3899881384136073 -0.44848544141281699 0 -0.37488048530459422 -0.43700727243122528 0 -0.38874394004998297 -0.42412396537509989 0 -0.3899881384136073 -0.44848544141281699 0 -0.38874394004998297 -0.42412396537509989 0 -0.37488048530459422 -0.43700727243122528 0 -0.3720968394384 -0.42320741441149762 0 -0.3899881384136073 -0.44848544141281699 0 -0.36989399782307791 -0.45526404982419771 0 -0.37488048530459422 -0.43700727243122528 0 -0.41125833763128877 -0.5 0 -0.34706674106729751 -0.5 0 -0.36941405988811121 -0.47850166055742371 0 -0.3899881384136073 -0.44848544141281699 0 -0.36989399782307791 -0.45526404982419771 0 -0.38874394004998297 -0.42412396537509989 0 -0.3899881384136073 -0.44848544141281699 0 -0.403162618901935 -0.4440411287112439 0 -0.3899881384136073 -0.44848544141281699 0 -0.403162618901935 -0.4440411287112439 0 -0.403162618901935 -0.4440411287112439 0 -0.40308051418616431 -0.45766231132334712 0 -0.3899881384136073 -0.44848544141281699 0 -0.403162618901935 -0.4440411287112439 0 -0.40308051418616431 -0.45766231132334712 0 -0.3899881384136073 -0.44848544141281699 0 -0.40308051418616431 -0.45766231132334712 0 -0.39109311815093578 -0.4701210086825735 0 -0.40308051418616431 -0.45766231132334712 0 -0.39109311815093578 -0.4701210086825735 0 -0.41517611869776261 -0.47155016131889571 0 -0.3899881384136073 -0.44848544141281699 0 -0.38258409246157993 -0.45970958420396663 0 -0.39109311815093578 -0.4701210086825735 0 -0.3899881384136073 -0.44848544141281699 0 -0.39109311815093578 -0.4701210086825735 0 -0.3899881384136073 -0.44848544141281699 0 -0.38258409246157993 -0.45970958420396663 0 -0.36989399782307791 -0.45526404982419771 0 -0.38258409246157993 -0.45970958420396663 0 -0.39109311815093578 -0.4701210086825735 0 -0.36941405988811121 -0.47850166055742371 0 -0.39109311815093578 -0.4701210086825735 0 -0.41125833763128877 -0.5 0 -0.36941405988811121 -0.47850166055742371 0 -0.39109311815093578 -0.4701210086825735 0 -0.41517611869776261 -0.47155016131889571 0 -0.41125833763128877 -0.5 0 -0.44726781941254989 -0.47819601817682189 0 -0.41517611869776261 -0.47155016131889571 0 -0.41125833763128877 -0.5 0 -0.44726781941254989 -0.47819601817682189 0 -0.41517611869776261 -0.47155016131889571 0 -0.43032255698341509 -0.45521457347683247 0 -0.43441323328287967 -0.43349896710203939 0 -0.43032255698341509 -0.45521457347683247 0 -0.41878792609240728 -0.43877004790664148 0 -0.44251345449664742 -0.446267939543326 0 -0.43441323328287967 -0.43349896710203939 0 -0.43032255698341509 -0.45521457347683247 0 -0.403162618901935 -0.4440411287112439 0 -0.41878792609240728 -0.43877004790664148 0 -0.41126255246189652 -0.43129802310583892 0 -0.403162618901935 -0.4440411287112439 0 -0.41878792609240728 -0.43877004790664148 0 -0.43032255698341509 -0.45521457347683247 0 -0.41554410378925533 -0.45299442140706198 0 -0.41878792609240728 -0.43877004790664148 0 -0.403162618901935 -0.4440411287112439 0 -0.41554410378925533 -0.45299442140706198 0 -0.41878792609240728 -0.43877004790664148 0 -0.403162618901935 -0.4440411287112439 0 -0.40308051418616431 -0.45766231132334712 0 -0.41554410378925533 -0.45299442140706198 0 -0.41517611869776261 -0.47155016131889571 0 -0.43032255698341509 -0.45521457347683247 0 -0.41554410378925533 -0.45299442140706198 0 -0.40308051418616431 -0.45766231132334712 0 -0.41517611869776261 -0.47155016131889571 0 -0.41554410378925533 -0.45299442140706198 0 -0.43932345906701242 -0.26840506038995982 0 -0.45697176271692003 -0.25705989673299151 0 -0.4354576440753809 -0.2535912274846438 0 -0.45697176271692003 -0.25705989673299151 0 -0.4354576440753809 -0.2535912274846438 0 -0.45697176271692003 -0.25705989673299151 0 -0.4354576440753809 -0.2535912274846438 0 -0.44283674427152059 -0.24637665446568971 0 -0.43932345906701242 -0.26840506038995982 0 -0.4603563420090937 -0.27505415637453312 0 -0.44318927405864261 -0.28321889329527611 0 -0.43932345906701242 -0.26840506038995982 0 -0.4603563420090937 -0.27505415637453312 0 -0.45697176271692003 -0.25705989673299151 0 -0.43932345906701242 -0.26840506038995982 0 -0.44318927405864261 -0.28321889329527611 0 -0.4603563420090937 -0.27505415637453312 0 -0.45697176271692003 -0.25705989673299151 0 -0.47848588135845921 -0.26052856598133872 0 -0.45697176271692003 -0.25705989673299151 0 -0.47848588135845921 -0.26052856598133872 0 -0.46640273863866238 -0.24810959993952919 0 -0.45697176271692003 -0.25705989673299151 0 -0.47848588135845921 -0.26052856598133872 0 -0.47848588135845921 -0.26052856598133872 0 -0.47757018411114027 -0.24248545189784851 0 -0.46640273863866238 -0.24810959993952919 0 -0.47848588135845921 -0.26052856598133872 0 -0.49999999999999828 -0.26399723522968549 0 -0.5 -0.24116489137494579 0 -0.47848588135845921 -0.26052856598133872 0 -0.49999999999999828 -0.26399723522968549 0 -0.47848588135845921 -0.26052856598133872 0 -0.49999999999999828 -0.26399723522968549 0 -0.48243991995785951 -0.27859841029531268 0 -0.49999999999999828 -0.26399723522968549 0 -0.48243991995785951 -0.27859841029531268 0 -0.5 -0.28332679291074447 0 -0.4603563420090937 -0.27505415637453312 0 -0.47848588135845921 -0.26052856598133872 0 -0.48243991995785951 -0.27859841029531268 0 -0.4603563420090937 -0.27505415637453312 0 -0.48243991995785951 -0.27859841029531268 0 -0.46995573680468222 -0.28949006934584348 0 -0.48243991995785951 -0.27859841029531268 0 -0.46995573680468222 -0.28949006934584348 0 -0.48274080377450962 -0.29619263101961069 0 -0.46995573680468222 -0.28949006934584348 0 -0.48274080377450962 -0.29619263101961069 0 -0.46806086374434602 -0.30029087722449349 0 -0.48243991995785951 -0.27859841029531268 0 -0.48274080377450962 -0.29619263101961069 0 -0.5 -0.28332679291074447 0 -0.48274080377450962 -0.29619263101961069 0 -0.5 -0.28332679291074447 0 -0.50000000000000044 -0.30265635059180351 0 -0.48274080377450962 -0.29619263101961069 0 -0.50000000000000044 -0.30265635059180351 0 -0.47632701325503518 -0.32081845492297201 0 -0.50000000000000044 -0.30265635059180351 0 -0.47632701325503518 -0.32081845492297201 0 -0.48274080377450962 -0.29619263101961069 0 -0.46806086374434602 -0.30029087722449349 0 -0.47632701325503518 -0.32081845492297201 0 -0.45462855779171613 -0.3051650103045267 0 -0.46806086374434602 -0.30029087722449349 0 -0.47632701325503518 -0.32081845492297201 0 -0.45462855779171613 -0.3051650103045267 0 -0.46806086374434602 -0.30029087722449349 0 -0.4566522070957868 -0.28978822052951492 0 -0.4603563420090937 -0.27505415637453312 0 -0.4566522070957868 -0.28978822052951492 0 -0.44318927405864261 -0.28321889329527611 0 -0.46995573680468222 -0.28949006934584348 0 -0.46806086374434602 -0.30029087722449349 0 -0.4566522070957868 -0.28978822052951492 0 -0.4603563420090937 -0.27505415637453312 0 -0.46995573680468222 -0.28949006934584348 0 -0.4566522070957868 -0.28978822052951492 0 -0.4566522070957868 -0.28978822052951492 0 -0.44318927405864261 -0.28321889329527611 0 -0.44058443645945089 -0.29794477020706062 0 -0.45462855779171613 -0.3051650103045267 0 -0.44058443645945089 -0.29794477020706062 0 -0.44396708088736531 -0.31751625333295719 0 -0.44058443645945089 -0.29794477020706062 0 -0.44396708088736531 -0.31751625333295719 0 -0.430051923747509 -0.30980049197414672 0 -0.45462855779171613 -0.3051650103045267 0 -0.4566522070957868 -0.28978822052951492 0 -0.44058443645945089 -0.29794477020706062 0 -0.44396708088736531 -0.31751625333295719 0 -0.45265402651006992 -0.33898055925414 0 -0.47632701325503518 -0.32081845492297201 0 -0.45462855779171613 -0.3051650103045267 0 -0.44396708088736531 -0.31751625333295719 0 -0.47632701325503518 -0.32081845492297201 0 -0.45265402651006992 -0.33898055925414 0 -0.44244656020315781 -0.35412848842191452 0 -0.42930798588068142 -0.3343424393830286 0 -0.44396708088736531 -0.31751625333295719 0 -0.45265402651006992 -0.33898055925414 0 -0.42930798588068142 -0.3343424393830286 0 -0.45265402651006992 -0.33898055925414 0 -0.47632701325503518 -0.32081845492297201 0 -0.50000000000000044 -0.30265635059180351 0 -0.47632701325503518 -0.32081845492297201 0 -0.5 -0.33234555683980121 0 -0.47632701325503518 -0.32081845492297201 0 -0.5 -0.33234555683980121 0 -0.479323036386192 -0.34388428911831509 0 -0.45265402651006992 -0.33898055925414 0 -0.47632701325503518 -0.32081845492297201 0 -0.479323036386192 -0.34388428911831509 0 -0.48512354646623262 -0.37845451176912731 0 -0.5 -0.36203476308779881 0 -0.46632774584278519 -0.366218592632641 0 -0.479323036386192 -0.34388428911831509 0 -0.5 -0.36203476308779881 0 -0.46632774584278519 -0.366218592632641 0 -0.5 -0.33234555683980121 0 -0.479323036386192 -0.34388428911831509 0 -0.5 -0.36203476308779881 0 -0.45265402651006992 -0.33898055925414 0 -0.46632774584278519 -0.366218592632641 0 -0.44244656020315781 -0.35412848842191452 0 -0.45265402651006992 -0.33898055925414 0 -0.479323036386192 -0.34388428911831509 0 -0.46632774584278519 -0.366218592632641 0 -0.46632774584278519 -0.366218592632641 0 -0.44244656020315781 -0.35412848842191452 0 -0.43840205183134873 -0.37327149302653928 0 -0.44244656020315781 -0.35412848842191452 0 -0.43840205183134873 -0.37327149302653928 0 -0.42554099095090397 -0.35782935781322389 0 -0.43840205183134873 -0.37327149302653928 0 -0.42554099095090397 -0.35782935781322389 0 -0.41833152443854382 -0.37077521388388007 0 -0.44244656020315781 -0.35412848842191452 0 -0.42554099095090397 -0.35782935781322389 0 -0.42930798588068142 -0.3343424393830286 0 -0.42554099095090397 -0.35782935781322389 0 -0.41474144118454698 -0.34574148402694288 0 -0.42930798588068142 -0.3343424393830286 0 -0.41474144118454698 -0.34574148402694288 0 -0.40621852669303649 -0.35672651955194529 0 -0.39867866347188652 -0.34249273185709511 0 -0.42554099095090397 -0.35782935781322389 0 -0.41474144118454698 -0.34574148402694288 0 -0.40621852669303649 -0.35672651955194529 0 -0.42554099095090397 -0.35782935781322389 0 -0.41833152443854382 -0.37077521388388007 0 -0.40621852669303649 -0.35672651955194529 0 -0.41833152443854382 -0.37077521388388007 0 -0.40360090037882101 -0.37133017689730369 0 -0.40621852669303649 -0.35672651955194529 0 -0.40360090037882101 -0.37133017689730369 0 -0.39360974563723988 -0.3645455614157862 0 -0.40621852669303649 -0.35672651955194529 0 -0.38625554332273548 -0.37540101329966569 0 -0.39360974563723988 -0.3645455614157862 0 -0.39491524436931091 -0.37363015639529162 0 -0.40360090037882101 -0.37133017689730369 0 -0.39360974563723988 -0.3645455614157862 0 -0.39491524436931091 -0.37363015639529162 0 -0.39360974563723988 -0.3645455614157862 0 -0.38093996207336889 -0.36714747753266519 0 -0.37491991041615952 -0.35321838529164901 0 -0.38625554332273548 -0.37540101329966569 0 -0.39360974563723988 -0.3645455614157862 0 -0.38093996207336889 -0.36714747753266519 0 -0.38625554332273548 -0.37540101329966569 0 -0.38093996207336889 -0.36714747753266519 0 -0.36863989712025741 -0.38042445352763138 0 -0.39360974563723988 -0.3645455614157862 0 -0.37491991041615952 -0.35321838529164901 0 -0.39360974563723988 -0.3645455614157862 0 -0.38954161812038218 -0.35183326699998207 0 -0.37491991041615952 -0.35321838529164901 0 -0.38954161812038218 -0.35183326699998207 0 -0.39867866347188652 -0.34249273185709511 0 -0.37819079360169477 -0.33904837211736988 0 -0.37819079360169477 -0.33904837211736988 0 -0.37491991041615952 -0.35321838529164901 0 -0.38954161812038218 -0.35183326699998207 0 -0.37819079360169477 -0.33904837211736988 0 -0.37491991041615952 -0.35321838529164901 0 -0.39360974563723988 -0.3645455614157862 0 -0.38954161812038218 -0.35183326699998207 0 -0.40621852669303649 -0.35672651955194529 0 -0.38954161812038218 -0.35183326699998207 0 -0.40621852669303649 -0.35672651955194529 0 -0.39867866347188652 -0.34249273185709511 0 -0.39867866347188652 -0.34249273185709511 0 -0.39454150867288312 -0.326979089423311 0 -0.41062380758676231 -0.33282581492579522 0 -0.39867866347188652 -0.34249273185709511 0 -0.37819079360169477 -0.33904837211736988 0 -0.39454150867288312 -0.326979089423311 0 -0.37819079360169477 -0.33904837211736988 0 -0.3798629668396365 -0.32482804654631869 0 -0.39454150867288312 -0.326979089423311 0 -0.3798629668396365 -0.32482804654631869 0 -0.39454150867288312 -0.326979089423311 0 -0.39147072120311183 -0.31072134582655708 0 -0.3798629668396365 -0.32482804654631869 0 -0.39147072120311183 -0.31072134582655708 0 -0.37719615907044179 -0.31201771505523451 0 -0.39454150867288312 -0.326979089423311 0 -0.41246684787897431 -0.31614261336313709 0 -0.39147072120311183 -0.31072134582655708 0 -0.39454150867288312 -0.326979089423311 0 -0.41246684787897431 -0.31614261336313709 0 -0.41062380758676231 -0.33282581492579522 0 -0.41246684787897431 -0.31614261336313709 0 -0.41062380758676231 -0.33282581492579522 0 -0.42930798588068142 -0.3343424393830286 0 -0.41474144118454698 -0.34574148402694288 0 -0.41062380758676231 -0.33282581492579522 0 -0.42930798588068142 -0.3343424393830286 0 -0.41474144118454698 -0.34574148402694288 0 -0.39867866347188652 -0.34249273185709511 0 -0.41062380758676231 -0.33282581492579522 0 -0.44396708088736531 -0.31751625333295719 0 -0.42930798588068142 -0.3343424393830286 0 -0.430051923747509 -0.30980049197414672 0 -0.41246684787897431 -0.31614261336313709 0 -0.42930798588068142 -0.3343424393830286 0 -0.430051923747509 -0.30980049197414672 0 -0.44058443645945089 -0.29794477020706062 0 -0.430051923747509 -0.30980049197414672 0 -0.42697642013493398 -0.29174327672154893 0 -0.430051923747509 -0.30980049197414672 0 -0.42697642013493398 -0.29174327672154893 0 -0.41761906753114408 -0.30297443644642758 0 -0.44318927405864261 -0.28321889329527611 0 -0.44058443645945089 -0.29794477020706062 0 -0.42697642013493398 -0.29174327672154893 0 -0.44318927405864261 -0.28321889329527611 0 -0.42697642013493398 -0.29174327672154893 0 -0.42975846337254331 -0.27724912314215178 0 -0.42697642013493398 -0.29174327672154893 0 -0.41559379501285643 -0.27831000248164939 0 -0.42975846337254331 -0.27724912314215178 0 -0.42697642013493398 -0.29174327672154893 0 -0.41315208469472342 -0.2919693827343558 0 -0.41761906753114408 -0.30297443644642758 0 -0.42697642013493398 -0.29174327672154893 0 -0.41315208469472342 -0.2919693827343558 0 -0.41559379501285643 -0.27831000248164939 0 -0.41315208469472342 -0.2919693827343558 0 -0.40161286674396168 -0.28536667819205069 0 -0.41559379501285643 -0.27831000248164939 0 -0.41246684787897431 -0.31614261336313709 0 -0.41761906753114408 -0.30297443644642758 0 -0.40356622480102111 -0.300462020459353 0 -0.41315208469472342 -0.2919693827343558 0 -0.41761906753114408 -0.30297443644642758 0 -0.40356622480102111 -0.300462020459353 0 -0.41246684787897431 -0.31614261336313709 0 -0.430051923747509 -0.30980049197414672 0 -0.41761906753114408 -0.30297443644642758 0 -0.41246684787897431 -0.31614261336313709 0 -0.40356622480102111 -0.300462020459353 0 -0.39147072120311183 -0.31072134582655708 0 -0.40356622480102111 -0.300462020459353 0 -0.39147072120311183 -0.31072134582655708 0 -0.38580026176742188 -0.29456222805049043 0 -0.37719615907044179 -0.31201771505523451 0 -0.38580026176742188 -0.29456222805049043 0 -0.36720891156492752 -0.29782595209587509 0 -0.39147072120311183 -0.31072134582655708 0 -0.37719615907044179 -0.31201771505523451 0 -0.38580026176742188 -0.29456222805049043 0 -0.38580026176742188 -0.29456222805049043 0 -0.38920282767694792 -0.27694150998667488 0 -0.3762108453312456 -0.27871096070824458 0 -0.38580026176742188 -0.29456222805049043 0 -0.3762108453312456 -0.27871096070824458 0 -0.36720891156492752 -0.29782595209587509 0 -0.38580026176742188 -0.29456222805049043 0 -0.40161286674396168 -0.28536667819205069 0 -0.38920282767694792 -0.27694150998667488 0 -0.40356622480102111 -0.300462020459353 0 -0.38580026176742188 -0.29456222805049043 0 -0.40161286674396168 -0.28536667819205069 0 -0.41315208469472342 -0.2919693827343558 0 -0.40356622480102111 -0.300462020459353 0 -0.40161286674396168 -0.28536667819205069 0 -0.40161286674396168 -0.28536667819205069 0 -0.40135886548790661 -0.2718453662836095 0 -0.41559379501285643 -0.27831000248164939 0 -0.40135886548790661 -0.2718453662836095 0 -0.3920919275131729 -0.26820408872215312 0 -0.38920282767694792 -0.27694150998667488 0 -0.40135886548790661 -0.2718453662836095 0 -0.3920919275131729 -0.26820408872215312 0 -0.39559587231203169 -0.25892549115302049 0 -0.40161286674396168 -0.28536667819205069 0 -0.40135886548790661 -0.2718453662836095 0 -0.38920282767694792 -0.27694150998667488 0 -0.3762108453312456 -0.27871096070824458 0 -0.38221014457580549 -0.26510398746530722 0 -0.37167989672784851 -0.25627262037112741 0 -0.3920919275131729 -0.26820408872215312 0 -0.38920282767694792 -0.27694150998667488 0 -0.38221014457580549 -0.26510398746530722 0 -0.38920282767694792 -0.27694150998667488 0 -0.3762108453312456 -0.27871096070824458 0 -0.38221014457580549 -0.26510398746530722 0 -0.38089513924397672 -0.25142371241438871 0 -0.39559587231203169 -0.25892549115302049 0 -0.38944469955622107 -0.24133701782607611 0 -0.38089513924397672 -0.25142371241438871 0 -0.37167989672784851 -0.25627262037112741 0 -0.37367033827505741 -0.25148678553651221 0 -0.38089513924397672 -0.25142371241438871 0 -0.38221014457580549 -0.26510398746530722 0 -0.37167989672784851 -0.25627262037112741 0 -0.38089513924397672 -0.25142371241438871 0 -0.37167989672784851 -0.25627262037112741 0 -0.3920919275131729 -0.26820408872215312 0 -0.38221014457580549 -0.26510398746530722 0 -0.39559587231203169 -0.25892549115302049 0 -0.38089513924397672 -0.25142371241438871 0 -0.38221014457580549 -0.26510398746530722 0 -0.39559587231203169 -0.25892549115302049 0 -0.39559587231203169 -0.25892549115302049 0 -0.41020766522609209 -0.26527601461350042 0 -0.40992198791325701 -0.24947417548071479 0 -0.40135886548790661 -0.2718453662836095 0 -0.39559587231203169 -0.25892549115302049 0 -0.41020766522609209 -0.26527601461350042 0 -0.41020766522609209 -0.26527601461350042 0 -0.423709368589271 -0.26456838282232448 0 -0.40992198791325701 -0.24947417548071479 0 -0.40135886548790661 -0.2718453662836095 0 -0.41020766522609209 -0.26527601461350042 0 -0.41559379501285643 -0.27831000248164939 0 -0.41020766522609209 -0.26527601461350042 0 -0.41559379501285643 -0.27831000248164939 0 -0.423709368589271 -0.26456838282232448 0 -0.41559379501285643 -0.27831000248164939 0 -0.42975846337254331 -0.27724912314215178 0 -0.423709368589271 -0.26456838282232448 0 -0.43932345906701242 -0.26840506038995982 0 -0.44318927405864261 -0.28321889329527611 0 -0.42975846337254331 -0.27724912314215178 0 -0.43932345906701242 -0.26840506038995982 0 -0.42975846337254331 -0.27724912314215178 0 -0.423709368589271 -0.26456838282232448 0 -0.43932345906701242 -0.26840506038995982 0 -0.4354576440753809 -0.2535912274846438 0 -0.43932345906701242 -0.26840506038995982 0 -0.4354576440753809 -0.2535912274846438 0 -0.423709368589271 -0.26456838282232448 0 -0.4354576440753809 -0.2535912274846438 0 -0.423709368589271 -0.26456838282232448 0 -0.40992198791325701 -0.24947417548071479 0 -0.4354576440753809 -0.2535912274846438 0 -0.40992198791325701 -0.24947417548071479 0 -0.32217121299208129 -0.25443420877968947 0 -0.32216010565072362 -0.2692770719731577 0 -0.33829816503805671 -0.24422995393675501 0 -0.31867308332327832 -0.25378710081672701 0 -0.30997779029908012 -0.26425488083538479 0 -0.31258572357348707 -0.24620079465722061 0 -0.32217121299208129 -0.25443420877968947 0 -0.32216010565072362 -0.2692770719731577 0 -0.32217121299208129 -0.25443420877968947 0 -0.31867308332327832 -0.25378710081672701 0 -0.32216010565072362 -0.2692770719731577 0 -0.31867308332327832 -0.25378710081672701 0 -0.32215250979866228 -0.27942749315439752 0 -0.30997779029908012 -0.26425488083538479 0 -0.31867308332327832 -0.25378710081672701 0 -0.32215250979866228 -0.27942749315439752 0 -0.31867308332327832 -0.25378710081672701 0 -0.32215250979866228 -0.27942749315439752 0 -0.32216010565072362 -0.2692770719731577 0 -0.32215250979866228 -0.27942749315439752 0 -0.31000848285488408 -0.28087178741051477 0 -0.30997779029908012 -0.26425488083538479 0 -0.32215250979866228 -0.27942749315439752 0 -0.32215033458481768 -0.2823342554880246 0 -0.31000848285488408 -0.28087178741051477 0 -0.32215250979866228 -0.27942749315439752 0 -0.32216010565072362 -0.2692770719731577 0 -0.32215250979866228 -0.27942749315439752 0 -0.32215033458481768 -0.2823342554880246 0 -0.32215250979866228 -0.27942749315439752 0 -0.32216010565072362 -0.2692770719731577 0 -0.34710021197282243 -0.26920604331405268 0 -0.32215250979866228 -0.27942749315439752 0 -0.34710021197282243 -0.26920604331405268 0 -0.32215033458481768 -0.2823342554880246 0 -0.34710021197282243 -0.26920604331405268 0 -0.32215033458481768 -0.2823342554880246 0 -0.34710021197282243 -0.26920604331405268 0 -0.34117531910023169 -0.29153333602334058 0 -0.32215033458481768 -0.2823342554880246 0 -0.32216010565072362 -0.2692770719731577 0 -0.33829816503805671 -0.24422995393675501 0 -0.32216010565072362 -0.2692770719731577 0 -0.34710021197282243 -0.26920604331405268 0 -0.33829816503805671 -0.24422995393675501 0 -0.35038968845556839 -0.2503545795214504 0 -0.34710021197282243 -0.26920604331405268 0 -0.33829816503805671 -0.24422995393675501 0 -0.35038968845556839 -0.2503545795214504 0 -0.34710021197282243 -0.26920604331405268 0 -0.3627033311314895 -0.24973241025013371 0 -0.37167989672784851 -0.25627262037112741 0 -0.34710021197282243 -0.26920604331405268 0 -0.3627033311314895 -0.24973241025013371 0 -0.37167989672784851 -0.25627262037112741 0 -0.34710021197282243 -0.26920604331405268 0 -0.37167989672784851 -0.25627262037112741 0 -0.37367033827505741 -0.25148678553651221 0 -0.3627033311314895 -0.24973241025013371 0 -0.37167989672784851 -0.25627262037112741 0 -0.37367033827505741 -0.25148678553651221 0 -0.37167989672784851 -0.25627262037112741 0 -0.34710021197282243 -0.26920604331405268 0 -0.36116302967452107 -0.28155946627999262 0 -0.3762108453312456 -0.27871096070824458 0 -0.37167989672784851 -0.25627262037112741 0 -0.36116302967452107 -0.28155946627999262 0 -0.37167989672784851 -0.25627262037112741 0 -0.36116302967452107 -0.28155946627999262 0 -0.34710021197282243 -0.26920604331405268 0 -0.36116302967452107 -0.28155946627999262 0 -0.34117531910023169 -0.29153333602334058 0 -0.36116302967452107 -0.28155946627999262 0 -0.35064616262119258 -0.30684631218885722 0 -0.36116302967452107 -0.28155946627999262 0 -0.35064616262119258 -0.30684631218885722 0 -0.34117531910023169 -0.29153333602334058 0 -0.3762108453312456 -0.27871096070824458 0 -0.36116302967452107 -0.28155946627999262 0 -0.36720891156492752 -0.29782595209587509 0 -0.36116302967452107 -0.28155946627999262 0 -0.36720891156492752 -0.29782595209587509 0 -0.35064616262119258 -0.30684631218885722 0 -0.37719615907044179 -0.31201771505523451 0 -0.36720891156492752 -0.29782595209587509 0 -0.35064616262119258 -0.30684631218885722 0 -0.34117531910023169 -0.29153333602334058 0 -0.32542405318954548 -0.3035359652504156 0 -0.33702485707061941 -0.31288841564598219 0 -0.35064616262119258 -0.30684631218885722 0 -0.34117531910023169 -0.29153333602334058 0 -0.33702485707061941 -0.31288841564598219 0 -0.34117531910023169 -0.29153333602334058 0 -0.32215033458481768 -0.2823342554880246 0 -0.32542405318954548 -0.3035359652504156 0 -0.32215033458481768 -0.2823342554880246 0 -0.30433750461683667 -0.29170707153844833 0 -0.32214697007686038 -0.28683028471179278 0 -0.31410615250000468 -0.30007038043574291 0 -0.32542405318954548 -0.3035359652504156 0 -0.32214697007686038 -0.28683028471179278 0 -0.31410615250000468 -0.30007038043574291 0 -0.30433750461683667 -0.29170707153844833 0 -0.32214697007686038 -0.28683028471179278 0 -0.32215033458481768 -0.2823342554880246 0 -0.32542405318954548 -0.3035359652504156 0 -0.32214697007686038 -0.28683028471179278 0 -0.32215033458481768 -0.2823342554880246 0 -0.30433750461683667 -0.29170707153844833 0 -0.32215033458481768 -0.2823342554880246 0 -0.32542405318954548 -0.3035359652504156 0 -0.32214697007686038 -0.28683028471179278 0 -0.32215033458481768 -0.2823342554880246 0 -0.31410615250000468 -0.30007038043574291 0 -0.31789211098228881 -0.31461544700556621 0 -0.30635074561345732 -0.31695621525982293 0 -0.31410615250000468 -0.30007038043574291 0 -0.32542405318954548 -0.3035359652504156 0 -0.31789211098228881 -0.31461544700556621 0 -0.32542405318954548 -0.3035359652504156 0 -0.31789211098228881 -0.31461544700556621 0 -0.32826268447693169 -0.32494127051638938 0 -0.32542405318954548 -0.3035359652504156 0 -0.32826268447693169 -0.32494127051638938 0 -0.31789211098228881 -0.31461544700556621 0 -0.31531691913150439 -0.32757340356546027 0 -0.32826268447693169 -0.32494127051638938 0 -0.31789211098228881 -0.31461544700556621 0 -0.31531691913150439 -0.32757340356546027 0 -0.30635074561345732 -0.31695621525982293 0 -0.3228205582904996 -0.33695961683759101 0 -0.32826268447693169 -0.32494127051638938 0 -0.33208731660970908 -0.3526385083134555 0 -0.31531691913150439 -0.32757340356546027 0 -0.31561531294385309 -0.34268528495505862 0 -0.3228205582904996 -0.33695961683759101 0 -0.31531691913150439 -0.32757340356546027 0 -0.3228205582904996 -0.33695961683759101 0 -0.32826268447693169 -0.32494127051638938 0 -0.32826268447693169 -0.32494127051638938 0 -0.33208731660970908 -0.3526385083134555 0 -0.34012929556786409 -0.33213315809772181 0 -0.32826268447693169 -0.32494127051638938 0 -0.33783524240760548 -0.33764899931507752 0 -0.32826268447693169 -0.32494127051638938 0 -0.33208731660970908 -0.3526385083134555 0 -0.33783524240760548 -0.33764899931507752 0 -0.34012929556786409 -0.33213315809772181 0 -0.32826268447693169 -0.32494127051638938 0 -0.33783524240760548 -0.33764899931507752 0 -0.34012929556786409 -0.33213315809772181 0 -0.32542405318954548 -0.3035359652504156 0 -0.33702485707061941 -0.31288841564598219 0 -0.32826268447693169 -0.32494127051638938 0 -0.34012929556786409 -0.33213315809772181 0 -0.33702485707061941 -0.31288841564598219 0 -0.32826268447693169 -0.32494127051638938 0 -0.35064616262119258 -0.30684631218885722 0 -0.34012929556786409 -0.33213315809772181 0 -0.33702485707061941 -0.31288841564598219 0 -0.35064616262119258 -0.30684631218885722 0 -0.34012929556786409 -0.33213315809772181 0 -0.36424977599548891 -0.32625825939824782 0 -0.35064616262119258 -0.30684631218885722 0 -0.34012929556786409 -0.33213315809772181 0 -0.37719615907044179 -0.31201771505523451 0 -0.35064616262119258 -0.30684631218885722 0 -0.36424977599548891 -0.32625825939824782 0 -0.3798629668396365 -0.32482804654631869 0 -0.37719615907044179 -0.31201771505523451 0 -0.36424977599548891 -0.32625825939824782 0 -0.37819079360169477 -0.33904837211736988 0 -0.36424977599548891 -0.32625825939824782 0 -0.35752460299201172 -0.34267577169468549 0 -0.37819079360169477 -0.33904837211736988 0 -0.3798629668396365 -0.32482804654631869 0 -0.36424977599548891 -0.32625825939824782 0 -0.34012929556786409 -0.33213315809772181 0 -0.35752460299201172 -0.34267577169468549 0 -0.33783524240760548 -0.33764899931507752 0 -0.35752460299201172 -0.34267577169468549 0 -0.34538744137778221 -0.34914180370282999 0 -0.33783524240760548 -0.33764899931507752 0 -0.34012929556786409 -0.33213315809772181 0 -0.35752460299201172 -0.34267577169468549 0 -0.34012929556786409 -0.33213315809772181 0 -0.36424977599548891 -0.32625825939824782 0 -0.35752460299201172 -0.34267577169468549 0 -0.35752460299201172 -0.34267577169468549 0 -0.34538744137778221 -0.34914180370282999 0 -0.35237484667998781 -0.36420071680673688 0 -0.37819079360169477 -0.33904837211736988 0 -0.35752460299201172 -0.34267577169468549 0 -0.37491991041615952 -0.35321838529164901 0 -0.35752460299201172 -0.34267577169468549 0 -0.37491991041615952 -0.35321838529164901 0 -0.35752460299201172 -0.34267577169468549 0 -0.37491991041615952 -0.35321838529164901 0 -0.35237484667998781 -0.36420071680673688 0 -0.38093996207336889 -0.36714747753266519 0 -0.37491991041615952 -0.35321838529164901 0 -0.36863989712025741 -0.38042445352763138 0 -0.37491991041615952 -0.35321838529164901 0 -0.36863989712025741 -0.38042445352763138 0 -0.37491991041615952 -0.35321838529164901 0 -0.35237484667998781 -0.36420071680673688 0 -0.36863989712025741 -0.38042445352763138 0 -0.33208731660970908 -0.3526385083134555 0 -0.31868242348725911 -0.37052796873382299 0 -0.33584705405812221 -0.3803445523830587 0 -0.35237484667998781 -0.36420071680673688 0 -0.33208731660970908 -0.3526385083134555 0 -0.33584705405812221 -0.3803445523830587 0 -0.33208731660970908 -0.3526385083134555 0 -0.33584705405812221 -0.3803445523830587 0 -0.34538744137778221 -0.34914180370282999 0 -0.35237484667998781 -0.36420071680673688 0 -0.33208731660970908 -0.3526385083134555 0 -0.33783524240760548 -0.33764899931507752 0 -0.34538744137778221 -0.34914180370282999 0 -0.33208731660970908 -0.3526385083134555 0 -0.31561531294385309 -0.34268528495505862 0 -0.33208731660970908 -0.3526385083134555 0 -0.31422729749953149 -0.35685687261487298 0 -0.31561531294385309 -0.34268528495505862 0 -0.3228205582904996 -0.33695961683759101 0 -0.33208731660970908 -0.3526385083134555 0 -0.33208731660970908 -0.3526385083134555 0 -0.31422729749953149 -0.35685687261487298 0 -0.31868242348725911 -0.37052796873382299 0 -0.31422729749953149 -0.35685687261487298 0 -0.31868242348725911 -0.37052796873382299 0 -0.30275996053215831 -0.3665329042913868 0 -0.31868242348725911 -0.37052796873382299 0 -0.30275996053215831 -0.3665329042913868 0 -0.30919573188590821 -0.38567980327496681 0 -0.31422729749953149 -0.35685687261487298 0 -0.30275996053215831 -0.3665329042913868 0 -0.30213839958074729 -0.34969402953243811 0 -0.31561531294385309 -0.34268528495505862 0 -0.31422729749953149 -0.35685687261487298 0 -0.30213839958074729 -0.34969402953243811 0 -0.30275996053215831 -0.3665329042913868 0 -0.30213839958074729 -0.34969402953243811 0 -0.28211155982915709 -0.35456281667167 0 -0.30213839958074729 -0.34969402953243811 0 -0.28211155982915709 -0.35456281667167 0 -0.29305350780738743 -0.33703390206723471 0 -0.30275996053215831 -0.3665329042913868 0 -0.28211155982915709 -0.35456281667167 0 -0.28984414950446341 -0.38084723950316601 0 -0.28211155982915709 -0.35456281667167 0 -0.2702172579421101 -0.37459206478479767 0 -0.28984414950446341 -0.38084723950316601 0 -0.28211155982915709 -0.35456281667167 0 -0.2702172579421101 -0.37459206478479767 0 -0.26570149180532548 -0.3562060601892138 0 -0.2702172579421101 -0.37459206478479767 0 -0.2524325929932697 -0.36239213815041132 0 -0.26570149180532548 -0.3562060601892138 0 -0.2702172579421101 -0.37459206478479767 0 -0.2524325929932697 -0.36239213815041132 0 -0.2440125419064042 -0.37989641923614048 0 -0.2524325929932697 -0.36239213815041132 0 -0.25178814730042742 -0.34428927636418571 0 -0.26570149180532548 -0.3562060601892138 0 -0.25178814730042742 -0.34428927636418571 0 -0.26570149180532548 -0.3562060601892138 0 -0.26652000185485009 -0.34142815004643401 0 -0.28211155982915709 -0.35456281667167 0 -0.26570149180532548 -0.3562060601892138 0 -0.26652000185485009 -0.34142815004643401 0 -0.28211155982915709 -0.35456281667167 0 -0.2795759959516389 -0.3389697766418075 0 -0.26652000185485009 -0.34142815004643401 0 -0.2795759959516389 -0.3389697766418075 0 -0.27070710544586241 -0.32928325887821869 0 -0.28267301209246032 -0.32709305388928062 0 -0.2795759959516389 -0.3389697766418075 0 -0.27070710544586241 -0.32928325887821869 0 -0.26652000185485009 -0.34142815004643401 0 -0.25178814730042742 -0.34428927636418571 0 -0.26652000185485009 -0.34142815004643401 0 -0.25866175722663598 -0.33255465875843171 0 -0.27070710544586241 -0.32928325887821869 0 -0.26652000185485009 -0.34142815004643401 0 -0.25866175722663598 -0.33255465875843171 0 -0.27070710544586241 -0.32928325887821869 0 -0.25866175722663598 -0.33255465875843171 0 -0.26239338119919781 -0.32405676094116809 0 -0.25866175722663598 -0.33255465875843171 0 -0.25390682657738312 -0.32645758333369929 0 -0.24819641634333209 -0.33199188044070538 0 -0.25178814730042742 -0.34428927636418571 0 -0.25866175722663598 -0.33255465875843171 0 -0.24819641634333209 -0.33199188044070538 0 -0.25597022341668191 -0.31987087985855389 0 -0.25275742533580808 -0.31607509636174619 0 -0.2475039738205797 -0.32151826324637461 0 -0.25275742533580808 -0.31607509636174619 0 -0.25604501612508368 -0.31225133793710769 0 -0.24796026642219021 -0.31462946628777722 0 -0.25597022341668191 -0.31987087985855389 0 -0.25275742533580808 -0.31607509636174619 0 -0.25604501612508368 -0.31225133793710769 0 -0.25597022341668191 -0.31987087985855389 0 -0.25390682657738312 -0.32645758333369929 0 -0.26239338119919781 -0.32405676094116809 0 -0.25597022341668191 -0.31987087985855389 0 -0.25390682657738312 -0.32645758333369929 0 -0.2475039738205797 -0.32151826324637461 0 -0.25866175722663598 -0.33255465875843171 0 -0.25390682657738312 -0.32645758333369929 0 -0.26239338119919781 -0.32405676094116809 0 -0.25597022341668191 -0.31987087985855389 0 -0.26239338119919781 -0.32405676094116809 0 -0.26310885577606852 -0.31636759619270988 0 -0.26310885577606852 -0.31636759619270988 0 -0.26296448035662018 -0.31133995515404811 0 -0.25604501612508368 -0.31225133793710769 0 -0.25597022341668191 -0.31987087985855389 0 -0.26310885577606852 -0.31636759619270988 0 -0.25604501612508368 -0.31225133793710769 0 -0.26310885577606852 -0.31636759619270988 0 -0.26871184468087728 -0.31045270363930111 0 -0.26296448035662018 -0.31133995515404811 0 -0.27267043940245289 -0.31932836499554879 0 -0.2781600136492785 -0.31153599325653197 0 -0.26871184468087728 -0.31045270363930111 0 -0.26239338119919781 -0.32405676094116809 0 -0.26310885577606852 -0.31636759619270988 0 -0.27267043940245289 -0.31932836499554879 0 -0.26310885577606852 -0.31636759619270988 0 -0.27267043940245289 -0.31932836499554879 0 -0.26871184468087728 -0.31045270363930111 0 -0.27070710544586241 -0.32928325887821869 0 -0.26239338119919781 -0.32405676094116809 0 -0.27267043940245289 -0.31932836499554879 0 -0.27070710544586241 -0.32928325887821869 0 -0.27267043940245289 -0.31932836499554879 0 -0.28267301209246032 -0.32709305388928062 0 -0.27267043940245289 -0.31932836499554879 0 -0.28473309586492679 -0.31528301680240339 0 -0.28267301209246032 -0.32709305388928062 0 -0.27267043940245289 -0.31932836499554879 0 -0.28473309586492679 -0.31528301680240339 0 -0.2781600136492785 -0.31153599325653197 0 -0.28473309586492679 -0.31528301680240339 0 -0.29529792808249361 -0.32266000395047062 0 -0.29937228408188071 -0.30593270694159191 0 -0.28473309586492679 -0.31528301680240339 0 -0.29529792808249361 -0.32266000395047062 0 -0.28267301209246032 -0.32709305388928062 0 -0.2795759959516389 -0.3389697766418075 0 -0.28267301209246032 -0.32709305388928062 0 -0.29305350780738743 -0.33703390206723471 0 -0.28211155982915709 -0.35456281667167 0 -0.2795759959516389 -0.3389697766418075 0 -0.29305350780738743 -0.33703390206723471 0 -0.29529792808249361 -0.32266000395047062 0 -0.28267301209246032 -0.32709305388928062 0 -0.29305350780738743 -0.33703390206723471 0 -0.30213839958074729 -0.34969402953243811 0 -0.29305350780738743 -0.33703390206723471 0 -0.30491953234552432 -0.33331524556219322 0 -0.31561531294385309 -0.34268528495505862 0 -0.30213839958074729 -0.34969402953243811 0 -0.30491953234552432 -0.33331524556219322 0 -0.29529792808249361 -0.32266000395047062 0 -0.29305350780738743 -0.33703390206723471 0 -0.30491953234552432 -0.33331524556219322 0 -0.31531691913150439 -0.32757340356546027 0 -0.31561531294385309 -0.34268528495505862 0 -0.30491953234552432 -0.33331524556219322 0 -0.29529792808249361 -0.32266000395047062 0 -0.30491953234552432 -0.33331524556219322 0 -0.30635074561345732 -0.31695621525982293 0 -0.31531691913150439 -0.32757340356546027 0 -0.30491953234552432 -0.33331524556219322 0 -0.30635074561345732 -0.31695621525982293 0 -0.29529792808249361 -0.32266000395047062 0 -0.30635074561345732 -0.31695621525982293 0 -0.29937228408188071 -0.30593270694159191 0 -0.31410615250000468 -0.30007038043574291 0 -0.30635074561345732 -0.31695621525982293 0 -0.29937228408188071 -0.30593270694159191 0 -0.31410615250000468 -0.30007038043574291 0 -0.29937228408188071 -0.30593270694159191 0 -0.30433750461683667 -0.29170707153844833 0 -0.32215033458481768 -0.2823342554880246 0 -0.30433750461683667 -0.29170707153844833 0 -0.31000848285488408 -0.28087178741051477 0 -0.30433750461683667 -0.29170707153844833 0 -0.29304890711061399 -0.28262806119123018 0 -0.31000848285488408 -0.28087178741051477 0 -0.29304890711061399 -0.28262806119123018 0 -0.27950951050484502 -0.289636958714519 0 -0.27641893600504608 -0.27602358371584002 0 -0.29304890711061399 -0.28262806119123018 0 -0.286524674648857 -0.30107988758887472 0 -0.27950951050484502 -0.289636958714519 0 -0.30433750461683667 -0.29170707153844833 0 -0.29304890711061399 -0.28262806119123018 0 -0.286524674648857 -0.30107988758887472 0 -0.30433750461683667 -0.29170707153844833 0 -0.286524674648857 -0.30107988758887472 0 -0.29937228408188071 -0.30593270694159191 0 -0.30433750461683667 -0.29170707153844833 0 -0.286524674648857 -0.30107988758887472 0 -0.28473309586492679 -0.31528301680240339 0 -0.29937228408188071 -0.30593270694159191 0 -0.286524674648857 -0.30107988758887472 0 -0.28473309586492679 -0.31528301680240339 0 -0.286524674648857 -0.30107988758887472 0 -0.2781600136492785 -0.31153599325653197 0 -0.286524674648857 -0.30107988758887472 0 -0.26871184468087728 -0.31045270363930111 0 -0.286524674648857 -0.30107988758887472 0 -0.2781600136492785 -0.31153599325653197 0 -0.26871184468087728 -0.31045270363930111 0 -0.286524674648857 -0.30107988758887472 0 -0.27364563681470128 -0.30010461298092123 0 -0.26871184468087728 -0.31045270363930111 0 -0.286524674648857 -0.30107988758887472 0 -0.27364563681470128 -0.30010461298092123 0 -0.27950951050484502 -0.289636958714519 0 -0.27364563681470128 -0.30010461298092123 0 -0.26781945452627159 -0.30427781741775339 0 -0.2649281317650567 -0.30026577020371792 0 -0.27364563681470128 -0.30010461298092123 0 -0.2649281317650567 -0.30026577020371792 0 -0.26753587329328082 -0.29040429985163813 0 -0.27364563681470128 -0.30010461298092123 0 -0.26781945452627159 -0.30427781741775339 0 -0.26871184468087728 -0.31045270363930111 0 -0.26781945452627159 -0.30427781741775339 0 -0.26871184468087728 -0.31045270363930111 0 -0.26399220484445129 -0.30628818284707371 0 -0.26871184468087728 -0.31045270363930111 0 -0.26296448035662018 -0.31133995515404811 0 -0.26399220484445129 -0.30628818284707371 0 -0.26399220484445129 -0.30628818284707371 0 -0.25604501612508368 -0.31225133793710769 0 -0.23813643731406919 -0.31293775671068769 0 -0.26399220484445129 -0.30628818284707371 0 -0.2556584030007607 -0.30328163000246061 0 -0.23813643731406919 -0.31293775671068769 0 -0.26399220484445129 -0.30628818284707371 0 -0.23813643731406919 -0.31293775671068769 0 -0.26296448035662018 -0.31133995515404811 0 -0.26399220484445129 -0.30628818284707371 0 -0.25604501612508368 -0.31225133793710769 0 -0.26781945452627159 -0.30427781741775339 0 -0.26399220484445129 -0.30628818284707371 0 -0.2649281317650567 -0.30026577020371792 0 -0.26399220484445129 -0.30628818284707371 0 -0.2649281317650567 -0.30026577020371792 0 -0.2556584030007607 -0.30328163000246061 0 -0.2649281317650567 -0.30026577020371792 0 -0.2556584030007607 -0.30328163000246061 0 -0.25936006694350539 -0.29657320145773991 0 -0.25001168909301708 -0.30057752097653467 0 -0.2556584030007607 -0.30328163000246061 0 -0.25936006694350539 -0.29657320145773991 0 -0.25464423063513009 -0.28843416517731169 0 -0.26753587329328082 -0.29040429985163813 0 -0.26019740639501338 -0.27356252251881252 0 -0.25001168909301708 -0.30057752097653467 0 -0.25464423063513009 -0.28843416517731169 0 -0.25936006694350539 -0.29657320145773991 0 -0.25464423063513009 -0.28843416517731169 0 -0.25936006694350539 -0.29657320145773991 0 -0.26753587329328082 -0.29040429985163813 0 -0.2649281317650567 -0.30026577020371792 0 -0.25936006694350539 -0.29657320145773991 0 -0.26753587329328082 -0.29040429985163813 0 -0.27364563681470128 -0.30010461298092123 0 -0.26753587329328082 -0.29040429985163813 0 -0.27950951050484502 -0.289636958714519 0 -0.26753587329328082 -0.29040429985163813 0 -0.27950951050484502 -0.289636958714519 0 -0.27641893600504608 -0.27602358371584002 0 -0.27641893600504608 -0.27602358371584002 0 -0.26019740639501338 -0.27356252251881252 0 -0.26770346747418677 -0.25928916750627601 0 -0.26753587329328082 -0.29040429985163813 0 -0.27641893600504608 -0.27602358371584002 0 -0.26019740639501338 -0.27356252251881252 0 -0.27641893600504608 -0.27602358371584002 0 -0.26770346747418677 -0.25928916750627601 0 -0.28007145099645059 -0.26346989511416508 0 -0.26019740639501338 -0.27356252251881252 0 -0.24427302006970211 -0.26157178666814868 0 -0.24625083453410199 -0.27824681512846489 0 -0.25464423063513009 -0.28843416517731169 0 -0.26019740639501338 -0.27356252251881252 0 -0.24625083453410199 -0.27824681512846489 0 -0.26770346747418677 -0.25928916750627601 0 -0.24427302006970211 -0.26157178666814868 0 -0.25883125425809528 -0.24231024443891411 0 -0.24427302006970211 -0.26157178666814868 0 -0.25883125425809528 -0.24231024443891411 0 -0.26019740639501338 -0.27356252251881252 0 -0.26770346747418677 -0.25928916750627601 0 -0.24427302006970211 -0.26157178666814868 0 -0.26770346747418677 -0.25928916750627601 0 -0.27362796391945138 -0.24879504023949131 0 -0.25883125425809528 -0.24231024443891411 0 -0.28007145099645059 -0.26346989511416508 0 -0.28518716776289688 -0.25145844467286299 0 -0.27362796391945138 -0.24879504023949131 0 -0.26770346747418677 -0.25928916750627601 0 -0.28007145099645059 -0.26346989511416508 0 -0.27362796391945138 -0.24879504023949131 0 -0.28518716776289688 -0.25145844467286299 0 -0.29979584939405929 -0.2535686853433215 0 -0.29304378587810098 -0.24519285983212741 0 -0.28518716776289688 -0.25145844467286299 0 -0.2920215836859501 -0.26650000491773662 0 -0.29979584939405929 -0.2535686853433215 0 -0.28007145099645059 -0.26346989511416508 0 -0.28518716776289688 -0.25145844467286299 0 -0.2920215836859501 -0.26650000491773662 0 -0.27641893600504608 -0.27602358371584002 0 -0.28007145099645059 -0.26346989511416508 0 -0.2920215836859501 -0.26650000491773662 0 -0.29304890711061399 -0.28262806119123018 0 -0.2920215836859501 -0.26650000491773662 0 -0.30188009293224299 -0.27308047584861611 0 -0.29304890711061399 -0.28262806119123018 0 -0.27641893600504608 -0.27602358371584002 0 -0.2920215836859501 -0.26650000491773662 0 -0.2920215836859501 -0.26650000491773662 0 -0.30188009293224299 -0.27308047584861611 0 -0.30997779029908012 -0.26425488083538479 0 -0.29304890711061399 -0.28262806119123018 0 -0.30188009293224299 -0.27308047584861611 0 -0.31000848285488408 -0.28087178741051477 0 -0.30188009293224299 -0.27308047584861611 0 -0.31000848285488408 -0.28087178741051477 0 -0.30997779029908012 -0.26425488083538479 0 -0.30997779029908012 -0.26425488083538479 0 -0.29979584939405929 -0.2535686853433215 0 -0.31258572357348707 -0.24620079465722061 0 -0.30997779029908012 -0.26425488083538479 0 -0.31258572357348707 -0.24620079465722061 0 -0.2920215836859501 -0.26650000491773662 0 -0.30997779029908012 -0.26425488083538479 0 -0.29979584939405929 -0.2535686853433215 0 -0.33627525945958131 -0.45769363829847892 0 -0.32790797676483657 -0.44899542315262542 0 -0.32814814672229009 -0.46934670123877692 0 -0.33627525945958131 -0.45769363829847892 0 -0.32814814672229009 -0.46934670123877692 0 -0.34979985723254858 -0.46204265823557839 0 -0.32814814672229009 -0.46934670123877692 0 -0.34979985723254858 -0.46204265823557839 0 -0.33627525945958131 -0.45769363829847892 0 -0.34230358286924861 -0.4481455212111784 0 -0.34979985723254858 -0.46204265823557839 0 -0.32790797676483657 -0.44899542315262542 0 -0.34336652895494829 -0.43575664052226498 0 -0.32526648882920139 -0.43245218198156171 0 -0.34230358286924861 -0.4481455212111784 0 -0.32790797676483657 -0.44899542315262542 0 -0.34336652895494829 -0.43575664052226498 0 -0.33627525945958131 -0.45769363829847892 0 -0.34230358286924861 -0.4481455212111784 0 -0.32790797676483657 -0.44899542315262542 0 -0.31547361382360067 -0.44168444969351778 0 -0.32790797676483657 -0.44899542315262542 0 -0.32526648882920139 -0.43245218198156171 0 -0.31547361382360067 -0.44168444969351778 0 -0.32790797676483657 -0.44899542315262542 0 -0.31160745101047999 -0.4611825090011738 0 -0.32790797676483657 -0.44899542315262542 0 -0.32814814672229009 -0.46934670123877692 0 -0.31160745101047999 -0.4611825090011738 0 -0.32679768948130999 -0.48541226257266951 0 -0.34706674106729751 -0.5 0 -0.30063881679268922 -0.5 0 -0.32679768948130999 -0.48541226257266951 0 -0.32814814672229009 -0.46934670123877692 0 -0.31194947799049277 -0.48001293440087373 0 -0.32814814672229009 -0.46934670123877692 0 -0.31160745101047999 -0.4611825090011738 0 -0.31194947799049277 -0.48001293440087373 0 -0.32679768948130999 -0.48541226257266951 0 -0.30063881679268922 -0.5 0 -0.31194947799049277 -0.48001293440087373 0 -0.32679768948130999 -0.48541226257266951 0 -0.34618526483378043 -0.47770167722369677 0 -0.34706674106729751 -0.5 0 -0.32679768948130999 -0.48541226257266951 0 -0.32814814672229009 -0.46934670123877692 0 -0.34618526483378043 -0.47770167722369677 0 -0.32814814672229009 -0.46934670123877692 0 -0.34618526483378043 -0.47770167722369677 0 -0.34979985723254858 -0.46204265823557839 0 -0.3584217612361652 -0.4702414269198345 0 -0.34618526483378043 -0.47770167722369677 0 -0.34979985723254858 -0.46204265823557839 0 -0.3584217612361652 -0.4702414269198345 0 -0.34618526483378043 -0.47770167722369677 0 -0.36941405988811121 -0.47850166055742371 0 -0.34618526483378043 -0.47770167722369677 0 -0.34979985723254858 -0.46204265823557839 0 -0.34618526483378043 -0.47770167722369677 0 -0.34706674106729751 -0.5 0 -0.36941405988811121 -0.47850166055742371 0 -0.38258409246157993 -0.45970958420396663 0 -0.36941405988811121 -0.47850166055742371 0 -0.36989399782307791 -0.45526404982419771 0 -0.36989399782307791 -0.45526404982419771 0 -0.34979985723254858 -0.46204265823557839 0 -0.36266355272216821 -0.44728764262264942 0 -0.36989399782307791 -0.45526404982419771 0 -0.34979985723254858 -0.46204265823557839 0 -0.3584217612361652 -0.4702414269198345 0 -0.36941405988811121 -0.47850166055742371 0 -0.36989399782307791 -0.45526404982419771 0 -0.3584217612361652 -0.4702414269198345 0 -0.36989399782307791 -0.45526404982419771 0 -0.34979985723254858 -0.46204265823557839 0 -0.34979985723254858 -0.46204265823557839 0 -0.35607987052845208 -0.43483658999959618 0 -0.34230358286924861 -0.4481455212111784 0 -0.34979985723254858 -0.46204265823557839 0 -0.35607987052845208 -0.43483658999959618 0 -0.34979985723254858 -0.46204265823557839 0 -0.36266355272216821 -0.44728764262264942 0 -0.35607987052845208 -0.43483658999959618 0 -0.34230358286924861 -0.4481455212111784 0 -0.35607987052845208 -0.43483658999959618 0 -0.34336652895494829 -0.43575664052226498 0 -0.36989399782307791 -0.45526404982419771 0 -0.36266355272216821 -0.44728764262264942 0 -0.37488048530459422 -0.43700727243122528 0 -0.36266355272216821 -0.44728764262264942 0 -0.37488048530459422 -0.43700727243122528 0 -0.35607987052845208 -0.43483658999959618 0 -0.37488048530459422 -0.43700727243122528 0 -0.3720968394384 -0.42320741441149762 0 -0.35607987052845208 -0.43483658999959618 0 -0.3720968394384 -0.42320741441149762 0 -0.3623598838243548 -0.4076305217636137 0 -0.35607987052845208 -0.43483658999959618 0 -0.3769664123283914 -0.4109003045795378 0 -0.3720968394384 -0.42320741441149762 0 -0.3623598838243548 -0.4076305217636137 0 -0.3623598838243548 -0.4076305217636137 0 -0.34987613153425451 -0.42138528482706078 0 -0.33960679150653528 -0.4080505964526619 0 -0.3623598838243548 -0.4076305217636137 0 -0.34987613153425451 -0.42138528482706078 0 -0.35607987052845208 -0.43483658999959618 0 -0.34987613153425451 -0.42138528482706078 0 -0.34336652895494829 -0.43575664052226498 0 -0.33960679150653528 -0.4080505964526619 0 -0.3623598838243548 -0.4076305217636137 0 -0.35607987052845208 -0.43483658999959618 0 -0.34987613153425451 -0.42138528482706078 0 -0.35607987052845208 -0.43483658999959618 0 -0.34336652895494829 -0.43575664052226498 0 -0.37913170969305299 -0.38884127204369368 0 -0.36863989712025741 -0.38042445352763138 0 -0.37469442256259078 -0.39815904361029281 0 -0.3623598838243548 -0.4076305217636137 0 -0.36863989712025741 -0.38042445352763138 0 -0.35221770418587212 -0.39096154273384898 0 -0.3623598838243548 -0.4076305217636137 0 -0.36863989712025741 -0.38042445352763138 0 -0.37469442256259078 -0.39815904361029281 0 -0.3623598838243548 -0.4076305217636137 0 -0.36863989712025741 -0.38042445352763138 0 -0.3769664123283914 -0.4109003045795378 0 -0.3623598838243548 -0.4076305217636137 0 -0.37469442256259078 -0.39815904361029281 0 -0.3623598838243548 -0.4076305217636137 0 -0.35221770418587212 -0.39096154273384898 0 -0.33960679150653528 -0.4080505964526619 0 -0.35237484667998781 -0.36420071680673688 0 -0.35221770418587212 -0.39096154273384898 0 -0.33584705405812221 -0.3803445523830587 0 -0.35237484667998781 -0.36420071680673688 0 -0.36863989712025741 -0.38042445352763138 0 -0.35221770418587212 -0.39096154273384898 0 -0.33584705405812221 -0.3803445523830587 0 -0.31727750771156732 -0.40358854374038061 0 -0.33960679150653528 -0.4080505964526619 0 -0.33584705405812221 -0.3803445523830587 0 -0.33960679150653528 -0.4080505964526619 0 -0.35221770418587212 -0.39096154273384898 0 -0.33584705405812221 -0.3803445523830587 0 -0.33960679150653528 -0.4080505964526619 0 -0.33584705405812221 -0.3803445523830587 0 -0.31727750771156732 -0.40358854374038061 0 -0.30919573188590821 -0.38567980327496681 0 -0.31868242348725911 -0.37052796873382299 0 -0.33584705405812221 -0.3803445523830587 0 -0.30919573188590821 -0.38567980327496681 0 -0.34336652895494829 -0.43575664052226498 0 -0.32638060474683872 -0.4177759530185593 0 -0.32526648882920139 -0.43245218198156171 0 -0.34336652895494829 -0.43575664052226498 0 -0.33960679150653528 -0.4080505964526619 0 -0.34336652895494829 -0.43575664052226498 0 -0.33960679150653528 -0.4080505964526619 0 -0.32638060474683872 -0.4177759530185593 0 -0.31727750771156732 -0.40358854374038061 0 -0.32638060474683872 -0.4177759530185593 0 -0.30769916900080752 -0.42459658622587682 0 -0.31727750771156732 -0.40358854374038061 0 -0.33960679150653528 -0.4080505964526619 0 -0.32638060474683872 -0.4177759530185593 0 -0.31547361382360067 -0.44168444969351778 0 -0.32526648882920139 -0.43245218198156171 0 -0.30769916900080752 -0.42459658622587682 0 -0.32638060474683872 -0.4177759530185593 0 -0.32526648882920139 -0.43245218198156171 0 -0.30769916900080752 -0.42459658622587682 0 -0.31547361382360067 -0.44168444969351778 0 -0.30769916900080752 -0.42459658622587682 0 -0.30145814628253143 -0.44481961317121033 0 -0.30769916900080752 -0.42459658622587682 0 -0.28582428600794019 -0.43614526124727909 0 -0.30145814628253143 -0.44481961317121033 0 -0.30769916900080752 -0.42459658622587682 0 -0.28648936026143201 -0.41922135547857081 0 -0.29744572699821192 -0.40306547602939963 0 -0.31727750771156732 -0.40358854374038061 0 -0.30769916900080752 -0.42459658622587682 0 -0.29744572699821192 -0.40306547602939963 0 -0.28648936026143201 -0.41922135547857081 0 -0.29744572699821192 -0.40306547602939963 0 -0.27733465983923478 -0.40065037196677539 0 -0.30769916900080752 -0.42459658622587682 0 -0.28648936026143201 -0.41922135547857081 0 -0.28582428600794019 -0.43614526124727909 0 -0.30919573188590821 -0.38567980327496681 0 -0.29744572699821192 -0.40306547602939963 0 -0.28984414950446341 -0.38084723950316601 0 -0.30275996053215831 -0.3665329042913868 0 -0.30919573188590821 -0.38567980327496681 0 -0.28984414950446341 -0.38084723950316601 0 -0.31727750771156732 -0.40358854374038061 0 -0.30919573188590821 -0.38567980327496681 0 -0.29744572699821192 -0.40306547602939963 0 -0.29744572699821192 -0.40306547602939963 0 -0.28984414950446341 -0.38084723950316601 0 -0.27733465983923478 -0.40065037196677539 0 -0.2702172579421101 -0.37459206478479767 0 -0.28984414950446341 -0.38084723950316601 0 -0.27733465983923478 -0.40065037196677539 0 -0.2702172579421101 -0.37459206478479767 0 -0.27733465983923478 -0.40065037196677539 0 -0.25507406669576571 -0.3994661597393776 0 -0.2702172579421101 -0.37459206478479767 0 -0.25507406669576571 -0.3994661597393776 0 -0.2440125419064042 -0.37989641923614048 0 -0.28648936026143201 -0.41922135547857081 0 -0.28582428600794019 -0.43614526124727909 0 -0.26469731725901491 -0.42792406329103699 0 -0.28582428600794019 -0.43614526124727909 0 -0.26469731725901491 -0.42792406329103699 0 -0.2656249499718184 -0.44801529941311707 0 -0.27733465983923478 -0.40065037196677539 0 -0.25507406669576571 -0.3994661597393776 0 -0.26469731725901491 -0.42792406329103699 0 -0.28648936026143201 -0.41922135547857081 0 -0.27733465983923478 -0.40065037196677539 0 -0.26469731725901491 -0.42792406329103699 0 -0.25507406669576571 -0.3994661597393776 0 -0.26469731725901491 -0.42792406329103699 0 -0.24060555723141649 -0.41658862585932188 0 -0.26469731725901491 -0.42792406329103699 0 -0.24688897737010099 -0.43867593833793961 0 -0.24060555723141649 -0.41658862585932188 0 -0.26469731725901491 -0.42792406329103699 0 -0.2656249499718184 -0.44801529941311707 0 -0.24688897737010099 -0.43867593833793961 0 -0.2656249499718184 -0.44801529941311707 0 -0.24688897737010099 -0.43867593833793961 0 -0.24023016236454309 -0.46293270078912058 0 -0.2656249499718184 -0.44801529941311707 0 -0.26778223569959358 -0.4701167690124548 0 -0.24023016236454309 -0.46293270078912058 0 -0.2656249499718184 -0.44801529941311707 0 -0.28377859297516761 -0.45172957552927989 0 -0.26778223569959358 -0.4701167690124548 0 -0.28582428600794019 -0.43614526124727909 0 -0.2656249499718184 -0.44801529941311707 0 -0.28377859297516761 -0.45172957552927989 0 -0.28582428600794019 -0.43614526124727909 0 -0.28377859297516761 -0.45172957552927989 0 -0.30145814628253143 -0.44481961317121033 0 -0.28377859297516761 -0.45172957552927989 0 -0.2934310307445897 -0.46350490943055722 0 -0.26778223569959358 -0.4701167690124548 0 -0.28377859297516761 -0.45172957552927989 0 -0.2934310307445897 -0.46350490943055722 0 -0.30145814628253143 -0.44481961317121033 0 -0.2934310307445897 -0.46350490943055722 0 -0.31160745101047999 -0.4611825090011738 0 -0.30145814628253143 -0.44481961317121033 0 -0.2934310307445897 -0.46350490943055722 0 -0.31160745101047999 -0.4611825090011738 0 -0.2893289783429534 -0.48059125450058571 0 -0.31547361382360067 -0.44168444969351778 0 -0.31160745101047999 -0.4611825090011738 0 -0.30145814628253143 -0.44481961317121033 0 -0.30063881679268922 -0.5 0 -0.2893289783429534 -0.48059125450058571 0 -0.26705050567542749 -0.49999999999999839 0 -0.30063881679268922 -0.5 0 -0.31194947799049277 -0.48001293440087373 0 -0.2893289783429534 -0.48059125450058571 0 -0.31160745101047999 -0.4611825090011738 0 -0.31194947799049277 -0.48001293440087373 0 -0.2893289783429534 -0.48059125450058571 0 -0.31160745101047999 -0.4611825090011738 0 -0.2893289783429534 -0.48059125450058571 0 -0.2934310307445897 -0.46350490943055722 0 -0.2893289783429534 -0.48059125450058571 0 -0.26778223569959358 -0.4701167690124548 0 -0.2893289783429534 -0.48059125450058571 0 -0.26705050567542749 -0.49999999999999839 0 -0.2893289783429534 -0.48059125450058571 0 -0.26705050567542749 -0.49999999999999839 0 -0.26778223569959358 -0.4701167690124548 0 -0.26705050567542749 -0.49999999999999839 0 -0.26778223569959358 -0.4701167690124548 0 -0.24655346615070631 -0.48153009508571482 0 -0.26778223569959358 -0.4701167690124548 0 -0.24655346615070631 -0.48153009508571482 0 -0.24023016236454309 -0.46293270078912058 0 -0.26705050567542749 -0.49999999999999839 0 -0.23947449207693011 -0.5 0 -0.24655346615070631 -0.48153009508571482 0 -0.23947449207693011 -0.5 0 -0.24655346615070631 -0.48153009508571482 0 -0.2258511172564153 -0.48494212285525462 0 -0.24655346615070631 -0.48153009508571482 0 -0.2258511172564153 -0.48494212285525462 0 -0.24023016236454309 -0.46293270078912058 0 -0.2258511172564153 -0.48494212285525462 0 -0.24023016236454309 -0.46293270078912058 0 -0.21499812654834161 -0.46700965391592808 0 -0.23947449207693011 -0.5 0 -0.2258511172564153 -0.48494212285525462 0 -0.2118984784784326 -0.5 0 -0.24688897737010099 -0.43867593833793961 0 -0.24023016236454309 -0.46293270078912058 0 -0.22334849094808079 -0.44334622139537899 0 -0.24688897737010099 -0.43867593833793961 0 -0.22334849094808079 -0.44334622139537899 0 -0.23310580098801079 -0.43133616533429242 0 -0.24023016236454309 -0.46293270078912058 0 -0.22334849094808079 -0.44334622139537899 0 -0.21499812654834161 -0.46700965391592808 0 -0.22334849094808079 -0.44334622139537899 0 -0.21499812654834161 -0.46700965391592808 0 -0.20132084844143749 -0.44803709072853071 0 -0.21499812654834161 -0.46700965391592808 0 -0.19551979712121911 -0.46410208621503762 0 -0.20132084844143749 -0.44803709072853071 0 -0.19551979712121911 -0.46410208621503762 0 -0.20132084844143749 -0.44803709072853071 0 -0.1749889768343342 -0.4474666467034904 0 -0.20132084844143749 -0.44803709072853071 0 -0.1822184339172041 -0.42881913224379842 0 -0.2258511172564153 -0.48494212285525462 0 -0.2118984784784326 -0.5 0 -0.20290025811704601 -0.48439034231366002 0 -0.2258511172564153 -0.48494212285525462 0 -0.21499812654834161 -0.46700965391592808 0 -0.20290025811704601 -0.48439034231366002 0 -0.21499812654834161 -0.46700965391592808 0 -0.19551979712121911 -0.46410208621503762 0 -0.20290025811704601 -0.48439034231366002 0 -0.19551979712121911 -0.46410208621503762 0 -0.20290025811704601 -0.48439034231366002 0 -0.183390775664936 -0.47360669741357891 0 -0.2118984784784326 -0.5 0 -0.20290025811704601 -0.48439034231366002 0 -0.19179257449553769 -0.5 0 -0.20290025811704601 -0.48439034231366002 0 -0.19179257449553769 -0.5 0 -0.183390775664936 -0.47360669741357891 0 -0.19179257449553769 -0.5 0 -0.183390775664936 -0.47360669741357891 0 -0.1843224648799352 -0.5 0 -0.16817815111704071 -0.48231638280880101 0 -0.183390775664936 -0.47360669741357891 0 -0.19179257449553769 -0.5 0 -0.1843224648799352 -0.5 0 -0.183390775664936 -0.47360669741357891 0 -0.1843224648799352 -0.5 0 -0.1567464512814378 -0.5 0 -0.16817815111704071 -0.48231638280880101 0 -0.16817815111704071 -0.48231638280880101 0 -0.183390775664936 -0.47360669741357891 0 -0.16292893021386121 -0.46114293628385639 0 -0.1567464512814378 -0.5 0 -0.16817815111704071 -0.48231638280880101 0 -0.14949069397166201 -0.47042309090129869 0 -0.16817815111704071 -0.48231638280880101 0 -0.16292893021386121 -0.46114293628385639 0 -0.14949069397166201 -0.47042309090129869 0 -0.19551979712121911 -0.46410208621503762 0 -0.183390775664936 -0.47360669741357891 0 -0.1749889768343342 -0.4474666467034904 0 -0.183390775664936 -0.47360669741357891 0 -0.1749889768343342 -0.4474666467034904 0 -0.183390775664936 -0.47360669741357891 0 -0.1749889768343342 -0.4474666467034904 0 -0.16292893021386121 -0.46114293628385639 0 -0.20132084844143749 -0.44803709072853071 0 -0.1749889768343342 -0.4474666467034904 0 -0.1822184339172041 -0.42881913224379842 0 -0.1749889768343342 -0.4474666467034904 0 -0.15792632724221731 -0.44327071060825479 0 -0.16292893021386121 -0.46114293628385639 0 -0.1749889768343342 -0.4474666467034904 0 -0.15792632724221731 -0.44327071060825479 0 -0.1584100250955584 -0.43027142018504411 0 -0.16292893021386121 -0.46114293628385639 0 -0.14359865645297709 -0.44977408926771523 0 -0.14949069397166201 -0.47042309090129869 0 -0.15792632724221731 -0.44327071060825479 0 -0.16292893021386121 -0.46114293628385639 0 -0.14359865645297709 -0.44977408926771523 0 -0.15792632724221731 -0.44327071060825479 0 -0.14359865645297709 -0.44977408926771523 0 -0.1466626886516576 -0.43470181299669869 0 -0.14359865645297709 -0.44977408926771523 0 -0.13582146940353421 -0.43851143824850319 0 -0.1466626886516576 -0.43470181299669869 0 -0.14359865645297709 -0.44977408926771523 0 -0.13582146940353421 -0.43851143824850319 0 -0.12785827924443599 -0.44659413372527879 0 -0.14359865645297709 -0.44977408926771523 0 -0.12785827924443599 -0.44659413372527879 0 -0.1258364287862383 -0.45987739188392718 0 -0.13582146940353421 -0.43851143824850319 0 -0.12785827924443599 -0.44659413372527879 0 -0.1188471097390532 -0.43682505683876099 0 -0.14359865645297709 -0.44977408926771523 0 -0.1258364287862383 -0.45987739188392718 0 -0.14949069397166201 -0.47042309090129869 0 -0.1258364287862383 -0.45987739188392718 0 -0.13182319766427061 -0.48022876550816812 0 -0.14949069397166201 -0.47042309090129869 0 -0.1567464512814378 -0.5 0 -0.13182319766427061 -0.48022876550816812 0 -0.1291704376829402 -0.5 0 -0.13182319766427061 -0.48022876550816812 0 -0.1291704376829402 -0.5 0 -0.11538243088369141 -0.48804797390108651 0 -0.1567464512814378 -0.5 0 -0.13182319766427061 -0.48022876550816812 0 -0.14949069397166201 -0.47042309090129869 0 -0.14401360486873721 -0.39038321527433378 0 -0.16311601939297071 -0.40960117375906607 0 -0.14401360486873721 -0.39038321527433378 0 -0.14882172785711439 -0.40925505080048019 0 -0.16311601939297071 -0.40960117375906607 0 -0.14401360486873721 -0.39038321527433378 0 -0.16311601939297071 -0.40960117375906607 0 -0.1607453363240805 -0.3909117361345722 0 -0.14401360486873721 -0.39038321527433378 0 -0.13469635783585379 -0.40786593226579682 0 -0.14882172785711439 -0.40925505080048019 0 -0.15120155562087789 -0.37710158249035408 0 -0.14401360486873721 -0.39038321527433378 0 -0.1607453363240805 -0.3909117361345722 0 -0.15120155562087789 -0.37710158249035408 0 -0.14401360486873721 -0.39038321527433378 0 -0.12491119034450179 -0.37116525678960349 0 -0.14401360486873721 -0.39038321527433378 0 -0.12491119034450179 -0.37116525678960349 0 -0.121863003589462 -0.38809550939407572 0 -0.14401360486873721 -0.39038321527433378 0 -0.12491119034450179 -0.37116525678960349 0 -0.14401360486873721 -0.39038321527433378 0 -0.13469635783585379 -0.40786593226579682 0 -0.121863003589462 -0.38809550939407572 0 -0.13469635783585379 -0.40786593226579682 0 -0.13670136828800661 -0.42645151304094281 0 -0.14751828542765219 -0.41993170662973273 0 -0.1270471591766624 -0.42004321858464022 0 -0.13469635783585379 -0.40786593226579682 0 -0.11689044457147869 -0.40210657920042181 0 -0.1270471591766624 -0.42004321858464022 0 -0.13469635783585379 -0.40786593226579682 0 -0.13670136828800661 -0.42645151304094281 0 -0.1270471591766624 -0.42004321858464022 0 -0.13670136828800661 -0.42645151304094281 0 -0.1188471097390532 -0.43682505683876099 0 -0.13582146940353421 -0.43851143824850319 0 -0.13670136828800661 -0.42645151304094281 0 -0.1188471097390532 -0.43682505683876099 0 -0.13582146940353421 -0.43851143824850319 0 -0.13670136828800661 -0.42645151304094281 0 -0.1466626886516576 -0.43470181299669869 0 -0.13670136828800661 -0.42645151304094281 0 -0.1466626886516576 -0.43470181299669869 0 -0.14751828542765219 -0.41993170662973273 0 -0.14751828542765219 -0.41993170662973273 0 -0.15691739861710879 -0.41764853859048501 0 -0.1584100250955584 -0.43027142018504411 0 -0.1466626886516576 -0.43470181299669869 0 -0.14751828542765219 -0.41993170662973273 0 -0.1584100250955584 -0.43027142018504411 0 -0.15792632724221731 -0.44327071060825479 0 -0.1466626886516576 -0.43470181299669869 0 -0.1584100250955584 -0.43027142018504411 0 -0.13469635783585379 -0.40786593226579682 0 -0.14751828542765219 -0.41993170662973273 0 -0.14882172785711439 -0.40925505080048019 0 -0.14751828542765219 -0.41993170662973273 0 -0.14882172785711439 -0.40925505080048019 0 -0.15691739861710879 -0.41764853859048501 0 -0.16311601939297071 -0.40960117375906607 0 -0.16658717800373249 -0.421326595993402 0 -0.1822184339172041 -0.42881913224379842 0 -0.14882172785711439 -0.40925505080048019 0 -0.16311601939297071 -0.40960117375906607 0 -0.15691739861710879 -0.41764853859048501 0 -0.16311601939297071 -0.40960117375906607 0 -0.15691739861710879 -0.41764853859048501 0 -0.16658717800373249 -0.421326595993402 0 -0.1749889768343342 -0.4474666467034904 0 -0.16658717800373249 -0.421326595993402 0 -0.1584100250955584 -0.43027142018504411 0 -0.1749889768343342 -0.4474666467034904 0 -0.16658717800373249 -0.421326595993402 0 -0.15691739861710879 -0.41764853859048501 0 -0.16658717800373249 -0.421326595993402 0 -0.1584100250955584 -0.43027142018504411 0 -0.1749889768343342 -0.4474666467034904 0 -0.16658717800373249 -0.421326595993402 0 -0.1822184339172041 -0.42881913224379842 0 -0.16311601939297071 -0.40960117375906607 0 -0.1822184339172041 -0.42881913224379842 0 -0.18077924667784609 -0.41161318542178682 0 -0.16311601939297071 -0.40960117375906607 0 -0.1822184339172041 -0.42881913224379842 0 -0.1822184339172041 -0.42881913224379842 0 -0.18077924667784609 -0.41161318542178682 0 -0.19192462886780659 -0.41903822682387021 0 -0.17564440301342391 -0.39676305366367259 0 -0.18575631599114231 -0.38214608881950879 0 -0.19352312741622241 -0.40202339446724827 0 -0.16311601939297071 -0.40960117375906607 0 -0.18077924667784609 -0.41161318542178682 0 -0.17564440301342391 -0.39676305366367259 0 -0.18077924667784609 -0.41161318542178682 0 -0.17564440301342391 -0.39676305366367259 0 -0.19352312741622241 -0.40202339446724827 0 -0.16311601939297071 -0.40960117375906607 0 -0.17564440301342391 -0.39676305366367259 0 -0.1607453363240805 -0.3909117361345722 0 -0.17564440301342391 -0.39676305366367259 0 -0.1607453363240805 -0.3909117361345722 0 -0.1697510987243929 -0.38070965548543428 0 -0.15120155562087789 -0.37710158249035408 0 -0.1607453363240805 -0.3909117361345722 0 -0.1697510987243929 -0.38070965548543428 0 -0.15120155562087789 -0.37710158249035408 0 -0.1697510987243929 -0.38070965548543428 0 -0.16358185764711819 -0.36793730763811228 0 -0.17564440301342391 -0.39676305366367259 0 -0.1697510987243929 -0.38070965548543428 0 -0.18575631599114231 -0.38214608881950879 0 -0.1697510987243929 -0.38070965548543428 0 -0.18575631599114231 -0.38214608881950879 0 -0.1782023276319831 -0.3646332707155181 0 -0.18575631599114231 -0.38214608881950879 0 -0.20579439891043441 -0.3821276412497514 0 -0.19149326970478039 -0.36693932957744091 0 -0.18575631599114231 -0.38214608881950879 0 -0.19352312741622241 -0.40202339446724827 0 -0.20579439891043441 -0.3821276412497514 0 -0.19352312741622241 -0.40202339446724827 0 -0.2084741809051453 -0.3984804008739728 0 -0.20579439891043441 -0.3821276412497514 0 -0.2084741809051453 -0.3984804008739728 0 -0.222962278445068 -0.38735376840733871 0 -0.2233630081123987 -0.40397510735411563 0 -0.2084741809051453 -0.3984804008739728 0 -0.20579439891043441 -0.3821276412497514 0 -0.222962278445068 -0.38735376840733871 0 -0.20579439891043441 -0.3821276412497514 0 -0.222962278445068 -0.38735376840733871 0 -0.22526204561075441 -0.37112145518222789 0 -0.20132084844143749 -0.44803709072853071 0 -0.19192462886780659 -0.41903822682387021 0 -0.20648180455094539 -0.42038768304950591 0 -0.20132084844143749 -0.44803709072853071 0 -0.1822184339172041 -0.42881913224379842 0 -0.19192462886780659 -0.41903822682387021 0 -0.19352312741622241 -0.40202339446724827 0 -0.19192462886780659 -0.41903822682387021 0 -0.20648180455094539 -0.42038768304950591 0 -0.19352312741622241 -0.40202339446724827 0 -0.2084741809051453 -0.3984804008739728 0 -0.20648180455094539 -0.42038768304950591 0 -0.18077924667784609 -0.41161318542178682 0 -0.19352312741622241 -0.40202339446724827 0 -0.19192462886780659 -0.41903822682387021 0 -0.2084741809051453 -0.3984804008739728 0 -0.20648180455094539 -0.42038768304950591 0 -0.2233630081123987 -0.40397510735411563 0 -0.20648180455094539 -0.42038768304950591 0 -0.22366021367144101 -0.42138297466952279 0 -0.2233630081123987 -0.40397510735411563 0 -0.22334849094808079 -0.44334622139537899 0 -0.20648180455094539 -0.42038768304950591 0 -0.22366021367144101 -0.42138297466952279 0 -0.22334849094808079 -0.44334622139537899 0 -0.20132084844143749 -0.44803709072853071 0 -0.20648180455094539 -0.42038768304950591 0 -0.22334849094808079 -0.44334622139537899 0 -0.23310580098801079 -0.43133616533429242 0 -0.22366021367144101 -0.42138297466952279 0 -0.23310580098801079 -0.43133616533429242 0 -0.22366021367144101 -0.42138297466952279 0 -0.24060555723141649 -0.41658862585932188 0 -0.22366021367144101 -0.42138297466952279 0 -0.24060555723141649 -0.41658862585932188 0 -0.2233630081123987 -0.40397510735411563 0 -0.24688897737010099 -0.43867593833793961 0 -0.23310580098801079 -0.43133616533429242 0 -0.24060555723141649 -0.41658862585932188 0 -0.222962278445068 -0.38735376840733871 0 -0.2440125419064042 -0.37989641923614048 0 -0.22526204561075441 -0.37112145518222789 0 -0.222962278445068 -0.38735376840733871 0 -0.2233630081123987 -0.40397510735411563 0 -0.23685971213267221 -0.39484437534949463 0 -0.24060555723141649 -0.41658862585932188 0 -0.2233630081123987 -0.40397510735411563 0 -0.23685971213267221 -0.39484437534949463 0 -0.25507406669576571 -0.3994661597393776 0 -0.24060555723141649 -0.41658862585932188 0 -0.23685971213267221 -0.39484437534949463 0 -0.25507406669576571 -0.3994661597393776 0 -0.23685971213267221 -0.39484437534949463 0 -0.2440125419064042 -0.37989641923614048 0 -0.222962278445068 -0.38735376840733871 0 -0.23685971213267221 -0.39484437534949463 0 -0.2440125419064042 -0.37989641923614048 0 -0.2440125419064042 -0.37989641923614048 0 -0.22526204561075441 -0.37112145518222789 0 -0.23814458565106081 -0.35791960996248562 0 -0.2524325929932697 -0.36239213815041132 0 -0.2440125419064042 -0.37989641923614048 0 -0.23814458565106081 -0.35791960996248562 0 -0.22526204561075441 -0.37112145518222789 0 -0.22294178639392989 -0.34915792332013229 0 -0.21069941864765729 -0.36468612463786287 0 -0.22526204561075441 -0.37112145518222789 0 -0.22294178639392989 -0.34915792332013229 0 -0.23814458565106081 -0.35791960996248562 0 -0.22294178639392989 -0.34915792332013229 0 -0.23814458565106081 -0.35791960996248562 0 -0.2380465567536047 -0.341619395128619 0 -0.2524325929932697 -0.36239213815041132 0 -0.25178814730042742 -0.34428927636418571 0 -0.23814458565106081 -0.35791960996248562 0 -0.25178814730042742 -0.34428927636418571 0 -0.23814458565106081 -0.35791960996248562 0 -0.2380465567536047 -0.341619395128619 0 -0.25178814730042742 -0.34428927636418571 0 -0.24819641634333209 -0.33199188044070538 0 -0.2380465567536047 -0.341619395128619 0 -0.2383342834696599 -0.32854394916551649 0 -0.2380465567536047 -0.341619395128619 0 -0.2295834157387108 -0.33547492973095938 0 -0.24819641634333209 -0.33199188044070538 0 -0.2383342834696599 -0.32854394916551649 0 -0.2380465567536047 -0.341619395128619 0 -0.25604501612508368 -0.31225133793710769 0 -0.24796026642219021 -0.31462946628777722 0 -0.23813643731406919 -0.31293775671068769 0 -0.24796026642219021 -0.31462946628777722 0 -0.2433629286648516 -0.31713987994662712 0 -0.23813643731406919 -0.31293775671068769 0 -0.25275742533580808 -0.31607509636174619 0 -0.24796026642219021 -0.31462946628777722 0 -0.2475039738205797 -0.32151826324637461 0 -0.24796026642219021 -0.31462946628777722 0 -0.2433629286648516 -0.31713987994662712 0 -0.2475039738205797 -0.32151826324637461 0 -0.2433629286648516 -0.31713987994662712 0 -0.2475039738205797 -0.32151826324637461 0 -0.23985103710256739 -0.31947403354166881 0 -0.24819641634333209 -0.33199188044070538 0 -0.2383342834696599 -0.32854394916551649 0 -0.2475039738205797 -0.32151826324637461 0 -0.25390682657738312 -0.32645758333369929 0 -0.24819641634333209 -0.33199188044070538 0 -0.2475039738205797 -0.32151826324637461 0 -0.2383342834696599 -0.32854394916551649 0 -0.23512301756967399 -0.32213571828846099 0 -0.22967658711135799 -0.32617103265082531 0 -0.2383342834696599 -0.32854394916551649 0 -0.23512301756967399 -0.32213571828846099 0 -0.23985103710256739 -0.31947403354166881 0 -0.2383342834696599 -0.32854394916551649 0 -0.2475039738205797 -0.32151826324637461 0 -0.23985103710256739 -0.31947403354166881 0 -0.2433629286648516 -0.31713987994662712 0 -0.23985103710256739 -0.31947403354166881 0 -0.23813643731406919 -0.31293775671068769 0 -0.23512301756967399 -0.32213571828846099 0 -0.23985103710256739 -0.31947403354166881 0 -0.2326301625951113 -0.3143538577958348 0 -0.23813643731406919 -0.31293775671068769 0 -0.2326301625951113 -0.3143538577958348 0 -0.23985103710256739 -0.31947403354166881 0 -0.23813643731406919 -0.31293775671068769 0 -0.2326301625951113 -0.3143538577958348 0 -0.23985103710256739 -0.31947403354166881 0 -0.23813643731406919 -0.31293775671068769 0 -0.2326301625951113 -0.3143538577958348 0 -0.21891786496500151 -0.33188234838970387 0 -0.2150965497564169 -0.31886314391661519 0 -0.2326301625951113 -0.3143538577958348 0 -0.2150965497564169 -0.31886314391661519 0 -0.2326301625951113 -0.3143538577958348 0 -0.21891786496500151 -0.33188234838970387 0 -0.2326301625951113 -0.3143538577958348 0 -0.2150965497564169 -0.31886314391661519 0 -0.22563739803690611 -0.30434842848627941 0 -0.2326301625951113 -0.3143538577958348 0 -0.22967658711135799 -0.32617103265082531 0 -0.21891786496500151 -0.33188234838970387 0 -0.23512301756967399 -0.32213571828846099 0 -0.2326301625951113 -0.3143538577958348 0 -0.22967658711135799 -0.32617103265082531 0 -0.22294178639392989 -0.34915792332013229 0 -0.2295834157387108 -0.33547492973095938 0 -0.21891786496500151 -0.33188234838970387 0 -0.22294178639392989 -0.34915792332013229 0 -0.2380465567536047 -0.341619395128619 0 -0.2295834157387108 -0.33547492973095938 0 -0.2383342834696599 -0.32854394916551649 0 -0.22967658711135799 -0.32617103265082531 0 -0.2295834157387108 -0.33547492973095938 0 -0.22967658711135799 -0.32617103265082531 0 -0.2295834157387108 -0.33547492973095938 0 -0.21891786496500151 -0.33188234838970387 0 -0.21891786496500151 -0.33188234838970387 0 -0.2081826832524851 -0.32772598383757012 0 -0.20115338137079841 -0.33678601300656358 0 -0.21891786496500151 -0.33188234838970387 0 -0.20115338137079841 -0.33678601300656358 0 -0.2052055673348909 -0.34941083898357239 0 -0.22294178639392989 -0.34915792332013229 0 -0.21891786496500151 -0.33188234838970387 0 -0.2052055673348909 -0.34941083898357239 0 -0.21891786496500151 -0.33188234838970387 0 -0.2052055673348909 -0.34941083898357239 0 -0.2150965497564169 -0.31886314391661519 0 -0.197562936917723 -0.32337243003739741 0 -0.21363886139951621 -0.30210287946739051 0 -0.2150965497564169 -0.31886314391661519 0 -0.2081826832524851 -0.32772598383757012 0 -0.197562936917723 -0.32337243003739741 0 -0.197562936917723 -0.32337243003739741 0 -0.21363886139951621 -0.30210287946739051 0 -0.2150965497564169 -0.31886314391661519 0 -0.197562936917723 -0.32337243003739741 0 -0.21891786496500151 -0.33188234838970387 0 -0.2150965497564169 -0.31886314391661519 0 -0.2081826832524851 -0.32772598383757012 0 -0.197562936917723 -0.32337243003739741 0 -0.19370203390290849 -0.30584556358347359 0 -0.1832604841958401 -0.31558668608983798 0 -0.2081826832524851 -0.32772598383757012 0 -0.197562936917723 -0.32337243003739741 0 -0.20115338137079841 -0.33678601300656358 0 -0.197562936917723 -0.32337243003739741 0 -0.20115338137079841 -0.33678601300656358 0 -0.18712462716281711 -0.33718302969832759 0 -0.197562936917723 -0.32337243003739741 0 -0.18712462716281711 -0.33718302969832759 0 -0.197562936917723 -0.32337243003739741 0 -0.18763098725326591 -0.33496507714810148 0 -0.18712462716281711 -0.33718302969832759 0 -0.20115338137079841 -0.33678601300656358 0 -0.18992339748989129 -0.35090550833252171 0 -0.18712462716281711 -0.33718302969832759 0 -0.19149326970478039 -0.36693932957744091 0 -0.2052055673348909 -0.34941083898357239 0 -0.18992339748989129 -0.35090550833252171 0 -0.19149326970478039 -0.36693932957744091 0 -0.2052055673348909 -0.34941083898357239 0 -0.20115338137079841 -0.33678601300656358 0 -0.18992339748989129 -0.35090550833252171 0 -0.2052055673348909 -0.34941083898357239 0 -0.20579439891043441 -0.3821276412497514 0 -0.19149326970478039 -0.36693932957744091 0 -0.21069941864765729 -0.36468612463786287 0 -0.19149326970478039 -0.36693932957744091 0 -0.21069941864765729 -0.36468612463786287 0 -0.2052055673348909 -0.34941083898357239 0 -0.20579439891043441 -0.3821276412497514 0 -0.22526204561075441 -0.37112145518222789 0 -0.21069941864765729 -0.36468612463786287 0 -0.22294178639392989 -0.34915792332013229 0 -0.21069941864765729 -0.36468612463786287 0 -0.2052055673348909 -0.34941083898357239 0 -0.22266583670016341 -0.25396182014965002 0 -0.24427302006970211 -0.26157178666814868 0 -0.22971478588130931 -0.28083332889738372 0 -0.24427302006970211 -0.26157178666814868 0 -0.24501988422530691 -0.2470038165003057 0 -0.25883125425809528 -0.24231024443891411 0 -0.22266583670016341 -0.25396182014965002 0 -0.24427302006970211 -0.26157178666814868 0 -0.24501988422530691 -0.2470038165003057 0 -0.24427302006970211 -0.26157178666814868 0 -0.24625083453410199 -0.27824681512846489 0 -0.22971478588130931 -0.28083332889738372 0 -0.24427302006970211 -0.26157178666814868 0 -0.22971478588130931 -0.28083332889738372 0 -0.22266583670016341 -0.25396182014965002 0 -0.22971478588130931 -0.28083332889738372 0 -0.22266583670016341 -0.25396182014965002 0 -0.22971478588130931 -0.28083332889738372 0 -0.20809137964509339 -0.26705329034399322 0 -0.22971478588130931 -0.28083332889738372 0 -0.23703189612276071 -0.30872710239586842 0 -0.22971478588130931 -0.28083332889738372 0 -0.22563739803690611 -0.30434842848627941 0 -0.21363886139951621 -0.30210287946739051 0 -0.22971478588130931 -0.28083332889738372 0 -0.21363886139951621 -0.30210287946739051 0 -0.22971478588130931 -0.28083332889738372 0 -0.2411713887766104 -0.29396090453802232 0 -0.23703189612276071 -0.30872710239586842 0 -0.24625083453410199 -0.27824681512846489 0 -0.22971478588130931 -0.28083332889738372 0 -0.2411713887766104 -0.29396090453802232 0 -0.25464423063513009 -0.28843416517731169 0 -0.24625083453410199 -0.27824681512846489 0 -0.2411713887766104 -0.29396090453802232 0 -0.25001168909301708 -0.30057752097653467 0 -0.25464423063513009 -0.28843416517731169 0 -0.2411713887766104 -0.29396090453802232 0 -0.2411713887766104 -0.29396090453802232 0 -0.2390179163204838 -0.30618836400978588 0 -0.23703189612276071 -0.30872710239586842 0 -0.25001168909301708 -0.30057752097653467 0 -0.2556584030007607 -0.30328163000246061 0 -0.23813643731406919 -0.31293775671068769 0 -0.25001168909301708 -0.30057752097653467 0 -0.2411713887766104 -0.29396090453802232 0 -0.2390179163204838 -0.30618836400978588 0 -0.25001168909301708 -0.30057752097653467 0 -0.23813643731406919 -0.31293775671068769 0 -0.2390179163204838 -0.30618836400978588 0 -0.2390179163204838 -0.30618836400978588 0 -0.23703189612276071 -0.30872710239586842 0 -0.2326301625951113 -0.3143538577958348 0 -0.23703189612276071 -0.30872710239586842 0 -0.23813643731406919 -0.31293775671068769 0 -0.23703189612276071 -0.30872710239586842 0 -0.23813643731406919 -0.31293775671068769 0 -0.2326301625951113 -0.3143538577958348 0 -0.23703189612276071 -0.30872710239586842 0 -0.23813643731406919 -0.31293775671068769 0 -0.2390179163204838 -0.30618836400978588 0 -0.23703189612276071 -0.30872710239586842 0 -0.22971478588130931 -0.28083332889738372 0 -0.23703189612276071 -0.30872710239586842 0 -0.22563739803690611 -0.30434842848627941 0 -0.2326301625951113 -0.3143538577958348 0 -0.23703189612276071 -0.30872710239586842 0 -0.22563739803690611 -0.30434842848627941 0 -0.22971478588130931 -0.28083332889738372 0 -0.21363886139951621 -0.30210287946739051 0 -0.19802209048296379 -0.28635949996127641 0 -0.2150965497564169 -0.31886314391661519 0 -0.22563739803690611 -0.30434842848627941 0 -0.21363886139951621 -0.30210287946739051 0 -0.197562936917723 -0.32337243003739741 0 -0.21363886139951621 -0.30210287946739051 0 -0.19370203390290849 -0.30584556358347359 0 -0.21363886139951621 -0.30210287946739051 0 -0.19370203390290849 -0.30584556358347359 0 -0.19802209048296379 -0.28635949996127641 0 -0.19370203390290849 -0.30584556358347359 0 -0.19802209048296379 -0.28635949996127641 0 -0.17602579651849889 -0.30180632236146521 0 -0.22971478588130931 -0.28083332889738372 0 -0.19802209048296379 -0.28635949996127641 0 -0.20809137964509339 -0.26705329034399322 0 -0.19802209048296379 -0.28635949996127641 0 -0.20809137964509339 -0.26705329034399322 0 -0.1886979554505778 -0.26424866549365111 0 -0.20809137964509339 -0.26705329034399322 0 -0.1886979554505778 -0.26424866549365111 0 -0.201356229710452 -0.24986313721800499 0 -0.1886979554505778 -0.26424866549365111 0 -0.18302313500755071 -0.2439899936431944 0 -0.201356229710452 -0.24986313721800499 0 -0.22266583670016341 -0.25396182014965002 0 -0.20809137964509339 -0.26705329034399322 0 -0.201356229710452 -0.24986313721800499 0 -0.1886979554505778 -0.26424866549365111 0 -0.17207590190214231 -0.279982740924685 0 -0.15610572008234541 -0.25019938304154432 0 -0.1886979554505778 -0.26424866549365111 0 -0.15610572008234541 -0.25019938304154432 0 -0.18302313500755071 -0.2439899936431944 0 -0.19802209048296379 -0.28635949996127641 0 -0.1886979554505778 -0.26424866549365111 0 -0.17207590190214231 -0.279982740924685 0 -0.17207590190214231 -0.279982740924685 0 -0.15243307755876301 -0.2722263948370337 0 -0.15610572008234541 -0.25019938304154432 0 -0.17207590190214231 -0.279982740924685 0 -0.1529713384303687 -0.29254411394572361 0 -0.15243307755876301 -0.2722263948370337 0 -0.17207590190214231 -0.279982740924685 0 -0.17602579651849889 -0.30180632236146521 0 -0.1529713384303687 -0.29254411394572361 0 -0.19802209048296379 -0.28635949996127641 0 -0.17207590190214231 -0.279982740924685 0 -0.17602579651849889 -0.30180632236146521 0 -0.19370203390290849 -0.30584556358347359 0 -0.17602579651849889 -0.30180632236146521 0 -0.1832604841958401 -0.31558668608983798 0 -0.17602579651849889 -0.30180632236146521 0 -0.1832604841958401 -0.31558668608983798 0 -0.1722090615637106 -0.31605390931535082 0 -0.17602579651849889 -0.30180632236146521 0 -0.1722090615637106 -0.31605390931535082 0 -0.15703106403983411 -0.31587005547936448 0 -0.17602579651849889 -0.30180632236146521 0 -0.1529713384303687 -0.29254411394572361 0 -0.15703106403983411 -0.31587005547936448 0 -0.13467533938205981 -0.30828295766831881 0 -0.1344763400579474 -0.29173952059284802 0 -0.1529713384303687 -0.29254411394572361 0 -0.13467533938205981 -0.30828295766831881 0 -0.1529713384303687 -0.29254411394572361 0 -0.15703106403983411 -0.31587005547936448 0 -0.13467533938205981 -0.30828295766831881 0 -0.1344763400579474 -0.29173952059284802 0 -0.11906623650379231 -0.29247890852950659 0 -0.1344763400579474 -0.29173952059284802 0 -0.13737280003471319 -0.27655255631592041 0 -0.124027545577141 -0.27827750946148688 0 -0.1344763400579474 -0.29173952059284802 0 -0.124027545577141 -0.27827750946148688 0 -0.11906623650379231 -0.29247890852950659 0 -0.1344763400579474 -0.29173952059284802 0 -0.1529713384303687 -0.29254411394572361 0 -0.13737280003471319 -0.27655255631592041 0 -0.1529713384303687 -0.29254411394572361 0 -0.15243307755876301 -0.2722263948370337 0 -0.13737280003471319 -0.27655255631592041 0 -0.15243307755876301 -0.2722263948370337 0 -0.13737280003471319 -0.27655255631592041 0 -0.14222084982046851 -0.26248021145205319 0 -0.13737280003471319 -0.27655255631592041 0 -0.12884010628096551 -0.26371866305477693 0 -0.124027545577141 -0.27827750946148688 0 -0.13737280003471319 -0.27655255631592041 0 -0.12884010628096551 -0.26371866305477693 0 -0.14222084982046851 -0.26248021145205319 0 -0.12884010628096551 -0.26371866305477693 0 -0.14222084982046851 -0.26248021145205319 0 -0.1363525451455552 -0.2497040600109908 0 -0.12884010628096551 -0.26371866305477693 0 -0.12188719209648199 -0.25173808517605212 0 -0.1363525451455552 -0.2497040600109908 0 -0.15610572008234541 -0.25019938304154432 0 -0.14222084982046851 -0.26248021145205319 0 -0.1363525451455552 -0.2497040600109908 0 -0.15243307755876301 -0.2722263948370337 0 -0.15610572008234541 -0.25019938304154432 0 -0.14222084982046851 -0.26248021145205319 0 -0.16620253605695601 -0.35793890833011871 0 -0.16672438828367789 -0.34703180369526909 0 -0.14581778931409009 -0.35909853024243671 0 -0.16672438828367789 -0.34703180369526909 0 -0.14581778931409009 -0.35909853024243671 0 -0.16620253605695601 -0.35793890833011871 0 -0.16672438828367789 -0.34703180369526909 0 -0.17668631740791069 -0.35099362935925749 0 -0.16620253605695601 -0.35793890833011871 0 -0.16358185764711819 -0.36793730763811228 0 -0.14581778931409009 -0.35909853024243671 0 -0.1697510987243929 -0.38070965548543428 0 -0.16358185764711819 -0.36793730763811228 0 -0.1782023276319831 -0.3646332707155181 0 -0.16620253605695601 -0.35793890833011871 0 -0.16358185764711819 -0.36793730763811228 0 -0.1782023276319831 -0.3646332707155181 0 -0.18575631599114231 -0.38214608881950879 0 -0.19149326970478039 -0.36693932957744091 0 -0.1782023276319831 -0.3646332707155181 0 -0.18992339748989129 -0.35090550833252171 0 -0.19149326970478039 -0.36693932957744091 0 -0.1782023276319831 -0.3646332707155181 0 -0.18992339748989129 -0.35090550833252171 0 -0.1782023276319831 -0.3646332707155181 0 -0.17668631740791069 -0.35099362935925749 0 -0.16672438828367789 -0.34703180369526909 0 -0.17668631740791069 -0.35099362935925749 0 -0.18712462716281711 -0.33718302969832759 0 -0.16620253605695601 -0.35793890833011871 0 -0.1782023276319831 -0.3646332707155181 0 -0.17668631740791069 -0.35099362935925749 0 -0.17668631740791069 -0.35099362935925749 0 -0.18712462716281711 -0.33718302969832759 0 -0.18992339748989129 -0.35090550833252171 0 -0.17668631740791069 -0.35099362935925749 0 -0.18712462716281711 -0.33718302969832759 0 -0.197562936917723 -0.32337243003739741 0 -0.18763098725326591 -0.33496507714810148 0 -0.1746420217602265 -0.32926721997864677 0 -0.18763098725326591 -0.33496507714810148 0 -0.16672438828367789 -0.34703180369526909 0 -0.18712462716281711 -0.33718302969832759 0 -0.18763098725326591 -0.33496507714810148 0 -0.16672438828367789 -0.34703180369526909 0 -0.18763098725326591 -0.33496507714810148 0 -0.16672438828367789 -0.34703180369526909 0 -0.1746420217602265 -0.32926721997864677 0 -0.197562936917723 -0.32337243003739741 0 -0.1746420217602265 -0.32926721997864677 0 -0.197562936917723 -0.32337243003739741 0 -0.1746420217602265 -0.32926721997864677 0 -0.1832604841958401 -0.31558668608983798 0 -0.1746420217602265 -0.32926721997864677 0 -0.1832604841958401 -0.31558668608983798 0 -0.1722090615637106 -0.31605390931535082 0 -0.1746420217602265 -0.32926721997864677 0 -0.1722090615637106 -0.31605390931535082 0 -0.15703106403983411 -0.31587005547936448 0 -0.1746420217602265 -0.32926721997864677 0 -0.15703106403983411 -0.31587005547936448 0 -0.15172110660273019 -0.33516200991989692 0 -0.1746420217602265 -0.32926721997864677 0 -0.15172110660273019 -0.33516200991989692 0 -0.16672438828367789 -0.34703180369526909 0 -0.1746420217602265 -0.32926721997864677 0 -0.15172110660273019 -0.33516200991989692 0 -0.15703106403983411 -0.31587005547936448 0 -0.15172110660273019 -0.33516200991989692 0 -0.13731080488152331 -0.32567924503169687 0 -0.13467533938205981 -0.30828295766831881 0 -0.15703106403983411 -0.31587005547936448 0 -0.13731080488152331 -0.32567924503169687 0 -0.13467533938205981 -0.30828295766831881 0 -0.13731080488152331 -0.32567924503169687 0 -0.1161806664246349 -0.32159248562429521 0 -0.15172110660273019 -0.33516200991989692 0 -0.1288001914452338 -0.34105679986114701 0 -0.15172110660273019 -0.33516200991989692 0 -0.13731080488152331 -0.32567924503169687 0 -0.1288001914452338 -0.34105679986114701 0 -0.13731080488152331 -0.32567924503169687 0 -0.1288001914452338 -0.34105679986114701 0 -0.1161806664246349 -0.32159248562429521 0 -0.1288001914452338 -0.34105679986114701 0 -0.14581778931409009 -0.35909853024243671 0 -0.12491119034450179 -0.37116525678960349 0 -0.16672438828367789 -0.34703180369526909 0 -0.15172110660273019 -0.33516200991989692 0 -0.14581778931409009 -0.35909853024243671 0 -0.15172110660273019 -0.33516200991989692 0 -0.1288001914452338 -0.34105679986114701 0 -0.14581778931409009 -0.35909853024243671 0 -0.15120155562087789 -0.37710158249035408 0 -0.14581778931409009 -0.35909853024243671 0 -0.12491119034450179 -0.37116525678960349 0 -0.15120155562087789 -0.37710158249035408 0 -0.16358185764711819 -0.36793730763811228 0 -0.14581778931409009 -0.35909853024243671 0 -0.14581778931409009 -0.35909853024243671 0 -0.12491119034450179 -0.37116525678960349 0 -0.12491119034450179 -0.37116525678960349 0 -0.10838071844787101 -0.3545347977322133 0 -0.12491119034450179 -0.37116525678960349 0 -0.10838071844787101 -0.3545347977322133 0 -0.1067504328061353 -0.38164715752456629 0 -0.10838071844787101 -0.3545347977322133 0 -0.09236628708778144 -0.37130363089365997 0 -0.1067504328061353 -0.38164715752456629 0 -0.10838071844787101 -0.3545347977322133 0 -0.09236628708778144 -0.37130363089365997 0 -0.08952255696171274 -0.3548984164117932 0 -0.10838071844787101 -0.3545347977322133 0 -0.091850246551238274 -0.33790433867482511 0 -0.10838071844787101 -0.3545347977322133 0 -0.091850246551238274 -0.33790433867482511 0 -0.08952255696171274 -0.3548984164117932 0 -0.1288001914452338 -0.34105679986114701 0 -0.10838071844787101 -0.3545347977322133 0 -0.1068438246923958 -0.33723073960198829 0 -0.1288001914452338 -0.34105679986114701 0 -0.12491119034450179 -0.37116525678960349 0 -0.10838071844787101 -0.3545347977322133 0 -0.1288001914452338 -0.34105679986114701 0 -0.1161806664246349 -0.32159248562429521 0 -0.1068438246923958 -0.33723073960198829 0 -0.1161806664246349 -0.32159248562429521 0 -0.088388426191201935 -0.33034495980792111 0 -0.1161806664246349 -0.32159248562429521 0 -0.112004975040553 -0.306469805040955 0 -0.095112025540037975 -0.310458248801674 0 -0.1161806664246349 -0.32159248562429521 0 -0.088388426191201935 -0.33034495980792111 0 -0.095112025540037975 -0.310458248801674 0 -0.10838071844787101 -0.3545347977322133 0 -0.1068438246923958 -0.33723073960198829 0 -0.091850246551238274 -0.33790433867482511 0 -0.1068438246923958 -0.33723073960198829 0 -0.091850246551238274 -0.33790433867482511 0 -0.088388426191201935 -0.33034495980792111 0 -0.1161806664246349 -0.32159248562429521 0 -0.1068438246923958 -0.33723073960198829 0 -0.088388426191201935 -0.33034495980792111 0 -0.091850246551238274 -0.33790433867482511 0 -0.088388426191201935 -0.33034495980792111 0 -0.079994237050533934 -0.34554540233615788 0 -0.088388426191201935 -0.33034495980792111 0 -0.072436908924853383 -0.31177877252427649 0 -0.088388426191201935 -0.33034495980792111 0 -0.095112025540037975 -0.310458248801674 0 -0.072436908924853383 -0.31177877252427649 0 -0.088388426191201935 -0.33034495980792111 0 -0.068578917974998696 -0.324723400712083 0 -0.072436908924853383 -0.31177877252427649 0 -0.068578917974998696 -0.324723400712083 0 -0.072436908924853383 -0.31177877252427649 0 -0.051928635174287419 -0.3179765016429803 0 -0.088388426191201935 -0.33034495980792111 0 -0.079994237050533934 -0.34554540233615788 0 -0.061561701609652103 -0.33879336887315431 0 -0.088388426191201935 -0.33034495980792111 0 -0.068578917974998696 -0.324723400712083 0 -0.061561701609652103 -0.33879336887315431 0 -0.088388426191201935 -0.33034495980792111 0 -0.061561701609652103 -0.33879336887315431 0 -0.077573541810842708 -0.36425626021562602 0 -0.079994237050533934 -0.34554540233615788 0 -0.062055885636088777 -0.36155519625232529 0 -0.079994237050533934 -0.34554540233615788 0 -0.062055885636088777 -0.36155519625232529 0 -0.061561701609652103 -0.33879336887315431 0 -0.06945932632460064 -0.37325618088828821 0 -0.077573541810842708 -0.36425626021562602 0 -0.062055885636088777 -0.36155519625232529 0 -0.06945932632460064 -0.37325618088828821 0 -0.062055885636088777 -0.36155519625232529 0 -0.059746369669151492 -0.37677136141821199 0 -0.06945932632460064 -0.37325618088828821 0 -0.077573541810842708 -0.36425626021562602 0 -0.08044227863309307 -0.37776742347346493 0 -0.077573541810842708 -0.36425626021562602 0 -0.09236628708778144 -0.37130363089365997 0 -0.08952255696171274 -0.3548984164117932 0 -0.077573541810842708 -0.36425626021562602 0 -0.09236628708778144 -0.37130363089365997 0 -0.08044227863309307 -0.37776742347346493 0 -0.077573541810842708 -0.36425626021562602 0 -0.08952255696171274 -0.3548984164117932 0 -0.079994237050533934 -0.34554540233615788 0 -0.091850246551238274 -0.33790433867482511 0 -0.08952255696171274 -0.3548984164117932 0 -0.079994237050533934 -0.34554540233615788 0 -0.1054249736214137 -0.25814887186467689 0 -0.097006123974171576 -0.27507809008239731 0 -0.086024961793378582 -0.26010525318884481 0 -0.1054249736214137 -0.25814887186467689 0 -0.12188719209648199 -0.25173808517605212 0 -0.1142024385592648 -0.26541169281590288 0 -0.12884010628096551 -0.26371866305477693 0 -0.12188719209648199 -0.25173808517605212 0 -0.1142024385592648 -0.26541169281590288 0 -0.1054249736214137 -0.25814887186467689 0 -0.1142024385592648 -0.26541169281590288 0 -0.12884010628096551 -0.26371866305477693 0 -0.1142024385592648 -0.26541169281590288 0 -0.124027545577141 -0.27827750946148688 0 -0.1142024385592648 -0.26541169281590288 0 -0.124027545577141 -0.27827750946148688 0 -0.1102073520261629 -0.27976371545996648 0 -0.1054249736214137 -0.25814887186467689 0 -0.1142024385592648 -0.26541169281590288 0 -0.097006123974171576 -0.27507809008239731 0 -0.1142024385592648 -0.26541169281590288 0 -0.1102073520261629 -0.27976371545996648 0 -0.097006123974171576 -0.27507809008239731 0 -0.1054249736214137 -0.25814887186467689 0 -0.097006123974171576 -0.27507809008239731 0 -0.1102073520261629 -0.27976371545996648 0 -0.097006123974171576 -0.27507809008239731 0 -0.099578563411102466 -0.29207272934599932 0 -0.1102073520261629 -0.27976371545996648 0 -0.099578563411102466 -0.29207272934599932 0 -0.11906623650379231 -0.29247890852950659 0 -0.124027545577141 -0.27827750946148688 0 -0.1102073520261629 -0.27976371545996648 0 -0.11906623650379231 -0.29247890852950659 0 -0.099578563411102466 -0.29207272934599932 0 -0.11906623650379231 -0.29247890852950659 0 -0.112004975040553 -0.306469805040955 0 -0.13467533938205981 -0.30828295766831881 0 -0.1161806664246349 -0.32159248562429521 0 -0.112004975040553 -0.306469805040955 0 -0.13467533938205981 -0.30828295766831881 0 -0.11906623650379231 -0.29247890852950659 0 -0.112004975040553 -0.306469805040955 0 -0.099578563411102466 -0.29207272934599932 0 -0.112004975040553 -0.306469805040955 0 -0.095112025540037975 -0.310458248801674 0 -0.099578563411102466 -0.29207272934599932 0 -0.095112025540037975 -0.310458248801674 0 -0.083420793068516602 -0.29966989646994818 0 -0.095112025540037975 -0.310458248801674 0 -0.083420793068516602 -0.29966989646994818 0 -0.072436908924853383 -0.31177877252427649 0 -0.083420793068516602 -0.29966989646994818 0 -0.072436908924853383 -0.31177877252427649 0 -0.071639362207511811 -0.28971652081068028 0 -0.072436908924853383 -0.31177877252427649 0 -0.056485391658504698 -0.29321258524063198 0 -0.072436908924853383 -0.31177877252427649 0 -0.071639362207511811 -0.28971652081068028 0 -0.056485391658504698 -0.29321258524063198 0 -0.071639362207511811 -0.28971652081068028 0 -0.083796667800091915 -0.28451379557210471 0 -0.075320764430502202 -0.27228807911012959 0 -0.097006123974171576 -0.27507809008239731 0 -0.099578563411102466 -0.29207272934599932 0 -0.083796667800091915 -0.28451379557210471 0 -0.099578563411102466 -0.29207272934599932 0 -0.083420793068516602 -0.29966989646994818 0 -0.083796667800091915 -0.28451379557210471 0 -0.083420793068516602 -0.29966989646994818 0 -0.071639362207511811 -0.28971652081068028 0 -0.083796667800091915 -0.28451379557210471 0 -0.097006123974171576 -0.27507809008239731 0 -0.075320764430502202 -0.27228807911012959 0 -0.086024961793378582 -0.26010525318884481 0 -0.097006123974171576 -0.27507809008239731 0 -0.083796667800091915 -0.28451379557210471 0 -0.075320764430502202 -0.27228807911012959 0 -0.071639362207511811 -0.28971652081068028 0 -0.075320764430502202 -0.27228807911012959 0 -0.059001743984278127 -0.27571106300031611 0 -0.075320764430502202 -0.27228807911012959 0 -0.06284949686432259 -0.25801573334750111 0 -0.059001743984278127 -0.27571106300031611 0 -0.075320764430502202 -0.27228807911012959 0 -0.06284949686432259 -0.25801573334750111 0 -0.086024961793378582 -0.26010525318884481 0 -0.06284949686432259 -0.25801573334750111 0 -0.086024961793378582 -0.26010525318884481 0 -0.085165119336488848 -0.24138506873801399 0 -0.1054249736214137 -0.25814887186467689 0 -0.086024961793378582 -0.26010525318884481 0 -0.085165119336488848 -0.24138506873801399 0 -0.035363392125721753 -0.26123090180979081 0 -0.040533874392156027 -0.27464639795698742 0 -0.025056542967552751 -0.25663212200554403 0 -0.035363392125721753 -0.26123090180979081 0 -0.042285169195724857 -0.25789321941827531 0 -0.040533874392156027 -0.27464639795698742 0 -0.033577981947453352 -0.25575186785835669 0 -0.042285169195724857 -0.25789321941827531 0 -0.03865392236174741 -0.2428150274564457 0 -0.033577981947453352 -0.25575186785835669 0 -0.035363392125721753 -0.26123090180979081 0 -0.042285169195724857 -0.25789321941827531 0 -0.033577981947453352 -0.25575186785835669 0 -0.035363392125721753 -0.26123090180979081 0 -0.025056542967552751 -0.25663212200554403 0 -0.06284949686432259 -0.25801573334750111 0 -0.042285169195724857 -0.25789321941827531 0 -0.040533874392156027 -0.27464639795698742 0 -0.06284949686432259 -0.25801573334750111 0 -0.042285169195724857 -0.25789321941827531 0 -0.049183695989257412 -0.24870926544763969 0 -0.06284949686432259 -0.25801573334750111 0 -0.040533874392156027 -0.27464639795698742 0 -0.06284949686432259 -0.25801573334750111 0 -0.059001743984278127 -0.27571106300031611 0 -0.040533874392156027 -0.27464639795698742 0 -0.059001743984278127 -0.27571106300031611 0 -0.040533874392156027 -0.27464639795698742 0 -0.056485391658504698 -0.29321258524063198 0 -0.040533874392156027 -0.27464639795698742 0 -0.0285425590923278 -0.26918532549275431 0 -0.025056542967552751 -0.25663212200554403 0 -0.040533874392156027 -0.27464639795698742 0 -0.025056542967552751 -0.25663212200554403 0 -0.040533874392156027 -0.27464639795698742 0 -0.03670795814698239 -0.28070769409084212 0 -0.044257274802416272 -0.28648453035669541 0 -0.040533874392156027 -0.27464639795698742 0 -0.034463997954017993 -0.27546666935065017 0 -0.0285425590923278 -0.26918532549275431 0 -0.034463997954017993 -0.27546666935065017 0 -0.03670795814698239 -0.28070769409084212 0 -0.029140298800148359 -0.2790863475373303 0 -0.040533874392156027 -0.27464639795698742 0 -0.034463997954017993 -0.27546666935065017 0 -0.03670795814698239 -0.28070769409084212 0 -0.03670795814698239 -0.28070769409084212 0 -0.029416101704146928 -0.29377519393892931 0 -0.029140298800148359 -0.2790863475373303 0 -0.03670795814698239 -0.28070769409084212 0 -0.044257274802416272 -0.28648453035669541 0 -0.029416101704146928 -0.29377519393892931 0 -0.044257274802416272 -0.28648453035669541 0 -0.029416101704146928 -0.29377519393892931 0 -0.044257274802416272 -0.28648453035669541 0 -0.039320134698968411 -0.30065521837005688 0 -0.029416101704146928 -0.29377519393892931 0 -0.044257274802416272 -0.28648453035669541 0 -0.047874924214703407 -0.29635928845984449 0 -0.039320134698968411 -0.30065521837005688 0 -0.040533874392156027 -0.27464639795698742 0 -0.056485391658504698 -0.29321258524063198 0 -0.040533874392156027 -0.27464639795698742 0 -0.044257274802416272 -0.28648453035669541 0 -0.056485391658504698 -0.29321258524063198 0 -0.071639362207511811 -0.28971652081068028 0 -0.059001743984278127 -0.27571106300031611 0 -0.056485391658504698 -0.29321258524063198 0 -0.044257274802416272 -0.28648453035669541 0 -0.056485391658504698 -0.29321258524063198 0 -0.047874924214703407 -0.29635928845984449 0 -0.056485391658504698 -0.29321258524063198 0 -0.047874924214703407 -0.29635928845984449 0 -0.051436895698924297 -0.30508481987199387 0 -0.072436908924853383 -0.31177877252427649 0 -0.056485391658504698 -0.29321258524063198 0 -0.051436895698924297 -0.30508481987199387 0 -0.051436895698924297 -0.30508481987199387 0 -0.039320134698968411 -0.30065521837005688 0 -0.051928635174287419 -0.3179765016429803 0 -0.072436908924853383 -0.31177877252427649 0 -0.051436895698924297 -0.30508481987199387 0 -0.051928635174287419 -0.3179765016429803 0 -0.039320134698968411 -0.30065521837005688 0 -0.027061581683367791 -0.30773321804215731 0 -0.032730265491422918 -0.32748564145565751 0 -0.047874924214703407 -0.29635928845984449 0 -0.051436895698924297 -0.30508481987199387 0 -0.039320134698968411 -0.30065521837005688 0 -0.039320134698968411 -0.30065521837005688 0 -0.027061581683367791 -0.30773321804215731 0 -0.029416101704146928 -0.29377519393892931 0 -0.027061581683367791 -0.30773321804215731 0 -0.014574928605876889 -0.30106585752116172 0 -0.02101129624554357 -0.32015920007830101 0 -0.027061581683367791 -0.30773321804215731 0 -0.014574928605876889 -0.30106585752116172 0 -0.029416101704146928 -0.29377519393892931 0 -0.014574928605876889 -0.30106585752116172 0 -0.029416101704146928 -0.29377519393892931 0 -0.014574928605876889 -0.30106585752116172 0 0.0050813500114497926 -0.31072192134635379 0 -0.014574928605876889 -0.30106585752116172 0 -0.0034123820152559409 -0.29406145048692378 0 0.0050813500114497926 -0.31072192134635379 0 -0.014574928605876889 -0.30106585752116172 0 -0.007351979299727399 -0.28388755567895069 0 -0.018014626610461149 -0.27685981986507369 0 -0.014574928605876889 -0.30106585752116172 0 -0.0034123820152559409 -0.29406145048692378 0 -0.007351979299727399 -0.28388755567895069 0 -0.0034123820152559409 -0.29406145048692378 0 -0.007351979299727399 -0.28388755567895069 0 0.0005044884639468436 -0.28428256264433588 0 -0.007351979299727399 -0.28388755567895069 0 -0.00066879478938417663 -0.27607701057605472 0 0.0005044884639468436 -0.28428256264433588 0 -0.029416101704146928 -0.29377519393892931 0 -0.029140298800148359 -0.2790863475373303 0 -0.018014626610461149 -0.27685981986507369 0 -0.014574928605876889 -0.30106585752116172 0 -0.018014626610461149 -0.27685981986507369 0 -0.014574928605876889 -0.30106585752116172 0 -0.029416101704146928 -0.29377519393892931 0 -0.018014626610461149 -0.27685981986507369 0 -0.0285425590923278 -0.26918532549275431 0 -0.018014626610461149 -0.27685981986507369 0 -0.025056542967552751 -0.25663212200554403 0 -0.034463997954017993 -0.27546666935065017 0 -0.029140298800148359 -0.2790863475373303 0 -0.0285425590923278 -0.26918532549275431 0 -0.029140298800148359 -0.2790863475373303 0 -0.0285425590923278 -0.26918532549275431 0 -0.018014626610461149 -0.27685981986507369 0 -0.018014626610461149 -0.27685981986507369 0 -0.009525461094516758 -0.26505727646372912 0 -0.013174588291599849 -0.25738337056705513 0 -0.007351979299727399 -0.28388755567895069 0 -0.018014626610461149 -0.27685981986507369 0 -0.0074004233270929601 -0.27365044047833043 0 -0.007351979299727399 -0.28388755567895069 0 -0.00066879478938417663 -0.27607701057605472 0 -0.0074004233270929601 -0.27365044047833043 0 -0.00066879478938417663 -0.27607701057605472 0 -0.0074004233270929601 -0.27365044047833043 0 -0.0014412548413753219 -0.26637053980784359 0 -0.0074004233270929601 -0.27365044047833043 0 -0.0014412548413753219 -0.26637053980784359 0 -0.009525461094516758 -0.26505727646372912 0 -0.018014626610461149 -0.27685981986507369 0 -0.0074004233270929601 -0.27365044047833043 0 -0.009525461094516758 -0.26505727646372912 0 -0.009525461094516758 -0.26505727646372912 0 -0.0051894584258374019 -0.25740543027040808 0 -0.013174588291599849 -0.25738337056705513 0 -0.0014412548413753219 -0.26637053980784359 0 -0.009525461094516758 -0.26505727646372912 0 -0.0051894584258374019 -0.25740543027040808 0 -0.0014412548413753219 -0.26637053980784359 0 -0.0051894584258374019 -0.25740543027040808 0 0.0059536600781536506 -0.25117039767460608 0 -0.0051894584258374019 -0.25740543027040808 0 -0.0077596479798487331 -0.24704556683880691 0 0.0059536600781536506 -0.25117039767460608 0 -0.013174588291599849 -0.25738337056705513 0 -0.01436331776458151 -0.2491202803804608 0 -0.0077596479798487331 -0.24704556683880691 0 -0.0051894584258374019 -0.25740543027040808 0 -0.013174588291599849 -0.25738337056705513 0 -0.0077596479798487331 -0.24704556683880691 0 -0.018014626610461149 -0.27685981986507369 0 -0.021454324615046299 -0.25265378220898571 0 -0.018014626610461149 -0.27685981986507369 0 -0.013174588291599849 -0.25738337056705513 0 -0.021454324615046299 -0.25265378220898571 0 -0.013174588291599849 -0.25738337056705513 0 -0.021454324615046299 -0.25265378220898571 0 -0.01436331776458151 -0.2491202803804608 0 -0.018014626610461149 -0.27685981986507369 0 -0.021454324615046299 -0.25265378220898571 0 -0.025056542967552751 -0.25663212200554403 0 -0.033577981947453352 -0.25575186785835669 0 -0.025056542967552751 -0.25663212200554403 0 -0.02982894127401315 -0.24869091922283099 0 -0.021454324615046299 -0.25265378220898571 0 -0.025056542967552751 -0.25663212200554403 0 -0.02982894127401315 -0.24869091922283099 0 -0.034734977028102333 -0.34724177793838712 0 -0.034582898599232997 -0.3575042436104845 0 -0.026140396283877421 -0.35431606454125808 0 -0.045071666736046109 -0.35838494190906239 0 -0.034734977028102333 -0.34724177793838712 0 -0.034582898599232997 -0.3575042436104845 0 -0.045071666736046109 -0.35838494190906239 0 -0.034582898599232997 -0.3575042436104845 0 -0.032384554348906129 -0.37007419005323039 0 -0.045071666736046109 -0.35838494190906239 0 -0.032384554348906129 -0.37007419005323039 0 -0.047694060464751942 -0.37347413288773662 0 -0.045071666736046109 -0.35838494190906239 0 -0.047694060464751942 -0.37347413288773662 0 -0.062055885636088777 -0.36155519625232529 0 -0.047694060464751942 -0.37347413288773662 0 -0.062055885636088777 -0.36155519625232529 0 -0.059746369669151492 -0.37677136141821199 0 -0.045071666736046109 -0.35838494190906239 0 -0.062055885636088777 -0.36155519625232529 0 -0.061561701609652103 -0.33879336887315431 0 -0.045071666736046109 -0.35838494190906239 0 -0.034734977028102333 -0.34724177793838712 0 -0.061561701609652103 -0.33879336887315431 0 -0.034734977028102333 -0.34724177793838712 0 -0.061561701609652103 -0.33879336887315431 0 -0.068578917974998696 -0.324723400712083 0 -0.061561701609652103 -0.33879336887315431 0 -0.051928635174287419 -0.3179765016429803 0 -0.061561701609652103 -0.33879336887315431 0 -0.051928635174287419 -0.3179765016429803 0 -0.032730265491422918 -0.32748564145565751 0 -0.039320134698968411 -0.30065521837005688 0 -0.032730265491422918 -0.32748564145565751 0 -0.039320134698968411 -0.30065521837005688 0 -0.051928635174287419 -0.3179765016429803 0 -0.032730265491422918 -0.32748564145565751 0 -0.034734977028102333 -0.34724177793838712 0 -0.061561701609652103 -0.33879336887315431 0 -0.032730265491422918 -0.32748564145565751 0 -0.034734977028102333 -0.34724177793838712 0 -0.032730265491422918 -0.32748564145565751 0 -0.026140396283877421 -0.35431606454125808 0 -0.032730265491422918 -0.32748564145565751 0 -0.026140396283877421 -0.35431606454125808 0 -0.032730265491422918 -0.32748564145565751 0 -0.02045772913729892 -0.3372658055847837 0 -0.02101129624554357 -0.32015920007830101 0 -0.02045772913729892 -0.3372658055847837 0 -0.02101129624554357 -0.32015920007830101 0 -0.01057433678700309 -0.32921904890168052 0 -0.032730265491422918 -0.32748564145565751 0 -0.02045772913729892 -0.3372658055847837 0 -0.026140396283877421 -0.35431606454125808 0 -0.027061581683367791 -0.30773321804215731 0 -0.032730265491422918 -0.32748564145565751 0 -0.02101129624554357 -0.32015920007830101 0 -0.014574928605876889 -0.30106585752116172 0 -0.02101129624554357 -0.32015920007830101 0 -0.01057433678700309 -0.32921904890168052 0 -0.014574928605876889 -0.30106585752116172 0 -0.01057433678700309 -0.32921904890168052 0 0.0050813500114497926 -0.31072192134635379 0 -0.014574928605876889 -0.30106585752116172 0 -0.01057433678700309 -0.32921904890168052 0 -0.01057433678700309 -0.32921904890168052 0 -0.0077462043469716524 -0.35128538252732211 0 0.0081968511320427359 -0.33138442113628902 0 -0.02045772913729892 -0.3372658055847837 0 -0.01057433678700309 -0.32921904890168052 0 -0.0077462043469716524 -0.35128538252732211 0 -0.0077462043469716524 -0.35128538252732211 0 -0.0067772076658356058 -0.36990237411869542 0 0.010832911374833431 -0.34975313271834613 0 -0.02045772913729892 -0.3372658055847837 0 -0.0077462043469716524 -0.35128538252732211 0 -0.026140396283877421 -0.35431606454125808 0 -0.0077462043469716524 -0.35128538252732211 0 -0.026140396283877421 -0.35431606454125808 0 -0.01440732777612086 -0.36167739800451282 0 -0.026140396283877421 -0.35431606454125808 0 -0.016718864700541451 -0.36676058107283133 0 -0.019550527076331901 -0.38114648762685882 0 -0.032384554348906129 -0.37007419005323039 0 -0.026140396283877421 -0.35431606454125808 0 -0.019550527076331901 -0.38114648762685882 0 -0.034582898599232997 -0.3575042436104845 0 -0.032384554348906129 -0.37007419005323039 0 -0.026140396283877421 -0.35431606454125808 0 -0.026140396283877421 -0.35431606454125808 0 -0.019550527076331901 -0.38114648762685882 0 -0.026140396283877421 -0.35431606454125808 0 -0.016718864700541451 -0.36676058107283133 0 -0.01440732777612086 -0.36167739800451282 0 -0.016718864700541451 -0.36676058107283133 0 -0.0067772076658356058 -0.36990237411869542 0 -0.019550527076331901 -0.38114648762685882 0 -0.0077462043469716524 -0.35128538252732211 0 -0.01440732777612086 -0.36167739800451282 0 -0.0067772076658356058 -0.36990237411869542 0 -0.016718864700541451 -0.36676058107283133 0 -0.01440732777612086 -0.36167739800451282 0 -0.0067772076658356058 -0.36990237411869542 0 -0.0067772076658356058 -0.36990237411869542 0 -0.0095503609992233854 -0.38675620533217392 0 0.00075797251546615531 -0.38237517200786991 0 -0.0067772076658356058 -0.36990237411869542 0 -0.0095503609992233854 -0.38675620533217392 0 -0.024387326706504651 -0.39005161551904483 0 -0.0067772076658356058 -0.36990237411869542 0 -0.024387326706504651 -0.39005161551904483 0 -0.0095503609992233854 -0.38675620533217392 0 -0.0036743792100369151 -0.39310732864226139 0 0.00075797251546615531 -0.38237517200786991 0 -0.0036743792100369151 -0.39310732864226139 0 -0.01421558761864654 -0.40158085945158378 0 0.00023836058689544591 -0.40455715327592823 0 -0.0095503609992233854 -0.38675620533217392 0 -0.0036743792100369151 -0.39310732864226139 0 -0.01421558761864654 -0.40158085945158378 0 -0.01421558761864654 -0.40158085945158378 0 -0.024387326706504651 -0.39005161551904483 0 -0.024039353383981221 -0.40988447576821241 0 -0.024387326706504651 -0.39005161551904483 0 -0.041997445747173782 -0.41020085691939417 0 -0.024039353383981221 -0.40988447576821241 0 -0.0095503609992233854 -0.38675620533217392 0 -0.01421558761864654 -0.40158085945158378 0 -0.024387326706504651 -0.39005161551904483 0 -0.0067772076658356058 -0.36990237411869542 0 -0.019550527076331901 -0.38114648762685882 0 -0.024387326706504651 -0.39005161551904483 0 -0.024387326706504651 -0.39005161551904483 0 -0.029040020055602661 -0.38175840366586838 0 -0.038275882364768359 -0.38402197731135379 0 -0.019550527076331901 -0.38114648762685882 0 -0.024387326706504651 -0.39005161551904483 0 -0.029040020055602661 -0.38175840366586838 0 -0.032384554348906129 -0.37007419005323039 0 -0.019550527076331901 -0.38114648762685882 0 -0.029040020055602661 -0.38175840366586838 0 -0.032384554348906129 -0.37007419005323039 0 -0.029040020055602661 -0.38175840366586838 0 -0.038275882364768359 -0.38402197731135379 0 -0.032384554348906129 -0.37007419005323039 0 -0.047694060464751942 -0.37347413288773662 0 -0.038275882364768359 -0.38402197731135379 0 -0.047694060464751942 -0.37347413288773662 0 -0.038275882364768359 -0.38402197731135379 0 -0.05313131232901195 -0.38781855174333318 0 -0.024387326706504651 -0.39005161551904483 0 -0.038275882364768359 -0.38402197731135379 0 -0.041997445747173782 -0.41020085691939417 0 -0.038275882364768359 -0.38402197731135379 0 -0.05313131232901195 -0.38781855174333318 0 -0.041997445747173782 -0.41020085691939417 0 -0.024387326706504651 -0.39005161551904483 0 -0.041997445747173782 -0.41020085691939417 0 -0.05313131232901195 -0.38781855174333318 0 -0.041997445747173782 -0.41020085691939417 0 -0.065053914370978905 -0.39790170820262832 0 -0.059746369669151492 -0.37677136141821199 0 -0.05313131232901195 -0.38781855174333318 0 -0.068565848156350209 -0.38410858084424809 0 -0.05313131232901195 -0.38781855174333318 0 -0.068565848156350209 -0.38410858084424809 0 -0.065053914370978905 -0.39790170820262832 0 -0.047694060464751942 -0.37347413288773662 0 -0.059746369669151492 -0.37677136141821199 0 -0.05313131232901195 -0.38781855174333318 0 -0.054348148814060651 -0.42901791889636293 0 -0.041997445747173782 -0.41020085691939417 0 -0.065649221067782038 -0.41362546214262408 0 -0.041997445747173782 -0.41020085691939417 0 -0.065053914370978905 -0.39790170820262832 0 -0.065649221067782038 -0.41362546214262408 0 -0.041997445747173782 -0.41020085691939417 0 -0.027721768318730789 -0.42977846132794828 0 -0.024039353383981221 -0.40988447576821241 0 -0.054348148814060651 -0.42901791889636293 0 -0.027721768318730789 -0.42977846132794828 0 -0.040112630429779042 -0.4470624745814244 0 -0.054348148814060651 -0.42901791889636293 0 -0.041997445747173782 -0.41020085691939417 0 -0.027721768318730789 -0.42977846132794828 0 -0.027721768318730789 -0.42977846132794828 0 -0.024039353383981221 -0.40988447576821241 0 -0.01187463852885033 -0.41781058562309098 0 -0.01421558761864654 -0.40158085945158378 0 -0.024039353383981221 -0.40988447576821241 0 -0.01187463852885033 -0.41781058562309098 0 -0.01187463852885033 -0.41781058562309098 0 0.00023836058689544591 -0.40455715327592823 0 0.0098855530659783582 -0.42263406498122003 0 -0.01421558761864654 -0.40158085945158378 0 -0.01187463852885033 -0.41781058562309098 0 0.00023836058689544591 -0.40455715327592823 0 -0.01187463852885033 -0.41781058562309098 0 -0.0043419640350712179 -0.43578204779098217 0 0.0098855530659783582 -0.42263406498122003 0 -0.027721768318730789 -0.42977846132794828 0 -0.01187463852885033 -0.41781058562309098 0 -0.0043419640350712179 -0.43578204779098217 0 -0.0043419640350712179 -0.43578204779098217 0 -0.016620725161761961 -0.44734201252221928 0 0.0031868441554037852 -0.45433946608745762 0 -0.010152050097814161 -0.46633772337200008 0 -0.016620725161761961 -0.44734201252221928 0 0.0031868441554037852 -0.45433946608745762 0 -0.010152050097814161 -0.46633772337200008 0 0.0021010566397200461 -0.46756239227329749 0 0.0031868441554037852 -0.45433946608745762 0 -0.010152050097814161 -0.46633772337200008 0 -0.02040623520363366 -0.45996975832333109 0 -0.016620725161761961 -0.44734201252221928 0 -0.02040623520363366 -0.45996975832333109 0 -0.016620725161761961 -0.44734201252221928 0 -0.031601839310542917 -0.4591167864344553 0 -0.010152050097814161 -0.46633772337200008 0 -0.02040623520363366 -0.45996975832333109 0 -0.025663994105264851 -0.47044017381570657 0 -0.02040623520363366 -0.45996975832333109 0 -0.025663994105264851 -0.47044017381570657 0 -0.031601839310542917 -0.4591167864344553 0 -0.016620725161761961 -0.44734201252221928 0 -0.040112630429779042 -0.4470624745814244 0 -0.031601839310542917 -0.4591167864344553 0 -0.027721768318730789 -0.42977846132794828 0 -0.016620725161761961 -0.44734201252221928 0 -0.040112630429779042 -0.4470624745814244 0 -0.027721768318730789 -0.42977846132794828 0 -0.0043419640350712179 -0.43578204779098217 0 -0.016620725161761961 -0.44734201252221928 0 -0.0061707719464598023 -0.49770777556580809 0 -0.01606377084287354 -0.49996710571533137 0 0.00114793382667621 -0.49999999999999989 0 -0.0097154785912969069 -0.49659757064225962 0 -0.0061707719464598023 -0.49770777556580809 0 0.015760147356135481 -0.4907534662374532 0 -0.0061707719464598023 -0.49770777556580809 0 -0.01606377084287354 -0.49996710571533137 0 -0.0097154785912969069 -0.49659757064225962 0 -0.0061707719464598023 -0.49770777556580809 0 -0.01606377084287354 -0.49996710571533137 0 -0.0097154785912969069 -0.49659757064225962 0 -0.01750304415387785 -0.49838403690223998 0 -0.0097154785912969069 -0.49659757064225962 0 -0.01606377084287354 -0.49996710571533137 0 -0.01750304415387785 -0.49838403690223998 0 -0.0097154785912969069 -0.49659757064225962 0 -0.0061707719464598023 -0.49770777556580809 0 -0.0061707719464598023 -0.49770777556580809 0 0.00114793382667621 -0.49999999999999989 0 -0.0067532454619310166 -0.48728545322052552 0 -0.001243411789432144 -0.47807675656639181 0 0.001691648207849188 -0.4882926267913022 0 -0.0097154785912969069 -0.49659757064225962 0 -0.0067532454619310166 -0.48728545322052552 0 0.001691648207849188 -0.4882926267913022 0 -0.0097154785912969069 -0.49659757064225962 0 -0.0067532454619310166 -0.48728545322052552 0 -0.014966768960325019 -0.48981002278707902 0 -0.0067532454619310166 -0.48728545322052552 0 -0.014966768960325019 -0.48981002278707902 0 -0.010001080717659381 -0.48177285686595789 0 -0.0067532454619310166 -0.48728545322052552 0 -0.010001080717659381 -0.48177285686595789 0 -0.001243411789432144 -0.47807675656639181 0 -0.010152050097814161 -0.46633772337200008 0 -0.001243411789432144 -0.47807675656639181 0 0.0021010566397200461 -0.46756239227329749 0 -0.010152050097814161 -0.46633772337200008 0 -0.010001080717659381 -0.48177285686595789 0 -0.001243411789432144 -0.47807675656639181 0 -0.010152050097814161 -0.46633772337200008 0 -0.010001080717659381 -0.48177285686595789 0 -0.017943176692264862 -0.4769094434237513 0 -0.010001080717659381 -0.48177285686595789 0 -0.017943176692264862 -0.4769094434237513 0 -0.02595558184832036 -0.48908701964134021 0 -0.025663994105264851 -0.47044017381570657 0 -0.017943176692264862 -0.4769094434237513 0 -0.02595558184832036 -0.48908701964134021 0 -0.010152050097814161 -0.46633772337200008 0 -0.025663994105264851 -0.47044017381570657 0 -0.017943176692264862 -0.4769094434237513 0 -0.014966768960325019 -0.48981002278707902 0 -0.010001080717659381 -0.48177285686595789 0 -0.02595558184832036 -0.48908701964134021 0 -0.010001080717659381 -0.48177285686595789 0 -0.02595558184832036 -0.48908701964134021 0 -0.014966768960325019 -0.48981002278707902 0 -0.02595558184832036 -0.48908701964134021 0 -0.022874211114625169 -0.49247624521288008 0 -0.02909712327267721 -0.49052722420525019 0 -0.02595558184832036 -0.48908701964134021 0 -0.02909712327267721 -0.49052722420525019 0 -0.02595558184832036 -0.48908701964134021 0 -0.022874211114625169 -0.49247624521288008 0 -0.02909712327267721 -0.49052722420525019 0 -0.022874211114625169 -0.49247624521288008 0 -0.02595558184832036 -0.48908701964134021 0 -0.022874211114625169 -0.49247624521288008 0 -0.02909712327267721 -0.49052722420525019 0 -0.024547352155887329 -0.49999999999999978 0 -0.022874211114625169 -0.49247624521288008 0 -0.024547352155887329 -0.49999999999999978 0 -0.01750304415387785 -0.49838403690223998 0 -0.0097154785912969069 -0.49659757064225962 0 -0.022874211114625169 -0.49247624521288008 0 -0.0097154785912969069 -0.49659757064225962 0 -0.014966768960325019 -0.48981002278707902 0 -0.022874211114625169 -0.49247624521288008 0 -0.024547352155887329 -0.49999999999999978 0 -0.01606377084287354 -0.49996710571533137 0 -0.01750304415387785 -0.49838403690223998 0 -0.024547352155887329 -0.49999999999999978 0 -0.022874211114625169 -0.49247624521288008 0 -0.01750304415387785 -0.49838403690223998 0 -0.0097154785912969069 -0.49659757064225962 0 -0.022874211114625169 -0.49247624521288008 0 -0.01750304415387785 -0.49838403690223998 0 -0.022874211114625169 -0.49247624521288008 0 -0.01750304415387785 -0.49838403690223998 0 -0.01606377084287354 -0.49996710571533137 0 -0.01750304415387785 -0.49838403690223998 0 -0.02909712327267721 -0.49052722420525019 0 -0.051288744219387131 -0.48357679098041922 0 -0.049760241768835867 -0.50000000000000056 0 -0.02909712327267721 -0.49052722420525019 0 -0.049760241768835867 -0.50000000000000056 0 -0.02909712327267721 -0.49052722420525019 0 -0.051288744219387131 -0.48357679098041922 0 -0.02909712327267721 -0.49052722420525019 0 -0.024547352155887329 -0.49999999999999978 0 -0.049760241768835867 -0.50000000000000056 0 -0.025663994105264851 -0.47044017381570657 0 -0.02595558184832036 -0.48908701964134021 0 -0.044024751667305073 -0.4692125878706776 0 -0.02595558184832036 -0.48908701964134021 0 -0.044024751667305073 -0.4692125878706776 0 -0.02909712327267721 -0.49052722420525019 0 -0.044024751667305073 -0.4692125878706776 0 -0.051288744219387131 -0.48357679098041922 0 -0.02909712327267721 -0.49052722420525019 0 -0.02595558184832036 -0.48908701964134021 0 -0.044024751667305073 -0.4692125878706776 0 -0.051288744219387131 -0.48357679098041922 0 -0.073480365166097517 -0.47662635775558992 0 -0.051288744219387131 -0.48357679098041922 0 -0.060996633023387183 -0.46782078694715151 0 -0.073480365166097517 -0.47662635775558992 0 -0.044024751667305073 -0.4692125878706776 0 -0.051288744219387131 -0.48357679098041922 0 -0.060996633023387183 -0.46782078694715151 0 -0.051288744219387131 -0.48357679098041922 0 -0.059864494514103132 -0.49999999999999728 0 -0.073480365166097517 -0.47662635775558992 0 -0.051288744219387131 -0.48357679098041922 0 -0.059864494514103132 -0.49999999999999728 0 -0.049760241768835867 -0.50000000000000056 0 -0.025663994105264851 -0.47044017381570657 0 -0.044024751667305073 -0.4692125878706776 0 -0.031601839310542917 -0.4591167864344553 0 -0.044024751667305073 -0.4692125878706776 0 -0.040112630429779042 -0.4470624745814244 0 -0.031601839310542917 -0.4591167864344553 0 -0.044024751667305073 -0.4692125878706776 0 -0.040112630429779042 -0.4470624745814244 0 -0.062093921486289123 -0.44933815610001437 0 -0.044024751667305073 -0.4692125878706776 0 -0.060996633023387183 -0.46782078694715151 0 -0.062093921486289123 -0.44933815610001437 0 -0.044024751667305073 -0.4692125878706776 0 -0.062093921486289123 -0.44933815610001437 0 -0.054348148814060651 -0.42901791889636293 0 -0.040112630429779042 -0.4470624745814244 0 -0.062093921486289123 -0.44933815610001437 0 -0.062093921486289123 -0.44933815610001437 0 -0.087950391634558645 -0.45178643157053427 0 -0.080163091305273187 -0.42946372432935109 0 -0.062093921486289123 -0.44933815610001437 0 -0.080163091305273187 -0.42946372432935109 0 -0.060996633023387183 -0.46782078694715151 0 -0.062093921486289123 -0.44933815610001437 0 -0.071130327827583398 -0.46139293309332269 0 -0.062093921486289123 -0.44933815610001437 0 -0.071130327827583398 -0.46139293309332269 0 -0.087950391634558645 -0.45178643157053427 0 -0.071130327827583398 -0.46139293309332269 0 -0.087950391634558645 -0.45178643157053427 0 -0.073480365166097517 -0.47662635775558992 0 -0.060996633023387183 -0.46782078694715151 0 -0.071130327827583398 -0.46139293309332269 0 -0.073480365166097517 -0.47662635775558992 0 -0.087950391634558645 -0.45178643157053427 0 -0.073480365166097517 -0.47662635775558992 0 -0.087950391634558645 -0.45178643157053427 0 -0.073480365166097517 -0.47662635775558992 0 -0.075920265316988839 -0.47586217909938489 0 -0.090805323553252493 -0.46732495898314352 0 -0.087950391634558645 -0.45178643157053427 0 -0.075920265316988839 -0.47586217909938489 0 -0.059864494514103132 -0.49999999999999728 0 -0.075928249405047527 -0.48754230661971448 0 -0.073480365166097517 -0.47662635775558992 0 -0.059864494514103132 -0.49999999999999728 0 -0.075928249405047527 -0.48754230661971448 0 -0.080729459299272832 -0.5 0 -0.059864494514103132 -0.49999999999999728 0 -0.073480365166097517 -0.47662635775558992 0 -0.075928249405047527 -0.48754230661971448 0 -0.073480365166097517 -0.47662635775558992 0 -0.075920265316988839 -0.47586217909938489 0 -0.073480365166097517 -0.47662635775558992 0 -0.075920265316988839 -0.47586217909938489 0 -0.090805323553252493 -0.46732495898314352 0 -0.075920265316988839 -0.47586217909938489 0 -0.089646662728775361 -0.48522299624360049 0 -0.075928249405047527 -0.48754230661971448 0 -0.075920265316988839 -0.47586217909938489 0 -0.089646662728775361 -0.48522299624360049 0 -0.089646662728775361 -0.48522299624360049 0 -0.080729459299272832 -0.5 0 -0.1015944240844425 -0.50000000000000033 0 -0.075928249405047527 -0.48754230661971448 0 -0.089646662728775361 -0.48522299624360049 0 -0.080729459299272832 -0.5 0 -0.089646662728775361 -0.48522299624360049 0 -0.1015944240844425 -0.50000000000000033 0 -0.1032866637241168 -0.47438589220807242 0 -0.1015944240844425 -0.50000000000000033 0 -0.1032866637241168 -0.47438589220807242 0 -0.1015944240844425 -0.50000000000000033 0 -0.1032866637241168 -0.47438589220807242 0 -0.11538243088369141 -0.48804797390108651 0 -0.090805323553252493 -0.46732495898314352 0 -0.089646662728775361 -0.48522299624360049 0 -0.1032866637241168 -0.47438589220807242 0 -0.13182319766427061 -0.48022876550816812 0 -0.1032866637241168 -0.47438589220807242 0 -0.11538243088369141 -0.48804797390108651 0 -0.1258364287862383 -0.45987739188392718 0 -0.13182319766427061 -0.48022876550816812 0 -0.1032866637241168 -0.47438589220807242 0 -0.1291704376829402 -0.5 0 -0.1015944240844425 -0.50000000000000033 0 -0.11538243088369141 -0.48804797390108651 0 -0.087950391634558645 -0.45178643157053427 0 -0.10497890336379111 -0.44877178441614429 0 -0.10242041810301861 -0.42694650538547801 0 -0.087950391634558645 -0.45178643157053427 0 -0.10242041810301861 -0.42694650538547801 0 -0.090805323553252493 -0.46732495898314352 0 -0.1032866637241168 -0.47438589220807242 0 -0.10497890336379111 -0.44877178441614429 0 -0.090805323553252493 -0.46732495898314352 0 -0.087950391634558645 -0.45178643157053427 0 -0.10497890336379111 -0.44877178441614429 0 -0.1032866637241168 -0.47438589220807242 0 -0.10497890336379111 -0.44877178441614429 0 -0.1258364287862383 -0.45987739188392718 0 -0.1032866637241168 -0.47438589220807242 0 -0.10497890336379111 -0.44877178441614429 0 -0.12785827924443599 -0.44659413372527879 0 -0.1258364287862383 -0.45987739188392718 0 -0.1193801802833796 -0.44801709171602783 0 -0.1258364287862383 -0.45987739188392718 0 -0.10497890336379111 -0.44877178441614429 0 -0.1193801802833796 -0.44801709171602783 0 -0.10497890336379111 -0.44877178441614429 0 -0.1193801802833796 -0.44801709171602783 0 -0.1188471097390532 -0.43682505683876099 0 -0.12785827924443599 -0.44659413372527879 0 -0.1193801802833796 -0.44801709171602783 0 -0.1188471097390532 -0.43682505683876099 0 -0.1270471591766624 -0.42004321858464022 0 -0.1188471097390532 -0.43682505683876099 0 -0.11736396412266489 -0.42053313281200982 0 -0.1188471097390532 -0.43682505683876099 0 -0.1066711430034654 -0.42315767662421627 0 -0.11736396412266489 -0.42053313281200982 0 -0.10497890336379111 -0.44877178441614429 0 -0.1188471097390532 -0.43682505683876099 0 -0.1066711430034654 -0.42315767662421627 0 -0.10497890336379111 -0.44877178441614429 0 -0.10242041810301861 -0.42694650538547801 0 -0.1066711430034654 -0.42315767662421627 0 -0.10497890336379111 -0.44877178441614429 0 -0.1066711430034654 -0.42315767662421627 0 -0.10242041810301861 -0.42694650538547801 0 -0.1066711430034654 -0.42315767662421627 0 -0.11689044457147869 -0.40210657920042181 0 -0.10242041810301861 -0.42694650538547801 0 -0.098232261124257259 -0.40958929255868792 0 -0.11689044457147869 -0.40210657920042181 0 -0.10242041810301861 -0.42694650538547801 0 -0.11689044457147869 -0.40210657920042181 0 -0.1270471591766624 -0.42004321858464022 0 -0.11736396412266489 -0.42053313281200982 0 -0.11689044457147869 -0.40210657920042181 0 -0.1066711430034654 -0.42315767662421627 0 -0.11736396412266489 -0.42053313281200982 0 -0.11689044457147869 -0.40210657920042181 0 -0.11689044457147869 -0.40210657920042181 0 -0.121863003589462 -0.38809550939407572 0 -0.1035935648992227 -0.39595423664494322 0 -0.13469635783585379 -0.40786593226579682 0 -0.11689044457147869 -0.40210657920042181 0 -0.121863003589462 -0.38809550939407572 0 -0.12491119034450179 -0.37116525678960349 0 -0.1067504328061353 -0.38164715752456629 0 -0.121863003589462 -0.38809550939407572 0 -0.1067504328061353 -0.38164715752456629 0 -0.1035935648992227 -0.39595423664494322 0 -0.12491119034450179 -0.37116525678960349 0 -0.121863003589462 -0.38809550939407572 0 -0.1067504328061353 -0.38164715752456629 0 -0.1067504328061353 -0.38164715752456629 0 -0.088589675267768508 -0.3921290582595286 0 -0.09236628708778144 -0.37130363089365997 0 -0.1067504328061353 -0.38164715752456629 0 -0.088589675267768508 -0.3921290582595286 0 -0.1067504328061353 -0.38164715752456629 0 -0.1035935648992227 -0.39595423664494322 0 -0.088589675267768508 -0.3921290582595286 0 -0.098232261124257259 -0.40958929255868792 0 -0.1035935648992227 -0.39595423664494322 0 -0.088589675267768508 -0.3921290582595286 0 -0.098232261124257259 -0.40958929255868792 0 -0.11689044457147869 -0.40210657920042181 0 -0.1035935648992227 -0.39595423664494322 0 -0.088589675267768508 -0.3921290582595286 0 -0.065053914370978905 -0.39790170820262832 0 -0.080790105673287385 -0.40753062202679441 0 -0.098232261124257259 -0.40958929255868792 0 -0.088589675267768508 -0.3921290582595286 0 -0.080790105673287385 -0.40753062202679441 0 -0.088589675267768508 -0.3921290582595286 0 -0.08044227863309307 -0.37776742347346493 0 -0.068565848156350209 -0.38410858084424809 0 -0.09236628708778144 -0.37130363089365997 0 -0.088589675267768508 -0.3921290582595286 0 -0.08044227863309307 -0.37776742347346493 0 -0.06945932632460064 -0.37325618088828821 0 -0.08044227863309307 -0.37776742347346493 0 -0.068565848156350209 -0.38410858084424809 0 -0.06945932632460064 -0.37325618088828821 0 -0.059746369669151492 -0.37677136141821199 0 -0.068565848156350209 -0.38410858084424809 0 -0.088589675267768508 -0.3921290582595286 0 -0.068565848156350209 -0.38410858084424809 0 -0.065053914370978905 -0.39790170820262832 0 -0.065649221067782038 -0.41362546214262408 0 -0.080163091305273187 -0.42946372432935109 0 -0.080790105673287385 -0.40753062202679441 0 -0.065053914370978905 -0.39790170820262832 0 -0.065649221067782038 -0.41362546214262408 0 -0.080790105673287385 -0.40753062202679441 0 -0.054348148814060651 -0.42901791889636293 0 -0.065649221067782038 -0.41362546214262408 0 -0.080163091305273187 -0.42946372432935109 0 -0.054348148814060651 -0.42901791889636293 0 -0.062093921486289123 -0.44933815610001437 0 -0.080163091305273187 -0.42946372432935109 0 -0.087950391634558645 -0.45178643157053427 0 -0.10242041810301861 -0.42694650538547801 0 -0.080163091305273187 -0.42946372432935109 0 -0.10242041810301861 -0.42694650538547801 0 -0.098232261124257259 -0.40958929255868792 0 -0.080163091305273187 -0.42946372432935109 0 -0.098232261124257259 -0.40958929255868792 0 -0.080163091305273187 -0.42946372432935109 0 -0.098232261124257259 -0.40958929255868792 0 -0.080163091305273187 -0.42946372432935109 0 -0.080790105673287385 -0.40753062202679441 0 -0.087885528228072884 -0.087501678372896866 0 -0.084356431854777675 -0.06452420629228027 0 -0.096463818591280615 -0.066667908987913638 0 -0.087885528228072884 -0.087501678372896866 0 -0.084356431854777675 -0.06452420629228027 0 -0.072821709270830481 -0.078055569479704975 0 -0.087885528228072884 -0.087501678372896866 0 -0.084356431854777675 -0.06452420629228027 0 -0.084356431854777675 -0.06452420629228027 0 -0.072821709270830481 -0.078055569479704975 0 -0.056808105102391933 -0.066452464930766619 0 -0.072821709270830481 -0.078055569479704975 0 -0.070031712306141428 -0.095410001667352071 0 -0.048404448115184587 -0.09543052192708372 0 -0.087885528228072884 -0.087501678372896866 0 -0.072821709270830481 -0.078055569479704975 0 -0.070031712306141428 -0.095410001667352071 0 -0.070031712306141428 -0.095410001667352071 0 -0.068556660946916481 -0.11593475757817789 0 -0.080730928591751849 -0.101267320478968 0 -0.091414624601368094 -0.11047915045351341 0 -0.084464042263549005 -0.12306502599089519 0 -0.089176009727263056 -0.12940720270261721 0 -0.091414624601368094 -0.11047915045351341 0 -0.089176009727263056 -0.12940720270261721 0 -0.094943720974663998 -0.1334566225341299 0 -0.091414624601368094 -0.11047915045351341 0 -0.094943720974663998 -0.1334566225341299 0 -0.068556660946916481 -0.11593475757817789 0 -0.091414624601368094 -0.11047915045351341 0 -0.084464042263549005 -0.12306502599089519 0 -0.087885528228072884 -0.087501678372896866 0 -0.091414624601368094 -0.11047915045351341 0 -0.098603633051758927 -0.097717657622718848 0 -0.087885528228072884 -0.087501678372896866 0 -0.091414624601368094 -0.11047915045351341 0 -0.080730928591751849 -0.101267320478968 0 -0.087885528228072884 -0.087501678372896866 0 -0.091414624601368094 -0.11047915045351341 0 -0.087885528228072884 -0.087501678372896866 0 -0.070031712306141428 -0.095410001667352071 0 -0.080730928591751849 -0.101267320478968 0 -0.068556660946916481 -0.11593475757817789 0 -0.091414624601368094 -0.11047915045351341 0 -0.080730928591751849 -0.101267320478968 0 -0.098603633051758927 -0.097717657622718848 0 -0.10827519855767791 -0.10764277306652489 0 -0.1086854332230677 -0.091355052032898773 0 -0.091414624601368094 -0.11047915045351341 0 -0.098603633051758927 -0.097717657622718848 0 -0.10827519855767791 -0.10764277306652489 0 -0.091414624601368094 -0.11047915045351341 0 -0.10119645699692829 -0.1223175666550574 0 -0.094943720974663998 -0.1334566225341299 0 -0.091414624601368094 -0.11047915045351341 0 -0.10827519855767791 -0.10764277306652489 0 -0.10119645699692829 -0.1223175666550574 0 -0.10827519855767791 -0.10764277306652489 0 -0.10119645699692829 -0.1223175666550574 0 -0.1130612116976653 -0.11743926334590141 0 -0.10119645699692829 -0.1223175666550574 0 -0.1130612116976653 -0.11743926334590141 0 -0.1095224167774448 -0.12500943801932349 0 -0.1130612116976653 -0.11743926334590141 0 -0.12141654953633819 -0.1237391550570868 0 -0.1095224167774448 -0.12500943801932349 0 -0.10827519855767791 -0.10764277306652489 0 -0.1130612116976653 -0.11743926334590141 0 -0.1233103767900269 -0.11391983961638839 0 -0.1130612116976653 -0.11743926334590141 0 -0.1233103767900269 -0.11391983961638839 0 -0.12141654953633819 -0.1237391550570868 0 -0.1196943769995599 -0.1026894650061886 0 -0.1249758290592763 -0.088089041145386904 0 -0.1086854332230677 -0.091355052032898773 0 -0.10827519855767791 -0.10764277306652489 0 -0.1196943769995599 -0.1026894650061886 0 -0.1086854332230677 -0.091355052032898773 0 -0.10827519855767791 -0.10764277306652489 0 -0.1233103767900269 -0.11391983961638839 0 -0.1196943769995599 -0.1026894650061886 0 -0.1249758290592763 -0.088089041145386904 0 -0.1086854332230677 -0.091355052032898773 0 -0.1150949101028008 -0.077410137428806702 0 -0.087885528228072884 -0.087501678372896866 0 -0.098603633051758927 -0.097717657622718848 0 -0.1003403443424411 -0.078336534568293828 0 -0.1086854332230677 -0.091355052032898773 0 -0.1003403443424411 -0.078336534568293828 0 -0.10868517796611039 -0.065317853483212285 0 -0.1086854332230677 -0.091355052032898773 0 -0.10868517796611039 -0.065317853483212285 0 -0.098603633051758927 -0.097717657622718848 0 -0.1086854332230677 -0.091355052032898773 0 -0.1003403443424411 -0.078336534568293828 0 -0.087885528228072884 -0.087501678372896866 0 -0.1003403443424411 -0.078336534568293828 0 -0.096463818591280615 -0.066667908987913638 0 -0.1003403443424411 -0.078336534568293828 0 -0.096463818591280615 -0.066667908987913638 0 -0.10868517796611039 -0.065317853483212285 0 -0.1249758290592763 -0.088089041145386904 0 -0.1168303758842141 -0.063684848039456371 0 -0.1150949101028008 -0.077410137428806702 0 -0.1249758290592763 -0.088089041145386904 0 -0.1168303758842141 -0.063684848039456371 0 -0.1086854332230677 -0.091355052032898773 0 -0.10868517796611039 -0.065317853483212285 0 -0.1150949101028008 -0.077410137428806702 0 -0.10868517796611039 -0.065317853483212285 0 -0.1168303758842141 -0.063684848039456371 0 -0.1150949101028008 -0.077410137428806702 0 -0.1168303758842141 -0.063684848039456371 0 -0.1086849227091525 -0.039280654933525748 0 -0.10868517796611039 -0.065317853483212285 0 -0.1168303758842141 -0.063684848039456371 0 -0.1086849227091525 -0.039280654933525748 0 -0.1168303758842141 -0.063684848039456371 0 -0.1086849227091525 -0.039280654933525748 0 -0.13437411955032749 -0.049955449646558618 0 -0.1086849227091525 -0.039280654933525748 0 -0.12811296504878369 -0.028680234473229111 0 -0.13437411955032749 -0.049955449646558618 0 -0.1086849227091525 -0.039280654933525748 0 -0.094629227787703801 -0.051561931469246772 0 -0.084264045435959417 -0.025379109095011211 0 -0.10868517796611039 -0.065317853483212285 0 -0.1086849227091525 -0.039280654933525748 0 -0.094629227787703801 -0.051561931469246772 0 -0.10868517796611039 -0.065317853483212285 0 -0.1086849227091525 -0.039280654933525748 0 -0.096463818591280615 -0.066667908987913638 0 -0.10868517796611039 -0.065317853483212285 0 -0.094629227787703801 -0.051561931469246772 0 -0.11882490356417411 -0.003904598360146466 0 -0.10868467246495971 -0.013754777708714109 0 -0.1257243243116119 -0.013993145548155089 0 -0.11882490356417411 -0.003904598360146466 0 -0.10868467246495971 -0.013754777708714109 0 -0.1086844222207676 0.011771099516097561 0 -0.1086849227091525 -0.039280654933525748 0 -0.10868467246495971 -0.013754777708714109 0 -0.12811296504878369 -0.028680234473229111 0 -0.10868467246495971 -0.013754777708714109 0 -0.1257243243116119 -0.013993145548155089 0 -0.12811296504878369 -0.028680234473229111 0 -0.1086849227091525 -0.039280654933525748 0 -0.10868467246495971 -0.013754777708714109 0 -0.1086849227091525 -0.039280654933525748 0 -0.1002444259692802 -0.01399249626109764 0 -0.084264045435959417 -0.025379109095011211 0 -0.1086849227091525 -0.039280654933525748 0 -0.10868467246495971 -0.013754777708714109 0 -0.1002444259692802 -0.01399249626109764 0 -0.1086849227091525 -0.039280654933525748 0 -0.1002444259692802 -0.01399249626109764 0 -0.10868467246495971 -0.013754777708714109 0 -0.1086844222207676 0.011771099516097561 0 -0.10868467246495971 -0.013754777708714109 0 -0.096474233828364037 -0.0068040047894571357 0 -0.1086844222207676 0.011771099516097561 0 -0.10868467246495971 -0.013754777708714109 0 -0.1002444259692802 -0.01399249626109764 0 -0.096474233828364037 -0.0068040047894571357 0 -0.1002444259692802 -0.01399249626109764 0 -0.096474233828364037 -0.0068040047894571357 0 -0.084264045435959417 -0.025379109095011211 0 -0.096474233828364037 -0.0068040047894571357 0 -0.084456534393358026 -0.010309901482244329 0 -0.084264045435959417 -0.025379109095011211 0 -0.078334814199318203 -0.002763550018114088 0 -0.084456534393358026 -0.010309901482244329 0 -0.088518055910885796 0.001011111111938902 0 -0.096474233828364037 -0.0068040047894571357 0 -0.084456534393358026 -0.010309901482244329 0 -0.088518055910885796 0.001011111111938902 0 -0.078334814199318203 -0.002763550018114088 0 -0.084456534393358026 -0.010309901482244329 0 -0.072865412579994043 -0.014401514791519051 0 -0.096474233828364037 -0.0068040047894571357 0 -0.084264045435959417 -0.025379109095011211 0 -0.084456534393358026 -0.010309901482244329 0 -0.084264045435959417 -0.025379109095011211 0 -0.072865412579994043 -0.014401514791519051 0 -0.084264045435959417 -0.025379109095011211 0 -0.072865412579994043 -0.014401514791519051 0 -0.062237706730578629 -0.029129110296737561 0 -0.072865412579994043 -0.014401514791519051 0 -0.060446776131151923 -0.013687756836243559 0 -0.062237706730578629 -0.029129110296737561 0 -0.072865412579994043 -0.014401514791519051 0 -0.067452598589598109 -0.0051396610207635326 0 -0.060446776131151923 -0.013687756836243559 0 -0.078334814199318203 -0.002763550018114088 0 -0.072865412579994043 -0.014401514791519051 0 -0.067452598589598109 -0.0051396610207635326 0 -0.084356431854777675 -0.06452420629228027 0 -0.094629227787703801 -0.051561931469246772 0 -0.072053857043554798 -0.043954213400565309 0 -0.084356431854777675 -0.06452420629228027 0 -0.096463818591280615 -0.066667908987913638 0 -0.094629227787703801 -0.051561931469246772 0 -0.084264045435959417 -0.025379109095011211 0 -0.072053857043554798 -0.043954213400565309 0 -0.094629227787703801 -0.051561931469246772 0 -0.084264045435959417 -0.025379109095011211 0 -0.072053857043554798 -0.043954213400565309 0 -0.084264045435959417 -0.025379109095011211 0 -0.072053857043554798 -0.043954213400565309 0 -0.062237706730578629 -0.029129110296737561 0 -0.072053857043554798 -0.043954213400565309 0 -0.054904714888106693 -0.046385709650370283 0 -0.062237706730578629 -0.029129110296737561 0 -0.084356431854777675 -0.06452420629228027 0 -0.072053857043554798 -0.043954213400565309 0 -0.056808105102391933 -0.066452464930766619 0 -0.072053857043554798 -0.043954213400565309 0 -0.054904714888106693 -0.046385709650370283 0 -0.056808105102391933 -0.066452464930766619 0 -0.054904714888106693 -0.046385709650370283 0 -0.041750604227142288 -0.055286851311442897 0 -0.056808105102391933 -0.066452464930766619 0 -0.054904714888106693 -0.046385709650370283 0 -0.041066001644148073 -0.037264679750437547 0 -0.062237706730578629 -0.029129110296737561 0 -0.054904714888106693 -0.046385709650370283 0 -0.041066001644148073 -0.037264679750437547 0 -0.041750604227142288 -0.055286851311442897 0 -0.041066001644148073 -0.037264679750437547 0 -0.032763813354124142 -0.0238847138544372 0 -0.021347961344598591 -0.037360900307651337 0 -0.041066001644148073 -0.037264679750437547 0 -0.041750604227142288 -0.055286851311442897 0 -0.026507364832176739 -0.051722658825847583 0 -0.041750604227142288 -0.055286851311442897 0 -0.026507364832176739 -0.051722658825847583 0 -0.028252235283452609 -0.074926286275989393 0 -0.05314374056246722 -0.0011078366443659951 0 -0.050248319323078577 -0.010497638224936051 0 -0.039734266448735241 -0.0067888090409130609 0 -0.067452598589598109 -0.0051396610207635326 0 -0.05314374056246722 -0.0011078366443659951 0 -0.060446776131151923 -0.013687756836243559 0 -0.05314374056246722 -0.0011078366443659951 0 -0.060446776131151923 -0.013687756836243559 0 -0.050248319323078577 -0.010497638224936051 0 -0.060446776131151923 -0.013687756836243559 0 -0.050248319323078577 -0.010497638224936051 0 -0.047668494149959953 -0.020406150378221601 0 -0.041066001644148073 -0.037264679750437547 0 -0.047668494149959953 -0.020406150378221601 0 -0.062237706730578629 -0.029129110296737561 0 -0.060446776131151923 -0.013687756836243559 0 -0.047668494149959953 -0.020406150378221601 0 -0.062237706730578629 -0.029129110296737561 0 -0.041066001644148073 -0.037264679750437547 0 -0.047668494149959953 -0.020406150378221601 0 -0.032763813354124142 -0.0238847138544372 0 -0.047668494149959953 -0.020406150378221601 0 -0.032763813354124142 -0.0238847138544372 0 -0.039734266448735241 -0.0067888090409130609 0 -0.05314374056246722 -0.0011078366443659951 0 -0.039734266448735241 -0.0067888090409130609 0 -0.02986916218455692 0.00093512753027480411 0 -0.050248319323078577 -0.010497638224936051 0 -0.047668494149959953 -0.020406150378221601 0 -0.039734266448735241 -0.0067888090409130609 0 -0.005601158127135077 -0.013126242894221769 0 -0.02986916218455692 0.00093512753027480411 0 -0.01307847104267023 0.001682871512254519 0 -0.039734266448735241 -0.0067888090409130609 0 -0.013841038034362461 -0.020353312007358772 0 -0.005601158127135077 -0.013126242894221769 0 -0.02986916218455692 0.00093512753027480411 0 -0.013841038034362461 -0.020353312007358772 0 -0.005601158127135077 -0.013126242894221769 0 -0.02986916218455692 0.00093512753027480411 0 -0.039734266448735241 -0.0067888090409130609 0 -0.013841038034362461 -0.020353312007358772 0 -0.02986916218455692 0.00093512753027480411 0 -0.032763813354124142 -0.0238847138544372 0 -0.013841038034362461 -0.020353312007358772 0 -0.021347961344598591 -0.037360900307651337 0 -0.032763813354124142 -0.0238847138544372 0 -0.039734266448735241 -0.0067888090409130609 0 -0.013841038034362461 -0.020353312007358772 0 -0.013841038034362461 -0.020353312007358772 0 0.01205219038001208 -0.033917814973801461 0 -0.013841038034362461 -0.020353312007358772 0 -0.0058095277510595619 -0.036517986782931881 0 0.01205219038001208 -0.033917814973801461 0 -0.013841038034362461 -0.020353312007358772 0 -0.005601158127135077 -0.013126242894221769 0 0.01205219038001208 -0.033917814973801461 0 -0.005601158127135077 -0.013126242894221769 0 -0.01307847104267023 0.001682871512254519 0 0.0013368076600828139 0.00064641566715705325 0 -0.026507364832176739 -0.051722658825847583 0 -0.021347961344598591 -0.037360900307651337 0 -0.0081000224517206176 -0.054422050624895073 0 -0.026507364832176739 -0.051722658825847583 0 -0.0081000224517206176 -0.054422050624895073 0 -0.028252235283452609 -0.074926286275989393 0 -0.041066001644148073 -0.037264679750437547 0 -0.026507364832176739 -0.051722658825847583 0 -0.021347961344598591 -0.037360900307651337 0 -0.021347961344598591 -0.037360900307651337 0 -0.0058095277510595619 -0.036517986782931881 0 -0.0081000224517206176 -0.054422050624895073 0 -0.013841038034362461 -0.020353312007358772 0 -0.021347961344598591 -0.037360900307651337 0 -0.0058095277510595619 -0.036517986782931881 0 -0.0058095277510595619 -0.036517986782931881 0 -0.0081000224517206176 -0.054422050624895073 0 0.01205219038001208 -0.033917814973801461 0 -0.0081000224517206176 -0.054422050624895073 0 -0.0050141511229591469 -0.083295860522754159 0 0.005219015958159736 -0.06731093962953405 0 -0.0081000224517206176 -0.054422050624895073 0 -0.0050141511229591469 -0.083295860522754159 0 -0.028252235283452609 -0.074926286275989393 0 -0.0050141511229591469 -0.083295860522754159 0 -0.028252235283452609 -0.074926286275989393 0 -0.022548101037742779 -0.10060944902204889 0 -0.0081000224517206176 -0.054422050624895073 0 -0.028252235283452609 -0.074926286275989393 0 -0.041750604227142288 -0.055286851311442897 0 -0.028252235283452609 -0.074926286275989393 0 -0.056808105102391933 -0.066452464930766619 0 -0.028252235283452609 -0.074926286275989393 0 -0.048404448115184587 -0.09543052192708372 0 -0.028252235283452609 -0.074926286275989393 0 -0.056808105102391933 -0.066452464930766619 0 -0.048404448115184587 -0.09543052192708372 0 -0.028252235283452609 -0.074926286275989393 0 -0.048404448115184587 -0.09543052192708372 0 -0.022548101037742779 -0.10060944902204889 0 -0.072821709270830481 -0.078055569479704975 0 -0.056808105102391933 -0.066452464930766619 0 -0.048404448115184587 -0.09543052192708372 0 -0.054135194547901618 -0.1182635998006281 0 -0.048404448115184587 -0.09543052192708372 0 -0.04204608249371998 -0.1182596563514333 0 -0.068556660946916481 -0.11593475757817789 0 -0.054135194547901618 -0.1182635998006281 0 -0.048404448115184587 -0.09543052192708372 0 -0.054135194547901618 -0.1182635998006281 0 -0.04204608249371998 -0.1182596563514333 0 -0.049328208713744458 -0.1308894517020493 0 -0.068556660946916481 -0.11593475757817789 0 -0.054135194547901618 -0.1182635998006281 0 -0.062340572469942623 -0.1308036114443962 0 -0.070031712306141428 -0.095410001667352071 0 -0.068556660946916481 -0.11593475757817789 0 -0.048404448115184587 -0.09543052192708372 0 -0.068556660946916481 -0.11593475757817789 0 -0.048404448115184587 -0.09543052192708372 0 -0.048404448115184587 -0.09543052192708372 0 -0.04204608249371998 -0.1182596563514333 0 -0.022548101037742779 -0.10060944902204889 0 -0.0050141511229591469 -0.083295860522754159 0 -0.022548101037742779 -0.10060944902204889 0 0.0052588520052682464 -0.11514370574485849 0 -0.04204608249371998 -0.1182596563514333 0 -0.018587611551378631 -0.1174213722323726 0 -0.022548101037742779 -0.10060944902204889 0 -0.04204608249371998 -0.1182596563514333 0 -0.018587611551378631 -0.1174213722323726 0 -0.030630219449267471 -0.12664483948290001 0 -0.01829416010236987 -0.133605792362194 0 0.0052588520052682464 -0.11514370574485849 0 -0.018587611551378631 -0.1174213722323726 0 -0.022548101037742779 -0.10060944902204889 0 0.0052588520052682464 -0.11514370574485849 0 -0.018587611551378631 -0.1174213722323726 0 -0.01829416010236987 -0.133605792362194 0 0.0052588520052682464 -0.11514370574485849 0 -0.01829416010236987 -0.133605792362194 0 -0.003004005103060921 -0.15307056508902001 0 0.013646756960559409 -0.13380361011871339 0 -0.030630219449267471 -0.12664483948290001 0 -0.01829416010236987 -0.133605792362194 0 -0.041946627351864323 -0.13516376766548119 0 -0.018587611551378631 -0.1174213722323726 0 -0.030630219449267471 -0.12664483948290001 0 -0.01829416010236987 -0.133605792362194 0 -0.01829416010236987 -0.133605792362194 0 -0.02176639311578615 -0.1534462776731699 0 -0.041847172210008207 -0.1520678789795292 0 -0.01829416010236987 -0.133605792362194 0 -0.041847172210008207 -0.1520678789795292 0 -0.01829416010236987 -0.133605792362194 0 -0.02176639311578615 -0.1534462776731699 0 -0.003004005103060921 -0.15307056508902001 0 -0.02176639311578615 -0.1534462776731699 0 -0.003004005103060921 -0.15307056508902001 0 -0.0087818727483572646 -0.16854142425400009 0 -0.003004005103060921 -0.15307056508902001 0 -0.0087818727483572646 -0.16854142425400009 0 0.0073780211962345722 -0.1675384859478232 0 -0.0087818727483572646 -0.16854142425400009 0 -0.016419731306044179 -0.1835447213679208 0 0.0088310485035662332 -0.18499497339519749 0 -0.016419731306044179 -0.1835447213679208 0 0.0088310485035662332 -0.18499497339519749 0 -0.016419731306044179 -0.1835447213679208 0 -0.027613855814335789 -0.16714621076362121 0 -0.041670511115654667 -0.18209446934064419 0 -0.016419731306044179 -0.1835447213679208 0 -0.041670511115654667 -0.18209446934064419 0 -0.0087818727483572646 -0.16854142425400009 0 -0.016419731306044179 -0.1835447213679208 0 -0.027613855814335789 -0.16714621076362121 0 -0.016419731306044179 -0.1835447213679208 0 -0.041670511115654667 -0.18209446934064419 0 -0.029057726070055689 -0.19008395067250999 0 -0.02176639311578615 -0.1534462776731699 0 -0.0087818727483572646 -0.16854142425400009 0 -0.027613855814335789 -0.16714621076362121 0 -0.02176639311578615 -0.1534462776731699 0 -0.027613855814335789 -0.16714621076362121 0 -0.041847172210008207 -0.1520678789795292 0 -0.041670511115654667 -0.18209446934064419 0 -0.041847172210008207 -0.1520678789795292 0 -0.027613855814335789 -0.16714621076362121 0 -0.041670511115654667 -0.18209446934064419 0 -0.041847172210008207 -0.1520678789795292 0 -0.041670511115654667 -0.18209446934064419 0 -0.048431864628172762 -0.17255338457135219 0 -0.041847172210008207 -0.1520678789795292 0 -0.041670511115654667 -0.18209446934064419 0 -0.043794810287711809 -0.18197246244802351 0 -0.048431864628172762 -0.17255338457135219 0 -0.041670511115654667 -0.18209446934064419 0 -0.043794810287711809 -0.18197246244802351 0 -0.041670511115654667 -0.18209446934064419 0 -0.043794810287711809 -0.18197246244802351 0 -0.046486753295292269 -0.18776035817056361 0 -0.043794810287711809 -0.18197246244802351 0 -0.051814567160495227 -0.18491648200889449 0 -0.050285156331716097 -0.1792626494424415 0 -0.043794810287711809 -0.18197246244802351 0 -0.051814567160495227 -0.18491648200889449 0 -0.046486753295292269 -0.18776035817056361 0 -0.051814567160495227 -0.18491648200889449 0 -0.050285156331716097 -0.1792626494424415 0 -0.057099383250484623 -0.17760826874149591 0 -0.043794810287711809 -0.18197246244802351 0 -0.048431864628172762 -0.17255338457135219 0 -0.050285156331716097 -0.1792626494424415 0 -0.048431864628172762 -0.17255338457135219 0 -0.050285156331716097 -0.1792626494424415 0 -0.057099383250484623 -0.17760826874149591 0 -0.057099383250484623 -0.17760826874149591 0 -0.05665595973232522 -0.16367578359424639 0 -0.071464747254640193 -0.17528368820896609 0 -0.051814567160495227 -0.18491648200889449 0 -0.057099383250484623 -0.17760826874149591 0 -0.062811978210651931 -0.19069832870338349 0 -0.048431864628172762 -0.17255338457135219 0 -0.05665595973232522 -0.16367578359424639 0 -0.041847172210008207 -0.1520678789795292 0 -0.05665595973232522 -0.16367578359424639 0 -0.041847172210008207 -0.1520678789795292 0 -0.048431864628172762 -0.17255338457135219 0 -0.057099383250484623 -0.17760826874149591 0 -0.05665595973232522 -0.16367578359424639 0 -0.050944812305286941 -0.14511839464796281 0 -0.049328208713744458 -0.1308894517020493 0 -0.063616224475081307 -0.1473506911416953 0 -0.05665595973232522 -0.16367578359424639 0 -0.050944812305286941 -0.14511839464796281 0 -0.041847172210008207 -0.1520678789795292 0 -0.05665595973232522 -0.16367578359424639 0 -0.050944812305286941 -0.14511839464796281 0 -0.063616224475081307 -0.1473506911416953 0 -0.049328208713744458 -0.1308894517020493 0 -0.063616224475081307 -0.1473506911416953 0 -0.062340572469942623 -0.1308036114443962 0 -0.049328208713744458 -0.1308894517020493 0 -0.063616224475081307 -0.1473506911416953 0 -0.054135194547901618 -0.1182635998006281 0 -0.062340572469942623 -0.1308036114443962 0 -0.049328208713744458 -0.1308894517020493 0 -0.050944812305286941 -0.14511839464796281 0 -0.049328208713744458 -0.1308894517020493 0 -0.041946627351864323 -0.13516376766548119 0 -0.04204608249371998 -0.1182596563514333 0 -0.041946627351864323 -0.13516376766548119 0 -0.04204608249371998 -0.1182596563514333 0 -0.030630219449267471 -0.12664483948290001 0 -0.041946627351864323 -0.13516376766548119 0 -0.01829416010236987 -0.133605792362194 0 -0.041946627351864323 -0.13516376766548119 0 -0.041847172210008207 -0.1520678789795292 0 -0.04204608249371998 -0.1182596563514333 0 -0.049328208713744458 -0.1308894517020493 0 -0.041946627351864323 -0.13516376766548119 0 -0.041946627351864323 -0.13516376766548119 0 -0.041847172210008207 -0.1520678789795292 0 -0.050944812305286941 -0.14511839464796281 0 -0.041946627351864323 -0.13516376766548119 0 -0.041847172210008207 -0.1520678789795292 0 -0.021454324615046299 -0.25265378220898571 0 -0.024894022619631469 -0.22844774455289779 0 -0.021454324615046299 -0.25265378220898571 0 -0.02982894127401315 -0.24869091922283099 0 -0.024894022619631469 -0.22844774455289779 0 -0.021454324615046299 -0.25265378220898571 0 -0.015064710171831169 -0.23939840190699549 0 -0.024894022619631469 -0.22844774455289779 0 -0.02982894127401315 -0.24869091922283099 0 -0.024894022619631469 -0.22844774455289779 0 -0.03865392236174741 -0.2428150274564457 0 -0.021454324615046299 -0.25265378220898571 0 -0.01436331776458151 -0.2491202803804608 0 -0.015064710171831169 -0.23939840190699549 0 -0.0077596479798487331 -0.24704556683880691 0 -0.015064710171831169 -0.23939840190699549 0 -0.00358740078059251 -0.2301895122442239 0 -0.0077596479798487331 -0.24704556683880691 0 -0.00358740078059251 -0.2301895122442239 0 0.0059536600781536506 -0.25117039767460608 0 -0.01436331776458151 -0.2491202803804608 0 -0.0077596479798487331 -0.24704556683880691 0 -0.015064710171831169 -0.23939840190699549 0 -0.00358740078059251 -0.2301895122442239 0 -0.011399690766964839 -0.22117276912317491 0 -0.01239309956989133 -0.21082569514171151 0 -0.01288780847080284 -0.23035483981054389 0 -0.00358740078059251 -0.2301895122442239 0 -0.011399690766964839 -0.22117276912317491 0 -0.00358740078059251 -0.2301895122442239 0 -0.01239309956989133 -0.21082569514171151 0 0.0035297938300472001 -0.21986774507615159 0 -0.015064710171831169 -0.23939840190699549 0 -0.01288780847080284 -0.23035483981054389 0 -0.00358740078059251 -0.2301895122442239 0 -0.00358740078059251 -0.2301895122442239 0 -0.01239309956989133 -0.21082569514171151 0 -0.00358740078059251 -0.2301895122442239 0 -0.011399690766964839 -0.22117276912317491 0 -0.011399690766964839 -0.22117276912317491 0 -0.024894022619631469 -0.22844774455289779 0 -0.01952648859698981 -0.2099329676878649 0 -0.01288780847080284 -0.23035483981054389 0 -0.011399690766964839 -0.22117276912317491 0 -0.024894022619631469 -0.22844774455289779 0 -0.015064710171831169 -0.23939840190699549 0 -0.01288780847080284 -0.23035483981054389 0 -0.024894022619631469 -0.22844774455289779 0 -0.024894022619631469 -0.22844774455289779 0 -0.02833372062421663 -0.20424170689680979 0 -0.01952648859698981 -0.2099329676878649 0 -0.024894022619631469 -0.22844774455289779 0 -0.02833372062421663 -0.20424170689680979 0 -0.037940866292772123 -0.21051188677683011 0 -0.024894022619631469 -0.22844774455289779 0 -0.02833372062421663 -0.20424170689680979 0 -0.02833372062421663 -0.20424170689680979 0 -0.01952648859698981 -0.2099329676878649 0 -0.024847872510306349 -0.19623275656589639 0 -0.01952648859698981 -0.2099329676878649 0 -0.01239309956989133 -0.21082569514171151 0 -0.01529052549092823 -0.1986771338466988 0 -0.011399690766964839 -0.22117276912317491 0 -0.01952648859698981 -0.2099329676878649 0 -0.01239309956989133 -0.21082569514171151 0 -0.0015516111982930129 -0.21027501658404171 0 -0.01239309956989133 -0.21082569514171151 0 0.0035297938300472001 -0.21986774507615159 0 -0.0015516111982930129 -0.21027501658404171 0 -0.01239309956989133 -0.21082569514171151 0 -0.001394300706792132 -0.19959582481195021 0 -0.016419731306044179 -0.1835447213679208 0 -0.001394300706792132 -0.19959582481195021 0 0.0088310485035662332 -0.18499497339519749 0 -0.016419731306044179 -0.1835447213679208 0 -0.01529052549092823 -0.1986771338466988 0 -0.001394300706792132 -0.19959582481195021 0 -0.01239309956989133 -0.21082569514171151 0 -0.01529052549092823 -0.1986771338466988 0 -0.001394300706792132 -0.19959582481195021 0 -0.016419731306044179 -0.1835447213679208 0 -0.01529052549092823 -0.1986771338466988 0 -0.024847872510306349 -0.19623275656589639 0 -0.01952648859698981 -0.2099329676878649 0 -0.01529052549092823 -0.1986771338466988 0 -0.024847872510306349 -0.19623275656589639 0 -0.02833372062421663 -0.20424170689680979 0 -0.024847872510306349 -0.19623275656589639 0 -0.033292789348217583 -0.1984638554155787 0 -0.024847872510306349 -0.19623275656589639 0 -0.029057726070055689 -0.19008395067250999 0 -0.033292789348217583 -0.1984638554155787 0 -0.016419731306044179 -0.1835447213679208 0 -0.024847872510306349 -0.19623275656589639 0 -0.029057726070055689 -0.19008395067250999 0 -0.041670511115654667 -0.18209446934064419 0 -0.041552899962541759 -0.20208450692858149 0 -0.046486753295292269 -0.18776035817056361 0 -0.041670511115654667 -0.18209446934064419 0 -0.033292789348217583 -0.1984638554155787 0 -0.041552899962541759 -0.20208450692858149 0 -0.041670511115654667 -0.18209446934064419 0 -0.029057726070055689 -0.19008395067250999 0 -0.033292789348217583 -0.1984638554155787 0 -0.041670511115654667 -0.18209446934064419 0 -0.041552899962541759 -0.20208450692858149 0 -0.041552899962541759 -0.20208450692858149 0 -0.046486753295292269 -0.18776035817056361 0 -0.05080128034278316 -0.1945814553481594 0 -0.051814567160495227 -0.18491648200889449 0 -0.046486753295292269 -0.18776035817056361 0 -0.05080128034278316 -0.1945814553481594 0 -0.051814567160495227 -0.18491648200889449 0 -0.05080128034278316 -0.1945814553481594 0 -0.062811978210651931 -0.19069832870338349 0 -0.054159209166664168 -0.20611296919780109 0 -0.065227717149535278 -0.2021905259475599 0 -0.062811978210651931 -0.19069832870338349 0 -0.054159209166664168 -0.20611296919780109 0 -0.062811978210651931 -0.19069832870338349 0 -0.05080128034278316 -0.1945814553481594 0 -0.054159209166664168 -0.20611296919780109 0 -0.062811978210651931 -0.19069832870338349 0 -0.041552899962541759 -0.20208450692858149 0 -0.05080128034278316 -0.1945814553481594 0 -0.049092623122322487 -0.2013293668103612 0 -0.05080128034278316 -0.1945814553481594 0 -0.049092623122322487 -0.2013293668103612 0 -0.054159209166664168 -0.20611296919780109 0 -0.041552899962541759 -0.20208450692858149 0 -0.049092623122322487 -0.2013293668103612 0 -0.050583566010974697 -0.2127709265230571 0 -0.049092623122322487 -0.2013293668103612 0 -0.054159209166664168 -0.20611296919780109 0 -0.050583566010974697 -0.2127709265230571 0 -0.050583566010974697 -0.2127709265230571 0 -0.067874342673731852 -0.22707799763053549 0 -0.064051976659797616 -0.21310140631831889 0 -0.054159209166664168 -0.20611296919780109 0 -0.050583566010974697 -0.2127709265230571 0 -0.064051976659797616 -0.21310140631831889 0 -0.054159209166664168 -0.20611296919780109 0 -0.064051976659797616 -0.21310140631831889 0 -0.065227717149535278 -0.2021905259475599 0 -0.033292789348217583 -0.1984638554155787 0 -0.041552899962541759 -0.20208450692858149 0 -0.050583566010974697 -0.2127709265230571 0 -0.033292789348217583 -0.1984638554155787 0 -0.050583566010974697 -0.2127709265230571 0 -0.033292789348217583 -0.1984638554155787 0 -0.050583566010974697 -0.2127709265230571 0 -0.037940866292772123 -0.21051188677683011 0 -0.050583566010974697 -0.2127709265230571 0 -0.037940866292772123 -0.21051188677683011 0 -0.04104241036220288 -0.22491181879965849 0 -0.02833372062421663 -0.20424170689680979 0 -0.033292789348217583 -0.1984638554155787 0 -0.037940866292772123 -0.21051188677683011 0 -0.024894022619631469 -0.22844774455289779 0 -0.037940866292772123 -0.21051188677683011 0 -0.04104241036220288 -0.22491181879965849 0 -0.024894022619631469 -0.22844774455289779 0 -0.04104241036220288 -0.22491181879965849 0 -0.03865392236174741 -0.2428150274564457 0 -0.050583566010974697 -0.2127709265230571 0 -0.04104241036220288 -0.22491181879965849 0 -0.053111628645536049 -0.22521845613039701 0 -0.050583566010974697 -0.2127709265230571 0 -0.053111628645536049 -0.22521845613039701 0 -0.067874342673731852 -0.22707799763053549 0 -0.050583566010974697 -0.2127709265230571 0 -0.067874342673731852 -0.22707799763053549 0 -0.053111628645536049 -0.22521845613039701 0 -0.052946195535234782 -0.2361130815683368 0 -0.067874342673731852 -0.22707799763053549 0 -0.04104241036220288 -0.22491181879965849 0 -0.053111628645536049 -0.22521845613039701 0 -0.052946195535234782 -0.2361130815683368 0 -0.06284949686432259 -0.25801573334750111 0 -0.052946195535234782 -0.2361130815683368 0 -0.067874342673731852 -0.22707799763053549 0 -0.06284949686432259 -0.25801573334750111 0 -0.052946195535234782 -0.2361130815683368 0 -0.049183695989257412 -0.24870926544763969 0 -0.052946195535234782 -0.2361130815683368 0 -0.049183695989257412 -0.24870926544763969 0 -0.03865392236174741 -0.2428150274564457 0 -0.04104241036220288 -0.22491181879965849 0 -0.052946195535234782 -0.2361130815683368 0 -0.03865392236174741 -0.2428150274564457 0 -0.042285169195724857 -0.25789321941827531 0 -0.049183695989257412 -0.24870926544763969 0 -0.03865392236174741 -0.2428150274564457 0 -0.033577981947453352 -0.25575186785835669 0 -0.02982894127401315 -0.24869091922283099 0 -0.03865392236174741 -0.2428150274564457 0 -0.085165119336488848 -0.24138506873801399 0 -0.1017041624078983 -0.22905938619765481 0 -0.06284949686432259 -0.25801573334750111 0 -0.085165119336488848 -0.24138506873801399 0 -0.067874342673731852 -0.22707799763053549 0 -0.06284949686432259 -0.25801573334750111 0 -0.085165119336488848 -0.24138506873801399 0 -0.085165119336488848 -0.24138506873801399 0 -0.067874342673731852 -0.22707799763053549 0 -0.067874342673731852 -0.22707799763053549 0 -0.085394308166058391 -0.2244334205599976 0 -0.078954052117338747 -0.21347607951975711 0 -0.085165119336488848 -0.24138506873801399 0 -0.067874342673731852 -0.22707799763053549 0 -0.085394308166058391 -0.2244334205599976 0 -0.085165119336488848 -0.24138506873801399 0 -0.085394308166058391 -0.2244334205599976 0 -0.1017041624078983 -0.22905938619765481 0 -0.085394308166058391 -0.2244334205599976 0 -0.089871369411114593 -0.20940875034851009 0 -0.1014081977789294 -0.21490095288573971 0 -0.089871369411114593 -0.20940875034851009 0 -0.078954052117338747 -0.21347607951975711 0 -0.08207128774273012 -0.19875670546290169 0 -0.085394308166058391 -0.2244334205599976 0 -0.089871369411114593 -0.20940875034851009 0 -0.078954052117338747 -0.21347607951975711 0 -0.067874342673731852 -0.22707799763053549 0 -0.078954052117338747 -0.21347607951975711 0 -0.064051976659797616 -0.21310140631831889 0 -0.064051976659797616 -0.21310140631831889 0 -0.072583069951956208 -0.20532115914628249 0 -0.065227717149535278 -0.2021905259475599 0 -0.078954052117338747 -0.21347607951975711 0 -0.064051976659797616 -0.21310140631831889 0 -0.072583069951956208 -0.20532115914628249 0 -0.078954052117338747 -0.21347607951975711 0 -0.072583069951956208 -0.20532115914628249 0 -0.08207128774273012 -0.19875670546290169 0 -0.072583069951956208 -0.20532115914628249 0 -0.071433297398704979 -0.1964677403249534 0 -0.08207128774273012 -0.19875670546290169 0 -0.072583069951956208 -0.20532115914628249 0 -0.071433297398704979 -0.1964677403249534 0 -0.065227717149535278 -0.2021905259475599 0 -0.071433297398704979 -0.1964677403249534 0 -0.065227717149535278 -0.2021905259475599 0 -0.062811978210651931 -0.19069832870338349 0 -0.071433297398704979 -0.1964677403249534 0 -0.062811978210651931 -0.19069832870338349 0 -0.074553684816232133 -0.1894179382027712 0 -0.071433297398704979 -0.1964677403249534 0 -0.074553684816232133 -0.1894179382027712 0 -0.08207128774273012 -0.19875670546290169 0 -0.074553684816232133 -0.1894179382027712 0 -0.08207128774273012 -0.19875670546290169 0 -0.084987113474433468 -0.18588322831365131 0 -0.089871369411114593 -0.20940875034851009 0 -0.08207128774273012 -0.19875670546290169 0 -0.095299848696860229 -0.20049919583702561 0 -0.095299848696860229 -0.20049919583702561 0 -0.084987113474433468 -0.18588322831365131 0 -0.097121788003457332 -0.18595248953089741 0 -0.08207128774273012 -0.19875670546290169 0 -0.095299848696860229 -0.20049919583702561 0 -0.084987113474433468 -0.18588322831365131 0 -0.095299848696860229 -0.20049919583702561 0 -0.1163393357704966 -0.2080930484804536 0 -0.097121788003457332 -0.18595248953089741 0 -0.1144373614517798 -0.18985880945486511 0 -0.1163393357704966 -0.2080930484804536 0 -0.097121788003457332 -0.18595248953089741 0 -0.1163393357704966 -0.2080930484804536 0 -0.097121788003457332 -0.18595248953089741 0 -0.1144373614517798 -0.18985880945486511 0 -0.1163393357704966 -0.2080930484804536 0 -0.125616167760744 -0.19568953416503379 0 -0.1144373614517798 -0.18985880945486511 0 -0.12692217334342229 -0.18330595568756 0 -0.125616167760744 -0.19568953416503379 0 -0.1163393357704966 -0.2080930484804536 0 -0.1132044019751519 -0.21930441839636869 0 -0.1292385514051517 -0.21026284565710451 0 -0.1163393357704966 -0.2080930484804536 0 -0.1292385514051517 -0.21026284565710451 0 -0.125616167760744 -0.19568953416503379 0 -0.1163393357704966 -0.2080930484804536 0 -0.1014081977789294 -0.21490095288573971 0 -0.1132044019751519 -0.21930441839636869 0 -0.095299848696860229 -0.20049919583702561 0 -0.1163393357704966 -0.2080930484804536 0 -0.1014081977789294 -0.21490095288573971 0 -0.089871369411114593 -0.20940875034851009 0 -0.095299848696860229 -0.20049919583702561 0 -0.1014081977789294 -0.21490095288573971 0 -0.085394308166058391 -0.2244334205599976 0 -0.1014081977789294 -0.21490095288573971 0 -0.1017041624078983 -0.22905938619765481 0 -0.1014081977789294 -0.21490095288573971 0 -0.1017041624078983 -0.22905938619765481 0 -0.1132044019751519 -0.21930441839636869 0 -0.1132044019751519 -0.21930441839636869 0 -0.11733176251328339 -0.23420585876089109 0 -0.1292385514051517 -0.21026284565710451 0 -0.11733176251328339 -0.23420585876089109 0 -0.1292385514051517 -0.21026284565710451 0 -0.1017041624078983 -0.22905938619765481 0 -0.1132044019751519 -0.21930441839636869 0 -0.11733176251328339 -0.23420585876089109 0 -0.12188719209648199 -0.25173808517605212 0 -0.11733176251328339 -0.23420585876089109 0 -0.12943694345744891 -0.2382098834381938 0 -0.1054249736214137 -0.25814887186467689 0 -0.11733176251328339 -0.23420585876089109 0 -0.1054249736214137 -0.25814887186467689 0 -0.12188719209648199 -0.25173808517605212 0 -0.11733176251328339 -0.23420585876089109 0 -0.1017041624078983 -0.22905938619765481 0 -0.11733176251328339 -0.23420585876089109 0 -0.10240650446977111 -0.2406997963903092 0 -0.085165119336488848 -0.24138506873801399 0 -0.1017041624078983 -0.22905938619765481 0 -0.10240650446977111 -0.2406997963903092 0 -0.1054249736214137 -0.25814887186467689 0 -0.085165119336488848 -0.24138506873801399 0 -0.1054249736214137 -0.25814887186467689 0 -0.11733176251328339 -0.23420585876089109 0 -0.10240650446977111 -0.2406997963903092 0 -0.1054249736214137 -0.25814887186467689 0 -0.085165119336488848 -0.24138506873801399 0 -0.10240650446977111 -0.2406997963903092 0 -0.086423980605541323 -0.14863427655773581 0 -0.074738958167353139 -0.14090508542259661 0 -0.077904240236418162 -0.1638119305813413 0 -0.086423980605541323 -0.14863427655773581 0 -0.098729098636680584 -0.15810270763448619 0 -0.094943720974663998 -0.1334566225341299 0 -0.086423980605541323 -0.14863427655773581 0 -0.088708873778648403 -0.13643899322927219 0 -0.074738958167353139 -0.14090508542259661 0 -0.086423980605541323 -0.14863427655773581 0 -0.077904240236418162 -0.1638119305813413 0 -0.086423980605541323 -0.14863427655773581 0 -0.094943720974663998 -0.1334566225341299 0 -0.086423980605541323 -0.14863427655773581 0 -0.088708873778648403 -0.13643899322927219 0 -0.094943720974663998 -0.1334566225341299 0 -0.068556660946916481 -0.11593475757817789 0 -0.084464042263549005 -0.12306502599089519 0 -0.088708873778648403 -0.13643899322927219 0 -0.068556660946916481 -0.11593475757817789 0 -0.088708873778648403 -0.13643899322927219 0 -0.088708873778648403 -0.13643899322927219 0 -0.089176009727263056 -0.12940720270261721 0 -0.094943720974663998 -0.1334566225341299 0 -0.084464042263549005 -0.12306502599089519 0 -0.088708873778648403 -0.13643899322927219 0 -0.089176009727263056 -0.12940720270261721 0 -0.068556660946916481 -0.11593475757817789 0 -0.088708873778648403 -0.13643899322927219 0 -0.074738958167353139 -0.14090508542259661 0 -0.062340572469942623 -0.1308036114443962 0 -0.063616224475081307 -0.1473506911416953 0 -0.074738958167353139 -0.14090508542259661 0 -0.068556660946916481 -0.11593475757817789 0 -0.062340572469942623 -0.1308036114443962 0 -0.074738958167353139 -0.14090508542259661 0 -0.063616224475081307 -0.1473506911416953 0 -0.077904240236418162 -0.1638119305813413 0 -0.063616224475081307 -0.1473506911416953 0 -0.074738958167353139 -0.14090508542259661 0 -0.077904240236418162 -0.1638119305813413 0 -0.05665595973232522 -0.16367578359424639 0 -0.063616224475081307 -0.1473506911416953 0 -0.077904240236418162 -0.1638119305813413 0 -0.05665595973232522 -0.16367578359424639 0 -0.077904240236418162 -0.1638119305813413 0 -0.071464747254640193 -0.17528368820896609 0 -0.05665595973232522 -0.16367578359424639 0 -0.071464747254640193 -0.17528368820896609 0 -0.077904240236418162 -0.1638119305813413 0 -0.071464747254640193 -0.17528368820896609 0 -0.077904240236418162 -0.1638119305813413 0 -0.071464747254640193 -0.17528368820896609 0 -0.084987113474433468 -0.18588322831365131 0 -0.062811978210651931 -0.19069832870338349 0 -0.074553684816232133 -0.1894179382027712 0 -0.071464747254640193 -0.17528368820896609 0 -0.057099383250484623 -0.17760826874149591 0 -0.062811978210651931 -0.19069832870338349 0 -0.071464747254640193 -0.17528368820896609 0 -0.062811978210651931 -0.19069832870338349 0 -0.071464747254640193 -0.17528368820896609 0 -0.074553684816232133 -0.1894179382027712 0 -0.071464747254640193 -0.17528368820896609 0 -0.084987113474433468 -0.18588322831365131 0 -0.077904240236418162 -0.1638119305813413 0 -0.084987113474433468 -0.18588322831365131 0 -0.097121788003457332 -0.18595248953089741 0 -0.077904240236418162 -0.1638119305813413 0 -0.097121788003457332 -0.18595248953089741 0 -0.071464747254640193 -0.17528368820896609 0 -0.084987113474433468 -0.18588322831365131 0 -0.086423980605541323 -0.14863427655773581 0 -0.092709429942607335 -0.16563072873935331 0 -0.098729098636680584 -0.15810270763448619 0 -0.077904240236418162 -0.1638119305813413 0 -0.092709429942607335 -0.16563072873935331 0 -0.097121788003457332 -0.18595248953089741 0 -0.086423980605541323 -0.14863427655773581 0 -0.077904240236418162 -0.1638119305813413 0 -0.092709429942607335 -0.16563072873935331 0 -0.092709429942607335 -0.16563072873935331 0 -0.098729098636680584 -0.15810270763448619 0 -0.10336804223093921 -0.17165223939230559 0 -0.098729098636680584 -0.15810270763448619 0 -0.10336804223093921 -0.17165223939230559 0 -0.1121251351218597 -0.16057877708966209 0 -0.1144373614517798 -0.18985880945486511 0 -0.097121788003457332 -0.18595248953089741 0 -0.1080750021019191 -0.18024753224839821 0 -0.092709429942607335 -0.16563072873935331 0 -0.10336804223093921 -0.17165223939230559 0 -0.097121788003457332 -0.18595248953089741 0 -0.10336804223093921 -0.17165223939230559 0 -0.097121788003457332 -0.18595248953089741 0 -0.1080750021019191 -0.18024753224839821 0 -0.1144373614517798 -0.18985880945486511 0 -0.1173728167215001 -0.17352659061552489 0 -0.12692217334342229 -0.18330595568756 0 -0.1144373614517798 -0.18985880945486511 0 -0.1080750021019191 -0.18024753224839821 0 -0.1173728167215001 -0.17352659061552489 0 -0.10336804223093921 -0.17165223939230559 0 -0.1080750021019191 -0.18024753224839821 0 -0.1173728167215001 -0.17352659061552489 0 -0.1173728167215001 -0.17352659061552489 0 -0.1121251351218597 -0.16057877708966209 0 -0.1276652639286017 -0.15314056090581071 0 -0.10336804223093921 -0.17165223939230559 0 -0.1173728167215001 -0.17352659061552489 0 -0.1121251351218597 -0.16057877708966209 0 -0.1121251351218597 -0.16057877708966209 0 -0.1134904540915767 -0.14647178690018281 0 -0.1276652639286017 -0.15314056090581071 0 -0.1134904540915767 -0.14647178690018281 0 -0.12810039171792351 -0.1381820194021916 0 -0.1276652639286017 -0.15314056090581071 0 -0.098729098636680584 -0.15810270763448619 0 -0.094943720974663998 -0.1334566225341299 0 -0.098729098636680584 -0.15810270763448619 0 -0.1134904540915767 -0.14647178690018281 0 -0.1039095713645929 -0.14069513014476509 0 -0.098729098636680584 -0.15810270763448619 0 -0.1121251351218597 -0.16057877708966209 0 -0.1134904540915767 -0.14647178690018281 0 -0.098729098636680584 -0.15810270763448619 0 -0.1039095713645929 -0.14069513014476509 0 -0.094943720974663998 -0.1334566225341299 0 -0.1134904540915767 -0.14647178690018281 0 -0.1039095713645929 -0.14069513014476509 0 -0.109688505133342 -0.13496071197884069 0 -0.10119645699692829 -0.1223175666550574 0 -0.094943720974663998 -0.1334566225341299 0 -0.1035218324600535 -0.13105815895492701 0 -0.10119645699692829 -0.1223175666550574 0 -0.094943720974663998 -0.1334566225341299 0 -0.1039095713645929 -0.14069513014476509 0 -0.094943720974663998 -0.1334566225341299 0 -0.1035218324600535 -0.13105815895492701 0 -0.1039095713645929 -0.14069513014476509 0 -0.1035218324600535 -0.13105815895492701 0 -0.109688505133342 -0.13496071197884069 0 -0.10119645699692829 -0.1223175666550574 0 -0.1035218324600535 -0.13105815895492701 0 -0.1095224167774448 -0.12500943801932349 0 -0.1035218324600535 -0.13105815895492701 0 -0.1095224167774448 -0.12500943801932349 0 -0.109688505133342 -0.13496071197884069 0 -0.12141654953633819 -0.1237391550570868 0 -0.109688505133342 -0.13496071197884069 0 -0.12141654953633819 -0.1237391550570868 0 -0.109688505133342 -0.13496071197884069 0 -0.1194459626417642 -0.13341909989819009 0 -0.12141654953633819 -0.1237391550570868 0 -0.1095224167774448 -0.12500943801932349 0 -0.109688505133342 -0.13496071197884069 0 -0.1134904540915767 -0.14647178690018281 0 -0.109688505133342 -0.13496071197884069 0 -0.1194459626417642 -0.13341909989819009 0 -0.1134904540915767 -0.14647178690018281 0 -0.1194459626417642 -0.13341909989819009 0 -0.12810039171792351 -0.1381820194021916 0 -0.12141654953633819 -0.1237391550570868 0 -0.1194459626417642 -0.13341909989819009 0 -0.12810039171792351 -0.1381820194021916 0 -0.12141654953633819 -0.1237391550570868 0 -0.12810039171792351 -0.1381820194021916 0 -0.13792893398550399 -0.12689720407348901 0 -0.13792893398550399 -0.12689720407348901 0 -0.14273658573667039 -0.14130117389566041 0 -0.12810039171792351 -0.1381820194021916 0 -0.13792893398550399 -0.12689720407348901 0 -0.14273658573667039 -0.14130117389566041 0 -0.13792893398550399 -0.12689720407348901 0 -0.1556554951839447 -0.1311526301485903 0 -0.14895852744663621 -0.1200008436472003 0 -0.13792893398550399 -0.12689720407348901 0 -0.1556554951839447 -0.1311526301485903 0 -0.14273658573667039 -0.14130117389566041 0 -0.1556554951839447 -0.1311526301485903 0 -0.14273658573667039 -0.14130117389566041 0 -0.14947131434196759 -0.13798900079866569 0 -0.1556554951839447 -0.1311526301485903 0 -0.14273658573667039 -0.14130117389566041 0 -0.14947131434196759 -0.13798900079866569 0 -0.1556554951839447 -0.1311526301485903 0 -0.15526574852488151 -0.1432743328084054 0 -0.14947131434196759 -0.13798900079866569 0 -0.1556554951839447 -0.1311526301485903 0 -0.14273658573667039 -0.14130117389566041 0 -0.1487590445303327 -0.1593447675686358 0 -0.1499325670146622 -0.14984185129887059 0 -0.15526574852488151 -0.1432743328084054 0 -0.1530521291888883 -0.16237681944953139 0 -0.1499325670146622 -0.14984185129887059 0 -0.14273658573667039 -0.14130117389566041 0 -0.1487590445303327 -0.1593447675686358 0 -0.14273658573667039 -0.14130117389566041 0 -0.13778282473437861 -0.1580318039991904 0 -0.1487590445303327 -0.1593447675686358 0 -0.14947131434196759 -0.13798900079866569 0 -0.15526574852488151 -0.1432743328084054 0 -0.14935155390454541 -0.1431015897004006 0 -0.1499325670146622 -0.14984185129887059 0 -0.15526574852488151 -0.1432743328084054 0 -0.14935155390454541 -0.1431015897004006 0 -0.1499325670146622 -0.14984185129887059 0 -0.14935155390454541 -0.1431015897004006 0 -0.14273658573667039 -0.14130117389566041 0 -0.14947131434196759 -0.13798900079866569 0 -0.14935155390454541 -0.1431015897004006 0 -0.14273658573667039 -0.14130117389566041 0 -0.14273658573667039 -0.14130117389566041 0 -0.1276652639286017 -0.15314056090581071 0 -0.13778282473437861 -0.1580318039991904 0 -0.14273658573667039 -0.14130117389566041 0 -0.1276652639286017 -0.15314056090581071 0 -0.12810039171792351 -0.1381820194021916 0 -0.14273658573667039 -0.14130117389566041 0 -0.1276652639286017 -0.15314056090581071 0 -0.1173728167215001 -0.17352659061552489 0 -0.1276652639286017 -0.15314056090581071 0 -0.13604841311399049 -0.16822055248809331 0 -0.1276652639286017 -0.15314056090581071 0 -0.13604841311399049 -0.16822055248809331 0 -0.13778282473437861 -0.1580318039991904 0 -0.13604841311399049 -0.16822055248809331 0 -0.12692217334342229 -0.18330595568756 0 -0.14114534029702 -0.18631983255331799 0 -0.1173728167215001 -0.17352659061552489 0 -0.13604841311399049 -0.16822055248809331 0 -0.12692217334342229 -0.18330595568756 0 -0.14114534029702 -0.18631983255331799 0 -0.15558587598285359 -0.18285153954162661 0 -0.1530521291888883 -0.16237681944953139 0 -0.14114534029702 -0.18631983255331799 0 -0.1530521291888883 -0.16237681944953139 0 -0.13604841311399049 -0.16822055248809331 0 -0.14114534029702 -0.18631983255331799 0 -0.1530521291888883 -0.16237681944953139 0 -0.13604841311399049 -0.16822055248809331 0 -0.1530521291888883 -0.16237681944953139 0 -0.1487590445303327 -0.1593447675686358 0 -0.13604841311399049 -0.16822055248809331 0 -0.13778282473437861 -0.1580318039991904 0 -0.1487590445303327 -0.1593447675686358 0 -0.1499325670146622 -0.14984185129887059 0 -0.1530521291888883 -0.16237681944953139 0 -0.1487590445303327 -0.1593447675686358 0 -0.1530521291888883 -0.16237681944953139 0 -0.16379894740405679 -0.16505767197723181 0 -0.16542363385881201 -0.155740248848418 0 -0.1530521291888883 -0.16237681944953139 0 -0.16379894740405679 -0.16505767197723181 0 -0.16099885823599139 -0.17315790403335321 0 -0.16379894740405679 -0.16505767197723181 0 -0.16945469784194431 -0.17155802981913029 0 -0.17033650162319899 -0.16303408389056989 0 -0.16379894740405679 -0.16505767197723181 0 -0.16945469784194431 -0.17155802981913029 0 -0.16099885823599139 -0.17315790403335321 0 -0.16379894740405679 -0.16505767197723181 0 -0.17033650162319899 -0.16303408389056989 0 -0.16542363385881201 -0.155740248848418 0 -0.17033650162319899 -0.16303408389056989 0 -0.17339685564902069 -0.1559811211946262 0 -0.16542363385881201 -0.155740248848418 0 -0.15558587598285359 -0.18285153954162661 0 -0.1530521291888883 -0.16237681944953139 0 -0.16099885823599139 -0.17315790403335321 0 -0.15558587598285359 -0.18285153954162661 0 -0.16099885823599139 -0.17315790403335321 0 -0.1672485217101248 -0.18431515325554801 0 -0.15558587598285359 -0.18285153954162661 0 -0.1672485217101248 -0.18431515325554801 0 -0.1564218345302085 -0.193473798964966 0 -0.16945469784194431 -0.17155802981913029 0 -0.16099885823599139 -0.17315790403335321 0 -0.1672485217101248 -0.18431515325554801 0 -0.16945469784194431 -0.17155802981913029 0 -0.1672485217101248 -0.18431515325554801 0 -0.17714650794943429 -0.17685786160158271 0 -0.17714650794943429 -0.17685786160158271 0 -0.1871054584935499 -0.18435863538771749 0 -0.18709483773467681 -0.16731657122483609 0 -0.1672485217101248 -0.18431515325554801 0 -0.17714650794943429 -0.17685786160158271 0 -0.17721849637283199 -0.19160804918714561 0 -0.16945469784194431 -0.17155802981913029 0 -0.17714650794943429 -0.17685786160158271 0 -0.1765213075047774 -0.16784965686767711 0 -0.17714650794943429 -0.17685786160158271 0 -0.1871054584935499 -0.18435863538771749 0 -0.17721849637283199 -0.19160804918714561 0 -0.17857399237463259 -0.16048173780226671 0 -0.18709483773467681 -0.16731657122483609 0 -0.18168968887337431 -0.1507635551999236 0 -0.17033650162319899 -0.16303408389056989 0 -0.17857399237463259 -0.16048173780226671 0 -0.1765213075047774 -0.16784965686767711 0 -0.17033650162319899 -0.16303408389056989 0 -0.17857399237463259 -0.16048173780226671 0 -0.17339685564902069 -0.1559811211946262 0 -0.16945469784194431 -0.17155802981913029 0 -0.17033650162319899 -0.16303408389056989 0 -0.1765213075047774 -0.16784965686767711 0 -0.17714650794943429 -0.17685786160158271 0 -0.1765213075047774 -0.16784965686767711 0 -0.18709483773467681 -0.16731657122483609 0 -0.17857399237463259 -0.16048173780226671 0 -0.1765213075047774 -0.16784965686767711 0 -0.18709483773467681 -0.16731657122483609 0 -0.18168968887337431 -0.1507635551999236 0 -0.17339685564902069 -0.1559811211946262 0 -0.17085029761347501 -0.14920763630223799 0 -0.17857399237463259 -0.16048173780226671 0 -0.18168968887337431 -0.1507635551999236 0 -0.17339685564902069 -0.1559811211946262 0 -0.18168968887337431 -0.1507635551999236 0 -0.1769640250806867 -0.14171888074599559 0 -0.17085029761347501 -0.14920763630223799 0 -0.18168968887337431 -0.1507635551999236 0 -0.1769640250806867 -0.14171888074599559 0 -0.1861979901748928 -0.1391528061598763 0 -0.1811232306609345 -0.13103659972219539 0 -0.16495891808075669 -0.13843380634574479 0 -0.17686570697262449 -0.11449079324195779 0 -0.1769640250806867 -0.14171888074599559 0 -0.1861979901748928 -0.1391528061598763 0 -0.1811232306609345 -0.13103659972219539 0 -0.1769640250806867 -0.14171888074599559 0 -0.1811232306609345 -0.13103659972219539 0 -0.16495891808075669 -0.13843380634574479 0 -0.1861979901748928 -0.1391528061598763 0 -0.1811232306609345 -0.13103659972219539 0 -0.18964552643372021 -0.13110313106701141 0 -0.1811232306609345 -0.13103659972219539 0 -0.18964552643372021 -0.13110313106701141 0 -0.18831766493431831 -0.12120209436824959 0 -0.16495891808075669 -0.13843380634574479 0 -0.17686570697262449 -0.11449079324195779 0 -0.1556554951839447 -0.1311526301485903 0 -0.16495891808075669 -0.13843380634574479 0 -0.17686570697262449 -0.11449079324195779 0 -0.1556554951839447 -0.1311526301485903 0 -0.15526574852488151 -0.1432743328084054 0 -0.16495891808075669 -0.13843380634574479 0 -0.1530521291888883 -0.16237681944953139 0 -0.16495891808075669 -0.13843380634574479 0 -0.1530521291888883 -0.16237681944953139 0 -0.16495891808075669 -0.13843380634574479 0 -0.16542363385881201 -0.155740248848418 0 -0.15526574852488151 -0.1432743328084054 0 -0.1530521291888883 -0.16237681944953139 0 -0.16495891808075669 -0.13843380634574479 0 -0.16495891808075669 -0.13843380634574479 0 -0.17085029761347501 -0.14920763630223799 0 -0.16542363385881201 -0.155740248848418 0 -0.17339685564902069 -0.1559811211946262 0 -0.17085029761347501 -0.14920763630223799 0 -0.16542363385881201 -0.155740248848418 0 -0.1769640250806867 -0.14171888074599559 0 -0.16495891808075669 -0.13843380634574479 0 -0.17085029761347501 -0.14920763630223799 0 -0.15610572008234541 -0.25019938304154432 0 -0.1363525451455552 -0.2497040600109908 0 -0.14250836895556099 -0.2311458781027535 0 -0.1363525451455552 -0.2497040600109908 0 -0.12943694345744891 -0.2382098834381938 0 -0.14250836895556099 -0.2311458781027535 0 -0.12188719209648199 -0.25173808517605212 0 -0.1363525451455552 -0.2497040600109908 0 -0.12943694345744891 -0.2382098834381938 0 -0.12943694345744891 -0.2382098834381938 0 -0.13191748939888071 -0.22623947285810661 0 -0.14250836895556099 -0.2311458781027535 0 -0.11733176251328339 -0.23420585876089109 0 -0.13191748939888071 -0.22623947285810661 0 -0.1292385514051517 -0.21026284565710451 0 -0.11733176251328339 -0.23420585876089109 0 -0.12943694345744891 -0.2382098834381938 0 -0.13191748939888071 -0.22623947285810661 0 -0.13191748939888071 -0.22623947285810661 0 -0.14250836895556099 -0.2311458781027535 0 -0.14053411800758309 -0.21791701718789061 0 -0.14250836895556099 -0.2311458781027535 0 -0.1523603188086797 -0.2102045447018524 0 -0.14053411800758309 -0.21791701718789061 0 -0.14250836895556099 -0.2311458781027535 0 -0.1523603188086797 -0.2102045447018524 0 -0.17156296093092349 -0.22579993632124609 0 -0.1523603188086797 -0.2102045447018524 0 -0.14053411800758309 -0.21791701718789061 0 -0.1292385514051517 -0.21026284565710451 0 -0.13191748939888071 -0.22623947285810661 0 -0.14053411800758309 -0.21791701718789061 0 -0.1292385514051517 -0.21026284565710451 0 -0.14114534029702 -0.18631983255331799 0 -0.1292385514051517 -0.21026284565710451 0 -0.14114534029702 -0.18631983255331799 0 -0.1292385514051517 -0.21026284565710451 0 -0.125616167760744 -0.19568953416503379 0 -0.12692217334342229 -0.18330595568756 0 -0.14114534029702 -0.18631983255331799 0 -0.125616167760744 -0.19568953416503379 0 -0.14114534029702 -0.18631983255331799 0 -0.1523603188086797 -0.2102045447018524 0 -0.1292385514051517 -0.21026284565710451 0 -0.14114534029702 -0.18631983255331799 0 -0.1523603188086797 -0.2102045447018524 0 -0.1564218345302085 -0.193473798964966 0 -0.14114534029702 -0.18631983255331799 0 -0.15558587598285359 -0.18285153954162661 0 -0.1564218345302085 -0.193473798964966 0 -0.1672485217101248 -0.18431515325554801 0 -0.16840891886941939 -0.2014341256995045 0 -0.1564218345302085 -0.193473798964966 0 -0.1672485217101248 -0.18431515325554801 0 -0.16840891886941939 -0.2014341256995045 0 -0.17721849637283199 -0.19160804918714561 0 -0.1523603188086797 -0.2102045447018524 0 -0.16840891886941939 -0.2014341256995045 0 -0.1564218345302085 -0.193473798964966 0 -0.16840891886941939 -0.2014341256995045 0 -0.1870202017795016 -0.20140048960094789 0 -0.17721849637283199 -0.19160804918714561 0 -0.1871054584935499 -0.18435863538771749 0 -0.1870202017795016 -0.20140048960094789 0 -0.17721849637283199 -0.19160804918714561 0 -0.1870202017795016 -0.20140048960094789 0 -0.17156296093092349 -0.22579993632124609 0 -0.16840891886941939 -0.2014341256995045 0 -0.1870202017795016 -0.20140048960094789 0 -0.17156296093092349 -0.22579993632124609 0 -0.1523603188086797 -0.2102045447018524 0 -0.16840891886941939 -0.2014341256995045 0 -0.17156296093092349 -0.22579993632124609 0 -0.17156296093092349 -0.22579993632124609 0 -0.18302313500755071 -0.2439899936431944 0 -0.197392808863455 -0.22983884614152539 0 -0.1870202017795016 -0.20140048960094789 0 -0.17156296093092349 -0.22579993632124609 0 -0.197392808863455 -0.22983884614152539 0 -0.15610572008234541 -0.25019938304154432 0 -0.14250836895556099 -0.2311458781027535 0 -0.17156296093092349 -0.22579993632124609 0 -0.15610572008234541 -0.25019938304154432 0 -0.17156296093092349 -0.22579993632124609 0 -0.15610572008234541 -0.25019938304154432 0 -0.17156296093092349 -0.22579993632124609 0 -0.18302313500755071 -0.2439899936431944 0 -0.22266583670016341 -0.25396182014965002 0 -0.2092579406982718 -0.24018852872777419 0 -0.21561688751901709 -0.22709031140191629 0 -0.22266583670016341 -0.25396182014965002 0 -0.2092579406982718 -0.24018852872777419 0 -0.201356229710452 -0.24986313721800499 0 -0.2092579406982718 -0.24018852872777419 0 -0.201356229710452 -0.24986313721800499 0 -0.197392808863455 -0.22983884614152539 0 -0.18302313500755071 -0.2439899936431944 0 -0.201356229710452 -0.24986313721800499 0 -0.197392808863455 -0.22983884614152539 0 -0.197392808863455 -0.22983884614152539 0 -0.20298037360066071 -0.21502882439785381 0 -0.2092579406982718 -0.24018852872777419 0 -0.197392808863455 -0.22983884614152539 0 -0.21561688751901709 -0.22709031140191629 0 -0.197392808863455 -0.22983884614152539 0 -0.21561688751901709 -0.22709031140191629 0 -0.20298037360066071 -0.21502882439785381 0 -0.21561688751901709 -0.22709031140191629 0 -0.2085679383378688 -0.20021880265418299 0 -0.21561688751901709 -0.22709031140191629 0 -0.2085679383378688 -0.20021880265418299 0 -0.22371756831972159 -0.20772187481410209 0 -0.21561688751901709 -0.22709031140191629 0 -0.20298037360066071 -0.21502882439785381 0 -0.2085679383378688 -0.20021880265418299 0 -0.20298037360066071 -0.21502882439785381 0 -0.2085679383378688 -0.20021880265418299 0 -0.1870202017795016 -0.20140048960094789 0 -0.197392808863455 -0.22983884614152539 0 -0.20298037360066071 -0.21502882439785381 0 -0.1870202017795016 -0.20140048960094789 0 -0.20298037360066071 -0.21502882439785381 0 -0.2085679383378688 -0.20021880265418299 0 -0.1870202017795016 -0.20140048960094789 0 -0.20247744262807951 -0.17700104288064969 0 -0.1871054584935499 -0.18435863538771749 0 -0.1870202017795016 -0.20140048960094789 0 -0.20247744262807951 -0.17700104288064969 0 -0.1870202017795016 -0.20140048960094789 0 -0.2085679383378688 -0.20021880265418299 0 -0.20247744262807951 -0.17700104288064969 0 -0.2085679383378688 -0.20021880265418299 0 -0.20247744262807951 -0.17700104288064969 0 -0.2085679383378688 -0.20021880265418299 0 -0.22834065623962849 -0.19455670680666001 0 -0.2262847260408499 -0.18413059093805831 0 -0.22834065623962849 -0.19455670680666001 0 -0.23947358826515819 -0.2018706487461279 0 -0.22371756831972159 -0.20772187481410209 0 -0.2085679383378688 -0.20021880265418299 0 -0.22834065623962849 -0.19455670680666001 0 -0.22371756831972159 -0.20772187481410209 0 -0.22834065623962849 -0.19455670680666001 0 -0.2262847260408499 -0.18413059093805831 0 -0.24226769848796639 -0.1859276248743105 0 -0.22834065623962849 -0.19455670680666001 0 -0.23947358826515819 -0.2018706487461279 0 -0.24226769848796639 -0.1859276248743105 0 -0.23947358826515819 -0.2018706487461279 0 -0.24226769848796639 -0.1859276248743105 0 -0.2530345308819047 -0.2050552961622388 0 -0.23947358826515819 -0.2018706487461279 0 -0.23334171948516699 -0.21365344898868399 0 -0.24362466521327009 -0.22164896784257609 0 -0.23947358826515819 -0.2018706487461279 0 -0.24362466521327009 -0.22164896784257609 0 -0.2530345308819047 -0.2050552961622388 0 -0.23947358826515819 -0.2018706487461279 0 -0.22371756831972159 -0.20772187481410209 0 -0.23334171948516699 -0.21365344898868399 0 -0.22371756831972159 -0.20772187481410209 0 -0.23334171948516699 -0.21365344898868399 0 -0.2291124347350553 -0.22649902266321409 0 -0.21561688751901709 -0.22709031140191629 0 -0.22371756831972159 -0.20772187481410209 0 -0.2291124347350553 -0.22649902266321409 0 -0.23334171948516699 -0.21365344898868399 0 -0.2291124347350553 -0.22649902266321409 0 -0.24362466521327009 -0.22164896784257609 0 -0.24362466521327009 -0.22164896784257609 0 -0.2493694927029185 -0.23411674201777771 0 -0.23788718859812141 -0.2365823512062587 0 -0.2291124347350553 -0.22649902266321409 0 -0.24362466521327009 -0.22164896784257609 0 -0.23788718859812141 -0.2365823512062587 0 -0.22266583670016341 -0.25396182014965002 0 -0.23788718859812141 -0.2365823512062587 0 -0.24501988422530691 -0.2470038165003057 0 -0.2493694927029185 -0.23411674201777771 0 -0.23788718859812141 -0.2365823512062587 0 -0.24501988422530691 -0.2470038165003057 0 -0.22266583670016341 -0.25396182014965002 0 -0.2291124347350553 -0.22649902266321409 0 -0.23788718859812141 -0.2365823512062587 0 -0.22266583670016341 -0.25396182014965002 0 -0.21561688751901709 -0.22709031140191629 0 -0.2291124347350553 -0.22649902266321409 0 -0.22266583670016341 -0.25396182014965002 0 -0.21561688751901709 -0.22709031140191629 0 -0.2090252820487245 -0.14619852441542819 0 -0.20422319098001329 -0.14290273052781971 0 -0.20926894255168429 -0.1394636836609322 0 -0.20422319098001329 -0.14290273052781971 0 -0.20468059238838579 -0.1391595723252117 0 -0.20101606073879311 -0.14079131666709799 0 -0.2090252820487245 -0.14619852441542819 0 -0.20422319098001329 -0.14290273052781971 0 -0.20349112091677279 -0.14718143643658449 0 -0.2090252820487245 -0.14619852441542819 0 -0.20349112091677279 -0.14718143643658449 0 -0.20432936780519079 -0.15221654698265399 0 -0.20432936780519079 -0.15221654698265399 0 -0.21102506941647259 -0.15242566755937689 0 -0.20472017004824919 -0.15886926934499471 0 -0.2090252820487245 -0.14619852441542819 0 -0.20432936780519079 -0.15221654698265399 0 -0.21102506941647259 -0.15242566755937689 0 -0.2090252820487245 -0.14619852441542819 0 -0.21102506941647259 -0.15242566755937689 0 -0.21436793119715211 -0.14676567754402581 0 -0.21102506941647259 -0.15242566755937689 0 -0.21436793119715211 -0.14676567754402581 0 -0.2212001412250931 -0.14744703053438721 0 -0.21102506941647259 -0.15242566755937689 0 -0.21183879192658631 -0.1622240367075185 0 -0.2212001412250931 -0.14744703053438721 0 -0.21183879192658631 -0.1622240367075185 0 -0.2212001412250931 -0.14744703053438721 0 -0.21436793119715211 -0.14676567754402581 0 -0.21610513274973481 -0.14084688353023511 0 -0.2212001412250931 -0.14744703053438721 0 -0.2090252820487245 -0.14619852441542819 0 -0.21436793119715211 -0.14676567754402581 0 -0.21610513274973481 -0.14084688353023511 0 -0.2090252820487245 -0.14619852441542819 0 -0.21610513274973481 -0.14084688353023511 0 -0.20926894255168429 -0.1394636836609322 0 -0.21610513274973481 -0.14084688353023511 0 -0.21386133718479591 -0.1339908353306821 0 -0.22046563134663091 -0.13036871788499221 0 -0.208983149080504 -0.1346102722110642 0 -0.1999116185909344 -0.13802985855914429 0 -0.2190177563356604 -0.1216808674931453 0 -0.19800236109940789 -0.1408805194099208 0 -0.20890988446413891 -0.11444446759500559 0 -0.1999116185909344 -0.13802985855914429 0 -0.2190177563356604 -0.1216808674931453 0 -0.21610513274973481 -0.14084688353023511 0 -0.21386133718479591 -0.1339908353306821 0 -0.20926894255168429 -0.1394636836609322 0 -0.21386133718479591 -0.1339908353306821 0 -0.22046563134663091 -0.13036871788499221 0 -0.2190177563356604 -0.1216808674931453 0 -0.21386133718479591 -0.1339908353306821 0 -0.208983149080504 -0.1346102722110642 0 -0.2190177563356604 -0.1216808674931453 0 -0.208983149080504 -0.1346102722110642 0 -0.20468059238838579 -0.1391595723252117 0 -0.1999116185909344 -0.13802985855914429 0 -0.20926894255168429 -0.1394636836609322 0 -0.208983149080504 -0.1346102722110642 0 -0.20468059238838579 -0.1391595723252117 0 -0.21386133718479591 -0.1339908353306821 0 -0.20926894255168429 -0.1394636836609322 0 -0.208983149080504 -0.1346102722110642 0 -0.20422319098001329 -0.14290273052781971 0 -0.20926894255168429 -0.1394636836609322 0 -0.20468059238838579 -0.1391595723252117 0 -0.20468059238838579 -0.1391595723252117 0 -0.1999116185909344 -0.13802985855914429 0 -0.20101606073879311 -0.14079131666709799 0 -0.1999116185909344 -0.13802985855914429 0 -0.19800236109940789 -0.1408805194099208 0 -0.20890988446413891 -0.11444446759500559 0 -0.1955626572392718 -0.12519558290873339 0 -0.19800236109940789 -0.1408805194099208 0 -0.1999032514963405 -0.12354421154912899 0 -0.1955626572392718 -0.12519558290873339 0 -0.18964552643372021 -0.13110313106701141 0 -0.19800236109940789 -0.1408805194099208 0 -0.19800236109940789 -0.1408805194099208 0 -0.20890988446413891 -0.11444446759500559 0 -0.1999032514963405 -0.12354421154912899 0 -0.1999116185909344 -0.13802985855914429 0 -0.19800236109940789 -0.1408805194099208 0 -0.20101606073879311 -0.14079131666709799 0 -0.1955626572392718 -0.12519558290873339 0 -0.18964552643372021 -0.13110313106701141 0 -0.18831766493431831 -0.12120209436824959 0 -0.1861979901748928 -0.1391528061598763 0 -0.18964552643372021 -0.13110313106701141 0 -0.19800236109940789 -0.1408805194099208 0 -0.18709483773467681 -0.16731657122483609 0 -0.19800236109940789 -0.1408805194099208 0 -0.18709483773467681 -0.16731657122483609 0 -0.19800236109940789 -0.1408805194099208 0 -0.19878394302215979 -0.1502307040859209 0 -0.18709483773467681 -0.16731657122483609 0 -0.18168968887337431 -0.1507635551999236 0 -0.19800236109940789 -0.1408805194099208 0 -0.18168968887337431 -0.1507635551999236 0 -0.1861979901748928 -0.1391528061598763 0 -0.19800236109940789 -0.1408805194099208 0 -0.19800236109940789 -0.1408805194099208 0 -0.20109382072777579 -0.14435867617109979 0 -0.19878394302215979 -0.1502307040859209 0 -0.20349112091677279 -0.14718143643658449 0 -0.20109382072777579 -0.14435867617109979 0 -0.19878394302215979 -0.1502307040859209 0 -0.20422319098001329 -0.14290273052781971 0 -0.20349112091677279 -0.14718143643658449 0 -0.20109382072777579 -0.14435867617109979 0 -0.20422319098001329 -0.14290273052781971 0 -0.20101606073879311 -0.14079131666709799 0 -0.20109382072777579 -0.14435867617109979 0 -0.19800236109940789 -0.1408805194099208 0 -0.20101606073879311 -0.14079131666709799 0 -0.20109382072777579 -0.14435867617109979 0 -0.20432936780519079 -0.15221654698265399 0 -0.19878394302215979 -0.1502307040859209 0 -0.19903827960609921 -0.15827093463549161 0 -0.20349112091677279 -0.14718143643658449 0 -0.20432936780519079 -0.15221654698265399 0 -0.19878394302215979 -0.1502307040859209 0 -0.18709483773467681 -0.16731657122483609 0 -0.19878394302215979 -0.1502307040859209 0 -0.19903827960609921 -0.15827093463549161 0 -0.18709483773467681 -0.16731657122483609 0 -0.1997564709125822 -0.16662834570603011 0 -0.19903827960609921 -0.15827093463549161 0 -0.18709483773467681 -0.16731657122483609 0 -0.1997564709125822 -0.16662834570603011 0 -0.19379327952764899 -0.1737358453975606 0 -0.1997564709125822 -0.16662834570603011 0 -0.20247744262807951 -0.17700104288064969 0 -0.1997564709125822 -0.16662834570603011 0 -0.19903827960609921 -0.15827093463549161 0 -0.20472017004824919 -0.15886926934499471 0 -0.20432936780519079 -0.15221654698265399 0 -0.19903827960609921 -0.15827093463549161 0 -0.20472017004824919 -0.15886926934499471 0 -0.1871054584935499 -0.18435863538771749 0 -0.18709483773467681 -0.16731657122483609 0 -0.19379327952764899 -0.1737358453975606 0 -0.1871054584935499 -0.18435863538771749 0 -0.19379327952764899 -0.1737358453975606 0 -0.20247744262807951 -0.17700104288064969 0 -0.1997564709125822 -0.16662834570603011 0 -0.19379327952764899 -0.1737358453975606 0 -0.20247744262807951 -0.17700104288064969 0 -0.2085679383378688 -0.20021880265418299 0 -0.2185443225010078 -0.17377607253321861 0 -0.2262847260408499 -0.18413059093805831 0 -0.2085679383378688 -0.20021880265418299 0 -0.2185443225010078 -0.17377607253321861 0 -0.2085679383378688 -0.20021880265418299 0 -0.20247744262807951 -0.17700104288064969 0 -0.2185443225010078 -0.17377607253321861 0 -0.20247744262807951 -0.17700104288064969 0 -0.2185443225010078 -0.17377607253321861 0 -0.21183879192658631 -0.1622240367075185 0 -0.1997564709125822 -0.16662834570603011 0 -0.20472017004824919 -0.15886926934499471 0 -0.21183879192658631 -0.1622240367075185 0 -0.21102506941647259 -0.15242566755937689 0 -0.20472017004824919 -0.15886926934499471 0 -0.21183879192658631 -0.1622240367075185 0 -0.20247744262807951 -0.17700104288064969 0 -0.21183879192658631 -0.1622240367075185 0 -0.1997564709125822 -0.16662834570603011 0 -0.20247744262807951 -0.17700104288064969 0 -0.21183879192658631 -0.1622240367075185 0 -0.2185443225010078 -0.17377607253321861 0 -0.23553581923366099 -0.15856091149201421 0 -0.22852070666414909 -0.14733334241225499 0 -0.2185443225010078 -0.17377607253321861 0 -0.23232973788446071 -0.17140579974322129 0 -0.23553581923366099 -0.15856091149201421 0 -0.2185443225010078 -0.17377607253321861 0 -0.22852070666414909 -0.14733334241225499 0 -0.2185443225010078 -0.17377607253321861 0 -0.21183879192658631 -0.1622240367075185 0 -0.22852070666414909 -0.14733334241225499 0 -0.23232973788446071 -0.17140579974322129 0 -0.2262847260408499 -0.18413059093805831 0 -0.24226769848796639 -0.1859276248743105 0 -0.2185443225010078 -0.17377607253321861 0 -0.23232973788446071 -0.17140579974322129 0 -0.2262847260408499 -0.18413059093805831 0 -0.23232973788446071 -0.17140579974322129 0 -0.24648081103591499 -0.17392347890994209 0 -0.24226769848796639 -0.1859276248743105 0 -0.23232973788446071 -0.17140579974322129 0 -0.24648081103591499 -0.17392347890994209 0 -0.24876130621980161 -0.157963746704779 0 -0.23232973788446071 -0.17140579974322129 0 -0.24876130621980161 -0.157963746704779 0 -0.23232973788446071 -0.17140579974322129 0 -0.23553581923366099 -0.15856091149201421 0 -0.24876130621980161 -0.157963746704779 0 -0.24876130621980161 -0.157963746704779 0 -0.2397210502984268 -0.14896976831327349 0 -0.25026186283696461 -0.14235720573963881 0 -0.2397210502984268 -0.14896976831327349 0 -0.23552555653755791 -0.13863363521768091 0 -0.25026186283696461 -0.14235720573963881 0 -0.2397210502984268 -0.14896976831327349 0 -0.22852070666414909 -0.14733334241225499 0 -0.23552555653755791 -0.13863363521768091 0 -0.23553581923366099 -0.15856091149201421 0 -0.2397210502984268 -0.14896976831327349 0 -0.22852070666414909 -0.14733334241225499 0 -0.23553581923366099 -0.15856091149201421 0 -0.24876130621980161 -0.157963746704779 0 -0.2397210502984268 -0.14896976831327349 0 -0.21183879192658631 -0.1622240367075185 0 -0.22852070666414909 -0.14733334241225499 0 -0.2212001412250931 -0.14744703053438721 0 -0.22852070666414909 -0.14733334241225499 0 -0.2247765331041279 -0.14198831707788809 0 -0.23552555653755791 -0.13863363521768091 0 -0.22852070666414909 -0.14733334241225499 0 -0.2247765331041279 -0.14198831707788809 0 -0.2212001412250931 -0.14744703053438721 0 -0.21610513274973481 -0.14084688353023511 0 -0.2247765331041279 -0.14198831707788809 0 -0.2212001412250931 -0.14744703053438721 0 -0.22046563134663091 -0.13036871788499221 0 -0.2190177563356604 -0.1216808674931453 0 -0.23264970379814059 -0.124137426200809 0 -0.22046563134663091 -0.13036871788499221 0 -0.22587777481756199 -0.13496328445527431 0 -0.23264970379814059 -0.124137426200809 0 -0.21610513274973481 -0.14084688353023511 0 -0.2247765331041279 -0.14198831707788809 0 -0.22587777481756199 -0.13496328445527431 0 -0.21610513274973481 -0.14084688353023511 0 -0.22046563134663091 -0.13036871788499221 0 -0.22587777481756199 -0.13496328445527431 0 -0.2247765331041279 -0.14198831707788809 0 -0.22587777481756199 -0.13496328445527431 0 -0.23552555653755791 -0.13863363521768091 0 -0.22587777481756199 -0.13496328445527431 0 -0.23552555653755791 -0.13863363521768091 0 -0.23264970379814059 -0.124137426200809 0 -0.23552555653755791 -0.13863363521768091 0 -0.2470327450431076 -0.1306924886745969 0 -0.23264970379814059 -0.124137426200809 0 -0.23552555653755791 -0.13863363521768091 0 -0.2470327450431076 -0.1306924886745969 0 -0.25026186283696461 -0.14235720573963881 0 -0.24811226901631339 -0.119687531806331 0 -0.23812389408038651 -0.1053318764271461 0 -0.26057096435407312 -0.1101978935494649 0 -0.24811226901631339 -0.119687531806331 0 -0.23812389408038651 -0.1053318764271461 0 -0.23264970379814059 -0.124137426200809 0 -0.2470327450431076 -0.1306924886745969 0 -0.24811226901631339 -0.119687531806331 0 -0.23264970379814059 -0.124137426200809 0 -0.23812389408038651 -0.1053318764271461 0 -0.23613398096784349 -0.090675535242446925 0 -0.2572300318251125 -0.088982885361147013 0 -0.23812389408038651 -0.1053318764271461 0 -0.2572300318251125 -0.088982885361147013 0 -0.2234166588569973 -0.1048825922778626 0 -0.23613398096784349 -0.090675535242446925 0 -0.21981740782886999 -0.088008415780090332 0 -0.23812389408038651 -0.1053318764271461 0 -0.2234166588569973 -0.1048825922778626 0 -0.23613398096784349 -0.090675535242446925 0 -0.23812389408038651 -0.1053318764271461 0 -0.2234166588569973 -0.1048825922778626 0 -0.2190177563356604 -0.1216808674931453 0 -0.23812389408038651 -0.1053318764271461 0 -0.2190177563356604 -0.1216808674931453 0 -0.23264970379814059 -0.124137426200809 0 -0.23812389408038651 -0.1053318764271461 0 -0.2190177563356604 -0.1216808674931453 0 -0.24358588208205151 -0.06498279729468999 0 -0.23323151093366329 -0.078074829268661633 0 -0.2307249311936011 -0.061572363965175077 0 -0.24358588208205151 -0.06498279729468999 0 -0.24498438228203151 -0.078772612339773757 0 -0.25746478862091149 -0.07365324142992212 0 -0.24358588208205151 -0.06498279729468999 0 -0.24498438228203151 -0.078772612339773757 0 -0.23323151093366329 -0.078074829268661633 0 -0.24498438228203151 -0.078772612339773757 0 -0.23613398096784349 -0.090675535242446925 0 -0.2572300318251125 -0.088982885361147013 0 -0.24498438228203151 -0.078772612339773757 0 -0.23613398096784349 -0.090675535242446925 0 -0.23323151093366329 -0.078074829268661633 0 -0.23613398096784349 -0.090675535242446925 0 -0.21981740782886999 -0.088008415780090332 0 -0.23323151093366329 -0.078074829268661633 0 -0.21981740782886999 -0.088008415780090332 0 -0.21669294041883039 -0.071243150615869943 0 -0.2307249311936011 -0.061572363965175077 0 -0.21981740782886999 -0.088008415780090332 0 -0.23323151093366329 -0.078074829268661633 0 -0.2307249311936011 -0.061572363965175077 0 -0.21669294041883039 -0.071243150615869943 0 -0.21145825997721879 -0.058534646774305227 0 -0.2307249311936011 -0.061572363965175077 0 -0.21981740782886999 -0.088008415780090332 0 -0.2307249311936011 -0.061572363965175077 0 -0.21669294041883039 -0.071243150615869943 0 -0.20477116267563161 -0.076857175943909173 0 -0.21145825997721879 -0.058534646774305227 0 -0.21981740782886999 -0.088008415780090332 0 -0.21669294041883039 -0.071243150615869943 0 -0.20477116267563161 -0.076857175943909173 0 -0.21981740782886999 -0.088008415780090332 0 -0.20477116267563161 -0.076857175943909173 0 -0.20576776979232059 -0.090005728703703214 0 -0.21981740782886999 -0.088008415780090332 0 -0.20576776979232059 -0.090005728703703214 0 -0.2099416244302795 -0.1009948804034128 0 -0.1945654813274508 -0.088139158508057439 0 -0.19974317269937061 -0.0960290128830463 0 -0.19413738579254641 -0.095270044365709433 0 -0.20576776979232059 -0.090005728703703214 0 -0.1945654813274508 -0.088139158508057439 0 -0.19974317269937061 -0.0960290128830463 0 -0.1945654813274508 -0.088139158508057439 0 -0.18748261406783731 -0.09314156567011822 0 -0.18562984336502331 -0.085476789017593952 0 -0.1945654813274508 -0.088139158508057439 0 -0.18435979997927049 -0.099421141072206121 0 -0.18748261406783731 -0.09314156567011822 0 -0.1945654813274508 -0.088139158508057439 0 -0.1895018949885055 -0.07330161742149327 0 -0.18562984336502331 -0.085476789017593952 0 -0.20477116267563161 -0.076857175943909173 0 -0.1945654813274508 -0.088139158508057439 0 -0.1895018949885055 -0.07330161742149327 0 -0.20477116267563161 -0.076857175943909173 0 -0.1945654813274508 -0.088139158508057439 0 -0.20477116267563161 -0.076857175943909173 0 -0.20576776979232059 -0.090005728703703214 0 -0.1945654813274508 -0.088139158508057439 0 -0.20477116267563161 -0.076857175943909173 0 -0.1895018949885055 -0.07330161742149327 0 -0.19210579319034141 -0.056102698017712747 0 -0.20477116267563161 -0.076857175943909173 0 -0.19210579319034141 -0.056102698017712747 0 -0.21145825997721879 -0.058534646774305227 0 -0.1999116185909344 -0.13802985855914429 0 -0.2190177563356604 -0.1216808674931453 0 -0.20890988446413891 -0.11444446759500559 0 -0.2234166588569973 -0.1048825922778626 0 -0.2190177563356604 -0.1216808674931453 0 -0.20890988446413891 -0.11444446759500559 0 -0.21981740782886999 -0.088008415780090332 0 -0.20890988446413891 -0.11444446759500559 0 -0.2234166588569973 -0.1048825922778626 0 -0.21981740782886999 -0.088008415780090332 0 -0.20890988446413891 -0.11444446759500559 0 -0.21981740782886999 -0.088008415780090332 0 -0.20890988446413891 -0.11444446759500559 0 -0.2099416244302795 -0.1009948804034128 0 -0.20576776979232059 -0.090005728703703214 0 -0.2099416244302795 -0.1009948804034128 0 -0.19974317269937061 -0.0960290128830463 0 -0.20890988446413891 -0.11444446759500559 0 -0.2099416244302795 -0.1009948804034128 0 -0.20157714531803389 -0.1082545272619231 0 -0.2099416244302795 -0.1009948804034128 0 -0.20157714531803389 -0.1082545272619231 0 -0.19031896919517341 -0.10392248476641711 0 -0.2099416244302795 -0.1009948804034128 0 -0.19234165481676041 -0.1023335492915607 0 -0.19031896919517341 -0.10392248476641711 0 -0.2099416244302795 -0.1009948804034128 0 -0.19974317269937061 -0.0960290128830463 0 -0.19234165481676041 -0.1023335492915607 0 -0.20157714531803389 -0.1082545272619231 0 -0.19031896919517341 -0.10392248476641711 0 -0.19713810318254341 -0.1136562762828562 0 -0.2099416244302795 -0.1009948804034128 0 -0.19031896919517341 -0.10392248476641711 0 -0.19974317269937061 -0.0960290128830463 0 -0.1941593592747953 -0.097921403783572336 0 -0.19234165481676041 -0.1023335492915607 0 -0.19974317269937061 -0.0960290128830463 0 -0.19413738579254641 -0.095270044365709433 0 -0.1941593592747953 -0.097921403783572336 0 -0.1945654813274508 -0.088139158508057439 0 -0.18435979997927049 -0.099421141072206121 0 -0.1945654813274508 -0.088139158508057439 0 -0.19413738579254641 -0.095270044365709433 0 -0.1904152237905041 -0.09805300859397291 0 -0.1945654813274508 -0.088139158508057439 0 -0.1904152237905041 -0.09805300859397291 0 -0.18435979997927049 -0.099421141072206121 0 -0.19413738579254641 -0.095270044365709433 0 -0.1941593592747953 -0.097921403783572336 0 -0.1904152237905041 -0.09805300859397291 0 -0.1941593592747953 -0.097921403783572336 0 -0.1904152237905041 -0.09805300859397291 0 -0.19234165481676041 -0.1023335492915607 0 -0.1904152237905041 -0.09805300859397291 0 -0.19234165481676041 -0.1023335492915607 0 -0.19031896919517341 -0.10392248476641711 0 -0.1904152237905041 -0.09805300859397291 0 -0.19031896919517341 -0.10392248476641711 0 -0.18435979997927049 -0.099421141072206121 0 -0.19234165481676041 -0.1023335492915607 0 -0.19031896919517341 -0.10392248476641711 0 -0.1881601110711649 -0.11331791216487019 0 -0.19713810318254341 -0.1136562762828562 0 -0.18831766493431831 -0.12120209436824959 0 -0.19031896919517341 -0.10392248476641711 0 -0.1881601110711649 -0.11331791216487019 0 -0.19713810318254341 -0.1136562762828562 0 -0.20890988446413891 -0.11444446759500559 0 -0.20157714531803389 -0.1082545272619231 0 -0.19713810318254341 -0.1136562762828562 0 -0.20890988446413891 -0.11444446759500559 0 -0.19713810318254341 -0.1136562762828562 0 -0.1999032514963405 -0.12354421154912899 0 -0.1955626572392718 -0.12519558290873339 0 -0.19713810318254341 -0.1136562762828562 0 -0.1999032514963405 -0.12354421154912899 0 -0.1955626572392718 -0.12519558290873339 0 -0.19713810318254341 -0.1136562762828562 0 -0.18831766493431831 -0.12120209436824959 0 -0.1811232306609345 -0.13103659972219539 0 -0.18831766493431831 -0.12120209436824959 0 -0.17686570697262449 -0.11449079324195779 0 -0.1881601110711649 -0.11331791216487019 0 -0.18831766493431831 -0.12120209436824959 0 -0.17686570697262449 -0.11449079324195779 0 -0.19031896919517341 -0.10392248476641711 0 -0.1881601110711649 -0.11331791216487019 0 -0.17686570697262449 -0.11449079324195779 0 -0.17686570697262449 -0.11449079324195779 0 -0.1671891727045966 -0.11840259962645371 0 -0.178722850225248 -0.1056525691043167 0 -0.1671891727045966 -0.11840259962645371 0 -0.178722850225248 -0.1056525691043167 0 -0.17686570697262449 -0.11449079324195779 0 -0.18146433169557 -0.1052435534528942 0 -0.1671891727045966 -0.11840259962645371 0 -0.14895852744663621 -0.1200008436472003 0 -0.15597394879650059 -0.1090465941370332 0 -0.1556554951839447 -0.1311526301485903 0 -0.1671891727045966 -0.11840259962645371 0 -0.14895852744663621 -0.1200008436472003 0 -0.1671891727045966 -0.11840259962645371 0 -0.178722850225248 -0.1056525691043167 0 -0.15597394879650059 -0.1090465941370332 0 -0.1556554951839447 -0.1311526301485903 0 -0.17686570697262449 -0.11449079324195779 0 -0.1556554951839447 -0.1311526301485903 0 -0.17686570697262449 -0.11449079324195779 0 -0.1671891727045966 -0.11840259962645371 0 -0.1556554951839447 -0.1311526301485903 0 -0.1671891727045966 -0.11840259962645371 0 -0.16577731773661569 -0.099642728646809522 0 -0.178722850225248 -0.1056525691043167 0 -0.15597394879650059 -0.1090465941370332 0 -0.16577731773661569 -0.099642728646809522 0 -0.15483666007184421 -0.091762325858716021 0 -0.15597394879650059 -0.1090465941370332 0 -0.178722850225248 -0.1056525691043167 0 -0.15597394879650059 -0.1090465941370332 0 -0.16577731773661569 -0.099642728646809522 0 -0.16396717950907169 -0.091578348192083478 0 -0.15483666007184421 -0.091762325858716021 0 -0.16577731773661569 -0.099642728646809522 0 -0.1730133147824518 -0.093935049886302191 0 -0.16396717950907169 -0.091578348192083478 0 -0.1730133147824518 -0.093935049886302191 0 -0.178722850225248 -0.1056525691043167 0 -0.1827724087684745 -0.099209326032371981 0 -0.16577731773661569 -0.099642728646809522 0 -0.1730133147824518 -0.093935049886302191 0 -0.178722850225248 -0.1056525691043167 0 -0.17686570697262449 -0.11449079324195779 0 -0.178722850225248 -0.1056525691043167 0 -0.18146433169557 -0.1052435534528942 0 -0.19031896919517341 -0.10392248476641711 0 -0.17686570697262449 -0.11449079324195779 0 -0.19031896919517341 -0.10392248476641711 0 -0.17686570697262449 -0.11449079324195779 0 -0.18146433169557 -0.1052435534528942 0 -0.19031896919517341 -0.10392248476641711 0 -0.18146433169557 -0.1052435534528942 0 -0.19031896919517341 -0.10392248476641711 0 -0.18146433169557 -0.1052435534528942 0 -0.18435979997927049 -0.099421141072206121 0 -0.178722850225248 -0.1056525691043167 0 -0.18146433169557 -0.1052435534528942 0 -0.18435979997927049 -0.099421141072206121 0 -0.18146433169557 -0.1052435534528942 0 -0.18435979997927049 -0.099421141072206121 0 -0.178722850225248 -0.1056525691043167 0 -0.18435979997927049 -0.099421141072206121 0 -0.178722850225248 -0.1056525691043167 0 -0.18146433169557 -0.1052435534528942 0 -0.178722850225248 -0.1056525691043167 0 -0.1827724087684745 -0.099209326032371981 0 -0.18435979997927049 -0.099421141072206121 0 -0.18435979997927049 -0.099421141072206121 0 -0.18748261406783731 -0.09314156567011822 0 -0.1827724087684745 -0.099209326032371981 0 -0.18435979997927049 -0.099421141072206121 0 -0.18748261406783731 -0.09314156567011822 0 -0.1827724087684745 -0.099209326032371981 0 -0.18748261406783731 -0.09314156567011822 0 -0.18562984336502331 -0.085476789017593952 0 -0.1827724087684745 -0.099209326032371981 0 -0.18562984336502331 -0.085476789017593952 0 -0.17382681767284369 -0.073592277455930555 0 -0.1827724087684745 -0.099209326032371981 0 -0.17382681767284369 -0.073592277455930555 0 -0.1730133147824518 -0.093935049886302191 0 -0.1827724087684745 -0.099209326032371981 0 -0.17382681767284369 -0.073592277455930555 0 -0.1895018949885055 -0.07330161742149327 0 -0.18562984336502331 -0.085476789017593952 0 -0.17382681767284369 -0.073592277455930555 0 -0.17382681767284369 -0.073592277455930555 0 -0.19210579319034141 -0.056102698017712747 0 -0.1895018949885055 -0.07330161742149327 0 -0.17382681767284369 -0.073592277455930555 0 -0.19210579319034141 -0.056102698017712747 0 -0.17382681767284369 -0.073592277455930555 0 -0.16643292360035861 -0.052418747210770528 0 -0.17382681767284369 -0.073592277455930555 0 -0.15483666007184421 -0.091762325858716021 0 -0.15377281853302041 -0.064532112812628717 0 -0.17382681767284369 -0.073592277455930555 0 -0.15377281853302041 -0.064532112812628717 0 -0.16643292360035861 -0.052418747210770528 0 -0.17382681767284369 -0.073592277455930555 0 -0.16396717950907169 -0.091578348192083478 0 -0.15483666007184421 -0.091762325858716021 0 -0.17382681767284369 -0.073592277455930555 0 -0.15483666007184421 -0.091762325858716021 0 -0.1730133147824518 -0.093935049886302191 0 -0.17382681767284369 -0.073592277455930555 0 -0.16396717950907169 -0.091578348192083478 0 -0.15483666007184421 -0.091762325858716021 0 -0.15377281853302041 -0.064532112812628717 0 -0.15483666007184421 -0.091762325858716021 0 -0.15377281853302041 -0.064532112812628717 0 -0.1360677503740185 -0.071374625852164114 0 -0.1249758290592763 -0.088089041145386904 0 -0.1168303758842141 -0.063684848039456371 0 -0.1360677503740185 -0.071374625852164114 0 -0.1249758290592763 -0.088089041145386904 0 -0.15483666007184421 -0.091762325858716021 0 -0.1360677503740185 -0.071374625852164114 0 -0.1196943769995599 -0.1026894650061886 0 -0.1249758290592763 -0.088089041145386904 0 -0.13317316480104521 -0.1124669267105321 0 -0.1249758290592763 -0.088089041145386904 0 -0.13317316480104521 -0.1124669267105321 0 -0.1249758290592763 -0.088089041145386904 0 -0.15483666007184421 -0.091762325858716021 0 -0.13317316480104521 -0.1124669267105321 0 -0.1233103767900269 -0.11391983961638839 0 -0.12141654953633819 -0.1237391550570868 0 -0.13317316480104521 -0.1124669267105321 0 -0.1233103767900269 -0.11391983961638839 0 -0.1196943769995599 -0.1026894650061886 0 -0.13317316480104521 -0.1124669267105321 0 -0.1233103767900269 -0.11391983961638839 0 -0.13317316480104521 -0.1124669267105321 0 -0.12141654953633819 -0.1237391550570868 0 -0.13792893398550399 -0.12689720407348901 0 -0.13317316480104521 -0.1124669267105321 0 -0.13792893398550399 -0.12689720407348901 0 -0.13317316480104521 -0.1124669267105321 0 -0.14895852744663621 -0.1200008436472003 0 -0.12141654953633819 -0.1237391550570868 0 -0.13317316480104521 -0.1124669267105321 0 -0.13792893398550399 -0.12689720407348901 0 -0.13317316480104521 -0.1124669267105321 0 -0.13317316480104521 -0.1124669267105321 0 -0.15597394879650059 -0.1090465941370332 0 -0.13317316480104521 -0.1124669267105321 0 -0.14895852744663621 -0.1200008436472003 0 -0.15597394879650059 -0.1090465941370332 0 -0.15483666007184421 -0.091762325858716021 0 -0.13317316480104521 -0.1124669267105321 0 -0.15483666007184421 -0.091762325858716021 0 -0.13317316480104521 -0.1124669267105321 0 -0.15597394879650059 -0.1090465941370332 0 -0.15164513545537861 -0.010071686720453939 0 -0.15903902952786861 -0.03124521696561228 0 -0.15164513545537861 -0.010071686720453939 0 -0.15270897699419961 -0.03730189976654133 0 -0.15164513545537861 -0.010071686720453939 0 -0.13856073551178991 -0.01791162058822246 0 -0.15270897699419961 -0.03730189976654133 0 -0.15164513545537861 -0.010071686720453939 0 -0.15270897699419961 -0.03730189976654133 0 -0.15903902952786861 -0.03124521696561228 0 -0.15164513545537861 -0.010071686720453939 0 -0.13443834496835211 -0.0057144966104633061 0 -0.13856073551178991 -0.01791162058822246 0 -0.15164513545537861 -0.010071686720453939 0 -0.13443834496835211 -0.0057144966104633061 0 -0.14549820555302331 0.0075309736539515872 0 -0.15164513545537861 -0.010071686720453939 0 -0.14549820555302331 0.0075309736539515872 0 -0.13443834496835211 -0.0057144966104633061 0 -0.1257243243116119 -0.013993145548155089 0 -0.13856073551178991 -0.01791162058822246 0 -0.11882490356417411 -0.003904598360146466 0 -0.13443834496835211 -0.0057144966104633061 0 -0.1291944312396914 0.0041045353414499199 0 -0.11882490356417411 -0.003904598360146466 0 -0.13443834496835211 -0.0057144966104633061 0 -0.1257243243116119 -0.013993145548155089 0 -0.1257243243116119 -0.013993145548155089 0 -0.13856073551178991 -0.01791162058822246 0 -0.12811296504878369 -0.028680234473229111 0 -0.13856073551178991 -0.01791162058822246 0 -0.12811296504878369 -0.028680234473229111 0 -0.15270897699419961 -0.03730189976654133 0 -0.12811296504878369 -0.028680234473229111 0 -0.13437411955032749 -0.049955449646558618 0 -0.15270897699419961 -0.03730189976654133 0 -0.1168303758842141 -0.063684848039456371 0 -0.1360677503740185 -0.071374625852164114 0 -0.13437411955032749 -0.049955449646558618 0 -0.15377281853302041 -0.064532112812628717 0 -0.13437411955032749 -0.049955449646558618 0 -0.15270897699419961 -0.03730189976654133 0 -0.15377281853302041 -0.064532112812628717 0 -0.15270897699419961 -0.03730189976654133 0 -0.15377281853302041 -0.064532112812628717 0 -0.1360677503740185 -0.071374625852164114 0 -0.13437411955032749 -0.049955449646558618 0 -0.16643292360035861 -0.052418747210770528 0 -0.15903902952786861 -0.03124521696561228 0 -0.16643292360035861 -0.052418747210770528 0 -0.18464858302232931 -0.035528642407218869 0 -0.15903902952786861 -0.03124521696561228 0 -0.15270897699419961 -0.03730189976654133 0 -0.16643292360035861 -0.052418747210770528 0 -0.15903902952786861 -0.03124521696561228 0 -0.15377281853302041 -0.064532112812628717 0 -0.15270897699419961 -0.03730189976654133 0 -0.16643292360035861 -0.052418747210770528 0 -0.16643292360035861 -0.052418747210770528 0 -0.18464858302232931 -0.035528642407218869 0 -0.19210579319034141 -0.056102698017712747 0 -0.17382681767284369 -0.073592277455930555 0 -0.16643292360035861 -0.052418747210770528 0 -0.19210579319034141 -0.056102698017712747 0 -0.18464858302232931 -0.035528642407218869 0 -0.15903902952786861 -0.03124521696561228 0 -0.1839946668070416 -0.0140003919369927 0 -0.15903902952786861 -0.03124521696561228 0 -0.166761735875191 -0.0073857624883872791 0 -0.1839946668070416 -0.0140003919369927 0 -0.15164513545537861 -0.010071686720453939 0 -0.15903902952786861 -0.03124521696561228 0 -0.166761735875191 -0.0073857624883872791 0 -0.15164513545537861 -0.010071686720453939 0 -0.166761735875191 -0.0073857624883872791 0 -0.16094102211374159 0.0088643573438431378 0 -0.166761735875191 -0.0073857624883872791 0 -0.1839946668070416 -0.0140003919369927 0 -0.17946841454955409 0.0056100970778848987 0 -0.1839946668070416 -0.0140003919369927 0 -0.20269401027411391 -0.02166790921480248 0 -0.20859482776366231 0.00056105120679781489 0 -0.1839946668070416 -0.0140003919369927 0 -0.17946841454955409 0.0056100970778848987 0 -0.20859482776366231 0.00056105120679781489 0 -0.18464858302232931 -0.035528642407218869 0 -0.1839946668070416 -0.0140003919369927 0 -0.20269401027411391 -0.02166790921480248 0 -0.20269401027411391 -0.02166790921480248 0 -0.21038476870784761 -0.038613118579504023 0 -0.22866374422535399 -0.021123539141295271 0 -0.22866374422535399 -0.021123539141295271 0 -0.20859482776366231 0.00056105120679781489 0 -0.20269401027411391 -0.02166790921480248 0 -0.22866374422535399 -0.021123539141295271 0 -0.20859482776366231 0.00056105120679781489 0 -0.19210579319034141 -0.056102698017712747 0 -0.21038476870784761 -0.038613118579504023 0 -0.18464858302232931 -0.035528642407218869 0 -0.20269401027411391 -0.02166790921480248 0 -0.21038476870784761 -0.038613118579504023 0 -0.18464858302232931 -0.035528642407218869 0 -0.19210579319034141 -0.056102698017712747 0 -0.21038476870784761 -0.038613118579504023 0 -0.21038476870784761 -0.038613118579504023 0 -0.21145825997721879 -0.058534646774305227 0 -0.2231434828033976 -0.048664249429628659 0 -0.19210579319034141 -0.056102698017712747 0 -0.21038476870784761 -0.038613118579504023 0 -0.21145825997721879 -0.058534646774305227 0 -0.21145825997721879 -0.058534646774305227 0 -0.2307249311936011 -0.061572363965175077 0 -0.2231434828033976 -0.048664249429628659 0 -0.2307249311936011 -0.061572363965175077 0 -0.2231434828033976 -0.048664249429628659 0 -0.2416324545583344 -0.035136312150260599 0 -0.2231434828033976 -0.048664249429628659 0 -0.22583239147580289 -0.036262802619311661 0 -0.2416324545583344 -0.035136312150260599 0 -0.21038476870784761 -0.038613118579504023 0 -0.22583239147580289 -0.036262802619311661 0 -0.22866374422535399 -0.021123539141295271 0 -0.21038476870784761 -0.038613118579504023 0 -0.2231434828033976 -0.048664249429628659 0 -0.22583239147580289 -0.036262802619311661 0 -0.2416324545583344 -0.035136312150260599 0 -0.25569089948334028 -0.050326550233705233 0 -0.2307249311936011 -0.061572363965175077 0 -0.2416324545583344 -0.035136312150260599 0 -0.25569089948334028 -0.050326550233705233 0 -0.24358588208205151 -0.06498279729468999 0 -0.2307249311936011 -0.061572363965175077 0 -0.25569089948334028 -0.050326550233705233 0 -0.2307249311936011 -0.061572363965175077 0 -0.2416324545583344 -0.035136312150260599 0 -0.2256276510647858 -0.0061875740005409062 0 -0.22866374422535399 -0.021123539141295271 0 -0.20859482776366231 0.00056105120679781489 0 -0.2256276510647858 -0.0061875740005409062 0 -0.20859482776366231 0.00056105120679781489 0 -0.2334181717106491 0.0056181133983165578 0 -0.2305930863836754 -0.011935396349104919 0 -0.2256276510647858 -0.0061875740005409062 0 -0.22866374422535399 -0.021123539141295271 0 -0.2305930863836754 -0.011935396349104919 0 -0.2256276510647858 -0.0061875740005409062 0 -0.2375712503994746 -0.0066014752189344121 0 -0.2305930863836754 -0.011935396349104919 0 -0.23033283681628361 -0.019526528005149622 0 -0.23755130949978889 -0.01478070213645449 0 -0.2256276510647858 -0.0061875740005409062 0 -0.2375712503994746 -0.0066014752189344121 0 -0.2334181717106491 0.0056181133983165578 0 -0.22583239147580289 -0.036262802619311661 0 -0.2416324545583344 -0.035136312150260599 0 -0.22866374422535399 -0.021123539141295271 0 -0.21038476870784761 -0.038613118579504023 0 -0.22866374422535399 -0.021123539141295271 0 -0.23033283681628361 -0.019526528005149622 0 -0.22866374422535399 -0.021123539141295271 0 -0.2383875738244681 -0.02309676651417655 0 -0.2305930863836754 -0.011935396349104919 0 -0.23033283681628361 -0.019526528005149622 0 -0.22866374422535399 -0.021123539141295271 0 -0.23033283681628361 -0.019526528005149622 0 -0.22866374422535399 -0.021123539141295271 0 -0.23033283681628361 -0.019526528005149622 0 -0.2383875738244681 -0.02309676651417655 0 -0.23755130949978889 -0.01478070213645449 0 -0.2416324545583344 -0.035136312150260599 0 -0.25087180007504312 -0.01274334459490695 0 -0.2416324545583344 -0.035136312150260599 0 -0.2383875738244681 -0.02309676651417655 0 -0.25087180007504312 -0.01274334459490695 0 -0.2416324545583344 -0.035136312150260599 0 -0.22866374422535399 -0.021123539141295271 0 -0.2416324545583344 -0.035136312150260599 0 -0.22866374422535399 -0.021123539141295271 0 -0.2383875738244681 -0.02309676651417655 0 -0.2383875738244681 -0.02309676651417655 0 -0.25087180007504312 -0.01274334459490695 0 -0.2383875738244681 -0.02309676651417655 0 -0.23755130949978889 -0.01478070213645449 0 -0.25087180007504312 -0.01274334459490695 0 -0.2375712503994746 -0.0066014752189344121 0 -0.25087180007504312 -0.01274334459490695 0 -0.2459253282718992 0.0032477469373470829 0 -0.2305930863836754 -0.011935396349104919 0 -0.23755130949978889 -0.01478070213645449 0 -0.2375712503994746 -0.0066014752189344121 0 -0.23755130949978889 -0.01478070213645449 0 -0.2375712503994746 -0.0066014752189344121 0 -0.25087180007504312 -0.01274334459490695 0 -0.25087180007504312 -0.01274334459490695 0 -0.26103825752416371 0.01189662058436592 0 -0.25087180007504312 -0.01274334459490695 0 -0.26651812489744758 -0.012670075218597769 0 -0.27339990125571778 0.0059396664209166641 0 -0.25087180007504312 -0.01274334459490695 0 -0.27339990125571778 0.0059396664209166641 0 -0.25087180007504312 -0.01274334459490695 0 -0.2614533040142335 -0.026100243925489219 0 -0.26651812489744758 -0.012670075218597769 0 -0.2416324545583344 -0.035136312150260599 0 -0.25087180007504312 -0.01274334459490695 0 -0.2614533040142335 -0.026100243925489219 0 -0.2614533040142335 -0.026100243925489219 0 -0.27605249539329402 -0.020182623525884961 0 -0.27543406506616952 -0.032733810113294397 0 -0.2614533040142335 -0.026100243925489219 0 -0.27605249539329402 -0.020182623525884961 0 -0.26651812489744758 -0.012670075218597769 0 -0.27605249539329402 -0.020182623525884961 0 -0.28963048317227619 -0.02343074857615076 0 -0.27543406506616952 -0.032733810113294397 0 -0.26651812489744758 -0.012670075218597769 0 -0.27552286681388138 -0.0074242596822056174 0 -0.27339990125571778 0.0059396664209166641 0 -0.27605249539329402 -0.020182623525884961 0 -0.26651812489744758 -0.012670075218597769 0 -0.27552286681388138 -0.0074242596822056174 0 -0.27605249539329402 -0.020182623525884961 0 -0.27552286681388138 -0.0074242596822056174 0 -0.28859698124121203 -0.005712966606426703 0 -0.27552286681388138 -0.0074242596822056174 0 -0.28859698124121203 -0.005712966606426703 0 -0.27339990125571778 0.0059396664209166641 0 -0.28859698124121203 -0.005712966606426703 0 -0.30221028477068612 -0.0038103016475589929 0 -0.29426279159128288 0.0067237075994722303 0 -0.28859698124121203 -0.005712966606426703 0 -0.28963048317227619 -0.02343074857615076 0 -0.30273873485914921 -0.018625979468071659 0 -0.28963048317227619 -0.02343074857615076 0 -0.2912546860574865 -0.037495067842129533 0 -0.27543406506616952 -0.032733810113294397 0 -0.27605249539329402 -0.020182623525884961 0 -0.28859698124121203 -0.005712966606426703 0 -0.28963048317227619 -0.02343074857615076 0 -0.28963048317227619 -0.02343074857615076 0 -0.30621511458802952 -0.031556978655610239 0 -0.2912546860574865 -0.037495067842129533 0 -0.30273873485914921 -0.018625979468071659 0 -0.30621511458802952 -0.031556978655610239 0 -0.31976193234152389 -0.024969991081554951 0 -0.28963048317227619 -0.02343074857615076 0 -0.30273873485914921 -0.018625979468071659 0 -0.30621511458802952 -0.031556978655610239 0 -0.30273873485914921 -0.018625979468071659 0 -0.30221028477068612 -0.0038103016475589929 0 -0.31761660941157371 -0.0078205932402375875 0 -0.30221028477068612 -0.0038103016475589929 0 -0.31761660941157371 -0.0078205932402375875 0 -0.31178167793527611 0.0079382695773918301 0 -0.28859698124121203 -0.005712966606426703 0 -0.30273873485914921 -0.018625979468071659 0 -0.30221028477068612 -0.0038103016475589929 0 -0.30361146163774999 -0.046062765195998577 0 -0.31163207279374161 -0.066371606409456038 0 -0.31860592696613549 -0.041397249584816977 0 -0.30361146163774999 -0.046062765195998577 0 -0.29553350823047259 -0.056206863230729813 0 -0.31163207279374161 -0.066371606409456038 0 -0.30621511458802952 -0.031556978655610239 0 -0.30361146163774999 -0.046062765195998577 0 -0.31860592696613549 -0.041397249584816977 0 -0.30621511458802952 -0.031556978655610239 0 -0.30361146163774999 -0.046062765195998577 0 -0.2912546860574865 -0.037495067842129533 0 -0.2912546860574865 -0.037495067842129533 0 -0.27543406506616952 -0.032733810113294397 0 -0.27742096008624179 -0.046403561573705281 0 -0.30361146163774999 -0.046062765195998577 0 -0.2912546860574865 -0.037495067842129533 0 -0.29083778339346361 -0.048605613751877462 0 -0.2912546860574865 -0.037495067842129533 0 -0.29083778339346361 -0.048605613751877462 0 -0.27742096008624179 -0.046403561573705281 0 -0.29083778339346361 -0.048605613751877462 0 -0.28587819647944868 -0.056130214804040512 0 -0.27742096008624179 -0.046403561573705281 0 -0.30361146163774999 -0.046062765195998577 0 -0.29083778339346361 -0.048605613751877462 0 -0.29553350823047259 -0.056206863230729813 0 -0.29083778339346361 -0.048605613751877462 0 -0.29553350823047259 -0.056206863230729813 0 -0.28587819647944868 -0.056130214804040512 0 -0.29553350823047259 -0.056206863230729813 0 -0.28430631765813352 -0.06581389322370243 0 -0.28587819647944868 -0.056130214804040512 0 -0.27701870199892609 -0.057259064136714638 0 -0.28430631765813352 -0.06581389322370243 0 -0.29553350823047259 -0.056206863230729813 0 -0.28587819647944868 -0.056130214804040512 0 -0.28430631765813352 -0.06581389322370243 0 -0.27701870199892609 -0.057259064136714638 0 -0.26860532353186611 -0.051981251007210003 0 -0.27742096008624179 -0.046403561573705281 0 -0.28587819647944868 -0.056130214804040512 0 -0.27701870199892609 -0.057259064136714638 0 -0.27742096008624179 -0.046403561573705281 0 -0.27701870199892609 -0.057259064136714638 0 -0.26860532353186611 -0.051981251007210003 0 -0.26974934440834603 -0.065516788317150174 0 -0.26860532353186611 -0.051981251007210003 0 -0.27742096008624179 -0.046403561573705281 0 -0.26314671168247711 -0.040400290774774222 0 -0.27543406506616952 -0.032733810113294397 0 -0.27742096008624179 -0.046403561573705281 0 -0.26314671168247711 -0.040400290774774222 0 -0.2614533040142335 -0.026100243925489219 0 -0.27543406506616952 -0.032733810113294397 0 -0.26314671168247711 -0.040400290774774222 0 -0.2416324545583344 -0.035136312150260599 0 -0.2614533040142335 -0.026100243925489219 0 -0.26314671168247711 -0.040400290774774222 0 -0.2416324545583344 -0.035136312150260599 0 -0.26314671168247711 -0.040400290774774222 0 -0.25569089948334028 -0.050326550233705233 0 -0.24358588208205151 -0.06498279729468999 0 -0.25569089948334028 -0.050326550233705233 0 -0.26974934440834603 -0.065516788317150174 0 -0.25569089948334028 -0.050326550233705233 0 -0.26974934440834603 -0.065516788317150174 0 -0.26860532353186611 -0.051981251007210003 0 -0.25569089948334028 -0.050326550233705233 0 -0.26974934440834603 -0.065516788317150174 0 -0.26860532353186611 -0.051981251007210003 0 -0.26314671168247711 -0.040400290774774222 0 -0.25569089948334028 -0.050326550233705233 0 -0.24358588208205151 -0.06498279729468999 0 -0.26974934440834603 -0.065516788317150174 0 -0.24358588208205151 -0.06498279729468999 0 -0.25746478862091149 -0.07365324142992212 0 -0.26974934440834603 -0.065516788317150174 0 -0.24498438228203151 -0.078772612339773757 0 -0.25746478862091149 -0.07365324142992212 0 -0.2572300318251125 -0.088982885361147013 0 -0.25746478862091149 -0.07365324142992212 0 -0.2572300318251125 -0.088982885361147013 0 -0.27633616956984219 -0.072633894295152157 0 -0.2572300318251125 -0.088982885361147013 0 -0.27633616956984219 -0.072633894295152157 0 -0.2572300318251125 -0.088982885361147013 0 -0.27598558345852697 -0.087346929912152121 0 -0.2779521976078364 -0.1011243649948342 0 -0.2572300318251125 -0.088982885361147013 0 -0.27598558345852697 -0.087346929912152121 0 -0.27633616956984219 -0.072633894295152157 0 -0.27598558345852697 -0.087346929912152121 0 -0.27633616956984219 -0.072633894295152157 0 -0.29071623381593559 -0.08817164407605986 0 -0.25746478862091149 -0.07365324142992212 0 -0.27633616956984219 -0.072633894295152157 0 -0.26974934440834603 -0.065516788317150174 0 -0.26974934440834603 -0.065516788317150174 0 -0.28430631765813352 -0.06581389322370243 0 -0.27633616956984219 -0.072633894295152157 0 -0.28430631765813352 -0.06581389322370243 0 -0.27701870199892609 -0.057259064136714638 0 -0.26974934440834603 -0.065516788317150174 0 -0.28430631765813352 -0.06581389322370243 0 -0.27633616956984219 -0.072633894295152157 0 -0.26974934440834603 -0.065516788317150174 0 -0.28430631765813352 -0.06581389322370243 0 -0.27633616956984219 -0.072633894295152157 0 -0.26974934440834603 -0.065516788317150174 0 -0.24811226901631339 -0.119687531806331 0 -0.26057096435407312 -0.1101978935494649 0 -0.26218403780585953 -0.12807797417963801 0 -0.2572300318251125 -0.088982885361147013 0 -0.26057096435407312 -0.1101978935494649 0 -0.2779521976078364 -0.1011243649948342 0 -0.23812389408038651 -0.1053318764271461 0 -0.2572300318251125 -0.088982885361147013 0 -0.26057096435407312 -0.1101978935494649 0 -0.26057096435407312 -0.1101978935494649 0 -0.2779521976078364 -0.1011243649948342 0 -0.27427643973227828 -0.11646892779542101 0 -0.26057096435407312 -0.1101978935494649 0 -0.27427643973227828 -0.11646892779542101 0 -0.26218403780585953 -0.12807797417963801 0 -0.2779521976078364 -0.1011243649948342 0 -0.27427643973227828 -0.11646892779542101 0 -0.28905055600313911 -0.1118647656252728 0 -0.28905055600313911 -0.1118647656252728 0 -0.28162444289048372 -0.1310796406278949 0 -0.29508574295850032 -0.1200674532463958 0 -0.28905055600313911 -0.1118647656252728 0 -0.28162444289048372 -0.1310796406278949 0 -0.27427643973227828 -0.11646892779542101 0 -0.28905055600313911 -0.1118647656252728 0 -0.28162444289048372 -0.1310796406278949 0 -0.29508574295850032 -0.1200674532463958 0 -0.28905055600313911 -0.1118647656252728 0 -0.29916735151461882 -0.1113231707207552 0 -0.29391239110271372 -0.10395852116390331 0 -0.30509629806202909 -0.10370939385696749 0 -0.29071623381593559 -0.08817164407605986 0 -0.2779521976078364 -0.1011243649948342 0 -0.29391239110271372 -0.10395852116390331 0 -0.29071623381593559 -0.08817164407605986 0 -0.2779521976078364 -0.1011243649948342 0 -0.28905055600313911 -0.1118647656252728 0 -0.29391239110271372 -0.10395852116390331 0 -0.28905055600313911 -0.1118647656252728 0 -0.29391239110271372 -0.10395852116390331 0 -0.29916735151461882 -0.1113231707207552 0 -0.30509629806202909 -0.10370939385696749 0 -0.29071623381593559 -0.08817164407605986 0 -0.30509629806202909 -0.10370939385696749 0 -0.29071623381593559 -0.08817164407605986 0 -0.30331118822591108 -0.090584581033960485 0 -0.30509629806202909 -0.10370939385696749 0 -0.30331118822591108 -0.090584581033960485 0 -0.31286614242780331 -0.096496582272739342 0 -0.30509629806202909 -0.10370939385696749 0 -0.31598909753521148 -0.1068134200366838 0 -0.31286614242780331 -0.096496582272739342 0 -0.30509629806202909 -0.10370939385696749 0 -0.30854704302651731 -0.10905526586489731 0 -0.30255282467753403 -0.1077658280485416 0 -0.29391239110271372 -0.10395852116390331 0 -0.30255282467753403 -0.1077658280485416 0 -0.29916735151461882 -0.1113231707207552 0 -0.29391239110271372 -0.10395852116390331 0 -0.30509629806202909 -0.10370939385696749 0 -0.30255282467753403 -0.1077658280485416 0 -0.29508574295850032 -0.1200674532463958 0 -0.30854704302651731 -0.10905526586489731 0 -0.3073366122570147 -0.12130927669385359 0 -0.29508574295850032 -0.1200674532463958 0 -0.30854704302651731 -0.10905526586489731 0 -0.29508574295850032 -0.1200674532463958 0 -0.30854704302651731 -0.10905526586489731 0 -0.29916735151461882 -0.1113231707207552 0 -0.30854704302651731 -0.10905526586489731 0 -0.30255282467753403 -0.1077658280485416 0 -0.29916735151461882 -0.1113231707207552 0 -0.30854704302651731 -0.10905526586489731 0 -0.31159946338419042 -0.11664942742870781 0 -0.3073366122570147 -0.12130927669385359 0 -0.30509629806202909 -0.10370939385696749 0 -0.31947636230812271 -0.1192471436378751 0 -0.30509629806202909 -0.10370939385696749 0 -0.30854704302651731 -0.10905526586489731 0 -0.31947636230812271 -0.1192471436378751 0 -0.31159946338419042 -0.11664942742870781 0 -0.3073366122570147 -0.12130927669385359 0 -0.31345332753640731 -0.12147112793790669 0 -0.3073366122570147 -0.12130927669385359 0 -0.31345332753640731 -0.12147112793790669 0 -0.31455481087970177 -0.12756096835710801 0 -0.29508574295850032 -0.1200674532463958 0 -0.3073366122570147 -0.12130927669385359 0 -0.30252173833898133 -0.12816764028315061 0 -0.27633616956984219 -0.072633894295152157 0 -0.28430631765813352 -0.06581389322370243 0 -0.29644432012255778 -0.078276932542846858 0 -0.27633616956984219 -0.072633894295152157 0 -0.29071623381593559 -0.08817164407605986 0 -0.29644432012255778 -0.078276932542846858 0 -0.27633616956984219 -0.072633894295152157 0 -0.29071623381593559 -0.08817164407605986 0 -0.27598558345852697 -0.087346929912152121 0 -0.2779521976078364 -0.1011243649948342 0 -0.29071623381593559 -0.08817164407605986 0 -0.29071623381593559 -0.08817164407605986 0 -0.29644432012255778 -0.078276932542846858 0 -0.30331118822591108 -0.090584581033960485 0 -0.29644432012255778 -0.078276932542846858 0 -0.30331118822591108 -0.090584581033960485 0 -0.31329493064233632 -0.085903600016310713 0 -0.30331118822591108 -0.090584581033960485 0 -0.31329493064233632 -0.085903600016310713 0 -0.31286614242780331 -0.096496582272739342 0 -0.28430631765813352 -0.06581389322370243 0 -0.31163207279374161 -0.066371606409456038 0 -0.29644432012255778 -0.078276932542846858 0 -0.31163207279374161 -0.066371606409456038 0 -0.31329493064233632 -0.085903600016310713 0 -0.28430631765813352 -0.06581389322370243 0 -0.29644432012255778 -0.078276932542846858 0 -0.31163207279374161 -0.066371606409456038 0 -0.29553350823047259 -0.056206863230729813 0 -0.28430631765813352 -0.06581389322370243 0 -0.31163207279374161 -0.066371606409456038 0 -0.31163207279374161 -0.066371606409456038 0 -0.33895782792934981 -0.066929319595209397 0 -0.31163207279374161 -0.066371606409456038 0 -0.33120858652940882 -0.086420613659806508 0 -0.33895782792934981 -0.066929319595209397 0 -0.31163207279374161 -0.066371606409456038 0 -0.31329493064233632 -0.085903600016310713 0 -0.33120858652940882 -0.086420613659806508 0 -0.31329493064233632 -0.085903600016310713 0 -0.33120858652940882 -0.086420613659806508 0 -0.32276966844357091 -0.094612782590342573 0 -0.31329493064233632 -0.085903600016310713 0 -0.31286614242780331 -0.096496582272739342 0 -0.32276966844357091 -0.094612782590342573 0 -0.33120858652940882 -0.086420613659806508 0 -0.34889155871829619 -0.101241906645406 0 -0.34911617959364349 -0.082669308524273649 0 -0.33120858652940882 -0.086420613659806508 0 -0.33895782792934981 -0.066929319595209397 0 -0.34911617959364349 -0.082669308524273649 0 -0.3259849524932365 -0.1180184893402049 0 -0.31947636230812271 -0.1192471436378751 0 -0.32393680484808818 -0.1259651936514837 0 -0.31947636230812271 -0.1192471436378751 0 -0.32393680484808818 -0.1259651936514837 0 -0.31455481087970177 -0.12756096835710801 0 -0.31947636230812271 -0.1192471436378751 0 -0.31345332753640731 -0.12147112793790669 0 -0.31455481087970177 -0.12756096835710801 0 -0.31159946338419042 -0.11664942742870781 0 -0.31947636230812271 -0.1192471436378751 0 -0.31345332753640731 -0.12147112793790669 0 -0.30854704302651731 -0.10905526586489731 0 -0.31159946338419042 -0.11664942742870781 0 -0.31947636230812271 -0.1192471436378751 0 -0.31947636230812271 -0.1192471436378751 0 -0.32220682420184199 -0.11084258345077 0 -0.31598909753521148 -0.1068134200366838 0 -0.30509629806202909 -0.10370939385696749 0 -0.31947636230812271 -0.1192471436378751 0 -0.31598909753521148 -0.1068134200366838 0 -0.3259849524932365 -0.1180184893402049 0 -0.32220682420184199 -0.11084258345077 0 -0.33422478658787919 -0.1072124489213908 0 -0.3259849524932365 -0.1180184893402049 0 -0.31947636230812271 -0.1192471436378751 0 -0.32220682420184199 -0.11084258345077 0 -0.32220682420184199 -0.11084258345077 0 -0.32029986067626048 -0.10377139696506731 0 -0.33422478658787919 -0.1072124489213908 0 -0.32029986067626048 -0.10377139696506731 0 -0.32276966844357091 -0.094612782590342573 0 -0.33422478658787919 -0.1072124489213908 0 -0.31598909753521148 -0.1068134200366838 0 -0.32029986067626048 -0.10377139696506731 0 -0.31286614242780331 -0.096496582272739342 0 -0.32220682420184199 -0.11084258345077 0 -0.31598909753521148 -0.1068134200366838 0 -0.32029986067626048 -0.10377139696506731 0 -0.32029986067626048 -0.10377139696506731 0 -0.31286614242780331 -0.096496582272739342 0 -0.32276966844357091 -0.094612782590342573 0 -0.33120858652940882 -0.086420613659806508 0 -0.33422478658787919 -0.1072124489213908 0 -0.34889155871829619 -0.101241906645406 0 -0.33120858652940882 -0.086420613659806508 0 -0.32276966844357091 -0.094612782590342573 0 -0.33422478658787919 -0.1072124489213908 0 -0.3259849524932365 -0.1180184893402049 0 -0.33422478658787919 -0.1072124489213908 0 -0.35262752803816039 -0.1267716565727782 0 -0.3259849524932365 -0.1180184893402049 0 -0.35262752803816039 -0.1267716565727782 0 -0.33422478658787919 -0.1072124489213908 0 -0.34889155871829619 -0.101241906645406 0 -0.35262752803816039 -0.1267716565727782 0 -0.34889155871829619 -0.101241906645406 0 -0.37365237339188878 -0.1093814201311714 0 -0.35262752803816039 -0.1267716565727782 0 -0.34889155871829619 -0.101241906645406 0 -0.37365237339188878 -0.1093814201311714 0 -0.363962075431983 -0.091238694110226726 0 -0.37365237339188878 -0.1093814201311714 0 -0.363962075431983 -0.091238694110226726 0 -0.38069659487589969 -0.083386290856578296 0 -0.37365237339188878 -0.1093814201311714 0 -0.35262752803816039 -0.1267716565727782 0 -0.37927010358308422 -0.13552482380535141 0 -0.33895782792934981 -0.066929319595209397 0 -0.36628358306495801 -0.067487032780962769 0 -0.33895782792934981 -0.066929319595209397 0 -0.34911617959364349 -0.082669308524273649 0 -0.36628358306495801 -0.067487032780962769 0 -0.34889155871829619 -0.101241906645406 0 -0.34911617959364349 -0.082669308524273649 0 -0.363962075431983 -0.091238694110226726 0 -0.363962075431983 -0.091238694110226726 0 -0.36628358306495801 -0.067487032780962769 0 -0.38069659487589969 -0.083386290856578296 0 -0.34911617959364349 -0.082669308524273649 0 -0.363962075431983 -0.091238694110226726 0 -0.36628358306495801 -0.067487032780962769 0 -0.36628358306495801 -0.067487032780962769 0 -0.36820110178471371 -0.045830346327097898 0 -0.38021302720900269 -0.054705174340087717 0 -0.36628358306495801 -0.067487032780962769 0 -0.35255801491772648 -0.050470787294659897 0 -0.36820110178471371 -0.045830346327097898 0 -0.33895782792934981 -0.066929319595209397 0 -0.36628358306495801 -0.067487032780962769 0 -0.35255801491772648 -0.050470787294659897 0 -0.35255801491772648 -0.050470787294659897 0 -0.36241414331514249 -0.033271397803956868 0 -0.33939061828920958 -0.034330157081808782 0 -0.35255801491772648 -0.050470787294659897 0 -0.36241414331514249 -0.033271397803956868 0 -0.36820110178471371 -0.045830346327097898 0 -0.36241414331514249 -0.033271397803956868 0 -0.36820110178471371 -0.045830346327097898 0 -0.37858806660976912 -0.035393957434020032 0 -0.36241414331514249 -0.033271397803956868 0 -0.3778068007713748 -0.019224426864014928 0 -0.37858806660976912 -0.035393957434020032 0 -0.36241414331514249 -0.033271397803956868 0 -0.35736935107421253 -0.015327748436734311 0 -0.3778068007713748 -0.019224426864014928 0 -0.36904092926483728 -0.0062125949297039051 0 -0.35736935107421253 -0.015327748436734311 0 -0.3778068007713748 -0.019224426864014928 0 -0.36904092926483728 -0.0062125949297039051 0 -0.35736935107421253 -0.015327748436734311 0 -0.35532249334114191 0.0025662737979994018 0 -0.35736935107421253 -0.015327748436734311 0 -0.33696301852542232 -0.01236928417653935 0 -0.35532249334114191 0.0025662737979994018 0 -0.35736935107421253 -0.015327748436734311 0 -0.33696301852542232 -0.01236928417653935 0 -0.33939061828920958 -0.034330157081808782 0 -0.36241414331514249 -0.033271397803956868 0 -0.35736935107421253 -0.015327748436734311 0 -0.33939061828920958 -0.034330157081808782 0 -0.33696301852542232 -0.01236928417653935 0 -0.31976193234152389 -0.024969991081554951 0 -0.33939061828920958 -0.034330157081808782 0 -0.33696301852542232 -0.01236928417653935 0 -0.33224400803738457 0.0049137273549076056 0 -0.35532249334114191 0.0025662737979994018 0 -0.33696301852542232 -0.01236928417653935 0 -0.31761660941157371 -0.0078205932402375875 0 -0.33224400803738457 0.0049137273549076056 0 -0.33696301852542232 -0.01236928417653935 0 -0.31761660941157371 -0.0078205932402375875 0 -0.31976193234152389 -0.024969991081554951 0 -0.30273873485914921 -0.018625979468071659 0 -0.31761660941157371 -0.0078205932402375875 0 -0.31976193234152389 -0.024969991081554951 0 -0.31976193234152389 -0.024969991081554951 0 -0.31860592696613549 -0.041397249584816977 0 -0.33939061828920958 -0.034330157081808782 0 -0.30621511458802952 -0.031556978655610239 0 -0.31976193234152389 -0.024969991081554951 0 -0.31860592696613549 -0.041397249584816977 0 -0.31163207279374161 -0.066371606409456038 0 -0.31860592696613549 -0.041397249584816977 0 -0.33193175506746841 -0.051228633764206902 0 -0.31163207279374161 -0.066371606409456038 0 -0.33895782792934981 -0.066929319595209397 0 -0.33193175506746841 -0.051228633764206902 0 -0.33895782792934981 -0.066929319595209397 0 -0.35255801491772648 -0.050470787294659897 0 -0.33193175506746841 -0.051228633764206902 0 -0.31860592696613549 -0.041397249584816977 0 -0.33193175506746841 -0.051228633764206902 0 -0.33939061828920958 -0.034330157081808782 0 -0.35255801491772648 -0.050470787294659897 0 -0.33193175506746841 -0.051228633764206902 0 -0.33939061828920958 -0.034330157081808782 0 -0.30291655559428737 -0.23943596251536489 0 -0.31519365684789402 -0.22814670847905641 0 -0.31258572357348707 -0.24620079465722061 0 -0.29979584939405929 -0.2535686853433215 0 -0.30291655559428737 -0.23943596251536489 0 -0.29304378587810098 -0.24519285983212741 0 -0.29979584939405929 -0.2535686853433215 0 -0.30291655559428737 -0.23943596251536489 0 -0.31258572357348707 -0.24620079465722061 0 -0.30291655559428737 -0.23943596251536489 0 -0.29979224147323202 -0.22642854610480989 0 -0.31519365684789402 -0.22814670847905641 0 -0.29979224147323202 -0.22642854610480989 0 -0.30508767911287837 -0.21571967473133319 0 -0.31519365684789402 -0.22814670847905641 0 -0.29979224147323202 -0.22642854610480989 0 -0.2958573268640291 -0.21639350123342621 0 -0.30508767911287837 -0.21571967473133319 0 -0.30291655559428737 -0.23943596251536489 0 -0.29979224147323202 -0.22642854610480989 0 -0.29321187228724338 -0.23575230425717361 0 -0.29979224147323202 -0.22642854610480989 0 -0.28648635813305973 -0.22312312541250581 0 -0.29321187228724338 -0.23575230425717361 0 -0.29979224147323202 -0.22642854610480989 0 -0.28648635813305973 -0.22312312541250581 0 -0.2958573268640291 -0.21639350123342621 0 -0.28648635813305973 -0.22312312541250581 0 -0.29321187228724338 -0.23575230425717361 0 -0.28103395339116072 -0.23652866974448319 0 -0.29321187228724338 -0.23575230425717361 0 -0.29304378587810098 -0.24519285983212741 0 -0.28103395339116072 -0.23652866974448319 0 -0.30291655559428737 -0.23943596251536489 0 -0.29321187228724338 -0.23575230425717361 0 -0.29304378587810098 -0.24519285983212741 0 -0.28518716776289688 -0.25145844467286299 0 -0.29304378587810098 -0.24519285983212741 0 -0.28103395339116072 -0.23652866974448319 0 -0.27362796391945138 -0.24879504023949131 0 -0.28103395339116072 -0.23652866974448319 0 -0.25883125425809528 -0.24231024443891411 0 -0.28518716776289688 -0.25145844467286299 0 -0.27362796391945138 -0.24879504023949131 0 -0.28103395339116072 -0.23652866974448319 0 -0.2493694927029185 -0.23411674201777771 0 -0.24501988422530691 -0.2470038165003057 0 -0.25883125425809528 -0.24231024443891411 0 -0.2493694927029185 -0.23411674201777771 0 -0.25883125425809528 -0.24231024443891411 0 -0.257880534614293 -0.22473887084828351 0 -0.25883125425809528 -0.24231024443891411 0 -0.257880534614293 -0.22473887084828351 0 -0.27338948844648853 -0.2230487022096794 0 -0.24362466521327009 -0.22164896784257609 0 -0.2493694927029185 -0.23411674201777771 0 -0.257880534614293 -0.22473887084828351 0 -0.25883125425809528 -0.24231024443891411 0 -0.27338948844648853 -0.2230487022096794 0 -0.28103395339116072 -0.23652866974448319 0 -0.25883125425809528 -0.24231024443891411 0 -0.27338948844648853 -0.2230487022096794 0 -0.257880534614293 -0.22473887084828351 0 -0.27338948844648853 -0.2230487022096794 0 -0.2746774702521011 -0.2088709721787948 0 -0.28648635813305973 -0.22312312541250581 0 -0.28103395339116072 -0.23652866974448319 0 -0.27338948844648853 -0.2230487022096794 0 -0.257880534614293 -0.22473887084828351 0 -0.2746774702521011 -0.2088709721787948 0 -0.28648635813305973 -0.22312312541250581 0 -0.27338948844648853 -0.2230487022096794 0 -0.2746774702521011 -0.2088709721787948 0 -0.24362466521327009 -0.22164896784257609 0 -0.257880534614293 -0.22473887084828351 0 -0.2530345308819047 -0.2050552961622388 0 -0.257880534614293 -0.22473887084828351 0 -0.2746774702521011 -0.2088709721787948 0 -0.2530345308819047 -0.2050552961622388 0 -0.2530345308819047 -0.2050552961622388 0 -0.27338700268340638 -0.19341712140274239 0 -0.26256450155143118 -0.18039674431745761 0 -0.2530345308819047 -0.2050552961622388 0 -0.26256450155143118 -0.18039674431745761 0 -0.24226769848796639 -0.1859276248743105 0 -0.2530345308819047 -0.2050552961622388 0 -0.26256450155143118 -0.18039674431745761 0 -0.2746774702521011 -0.2088709721787948 0 -0.27338700268340638 -0.19341712140274239 0 -0.29147440588990919 -0.19300307350930609 0 -0.2746774702521011 -0.2088709721787948 0 -0.2530345308819047 -0.2050552961622388 0 -0.27338700268340638 -0.19341712140274239 0 -0.29147440588990919 -0.19300307350930609 0 -0.28956689947314168 -0.20922216764449761 0 -0.29933893622660929 -0.20472016588845521 0 -0.2746774702521011 -0.2088709721787948 0 -0.29147440588990919 -0.19300307350930609 0 -0.27338700268340638 -0.19341712140274239 0 -0.29147440588990919 -0.19300307350930609 0 -0.27890775966268178 -0.1785883143527825 0 -0.2746774702521011 -0.2088709721787948 0 -0.29147440588990919 -0.19300307350930609 0 -0.28956689947314168 -0.20922216764449761 0 -0.28648635813305973 -0.22312312541250581 0 -0.2746774702521011 -0.2088709721787948 0 -0.28956689947314168 -0.20922216764449761 0 -0.28648635813305973 -0.22312312541250581 0 -0.2958573268640291 -0.21639350123342621 0 -0.28956689947314168 -0.20922216764449761 0 -0.2958573268640291 -0.21639350123342621 0 -0.28956689947314168 -0.20922216764449761 0 -0.29933893622660929 -0.20472016588845521 0 -0.30508767911287837 -0.21571967473133319 0 -0.31173249918780688 -0.20264094165943711 0 -0.31519365684789402 -0.22814670847905641 0 -0.2958573268640291 -0.21639350123342621 0 -0.29933893622660929 -0.20472016588845521 0 -0.30508767911287837 -0.21571967473133319 0 -0.29933893622660929 -0.20472016588845521 0 -0.30508767911287837 -0.21571967473133319 0 -0.31173249918780688 -0.20264094165943711 0 -0.31173249918780688 -0.20264094165943711 0 -0.30270429570801088 -0.1943748389742542 0 -0.30827134152771818 -0.17713517483981819 0 -0.29147440588990919 -0.19300307350930609 0 -0.30270429570801088 -0.1943748389742542 0 -0.30827134152771818 -0.17713517483981819 0 -0.31173249918780688 -0.20264094165943711 0 -0.30827134152771818 -0.17713517483981819 0 -0.29933893622660929 -0.20472016588845521 0 -0.31173249918780688 -0.20264094165943711 0 -0.30270429570801088 -0.1943748389742542 0 -0.29147440588990919 -0.19300307350930609 0 -0.29933893622660929 -0.20472016588845521 0 -0.30270429570801088 -0.1943748389742542 0 -0.29147440588990919 -0.19300307350930609 0 -0.30827134152771818 -0.17713517483981819 0 -0.29448789143593912 -0.17322581266432219 0 -0.29147440588990919 -0.19300307350930609 0 -0.30827134152771818 -0.17713517483981819 0 -0.30827134152771818 -0.17713517483981819 0 -0.30650137059848082 -0.1640920054057082 0 -0.31445228326054142 -0.1595575062830622 0 -0.30827134152771818 -0.17713517483981819 0 -0.30650137059848082 -0.1640920054057082 0 -0.30650137059848082 -0.1640920054057082 0 -0.30532083341547162 -0.15435947977559231 0 -0.31445228326054142 -0.1595575062830622 0 -0.30650137059848082 -0.1640920054057082 0 -0.29571930449124229 -0.16007586815112279 0 -0.30532083341547162 -0.15435947977559231 0 -0.30650137059848082 -0.1640920054057082 0 -0.29571930449124229 -0.16007586815112279 0 -0.29448789143593912 -0.17322581266432219 0 -0.30827134152771818 -0.17713517483981819 0 -0.30650137059848082 -0.1640920054057082 0 -0.29448789143593912 -0.17322581266432219 0 -0.29571930449124229 -0.16007586815112279 0 -0.28584254956732458 -0.1659036854320243 0 -0.29448789143593912 -0.17322581266432219 0 -0.29571930449124229 -0.16007586815112279 0 -0.28584254956732458 -0.1659036854320243 0 -0.28695880474096658 -0.15452986005270339 0 -0.28584254956732458 -0.1659036854320243 0 -0.27209447222095767 -0.1557381924726764 0 -0.28695880474096658 -0.15452986005270339 0 -0.29147440588990919 -0.19300307350930609 0 -0.29448789143593912 -0.17322581266432219 0 -0.27890775966268178 -0.1785883143527825 0 -0.28584254956732458 -0.1659036854320243 0 -0.29448789143593912 -0.17322581266432219 0 -0.27890775966268178 -0.1785883143527825 0 -0.27338700268340638 -0.19341712140274239 0 -0.27890775966268178 -0.1785883143527825 0 -0.26256450155143118 -0.18039674431745761 0 -0.24648081103591499 -0.17392347890994209 0 -0.24226769848796639 -0.1859276248743105 0 -0.26256450155143118 -0.18039674431745761 0 -0.24648081103591499 -0.17392347890994209 0 -0.24876130621980161 -0.157963746704779 0 -0.26256450155143118 -0.18039674431745761 0 -0.24876130621980161 -0.157963746704779 0 -0.26256450155143118 -0.18039674431745761 0 -0.27209447222095767 -0.1557381924726764 0 -0.27890775966268178 -0.1785883143527825 0 -0.26256450155143118 -0.18039674431745761 0 -0.27209447222095767 -0.1557381924726764 0 -0.28584254956732458 -0.1659036854320243 0 -0.27890775966268178 -0.1785883143527825 0 -0.27209447222095767 -0.1557381924726764 0 -0.26256450155143118 -0.18039674431745761 0 -0.27209447222095767 -0.1557381924726764 0 -0.27209447222095767 -0.1557381924726764 0 -0.28162444289048372 -0.1310796406278949 0 -0.28617865015002703 -0.14472789066139979 0 -0.27209447222095767 -0.1557381924726764 0 -0.2651928745551424 -0.14452169366633669 0 -0.28162444289048372 -0.1310796406278949 0 -0.27209447222095767 -0.1557381924726764 0 -0.28162444289048372 -0.1310796406278949 0 -0.24876130621980161 -0.157963746704779 0 -0.2651928745551424 -0.14452169366633669 0 -0.24876130621980161 -0.157963746704779 0 -0.2651928745551424 -0.14452169366633669 0 -0.25026186283696461 -0.14235720573963881 0 -0.24876130621980161 -0.157963746704779 0 -0.27209447222095767 -0.1557381924726764 0 -0.2651928745551424 -0.14452169366633669 0 -0.2651928745551424 -0.14452169366633669 0 -0.25026186283696461 -0.14235720573963881 0 -0.26218403780585953 -0.12807797417963801 0 -0.2470327450431076 -0.1306924886745969 0 -0.24811226901631339 -0.119687531806331 0 -0.26218403780585953 -0.12807797417963801 0 -0.2470327450431076 -0.1306924886745969 0 -0.25026186283696461 -0.14235720573963881 0 -0.26218403780585953 -0.12807797417963801 0 -0.2651928745551424 -0.14452169366633669 0 -0.28162444289048372 -0.1310796406278949 0 -0.27427643973227828 -0.11646892779542101 0 -0.26218403780585953 -0.12807797417963801 0 -0.28162444289048372 -0.1310796406278949 0 -0.2651928745551424 -0.14452169366633669 0 -0.26218403780585953 -0.12807797417963801 0 -0.28162444289048372 -0.1310796406278949 0 -0.29508574295850032 -0.1200674532463958 0 -0.28162444289048372 -0.1310796406278949 0 -0.29508574295850032 -0.1200674532463958 0 -0.28162444289048372 -0.1310796406278949 0 -0.29501115370845582 -0.1339473945773379 0 -0.28162444289048372 -0.1310796406278949 0 -0.29501115370845582 -0.1339473945773379 0 -0.28617865015002703 -0.14472789066139979 0 -0.27209447222095767 -0.1557381924726764 0 -0.28617865015002703 -0.14472789066139979 0 -0.28695880474096658 -0.15452986005270339 0 -0.28617865015002703 -0.14472789066139979 0 -0.28695880474096658 -0.15452986005270339 0 -0.29520437718927128 -0.1483443655763865 0 -0.29571930449124229 -0.16007586815112279 0 -0.28695880474096658 -0.15452986005270339 0 -0.29520437718927128 -0.1483443655763865 0 -0.29501115370845582 -0.1339473945773379 0 -0.28617865015002703 -0.14472789066139979 0 -0.29520437718927128 -0.1483443655763865 0 -0.29501115370845582 -0.1339473945773379 0 -0.29520437718927128 -0.1483443655763865 0 -0.30505934554050568 -0.14458559242359639 0 -0.29520437718927128 -0.1483443655763865 0 -0.30532083341547162 -0.15435947977559231 0 -0.30505934554050568 -0.14458559242359639 0 -0.29571930449124229 -0.16007586815112279 0 -0.29520437718927128 -0.1483443655763865 0 -0.30532083341547162 -0.15435947977559231 0 -0.30532083341547162 -0.15435947977559231 0 -0.30505934554050568 -0.14458559242359639 0 -0.31421801562324109 -0.1494878874165694 0 -0.30532083341547162 -0.15435947977559231 0 -0.31421801562324109 -0.1494878874165694 0 -0.31445228326054142 -0.1595575062830622 0 -0.30505934554050568 -0.14458559242359639 0 -0.31613738317788559 -0.13917314125009461 0 -0.31421801562324109 -0.1494878874165694 0 -0.30505934554050568 -0.14458559242359639 0 -0.30779907445719179 -0.13505986472908099 0 -0.31613738317788559 -0.13917314125009461 0 -0.30779907445719179 -0.13505986472908099 0 -0.30252173833898133 -0.12816764028315061 0 -0.31455481087970177 -0.12756096835710801 0 -0.3073366122570147 -0.12130927669385359 0 -0.30252173833898133 -0.12816764028315061 0 -0.31455481087970177 -0.12756096835710801 0 -0.29508574295850032 -0.1200674532463958 0 -0.29501115370845582 -0.1339473945773379 0 -0.30252173833898133 -0.12816764028315061 0 -0.29501115370845582 -0.1339473945773379 0 -0.30779907445719179 -0.13505986472908099 0 -0.30252173833898133 -0.12816764028315061 0 -0.29501115370845582 -0.1339473945773379 0 -0.30505934554050568 -0.14458559242359639 0 -0.30779907445719179 -0.13505986472908099 0 -0.3267897132284901 -0.14013498432568439 0 -0.32431655812541849 -0.13224674277154749 0 -0.31613738317788559 -0.13917314125009461 0 -0.32431655812541849 -0.13224674277154749 0 -0.32393680484808818 -0.1259651936514837 0 -0.33535134043396148 -0.13275262415068309 0 -0.32431655812541849 -0.13224674277154749 0 -0.32393680484808818 -0.1259651936514837 0 -0.31455481087970177 -0.12756096835710801 0 -0.32431655812541849 -0.13224674277154749 0 -0.31455481087970177 -0.12756096835710801 0 -0.31613738317788559 -0.13917314125009461 0 -0.30779907445719179 -0.13505986472908099 0 -0.31455481087970177 -0.12756096835710801 0 -0.31613738317788559 -0.13917314125009461 0 -0.31613738317788559 -0.13917314125009461 0 -0.31421801562324109 -0.1494878874165694 0 -0.32056613902975739 -0.14495954593753679 0 -0.31421801562324109 -0.1494878874165694 0 -0.3251194440894129 -0.15104217075779869 0 -0.32056613902975739 -0.14495954593753679 0 -0.31421801562324109 -0.1494878874165694 0 -0.3251194440894129 -0.15104217075779869 0 -0.31445228326054142 -0.1595575062830622 0 -0.3267897132284901 -0.14013498432568439 0 -0.31613738317788559 -0.13917314125009461 0 -0.32056613902975739 -0.14495954593753679 0 -0.3267897132284901 -0.14013498432568439 0 -0.3251194440894129 -0.15104217075779869 0 -0.32056613902975739 -0.14495954593753679 0 -0.3267897132284901 -0.14013498432568439 0 -0.3251194440894129 -0.15104217075779869 0 -0.33415470972184741 -0.14499510742091479 0 -0.3251194440894129 -0.15104217075779869 0 -0.33415470972184741 -0.14499510742091479 0 -0.33654475836263881 -0.15276448278531701 0 -0.3251194440894129 -0.15104217075779869 0 -0.33654475836263881 -0.15276448278531701 0 -0.33046733682649942 -0.15862804010318929 0 -0.33654475836263881 -0.15276448278531701 0 -0.34630492069128521 -0.14720337162492639 0 -0.34474479265010799 -0.1594577564011824 0 -0.33415470972184741 -0.14499510742091479 0 -0.33654475836263881 -0.15276448278531701 0 -0.34630492069128521 -0.14720337162492639 0 -0.33415470972184741 -0.14499510742091479 0 -0.33535134043396148 -0.13275262415068309 0 -0.34630492069128521 -0.14720337162492639 0 -0.3259849524932365 -0.1180184893402049 0 -0.33535134043396148 -0.13275262415068309 0 -0.35262752803816039 -0.1267716565727782 0 -0.3267897132284901 -0.14013498432568439 0 -0.33415470972184741 -0.14499510742091479 0 -0.33535134043396148 -0.13275262415068309 0 -0.3267897132284901 -0.14013498432568439 0 -0.32431655812541849 -0.13224674277154749 0 -0.33535134043396148 -0.13275262415068309 0 -0.3259849524932365 -0.1180184893402049 0 -0.32393680484808818 -0.1259651936514837 0 -0.33535134043396148 -0.13275262415068309 0 -0.33535134043396148 -0.13275262415068309 0 -0.35262752803816039 -0.1267716565727782 0 -0.34630492069128521 -0.14720337162492639 0 -0.35262752803816039 -0.1267716565727782 0 -0.36097563507944541 -0.1456823720086661 0 -0.34630492069128521 -0.14720337162492639 0 -0.35262752803816039 -0.1267716565727782 0 -0.36097563507944541 -0.1456823720086661 0 -0.37927010358308422 -0.13552482380535141 0 -0.35262752803816039 -0.1267716565727782 0 -0.37927010358308422 -0.13552482380535141 0 -0.36097563507944541 -0.1456823720086661 0 -0.35500409746344153 -0.15941686918999959 0 -0.37073442924758893 -0.15707801379747299 0 -0.36097563507944541 -0.1456823720086661 0 -0.37073442924758893 -0.15707801379747299 0 -0.37927010358308422 -0.13552482380535141 0 -0.36097563507944541 -0.1456823720086661 0 -0.34630492069128521 -0.14720337162492639 0 -0.35500409746344153 -0.15941686918999959 0 -0.34630492069128521 -0.14720337162492639 0 -0.34474479265010799 -0.1594577564011824 0 -0.35500409746344153 -0.15941686918999959 0 -0.34474479265010799 -0.1594577564011824 0 -0.34579073846766961 -0.1671573268796559 0 -0.35500409746344153 -0.15941686918999959 0 -0.34579073846766961 -0.1671573268796559 0 -0.35320589097776139 -0.1694324232755732 0 -0.35500409746344153 -0.15941686918999959 0 -0.34579073846766961 -0.1671573268796559 0 -0.35320589097776139 -0.1694324232755732 0 -0.34272188563389161 -0.1778560239196384 0 -0.35320589097776139 -0.1694324232755732 0 -0.35500409746344153 -0.15941686918999959 0 -0.36250584633362221 -0.16615699988313559 0 -0.35500409746344153 -0.15941686918999959 0 -0.36250584633362221 -0.16615699988313559 0 -0.37073442924758893 -0.15707801379747299 0 -0.35320589097776139 -0.1694324232755732 0 -0.36250584633362221 -0.16615699988313559 0 -0.36311660212711261 -0.17404727983561441 0 -0.36250584633362221 -0.16615699988313559 0 -0.37210213588576951 -0.16962847591326699 0 -0.36311660212711261 -0.17404727983561441 0 -0.36250584633362221 -0.16615699988313559 0 -0.37210213588576951 -0.16962847591326699 0 -0.37073442924758893 -0.15707801379747299 0 -0.37210213588576951 -0.16962847591326699 0 -0.3706301096441954 -0.18098887853075199 0 -0.36311660212711261 -0.17404727983561441 0 -0.3706301096441954 -0.18098887853075199 0 -0.36311660212711261 -0.17404727983561441 0 -0.35713902779421419 -0.18402962157534419 0 -0.3706301096441954 -0.18098887853075199 0 -0.35713902779421419 -0.18402962157534419 0 -0.37012204696998618 -0.1941353794421154 0 -0.35320589097776139 -0.1694324232755732 0 -0.36311660212711261 -0.17404727983561441 0 -0.35713902779421419 -0.18402962157534419 0 -0.35320589097776139 -0.1694324232755732 0 -0.35713902779421419 -0.18402962157534419 0 -0.34272188563389161 -0.1778560239196384 0 -0.35713902779421419 -0.18402962157534419 0 -0.34272188563389161 -0.1778560239196384 0 -0.34363375775640997 -0.1921864766865381 0 -0.34272188563389161 -0.1778560239196384 0 -0.33201344192575211 -0.19029621444647329 0 -0.34363375775640997 -0.1921864766865381 0 -0.3319775963927003 -0.1784897027383282 0 -0.32222732257233988 -0.17945435565556531 0 -0.33201344192575211 -0.19029621444647329 0 -0.3319775963927003 -0.1784897027383282 0 -0.34272188563389161 -0.1778560239196384 0 -0.33201344192575211 -0.19029621444647329 0 -0.32876654469789379 -0.1728048025863968 0 -0.3319775963927003 -0.1784897027383282 0 -0.33441496918287877 -0.17223259918940881 0 -0.3319775963927003 -0.1784897027383282 0 -0.33441496918287877 -0.17223259918940881 0 -0.34272188563389161 -0.1778560239196384 0 -0.33441496918287877 -0.17223259918940881 0 -0.34272188563389161 -0.1778560239196384 0 -0.33928841208750271 -0.16741325914593799 0 -0.34474479265010799 -0.1594577564011824 0 -0.34579073846766961 -0.1671573268796559 0 -0.33928841208750271 -0.16741325914593799 0 -0.34579073846766961 -0.1671573268796559 0 -0.34272188563389161 -0.1778560239196384 0 -0.33928841208750271 -0.16741325914593799 0 -0.33654475836263881 -0.15276448278531701 0 -0.34474479265010799 -0.1594577564011824 0 -0.33597921328187019 -0.16062955193792461 0 -0.34474479265010799 -0.1594577564011824 0 -0.33928841208750271 -0.16741325914593799 0 -0.33597921328187019 -0.16062955193792461 0 -0.33597921328187019 -0.16062955193792461 0 -0.33046733682649942 -0.15862804010318929 0 -0.33051823784820211 -0.16659287763771641 0 -0.33654475836263881 -0.15276448278531701 0 -0.33597921328187019 -0.16062955193792461 0 -0.33046733682649942 -0.15862804010318929 0 -0.33046733682649942 -0.15862804010318929 0 -0.33051823784820211 -0.16659287763771641 0 -0.32417503055037272 -0.1621111173971895 0 -0.33928841208750271 -0.16741325914593799 0 -0.33597921328187019 -0.16062955193792461 0 -0.33051823784820211 -0.16659287763771641 0 -0.33441496918287877 -0.17223259918940881 0 -0.33928841208750271 -0.16741325914593799 0 -0.33051823784820211 -0.16659287763771641 0 -0.32876654469789379 -0.1728048025863968 0 -0.33441496918287877 -0.17223259918940881 0 -0.33051823784820211 -0.16659287763771641 0 -0.32876654469789379 -0.1728048025863968 0 -0.33051823784820211 -0.16659287763771641 0 -0.32580877360760208 -0.16885841350173281 0 -0.30827134152771818 -0.17713517483981819 0 -0.32417503055037272 -0.1621111173971895 0 -0.32876654469789379 -0.1728048025863968 0 -0.32580877360760208 -0.16885841350173281 0 -0.32335048377147918 -0.17167898452923189 0 -0.30827134152771818 -0.17713517483981819 0 -0.32417503055037272 -0.1621111173971895 0 -0.31445228326054142 -0.1595575062830622 0 -0.32580877360760208 -0.16885841350173281 0 -0.32335048377147918 -0.17167898452923189 0 -0.32417503055037272 -0.1621111173971895 0 -0.30827134152771818 -0.17713517483981819 0 -0.32335048377147918 -0.17167898452923189 0 -0.32417503055037272 -0.1621111173971895 0 -0.33051823784820211 -0.16659287763771641 0 -0.32580877360760208 -0.16885841350173281 0 -0.32417503055037272 -0.1621111173971895 0 -0.3251194440894129 -0.15104217075779869 0 -0.33046733682649942 -0.15862804010318929 0 -0.32417503055037272 -0.1621111173971895 0 -0.3251194440894129 -0.15104217075779869 0 -0.32417503055037272 -0.1621111173971895 0 -0.31445228326054142 -0.1595575062830622 0 -0.31173249918780688 -0.20264094165943711 0 -0.30827134152771818 -0.17713517483981819 0 -0.32222732257233988 -0.17945435565556531 0 -0.30827134152771818 -0.17713517483981819 0 -0.32335048377147918 -0.17167898452923189 0 -0.32222732257233988 -0.17945435565556531 0 -0.32876654469789379 -0.1728048025863968 0 -0.3319775963927003 -0.1784897027383282 0 -0.32222732257233988 -0.17945435565556531 0 -0.32876654469789379 -0.1728048025863968 0 -0.32335048377147918 -0.17167898452923189 0 -0.32222732257233988 -0.17945435565556531 0 -0.32335048377147918 -0.17167898452923189 0 -0.32222732257233988 -0.17945435565556531 0 -0.33826733751974469 -0.2069102368039954 0 -0.35421010600402142 -0.21918266668943531 0 -0.32218991618550069 -0.22944092440498159 0 -0.32222732257233988 -0.17945435565556531 0 -0.3222086193789202 -0.20444764003027349 0 -0.33201344192575211 -0.19029621444647329 0 -0.31173249918780688 -0.20264094165943711 0 -0.32222732257233988 -0.17945435565556531 0 -0.31871048971011712 -0.2038005320673108 0 -0.32222732257233988 -0.17945435565556531 0 -0.3222086193789202 -0.20444764003027349 0 -0.32222732257233988 -0.17945435565556531 0 -0.3222086193789202 -0.20444764003027349 0 -0.31871048971011712 -0.2038005320673108 0 -0.32222732257233988 -0.17945435565556531 0 -0.31871048971011712 -0.2038005320673108 0 -0.31173249918780688 -0.20264094165943711 0 -0.31519365684789402 -0.22814670847905641 0 -0.31871048971011712 -0.2038005320673108 0 -0.31519365684789402 -0.22814670847905641 0 -0.3222086193789202 -0.20444764003027349 0 -0.32218991618550069 -0.22944092440498159 0 -0.3222086193789202 -0.20444764003027349 0 -0.33826733751974469 -0.2069102368039954 0 -0.32218991618550069 -0.22944092440498159 0 -0.31173249918780688 -0.20264094165943711 0 -0.31871048971011712 -0.2038005320673108 0 -0.31519365684789402 -0.22814670847905641 0 -0.3222086193789202 -0.20444764003027349 0 -0.31871048971011712 -0.2038005320673108 0 -0.31519365684789402 -0.22814670847905641 0 -0.3222086193789202 -0.20444764003027349 0 -0.33826733751974469 -0.2069102368039954 0 -0.33201344192575211 -0.19029621444647329 0 -0.33826733751974469 -0.2069102368039954 0 -0.33201344192575211 -0.19029621444647329 0 -0.34363375775640997 -0.1921864766865381 0 -0.35713902779421419 -0.18402962157534419 0 -0.34363375775640997 -0.1921864766865381 0 -0.35288012664418211 -0.1997980010338537 0 -0.33826733751974469 -0.2069102368039954 0 -0.34363375775640997 -0.1921864766865381 0 -0.35288012664418211 -0.1997980010338537 0 -0.35713902779421419 -0.18402962157534419 0 -0.35288012664418211 -0.1997980010338537 0 -0.37012204696998618 -0.1941353794421154 0 -0.3706301096441954 -0.18098887853075199 0 -0.37012204696998618 -0.1941353794421154 0 -0.37969592877129749 -0.1883392777658591 0 -0.37012204696998618 -0.1941353794421154 0 -0.369269203919948 -0.21721507174144891 0 -0.35421010600402142 -0.21918266668943531 0 -0.37012204696998618 -0.1941353794421154 0 -0.35421010600402142 -0.21918266668943531 0 -0.37012204696998618 -0.1941353794421154 0 -0.369269203919948 -0.21721507174144891 0 -0.37920300044583022 -0.21122282749108351 0 -0.35288012664418211 -0.1997980010338537 0 -0.37012204696998618 -0.1941353794421154 0 -0.35421010600402142 -0.21918266668943531 0 -0.33826733751974469 -0.2069102368039954 0 -0.35288012664418211 -0.1997980010338537 0 -0.35421010600402142 -0.21918266668943531 0 -0.35421010600402142 -0.21918266668943531 0 -0.33829816503805671 -0.24422995393675501 0 -0.369269203919948 -0.21721507174144891 0 -0.35421010600402142 -0.21918266668943531 0 -0.36765677342249647 -0.23026878816453311 0 -0.35421010600402142 -0.21918266668943531 0 -0.36765677342249647 -0.23026878816453311 0 -0.35762634056731191 -0.23985429073558179 0 -0.36765677342249647 -0.23026878816453311 0 -0.37777230567208109 -0.23588663511621119 0 -0.37830349459588442 -0.2238496886657437 0 -0.369269203919948 -0.21721507174144891 0 -0.36765677342249647 -0.23026878816453311 0 -0.37830349459588442 -0.2238496886657437 0 -0.37367033827505741 -0.25148678553651221 0 -0.36944170017256589 -0.24193750494962871 0 -0.3627033311314895 -0.24973241025013371 0 -0.37367033827505741 -0.25148678553651221 0 -0.36944170017256589 -0.24193750494962871 0 -0.37722111196695968 -0.2443961198948002 0 -0.36765677342249647 -0.23026878816453311 0 -0.36944170017256589 -0.24193750494962871 0 -0.37777230567208109 -0.23588663511621119 0 -0.36944170017256589 -0.24193750494962871 0 -0.37777230567208109 -0.23588663511621119 0 -0.37722111196695968 -0.2443961198948002 0 -0.36765677342249647 -0.23026878816453311 0 -0.36944170017256589 -0.24193750494962871 0 -0.35762634056731191 -0.23985429073558179 0 -0.36944170017256589 -0.24193750494962871 0 -0.3627033311314895 -0.24973241025013371 0 -0.35762634056731191 -0.23985429073558179 0 -0.35038968845556839 -0.2503545795214504 0 -0.3627033311314895 -0.24973241025013371 0 -0.35762634056731191 -0.23985429073558179 0 -0.35038968845556839 -0.2503545795214504 0 -0.35762634056731191 -0.23985429073558179 0 -0.33829816503805671 -0.24422995393675501 0 -0.35421010600402142 -0.21918266668943531 0 -0.35762634056731191 -0.23985429073558179 0 -0.33829816503805671 -0.24422995393675501 0 -0.35421010600402142 -0.21918266668943531 0 -0.33829816503805671 -0.24422995393675501 0 -0.32218991618550069 -0.22944092440498159 0 -0.3222086193789202 -0.20444764003027349 0 -0.32218991618550069 -0.22944092440498159 0 -0.31519365684789402 -0.22814670847905641 0 -0.31519365684789402 -0.22814670847905641 0 -0.31258572357348707 -0.24620079465722061 0 -0.31867308332327832 -0.25378710081672701 0 -0.32218991618550069 -0.22944092440498159 0 -0.31519365684789402 -0.22814670847905641 0 -0.32217121299208129 -0.25443420877968947 0 -0.32218991618550069 -0.22944092440498159 0 -0.32217121299208129 -0.25443420877968947 0 -0.33829816503805671 -0.24422995393675501 0 -0.32218991618550069 -0.22944092440498159 0 -0.32217121299208129 -0.25443420877968947 0 -0.31867308332327832 -0.25378710081672701 0 -0.32218991618550069 -0.22944092440498159 0 -0.31867308332327832 -0.25378710081672701 0 -0.31519365684789402 -0.22814670847905641 0 -0.31867308332327832 -0.25378710081672701 0 -0.31519365684789402 -0.22814670847905641 0 -0.31258572357348707 -0.24620079465722061 0 -0.4354576440753809 -0.2535912274846438 0 -0.43065227319688371 -0.23517700916423959 0 -0.40992198791325701 -0.24947417548071479 0 -0.4354576440753809 -0.2535912274846438 0 -0.43065227319688371 -0.23517700916423959 0 -0.4354576440753809 -0.2535912274846438 0 -0.43065227319688371 -0.23517700916423959 0 -0.44283674427152059 -0.24637665446568971 0 -0.43065227319688371 -0.23517700916423959 0 -0.44283674427152059 -0.24637665446568971 0 -0.43065227319688371 -0.23517700916423959 0 -0.41366682505502211 -0.21956443203144549 0 -0.43065227319688371 -0.23517700916423959 0 -0.42484822064538402 -0.2129358349596478 0 -0.44128735527056762 -0.2205237808653629 0 -0.43065227319688371 -0.23517700916423959 0 -0.41366682505502211 -0.21956443203144549 0 -0.42484822064538402 -0.2129358349596478 0 -0.43065227319688371 -0.23517700916423959 0 -0.42484822064538402 -0.2129358349596478 0 -0.43065227319688371 -0.23517700916423959 0 -0.41366682505502211 -0.21956443203144549 0 -0.40551460423239721 -0.2332549134046106 0 -0.43065227319688371 -0.23517700916423959 0 -0.40992198791325701 -0.24947417548071479 0 -0.40551460423239721 -0.2332549134046106 0 -0.39559587231203169 -0.25892549115302049 0 -0.40992198791325701 -0.24947417548071479 0 -0.38944469955622107 -0.24133701782607611 0 -0.40992198791325701 -0.24947417548071479 0 -0.38944469955622107 -0.24133701782607611 0 -0.40551460423239721 -0.2332549134046106 0 -0.38944469955622107 -0.24133701782607611 0 -0.37777230567208109 -0.23588663511621119 0 -0.39012377832220718 -0.22813189604397241 0 -0.38944469955622107 -0.24133701782607611 0 -0.37777230567208109 -0.23588663511621119 0 -0.37722111196695968 -0.2443961198948002 0 -0.38089513924397672 -0.25142371241438871 0 -0.38944469955622107 -0.24133701782607611 0 -0.37722111196695968 -0.2443961198948002 0 -0.38089513924397672 -0.25142371241438871 0 -0.37367033827505741 -0.25148678553651221 0 -0.37722111196695968 -0.2443961198948002 0 -0.37777230567208109 -0.23588663511621119 0 -0.37830349459588442 -0.2238496886657437 0 -0.39012377832220718 -0.22813189604397241 0 -0.37830349459588442 -0.2238496886657437 0 -0.39012377832220718 -0.22813189604397241 0 -0.38857950377209649 -0.2175567566073634 0 -0.39012377832220718 -0.22813189604397241 0 -0.39858586858340089 -0.2206275159373651 0 -0.38857950377209649 -0.2175567566073634 0 -0.38944469955622107 -0.24133701782607611 0 -0.39012377832220718 -0.22813189604397241 0 -0.40551460423239721 -0.2332549134046106 0 -0.39012377832220718 -0.22813189604397241 0 -0.40551460423239721 -0.2332549134046106 0 -0.39858586858340089 -0.2206275159373651 0 -0.41366682505502211 -0.21956443203144549 0 -0.40551460423239721 -0.2332549134046106 0 -0.39858586858340089 -0.2206275159373651 0 -0.41366682505502211 -0.21956443203144549 0 -0.39858586858340089 -0.2206275159373651 0 -0.39668137691315969 -0.20395185489865231 0 -0.41366682505502211 -0.21956443203144549 0 -0.39668137691315969 -0.20395185489865231 0 -0.39858586858340089 -0.2206275159373651 0 -0.39668137691315969 -0.20395185489865231 0 -0.38857950377209649 -0.2175567566073634 0 -0.39668137691315969 -0.20395185489865231 0 -0.37920300044583022 -0.21122282749108351 0 -0.38035899577479421 -0.2002395398150682 0 -0.39668137691315969 -0.20395185489865231 0 -0.38857950377209649 -0.2175567566073634 0 -0.37920300044583022 -0.21122282749108351 0 -0.37830349459588442 -0.2238496886657437 0 -0.38857950377209649 -0.2175567566073634 0 -0.37920300044583022 -0.21122282749108351 0 -0.369269203919948 -0.21721507174144891 0 -0.37830349459588442 -0.2238496886657437 0 -0.37920300044583022 -0.21122282749108351 0 -0.39668137691315969 -0.20395185489865231 0 -0.37969592877129749 -0.1883392777658591 0 -0.38035899577479421 -0.2002395398150682 0 -0.37012204696998618 -0.1941353794421154 0 -0.37920300044583022 -0.21122282749108351 0 -0.38035899577479421 -0.2002395398150682 0 -0.39668137691315969 -0.20395185489865231 0 -0.37969592877129749 -0.1883392777658591 0 -0.37012204696998618 -0.1941353794421154 0 -0.37969592877129749 -0.1883392777658591 0 -0.38035899577479421 -0.2002395398150682 0 -0.39668137691315969 -0.20395185489865231 0 -0.37969592877129749 -0.1883392777658591 0 -0.39729035128150569 -0.18021524567252681 0 -0.39668137691315969 -0.20395185489865231 0 -0.41904416809388562 -0.19069466075505559 0 -0.39729035128150569 -0.18021524567252681 0 -0.41366682505502211 -0.21956443203144549 0 -0.41904416809388562 -0.19069466075505559 0 -0.42484822064538402 -0.2129358349596478 0 -0.41366682505502211 -0.21956443203144549 0 -0.39668137691315969 -0.20395185489865231 0 -0.41904416809388562 -0.19069466075505559 0 -0.41904416809388562 -0.19069466075505559 0 -0.42484822064538402 -0.2129358349596478 0 -0.43722425877211579 -0.20772489615795051 0 -0.42484822064538402 -0.2129358349596478 0 -0.43722425877211579 -0.20772489615795051 0 -0.44128735527056762 -0.2205237808653629 0 -0.41904416809388562 -0.19069466075505559 0 -0.42484822064538402 -0.2129358349596478 0 -0.41904416809388562 -0.19069466075505559 0 -0.43722425877211579 -0.20772489615795051 0 -0.44291488982403537 -0.19466992889247231 0 -0.41904416809388562 -0.19069466075505559 0 -0.43557049587160351 -0.17690174080271179 0 -0.41324011554238721 -0.16845348655046349 0 -0.41904416809388562 -0.19069466075505559 0 -0.43557049587160351 -0.17690174080271179 0 -0.44291488982403537 -0.19466992889247231 0 -0.43557049587160351 -0.17690174080271179 0 -0.41324011554238721 -0.16845348655046349 0 -0.43255525467293171 -0.15303115827049779 0 -0.41324011554238721 -0.16845348655046349 0 -0.40743606299088869 -0.14621231234587151 0 -0.41904416809388562 -0.19069466075505559 0 -0.41324011554238721 -0.16845348655046349 0 -0.41904416809388562 -0.19069466075505559 0 -0.41324011554238721 -0.16845348655046349 0 -0.39729035128150569 -0.18021524567252681 0 -0.41324011554238721 -0.16845348655046349 0 -0.39729035128150569 -0.18021524567252681 0 -0.39553141596924679 -0.16753179649453331 0 -0.39729035128150569 -0.18021524567252681 0 -0.38351256492057412 -0.1759105208411984 0 -0.39553141596924679 -0.16753179649453331 0 -0.37969592877129749 -0.1883392777658591 0 -0.39729035128150569 -0.18021524567252681 0 -0.38351256492057412 -0.1759105208411984 0 -0.37210213588576951 -0.16962847591326699 0 -0.3706301096441954 -0.18098887853075199 0 -0.38351256492057412 -0.1759105208411984 0 -0.3706301096441954 -0.18098887853075199 0 -0.37969592877129749 -0.1883392777658591 0 -0.38351256492057412 -0.1759105208411984 0 -0.37210213588576951 -0.16962847591326699 0 -0.37073442924758893 -0.15707801379747299 0 -0.38365127480394018 -0.1622485834578804 0 -0.37073442924758893 -0.15707801379747299 0 -0.38365127480394018 -0.1622485834578804 0 -0.38540200599254998 -0.14959231019475161 0 -0.37210213588576951 -0.16962847591326699 0 -0.38351256492057412 -0.1759105208411984 0 -0.38365127480394018 -0.1622485834578804 0 -0.38351256492057412 -0.1759105208411984 0 -0.38365127480394018 -0.1622485834578804 0 -0.39553141596924679 -0.16753179649453331 0 -0.41324011554238721 -0.16845348655046349 0 -0.39553141596924679 -0.16753179649453331 0 -0.39671467512902941 -0.1541874311889628 0 -0.41324011554238721 -0.16845348655046349 0 -0.39671467512902941 -0.1541874311889628 0 -0.40743606299088869 -0.14621231234587151 0 -0.38365127480394018 -0.1622485834578804 0 -0.39553141596924679 -0.16753179649453331 0 -0.39671467512902941 -0.1541874311889628 0 -0.40591267912800788 -0.1442779910379246 0 -0.39671467512902941 -0.1541874311889628 0 -0.38540200599254998 -0.14959231019475161 0 -0.40591267912800788 -0.1442779910379246 0 -0.39671467512902941 -0.1541874311889628 0 -0.40743606299088869 -0.14621231234587151 0 -0.37073442924758893 -0.15707801379747299 0 -0.38540200599254998 -0.14959231019475161 0 -0.37927010358308422 -0.13552482380535141 0 -0.38365127480394018 -0.1622485834578804 0 -0.39671467512902941 -0.1541874311889628 0 -0.38540200599254998 -0.14959231019475161 0 -0.40591267912800788 -0.1442779910379246 0 -0.38540200599254998 -0.14959231019475161 0 -0.37927010358308422 -0.13552482380535141 0 -0.40591267912800788 -0.1442779910379246 0 -0.4070790598519205 -0.13322062877726051 0 -0.39336138785350022 -0.1239300606573904 0 -0.40591267912800788 -0.1442779910379246 0 -0.37927010358308422 -0.13552482380535141 0 -0.40591267912800788 -0.1442779910379246 0 -0.37927010358308422 -0.13552482380535141 0 -0.39336138785350022 -0.1239300606573904 0 -0.40659225839495061 -0.12503341476561039 0 -0.4070790598519205 -0.13322062877726051 0 -0.39336138785350022 -0.1239300606573904 0 -0.40659225839495061 -0.12503341476561039 0 -0.41378666654639429 -0.1287813227428925 0 -0.4070790598519205 -0.13322062877726051 0 -0.41378666654639429 -0.1287813227428925 0 -0.4228895494757865 -0.127083651520361 0 -0.41413533966571392 -0.1208735596075392 0 -0.41378666654639429 -0.1287813227428925 0 -0.41621451900159939 -0.13721452483397439 0 -0.4228895494757865 -0.127083651520361 0 -0.40591267912800788 -0.1442779910379246 0 -0.41621451900159939 -0.13721452483397439 0 -0.4070790598519205 -0.13322062877726051 0 -0.41378666654639429 -0.1287813227428925 0 -0.41621451900159939 -0.13721452483397439 0 -0.4070790598519205 -0.13322062877726051 0 -0.40591267912800788 -0.1442779910379246 0 -0.41621451900159939 -0.13721452483397439 0 -0.43255525467293171 -0.15303115827049779 0 -0.40591267912800788 -0.1442779910379246 0 -0.40743606299088869 -0.14621231234587151 0 -0.43255525467293171 -0.15303115827049779 0 -0.40591267912800788 -0.1442779910379246 0 -0.43255525467293171 -0.15303115827049779 0 -0.41324011554238721 -0.16845348655046349 0 -0.40743606299088869 -0.14621231234587151 0 -0.43255525467293171 -0.15303115827049779 0 -0.43255525467293171 -0.15303115827049779 0 -0.42742202388795042 -0.13835439982687009 0 -0.43802877240148391 -0.13608826468264709 0 -0.41621451900159939 -0.13721452483397439 0 -0.43255525467293171 -0.15303115827049779 0 -0.42742202388795042 -0.13835439982687009 0 -0.4228895494757865 -0.127083651520361 0 -0.43802877240148391 -0.13608826468264709 0 -0.43175102573556351 -0.11718198690372569 0 -0.41621451900159939 -0.13721452483397439 0 -0.4228895494757865 -0.127083651520361 0 -0.42742202388795042 -0.13835439982687009 0 -0.4228895494757865 -0.127083651520361 0 -0.42742202388795042 -0.13835439982687009 0 -0.43802877240148391 -0.13608826468264709 0 -0.45722404283075552 -0.1359708893289516 0 -0.44514924101922221 -0.1197689520096874 0 -0.43802877240148391 -0.13608826468264709 0 -0.45722404283075552 -0.1359708893289516 0 -0.44514924101922221 -0.1197689520096874 0 -0.43802877240148391 -0.13608826468264709 0 -0.44790190110145822 -0.14990658389164141 0 -0.45722404283075552 -0.1359708893289516 0 -0.43255525467293171 -0.15303115827049779 0 -0.43802877240148391 -0.13608826468264709 0 -0.44790190110145822 -0.14990658389164141 0 -0.44790190110145822 -0.14990658389164141 0 -0.46147647929376351 -0.15573454501152209 0 -0.45722404283075552 -0.1359708893289516 0 -0.46147647929376351 -0.15573454501152209 0 -0.45722404283075552 -0.1359708893289516 0 -0.47781511063775101 -0.14790157110281349 0 -0.45722404283075552 -0.1359708893289516 0 -0.47860553814596463 -0.13130080165850361 0 -0.47781511063775101 -0.14790157110281349 0 -0.47860553814596463 -0.13130080165850361 0 -0.48998725429775009 -0.1383969788750822 0 -0.47781511063775101 -0.14790157110281349 0 -0.45722404283075552 -0.1359708893289516 0 -0.47860553814596463 -0.13130080165850361 0 -0.47118906545210681 -0.113999075006833 0 -0.47860553814596463 -0.13130080165850361 0 -0.48998725429775009 -0.1383969788750822 0 -0.49630125116322038 -0.12730305272064721 0 -0.48998725429775009 -0.1383969788750822 0 -0.5 -0.12951398883250931 0 -0.49630125116322038 -0.12730305272064721 0 -0.48998725429775009 -0.1383969788750822 0 -0.47781511063775101 -0.14790157110281349 0 -0.5 -0.15912017506174159 0 -0.48998725429775009 -0.1383969788750822 0 -0.5 -0.12951398883250931 0 -0.5 -0.15912017506174159 0 -0.47781511063775101 -0.14790157110281349 0 -0.5 -0.15912017506174159 0 -0.474415201757241 -0.17752300942993501 0 -0.46147647929376351 -0.15573454501152209 0 -0.47781511063775101 -0.14790157110281349 0 -0.474415201757241 -0.17752300942993501 0 -0.5 -0.15912017506174159 0 -0.474415201757241 -0.17752300942993501 0 -0.5 -0.18872636129097381 0 -0.474415201757241 -0.17752300942993501 0 -0.45489263152696591 -0.18522223505702351 0 -0.46350958469247983 -0.19934442029878799 0 -0.474415201757241 -0.17752300942993501 0 -0.45489263152696591 -0.18522223505702351 0 -0.45022495630835668 -0.1687080621645885 0 -0.44790190110145822 -0.14990658389164141 0 -0.46147647929376351 -0.15573454501152209 0 -0.45022495630835668 -0.1687080621645885 0 -0.46147647929376351 -0.15573454501152209 0 -0.474415201757241 -0.17752300942993501 0 -0.45022495630835668 -0.1687080621645885 0 -0.43255525467293171 -0.15303115827049779 0 -0.44790190110145822 -0.14990658389164141 0 -0.45022495630835668 -0.1687080621645885 0 -0.43557049587160351 -0.17690174080271179 0 -0.43255525467293171 -0.15303115827049779 0 -0.45022495630835668 -0.1687080621645885 0 -0.43557049587160351 -0.17690174080271179 0 -0.45489263152696591 -0.18522223505702351 0 -0.45022495630835668 -0.1687080621645885 0 -0.43557049587160351 -0.17690174080271179 0 -0.45489263152696591 -0.18522223505702351 0 -0.44291488982403537 -0.19466992889247231 0 -0.44291488982403537 -0.19466992889247231 0 -0.44884227565260759 -0.20908871846682819 0 -0.46350958469247983 -0.19934442029878799 0 -0.43722425877211579 -0.20772489615795051 0 -0.44291488982403537 -0.19466992889247231 0 -0.44884227565260759 -0.20908871846682819 0 -0.44884227565260759 -0.20908871846682819 0 -0.45997806989113571 -0.21897280806399511 0 -0.44128735527056762 -0.2205237808653629 0 -0.43722425877211579 -0.20772489615795051 0 -0.44884227565260759 -0.20908871846682819 0 -0.44128735527056762 -0.2205237808653629 0 -0.44884227565260759 -0.20908871846682819 0 -0.46350958469247983 -0.19934442029878799 0 -0.45997806989113571 -0.21897280806399511 0 -0.46350958469247983 -0.19934442029878799 0 -0.4768039760445269 -0.21030077926403029 0 -0.45997806989113571 -0.21897280806399511 0 -0.45489263152696591 -0.18522223505702351 0 -0.44291488982403537 -0.19466992889247231 0 -0.46350958469247983 -0.19934442029878799 0 -0.46350958469247983 -0.19934442029878799 0 -0.48720760087862253 -0.19792777847507009 0 -0.4768039760445269 -0.21030077926403029 0 -0.474415201757241 -0.17752300942993501 0 -0.46350958469247983 -0.19934442029878799 0 -0.48720760087862253 -0.19792777847507009 0 -0.474415201757241 -0.17752300942993501 0 -0.48720760087862253 -0.19792777847507009 0 -0.48720760087862253 -0.19792777847507009 0 -0.5 -0.18872636129097381 0 -0.50000000000000222 -0.21833254752020609 0 -0.474415201757241 -0.17752300942993501 0 -0.48720760087862253 -0.19792777847507009 0 -0.5 -0.18872636129097381 0 -0.48720760087862253 -0.19792777847507009 0 -0.50000000000000222 -0.21833254752020609 0 -0.4768039760445269 -0.21030077926403029 0 -0.50000000000000222 -0.21833254752020609 0 -0.4768039760445269 -0.21030077926403029 0 -0.47931632768641619 -0.22590016120893991 0 -0.48720760087862253 -0.19792777847507009 0 -0.50000000000000222 -0.21833254752020609 0 -0.4768039760445269 -0.21030077926403029 0 -0.47931632768641619 -0.22590016120893991 0 -0.45997806989113571 -0.21897280806399511 0 -0.50000000000000222 -0.21833254752020609 0 -0.47931632768641619 -0.22590016120893991 0 -0.5 -0.24116489137494579 0 -0.47931632768641619 -0.22590016120893991 0 -0.5 -0.24116489137494579 0 -0.47757018411114027 -0.24248545189784851 0 -0.47848588135845921 -0.26052856598133872 0 -0.5 -0.24116489137494579 0 -0.47757018411114027 -0.24248545189784851 0 -0.47931632768641619 -0.22590016120893991 0 -0.47757018411114027 -0.24248545189784851 0 -0.46333961219553571 -0.23608956025683461 0 -0.47757018411114027 -0.24248545189784851 0 -0.46640273863866238 -0.24810959993952919 0 -0.46333961219553571 -0.23608956025683461 0 -0.46640273863866238 -0.24810959993952919 0 -0.45564625281125698 -0.24438452482863271 0 -0.46333961219553571 -0.23608956025683461 0 -0.45697176271692003 -0.25705989673299151 0 -0.46640273863866238 -0.24810959993952919 0 -0.45564625281125698 -0.24438452482863271 0 -0.45564625281125698 -0.24438452482863271 0 -0.46333961219553571 -0.23608956025683461 0 -0.44837404555701837 -0.23365243202046401 0 -0.47931632768641619 -0.22590016120893991 0 -0.46333961219553571 -0.23608956025683461 0 -0.45997806989113571 -0.21897280806399511 0 -0.46333961219553571 -0.23608956025683461 0 -0.45997806989113571 -0.21897280806399511 0 -0.44837404555701837 -0.23365243202046401 0 -0.43065227319688371 -0.23517700916423959 0 -0.44837404555701837 -0.23365243202046401 0 -0.44128735527056762 -0.2205237808653629 0 -0.45997806989113571 -0.21897280806399511 0 -0.44837404555701837 -0.23365243202046401 0 -0.44128735527056762 -0.2205237808653629 0 -0.43065227319688371 -0.23517700916423959 0 -0.44837404555701837 -0.23365243202046401 0 -0.44283674427152059 -0.24637665446568971 0 -0.45697176271692003 -0.25705989673299151 0 -0.45564625281125698 -0.24438452482863271 0 -0.44283674427152059 -0.24637665446568971 0 -0.45564625281125698 -0.24438452482863271 0 -0.44837404555701837 -0.23365243202046401 0 -0.44283674427152059 -0.24637665446568971 0 -0.419330795925977 -0.044721011226149687 0 -0.41871172794344202 -0.034500699267759088 0 -0.40684407225853281 -0.036393933576529619 0 -0.419330795925977 -0.044721011226149687 0 -0.40684407225853281 -0.036393933576529619 0 -0.40689599399593329 -0.05093293418644429 0 -0.40689599399593329 -0.05093293418644429 0 -0.41282421320573681 -0.059363460611054138 0 -0.40295699720112338 -0.062108247565225129 0 -0.40689599399593329 -0.05093293418644429 0 -0.41282421320573681 -0.059363460611054138 0 -0.42050876828971617 -0.05581020154007766 0 -0.41282421320573681 -0.059363460611054138 0 -0.42050876828971617 -0.05581020154007766 0 -0.42093509333617413 -0.068602459152469486 0 -0.419330795925977 -0.044721011226149687 0 -0.40689599399593329 -0.05093293418644429 0 -0.42050876828971617 -0.05581020154007766 0 -0.419330795925977 -0.044721011226149687 0 -0.42050876828971617 -0.05581020154007766 0 -0.43386505528406838 -0.051572775260583077 0 -0.42050876828971617 -0.05581020154007766 0 -0.43386505528406838 -0.051572775260583077 0 -0.42093509333617413 -0.068602459152469486 0 -0.43386505528406838 -0.051572775260583077 0 -0.42915915778416952 -0.039115523525504382 0 -0.44330934383366849 -0.032799821906400593 0 -0.419330795925977 -0.044721011226149687 0 -0.43386505528406838 -0.051572775260583077 0 -0.42915915778416952 -0.039115523525504382 0 -0.419330795925977 -0.044721011226149687 0 -0.41871172794344202 -0.034500699267759088 0 -0.42915915778416952 -0.039115523525504382 0 -0.41871172794344202 -0.034500699267759088 0 -0.42915915778416952 -0.039115523525504382 0 -0.42895474664836492 -0.028403859366925469 0 -0.42915915778416952 -0.039115523525504382 0 -0.42895474664836492 -0.028403859366925469 0 -0.44330934383366849 -0.032799821906400593 0 -0.43661284720958549 -0.022789424094251991 0 -0.42895474664836492 -0.028403859366925469 0 -0.44330934383366849 -0.032799821906400593 0 -0.42759376585284892 -0.017517128168361231 0 -0.42895474664836492 -0.028403859366925469 0 -0.41283500762495762 -0.0211525079938309 0 -0.43661284720958549 -0.022789424094251991 0 -0.42759376585284892 -0.017517128168361231 0 -0.44659353250345968 -0.012436886935320661 0 -0.43661284720958549 -0.022789424094251991 0 -0.42759376585284892 -0.017517128168361231 0 -0.42895474664836492 -0.028403859366925469 0 -0.42134371423633721 -0.008318285111944405 0 -0.44659353250345968 -0.012436886935320661 0 -0.42296082909282651 0.003196390742168838 0 -0.44659353250345968 -0.012436886935320661 0 -0.43536093435445072 0.001857609434922101 0 -0.42296082909282651 0.003196390742168838 0 -0.44659353250345968 -0.012436886935320661 0 -0.42296082909282651 0.003196390742168838 0 -0.42759376585284892 -0.017517128168361231 0 -0.42134371423633721 -0.008318285111944405 0 -0.44659353250345968 -0.012436886935320661 0 -0.42134371423633721 -0.008318285111944405 0 -0.40968502495935938 -0.0051598282718678494 0 -0.41283500762495762 -0.0211525079938309 0 -0.40968502495935938 -0.0051598282718678494 0 -0.41283500762495762 -0.0211525079938309 0 -0.39640922082589031 -0.01351604728590108 0 -0.42134371423633721 -0.008318285111944405 0 -0.40968502495935938 -0.0051598282718678494 0 -0.42296082909282651 0.003196390742168838 0 -0.40968502495935938 -0.0051598282718678494 0 -0.42296082909282651 0.003196390742168838 0 -0.41871172794344202 -0.034500699267759088 0 -0.42895474664836492 -0.028403859366925469 0 -0.41283500762495762 -0.0211525079938309 0 -0.42759376585284892 -0.017517128168361231 0 -0.42134371423633721 -0.008318285111944405 0 -0.41283500762495762 -0.0211525079938309 0 -0.41871172794344202 -0.034500699267759088 0 -0.40684407225853281 -0.036393933576529619 0 -0.41283500762495762 -0.0211525079938309 0 -0.41283500762495762 -0.0211525079938309 0 -0.39418638094113739 -0.02763757556067873 0 -0.39640922082589031 -0.01351604728590108 0 -0.40684407225853281 -0.036393933576529619 0 -0.41283500762495762 -0.0211525079938309 0 -0.39418638094113739 -0.02763757556067873 0 -0.40968502495935938 -0.0051598282718678494 0 -0.39640922082589031 -0.01351604728590108 0 -0.39871279147125682 0.0028453761212302452 0 -0.39640922082589031 -0.01351604728590108 0 -0.38956313858106117 0.00033333523208246098 0 -0.39871279147125682 0.0028453761212302452 0 -0.40968502495935938 -0.0051598282718678494 0 -0.39640922082589031 -0.01351604728590108 0 -0.39640922082589031 -0.01351604728590108 0 -0.38282638340483688 -0.0063481786035274844 0 -0.3778068007713748 -0.019224426864014928 0 -0.39640922082589031 -0.01351604728590108 0 -0.38282638340483688 -0.0063481786035274844 0 -0.38956313858106117 0.00033333523208246098 0 -0.36904092926483728 -0.0062125949297039051 0 -0.38282638340483688 -0.0063481786035274844 0 -0.3778068007713748 -0.019224426864014928 0 -0.36904092926483728 -0.0062125949297039051 0 -0.38282638340483688 -0.0063481786035274844 0 -0.37316923238732841 0.0056715527261784349 0 -0.39418638094113739 -0.02763757556067873 0 -0.39640922082589031 -0.01351604728590108 0 -0.3778068007713748 -0.019224426864014928 0 -0.39418638094113739 -0.02763757556067873 0 -0.3778068007713748 -0.019224426864014928 0 -0.37858806660976912 -0.035393957434020032 0 -0.36820110178471371 -0.045830346327097898 0 -0.37858806660976912 -0.035393957434020032 0 -0.38021302720900269 -0.054705174340087717 0 -0.37858806660976912 -0.035393957434020032 0 -0.3928798695699991 -0.040671057910247617 0 -0.38021302720900269 -0.054705174340087717 0 -0.39418638094113739 -0.02763757556067873 0 -0.37858806660976912 -0.035393957434020032 0 -0.3928798695699991 -0.040671057910247617 0 -0.40684407225853281 -0.036393933576529619 0 -0.39418638094113739 -0.02763757556067873 0 -0.3928798695699991 -0.040671057910247617 0 -0.40684407225853281 -0.036393933576529619 0 -0.40689599399593329 -0.05093293418644429 0 -0.3928798695699991 -0.040671057910247617 0 -0.40689599399593329 -0.05093293418644429 0 -0.40295699720112338 -0.062108247565225129 0 -0.39509662616443242 -0.0543085482615875 0 -0.40689599399593329 -0.05093293418644429 0 -0.3928798695699991 -0.040671057910247617 0 -0.39509662616443242 -0.0543085482615875 0 -0.40295699720112338 -0.062108247565225129 0 -0.39509662616443242 -0.0543085482615875 0 -0.39360933820056609 -0.068044745966716128 0 -0.39509662616443242 -0.0543085482615875 0 -0.38021302720900269 -0.054705174340087717 0 -0.39360933820056609 -0.068044745966716128 0 -0.3928798695699991 -0.040671057910247617 0 -0.39509662616443242 -0.0543085482615875 0 -0.38021302720900269 -0.054705174340087717 0 -0.36628358306495801 -0.067487032780962769 0 -0.38021302720900269 -0.054705174340087717 0 -0.39360933820056609 -0.068044745966716128 0 -0.36628358306495801 -0.067487032780962769 0 -0.39360933820056609 -0.068044745966716128 0 -0.36628358306495801 -0.067487032780962769 0 -0.38069659487589969 -0.083386290856578296 0 -0.39360933820056609 -0.068044745966716128 0 -0.38069659487589969 -0.083386290856578296 0 -0.39715816329598219 -0.090899137906093025 0 -0.39114104750693368 -0.1045879603525099 0 -0.38069659487589969 -0.083386290856578296 0 -0.39715816329598219 -0.090899137906093025 0 -0.39880279433064031 -0.07926670441512651 0 -0.39715816329598219 -0.090899137906093025 0 -0.41049066607818352 -0.098844389488085105 0 -0.40722199537087778 -0.085450859893533945 0 -0.39880279433064031 -0.07926670441512651 0 -0.40869365911970379 -0.070852948079160344 0 -0.40722199537087778 -0.085450859893533945 0 -0.39715816329598219 -0.090899137906093025 0 -0.39880279433064031 -0.07926670441512651 0 -0.40722199537087778 -0.085450859893533945 0 -0.39880279433064031 -0.07926670441512651 0 -0.39360933820056609 -0.068044745966716128 0 -0.40869365911970379 -0.070852948079160344 0 -0.38069659487589969 -0.083386290856578296 0 -0.39880279433064031 -0.07926670441512651 0 -0.39360933820056609 -0.068044745966716128 0 -0.40295699720112338 -0.062108247565225129 0 -0.39360933820056609 -0.068044745966716128 0 -0.42093509333617413 -0.068602459152469486 0 -0.37365237339188878 -0.1093814201311714 0 -0.37927010358308422 -0.13552482380535141 0 -0.39336138785350022 -0.1239300606573904 0 -0.37365237339188878 -0.1093814201311714 0 -0.39114104750693368 -0.1045879603525099 0 -0.39336138785350022 -0.1239300606573904 0 -0.37365237339188878 -0.1093814201311714 0 -0.38069659487589969 -0.083386290856578296 0 -0.39114104750693368 -0.1045879603525099 0 -0.39114104750693368 -0.1045879603525099 0 -0.40549063468247992 -0.1147540532314283 0 -0.41049066607818352 -0.098844389488085105 0 -0.39715816329598219 -0.090899137906093025 0 -0.39114104750693368 -0.1045879603525099 0 -0.41049066607818352 -0.098844389488085105 0 -0.39114104750693368 -0.1045879603525099 0 -0.40549063468247992 -0.1147540532314283 0 -0.39336138785350022 -0.1239300606573904 0 -0.40659225839495061 -0.12503341476561039 0 -0.40549063468247992 -0.1147540532314283 0 -0.39336138785350022 -0.1239300606573904 0 -0.4228895494757865 -0.127083651520361 0 -0.41413533966571392 -0.1208735596075392 0 -0.41996959295166542 -0.1118119052437115 0 -0.40659225839495061 -0.12503341476561039 0 -0.41378666654639429 -0.1287813227428925 0 -0.41413533966571392 -0.1208735596075392 0 -0.40659225839495061 -0.12503341476561039 0 -0.40549063468247992 -0.1147540532314283 0 -0.41413533966571392 -0.1208735596075392 0 -0.40549063468247992 -0.1147540532314283 0 -0.41413533966571392 -0.1208735596075392 0 -0.41996959295166542 -0.1118119052437115 0 -0.40549063468247992 -0.1147540532314283 0 -0.41996959295166542 -0.1118119052437115 0 -0.41049066607818352 -0.098844389488085105 0 -0.41996959295166542 -0.1118119052437115 0 -0.41049066607818352 -0.098844389488085105 0 -0.42112484806685418 -0.1004036072503561 0 -0.41049066607818352 -0.098844389488085105 0 -0.42112484806685418 -0.1004036072503561 0 -0.42096469402987929 -0.087391119579204729 0 -0.42096469402987929 -0.087391119579204729 0 -0.44607687974099308 -0.1006950972930189 0 -0.43307443920768879 -0.1035670146904232 0 -0.42096469402987929 -0.087391119579204729 0 -0.44607687974099308 -0.1006950972930189 0 -0.43307443920768879 -0.1035670146904232 0 -0.42096469402987929 -0.087391119579204729 0 -0.42112484806685418 -0.1004036072503561 0 -0.43307443920768879 -0.1035670146904232 0 -0.42096469402987929 -0.087391119579204729 0 -0.41996959295166542 -0.1118119052437115 0 -0.42112484806685418 -0.1004036072503561 0 -0.43307443920768879 -0.1035670146904232 0 -0.43307443920768879 -0.1035670146904232 0 -0.43175102573556351 -0.11718198690372569 0 -0.44514924101922221 -0.1197689520096874 0 -0.41996959295166542 -0.1118119052437115 0 -0.43307443920768879 -0.1035670146904232 0 -0.43175102573556351 -0.11718198690372569 0 -0.4228895494757865 -0.127083651520361 0 -0.41996959295166542 -0.1118119052437115 0 -0.43175102573556351 -0.11718198690372569 0 -0.41282421320573681 -0.059363460611054138 0 -0.40295699720112338 -0.062108247565225129 0 -0.42093509333617413 -0.068602459152469486 0 -0.39360933820056609 -0.068044745966716128 0 -0.42093509333617413 -0.068602459152469486 0 -0.40869365911970379 -0.070852948079160344 0 -0.42093509333617413 -0.068602459152469486 0 -0.40869365911970379 -0.070852948079160344 0 -0.42096469402987929 -0.087391119579204729 0 -0.39360933820056609 -0.068044745966716128 0 -0.42093509333617413 -0.068602459152469486 0 -0.40869365911970379 -0.070852948079160344 0 -0.40722199537087778 -0.085450859893533945 0 -0.42096469402987929 -0.087391119579204729 0 -0.40869365911970379 -0.070852948079160344 0 -0.42096469402987929 -0.087391119579204729 0 -0.41049066607818352 -0.098844389488085105 0 -0.40722199537087778 -0.085450859893533945 0 -0.42096469402987929 -0.087391119579204729 0 -0.42093509333617413 -0.068602459152469486 0 -0.42096469402987929 -0.087391119579204729 0 -0.43797781271585112 -0.082650254279144353 0 -0.42096469402987929 -0.087391119579204729 0 -0.43797781271585112 -0.082650254279144353 0 -0.44607687974099308 -0.1006950972930189 0 -0.42093509333617413 -0.068602459152469486 0 -0.44826084847178221 -0.069160172338222844 0 -0.43386505528406838 -0.051572775260583077 0 -0.42093509333617413 -0.068602459152469486 0 -0.44826084847178221 -0.069160172338222844 0 -0.42093509333617413 -0.068602459152469486 0 -0.44826084847178221 -0.069160172338222844 0 -0.43797781271585112 -0.082650254279144353 0 -0.44826084847178221 -0.069160172338222844 0 -0.43797781271585112 -0.082650254279144353 0 -0.45126809012741947 -0.085756258838950716 0 -0.43797781271585112 -0.082650254279144353 0 -0.45126809012741947 -0.085756258838950716 0 -0.44607687974099308 -0.1006950972930189 0 -0.45126809012741947 -0.085756258838950716 0 -0.44607687974099308 -0.1006950972930189 0 -0.46894328698424048 -0.087885648735248623 0 -0.44826084847178221 -0.069160172338222844 0 -0.45126809012741947 -0.085756258838950716 0 -0.46894328698424048 -0.087885648735248623 0 -0.44826084847178221 -0.069160172338222844 0 -0.47028157187798059 -0.064381605342730991 0 -0.46894328698424048 -0.087885648735248623 0 -0.43307443920768879 -0.1035670146904232 0 -0.44514924101922221 -0.1197689520096874 0 -0.43802877240148391 -0.13608826468264709 0 -0.43175102573556351 -0.11718198690372569 0 -0.44514924101922221 -0.1197689520096874 0 -0.43307443920768879 -0.1035670146904232 0 -0.44514924101922221 -0.1197689520096874 0 -0.44607687974099308 -0.1006950972930189 0 -0.44607687974099308 -0.1006950972930189 0 -0.47118906545210681 -0.113999075006833 0 -0.44607687974099308 -0.1006950972930189 0 -0.47118906545210681 -0.113999075006833 0 -0.46894328698424048 -0.087885648735248623 0 -0.45722404283075552 -0.1359708893289516 0 -0.44514924101922221 -0.1197689520096874 0 -0.47118906545210681 -0.113999075006833 0 -0.44514924101922221 -0.1197689520096874 0 -0.44607687974099308 -0.1006950972930189 0 -0.47118906545210681 -0.113999075006833 0 -0.49630125116322038 -0.12730305272064721 0 -0.47118906545210681 -0.113999075006833 0 -0.47860553814596463 -0.13130080165850361 0 -0.49630125116322038 -0.12730305272064721 0 -0.47118906545210681 -0.113999075006833 0 -0.47118906545210681 -0.113999075006833 0 -0.48235485732368139 -0.098107740138361876 0 -0.48804056097873322 -0.11118960303293481 0 -0.47118906545210681 -0.113999075006833 0 -0.48235485732368139 -0.098107740138361876 0 -0.46894328698424048 -0.087885648735248623 0 -0.48235485732368139 -0.098107740138361876 0 -0.5 -0.09990780260327714 0 -0.48804056097873322 -0.11118960303293481 0 -0.49630125116322038 -0.12730305272064721 0 -0.5 -0.09990780260327714 0 -0.48804056097873322 -0.11118960303293481 0 -0.49630125116322038 -0.12730305272064721 0 -0.47118906545210681 -0.113999075006833 0 -0.48804056097873322 -0.11118960303293481 0 -0.5 -0.12951398883250931 0 -0.49630125116322038 -0.12730305272064721 0 -0.5 -0.09990780260327714 0 -0.48360137320332691 -0.077556571313515815 0 -0.47028157187798059 -0.064381605342730991 0 -0.46894328698424048 -0.087885648735248623 0 -0.48360137320332691 -0.077556571313515815 0 -0.47028157187798059 -0.064381605342730991 0 -0.48951986951435877 -0.058713278496577329 0 -0.48235485732368139 -0.098107740138361876 0 -0.48360137320332691 -0.077556571313515815 0 -0.46894328698424048 -0.087885648735248623 0 -0.5 -0.09990780260327714 0 -0.48360137320332691 -0.077556571313515815 0 -0.5 -0.070301616374044862 0 -0.48235485732368139 -0.098107740138361876 0 -0.5 -0.09990780260327714 0 -0.48360137320332691 -0.077556571313515815 0 -0.48360137320332691 -0.077556571313515815 0 -0.5 -0.070301616374044862 0 -0.48951986951435877 -0.058713278496577329 0 -0.5 -0.070301616374044862 0 -0.48951986951435877 -0.058713278496577329 0 -0.5 -0.040695430144812472 0 -0.48951986951435877 -0.058713278496577329 0 -0.49385893932472408 -0.043703442290302333 0 -0.47618302777251958 -0.048662401200104927 0 -0.48951986951435877 -0.058713278496577329 0 -0.5 -0.040695430144812472 0 -0.49385893932472408 -0.043703442290302333 0 -0.5 -0.040695430144812472 0 -0.49385893932472408 -0.043703442290302333 0 -0.4884876854267689 -0.026925637717427588 0 -0.49385893932472408 -0.043703442290302333 0 -0.47022623591409191 -0.02807016461281148 0 -0.4884876854267689 -0.026925637717427588 0 -0.49385893932472408 -0.043703442290302333 0 -0.47022623591409191 -0.02807016461281148 0 -0.49385893932472408 -0.043703442290302333 0 -0.47618302777251958 -0.048662401200104927 0 -0.47022623591409191 -0.02807016461281148 0 -0.47028157187798059 -0.064381605342730991 0 -0.48951986951435877 -0.058713278496577329 0 -0.47618302777251958 -0.048662401200104927 0 -0.47028157187798059 -0.064381605342730991 0 -0.47618302777251958 -0.048662401200104927 0 -0.45702852223144269 -0.048443515258102463 0 -0.44826084847178221 -0.069160172338222844 0 -0.47028157187798059 -0.064381605342730991 0 -0.45702852223144269 -0.048443515258102463 0 -0.47618302777251958 -0.048662401200104927 0 -0.45702852223144269 -0.048443515258102463 0 -0.47022623591409191 -0.02807016461281148 0 -0.45702852223144269 -0.048443515258102463 0 -0.44330934383366849 -0.032799821906400593 0 -0.47022623591409191 -0.02807016461281148 0 -0.43386505528406838 -0.051572775260583077 0 -0.45702852223144269 -0.048443515258102463 0 -0.44330934383366849 -0.032799821906400593 0 -0.43386505528406838 -0.051572775260583077 0 -0.44826084847178221 -0.069160172338222844 0 -0.45702852223144269 -0.048443515258102463 0 -0.44659353250345968 -0.012436886935320661 0 -0.45201807987886189 0.0036230174870018552 0 -0.44396570013534342 1.673851566289615e-05 0 -0.44659353250345968 -0.012436886935320661 0 -0.44396570013534342 1.673851566289615e-05 0 -0.43536093435445072 0.001857609434922101 0 -0.43661284720958549 -0.022789424094251991 0 -0.44330934383366849 -0.032799821906400593 0 -0.44659353250345968 -0.012436886935320661 0 -0.44330934383366849 -0.032799821906400593 0 -0.44659353250345968 -0.012436886935320661 0 -0.47022623591409191 -0.02807016461281148 0 -0.44659353250345968 -0.012436886935320661 0 -0.4627689109164792 -0.0086609075953112628 0 -0.47022623591409191 -0.02807016461281148 0 -0.44659353250345968 -0.012436886935320661 0 -0.47022623591409191 -0.02807016461281148 0 -0.44659353250345968 -0.012436886935320661 0 -0.4627689109164792 -0.0086609075953112628 0 -0.45201807987886189 0.0036230174870018552 0 -0.4627689109164792 -0.0086609075953112628 0 -0.4668835559242771 0.0039895947067450166 0 -0.45201807987886189 0.0036230174870018552 0 -0.4627689109164792 -0.0086609075953112628 0 -0.47812315036170572 -0.01041009862217104 0 -0.4668835559242771 0.0039895947067450166 0 -0.4627689109164792 -0.0086609075953112628 0 -0.47812315036170572 -0.01041009862217104 0 -0.47022623591409191 -0.02807016461281148 0 -0.47812315036170572 -0.01041009862217104 0 -0.47022623591409191 -0.02807016461281148 0 -0.4884876854267689 -0.026925637717427588 0 -0.47812315036170572 -0.01041009862217104 0 -0.4884876854267689 -0.026925637717427588 0 -0.5 -0.011089243915580081 0 -0.5 -0.040695430144812472 0 -0.4884876854267689 -0.026925637717427588 0 -0.5 -0.011089243915580081 0 -0.47812315036170572 -0.01041009862217104 0 -0.5 -0.011089243915580081 0 -0.48432639559724883 0.0072523509325157134 0 -0.5 0.018516942313652199 0 -0.48836839216145911 0.018954531909754359 0 -0.48432639559724883 0.0072523509325157134 0 -0.5 -0.011089243915580081 0 -0.5 0.018516942313652199 0 -0.48432639559724883 0.0072523509325157134 0 -0.5 0.018516942313652199 0 -0.49202849897661061 0.030003939299560179 0 -0.48836839216145911 0.018954531909754359 0 -0.49202849897661061 0.030003939299560179 0 -0.48836839216145911 0.018954531909754359 0 -0.47922455098221017 0.022992386636720721 0 -0.48836839216145911 0.018954531909754359 0 -0.47922455098221017 0.022992386636720721 0 -0.48432639559724883 0.0072523509325157134 0 -0.47922455098221017 0.022992386636720721 0 -0.48432639559724883 0.0072523509325157134 0 -0.46794968814851512 0.019704679895983838 0 -0.49202849897661061 0.030003939299560179 0 -0.47922455098221017 0.022992386636720721 0 -0.47675575875674242 0.0310587084057392 0 -0.47922455098221017 0.022992386636720721 0 -0.46879705148470557 0.03275310148960428 0 -0.46794968814851512 0.019704679895983838 0 -0.47922455098221017 0.022992386636720721 0 -0.47675575875674242 0.0310587084057392 0 -0.46879705148470557 0.03275310148960428 0 -0.47812315036170572 -0.01041009862217104 0 -0.48432639559724883 0.0072523509325157134 0 -0.4668835559242771 0.0039895947067450166 0 -0.48432639559724883 0.0072523509325157134 0 -0.4668835559242771 0.0039895947067450166 0 -0.46794968814851512 0.019704679895983838 0 -0.50000000000000189 0.048123128542884537 0 -0.47654805394998961 0.049958396089679571 0 -0.48356366956929131 0.061786461627851508 0 -0.50000000000000189 0.048123128542884537 0 -0.48356366956929131 0.061786461627851508 0 -0.5 0.075080804902906417 0 -0.50000000000000189 0.048123128542884537 0 -0.47061466606111602 0.041820445401022983 0 -0.49202849897661061 0.030003939299560179 0 -0.50000000000000189 0.048123128542884537 0 -0.47492460282768412 0.039442151225475383 0 -0.5 0.018516942313652199 0 -0.49202849897661061 0.030003939299560179 0 -0.50000000000000189 0.048123128542884537 0 -0.49202849897661061 0.030003939299560179 0 -0.47492460282768412 0.039442151225475383 0 -0.50000000000000189 0.048123128542884537 0 -0.47061466606111602 0.041820445401022983 0 -0.47654805394998961 0.049958396089679571 0 -0.50000000000000189 0.048123128542884537 0 -0.47492460282768412 0.039442151225475383 0 -0.47061466606111602 0.041820445401022983 0 -0.49202849897661061 0.030003939299560179 0 -0.47675575875674242 0.0310587084057392 0 -0.47492460282768412 0.039442151225475383 0 -0.46879705148470557 0.03275310148960428 0 -0.47175794754754341 0.035934490350434417 0 -0.46684578008956179 0.041012079767814208 0 -0.47675575875674242 0.0310587084057392 0 -0.46879705148470557 0.03275310148960428 0 -0.47175794754754341 0.035934490350434417 0 -0.47175794754754341 0.035934490350434417 0 -0.47492460282768412 0.039442151225475383 0 -0.46684578008956179 0.041012079767814208 0 -0.47675575875674242 0.0310587084057392 0 -0.47175794754754341 0.035934490350434417 0 -0.47492460282768412 0.039442151225475383 0 -0.47492460282768412 0.039442151225475383 0 -0.47061466606111602 0.041820445401022983 0 -0.46684578008956179 0.041012079767814208 0 -0.47492460282768412 0.039442151225475383 0 -0.46684578008956179 0.041012079767814208 0 -0.47061466606111602 0.041820445401022983 0 -0.47084342116538419 0.046746914991159849 0 -0.47654805394998961 0.049958396089679571 0 -0.47492460282768412 0.039442151225475383 0 -0.47061466606111602 0.041820445401022983 0 -0.47061466606111602 0.041820445401022983 0 -0.46757601445619912 0.043497223461795263 0 -0.47061466606111602 0.041820445401022983 0 -0.47084342116538419 0.046746914991159849 0 -0.46757601445619912 0.043497223461795263 0 -0.47084342116538419 0.046746914991159849 0 -0.46823209715076669 0.047615417407286267 0 -0.46757601445619912 0.043497223461795263 0 -0.47654805394998961 0.049958396089679571 0 -0.47044600445603613 0.050370671433998759 0 -0.47037431297571408 0.057997067956390681 0 -0.47084342116538419 0.046746914991159849 0 -0.47654805394998961 0.049958396089679571 0 -0.47044600445603613 0.050370671433998759 0 -0.47084342116538419 0.046746914991159849 0 -0.47044600445603613 0.050370671433998759 0 -0.46823209715076669 0.047615417407286267 0 -0.47654805394998961 0.049958396089679571 0 -0.47037431297571408 0.057997067956390681 0 -0.48356366956929131 0.061786461627851508 0 -0.4531481165099509 0.055297511933434691 0 -0.46757601445619912 0.043497223461795263 0 -0.44573732888724099 0.055548170262953597 0 -0.46757601445619912 0.043497223461795263 0 -0.46445660106236619 0.041655748265291247 0 -0.44573732888724099 0.055548170262953597 0 -0.46757601445619912 0.043497223461795263 0 -0.44573732888724099 0.055548170262953597 0 -0.4531481165099509 0.055297511933434691 0 -0.46082002369010788 0.058883742001596157 0 -0.46506971268689529 0.052363784576932061 0 -0.4531481165099509 0.055297511933434691 0 -0.46082002369010788 0.058883742001596157 0 -0.45290508198772511 0.063632325917337307 0 -0.47037431297571408 0.057997067956390681 0 -0.46082002369010788 0.058883742001596157 0 -0.46506971268689529 0.052363784576932061 0 -0.47037431297571408 0.057997067956390681 0 -0.46082002369010788 0.058883742001596157 0 -0.46190875217632338 0.066555021049130331 0 -0.4531481165099509 0.055297511933434691 0 -0.46461081064964987 0.048366312877540528 0 -0.46757601445619912 0.043497223461795263 0 -0.4531481165099509 0.055297511933434691 0 -0.46506971268689529 0.052363784576932061 0 -0.46461081064964987 0.048366312877540528 0 -0.47044600445603613 0.050370671433998759 0 -0.47037431297571408 0.057997067956390681 0 -0.46506971268689529 0.052363784576932061 0 -0.47044600445603613 0.050370671433998759 0 -0.46506971268689529 0.052363784576932061 0 -0.46823209715076669 0.047615417407286267 0 -0.46506971268689529 0.052363784576932061 0 -0.46823209715076669 0.047615417407286267 0 -0.46461081064964987 0.048366312877540528 0 -0.46138056189096049 0.039839878060712923 0 -0.46195104347613802 0.027738088368575189 0 -0.44250122783242579 0.02869488988310534 0 -0.46445660106236619 0.041655748265291247 0 -0.44306993615298418 0.047417527651265758 0 -0.46445660106236619 0.041655748265291247 0 -0.46138056189096049 0.039839878060712923 0 -0.44306993615298418 0.047417527651265758 0 -0.46823209715076669 0.047615417407286267 0 -0.46461081064964987 0.048366312877540528 0 -0.46757601445619912 0.043497223461795263 0 -0.47061466606111602 0.041820445401022983 0 -0.46684578008956179 0.041012079767814208 0 -0.47061466606111602 0.041820445401022983 0 -0.46757601445619912 0.043497223461795263 0 -0.46684578008956179 0.041012079767814208 0 -0.46757601445619912 0.043497223461795263 0 -0.46445660106236619 0.041655748265291247 0 -0.46757601445619912 0.043497223461795263 0 -0.46684578008956179 0.041012079767814208 0 -0.46445660106236619 0.041655748265291247 0 -0.46684578008956179 0.041012079767814208 0 -0.46445660106236619 0.041655748265291247 0 -0.46684578008956179 0.041012079767814208 0 -0.46445660106236619 0.041655748265291247 0 -0.46138056189096049 0.039839878060712923 0 -0.46684578008956179 0.041012079767814208 0 -0.46138056189096049 0.039839878060712923 0 -0.46445660106236619 0.041655748265291247 0 -0.46138056189096049 0.039839878060712923 0 -0.46879705148470557 0.03275310148960428 0 -0.46684578008956179 0.041012079767814208 0 -0.46138056189096049 0.039839878060712923 0 -0.46879705148470557 0.03275310148960428 0 -0.46138056189096049 0.039839878060712923 0 -0.46195104347613802 0.027738088368575189 0 -0.46138056189096049 0.039839878060712923 0 -0.43792704806284838 0.03480947525742055 0 -0.46138056189096049 0.039839878060712923 0 -0.44250122783242579 0.02869488988310534 0 -0.46138056189096049 0.039839878060712923 0 -0.43792704806284838 0.03480947525742055 0 -0.44250122783242579 0.02869488988310534 0 -0.46138056189096049 0.039839878060712923 0 -0.43792704806284838 0.03480947525742055 0 -0.44306993615298418 0.047417527651265758 0 -0.46445660106236619 0.041655748265291247 0 -0.44306993615298418 0.047417527651265758 0 -0.44573732888724099 0.055548170262953597 0 -0.44306993615298418 0.047417527651265758 0 -0.44573732888724099 0.055548170262953597 0 -0.4336464670036777 0.055011916278121832 0 -0.4531481165099509 0.055297511933434691 0 -0.44573732888724099 0.055548170262953597 0 -0.45290508198772511 0.063632325917337307 0 -0.45902661997930472 0.014592308324118621 0 -0.4668835559242771 0.0039895947067450166 0 -0.46794968814851512 0.019704679895983838 0 -0.45902661997930472 0.014592308324118621 0 -0.4668835559242771 0.0039895947067450166 0 -0.45201807987886189 0.0036230174870018552 0 -0.45902661997930472 0.014592308324118621 0 -0.46794968814851512 0.019704679895983838 0 -0.46195104347613802 0.027738088368575189 0 -0.46879705148470557 0.03275310148960428 0 -0.46794968814851512 0.019704679895983838 0 -0.46195104347613802 0.027738088368575189 0 -0.46195104347613802 0.027738088368575189 0 -0.44633073246873112 0.017906161162287191 0 -0.45902661997930472 0.014592308324118621 0 -0.46195104347613802 0.027738088368575189 0 -0.44633073246873112 0.017906161162287191 0 -0.46195104347613802 0.027738088368575189 0 -0.44633073246873112 0.017906161162287191 0 -0.44250122783242579 0.02869488988310534 0 -0.44633073246873112 0.017906161162287191 0 -0.44250122783242579 0.02869488988310534 0 -0.43579106888409302 0.018056296676722421 0 -0.44633073246873112 0.017906161162287191 0 -0.44189025380460129 0.0070232140760482934 0 -0.43071042146132449 0.008074233955998579 0 -0.44633073246873112 0.017906161162287191 0 -0.43071042146132449 0.008074233955998579 0 -0.44633073246873112 0.017906161162287191 0 -0.43071042146132449 0.008074233955998579 0 -0.43579106888409302 0.018056296676722421 0 -0.44633073246873112 0.017906161162287191 0 -0.45201807987886189 0.0036230174870018552 0 -0.44189025380460129 0.0070232140760482934 0 -0.45902661997930472 0.014592308324118621 0 -0.44633073246873112 0.017906161162287191 0 -0.45201807987886189 0.0036230174870018552 0 -0.45201807987886189 0.0036230174870018552 0 -0.44189025380460129 0.0070232140760482934 0 -0.44396570013534342 1.673851566289615e-05 0 -0.44189025380460129 0.0070232140760482934 0 -0.44396570013534342 1.673851566289615e-05 0 -0.43536093435445072 0.001857609434922101 0 -0.44189025380460129 0.0070232140760482934 0 -0.43536093435445072 0.001857609434922101 0 -0.43071042146132449 0.008074233955998579 0 -0.43536093435445072 0.001857609434922101 0 -0.43071042146132449 0.008074233955998579 0 -0.43071042146132449 0.008074233955998579 0 -0.42362189377389081 0.01754990170549859 0 -0.43579106888409302 0.018056296676722421 0 -0.43071042146132449 0.008074233955998579 0 -0.42296082909282651 0.003196390742168838 0 -0.42362189377389081 0.01754990170549859 0 -0.43071042146132449 0.008074233955998579 0 -0.42362189377389081 0.01754990170549859 0 -0.43536093435445072 0.001857609434922101 0 -0.43071042146132449 0.008074233955998579 0 -0.42296082909282651 0.003196390742168838 0 -0.43071042146132449 0.008074233955998579 0 -0.42296082909282651 0.003196390742168838 0 -0.40968502495935938 -0.0051598282718678494 0 -0.41180661483227871 0.010575018814442829 0 -0.39871279147125682 0.0028453761212302452 0 -0.40968502495935938 -0.0051598282718678494 0 -0.42296082909282651 0.003196390742168838 0 -0.41180661483227871 0.010575018814442829 0 -0.42296082909282651 0.003196390742168838 0 -0.41180661483227871 0.010575018814442829 0 -0.42296082909282651 0.003196390742168838 0 -0.41180661483227871 0.010575018814442829 0 -0.42362189377389081 0.01754990170549859 0 -0.41180661483227871 0.010575018814442829 0 -0.42362189377389081 0.01754990170549859 0 -0.41180661483227871 0.010575018814442829 0 -0.41447353423473648 0.029779072454126341 0 -0.42362189377389081 0.01754990170549859 0 -0.41447353423473648 0.029779072454126341 0 -0.42362189377389081 0.01754990170549859 0 -0.43792704806284838 0.03480947525742055 0 -0.44250122783242579 0.02869488988310534 0 -0.42362189377389081 0.01754990170549859 0 -0.43792704806284838 0.03480947525742055 0 -0.41447353423473648 0.029779072454126341 0 -0.42362189377389081 0.01754990170549859 0 -0.44250122783242579 0.02869488988310534 0 -0.42362189377389081 0.01754990170549859 0 -0.44250122783242579 0.02869488988310534 0 -0.42362189377389081 0.01754990170549859 0 -0.43579106888409302 0.018056296676722421 0 -0.43792704806284838 0.03480947525742055 0 -0.41447353423473648 0.029779072454126341 0 -0.43792704806284838 0.03480947525742055 0 -0.41447353423473648 0.029779072454126341 0 -0.42609383410034668 0.041626416918384472 0 -0.43792704806284838 0.03480947525742055 0 -0.44306993615298418 0.047417527651265758 0 -0.42609383410034668 0.041626416918384472 0 -0.44573732888724099 0.055548170262953597 0 -0.4336464670036777 0.055011916278121832 0 -0.42389864331828342 0.067599117064112313 0 -0.44306993615298418 0.047417527651265758 0 -0.4336464670036777 0.055011916278121832 0 -0.42168327124360222 0.05317930703723997 0 -0.44306993615298418 0.047417527651265758 0 -0.42609383410034668 0.041626416918384472 0 -0.42168327124360222 0.05317930703723997 0 -0.44306993615298418 0.047417527651265758 0 -0.42168327124360222 0.05317930703723997 0 -0.44573732888724099 0.055548170262953597 0 -0.42389864331828342 0.067599117064112313 0 -0.4336464670036777 0.055011916278121832 0 -0.42168327124360222 0.05317930703723997 0 -0.42389864331828342 0.067599117064112313 0 -0.42168327124360222 0.05317930703723997 0 -0.40029660633422021 0.058941086423214162 0 -0.42168327124360222 0.05317930703723997 0 -0.41459085486833469 0.043019889166581067 0 -0.40101060028801871 0.047775798239469369 0 -0.42168327124360222 0.05317930703723997 0 -0.40101060028801871 0.047775798239469369 0 -0.40029660633422021 0.058941086423214162 0 -0.42168327124360222 0.05317930703723997 0 -0.40029660633422021 0.058941086423214162 0 -0.41112987661361522 0.068660042091819806 0 -0.41447353423473648 0.029779072454126341 0 -0.41459085486833469 0.043019889166581067 0 -0.40101060028801871 0.047775798239469369 0 -0.41447353423473648 0.029779072454126341 0 -0.40101060028801871 0.047775798239469369 0 -0.41447353423473648 0.029779072454126341 0 -0.42609383410034668 0.041626416918384472 0 -0.41459085486833469 0.043019889166581067 0 -0.42609383410034668 0.041626416918384472 0 -0.42168327124360222 0.05317930703723997 0 -0.41459085486833469 0.043019889166581067 0 -0.39763065652730512 0.035878622733598868 0 -0.38450146938697238 0.041314545963899253 0 -0.39053702219949282 0.02464507427690037 0 -0.41447353423473648 0.029779072454126341 0 -0.39763065652730512 0.035878622733598868 0 -0.40101060028801871 0.047775798239469369 0 -0.39763065652730512 0.035878622733598868 0 -0.40101060028801871 0.047775798239469369 0 -0.38450146938697238 0.041314545963899253 0 -0.40101060028801871 0.047775798239469369 0 -0.40029660633422021 0.058941086423214162 0 -0.38754766634130128 0.06577252402481279 0 -0.40101060028801871 0.047775798239469369 0 -0.38618504851635582 0.053785638900186471 0 -0.38754766634130128 0.06577252402481279 0 -0.40101060028801871 0.047775798239469369 0 -0.38754766634130128 0.06577252402481279 0 -0.38618504851635582 0.053785638900186471 0 -0.38754766634130128 0.06577252402481279 0 -0.37168045804913091 0.060279687372564471 0 -0.38618504851635582 0.053785638900186471 0 -0.38450146938697238 0.041314545963899253 0 -0.37168045804913091 0.060279687372564471 0 -0.40101060028801871 0.047775798239469369 0 -0.38618504851635582 0.053785638900186471 0 -0.38450146938697238 0.041314545963899253 0 -0.39053702219949282 0.02464507427690037 0 -0.36679936359739518 0.04034778089882541 0 -0.38450146938697238 0.041314545963899253 0 -0.39053702219949282 0.02464507427690037 0 -0.36679936359739518 0.04034778089882541 0 -0.38500961446816351 0.023459533911800591 0 -0.39053702219949282 0.02464507427690037 0 -0.36679936359739518 0.04034778089882541 0 -0.38500961446816351 0.023459533911800591 0 -0.37983156249558608 0.01427516127154336 0 -0.36738992771166951 0.018222951418625968 0 -0.38500961446816351 0.023459533911800591 0 -0.39053702219949282 0.02464507427690037 0 -0.38500961446816351 0.023459533911800591 0 -0.37983156249558608 0.01427516127154336 0 -0.39082107056325588 0.012777634807952199 0 -0.38500961446816351 0.023459533911800591 0 -0.39053702219949282 0.02464507427690037 0 -0.39082107056325588 0.012777634807952199 0 -0.37983156249558608 0.01427516127154336 0 -0.38330333298084762 0.0074636459747756253 0 -0.37316923238732841 0.0056715527261784349 0 -0.38282638340483688 -0.0063481786035274844 0 -0.38330333298084762 0.0074636459747756253 0 -0.37316923238732841 0.0056715527261784349 0 -0.38330333298084762 0.0074636459747756253 0 -0.38956313858106117 0.00033333523208246098 0 -0.39082107056325588 0.012777634807952199 0 -0.38282638340483688 -0.0063481786035274844 0 -0.38330333298084762 0.0074636459747756253 0 -0.38956313858106117 0.00033333523208246098 0 -0.37983156249558608 0.01427516127154336 0 -0.38330333298084762 0.0074636459747756253 0 -0.39082107056325588 0.012777634807952199 0 -0.41180661483227871 0.010575018814442829 0 -0.39082107056325588 0.012777634807952199 0 -0.39871279147125682 0.0028453761212302452 0 -0.38956313858106117 0.00033333523208246098 0 -0.39082107056325588 0.012777634807952199 0 -0.39871279147125682 0.0028453761212302452 0 -0.41180661483227871 0.010575018814442829 0 -0.39871279147125682 0.0028453761212302452 0 -0.41447353423473648 0.029779072454126341 0 -0.39763065652730512 0.035878622733598868 0 -0.39053702219949282 0.02464507427690037 0 -0.41180661483227871 0.010575018814442829 0 -0.41447353423473648 0.029779072454126341 0 -0.39053702219949282 0.02464507427690037 0 -0.41447353423473648 0.029779072454126341 0 -0.39053702219949282 0.02464507427690037 0 -0.41180661483227871 0.010575018814442829 0 -0.39053702219949282 0.02464507427690037 0 -0.41180661483227871 0.010575018814442829 0 -0.39053702219949282 0.02464507427690037 0 -0.39082107056325588 0.012777634807952199 0 -0.40254463575280552 0.098457800212323837 0 -0.39175521923913598 0.1157223184650619 0 -0.38788420265804358 0.098915017544319708 0 -0.39175521923913598 0.1157223184650619 0 -0.40887098363847019 0.11876242598672899 0 -0.39532921157378031 0.12931411879157889 0 -0.40254463575280552 0.098457800212323837 0 -0.39175521923913598 0.1157223184650619 0 -0.40887098363847019 0.11876242598672899 0 -0.39175521923913598 0.1157223184650619 0 -0.37601753401187132 0.116715219269239 0 -0.37845434288240137 0.13251974432475269 0 -0.39175521923913598 0.1157223184650619 0 -0.37601753401187132 0.116715219269239 0 -0.38788420265804358 0.098915017544319708 0 -0.38788420265804358 0.098915017544319708 0 -0.3746020057944815 0.087596130447960774 0 -0.36325337171825822 0.098996912408396323 0 -0.38788420265804358 0.098915017544319708 0 -0.36325337171825822 0.098996912408396323 0 -0.37601753401187132 0.116715219269239 0 -0.38788420265804358 0.098915017544319708 0 -0.36723296685326512 0.10864251765499409 0 -0.38788420265804358 0.098915017544319708 0 -0.38879885031639178 0.081385387056198591 0 -0.3746020057944815 0.087596130447960774 0 -0.38879885031639178 0.081385387056198591 0 -0.37772583106712621 0.074416191705615795 0 -0.3746020057944815 0.087596130447960774 0 -0.37772583106712621 0.074416191705615795 0 -0.38754766634130128 0.06577252402481279 0 -0.37168045804913091 0.060279687372564471 0 -0.38879885031639178 0.081385387056198591 0 -0.37772583106712621 0.074416191705615795 0 -0.38754766634130128 0.06577252402481279 0 -0.40029660633422021 0.058941086423214162 0 -0.38754766634130128 0.06577252402481279 0 -0.39844451477495979 0.071352464151794359 0 -0.38879885031639178 0.081385387056198591 0 -0.38754766634130128 0.06577252402481279 0 -0.39844451477495979 0.071352464151794359 0 -0.39844451477495979 0.071352464151794359 0 -0.40444957426927031 0.082003281162926489 0 -0.41112987661361522 0.068660042091819806 0 -0.40029660633422021 0.058941086423214162 0 -0.39844451477495979 0.071352464151794359 0 -0.41112987661361522 0.068660042091819806 0 -0.40254463575280552 0.098457800212323837 0 -0.38788420265804358 0.098915017544319708 0 -0.38879885031639178 0.081385387056198591 0 -0.38879885031639178 0.081385387056198591 0 -0.39844451477495979 0.071352464151794359 0 -0.40444957426927031 0.082003281162926489 0 -0.40254463575280552 0.098457800212323837 0 -0.38879885031639178 0.081385387056198591 0 -0.40444957426927031 0.082003281162926489 0 -0.40444957426927031 0.082003281162926489 0 -0.41815679636458042 0.0797211254962331 0 -0.41854122733938548 0.097625117161518352 0 -0.40254463575280552 0.098457800212323837 0 -0.40444957426927031 0.082003281162926489 0 -0.41854122733938548 0.097625117161518352 0 -0.40444957426927031 0.082003281162926489 0 -0.41815679636458042 0.0797211254962331 0 -0.41112987661361522 0.068660042091819806 0 -0.41815679636458042 0.0797211254962331 0 -0.41112987661361522 0.068660042091819806 0 -0.42389864331828342 0.067599117064112313 0 -0.42168327124360222 0.05317930703723997 0 -0.41112987661361522 0.068660042091819806 0 -0.42389864331828342 0.067599117064112313 0 -0.41815679636458042 0.0797211254962331 0 -0.42389864331828342 0.067599117064112313 0 -0.43045918273786032 0.084039276426633391 0 -0.44573732888724099 0.055548170262953597 0 -0.42389864331828342 0.067599117064112313 0 -0.43997921966939663 0.06941981447585531 0 -0.42389864331828342 0.067599117064112313 0 -0.43045918273786032 0.084039276426633391 0 -0.43997921966939663 0.06941981447585531 0 -0.41815679636458042 0.0797211254962331 0 -0.43045918273786032 0.084039276426633391 0 -0.41854122733938548 0.097625117161518352 0 -0.41854122733938548 0.097625117161518352 0 -0.42722993558449163 0.1176358238683809 0 -0.43873935854193907 0.099761594496780834 0 -0.43045918273786032 0.084039276426633391 0 -0.41854122733938548 0.097625117161518352 0 -0.43873935854193907 0.099761594496780834 0 -0.40254463575280552 0.098457800212323837 0 -0.41854122733938548 0.097625117161518352 0 -0.40887098363847019 0.11876242598672899 0 -0.41854122733938548 0.097625117161518352 0 -0.40887098363847019 0.11876242598672899 0 -0.42722993558449163 0.1176358238683809 0 -0.40887098363847019 0.11876242598672899 0 -0.42722993558449163 0.1176358238683809 0 -0.41897288526208759 0.13477796538352049 0 -0.42722993558449163 0.1176358238683809 0 -0.44263455277631653 0.118809970050044 0 -0.43593169035091361 0.13333466155007939 0 -0.42722993558449163 0.1176358238683809 0 -0.44263455277631653 0.118809970050044 0 -0.43873935854193907 0.099761594496780834 0 -0.44263455277631653 0.118809970050044 0 -0.45523236153314811 0.10768074327416211 0 -0.45699331794486908 0.12898893138273301 0 -0.44263455277631653 0.118809970050044 0 -0.43873935854193907 0.099761594496780834 0 -0.45523236153314811 0.10768074327416211 0 -0.43873935854193907 0.099761594496780834 0 -0.45523236153314811 0.10768074327416211 0 -0.45647730118804247 0.088959095686724832 0 -0.45523236153314811 0.10768074327416211 0 -0.45647730118804247 0.088959095686724832 0 -0.4798087862159347 0.09498868083136465 0 -0.45523236153314811 0.10768074327416211 0 -0.47176072174364547 0.1128711351857918 0 -0.45699331794486908 0.12898893138273301 0 -0.44573732888724099 0.055548170262953597 0 -0.45290508198772511 0.063632325917337307 0 -0.43997921966939663 0.06941981447585531 0 -0.45290508198772511 0.063632325917337307 0 -0.43997921966939663 0.06941981447585531 0 -0.4540967248814039 0.074300561076508093 0 -0.43997921966939663 0.06941981447585531 0 -0.44340193349517959 0.082302483670374071 0 -0.4540967248814039 0.074300561076508093 0 -0.43873935854193907 0.099761594496780834 0 -0.44340193349517959 0.082302483670374071 0 -0.45647730118804247 0.088959095686724832 0 -0.43045918273786032 0.084039276426633391 0 -0.43873935854193907 0.099761594496780834 0 -0.44340193349517959 0.082302483670374071 0 -0.44340193349517959 0.082302483670374071 0 -0.45647730118804247 0.088959095686724832 0 -0.4540967248814039 0.074300561076508093 0 -0.43045918273786032 0.084039276426633391 0 -0.43997921966939663 0.06941981447585531 0 -0.44340193349517959 0.082302483670374071 0 -0.45647730118804247 0.088959095686724832 0 -0.4540967248814039 0.074300561076508093 0 -0.47134761734666591 0.077961408293819381 0 -0.4540967248814039 0.074300561076508093 0 -0.46190875217632338 0.066555021049130331 0 -0.47134761734666591 0.077961408293819381 0 -0.47037431297571408 0.057997067956390681 0 -0.46190875217632338 0.066555021049130331 0 -0.47134761734666591 0.077961408293819381 0 -0.46082002369010788 0.058883742001596157 0 -0.45290508198772511 0.063632325917337307 0 -0.46190875217632338 0.066555021049130331 0 -0.45290508198772511 0.063632325917337307 0 -0.4540967248814039 0.074300561076508093 0 -0.46190875217632338 0.066555021049130331 0 -0.47037431297571408 0.057997067956390681 0 -0.48356366956929131 0.061786461627851508 0 -0.47134761734666591 0.077961408293819381 0 -0.47134761734666591 0.077961408293819381 0 -0.5 0.075080804902906417 0 -0.4798087862159347 0.09498868083136465 0 -0.45647730118804247 0.088959095686724832 0 -0.47134761734666591 0.077961408293819381 0 -0.4798087862159347 0.09498868083136465 0 -0.5 0.075080804902906417 0 -0.4798087862159347 0.09498868083136465 0 -0.5 0.1020384812629284 0 -0.48356366956929131 0.061786461627851508 0 -0.47134761734666591 0.077961408293819381 0 -0.5 0.075080804902906417 0 -0.47176072174364547 0.1128711351857918 0 -0.5 0.1020384812629284 0 -0.48081024146865781 0.12981279762272749 0 -0.47176072174364547 0.1128711351857918 0 -0.48081024146865781 0.12981279762272749 0 -0.45699331794486908 0.12898893138273301 0 -0.45523236153314811 0.10768074327416211 0 -0.47176072174364547 0.1128711351857918 0 -0.4798087862159347 0.09498868083136465 0 -0.47176072174364547 0.1128711351857918 0 -0.4798087862159347 0.09498868083136465 0 -0.5 0.1020384812629284 0 -0.5 0.1020384812629284 0 -0.5 0.12899615762295061 0 -0.48081024146865781 0.12981279762272749 0 -0.5 0.12899615762295061 0 -0.48081024146865781 0.12981279762272749 0 -0.5 0.15595383398297269 0 -0.48081024146865781 0.12981279762272749 0 -0.46983361506922111 0.14557437769160569 0 -0.45699331794486908 0.12898893138273301 0 -0.48081024146865781 0.12981279762272749 0 -0.46983361506922111 0.14557437769160569 0 -0.5 0.15595383398297269 0 -0.5 0.15595383398297269 0 -0.5 0.18291151034299469 0 -0.48142685357775261 0.1679860291847754 0 -0.5 0.18291151034299469 0 -0.47492133697621802 0.18505482111261831 0 -0.48142685357775261 0.1679860291847754 0 -0.47492133697621802 0.18505482111261831 0 -0.48142685357775261 0.1679860291847754 0 -0.46237931584332359 0.17043560279368561 0 -0.46983361506922111 0.14557437769160569 0 -0.5 0.15595383398297269 0 -0.48142685357775261 0.1679860291847754 0 -0.46983361506922111 0.14557437769160569 0 -0.48142685357775261 0.1679860291847754 0 -0.46237931584332359 0.17043560279368561 0 -0.47492133697621802 0.18505482111261831 0 -0.46237931584332359 0.17043560279368561 0 -0.45814870392953888 0.18880957022697811 0 -0.46237931584332359 0.17043560279368561 0 -0.44590244344522662 0.17858237893163401 0 -0.45814870392953888 0.18880957022697811 0 -0.46237931584332359 0.17043560279368561 0 -0.44590244344522662 0.17858237893163401 0 -0.44306112707434397 0.15209562572310709 0 -0.44590244344522662 0.17858237893163401 0 -0.44306112707434397 0.15209562572310709 0 -0.4318750961994553 0.17231789286099339 0 -0.44263455277631653 0.118809970050044 0 -0.45699331794486908 0.12898893138273301 0 -0.43593169035091361 0.13333466155007939 0 -0.44306112707434397 0.15209562572310709 0 -0.45699331794486908 0.12898893138273301 0 -0.43593169035091361 0.13333466155007939 0 -0.46983361506922111 0.14557437769160569 0 -0.44306112707434397 0.15209562572310709 0 -0.45699331794486908 0.12898893138273301 0 -0.46983361506922111 0.14557437769160569 0 -0.44306112707434397 0.15209562572310709 0 -0.46983361506922111 0.14557437769160569 0 -0.46237931584332359 0.17043560279368561 0 -0.44306112707434397 0.15209562572310709 0 -0.47666507949983772 0.24712926986393871 0 -0.47491043577252517 0.23306186836093881 0 -0.45869269992033701 0.2454907164656363 0 -0.47666507949983772 0.24712926986393871 0 -0.48833253974991808 0.22849922828347749 0 -0.47666507949983772 0.24712926986393871 0 -0.48833253974991808 0.22849922828347749 0 -0.47491043577252517 0.23306186836093881 0 -0.48973327060558891 0.24541041571415079 0 -0.5 0.23419590105265931 0 -0.48833253974991808 0.22849922828347749 0 -0.48973327060558891 0.24541041571415079 0 -0.5 0.23419590105265931 0 -0.5 0.25852261540230181 0 -0.47666507949983772 0.24712926986393871 0 -0.48973327060558891 0.24541041571415079 0 -0.48833253974991808 0.22849922828347749 0 -0.5 0.23419590105265931 0 -0.48833253974991808 0.22849922828347749 0 -0.49999999999999911 0.2098691867030168 0 -0.48833253974991808 0.22849922828347749 0 -0.49999999999999911 0.2098691867030168 0 -0.48833253974991808 0.22849922828347749 0 -0.47491043577252517 0.23306186836093881 0 -0.48324590632198178 0.2174878233902133 0 -0.47491043577252517 0.23306186836093881 0 -0.47192074773780401 0.21915630904530731 0 -0.48324590632198178 0.2174878233902133 0 -0.47491043577252517 0.23306186836093881 0 -0.47192074773780401 0.21915630904530731 0 -0.46118643679214338 0.22905858297128659 0 -0.4819654807286825 0.20475219343159479 0 -0.46617694250367309 0.19996108127887671 0 -0.46658912531140811 0.21094274297023319 0 -0.47192074773780401 0.21915630904530731 0 -0.4819654807286825 0.20475219343159479 0 -0.46658912531140811 0.21094274297023319 0 -0.47192074773780401 0.21915630904530731 0 -0.4819654807286825 0.20475219343159479 0 -0.48324590632198178 0.2174878233902133 0 -0.4819654807286825 0.20475219343159479 0 -0.48324590632198178 0.2174878233902133 0 -0.49999999999999911 0.2098691867030168 0 -0.48833253974991808 0.22849922828347749 0 -0.48324590632198178 0.2174878233902133 0 -0.49999999999999911 0.2098691867030168 0 -0.5 0.18291151034299469 0 -0.47492133697621802 0.18505482111261831 0 -0.4819654807286825 0.20475219343159479 0 -0.5 0.18291151034299469 0 -0.4819654807286825 0.20475219343159479 0 -0.49999999999999911 0.2098691867030168 0 -0.47492133697621802 0.18505482111261831 0 -0.4819654807286825 0.20475219343159479 0 -0.46617694250367309 0.19996108127887671 0 -0.47492133697621802 0.18505482111261831 0 -0.46617694250367309 0.19996108127887671 0 -0.45814870392953888 0.18880957022697811 0 -0.46617694250367309 0.19996108127887671 0 -0.45440775479236051 0.20099716743183779 0 -0.45814870392953888 0.18880957022697811 0 -0.44590244344522662 0.17858237893163401 0 -0.45814870392953888 0.18880957022697811 0 -0.44569587415236639 0.19612395260567411 0 -0.45440775479236051 0.20099716743183779 0 -0.45814870392953888 0.18880957022697811 0 -0.44569587415236639 0.19612395260567411 0 -0.44590244344522662 0.17858237893163401 0 -0.44569587415236639 0.19612395260567411 0 -0.43425454347233161 0.19171162937936601 0 -0.44569587415236639 0.19612395260567411 0 -0.43730516543297931 0.2040989196736496 0 -0.43425454347233161 0.19171162937936601 0 -0.45440775479236051 0.20099716743183779 0 -0.44569587415236639 0.19612395260567411 0 -0.4450424543980519 0.20969800072662231 0 -0.45440775479236051 0.20099716743183779 0 -0.4450424543980519 0.20969800072662231 0 -0.45697479897817211 0.21039323232103771 0 -0.44569587415236639 0.19612395260567411 0 -0.4450424543980519 0.20969800072662231 0 -0.43730516543297931 0.2040989196736496 0 -0.4450424543980519 0.20969800072662231 0 -0.43763885852712481 0.21132102963382621 0 -0.43730516543297931 0.2040989196736496 0 -0.4450424543980519 0.20969800072662231 0 -0.45131939237613627 0.22093007473364609 0 -0.4378484643519131 0.2212248929024625 0 -0.4450424543980519 0.20969800072662231 0 -0.43763885852712481 0.21132102963382621 0 -0.4378484643519131 0.2212248929024625 0 -0.4450424543980519 0.20969800072662231 0 -0.45697479897817211 0.21039323232103771 0 -0.45131939237613627 0.22093007473364609 0 -0.45697479897817211 0.21039323232103771 0 -0.46153476602251359 0.2185872082940184 0 -0.45131939237613627 0.22093007473364609 0 -0.46617694250367309 0.19996108127887671 0 -0.45440775479236051 0.20099716743183779 0 -0.45697479897817211 0.21039323232103771 0 -0.46617694250367309 0.19996108127887671 0 -0.45697479897817211 0.21039323232103771 0 -0.46658912531140811 0.21094274297023319 0 -0.47192074773780401 0.21915630904530731 0 -0.46658912531140811 0.21094274297023319 0 -0.46153476602251359 0.2185872082940184 0 -0.45697479897817211 0.21039323232103771 0 -0.46658912531140811 0.21094274297023319 0 -0.46153476602251359 0.2185872082940184 0 -0.47192074773780401 0.21915630904530731 0 -0.46153476602251359 0.2185872082940184 0 -0.46118643679214338 0.22905858297128659 0 -0.46153476602251359 0.2185872082940184 0 -0.46118643679214338 0.22905858297128659 0 -0.45131939237613627 0.22093007473364609 0 -0.45131939237613627 0.22093007473364609 0 -0.4378484643519131 0.2212248929024625 0 -0.44509860303711668 0.23682630912991179 0 -0.46118643679214338 0.22905858297128659 0 -0.45131939237613627 0.22093007473364609 0 -0.44509860303711668 0.23682630912991179 0 -0.44509860303711668 0.23682630912991179 0 -0.44660469059469471 0.25965661874610269 0 -0.43170989768545909 0.25242895599527643 0 -0.44509860303711668 0.23682630912991179 0 -0.45869269992033701 0.2454907164656363 0 -0.44660469059469471 0.25965661874610269 0 -0.47666507949983772 0.24712926986393871 0 -0.45869269992033701 0.2454907164656363 0 -0.45772611576708028 0.25690631830856803 0 -0.47491043577252517 0.23306186836093881 0 -0.46118643679214338 0.22905858297128659 0 -0.45869269992033701 0.2454907164656363 0 -0.46118643679214338 0.22905858297128659 0 -0.44509860303711668 0.23682630912991179 0 -0.45869269992033701 0.2454907164656363 0 -0.41378803534302749 0.24595098164021981 0 -0.42890311410186438 0.23103539096398351 0 -0.40924720734505587 0.22715629573020241 0 -0.41378803534302749 0.24595098164021981 0 -0.40924720734505587 0.22715629573020241 0 -0.39731803899692769 0.24172070240330479 0 -0.41378803534302749 0.24595098164021981 0 -0.42890311410186438 0.23103539096398351 0 -0.43170989768545909 0.25242895599527643 0 -0.42890311410186438 0.23103539096398351 0 -0.43170989768545909 0.25242895599527643 0 -0.44509860303711668 0.23682630912991179 0 -0.42890311410186438 0.23103539096398351 0 -0.43170989768545909 0.25242895599527643 0 -0.42890311410186438 0.23103539096398351 0 -0.42609633051826928 0.2096418259326906 0 -0.4378484643519131 0.2212248929024625 0 -0.42890311410186438 0.23103539096398351 0 -0.43035934992555519 0.21026230523257031 0 -0.4378484643519131 0.2212248929024625 0 -0.44509860303711668 0.23682630912991179 0 -0.42890311410186438 0.23103539096398351 0 -0.42890311410186438 0.23103539096398351 0 -0.40924720734505587 0.22715629573020241 0 -0.42609633051826928 0.2096418259326906 0 -0.42609633051826928 0.2096418259326906 0 -0.39930413299849671 0.20574224153697901 0 -0.42609633051826928 0.2096418259326906 0 -0.41149871946609162 0.1966049945315127 0 -0.39930413299849671 0.20574224153697901 0 -0.40924720734505587 0.22715629573020241 0 -0.42609633051826928 0.2096418259326906 0 -0.39930413299849671 0.20574224153697901 0 -0.42890311410186438 0.23103539096398351 0 -0.43035934992555519 0.21026230523257031 0 -0.42609633051826928 0.2096418259326906 0 -0.43763885852712481 0.21132102963382621 0 -0.4378484643519131 0.2212248929024625 0 -0.43035934992555519 0.21026230523257031 0 -0.43763885852712481 0.21132102963382621 0 -0.43730516543297931 0.2040989196736496 0 -0.43035934992555519 0.21026230523257031 0 -0.43730516543297931 0.2040989196736496 0 -0.43035934992555519 0.21026230523257031 0 -0.43053332317220649 0.202753266796874 0 -0.43035934992555519 0.21026230523257031 0 -0.42609633051826928 0.2096418259326906 0 -0.43035934992555519 0.21026230523257031 0 -0.42609633051826928 0.2096418259326906 0 -0.43053332317220649 0.202753266796874 0 -0.42609633051826928 0.2096418259326906 0 -0.42428092083719898 0.19580460481688139 0 -0.42428092083719898 0.19580460481688139 0 -0.43425454347233161 0.19171162937936601 0 -0.41929036413110737 0.17908612183764211 0 -0.42609633051826928 0.2096418259326906 0 -0.42428092083719898 0.19580460481688139 0 -0.43053332317220649 0.202753266796874 0 -0.42428092083719898 0.19580460481688139 0 -0.43053332317220649 0.202753266796874 0 -0.43425454347233161 0.19171162937936601 0 -0.43730516543297931 0.2040989196736496 0 -0.43053332317220649 0.202753266796874 0 -0.43425454347233161 0.19171162937936601 0 -0.42428092083719898 0.19580460481688139 0 -0.41149871946609162 0.1966049945315127 0 -0.41177461642607899 0.18654307708805101 0 -0.41149871946609162 0.1966049945315127 0 -0.41177461642607899 0.18654307708805101 0 -0.39603759655041387 0.18529322328296169 0 -0.42609633051826928 0.2096418259326906 0 -0.42428092083719898 0.19580460481688139 0 -0.41149871946609162 0.1966049945315127 0 -0.38549601468059819 0.1907872554417169 0 -0.39930413299849671 0.20574224153697901 0 -0.39603759655041387 0.18529322328296169 0 -0.41149871946609162 0.1966049945315127 0 -0.39930413299849671 0.20574224153697901 0 -0.39603759655041387 0.18529322328296169 0 -0.38549601468059819 0.1907872554417169 0 -0.37338564085259429 0.18285798082617191 0 -0.37251193547872408 0.20184265714126609 0 -0.38549601468059819 0.1907872554417169 0 -0.39930413299849671 0.20574224153697901 0 -0.37251193547872408 0.20184265714126609 0 -0.39930413299849671 0.20574224153697901 0 -0.37251193547872408 0.20184265714126609 0 -0.39930413299849671 0.20574224153697901 0 -0.38937174359497179 0.22758088418537931 0 -0.37166410858853971 0.22078732866142481 0 -0.39930413299849671 0.20574224153697901 0 -0.37166410858853971 0.22078732866142481 0 -0.37251193547872408 0.20184265714126609 0 -0.40924720734505587 0.22715629573020241 0 -0.38937174359497179 0.22758088418537931 0 -0.39731803899692769 0.24172070240330479 0 -0.40924720734505587 0.22715629573020241 0 -0.39930413299849671 0.20574224153697901 0 -0.38937174359497179 0.22758088418537931 0 -0.38937174359497179 0.22758088418537931 0 -0.3720116894000754 0.24743174335923901 0 -0.37166410858853971 0.22078732866142481 0 -0.38937174359497179 0.22758088418537931 0 -0.39731803899692769 0.24172070240330479 0 -0.3720116894000754 0.24743174335923901 0 -0.39731803899692769 0.24172070240330479 0 -0.3720116894000754 0.24743174335923901 0 -0.39886412305494368 0.25911133573067291 0 -0.41378803534302749 0.24595098164021981 0 -0.39731803899692769 0.24172070240330479 0 -0.39886412305494368 0.25911133573067291 0 -0.41223705508813818 0.14757289739499699 0 -0.41897288526208759 0.13477796538352049 0 -0.42529827937099007 0.1452796047612625 0 -0.41223705508813818 0.14757289739499699 0 -0.42529827937099007 0.1452796047612625 0 -0.41628863907946689 0.15861687375460859 0 -0.40677176330347081 0.15404137753178951 0 -0.41223705508813818 0.14757289739499699 0 -0.41628863907946689 0.15861687375460859 0 -0.40677176330347081 0.15404137753178951 0 -0.41223705508813818 0.14757289739499699 0 -0.39997312584296391 0.14985160561631339 0 -0.41223705508813818 0.14757289739499699 0 -0.41897288526208759 0.13477796538352049 0 -0.40448930916618392 0.1371084091057089 0 -0.40887098363847019 0.11876242598672899 0 -0.41897288526208759 0.13477796538352049 0 -0.40448930916618392 0.1371084091057089 0 -0.42722993558449163 0.1176358238683809 0 -0.41897288526208759 0.13477796538352049 0 -0.43593169035091361 0.13333466155007939 0 -0.41897288526208759 0.13477796538352049 0 -0.43593169035091361 0.13333466155007939 0 -0.42529827937099007 0.1452796047612625 0 -0.44306112707434397 0.15209562572310709 0 -0.42529827937099007 0.1452796047612625 0 -0.41628863907946689 0.15861687375460859 0 -0.44306112707434397 0.15209562572310709 0 -0.41628863907946689 0.15861687375460859 0 -0.44306112707434397 0.15209562572310709 0 -0.43593169035091361 0.13333466155007939 0 -0.42529827937099007 0.1452796047612625 0 -0.44306112707434397 0.15209562572310709 0 -0.4318750961994553 0.17231789286099339 0 -0.41628863907946689 0.15861687375460859 0 -0.4318750961994553 0.17231789286099339 0 -0.41929036413110737 0.17908612183764211 0 -0.41628863907946689 0.15861687375460859 0 -0.43425454347233161 0.19171162937936601 0 -0.4318750961994553 0.17231789286099339 0 -0.41929036413110737 0.17908612183764211 0 -0.44590244344522662 0.17858237893163401 0 -0.43425454347233161 0.19171162937936601 0 -0.4318750961994553 0.17231789286099339 0 -0.42428092083719898 0.19580460481688139 0 -0.41929036413110737 0.17908612183764211 0 -0.41177461642607899 0.18654307708805101 0 -0.41929036413110737 0.17908612183764211 0 -0.41011242653296742 0.17010336584841049 0 -0.4049804943997668 0.17889299829999741 0 -0.41929036413110737 0.17908612183764211 0 -0.41177461642607899 0.18654307708805101 0 -0.4049804943997668 0.17889299829999741 0 -0.40677176330347081 0.15404137753178951 0 -0.41628863907946689 0.15861687375460859 0 -0.40052174023346149 0.15661080919067441 0 -0.41929036413110737 0.17908612183764211 0 -0.41628863907946689 0.15861687375460859 0 -0.41011242653296742 0.17010336584841049 0 -0.41011242653296742 0.17010336584841049 0 -0.38951615108458992 0.16513812178611001 0 -0.41011242653296742 0.17010336584841049 0 -0.39867894226148731 0.17363685461656081 0 -0.38951615108458992 0.16513812178611001 0 -0.41628863907946689 0.15861687375460859 0 -0.38951615108458992 0.16513812178611001 0 -0.41628863907946689 0.15861687375460859 0 -0.40052174023346149 0.15661080919067441 0 -0.38951615108458992 0.16513812178611001 0 -0.41628863907946689 0.15861687375460859 0 -0.41011242653296742 0.17010336584841049 0 -0.38951615108458992 0.16513812178611001 0 -0.39867894226148731 0.17363685461656081 0 -0.39080875583250302 0.17332278261272421 0 -0.38951615108458992 0.16513812178611001 0 -0.40052174023346149 0.15661080919067441 0 -0.38951615108458992 0.16513812178611001 0 -0.38830077546779118 0.1536704456849908 0 -0.41177461642607899 0.18654307708805101 0 -0.4049804943997668 0.17889299829999741 0 -0.39603759655041387 0.18529322328296169 0 -0.4049804943997668 0.17889299829999741 0 -0.3946830464235056 0.1782738468816297 0 -0.39603759655041387 0.18529322328296169 0 -0.4049804943997668 0.17889299829999741 0 -0.39867894226148731 0.17363685461656081 0 -0.3946830464235056 0.1782738468816297 0 -0.41011242653296742 0.17010336584841049 0 -0.4049804943997668 0.17889299829999741 0 -0.39867894226148731 0.17363685461656081 0 -0.39867894226148731 0.17363685461656081 0 -0.3946830464235056 0.1782738468816297 0 -0.39080875583250302 0.17332278261272421 0 -0.3946830464235056 0.1782738468816297 0 -0.39603759655041387 0.18529322328296169 0 -0.38624076752276199 0.1782001744212057 0 -0.38549601468059819 0.1907872554417169 0 -0.39603759655041387 0.18529322328296169 0 -0.38624076752276199 0.1782001744212057 0 -0.38624076752276199 0.1782001744212057 0 -0.38603697985341101 0.17124826071236399 0 -0.37849013480285199 0.16904339991492259 0 -0.3946830464235056 0.1782738468816297 0 -0.39080875583250302 0.17332278261272421 0 -0.38624076752276199 0.1782001744212057 0 -0.39080875583250302 0.17332278261272421 0 -0.38624076752276199 0.1782001744212057 0 -0.38603697985341101 0.17124826071236399 0 -0.38624076752276199 0.1782001744212057 0 -0.37849013480285199 0.16904339991492259 0 -0.37338564085259429 0.18285798082617191 0 -0.38549601468059819 0.1907872554417169 0 -0.38624076752276199 0.1782001744212057 0 -0.37338564085259429 0.18285798082617191 0 -0.38951615108458992 0.16513812178611001 0 -0.36971640409958889 0.16091848748094811 0 -0.38951615108458992 0.16513812178611001 0 -0.37849013480285199 0.16904339991492259 0 -0.36971640409958889 0.16091848748094811 0 -0.38951615108458992 0.16513812178611001 0 -0.38830077546779118 0.1536704456849908 0 -0.36971640409958889 0.16091848748094811 0 -0.38951615108458992 0.16513812178611001 0 -0.38603697985341101 0.17124826071236399 0 -0.37849013480285199 0.16904339991492259 0 -0.39080875583250302 0.17332278261272421 0 -0.38951615108458992 0.16513812178611001 0 -0.38603697985341101 0.17124826071236399 0 -0.37852463795447922 0.14713220857478421 0 -0.38830077546779118 0.1536704456849908 0 -0.36971640409958889 0.16091848748094811 0 -0.37852463795447922 0.14713220857478421 0 -0.38830077546779118 0.1536704456849908 0 -0.39155259359166372 0.14237144146111469 0 -0.37852463795447922 0.14713220857478421 0 -0.39155259359166372 0.14237144146111469 0 -0.37845434288240137 0.13251974432475269 0 -0.40052174023346149 0.15661080919067441 0 -0.38830077546779118 0.1536704456849908 0 -0.39997312584296391 0.14985160561631339 0 -0.38830077546779118 0.1536704456849908 0 -0.39155259359166372 0.14237144146111469 0 -0.39997312584296391 0.14985160561631339 0 -0.41223705508813818 0.14757289739499699 0 -0.39997312584296391 0.14985160561631339 0 -0.40448930916618392 0.1371084091057089 0 -0.39155259359166372 0.14237144146111469 0 -0.39997312584296391 0.14985160561631339 0 -0.40448930916618392 0.1371084091057089 0 -0.40677176330347081 0.15404137753178951 0 -0.40052174023346149 0.15661080919067441 0 -0.39997312584296391 0.14985160561631339 0 -0.40887098363847019 0.11876242598672899 0 -0.40448930916618392 0.1371084091057089 0 -0.39532921157378031 0.12931411879157889 0 -0.39155259359166372 0.14237144146111469 0 -0.40448930916618392 0.1371084091057089 0 -0.39532921157378031 0.12931411879157889 0 -0.39155259359166372 0.14237144146111469 0 -0.39532921157378031 0.12931411879157889 0 -0.37845434288240137 0.13251974432475269 0 -0.39175521923913598 0.1157223184650619 0 -0.39532921157378031 0.12931411879157889 0 -0.37845434288240137 0.13251974432475269 0 -0.37845434288240137 0.13251974432475269 0 -0.35466820515516961 0.12857559437590421 0 -0.36617639659490769 0.1450944166107212 0 -0.37601753401187132 0.116715219269239 0 -0.37845434288240137 0.13251974432475269 0 -0.35466820515516961 0.12857559437590421 0 -0.35466820515516961 0.12857559437590421 0 -0.33727731123945021 0.1325194740753749 0 -0.34224218672234608 0.14379925131531779 0 -0.35466820515516961 0.12857559437590421 0 -0.36617639659490769 0.1450944166107212 0 -0.34951839288289949 0.15632604829721691 0 -0.35466820515516961 0.12857559437590421 0 -0.34951839288289949 0.15632604829721691 0 -0.34224218672234608 0.14379925131531779 0 -0.35466820515516961 0.12857559437590421 0 -0.34951839288289949 0.15632604829721691 0 -0.37852463795447922 0.14713220857478421 0 -0.36617639659490769 0.1450944166107212 0 -0.36971640409958889 0.16091848748094811 0 -0.36617639659490769 0.1450944166107212 0 -0.36971640409958889 0.16091848748094811 0 -0.34951839288289949 0.15632604829721691 0 -0.37852463795447922 0.14713220857478421 0 -0.37845434288240137 0.13251974432475269 0 -0.36617639659490769 0.1450944166107212 0 -0.36971640409958889 0.16091848748094811 0 -0.3610380281014508 0.1727779744449067 0 -0.34951839288289949 0.15632604829721691 0 -0.37849013480285199 0.16904339991492259 0 -0.36971640409958889 0.16091848748094811 0 -0.3610380281014508 0.1727779744449067 0 -0.36971640409958889 0.16091848748094811 0 -0.34951839288289949 0.15632604829721691 0 -0.37849013480285199 0.16904339991492259 0 -0.37338564085259429 0.18285798082617191 0 -0.3610380281014508 0.1727779744449067 0 -0.37338564085259429 0.18285798082617191 0 -0.3610380281014508 0.1727779744449067 0 -0.35946891418229321 0.18755406662506999 0 -0.3610380281014508 0.1727779744449067 0 -0.34468922851974548 0.18234864796745201 0 -0.35946891418229321 0.18755406662506999 0 -0.34468922851974548 0.18234864796745201 0 -0.34951839288289949 0.15632604829721691 0 -0.34468922851974548 0.18234864796745201 0 -0.34951839288289949 0.15632604829721691 0 -0.33917319556955422 0.16651797110896269 0 -0.3610380281014508 0.1727779744449067 0 -0.34468922851974548 0.18234864796745201 0 -0.34951839288289949 0.15632604829721691 0 -0.32558182862100471 0.17393943705991879 0 -0.33690333225456698 0.15345775111126331 0 -0.32558182862100471 0.17393943705991879 0 -0.32192276183911278 0.15854694981209089 0 -0.33690333225456698 0.15345775111126331 0 -0.33917319556955422 0.16651797110896269 0 -0.32558182862100471 0.17393943705991879 0 -0.33690333225456698 0.15345775111126331 0 -0.34951839288289949 0.15632604829721691 0 -0.33917319556955422 0.16651797110896269 0 -0.33690333225456698 0.15345775111126331 0 -0.34468922851974548 0.18234864796745201 0 -0.32558182862100471 0.17393943705991879 0 -0.33143686549502899 0.1910556508901573 0 -0.34468922851974548 0.18234864796745201 0 -0.33917319556955422 0.16651797110896269 0 -0.32558182862100471 0.17393943705991879 0 -0.32558182862100471 0.17393943705991879 0 -0.31426032498744061 0.19442112300857339 0 -0.32558182862100471 0.17393943705991879 0 -0.33143686549502899 0.1910556508901573 0 -0.31426032498744061 0.19442112300857339 0 -0.32558182862100471 0.17393943705991879 0 -0.31426032498744061 0.19442112300857339 0 -0.30698350766289401 0.17701871782736359 0 -0.32558182862100471 0.17393943705991879 0 -0.32192276183911278 0.15854694981209089 0 -0.30876070940078981 0.16255175588823831 0 -0.32558182862100471 0.17393943705991879 0 -0.30876070940078981 0.16255175588823831 0 -0.30698350766289401 0.17701871782736359 0 -0.32192276183911278 0.15854694981209089 0 -0.31061547890589009 0.1474806592837816 0 -0.30876070940078981 0.16255175588823831 0 -0.32192276183911278 0.15854694981209089 0 -0.33690333225456698 0.15345775111126331 0 -0.31061547890589009 0.1474806592837816 0 -0.33690333225456698 0.15345775111126331 0 -0.31061547890589009 0.1474806592837816 0 -0.33690333225456698 0.15345775111126331 0 -0.32992928410100603 0.14160767656541479 0 -0.31061547890589009 0.1474806592837816 0 -0.32260811138277612 0.13078124704133659 0 -0.32992928410100603 0.14160767656541479 0 -0.31061547890589009 0.1474806592837816 0 -0.35466820515516961 0.12857559437590421 0 -0.33727731123945021 0.1325194740753749 0 -0.33608474512713049 0.1197287982259938 0 -0.32260811138277612 0.13078124704133659 0 -0.33727731123945021 0.1325194740753749 0 -0.32992928410100603 0.14160767656541479 0 -0.32260811138277612 0.13078124704133659 0 -0.33727731123945021 0.1325194740753749 0 -0.33608474512713049 0.1197287982259938 0 -0.33727731123945021 0.1325194740753749 0 -0.34224218672234608 0.14379925131531779 0 -0.32992928410100603 0.14160767656541479 0 -0.34224218672234608 0.14379925131531779 0 -0.33690333225456698 0.15345775111126331 0 -0.32992928410100603 0.14160767656541479 0 -0.34951839288289949 0.15632604829721691 0 -0.33690333225456698 0.15345775111126331 0 -0.34224218672234608 0.14379925131531779 0 -0.33690333225456698 0.15345775111126331 0 -0.34951839288289949 0.15632604829721691 0 -0.34224218672234608 0.14379925131531779 0 -0.33690333225456698 0.15345775111126331 0 -0.3720116894000754 0.24743174335923901 0 -0.35391202118646559 0.22994069642055351 0 -0.33530360316082458 0.24679204891918799 0 -0.3720116894000754 0.24743174335923901 0 -0.37166410858853971 0.22078732866142481 0 -0.35391202118646559 0.22994069642055351 0 -0.37166410858853971 0.22078732866142481 0 -0.35391202118646559 0.22994069642055351 0 -0.3475237019736187 0.21604374087365719 0 -0.35391202118646559 0.22994069642055351 0 -0.3475237019736187 0.21604374087365719 0 -0.33817318763339849 0.23105287439896069 0 -0.3475237019736187 0.21604374087365719 0 -0.37251193547872408 0.20184265714126609 0 -0.34571973795895161 0.19794307274555331 0 -0.37166410858853971 0.22078732866142481 0 -0.3475237019736187 0.21604374087365719 0 -0.37251193547872408 0.20184265714126609 0 -0.37338564085259429 0.18285798082617191 0 -0.37251193547872408 0.20184265714126609 0 -0.35946891418229321 0.18755406662506999 0 -0.37251193547872408 0.20184265714126609 0 -0.34571973795895161 0.19794307274555331 0 -0.37251193547872408 0.20184265714126609 0 -0.35946891418229321 0.18755406662506999 0 -0.34571973795895161 0.19794307274555331 0 -0.34468922851974548 0.18234864796745201 0 -0.35946891418229321 0.18755406662506999 0 -0.34571973795895161 0.19794307274555331 0 -0.34571973795895161 0.19794307274555331 0 -0.33143686549502899 0.1910556508901573 0 -0.32881321714940559 0.20669385714897701 0 -0.34468922851974548 0.18234864796745201 0 -0.34571973795895161 0.19794307274555331 0 -0.33143686549502899 0.1910556508901573 0 -0.33143686549502899 0.1910556508901573 0 -0.31426032498744061 0.19442112300857339 0 -0.32881321714940559 0.20669385714897701 0 -0.32881321714940559 0.20669385714897701 0 -0.32267909698323399 0.22471548979826211 0 -0.30293882135387751 0.2149028089572286 0 -0.31426032498744061 0.19442112300857339 0 -0.32881321714940559 0.20669385714897701 0 -0.30293882135387751 0.2149028089572286 0 -0.3475237019736187 0.21604374087365719 0 -0.32881321714940559 0.20669385714897701 0 -0.32267909698323399 0.22471548979826211 0 -0.3475237019736187 0.21604374087365719 0 -0.34571973795895161 0.19794307274555331 0 -0.32881321714940559 0.20669385714897701 0 -0.3475237019736187 0.21604374087365719 0 -0.33817318763339849 0.23105287439896069 0 -0.32267909698323399 0.22471548979826211 0 -0.33817318763339849 0.23105287439896069 0 -0.32267909698323399 0.22471548979826211 0 -0.33530360316082458 0.24679204891918799 0 -0.32267909698323399 0.22471548979826211 0 -0.30293882135387751 0.2149028089572286 0 -0.33530360316082458 0.24679204891918799 0 -0.31026200863687042 0.23965092843437941 0 -0.31458975536835199 0.26242518776222418 0 -0.32267909698323399 0.22471548979826211 0 -0.33530360316082458 0.24679204891918799 0 -0.31026200863687042 0.23965092843437941 0 -0.35391202118646559 0.22994069642055351 0 -0.33817318763339849 0.23105287439896069 0 -0.33530360316082458 0.24679204891918799 0 -0.29018391896017731 0.23797765074405569 0 -0.29384551260167402 0.25035171048263111 0 -0.27742901656647789 0.26105249253088308 0 -0.29018391896017731 0.23797765074405569 0 -0.276280438493267 0.24308762096875941 0 -0.27742901656647789 0.26105249253088308 0 -0.29018391896017731 0.23797765074405569 0 -0.27742901656647789 0.26105249253088308 0 -0.31026200863687042 0.23965092843437941 0 -0.30123656942269672 0.25940403457669048 0 -0.29384551260167402 0.25035171048263111 0 -0.31026200863687042 0.23965092843437941 0 -0.29384551260167402 0.25035171048263111 0 -0.29018391896017731 0.23797765074405569 0 -0.31026200863687042 0.23965092843437941 0 -0.29384551260167402 0.25035171048263111 0 -0.32267909698323399 0.22471548979826211 0 -0.31026200863687042 0.23965092843437941 0 -0.30293882135387751 0.2149028089572286 0 -0.29018391896017731 0.23797765074405569 0 -0.31026200863687042 0.23965092843437941 0 -0.30293882135387751 0.2149028089572286 0 -0.29018391896017731 0.23797765074405569 0 -0.30293882135387751 0.2149028089572286 0 -0.29018391896017731 0.23797765074405569 0 -0.28708106820593271 0.22131200300751261 0 -0.27342805438549572 0.2281442636771307 0 -0.29018391896017731 0.23797765074405569 0 -0.28708106820593271 0.22131200300751261 0 -0.30293882135387751 0.2149028089572286 0 -0.28708106820593271 0.22131200300751261 0 -0.30293882135387751 0.2149028089572286 0 -0.27688577987359447 0.20195211942359151 0 -0.30293882135387751 0.2149028089572286 0 -0.27688577987359447 0.20195211942359151 0 -0.31426032498744061 0.19442112300857339 0 -0.30293882135387751 0.2149028089572286 0 -0.31426032498744061 0.19442112300857339 0 -0.30293882135387751 0.2149028089572286 0 -0.2946085436840824 0.1882304630099691 0 -0.30293882135387751 0.2149028089572286 0 -0.2946085436840824 0.1882304630099691 0 -0.27688577987359447 0.20195211942359151 0 -0.2946085436840824 0.1882304630099691 0 -0.27688577987359447 0.20195211942359151 0 -0.27438575289766071 0.18079647116897421 0 -0.27688577987359447 0.20195211942359151 0 -0.25083273839331149 0.18900142988995439 0 -0.27438575289766071 0.18079647116897421 0 -0.27688577987359447 0.20195211942359151 0 -0.25083273839331149 0.18900142988995439 0 -0.27688577987359447 0.20195211942359151 0 -0.25083273839331149 0.18900142988995439 0 -0.25745122668553339 0.2170900574415493 0 -0.25083273839331149 0.18900142988995439 0 -0.25745122668553339 0.2170900574415493 0 -0.28708106820593271 0.22131200300751261 0 -0.27688577987359447 0.20195211942359151 0 -0.27342805438549572 0.2281442636771307 0 -0.27688577987359447 0.20195211942359151 0 -0.25745122668553339 0.2170900574415493 0 -0.27342805438549572 0.2281442636771307 0 -0.25745122668553339 0.2170900574415493 0 -0.27342805438549572 0.2281442636771307 0 -0.26408076406091679 0.24517607692296789 0 -0.25745122668553339 0.2170900574415493 0 -0.26408076406091679 0.24517607692296789 0 -0.24729232979450469 0.2396916628870277 0 -0.25745122668553339 0.2170900574415493 0 -0.26408076406091679 0.24517607692296789 0 -0.26408076406091679 0.24517607692296789 0 -0.25244996598307418 0.25641473194636027 0 -0.24729232979450469 0.2396916628870277 0 -0.26408076406091679 0.24517607692296789 0 -0.276280438493267 0.24308762096875941 0 -0.27742901656647789 0.26105249253088308 0 -0.27342805438549572 0.2281442636771307 0 -0.26408076406091679 0.24517607692296789 0 -0.276280438493267 0.24308762096875941 0 -0.29018391896017731 0.23797765074405569 0 -0.27342805438549572 0.2281442636771307 0 -0.276280438493267 0.24308762096875941 0 -0.29597207577559248 0.15453536538533769 0 -0.28445043339291748 0.15519003412824869 0 -0.28432762555721303 0.14150356745630141 0 -0.28432762555721303 0.14150356745630141 0 -0.2813613069434896 0.13068390486023601 0 -0.30242593063096712 0.12736198072835961 0 -0.2813613069434896 0.13068390486023601 0 -0.30242593063096712 0.12736198072835961 0 -0.28548695245100492 0.1196767030090156 0 -0.28432762555721303 0.14150356745630141 0 -0.30242593063096712 0.12736198072835961 0 -0.32260811138277612 0.13078124704133659 0 -0.30242593063096712 0.12736198072835961 0 -0.31061547890589009 0.1474806592837816 0 -0.28432762555721303 0.14150356745630141 0 -0.30242593063096712 0.12736198072835961 0 -0.31061547890589009 0.1474806592837816 0 -0.29597207577559248 0.15453536538533769 0 -0.28432762555721303 0.14150356745630141 0 -0.31061547890589009 0.1474806592837816 0 -0.28432762555721303 0.14150356745630141 0 -0.31061547890589009 0.1474806592837816 0 -0.29597207577559248 0.15453536538533769 0 -0.31061547890589009 0.1474806592837816 0 -0.30876070940078981 0.16255175588823831 0 -0.30876070940078981 0.16255175588823831 0 -0.30698350766289401 0.17701871782736359 0 -0.29186150877894401 0.16749467031953411 0 -0.29597207577559248 0.15453536538533769 0 -0.30876070940078981 0.16255175588823831 0 -0.29186150877894401 0.16749467031953411 0 -0.2946085436840824 0.1882304630099691 0 -0.30698350766289401 0.17701871782736359 0 -0.29186150877894401 0.16749467031953411 0 -0.31426032498744061 0.19442112300857339 0 -0.2946085436840824 0.1882304630099691 0 -0.30698350766289401 0.17701871782736359 0 -0.2946085436840824 0.1882304630099691 0 -0.29186150877894401 0.16749467031953411 0 -0.27438575289766071 0.18079647116897421 0 -0.28445043339291748 0.15519003412824869 0 -0.29186150877894401 0.16749467031953411 0 -0.27505909194795092 0.16477455484589049 0 -0.29597207577559248 0.15453536538533769 0 -0.28445043339291748 0.15519003412824869 0 -0.29186150877894401 0.16749467031953411 0 -0.29186150877894401 0.16749467031953411 0 -0.27505909194795092 0.16477455484589049 0 -0.27438575289766071 0.18079647116897421 0 -0.28445043339291748 0.15519003412824869 0 -0.27505909194795092 0.16477455484589049 0 -0.27222620930601038 0.15095932736033421 0 -0.27505909194795092 0.16477455484589049 0 -0.2601247930548069 0.16041508726436601 0 -0.27222620930601038 0.15095932736033421 0 -0.27505909194795092 0.16477455484589049 0 -0.27438575289766071 0.18079647116897421 0 -0.25924872539795052 0.17370220378464979 0 -0.25083273839331149 0.18900142988995439 0 -0.25924872539795052 0.17370220378464979 0 -0.24537043529135269 0.16590981314459491 0 -0.25083273839331149 0.18900142988995439 0 -0.27438575289766071 0.18079647116897421 0 -0.25924872539795052 0.17370220378464979 0 -0.27505909194795092 0.16477455484589049 0 -0.25924872539795052 0.17370220378464979 0 -0.2601247930548069 0.16041508726436601 0 -0.2601247930548069 0.16041508726436601 0 -0.25231996688782288 0.14999036497700921 0 -0.24537043529135269 0.16590981314459491 0 -0.25924872539795052 0.17370220378464979 0 -0.2601247930548069 0.16041508726436601 0 -0.24537043529135269 0.16590981314459491 0 -0.25231996688782288 0.14999036497700921 0 -0.25795352532852339 0.13942601678297431 0 -0.24905264270060931 0.14173952472264159 0 -0.25231996688782288 0.14999036497700921 0 -0.26161494398528867 0.14935410961329301 0 -0.25795352532852339 0.13942601678297431 0 -0.26161494398528867 0.14935410961329301 0 -0.26759655568744528 0.14259398990738911 0 -0.25795352532852339 0.13942601678297431 0 -0.2601247930548069 0.16041508726436601 0 -0.26161494398528867 0.14935410961329301 0 -0.27222620930601038 0.15095932736033421 0 -0.2601247930548069 0.16041508726436601 0 -0.25231996688782288 0.14999036497700921 0 -0.26161494398528867 0.14935410961329301 0 -0.2601247930548069 0.16041508726436601 0 -0.27222620930601038 0.15095932736033421 0 -0.27222620930601038 0.15095932736033421 0 -0.26759655568744528 0.14259398990738911 0 -0.27630190089529738 0.1396787515365645 0 -0.26161494398528867 0.14935410961329301 0 -0.27222620930601038 0.15095932736033421 0 -0.26759655568744528 0.14259398990738911 0 -0.28432762555721303 0.14150356745630141 0 -0.27222620930601038 0.15095932736033421 0 -0.27630190089529738 0.1396787515365645 0 -0.28432762555721303 0.14150356745630141 0 -0.27222620930601038 0.15095932736033421 0 -0.28445043339291748 0.15519003412824869 0 -0.28432762555721303 0.14150356745630141 0 -0.27222620930601038 0.15095932736033421 0 -0.28432762555721303 0.14150356745630141 0 -0.2813613069434896 0.13068390486023601 0 -0.27630190089529738 0.1396787515365645 0 -0.28432762555721303 0.14150356745630141 0 -0.27630190089529738 0.1396787515365645 0 -0.2813613069434896 0.13068390486023601 0 -0.27630190089529738 0.1396787515365645 0 -0.26836858418522108 0.13390737945290629 0 -0.26759655568744528 0.14259398990738911 0 -0.27630190089529738 0.1396787515365645 0 -0.26836858418522108 0.13390737945290629 0 -0.2813613069434896 0.13068390486023601 0 -0.26836858418522108 0.13390737945290629 0 -0.26973923320434851 0.1223306821873953 0 -0.26836858418522108 0.13390737945290629 0 -0.25725898305222278 0.12873093144287839 0 -0.26973923320434851 0.1223306821873953 0 -0.26836858418522108 0.13390737945290629 0 -0.25795352532852339 0.13942601678297431 0 -0.25725898305222278 0.12873093144287839 0 -0.26759655568744528 0.14259398990738911 0 -0.26836858418522108 0.13390737945290629 0 -0.25795352532852339 0.13942601678297431 0 -0.25795352532852339 0.13942601678297431 0 -0.25270287220698268 0.13457527676023789 0 -0.25725898305222278 0.12873093144287839 0 -0.25795352532852339 0.13942601678297431 0 -0.25270287220698268 0.13457527676023789 0 -0.24905264270060931 0.14173952472264159 0 -0.25270287220698268 0.13457527676023789 0 -0.25725898305222278 0.12873093144287839 0 -0.24654633774657539 0.1284046340924572 0 -0.25725898305222278 0.12873093144287839 0 -0.25478247939872278 0.1167748463476304 0 -0.24654633774657539 0.1284046340924572 0 -0.25478247939872278 0.1167748463476304 0 -0.26858589012350131 0.10518503894333051 0 -0.26973923320434851 0.1223306821873953 0 -0.25725898305222278 0.12873093144287839 0 -0.25478247939872278 0.1167748463476304 0 -0.26973923320434851 0.1223306821873953 0 -0.25089302828754872 0.1010279180716174 0 -0.26858589012350131 0.10518503894333051 0 -0.25902866719658019 0.081988633488699031 0 -0.25478247939872278 0.1167748463476304 0 -0.25089302828754872 0.1010279180716174 0 -0.26858589012350131 0.10518503894333051 0 -0.26858589012350131 0.10518503894333051 0 -0.28933469435669518 0.1058594113026354 0 -0.28327796807935962 0.091864893352038873 0 -0.26858589012350131 0.10518503894333051 0 -0.28548695245100492 0.1196767030090156 0 -0.28933469435669518 0.1058594113026354 0 -0.26858589012350131 0.10518503894333051 0 -0.26973923320434851 0.1223306821873953 0 -0.28548695245100492 0.1196767030090156 0 -0.2813613069434896 0.13068390486023601 0 -0.26973923320434851 0.1223306821873953 0 -0.28548695245100492 0.1196767030090156 0 -0.28548695245100492 0.1196767030090156 0 -0.28933469435669518 0.1058594113026354 0 -0.30544285958947609 0.1126888998819071 0 -0.28933469435669518 0.1058594113026354 0 -0.30325249461943948 0.099196408872258932 0 -0.28327796807935962 0.091864893352038873 0 -0.30325249461943948 0.099196408872258932 0 -0.32093751769895618 0.099137608072365921 0 -0.30325249461943948 0.099196408872258932 0 -0.30544285958947609 0.1126888998819071 0 -0.32093751769895618 0.099137608072365921 0 -0.28933469435669518 0.1058594113026354 0 -0.30325249461943948 0.099196408872258932 0 -0.30544285958947609 0.1126888998819071 0 -0.30242593063096712 0.12736198072835961 0 -0.30544285958947609 0.1126888998819071 0 -0.32052423570472022 0.1132203940004169 0 -0.30242593063096712 0.12736198072835961 0 -0.32052423570472022 0.1132203940004169 0 -0.30242593063096712 0.12736198072835961 0 -0.28548695245100492 0.1196767030090156 0 -0.30544285958947609 0.1126888998819071 0 -0.30204190813351861 0.07096244763702278 0 -0.31663254448226869 0.061797888446715112 0 -0.31432042747595912 0.082896052041514331 0 -0.30204190813351861 0.07096244763702278 0 -0.29708897653750133 0.085234956726407657 0 -0.31432042747595912 0.082896052041514331 0 -0.30325249461943948 0.099196408872258932 0 -0.29708897653750133 0.085234956726407657 0 -0.31432042747595912 0.082896052041514331 0 -0.29708897653750133 0.085234956726407657 0 -0.28327796807935962 0.091864893352038873 0 -0.28269782923849351 0.071205064005519916 0 -0.30325249461943948 0.099196408872258932 0 -0.29708897653750133 0.085234956726407657 0 -0.28327796807935962 0.091864893352038873 0 -0.30204190813351861 0.07096244763702278 0 -0.28269782923849351 0.071205064005519916 0 -0.29503877422782382 0.051625203891058541 0 -0.30204190813351861 0.07096244763702278 0 -0.29708897653750133 0.085234956726407657 0 -0.28269782923849351 0.071205064005519916 0 -0.28269782923849351 0.071205064005519916 0 -0.25902866719658019 0.081988633488699031 0 -0.26060190944484068 0.058063245326308729 0 -0.26858589012350131 0.10518503894333051 0 -0.28327796807935962 0.091864893352038873 0 -0.25902866719658019 0.081988633488699031 0 -0.28327796807935962 0.091864893352038873 0 -0.28269782923849351 0.071205064005519916 0 -0.25902866719658019 0.081988633488699031 0 -0.25902866719658019 0.081988633488699031 0 -0.26060190944484068 0.058063245326308729 0 -0.23586242867473051 0.060692165078337558 0 -0.26060190944484068 0.058063245326308729 0 -0.27120471497328419 0.036536585763639003 0 -0.24168281814766621 0.039692785129884181 0 -0.27120471497328419 0.036536585763639003 0 -0.24609087816622199 0.020100449583692271 0 -0.24168281814766621 0.039692785129884181 0 -0.27120471497328419 0.036536585763639003 0 -0.27738580697111059 0.054357524746631553 0 -0.29503877422782382 0.051625203891058541 0 -0.28269782923849351 0.071205064005519916 0 -0.26060190944484068 0.058063245326308729 0 -0.27738580697111059 0.054357524746631553 0 -0.26060190944484068 0.058063245326308729 0 -0.27120471497328419 0.036536585763639003 0 -0.27738580697111059 0.054357524746631553 0 -0.25087180007504312 -0.01274334459490695 0 -0.26103825752416371 0.01189662058436592 0 -0.2459253282718992 0.0032477469373470829 0 -0.25087180007504312 -0.01274334459490695 0 -0.26103825752416371 0.01189662058436592 0 -0.27339990125571778 0.0059396664209166641 0 -0.26103825752416371 0.01189662058436592 0 -0.24609087816622199 0.020100449583692271 0 -0.2459253282718992 0.0032477469373470829 0 -0.27120471497328419 0.036536585763639003 0 -0.26103825752416371 0.01189662058436592 0 -0.24609087816622199 0.020100449583692271 0 -0.27120471497328419 0.036536585763639003 0 -0.26103825752416371 0.01189662058436592 0 -0.27339990125571778 0.0059396664209166641 0 -0.27120471497328419 0.036536585763639003 0 -0.27339990125571778 0.0059396664209166641 0 -0.2959280024363925 0.024622677436740119 0 -0.27120471497328419 0.036536585763639003 0 -0.26103825752416371 0.01189662058436592 0 -0.2959280024363925 0.024622677436740119 0 -0.31178167793527611 0.0079382695773918301 0 -0.32729318532353763 0.0228357851248557 0 -0.27339990125571778 0.0059396664209166641 0 -0.2959280024363925 0.024622677436740119 0 -0.28859698124121203 -0.005712966606426703 0 -0.27339990125571778 0.0059396664209166641 0 -0.29426279159128288 0.0067237075994722303 0 -0.27339990125571778 0.0059396664209166641 0 -0.29426279159128288 0.0067237075994722303 0 -0.2959280024363925 0.024622677436740119 0 -0.29426279159128288 0.0067237075994722303 0 -0.2959280024363925 0.024622677436740119 0 -0.31178167793527611 0.0079382695773918301 0 -0.30221028477068612 -0.0038103016475589929 0 -0.29426279159128288 0.0067237075994722303 0 -0.31178167793527611 0.0079382695773918301 0 -0.28269782923849351 0.071205064005519916 0 -0.27738580697111059 0.054357524746631553 0 -0.29503877422782382 0.051625203891058541 0 -0.27120471497328419 0.036536585763639003 0 -0.2959280024363925 0.024622677436740119 0 -0.29503877422782382 0.051625203891058541 0 -0.2959280024363925 0.024622677436740119 0 -0.31845610361706739 0.043305688452563738 0 -0.2959280024363925 0.024622677436740119 0 -0.29503877422782382 0.051625203891058541 0 -0.31845610361706739 0.043305688452563738 0 -0.29503877422782382 0.051625203891058541 0 -0.31663254448226869 0.061797888446715112 0 -0.31845610361706739 0.043305688452563738 0 -0.30204190813351861 0.07096244763702278 0 -0.29503877422782382 0.051625203891058541 0 -0.31663254448226869 0.061797888446715112 0 -0.31663254448226869 0.061797888446715112 0 -0.31845610361706739 0.043305688452563738 0 -0.33450063915981981 0.057637004126334643 0 -0.31845610361706739 0.043305688452563738 0 -0.34073632946161009 0.039574160613670938 0 -0.32729318532353763 0.0228357851248557 0 -0.31845610361706739 0.043305688452563738 0 -0.34073632946161009 0.039574160613670938 0 -0.33450063915981981 0.057637004126334643 0 -0.34073632946161009 0.039574160613670938 0 -0.33450063915981981 0.057637004126334643 0 -0.35134978087263169 0.055322193678272881 0 -0.2959280024363925 0.024622677436740119 0 -0.31845610361706739 0.043305688452563738 0 -0.32729318532353763 0.0228357851248557 0 -0.31761660941157371 -0.0078205932402375875 0 -0.31178167793527611 0.0079382695773918301 0 -0.33224400803738457 0.0049137273549076056 0 -0.31178167793527611 0.0079382695773918301 0 -0.32729318532353763 0.0228357851248557 0 -0.33224400803738457 0.0049137273549076056 0 -0.34073632946161009 0.039574160613670938 0 -0.32729318532353763 0.0228357851248557 0 -0.34813099003098469 0.02020645555404784 0 -0.32729318532353763 0.0228357851248557 0 -0.33224400803738457 0.0049137273549076056 0 -0.34813099003098469 0.02020645555404784 0 -0.33224400803738457 0.0049137273549076056 0 -0.35532249334114191 0.0025662737979994018 0 -0.34813099003098469 0.02020645555404784 0 -0.35532249334114191 0.0025662737979994018 0 -0.34813099003098469 0.02020645555404784 0 -0.36738992771166951 0.018222951418625968 0 -0.34813099003098469 0.02020645555404784 0 -0.36738992771166951 0.018222951418625968 0 -0.36679936359739518 0.04034778089882541 0 -0.38500961446816351 0.023459533911800591 0 -0.36738992771166951 0.018222951418625968 0 -0.36679936359739518 0.04034778089882541 0 -0.36904092926483728 -0.0062125949297039051 0 -0.35532249334114191 0.0025662737979994018 0 -0.37316923238732841 0.0056715527261784349 0 -0.35532249334114191 0.0025662737979994018 0 -0.36738992771166951 0.018222951418625968 0 -0.37316923238732841 0.0056715527261784349 0 -0.37983156249558608 0.01427516127154336 0 -0.36738992771166951 0.018222951418625968 0 -0.37316923238732841 0.0056715527261784349 0 -0.33450063915981981 0.057637004126334643 0 -0.35134978087263169 0.055322193678272881 0 -0.34965849747437211 0.071700487739710564 0 -0.35134978087263169 0.055322193678272881 0 -0.37168045804913091 0.060279687372564471 0 -0.34965849747437211 0.071700487739710564 0 -0.34073632946161009 0.039574160613670938 0 -0.35134978087263169 0.055322193678272881 0 -0.36679936359739518 0.04034778089882541 0 -0.34073632946161009 0.039574160613670938 0 -0.34813099003098469 0.02020645555404784 0 -0.36679936359739518 0.04034778089882541 0 -0.35134978087263169 0.055322193678272881 0 -0.36679936359739518 0.04034778089882541 0 -0.37168045804913091 0.060279687372564471 0 -0.38450146938697238 0.041314545963899253 0 -0.36679936359739518 0.04034778089882541 0 -0.37168045804913091 0.060279687372564471 0 -0.37168045804913091 0.060279687372564471 0 -0.34965849747437211 0.071700487739710564 0 -0.36522865076586308 0.078289423385608764 0 -0.37772583106712621 0.074416191705615795 0 -0.37168045804913091 0.060279687372564471 0 -0.36522865076586308 0.078289423385608764 0 -0.34965849747437211 0.071700487739710564 0 -0.3519255957721682 0.088684115329041455 0 -0.33994265051610212 0.084381414082505379 0 -0.34965849747437211 0.071700487739710564 0 -0.3519255957721682 0.088684115329041455 0 -0.36522865076586308 0.078289423385608764 0 -0.3519255957721682 0.088684115329041455 0 -0.36522865076586308 0.078289423385608764 0 -0.3519255957721682 0.088684115329041455 0 -0.36246919018275708 0.089019572160462232 0 -0.35406767461291411 0.09394485179259339 0 -0.36246919018275708 0.089019572160462232 0 -0.3746020057944815 0.087596130447960774 0 -0.36325337171825822 0.098996912408396323 0 -0.3519255957721682 0.088684115329041455 0 -0.36246919018275708 0.089019572160462232 0 -0.36522865076586308 0.078289423385608764 0 -0.36246919018275708 0.089019572160462232 0 -0.36522865076586308 0.078289423385608764 0 -0.3746020057944815 0.087596130447960774 0 -0.37772583106712621 0.074416191705615795 0 -0.36522865076586308 0.078289423385608764 0 -0.3746020057944815 0.087596130447960774 0 -0.38788420265804358 0.098915017544319708 0 -0.36723296685326512 0.10864251765499409 0 -0.36325337171825822 0.098996912408396323 0 -0.36723296685326512 0.10864251765499409 0 -0.36325337171825822 0.098996912408396323 0 -0.3598180174274398 0.10082514045459159 0 -0.36246919018275708 0.089019572160462232 0 -0.36325337171825822 0.098996912408396323 0 -0.35406767461291411 0.09394485179259339 0 -0.37601753401187132 0.116715219269239 0 -0.35466820515516961 0.12857559437590421 0 -0.36723296685326512 0.10864251765499409 0 -0.35466820515516961 0.12857559437590421 0 -0.36723296685326512 0.10864251765499409 0 -0.3598180174274398 0.10082514045459159 0 -0.35466820515516961 0.12857559437590421 0 -0.34687476291263247 0.1122544612622611 0 -0.33608474512713049 0.1197287982259938 0 -0.35466820515516961 0.12857559437590421 0 -0.3598180174274398 0.10082514045459159 0 -0.35466820515516961 0.12857559437590421 0 -0.3598180174274398 0.10082514045459159 0 -0.34687476291263247 0.1122544612622611 0 -0.36325337171825822 0.098996912408396323 0 -0.35406767461291411 0.09394485179259339 0 -0.33862254077847292 0.099078807272473507 0 -0.36325337171825822 0.098996912408396323 0 -0.3598180174274398 0.10082514045459159 0 -0.33862254077847292 0.099078807272473507 0 -0.3598180174274398 0.10082514045459159 0 -0.34687476291263247 0.1122544612622611 0 -0.33862254077847292 0.099078807272473507 0 -0.36325337171825822 0.098996912408396323 0 -0.33862254077847292 0.099078807272473507 0 -0.3519255957721682 0.088684115329041455 0 -0.35406767461291411 0.09394485179259339 0 -0.33862254077847292 0.099078807272473507 0 -0.3519255957721682 0.088684115329041455 0 -0.33862254077847292 0.099078807272473507 0 -0.33862254077847292 0.099078807272473507 0 -0.32093751769895618 0.099137608072365921 0 -0.32933603950452878 0.088322054244226816 0 -0.33862254077847292 0.099078807272473507 0 -0.32093751769895618 0.099137608072365921 0 -0.33862254077847292 0.099078807272473507 0 -0.32052423570472022 0.1132203940004169 0 -0.33862254077847292 0.099078807272473507 0 -0.33608474512713049 0.1197287982259938 0 -0.32052423570472022 0.1132203940004169 0 -0.34687476291263247 0.1122544612622611 0 -0.33862254077847292 0.099078807272473507 0 -0.33608474512713049 0.1197287982259938 0 -0.32260811138277612 0.13078124704133659 0 -0.30242593063096712 0.12736198072835961 0 -0.32052423570472022 0.1132203940004169 0 -0.32260811138277612 0.13078124704133659 0 -0.33608474512713049 0.1197287982259938 0 -0.32052423570472022 0.1132203940004169 0 -0.33862254077847292 0.099078807272473507 0 -0.32052423570472022 0.1132203940004169 0 -0.32093751769895618 0.099137608072365921 0 -0.30544285958947609 0.1126888998819071 0 -0.32052423570472022 0.1132203940004169 0 -0.32093751769895618 0.099137608072365921 0 -0.32093751769895618 0.099137608072365921 0 -0.31432042747595912 0.082896052041514331 0 -0.32933603950452878 0.088322054244226816 0 -0.31432042747595912 0.082896052041514331 0 -0.33017057905096853 0.074121605827074583 0 -0.32933603950452878 0.088322054244226816 0 -0.30325249461943948 0.099196408872258932 0 -0.32093751769895618 0.099137608072365921 0 -0.31432042747595912 0.082896052041514331 0 -0.31663254448226869 0.061797888446715112 0 -0.33450063915981981 0.057637004126334643 0 -0.33017057905096853 0.074121605827074583 0 -0.31663254448226869 0.061797888446715112 0 -0.31432042747595912 0.082896052041514331 0 -0.33017057905096853 0.074121605827074583 0 -0.33450063915981981 0.057637004126334643 0 -0.34965849747437211 0.071700487739710564 0 -0.33017057905096853 0.074121605827074583 0 -0.34965849747437211 0.071700487739710564 0 -0.33017057905096853 0.074121605827074583 0 -0.33994265051610212 0.084381414082505379 0 -0.33862254077847292 0.099078807272473507 0 -0.33994265051610212 0.084381414082505379 0 -0.32933603950452878 0.088322054244226816 0 -0.3519255957721682 0.088684115329041455 0 -0.33862254077847292 0.099078807272473507 0 -0.33994265051610212 0.084381414082505379 0 -0.33017057905096853 0.074121605827074583 0 -0.33994265051610212 0.084381414082505379 0 -0.32933603950452878 0.088322054244226816 0 -0.39757365154932328 0.5 0 -0.37435867886949242 0.47639747908997709 0 -0.36151925059574941 0.5 0 -0.39228972099338189 0.48064733361609718 0 -0.39486025545613712 0.46928062883289151 0 -0.40169070533694379 0.47932927244085982 0 -0.39486025545613712 0.46928062883289151 0 -0.40598871610619919 0.4695448490692738 0 -0.40169070533694379 0.47932927244085982 0 -0.40169070533694379 0.47932927244085982 0 -0.39757365154932328 0.5 0 -0.41146386984712813 0.48265148822367748 0 -0.39228972099338189 0.48064733361609718 0 -0.40169070533694379 0.47932927244085982 0 -0.39757365154932328 0.5 0 -0.39228972099338189 0.48064733361609718 0 -0.39757365154932328 0.5 0 -0.37435867886949242 0.47639747908997709 0 -0.39228972099338189 0.48064733361609718 0 -0.39486025545613712 0.46928062883289151 0 -0.37435867886949242 0.47639747908997709 0 -0.39486025545613712 0.46928062883289151 0 -0.3869578768201159 0.45987750808237188 0 -0.37435867886949242 0.47639747908997709 0 -0.3869578768201159 0.45987750808237188 0 -0.3739040664231631 0.46119874318328491 0 -0.37435867886949242 0.47639747908997709 0 -0.3869578768201159 0.45987750808237188 0 -0.38186366916293413 0.44676931413255527 0 -0.3739040664231631 0.46119874318328491 0 -0.38186366916293413 0.44676931413255527 0 -0.38303930066684888 0.43275526436642731 0 -0.36821910979165767 0.44821371158351658 0 -0.3869578768201159 0.45987750808237188 0 -0.38186366916293413 0.44676931413255527 0 -0.39592735188396222 0.4446528371111852 0 -0.38186366916293413 0.44676931413255527 0 -0.39592735188396222 0.4446528371111852 0 -0.38303930066684888 0.43275526436642731 0 -0.39592735188396222 0.4446528371111852 0 -0.40270757279139552 0.45734885125989438 0 -0.40869495604761708 0.44347610705221752 0 -0.39592735188396222 0.4446528371111852 0 -0.40869495604761708 0.44347610705221752 0 -0.40733569619950621 0.4313834284869747 0 -0.39486025545613712 0.46928062883289151 0 -0.3869578768201159 0.45987750808237188 0 -0.40270757279139552 0.45734885125989438 0 -0.3869578768201159 0.45987750808237188 0 -0.39592735188396222 0.4446528371111852 0 -0.40270757279139552 0.45734885125989438 0 -0.3869578768201159 0.45987750808237188 0 -0.40270757279139552 0.45734885125989438 0 -0.39486025545613712 0.46928062883289151 0 -0.40598871610619919 0.4695448490692738 0 -0.40270757279139552 0.45734885125989438 0 -0.40270757279139552 0.45734885125989438 0 -0.41149455107156402 0.46240115630721179 0 -0.41845726876267508 0.45482019443741678 0 -0.40270757279139552 0.45734885125989438 0 -0.41845726876267508 0.45482019443741678 0 -0.40598871610619919 0.4695448490692738 0 -0.40270757279139552 0.45734885125989438 0 -0.41149455107156402 0.46240115630721179 0 -0.40598871610619919 0.4695448490692738 0 -0.41149455107156402 0.46240115630721179 0 -0.41198931041529641 0.4696068520652098 0 -0.41845726876267508 0.45482019443741678 0 -0.41901010463629312 0.46382991466067552 0 -0.41845726876267508 0.45482019443741678 0 -0.41901010463629312 0.46382991466067552 0 -0.42290898275686062 0.45410545956357318 0 -0.41149455107156402 0.46240115630721179 0 -0.41845726876267508 0.45482019443741678 0 -0.41901010463629312 0.46382991466067552 0 -0.41901010463629312 0.46382991466067552 0 -0.42290898275686062 0.45410545956357318 0 -0.41845726876267508 0.45482019443741678 0 -0.42290898275686062 0.45410545956357318 0 -0.41901010463629312 0.46382991466067552 0 -0.41923233176420499 0.46745161206502539 0 -0.41149455107156402 0.46240115630721179 0 -0.41901010463629312 0.46382991466067552 0 -0.41198931041529641 0.4696068520652098 0 -0.41845726876267508 0.45482019443741678 0 -0.40869495604761708 0.44347610705221752 0 -0.41697812409415008 0.43071416176283672 0 -0.41845726876267508 0.45482019443741678 0 -0.41697812409415008 0.43071416176283672 0 -0.41845726876267508 0.45482019443741678 0 -0.42290898275686062 0.45410545956357318 0 -0.41697812409415008 0.43071416176283672 0 -0.40270757279139552 0.45734885125989438 0 -0.41845726876267508 0.45482019443741678 0 -0.40869495604761708 0.44347610705221752 0 -0.42290898275686062 0.45410545956357318 0 -0.44385002782479699 0.45074331742588281 0 -0.42290898275686062 0.45410545956357318 0 -0.44385002782479699 0.45074331742588281 0 -0.43368948983569527 0.4272170691676056 0 -0.42290898275686062 0.45410545956357318 0 -0.43368948983569527 0.4272170691676056 0 -0.42764063350210091 0.46476544424612198 0 -0.42290898275686062 0.45410545956357318 0 -0.44385002782479699 0.45074331742588281 0 -0.41901010463629312 0.46382991466067552 0 -0.41923233176420499 0.46745161206502539 0 -0.42764063350210091 0.46476544424612198 0 -0.41901010463629312 0.46382991466067552 0 -0.42764063350210091 0.46476544424612198 0 -0.42290898275686062 0.45410545956357318 0 -0.41947200185992378 0.48369135555095771 0 -0.42017830158195568 0.5 0 -0.44137035217052423 0.46877100621061679 0 -0.41947200185992378 0.48369135555095771 0 -0.44137035217052423 0.46877100621061679 0 -0.42764063350210091 0.46476544424612198 0 -0.41947200185992378 0.48369135555095771 0 -0.44137035217052423 0.46877100621061679 0 -0.41923233176420499 0.46745161206502539 0 -0.42764063350210091 0.46476544424612198 0 -0.41947200185992378 0.48369135555095771 0 -0.41901010463629312 0.46382991466067552 0 -0.41146386984712813 0.48265148822367748 0 -0.41198931041529641 0.4696068520652098 0 -0.41901010463629312 0.46382991466067552 0 -0.41923233176420499 0.46745161206502539 0 -0.41146386984712813 0.48265148822367748 0 -0.41901010463629312 0.46382991466067552 0 -0.41146386984712813 0.48265148822367748 0 -0.41923233176420499 0.46745161206502539 0 -0.41947200185992378 0.48369135555095771 0 -0.41146386984712813 0.48265148822367748 0 -0.40598871610619919 0.4695448490692738 0 -0.40169070533694379 0.47932927244085982 0 -0.41146386984712813 0.48265148822367748 0 -0.40598871610619919 0.4695448490692738 0 -0.41146386984712813 0.48265148822367748 0 -0.41198931041529641 0.4696068520652098 0 -0.39757365154932328 0.5 0 -0.41947200185992378 0.48369135555095771 0 -0.41146386984712813 0.48265148822367748 0 -0.39757365154932328 0.5 0 -0.41947200185992378 0.48369135555095771 0 -0.42017830158195568 0.5 0 -0.39757365154932328 0.5 0 -0.41947200185992378 0.48369135555095771 0 -0.42017830158195568 0.5 0 -0.5 0.5 0 -0.48424098339965871 0.48384523185289818 0 -0.42017830158195568 0.5 0 -0.45751331712307131 0.47376902648780811 0 -0.48424098339965871 0.48384523185289818 0 -0.42017830158195568 0.5 0 -0.44137035217052423 0.46877100621061679 0 -0.45751331712307131 0.47376902648780811 0 -0.44137035217052423 0.46877100621061679 0 -0.45751331712307131 0.47376902648780811 0 -0.46133242090043042 0.46461833866133961 0 -0.5 0.5 0 -0.48424098339965871 0.48384523185289818 0 -0.5 0.4611575178149282 0 -0.48424098339965871 0.48384523185289818 0 -0.48129335349083208 0.46096435784412298 0 -0.47376505660111551 0.46741359113107328 0 -0.45751331712307131 0.47376902648780811 0 -0.48424098339965871 0.48384523185289818 0 -0.47376505660111551 0.46741359113107328 0 -0.48424098339965871 0.48384523185289818 0 -0.49212049169982908 0.45792154857953438 0 -0.49212049169982908 0.45792154857953438 0 -0.49999999999999972 0.43199786530617068 0 -0.49212049169982908 0.45792154857953438 0 -0.5 0.4611575178149282 0 -0.49999999999999972 0.43199786530617068 0 -0.4857321179606699 0.44401903315050267 0 -0.49212049169982908 0.45792154857953438 0 -0.49999999999999972 0.43199786530617068 0 -0.48424098339965871 0.48384523185289818 0 -0.49212049169982908 0.45792154857953438 0 -0.48129335349083208 0.46096435784412298 0 -0.48424098339965871 0.48384523185289818 0 -0.49212049169982908 0.45792154857953438 0 -0.5 0.4611575178149282 0 -0.4857321179606699 0.44401903315050267 0 -0.49212049169982908 0.45792154857953438 0 -0.48129335349083208 0.46096435784412298 0 -0.48129335349083208 0.46096435784412298 0 -0.47376505660111551 0.46741359113107328 0 -0.47074467612631632 0.45928741260692402 0 -0.47714832886686392 0.45419611163258611 0 -0.48129335349083208 0.46096435784412298 0 -0.47074467612631632 0.45928741260692402 0 -0.47074467612631632 0.45928741260692402 0 -0.47233697966554172 0.45174687790969631 0 -0.46326870248112462 0.45385065687027593 0 -0.47714832886686392 0.45419611163258611 0 -0.47074467612631632 0.45928741260692402 0 -0.47233697966554172 0.45174687790969631 0 -0.4857321179606699 0.44401903315050267 0 -0.46479107289273353 0.44738117528819271 0 -0.47397865752598911 0.4335131581511818 0 -0.4857321179606699 0.44401903315050267 0 -0.47233697966554172 0.45174687790969631 0 -0.46479107289273353 0.44738117528819271 0 -0.4857321179606699 0.44401903315050267 0 -0.46479107289273353 0.44738117528819271 0 -0.4857321179606699 0.44401903315050267 0 -0.47714832886686392 0.45419611163258611 0 -0.48129335349083208 0.46096435784412298 0 -0.4857321179606699 0.44401903315050267 0 -0.47714832886686392 0.45419611163258611 0 -0.47233697966554172 0.45174687790969631 0 -0.46479107289273353 0.44738117528819271 0 -0.45477138610018558 0.44195219055016788 0 -0.44385002782479699 0.45074331742588281 0 -0.46479107289273353 0.44738117528819271 0 -0.46326870248112462 0.45385065687027593 0 -0.44385002782479699 0.45074331742588281 0 -0.46479107289273353 0.44738117528819271 0 -0.46110707975624798 0.43202007801147901 0 -0.47397865752598911 0.4335131581511818 0 -0.46479107289273353 0.44738117528819271 0 -0.44385002782479699 0.45074331742588281 0 -0.47233697966554172 0.45174687790969631 0 -0.46479107289273353 0.44738117528819271 0 -0.46326870248112462 0.45385065687027593 0 -0.46479107289273353 0.44738117528819271 0 -0.45477138610018558 0.44195219055016788 0 -0.46110707975624798 0.43202007801147901 0 -0.44137035217052423 0.46877100621061679 0 -0.46133242090043042 0.46461833866133961 0 -0.46326870248112462 0.45385065687027593 0 -0.45751331712307131 0.47376902648780811 0 -0.47376505660111551 0.46741359113107328 0 -0.46133242090043042 0.46461833866133961 0 -0.47376505660111551 0.46741359113107328 0 -0.47074467612631632 0.45928741260692402 0 -0.46133242090043042 0.46461833866133961 0 -0.47074467612631632 0.45928741260692402 0 -0.46133242090043042 0.46461833866133961 0 -0.46326870248112462 0.45385065687027593 0 -0.44137035217052423 0.46877100621061679 0 -0.46326870248112462 0.45385065687027593 0 -0.42764063350210091 0.46476544424612198 0 -0.44137035217052423 0.46877100621061679 0 -0.44385002782479699 0.45074331742588281 0 -0.44137035217052423 0.46877100621061679 0 -0.46326870248112462 0.45385065687027593 0 -0.44385002782479699 0.45074331742588281 0 -0.44385002782479699 0.45074331742588281 0 -0.44955260725406188 0.43477933494809401 0 -0.43368948983569527 0.4272170691676056 0 -0.45477138610018558 0.44195219055016788 0 -0.44385002782479699 0.45074331742588281 0 -0.44955260725406188 0.43477933494809401 0 -0.44955260725406188 0.43477933494809401 0 -0.4539005484595745 0.41774775252759999 0 -0.43368948983569527 0.4272170691676056 0 -0.4539005484595745 0.41774775252759999 0 -0.44446999691452932 0.40032867877163758 0 -0.43368948983569527 0.4272170691676056 0 -0.44446999691452932 0.40032867877163758 0 -0.43368948983569527 0.4272170691676056 0 -0.4539005484595745 0.41774775252759999 0 -0.47064392899937441 0.41693904748728511 0 -0.46394018799753861 0.39520230677949919 0 -0.46110707975624798 0.43202007801147901 0 -0.47397865752598911 0.4335131581511818 0 -0.47064392899937441 0.41693904748728511 0 -0.4539005484595745 0.41774775252759999 0 -0.46110707975624798 0.43202007801147901 0 -0.47064392899937441 0.41693904748728511 0 -0.44955260725406188 0.43477933494809401 0 -0.4539005484595745 0.41774775252759999 0 -0.46110707975624798 0.43202007801147901 0 -0.45477138610018558 0.44195219055016788 0 -0.44955260725406188 0.43477933494809401 0 -0.46110707975624798 0.43202007801147901 0 -0.4857321179606699 0.44401903315050267 0 -0.47397865752598911 0.4335131581511818 0 -0.48586566825375233 0.42243808930898519 0 -0.47397865752598911 0.4335131581511818 0 -0.47064392899937441 0.41693904748728511 0 -0.48586566825375233 0.42243808930898519 0 -0.47064392899937441 0.41693904748728511 0 -0.48586566825375233 0.42243808930898519 0 -0.48303531462985522 0.39929854997699182 0 -0.5 0.40678780266962211 0 -0.48586566825375233 0.42243808930898519 0 -0.48303531462985522 0.39929854997699182 0 -0.5 0.40678780266962211 0 -0.49999999999999972 0.43199786530617068 0 -0.48586566825375233 0.42243808930898519 0 -0.4857321179606699 0.44401903315050267 0 -0.49999999999999972 0.43199786530617068 0 -0.48586566825375233 0.42243808930898519 0 -0.50000000000000222 0.38157774003307371 0 -0.47762525199668332 0.37750901420437177 0 -0.48713660420334209 0.36660116945766291 0 -0.50000000000000222 0.38157774003307371 0 -0.47762525199668332 0.37750901420437177 0 -0.50000000000000222 0.38157774003307371 0 -0.48303531462985522 0.39929854997699182 0 -0.47762525199668332 0.37750901420437177 0 -0.5 0.40678780266962211 0 -0.50000000000000222 0.38157774003307371 0 -0.48303531462985522 0.39929854997699182 0 -0.48303531462985522 0.39929854997699182 0 -0.47762525199668332 0.37750901420437177 0 -0.46394018799753861 0.39520230677949919 0 -0.47064392899937441 0.41693904748728511 0 -0.48303531462985522 0.39929854997699182 0 -0.46394018799753861 0.39520230677949919 0 -0.47762525199668332 0.37750901420437177 0 -0.46394018799753861 0.39520230677949919 0 -0.45525050399336431 0.37344028837567 0 -0.46394018799753861 0.39520230677949919 0 -0.44446999691452932 0.40032867877163758 0 -0.45525050399336431 0.37344028837567 0 -0.47762525199668332 0.37750901420437177 0 -0.45525050399336431 0.37344028837567 0 -0.4539005484595745 0.41774775252759999 0 -0.46394018799753861 0.39520230677949919 0 -0.44446999691452932 0.40032867877163758 0 -0.44446999691452932 0.40032867877163758 0 -0.43388768965693081 0.38616823056881378 0 -0.44775950209870791 0.37476053073735838 0 -0.44446999691452932 0.40032867877163758 0 -0.45525050399336431 0.37344028837567 0 -0.44446999691452932 0.40032867877163758 0 -0.44775950209870791 0.37476053073735838 0 -0.45525050399336431 0.37344028837567 0 -0.43388768965693081 0.38616823056881378 0 -0.44595502745168919 0.3717499566906135 0 -0.43388768965693081 0.38616823056881378 0 -0.44775950209870791 0.37476053073735838 0 -0.44595502745168919 0.3717499566906135 0 -0.43388768965693081 0.38616823056881378 0 -0.41401983475710191 0.38250209641367672 0 -0.42481561788397693 0.36790587041536521 0 -0.43388768965693081 0.38616823056881378 0 -0.42481561788397693 0.36790587041536521 0 -0.44595502745168919 0.3717499566906135 0 -0.41401983475710191 0.38250209641367672 0 -0.42481561788397693 0.36790587041536521 0 -0.41233451202878679 0.38478070382302038 0 -0.4054789962382328 0.37978467014519363 0 -0.40573827101494692 0.38901841211081117 0 -0.41233451202878679 0.38478070382302038 0 -0.40573827101494692 0.38901841211081117 0 -0.40589778669783172 0.39685697842053819 0 -0.41233451202878679 0.38478070382302038 0 -0.41401983475710191 0.38250209641367672 0 -0.41233451202878679 0.38478070382302038 0 -0.41401983475710191 0.38250209641367672 0 -0.4054789962382328 0.37978467014519363 0 -0.41401983475710191 0.38250209641367672 0 -0.4054789962382328 0.37978467014519363 0 -0.40644625336480278 0.37090082256862089 0 -0.41233451202878679 0.38478070382302038 0 -0.41549897942562652 0.40660812908825672 0 -0.40589778669783172 0.39685697842053819 0 -0.43388768965693081 0.38616823056881378 0 -0.41401983475710191 0.38250209641367672 0 -0.41549897942562652 0.40660812908825672 0 -0.41233451202878679 0.38478070382302038 0 -0.41401983475710191 0.38250209641367672 0 -0.41549897942562652 0.40660812908825672 0 -0.41401983475710191 0.38250209641367672 0 -0.41549897942562652 0.40660812908825672 0 -0.41549897942562652 0.40660812908825672 0 -0.40128243589585888 0.41190681040418592 0 -0.40589778669783172 0.39685697842053819 0 -0.43388768965693081 0.38616823056881378 0 -0.43020774384816218 0.4104779449723871 0 -0.41549897942562652 0.40660812908825672 0 -0.44446999691452932 0.40032867877163758 0 -0.43388768965693081 0.38616823056881378 0 -0.43020774384816218 0.4104779449723871 0 -0.44446999691452932 0.40032867877163758 0 -0.43020774384816218 0.4104779449723871 0 -0.43368948983569527 0.4272170691676056 0 -0.43020774384816218 0.4104779449723871 0 -0.43368948983569527 0.4272170691676056 0 -0.41697812409415008 0.43071416176283672 0 -0.42290898275686062 0.45410545956357318 0 -0.43368948983569527 0.4272170691676056 0 -0.41697812409415008 0.43071416176283672 0 -0.41697812409415008 0.43071416176283672 0 -0.40733569619950621 0.4313834284869747 0 -0.40903778017619691 0.41925397409603332 0 -0.40869495604761708 0.44347610705221752 0 -0.41697812409415008 0.43071416176283672 0 -0.40733569619950621 0.4313834284869747 0 -0.41697812409415008 0.43071416176283672 0 -0.41549897942562652 0.40660812908825672 0 -0.40903778017619691 0.41925397409603332 0 -0.43020774384816218 0.4104779449723871 0 -0.41697812409415008 0.43071416176283672 0 -0.41549897942562652 0.40660812908825672 0 -0.41697812409415008 0.43071416176283672 0 -0.41549897942562652 0.40660812908825672 0 -0.41549897942562652 0.40660812908825672 0 -0.40903778017619691 0.41925397409603332 0 -0.40128243589585888 0.41190681040418592 0 -0.40903778017619691 0.41925397409603332 0 -0.40128243589585888 0.41190681040418592 0 -0.3973557276330108 0.42307533725540908 0 -0.40128243589585888 0.41190681040418592 0 -0.3973557276330108 0.42307533725540908 0 -0.38608342522664302 0.42007720892342437 0 -0.40128243589585888 0.41190681040418592 0 -0.38608342522664302 0.42007720892342437 0 -0.39006583798891492 0.40592395011556093 0 -0.40733569619950621 0.4313834284869747 0 -0.3973557276330108 0.42307533725540908 0 -0.38303930066684888 0.43275526436642731 0 -0.39592735188396222 0.4446528371111852 0 -0.40733569619950621 0.4313834284869747 0 -0.38303930066684888 0.43275526436642731 0 -0.40733569619950621 0.4313834284869747 0 -0.38303930066684888 0.43275526436642731 0 -0.40733569619950621 0.4313834284869747 0 -0.40903778017619691 0.41925397409603332 0 -0.3973557276330108 0.42307533725540908 0 -0.3973557276330108 0.42307533725540908 0 -0.38303930066684888 0.43275526436642731 0 -0.38608342522664302 0.42007720892342437 0 -0.38303930066684888 0.43275526436642731 0 -0.38608342522664302 0.42007720892342437 0 -0.37396298612724238 0.42209814300880683 0 -0.38608342522664302 0.42007720892342437 0 -0.37767869276464439 0.41021006436074459 0 -0.39006583798891492 0.40592395011556093 0 -0.38608342522664302 0.42007720892342437 0 -0.37767869276464439 0.41021006436074459 0 -0.37396298612724238 0.42209814300880683 0 -0.37767869276464439 0.41021006436074459 0 -0.39006583798891492 0.40592395011556093 0 -0.37813277588106597 0.39643554819751331 0 -0.39006583798891492 0.40592395011556093 0 -0.37813277588106597 0.39643554819751331 0 -0.39095399142467552 0.39367499646803461 0 -0.37813277588106597 0.39643554819751331 0 -0.3849282530135299 0.38262894030566402 0 -0.39095399142467552 0.39367499646803461 0 -0.37813277588106597 0.39643554819751331 0 -0.3849282530135299 0.38262894030566402 0 -0.37141021567644938 0.3819240236851501 0 -0.3849282530135299 0.38262894030566402 0 -0.37972107570738722 0.37147753735631001 0 -0.37141021567644938 0.3819240236851501 0 -0.3849282530135299 0.38262894030566402 0 -0.39897508684366978 0.38505256958866518 0 -0.39095399142467552 0.39367499646803461 0 -0.3849282530135299 0.38262894030566402 0 -0.39897508684366978 0.38505256958866518 0 -0.39480960003663829 0.37009935349226358 0 -0.4054789962382328 0.37978467014519363 0 -0.39897508684366978 0.38505256958866518 0 -0.39480960003663829 0.37009935349226358 0 -0.40573827101494692 0.38901841211081117 0 -0.39897508684366978 0.38505256958866518 0 -0.40589778669783172 0.39685697842053819 0 -0.4054789962382328 0.37978467014519363 0 -0.40573827101494692 0.38901841211081117 0 -0.39897508684366978 0.38505256958866518 0 -0.39897508684366978 0.38505256958866518 0 -0.40589778669783172 0.39685697842053819 0 -0.39095399142467552 0.39367499646803461 0 -0.39006583798891492 0.40592395011556093 0 -0.40589778669783172 0.39685697842053819 0 -0.39095399142467552 0.39367499646803461 0 -0.40128243589585888 0.41190681040418592 0 -0.39006583798891492 0.40592395011556093 0 -0.40589778669783172 0.39685697842053819 0 -0.38197606614046009 0.35417749789858899 0 -0.41059591141371787 0.35705066962478388 0 -0.39838494658452789 0.34683329714801953 0 -0.38197606614046009 0.35417749789858899 0 -0.41059591141371787 0.35705066962478388 0 -0.39480960003663829 0.37009935349226358 0 -0.38197606614046009 0.35417749789858899 0 -0.41059591141371787 0.35705066962478388 0 -0.39480960003663829 0.37009935349226358 0 -0.41059591141371787 0.35705066962478388 0 -0.40644625336480278 0.37090082256862089 0 -0.4054789962382328 0.37978467014519363 0 -0.39480960003663829 0.37009935349226358 0 -0.40644625336480278 0.37090082256862089 0 -0.37972107570738722 0.37147753735631001 0 -0.38197606614046009 0.35417749789858899 0 -0.36548124366985829 0.36855787139988311 0 -0.39480960003663829 0.37009935349226358 0 -0.37972107570738722 0.37147753735631001 0 -0.38197606614046009 0.35417749789858899 0 -0.3849282530135299 0.38262894030566402 0 -0.39480960003663829 0.37009935349226358 0 -0.37972107570738722 0.37147753735631001 0 -0.39838494658452789 0.34683329714801953 0 -0.38197606614046009 0.35417749789858899 0 -0.38868839946722772 0.33042571151469857 0 -0.38868839946722772 0.33042571151469857 0 -0.36690682475142128 0.33620239319512368 0 -0.38197606614046009 0.35417749789858899 0 -0.38868839946722772 0.33042571151469857 0 -0.36690682475142128 0.33620239319512368 0 -0.38868839946722772 0.33042571151469857 0 -0.37815623955144723 0.32366509893170042 0 -0.36690682475142128 0.33620239319512368 0 -0.37815623955144723 0.32366509893170042 0 -0.38004678714040002 0.31049437063947499 0 -0.37232429382281812 0.31079397890851462 0 -0.37815623955144723 0.32366509893170042 0 -0.385578695250262 0.31529968711792711 0 -0.38004678714040002 0.31049437063947499 0 -0.38868839946722772 0.33042571151469857 0 -0.37815623955144723 0.32366509893170042 0 -0.38939212457688682 0.31973754921690722 0 -0.37815623955144723 0.32366509893170042 0 -0.38939212457688682 0.31973754921690722 0 -0.385578695250262 0.31529968711792711 0 -0.38939212457688682 0.31973754921690722 0 -0.39032714461151569 0.31376638520547201 0 -0.385578695250262 0.31529968711792711 0 -0.39032714461151569 0.31376638520547201 0 -0.385578695250262 0.31529968711792711 0 -0.38801290186903459 0.30931763132581058 0 -0.38868839946722772 0.33042571151469857 0 -0.41046997418303399 0.32464902983427352 0 -0.38868839946722772 0.33042571151469857 0 -0.40309300513789748 0.32024811513220203 0 -0.41046997418303399 0.32464902983427352 0 -0.39567194013031171 0.31329159626376007 0 -0.40063824822114491 0.31352455624538689 0 -0.39770069179128631 0.3119305935776211 0 -0.39567194013031171 0.31329159626376007 0 -0.3928645538889321 0.316419277964057 0 -0.39606700623701407 0.31888158117008869 0 -0.39567194013031171 0.31329159626376007 0 -0.39606700623701407 0.31888158117008869 0 -0.40063824822114491 0.31352455624538689 0 -0.39606700623701407 0.31888158117008869 0 -0.40063824822114491 0.31352455624538689 0 -0.39567194013031171 0.31329159626376007 0 -0.39770069179128631 0.3119305935776211 0 -0.39032714461151569 0.31376638520547201 0 -0.39567194013031171 0.31329159626376007 0 -0.3928645538889321 0.316419277964057 0 -0.38939212457688682 0.31973754921690722 0 -0.39032714461151569 0.31376638520547201 0 -0.3928645538889321 0.316419277964057 0 -0.38939212457688682 0.31973754921690722 0 -0.3928645538889321 0.316419277964057 0 -0.39606700623701407 0.31888158117008869 0 -0.38868839946722772 0.33042571151469857 0 -0.39606700623701407 0.31888158117008869 0 -0.40309300513789748 0.32024811513220203 0 -0.38868839946722772 0.33042571151469857 0 -0.38939212457688682 0.31973754921690722 0 -0.39606700623701407 0.31888158117008869 0 -0.40309300513789748 0.32024811513220203 0 -0.40063824822114491 0.31352455624538689 0 -0.41023179956538203 0.3207674317474864 0 -0.39606700623701407 0.31888158117008869 0 -0.40309300513789748 0.32024811513220203 0 -0.40063824822114491 0.31352455624538689 0 -0.40063824822114491 0.31352455624538689 0 -0.39770069179128631 0.3119305935776211 0 -0.39838494658452789 0.34683329714801953 0 -0.38868839946722772 0.33042571151469857 0 -0.41046997418303399 0.32464902983427352 0 -0.41046997418303399 0.32464902983427352 0 -0.41224490447006951 0.35357556312397498 0 -0.41903756382001001 0.33857692282482199 0 -0.41046997418303399 0.32464902983427352 0 -0.41763691257226571 0.32274828931215721 0 -0.41903756382001001 0.33857692282482199 0 -0.41046997418303399 0.32464902983427352 0 -0.41224490447006951 0.35357556312397498 0 -0.39838494658452789 0.34683329714801953 0 -0.41046997418303399 0.32464902983427352 0 -0.41224490447006951 0.35357556312397498 0 -0.40063824822114491 0.31352455624538689 0 -0.41023179956538203 0.3207674317474864 0 -0.41763691257226571 0.32274828931215721 0 -0.40063824822114491 0.31352455624538689 0 -0.41164356570823551 0.31335190270086738 0 -0.41763691257226571 0.32274828931215721 0 -0.40063824822114491 0.31352455624538689 0 -0.41763691257226571 0.32274828931215721 0 -0.41023179956538203 0.3207674317474864 0 -0.41046997418303399 0.32464902983427352 0 -0.41763691257226571 0.32274828931215721 0 -0.41046997418303399 0.32464902983427352 0 -0.41763691257226571 0.32274828931215721 0 -0.41023179956538203 0.3207674317474864 0 -0.41046997418303399 0.32464902983427352 0 -0.40309300513789748 0.32024811513220203 0 -0.41023179956538203 0.3207674317474864 0 -0.41046997418303399 0.32464902983427352 0 -0.41164356570823551 0.31335190270086738 0 -0.41763691257226571 0.32274828931215721 0 -0.41886461414888132 0.31096223850826171 0 -0.41763691257226571 0.32274828931215721 0 -0.43160952992894852 0.31904261771746939 0 -0.43529307571427678 0.33232879119402808 0 -0.41763691257226571 0.32274828931215721 0 -0.43529307571427678 0.33232879119402808 0 -0.41763691257226571 0.32274828931215721 0 -0.43160952992894852 0.31904261771746939 0 -0.41886461414888132 0.31096223850826171 0 -0.41763691257226571 0.32274828931215721 0 -0.43160952992894852 0.31904261771746939 0 -0.43160952992894852 0.31904261771746939 0 -0.43529307571427678 0.33232879119402808 0 -0.43160952992894852 0.31904261771746939 0 -0.43529307571427678 0.33232879119402808 0 -0.44272138075512962 0.3363595021616731 0 -0.41903756382001001 0.33857692282482199 0 -0.42929504738890012 0.34288138535546642 0 -0.43529307571427678 0.33232879119402808 0 -0.41903756382001001 0.33857692282482199 0 -0.41763691257226571 0.32274828931215721 0 -0.43529307571427678 0.33232879119402808 0 -0.43529307571427678 0.33232879119402808 0 -0.43961079072531739 0.34790234830507522 0 -0.42929504738890012 0.34288138535546642 0 -0.43529307571427678 0.33232879119402808 0 -0.43961079072531739 0.34790234830507522 0 -0.42481561788397693 0.36790587041536521 0 -0.43961079072531739 0.34790234830507522 0 -0.42323875929599669 0.35271747909793932 0 -0.42481561788397693 0.36790587041536521 0 -0.43961079072531739 0.34790234830507522 0 -0.42929504738890012 0.34288138535546642 0 -0.42323875929599669 0.35271747909793932 0 -0.43961079072531739 0.34790234830507522 0 -0.41903756382001001 0.33857692282482199 0 -0.42929504738890012 0.34288138535546642 0 -0.42323875929599669 0.35271747909793932 0 -0.41903756382001001 0.33857692282482199 0 -0.42323875929599669 0.35271747909793932 0 -0.41224490447006951 0.35357556312397498 0 -0.42323875929599669 0.35271747909793932 0 -0.41224490447006951 0.35357556312397498 0 -0.41455392788610151 0.36603983808578211 0 -0.39838494658452789 0.34683329714801953 0 -0.41224490447006951 0.35357556312397498 0 -0.41059591141371787 0.35705066962478388 0 -0.41401983475710191 0.38250209641367672 0 -0.41224490447006951 0.35357556312397498 0 -0.41059591141371787 0.35705066962478388 0 -0.41401983475710191 0.38250209641367672 0 -0.41455392788610151 0.36603983808578211 0 -0.42481561788397693 0.36790587041536521 0 -0.41401983475710191 0.38250209641367672 0 -0.41224490447006951 0.35357556312397498 0 -0.41401983475710191 0.38250209641367672 0 -0.41224490447006951 0.35357556312397498 0 -0.41455392788610151 0.36603983808578211 0 -0.41401983475710191 0.38250209641367672 0 -0.41059591141371787 0.35705066962478388 0 -0.40644625336480278 0.37090082256862089 0 -0.41455392788610151 0.36603983808578211 0 -0.42481561788397693 0.36790587041536521 0 -0.42323875929599669 0.35271747909793932 0 -0.41455392788610151 0.36603983808578211 0 -0.42481561788397693 0.36790587041536521 0 -0.42481561788397693 0.36790587041536521 0 -0.44595502745168919 0.3717499566906135 0 -0.43961079072531739 0.34790234830507522 0 -0.42481561788397693 0.36790587041536521 0 -0.44595502745168919 0.3717499566906135 0 -0.44595502745168919 0.3717499566906135 0 -0.43961079072531739 0.34790234830507522 0 -0.44595502745168919 0.3717499566906135 0 -0.44717351534180833 0.3702940852783953 0 -0.43961079072531739 0.34790234830507522 0 -0.44739897109556148 0.37201252996286188 0 -0.44717351534180833 0.3702940852783953 0 -0.45525050399336431 0.37344028837567 0 -0.44739897109556148 0.37201252996286188 0 -0.45525050399336431 0.37344028837567 0 -0.44739897109556148 0.37201252996286188 0 -0.44775950209870791 0.37476053073735838 0 -0.45525050399336431 0.37344028837567 0 -0.44739897109556148 0.37201252996286188 0 -0.44717351534180833 0.3702940852783953 0 -0.44739897109556148 0.37201252996286188 0 -0.44775950209870791 0.37476053073735838 0 -0.44739897109556148 0.37201252996286188 0 -0.44775950209870791 0.37476053073735838 0 -0.44595502745168919 0.3717499566906135 0 -0.44739897109556148 0.37201252996286188 0 -0.44595502745168919 0.3717499566906135 0 -0.44739897109556148 0.37201252996286188 0 -0.44595502745168919 0.3717499566906135 0 -0.44717351534180833 0.3702940852783953 0 -0.44595502745168919 0.3717499566906135 0 -0.44717351534180833 0.3702940852783953 0 -0.44717351534180833 0.3702940852783953 0 -0.43961079072531739 0.34790234830507522 0 -0.44353897975940881 0.34259131767099688 0 -0.44717351534180833 0.3702940852783953 0 -0.46522233842099492 0.34856886302495332 0 -0.44353897975940881 0.34259131767099688 0 -0.44717351534180833 0.3702940852783953 0 -0.44353897975940881 0.34259131767099688 0 -0.43961079072531739 0.34790234830507522 0 -0.44353897975940881 0.34259131767099688 0 -0.44717351534180833 0.3702940852783953 0 -0.46522233842099492 0.34856886302495332 0 -0.46522233842099492 0.34856886302495332 0 -0.45525050399336431 0.37344028837567 0 -0.47034421359399547 0.36535668325354909 0 -0.44717351534180833 0.3702940852783953 0 -0.46522233842099492 0.34856886302495332 0 -0.45525050399336431 0.37344028837567 0 -0.47762525199668332 0.37750901420437177 0 -0.45525050399336431 0.37344028837567 0 -0.47034421359399547 0.36535668325354909 0 -0.46522233842099492 0.34856886302495332 0 -0.45525050399336431 0.37344028837567 0 -0.47034421359399547 0.36535668325354909 0 -0.47746415941676162 0.35521146074814858 0 -0.48713660420334209 0.36660116945766291 0 -0.47762525199668332 0.37750901420437177 0 -0.47034421359399547 0.36535668325354909 0 -0.48713660420334209 0.36660116945766291 0 -0.46522233842099492 0.34856886302495332 0 -0.47746415941676162 0.35521146074814858 0 -0.46522233842099492 0.34856886302495332 0 -0.47746415941676162 0.35521146074814858 0 -0.48598535294595802 0.34381388500112109 0 -0.46522233842099492 0.34856886302495332 0 -0.47034421359399547 0.36535668325354909 0 -0.47746415941676162 0.35521146074814858 0 -0.47746415941676162 0.35521146074814858 0 -0.48598535294595802 0.34381388500112109 0 -0.5 0.35677717472257803 0 -0.48598535294595802 0.34381388500112109 0 -0.5 0.35677717472257803 0 -0.5 0.33197660941208229 0 -0.47746415941676162 0.35521146074814858 0 -0.5 0.35677717472257803 0 -0.48713660420334209 0.36660116945766291 0 -0.50000000000000222 0.38157774003307371 0 -0.5 0.35677717472257803 0 -0.48713660420334209 0.36660116945766291 0 -0.5 0.33197660941208229 0 -0.48265726058095432 0.32789746343986947 0 -0.49999999999999689 0.30717604410158672 0 -0.48265726058095432 0.32789746343986947 0 -0.49999999999999689 0.30717604410158672 0 -0.48265726058095432 0.32789746343986947 0 -0.4804090086232527 0.31069076376421589 0 -0.49999999999999689 0.30717604410158672 0 -0.48598535294595802 0.34381388500112109 0 -0.5 0.33197660941208229 0 -0.48265726058095432 0.32789746343986947 0 -0.46522233842099492 0.34856886302495332 0 -0.47281567352212328 0.32962981339458441 0 -0.48265726058095432 0.32789746343986947 0 -0.46522233842099492 0.34856886302495332 0 -0.48265726058095432 0.32789746343986947 0 -0.46522233842099492 0.34856886302495332 0 -0.47281567352212328 0.32962981339458441 0 -0.46522233842099492 0.34856886302495332 0 -0.48598535294595802 0.34381388500112109 0 -0.48265726058095432 0.32789746343986947 0 -0.47281567352212328 0.32962981339458441 0 -0.4804090086232527 0.31069076376421589 0 -0.47281567352212328 0.32962981339458441 0 -0.48265726058095432 0.32789746343986947 0 -0.4804090086232527 0.31069076376421589 0 -0.47281567352212328 0.32962981339458441 0 -0.468184006347518 0.31940958636330291 0 -0.4804090086232527 0.31069076376421589 0 -0.468184006347518 0.31940958636330291 0 -0.46386524786174388 0.30755149903176271 0 -0.4804090086232527 0.31069076376421589 0 -0.45944206916787461 0.3210898587819711 0 -0.43942753705432891 0.31125351970265208 0 -0.46386524786174388 0.30755149903176271 0 -0.468184006347518 0.31940958636330291 0 -0.45944206916787461 0.3210898587819711 0 -0.46386524786174388 0.30755149903176271 0 -0.468184006347518 0.31940958636330291 0 -0.46438803256259581 0.32808599684398021 0 -0.45944206916787461 0.3210898587819711 0 -0.47281567352212328 0.32962981339458441 0 -0.468184006347518 0.31940958636330291 0 -0.46438803256259581 0.32808599684398021 0 -0.46522233842099492 0.34856886302495332 0 -0.46021864335427892 0.3355709614607425 0 -0.44659399663121302 0.33846084226541889 0 -0.46522233842099492 0.34856886302495332 0 -0.47281567352212328 0.32962981339458441 0 -0.46021864335427892 0.3355709614607425 0 -0.45944206916787461 0.3210898587819711 0 -0.46021864335427892 0.3355709614607425 0 -0.44659399663121302 0.33846084226541889 0 -0.46522233842099492 0.34856886302495332 0 -0.44659399663121302 0.33846084226541889 0 -0.47281567352212328 0.32962981339458441 0 -0.46438803256259581 0.32808599684398021 0 -0.46021864335427892 0.3355709614607425 0 -0.46438803256259581 0.32808599684398021 0 -0.45944206916787461 0.3210898587819711 0 -0.46021864335427892 0.3355709614607425 0 -0.45944206916787461 0.3210898587819711 0 -0.44659399663121302 0.33846084226541889 0 -0.46522233842099492 0.34856886302495332 0 -0.44659399663121302 0.33846084226541889 0 -0.44353897975940881 0.34259131767099688 0 -0.45944206916787461 0.3210898587819711 0 -0.44659399663121302 0.33846084226541889 0 -0.44272138075512962 0.3363595021616731 0 -0.43529307571427678 0.33232879119402808 0 -0.44272138075512962 0.3363595021616731 0 -0.43529307571427678 0.33232879119402808 0 -0.43961079072531739 0.34790234830507522 0 -0.44353897975940881 0.34259131767099688 0 -0.43529307571427678 0.33232879119402808 0 -0.44272138075512962 0.3363595021616731 0 -0.44353897975940881 0.34259131767099688 0 -0.44659399663121302 0.33846084226541889 0 -0.44272138075512962 0.3363595021616731 0 -0.44353897975940881 0.34259131767099688 0 -0.44272138075512962 0.3363595021616731 0 -0.44353897975940881 0.34259131767099688 0 -0.44659399663121302 0.33846084226541889 0 -0.44272138075512962 0.3363595021616731 0 -0.44659399663121302 0.33846084226541889 0 -0.44353897975940881 0.34259131767099688 0 -0.45944206916787461 0.3210898587819711 0 -0.44272138075512962 0.3363595021616731 0 -0.43942753705432891 0.31125351970265208 0 -0.43160952992894852 0.31904261771746939 0 -0.44272138075512962 0.3363595021616731 0 -0.43942753705432891 0.31125351970265208 0 -0.44272138075512962 0.3363595021616731 0 -0.43942753705432891 0.31125351970265208 0 -0.43942753705432891 0.31125351970265208 0 -0.45362905335017911 0.29521752991115818 0 -0.43613369335352709 0.28614753724363129 0 -0.43942753705432891 0.31125351970265208 0 -0.43613369335352709 0.28614753724363129 0 -0.43942753705432891 0.31125351970265208 0 -0.45362905335017911 0.29521752991115818 0 -0.46386524786174388 0.30755149903176271 0 -0.4486857425770906 0.28544945734916438 0 -0.45409220035112952 0.27409994328083048 0 -0.43613369335352709 0.28614753724363129 0 -0.4486857425770906 0.28544945734916438 0 -0.45362905335017911 0.29521752991115818 0 -0.43613369335352709 0.28614753724363129 0 -0.45362905335017911 0.29521752991115818 0 -0.46111440480359078 0.28399924073067478 0 -0.47154641391327179 0.29325217734712378 0 -0.4486857425770906 0.28544945734916438 0 -0.45362905335017911 0.29521752991115818 0 -0.46111440480359078 0.28399924073067478 0 -0.46111440480359078 0.28399924073067478 0 -0.47154641391327179 0.29325217734712378 0 -0.4716414386056863 0.28139282465775028 0 -0.45362905335017911 0.29521752991115818 0 -0.46386524786174388 0.30755149903176271 0 -0.47154641391327179 0.29325217734712378 0 -0.46386524786174388 0.30755149903176271 0 -0.4804090086232527 0.31069076376421589 0 -0.47154641391327179 0.29325217734712378 0 -0.4804090086232527 0.31069076376421589 0 -0.48800234372438211 0.29175171413384737 0 -0.4804090086232527 0.31069076376421589 0 -0.47154641391327179 0.29325217734712378 0 -0.48800234372438211 0.29175171413384737 0 -0.47154641391327179 0.29325217734712378 0 -0.48276969583904311 0.28191365244884942 0 -0.48800234372438211 0.29175171413384737 0 -0.47154641391327179 0.29325217734712378 0 -0.4716414386056863 0.28139282465775028 0 -0.48276969583904311 0.28191365244884942 0 -0.48276969583904311 0.28191365244884942 0 -0.5 0.28284932975194432 0 -0.48800234372438211 0.29175171413384737 0 -0.5 0.28284932975194432 0 -0.48800234372438211 0.29175171413384737 0 -0.49999999999999689 0.30717604410158672 0 -0.4804090086232527 0.31069076376421589 0 -0.48800234372438211 0.29175171413384737 0 -0.49999999999999689 0.30717604410158672 0 -0.5 0.25852261540230181 0 -0.48818621731734491 0.27094576792864689 0 -0.48366873377818848 0.25870506396837689 0 -0.48973327060558891 0.24541041571415079 0 -0.5 0.25852261540230181 0 -0.48366873377818848 0.25870506396837689 0 -0.48276969583904311 0.28191365244884942 0 -0.5 0.28284932975194432 0 -0.48818621731734491 0.27094576792864689 0 -0.5 0.28284932975194432 0 -0.5 0.25852261540230181 0 -0.48818621731734491 0.27094576792864689 0 -0.48818621731734491 0.27094576792864689 0 -0.47724176147357328 0.2712901008737843 0 -0.48366873377818848 0.25870506396837689 0 -0.48276969583904311 0.28191365244884942 0 -0.48818621731734491 0.27094576792864689 0 -0.47724176147357328 0.2712901008737843 0 -0.4716414386056863 0.28139282465775028 0 -0.48276969583904311 0.28191365244884942 0 -0.47724176147357328 0.2712901008737843 0 -0.4716414386056863 0.28139282465775028 0 -0.47724176147357328 0.2712901008737843 0 -0.46709158002418738 0.27458351183802199 0 -0.47724176147357328 0.2712901008737843 0 -0.47205070734873222 0.26205234931803001 0 -0.46709158002418738 0.27458351183802199 0 -0.47666507949983772 0.24712926986393871 0 -0.47205070734873222 0.26205234931803001 0 -0.4649976192497573 0.26575931144439979 0 -0.47666507949983772 0.24712926986393871 0 -0.4649976192497573 0.26575931144439979 0 -0.47724176147357328 0.2712901008737843 0 -0.47205070734873222 0.26205234931803001 0 -0.48366873377818848 0.25870506396837689 0 -0.47666507949983772 0.24712926986393871 0 -0.47205070734873222 0.26205234931803001 0 -0.48366873377818848 0.25870506396837689 0 -0.47666507949983772 0.24712926986393871 0 -0.48973327060558891 0.24541041571415079 0 -0.48366873377818848 0.25870506396837689 0 -0.45772611576708028 0.25690631830856803 0 -0.4649976192497573 0.26575931144439979 0 -0.45409220035112952 0.27409994328083048 0 -0.47666507949983772 0.24712926986393871 0 -0.45772611576708028 0.25690631830856803 0 -0.4649976192497573 0.26575931144439979 0 -0.45869269992033701 0.2454907164656363 0 -0.45772611576708028 0.25690631830856803 0 -0.44660469059469471 0.25965661874610269 0 -0.47205070734873222 0.26205234931803001 0 -0.4649976192497573 0.26575931144439979 0 -0.45409220035112952 0.27409994328083048 0 -0.47205070734873222 0.26205234931803001 0 -0.45409220035112952 0.27409994328083048 0 -0.47205070734873222 0.26205234931803001 0 -0.46709158002418738 0.27458351183802199 0 -0.45409220035112952 0.27409994328083048 0 -0.46111440480359078 0.28399924073067478 0 -0.4716414386056863 0.28139282465775028 0 -0.46709158002418738 0.27458351183802199 0 -0.4486857425770906 0.28544945734916438 0 -0.46111440480359078 0.28399924073067478 0 -0.45409220035112952 0.27409994328083048 0 -0.46111440480359078 0.28399924073067478 0 -0.46709158002418738 0.27458351183802199 0 -0.45409220035112952 0.27409994328083048 0 -0.45409220035112952 0.27409994328083048 0 -0.43613369335352709 0.28614753724363129 0 -0.45409220035112952 0.27409994328083048 0 -0.43451668126905291 0.27382252102656951 0 -0.43613369335352709 0.28614753724363129 0 -0.45409220035112952 0.27409994328083048 0 -0.44660469059469471 0.25965661874610269 0 -0.43451668126905291 0.27382252102656951 0 -0.44660469059469471 0.25965661874610269 0 -0.43451668126905291 0.27382252102656951 0 -0.45772611576708028 0.25690631830856803 0 -0.45409220035112952 0.27409994328083048 0 -0.44660469059469471 0.25965661874610269 0 -0.44660469059469471 0.25965661874610269 0 -0.43170989768545909 0.25242895599527643 0 -0.43451668126905291 0.27382252102656951 0 -0.45869269992033701 0.2454907164656363 0 -0.44660469059469471 0.25965661874610269 0 -0.43170989768545909 0.25242895599527643 0 -0.43451668126905291 0.27382252102656951 0 -0.43170989768545909 0.25242895599527643 0 -0.42424585817423482 0.26990807357000401 0 -0.43451668126905291 0.27382252102656951 0 -0.43170989768545909 0.25242895599527643 0 -0.41599678998921369 0.26396731914895938 0 -0.42424585817423482 0.26990807357000401 0 -0.41378803534302749 0.24595098164021981 0 -0.41599678998921369 0.26396731914895938 0 -0.39886412305494368 0.25911133573067291 0 -0.41378803534302749 0.24595098164021981 0 -0.43170989768545909 0.25242895599527643 0 -0.41599678998921369 0.26396731914895938 0 -0.41599678998921369 0.26396731914895938 0 -0.40872610854081642 0.27570645793712101 0 -0.39886412305494368 0.25911133573067291 0 -0.40872610854081642 0.27570645793712101 0 -0.4171643117840837 0.27618774504383647 0 -0.41406083303608238 0.28736742728857861 0 -0.41599678998921369 0.26396731914895938 0 -0.40872610854081642 0.27570645793712101 0 -0.4171643117840837 0.27618774504383647 0 -0.41599678998921369 0.26396731914895938 0 -0.4171643117840837 0.27618774504383647 0 -0.42424585817423482 0.26990807357000401 0 -0.4171643117840837 0.27618774504383647 0 -0.42424585817423482 0.26990807357000401 0 -0.42159151566002118 0.28290866330928899 0 -0.43451668126905291 0.27382252102656951 0 -0.42285978958152232 0.28748319782545761 0 -0.42424585817423482 0.26990807357000401 0 -0.43451668126905291 0.27382252102656951 0 -0.42159151566002118 0.28290866330928899 0 -0.43451668126905291 0.27382252102656951 0 -0.43613369335352709 0.28614753724363129 0 -0.43451668126905291 0.27382252102656951 0 -0.43613369335352709 0.28614753724363129 0 -0.42285978958152232 0.28748319782545761 0 -0.43613369335352709 0.28614753724363129 0 -0.42462923017662879 0.29386538935314921 0 -0.43613369335352709 0.28614753724363129 0 -0.42462923017662879 0.29386538935314921 0 -0.42285978958152232 0.28748319782545761 0 -0.42462923017662879 0.29386538935314921 0 -0.42285978958152232 0.28748319782545761 0 -0.42285978958152232 0.28748319782545761 0 -0.42159151566002118 0.28290866330928899 0 -0.43451668126905291 0.27382252102656951 0 -0.42285978958152232 0.28748319782545761 0 -0.42159151566002118 0.28290866330928899 0 -0.43160952992894852 0.31904261771746939 0 -0.42462923017662879 0.29386538935314921 0 -0.43160952992894852 0.31904261771746939 0 -0.43942753705432891 0.31125351970265208 0 -0.42462923017662879 0.29386538935314921 0 -0.43942753705432891 0.31125351970265208 0 -0.43613369335352709 0.28614753724363129 0 -0.42462923017662879 0.29386538935314921 0 -0.43160952992894852 0.31904261771746939 0 -0.42462923017662879 0.29386538935314921 0 -0.41886461414888132 0.31096223850826171 0 -0.42462923017662879 0.29386538935314921 0 -0.40775273980445648 0.30518710465766691 0 -0.42462923017662879 0.29386538935314921 0 -0.41886461414888132 0.31096223850826171 0 -0.40775273980445648 0.30518710465766691 0 -0.41164356570823551 0.31335190270086738 0 -0.41886461414888132 0.31096223850826171 0 -0.40775273980445648 0.30518710465766691 0 -0.40063824822114491 0.31352455624538689 0 -0.41164356570823551 0.31335190270086738 0 -0.40775273980445648 0.30518710465766691 0 -0.42285978958152232 0.28748319782545761 0 -0.40775273980445648 0.30518710465766691 0 -0.41406083303608238 0.28736742728857861 0 -0.40775273980445648 0.30518710465766691 0 -0.41406083303608238 0.28736742728857861 0 -0.40443982003234002 0.29618377648491329 0 -0.42462923017662879 0.29386538935314921 0 -0.42285978958152232 0.28748319782545761 0 -0.40775273980445648 0.30518710465766691 0 -0.42285978958152232 0.28748319782545761 0 -0.40775273980445648 0.30518710465766691 0 -0.4171643117840837 0.27618774504383647 0 -0.42159151566002118 0.28290866330928899 0 -0.41406083303608238 0.28736742728857861 0 -0.42285978958152232 0.28748319782545761 0 -0.42159151566002118 0.28290866330928899 0 -0.41406083303608238 0.28736742728857861 0 -0.41406083303608238 0.28736742728857861 0 -0.40403074345559348 0.28833149851979251 0 -0.40443982003234002 0.29618377648491329 0 -0.40872610854081642 0.27570645793712101 0 -0.41406083303608238 0.28736742728857861 0 -0.40403074345559348 0.28833149851979251 0 -0.40872610854081642 0.27570645793712101 0 -0.40403074345559348 0.28833149851979251 0 -0.39254354753383319 0.2838720086056068 0 -0.40403074345559348 0.28833149851979251 0 -0.40443982003234002 0.29618377648491329 0 -0.39703383225571393 0.29531608997507608 0 -0.40403074345559348 0.28833149851979251 0 -0.39703383225571393 0.29531608997507608 0 -0.39254354753383319 0.2838720086056068 0 -0.39703383225571393 0.29531608997507608 0 -0.39254354753383319 0.2838720086056068 0 -0.38752671108209003 0.29500855033975959 0 -0.40063824822114491 0.31352455624538689 0 -0.40775273980445648 0.30518710465766691 0 -0.39770069179128631 0.3119305935776211 0 -0.40775273980445648 0.30518710465766691 0 -0.39932095160985348 0.30471676198345221 0 -0.39770069179128631 0.3119305935776211 0 -0.40063824822114491 0.31352455624538689 0 -0.40775273980445648 0.30518710465766691 0 -0.40775273980445648 0.30518710465766691 0 -0.39770069179128631 0.3119305935776211 0 -0.40775273980445648 0.30518710465766691 0 -0.40443982003234002 0.29618377648491329 0 -0.39932095160985348 0.30471676198345221 0 -0.40443982003234002 0.29618377648491329 0 -0.39703383225571393 0.29531608997507608 0 -0.39932095160985348 0.30471676198345221 0 -0.39703383225571393 0.29531608997507608 0 -0.39932095160985348 0.30471676198345221 0 -0.39237554184054768 0.3030202614257459 0 -0.39703383225571393 0.29531608997507608 0 -0.39237554184054768 0.3030202614257459 0 -0.38752671108209003 0.29500855033975959 0 -0.39932095160985348 0.30471676198345221 0 -0.39237554184054768 0.3030202614257459 0 -0.39415616262181558 0.31000727829641661 0 -0.39237554184054768 0.3030202614257459 0 -0.39415616262181558 0.31000727829641661 0 -0.38801290186903459 0.30931763132581058 0 -0.39032714461151569 0.31376638520547201 0 -0.39567194013031171 0.31329159626376007 0 -0.39415616262181558 0.31000727829641661 0 -0.39032714461151569 0.31376638520547201 0 -0.39415616262181558 0.31000727829641661 0 -0.38801290186903459 0.30931763132581058 0 -0.39932095160985348 0.30471676198345221 0 -0.39415616262181558 0.31000727829641661 0 -0.39770069179128631 0.3119305935776211 0 -0.39567194013031171 0.31329159626376007 0 -0.39415616262181558 0.31000727829641661 0 -0.39770069179128631 0.3119305935776211 0 -0.39415616262181558 0.31000727829641661 0 -0.39770069179128631 0.3119305935776211 0 -0.385578695250262 0.31529968711792711 0 -0.38801290186903459 0.30931763132581058 0 -0.38004678714040002 0.31049437063947499 0 -0.38801290186903459 0.30931763132581058 0 -0.38559307974966711 0.30331780526982749 0 -0.38004678714040002 0.31049437063947499 0 -0.39237554184054768 0.3030202614257459 0 -0.38801290186903459 0.30931763132581058 0 -0.38559307974966711 0.30331780526982749 0 -0.39237554184054768 0.3030202614257459 0 -0.38559307974966711 0.30331780526982749 0 -0.38752671108209003 0.29500855033975959 0 -0.38559307974966711 0.30331780526982749 0 -0.37794474124120592 0.29962867388232178 0 -0.38752671108209003 0.29500855033975959 0 -0.38559307974966711 0.30331780526982749 0 -0.37794474124120592 0.29962867388232178 0 -0.38004678714040002 0.31049437063947499 0 -0.37794474124120592 0.29962867388232178 0 -0.38004678714040002 0.31049437063947499 0 -0.37232429382281812 0.31079397890851462 0 -0.39254354753383319 0.2838720086056068 0 -0.38752671108209003 0.29500855033975959 0 -0.37820606687715302 0.28561727844967327 0 -0.37794474124120592 0.29962867388232178 0 -0.38752671108209003 0.29500855033975959 0 -0.37820606687715302 0.28561727844967327 0 -0.39254354753383319 0.2838720086056068 0 -0.37820606687715302 0.28561727844967327 0 -0.38449891796364249 0.26968058882630302 0 -0.37820606687715302 0.28561727844967327 0 -0.38449891796364249 0.26968058882630302 0 -0.36798575702080571 0.27014074782483111 0 -0.3720116894000754 0.24743174335923901 0 -0.38449891796364249 0.26968058882630302 0 -0.39886412305494368 0.25911133573067291 0 -0.40872610854081642 0.27570645793712101 0 -0.39254354753383319 0.2838720086056068 0 -0.39615817427330891 0.27209259777492589 0 -0.40872610854081642 0.27570645793712101 0 -0.39886412305494368 0.25911133573067291 0 -0.39615817427330891 0.27209259777492589 0 -0.39254354753383319 0.2838720086056068 0 -0.38449891796364249 0.26968058882630302 0 -0.39615817427330891 0.27209259777492589 0 -0.38449891796364249 0.26968058882630302 0 -0.39886412305494368 0.25911133573067291 0 -0.39615817427330891 0.27209259777492589 0 -0.3720116894000754 0.24743174335923901 0 -0.33530360316082458 0.24679204891918799 0 -0.35015821844956319 0.26441685437749668 0 -0.35015821844956319 0.26441685437749668 0 -0.36798575702080571 0.27014074782483111 0 -0.34508314390041939 0.28412090436265641 0 -0.3720116894000754 0.24743174335923901 0 -0.38449891796364249 0.26968058882630302 0 -0.36798575702080571 0.27014074782483111 0 -0.3720116894000754 0.24743174335923901 0 -0.35015821844956319 0.26441685437749668 0 -0.36798575702080571 0.27014074782483111 0 -0.36798575702080571 0.27014074782483111 0 -0.35837087878306911 0.29627442375870838 0 -0.37794474124120592 0.29962867388232178 0 -0.37820606687715302 0.28561727844967327 0 -0.35837087878306911 0.29627442375870838 0 -0.37820606687715302 0.28561727844967327 0 -0.36798575702080571 0.27014074782483111 0 -0.35837087878306911 0.29627442375870838 0 -0.37794474124120592 0.29962867388232178 0 -0.37232429382281812 0.31079397890851462 0 -0.35837087878306911 0.29627442375870838 0 -0.37232429382281812 0.31079397890851462 0 -0.35837087878306911 0.29627442375870838 0 -0.3635914276379838 0.32109100298893251 0 -0.35837087878306911 0.29627442375870838 0 -0.33630626353962778 0.30833456735472758 0 -0.3487560005453324 0.32240809969258583 0 -0.35837087878306911 0.29627442375870838 0 -0.3487560005453324 0.32240809969258583 0 -0.34508314390041939 0.28412090436265641 0 -0.35837087878306911 0.29627442375870838 0 -0.33630626353962778 0.30833456735472758 0 -0.36798575702080571 0.27014074782483111 0 -0.34508314390041939 0.28412090436265641 0 -0.35837087878306911 0.29627442375870838 0 -0.34508314390041939 0.28412090436265641 0 -0.32658878943332748 0.29300137756658268 0 -0.33108895617612288 0.27255745529359182 0 -0.34508314390041939 0.28412090436265641 0 -0.33630626353962778 0.30833456735472758 0 -0.32658878943332748 0.29300137756658268 0 -0.33630626353962778 0.30833456735472758 0 -0.32658878943332748 0.29300137756658268 0 -0.32333812918818661 0.31290357558885068 0 -0.32658878943332748 0.29300137756658268 0 -0.31057305952822373 0.29939184074672409 0 -0.32333812918818661 0.31290357558885068 0 -0.32658878943332748 0.29300137756658268 0 -0.31518759957106302 0.28045443866336961 0 -0.31057305952822373 0.29939184074672409 0 -0.32658878943332748 0.29300137756658268 0 -0.31518759957106302 0.28045443866336961 0 -0.33108895617612288 0.27255745529359182 0 -0.31518759957106302 0.28045443866336961 0 -0.33108895617612288 0.27255745529359182 0 -0.31458975536835199 0.26242518776222418 0 -0.35015821844956319 0.26441685437749668 0 -0.34508314390041939 0.28412090436265641 0 -0.33108895617612288 0.27255745529359182 0 -0.33530360316082458 0.24679204891918799 0 -0.35015821844956319 0.26441685437749668 0 -0.33108895617612288 0.27255745529359182 0 -0.33530360316082458 0.24679204891918799 0 -0.33108895617612288 0.27255745529359182 0 -0.31458975536835199 0.26242518776222418 0 -0.31026200863687042 0.23965092843437941 0 -0.31458975536835199 0.26242518776222418 0 -0.30123656942269672 0.25940403457669048 0 -0.31518759957106302 0.28045443866336961 0 -0.31458975536835199 0.26242518776222418 0 -0.29582215313578042 0.27648810942452678 0 -0.31458975536835199 0.26242518776222418 0 -0.30123656942269672 0.25940403457669048 0 -0.29582215313578042 0.27648810942452678 0 -0.30123656942269672 0.25940403457669048 0 -0.29582215313578042 0.27648810942452678 0 -0.29027104524703662 0.26387842065926509 0 -0.29582215313578042 0.27648810942452678 0 -0.28302197450855349 0.27209575628159399 0 -0.29027104524703662 0.26387842065926509 0 -0.28302197450855349 0.27209575628159399 0 -0.29027104524703662 0.26387842065926509 0 -0.27742901656647789 0.26105249253088308 0 -0.29582215313578042 0.27648810942452678 0 -0.28302197450855349 0.27209575628159399 0 -0.28046119524466551 0.28194201138803099 0 -0.29384551260167402 0.25035171048263111 0 -0.29027104524703662 0.26387842065926509 0 -0.27742901656647789 0.26105249253088308 0 -0.29384551260167402 0.25035171048263111 0 -0.27742901656647789 0.26105249253088308 0 -0.30123656942269672 0.25940403457669048 0 -0.29384551260167402 0.25035171048263111 0 -0.29027104524703662 0.26387842065926509 0 -0.26408076406091679 0.24517607692296789 0 -0.27742901656647789 0.26105249253088308 0 -0.26330821191048021 0.25938927493529168 0 -0.27742901656647789 0.26105249253088308 0 -0.25869461720137787 0.27326415596874681 0 -0.26330821191048021 0.25938927493529168 0 -0.27742901656647789 0.26105249253088308 0 -0.26838239718705748 0.27741869467359093 0 -0.25869461720137787 0.27326415596874681 0 -0.27742901656647789 0.26105249253088308 0 -0.26838239718705748 0.27741869467359093 0 -0.28302197450855349 0.27209575628159399 0 -0.27742901656647789 0.26105249253088308 0 -0.27149764719146258 0.27875464849765769 0 -0.27742901656647789 0.26105249253088308 0 -0.27149764719146258 0.27875464849765769 0 -0.26838239718705748 0.27741869467359093 0 -0.27742901656647789 0.26105249253088308 0 -0.25869461720137787 0.27326415596874681 0 -0.28302197450855349 0.27209575628159399 0 -0.27149764719146258 0.27875464849765769 0 -0.28046119524466551 0.28194201138803099 0 -0.27149764719146258 0.27875464849765769 0 -0.26838239718705748 0.27741869467359093 0 -0.27085780195437609 0.28363490170207928 0 -0.27149764719146258 0.27875464849765769 0 -0.26838239718705748 0.27741869467359093 0 -0.26838239718705748 0.27741869467359093 0 -0.26486702133091328 0.28377834676640751 0 -0.26838239718705748 0.27741869467359093 0 -0.25869461720137787 0.27326415596874681 0 -0.26088688995883541 0.27980964443126682 0 -0.26838239718705748 0.27741869467359093 0 -0.25869461720137787 0.27326415596874681 0 -0.26838239718705748 0.27741869467359093 0 -0.26088688995883541 0.27980964443126682 0 -0.26486702133091328 0.28377834676640751 0 -0.25869461720137787 0.27326415596874681 0 -0.25316038087885961 0.28154957362374478 0 -0.24466340725627719 0.28241013445123608 0 -0.25869461720137787 0.27326415596874681 0 -0.24466340725627719 0.28241013445123608 0 -0.25869461720137787 0.27326415596874681 0 -0.26088688995883541 0.27980964443126682 0 -0.25316038087885961 0.28154957362374478 0 -0.25869461720137787 0.27326415596874681 0 -0.25244996598307418 0.25641473194636027 0 -0.26330821191048021 0.25938927493529168 0 -0.26408076406091679 0.24517607692296789 0 -0.25244996598307418 0.25641473194636027 0 -0.26330821191048021 0.25938927493529168 0 -0.25974464080112769 0.30180028208123078 0 -0.25880606277854168 0.30975595518875809 0 -0.27632384874934057 0.29901399245754168 0 -0.25880606277854168 0.30975595518875809 0 -0.27632384874934057 0.29901399245754168 0 -0.25682554436289812 0.32153987549055407 0 -0.25974464080112769 0.30180028208123078 0 -0.25691443221091381 0.29608001848633392 0 -0.26416160386569931 0.29613464398860018 0 -0.25880606277854168 0.30975595518875809 0 -0.25349682918101518 0.315588619053846 0 -0.24995875472636631 0.30865150553894988 0 -0.25974464080112769 0.30180028208123078 0 -0.25880606277854168 0.30975595518875809 0 -0.24995875472636631 0.30865150553894988 0 -0.25974464080112769 0.30180028208123078 0 -0.25230314247590491 0.30116557682720108 0 -0.24995875472636631 0.30865150553894988 0 -0.25230314247590491 0.30116557682720108 0 -0.24801025996080489 0.30351113118129402 0 -0.24995875472636631 0.30865150553894988 0 -0.25974464080112769 0.30180028208123078 0 -0.25230314247590491 0.30116557682720108 0 -0.25691443221091381 0.29608001848633392 0 -0.25230314247590491 0.30116557682720108 0 -0.25122297937698662 0.29503902165060658 0 -0.25691443221091381 0.29608001848633392 0 -0.25230314247590491 0.30116557682720108 0 -0.25122297937698662 0.29503902165060658 0 -0.24754731783654399 0.2993331961295761 0 -0.25065828437581061 0.29099340376357141 0 -0.25395852977503108 0.2891634491748506 0 -0.2479793443816648 0.28801134435840692 0 -0.25122297937698662 0.29503902165060658 0 -0.25065828437581061 0.29099340376357141 0 -0.25395852977503108 0.2891634491748506 0 -0.25395852977503108 0.2891634491748506 0 -0.25691443221091381 0.29608001848633392 0 -0.26107733560836899 0.29050314238353392 0 -0.25122297937698662 0.29503902165060658 0 -0.25395852977503108 0.2891634491748506 0 -0.25691443221091381 0.29608001848633392 0 -0.25395852977503108 0.2891634491748506 0 -0.25316038087885961 0.28154957362374478 0 -0.24890537277938471 0.2846227336004975 0 -0.25395852977503108 0.2891634491748506 0 -0.2479793443816648 0.28801134435840692 0 -0.24890537277938471 0.2846227336004975 0 -0.25395852977503108 0.2891634491748506 0 -0.25316038087885961 0.28154957362374478 0 -0.25884902648953279 0.28484704381998432 0 -0.26088688995883541 0.27980964443126682 0 -0.25316038087885961 0.28154957362374478 0 -0.25884902648953279 0.28484704381998432 0 -0.26088688995883541 0.27980964443126682 0 -0.25884902648953279 0.28484704381998432 0 -0.26486702133091328 0.28377834676640751 0 -0.25395852977503108 0.2891634491748506 0 -0.25884902648953279 0.28484704381998432 0 -0.26107733560836899 0.29050314238353392 0 -0.25884902648953279 0.28484704381998432 0 -0.26486702133091328 0.28377834676640751 0 -0.26107733560836899 0.29050314238353392 0 -0.26486702133091328 0.28377834676640751 0 -0.26107733560836899 0.29050314238353392 0 -0.2671434097580575 0.28950092277551398 0 -0.25691443221091381 0.29608001848633392 0 -0.26107733560836899 0.29050314238353392 0 -0.26416160386569931 0.29613464398860018 0 -0.26107733560836899 0.29050314238353392 0 -0.26416160386569931 0.29613464398860018 0 -0.2671434097580575 0.28950092277551398 0 -0.28046119524466551 0.28194201138803099 0 -0.27361152402920341 0.28870143151762961 0 -0.27632384874934057 0.29901399245754168 0 -0.2671434097580575 0.28950092277551398 0 -0.27361152402920341 0.28870143151762961 0 -0.27632384874934057 0.29901399245754168 0 -0.26416160386569931 0.29613464398860018 0 -0.2671434097580575 0.28950092277551398 0 -0.27632384874934057 0.29901399245754168 0 -0.26838239718705748 0.27741869467359093 0 -0.26486702133091328 0.28377834676640751 0 -0.27085780195437609 0.28363490170207928 0 -0.26486702133091328 0.28377834676640751 0 -0.2671434097580575 0.28950092277551398 0 -0.27085780195437609 0.28363490170207928 0 -0.2671434097580575 0.28950092277551398 0 -0.27085780195437609 0.28363490170207928 0 -0.27361152402920341 0.28870143151762961 0 -0.27085780195437609 0.28363490170207928 0 -0.28046119524466551 0.28194201138803099 0 -0.27361152402920341 0.28870143151762961 0 -0.27149764719146258 0.27875464849765769 0 -0.27085780195437609 0.28363490170207928 0 -0.28046119524466551 0.28194201138803099 0 -0.27632384874934057 0.29901399245754168 0 -0.25682554436289812 0.32153987549055407 0 -0.25974464080112769 0.30180028208123078 0 -0.26416160386569931 0.29613464398860018 0 -0.27632384874934057 0.29901399245754168 0 -0.27632384874934057 0.29901399245754168 0 -0.29374005960074467 0.30723085372840681 0 -0.2827751900557679 0.32405587482887749 0 -0.29582215313578042 0.27648810942452678 0 -0.27632384874934057 0.29901399245754168 0 -0.29374005960074467 0.30723085372840681 0 -0.29582215313578042 0.27648810942452678 0 -0.28046119524466551 0.28194201138803099 0 -0.27632384874934057 0.29901399245754168 0 -0.29582215313578042 0.27648810942452678 0 -0.27632384874934057 0.29901399245754168 0 -0.29582215313578042 0.27648810942452678 0 -0.29374005960074467 0.30723085372840681 0 -0.31057305952822373 0.29939184074672409 0 -0.31518759957106302 0.28045443866336961 0 -0.29582215313578042 0.27648810942452678 0 -0.31057305952822373 0.29939184074672409 0 -0.29374005960074467 0.30723085372840681 0 -0.31057305952822373 0.29939184074672409 0 -0.30872483574863702 0.32657187416720751 0 -0.30872483574863702 0.32657187416720751 0 -0.28696335915111171 0.34463908772394969 0 -0.31002550233620002 0.34695431679357608 0 -0.30872483574863702 0.32657187416720751 0 -0.2827751900557679 0.32405587482887749 0 -0.28696335915111171 0.34463908772394969 0 -0.29374005960074467 0.30723085372840681 0 -0.30872483574863702 0.32657187416720751 0 -0.2827751900557679 0.32405587482887749 0 -0.30872483574863702 0.32657187416720751 0 -0.2827751900557679 0.32405587482887749 0 -0.2827751900557679 0.32405587482887749 0 -0.25682554436289812 0.32153987549055407 0 -0.27632384874934057 0.29901399245754168 0 -0.2827751900557679 0.32405587482887749 0 -0.25682554436289812 0.32153987549055407 0 -0.2827751900557679 0.32405587482887749 0 -0.26390121596602339 0.34232385865432319 0 -0.28696335915111171 0.34463908772394969 0 -0.2827751900557679 0.32405587482887749 0 -0.26390121596602339 0.34232385865432319 0 -0.25682554436289812 0.32153987549055407 0 -0.26390121596602339 0.34232385865432319 0 -0.28696335915111171 0.34463908772394969 0 -0.26390121596602339 0.34232385865432319 0 -0.25682554436289812 0.32153987549055407 0 -0.240839072780935 0.34000862958469869 0 -0.26390121596602339 0.34232385865432319 0 -0.240839072780935 0.34000862958469869 0 -0.25682554436289812 0.32153987549055407 0 -0.25441860091976909 0.32130650551771689 0 -0.240839072780935 0.34000862958469869 0 -0.25682554436289812 0.32153987549055407 0 -0.25441860091976909 0.32130650551771689 0 -0.25441860091976909 0.32130650551771689 0 -0.25349682918101518 0.315588619053846 0 -0.2474751831174983 0.31668925353324862 0 -0.25349682918101518 0.315588619053846 0 -0.2474751831174983 0.31668925353324862 0 -0.24995875472636631 0.30865150553894988 0 -0.25880606277854168 0.30975595518875809 0 -0.25682554436289812 0.32153987549055407 0 -0.25349682918101518 0.315588619053846 0 -0.25682554436289812 0.32153987549055407 0 -0.25441860091976909 0.32130650551771689 0 -0.25349682918101518 0.315588619053846 0 -0.25965205920051943 0.36698188524593128 0 -0.25010325997960881 0.38216550747003092 0 -0.2425690902814803 0.35889421656913578 0 -0.26390121596602339 0.34232385865432319 0 -0.25965205920051943 0.36698188524593128 0 -0.2425690902814803 0.35889421656913578 0 -0.26390121596602339 0.34232385865432319 0 -0.27575167938846817 0.36082686507198308 0 -0.28696335915111171 0.34463908772394969 0 -0.26390121596602339 0.34232385865432319 0 -0.25965205920051943 0.36698188524593128 0 -0.27575167938846817 0.36082686507198308 0 -0.25965205920051943 0.36698188524593128 0 -0.27575167938846817 0.36082686507198308 0 -0.2703506674833423 0.38380770016734012 0 -0.27575167938846817 0.36082686507198308 0 -0.28640931081906079 0.37565613161274358 0 -0.2703506674833423 0.38380770016734012 0 -0.27575167938846817 0.36082686507198308 0 -0.29323825514590868 0.36063638540125498 0 -0.28640931081906079 0.37565613161274358 0 -0.29323825514590868 0.36063638540125498 0 -0.30756402461883309 0.37084693675575209 0 -0.28640931081906079 0.37565613161274358 0 -0.29323825514590868 0.36063638540125498 0 -0.28696335915111171 0.34463908772394969 0 -0.31002550233620002 0.34695431679357608 0 -0.27575167938846817 0.36082686507198308 0 -0.29323825514590868 0.36063638540125498 0 -0.28696335915111171 0.34463908772394969 0 -0.28696335915111171 0.34463908772394969 0 -0.31002550233620002 0.34695431679357608 0 -0.29323825514590868 0.36063638540125498 0 -0.31002550233620002 0.34695431679357608 0 -0.30756402461883309 0.37084693675575209 0 -0.31002550233620002 0.34695431679357608 0 -0.30756402461883309 0.37084693675575209 0 -0.32041068870257461 0.36083228422120273 0 -0.30756402461883309 0.37084693675575209 0 -0.32041068870257461 0.36083228422120273 0 -0.33096558233397921 0.37625833747227783 0 -0.3421609016005917 0.36378133182233702 0 -0.35080821595570438 0.37232074509285701 0 -0.33096558233397921 0.37625833747227783 0 -0.333087645521288 0.34926954586320519 0 -0.33096558233397921 0.37625833747227783 0 -0.3421609016005917 0.36378133182233702 0 -0.333087645521288 0.34926954586320519 0 -0.33096558233397921 0.37625833747227783 0 -0.32041068870257461 0.36083228422120273 0 -0.333087645521288 0.34926954586320519 0 -0.33096558233397921 0.37625833747227783 0 -0.3421609016005917 0.36378133182233702 0 -0.33096558233397921 0.37625833747227783 0 -0.333087645521288 0.34926954586320519 0 -0.35335622086720209 0.35130432617239438 0 -0.3421609016005917 0.36378133182233702 0 -0.333087645521288 0.34926954586320519 0 -0.35335622086720209 0.35130432617239438 0 -0.333087645521288 0.34926954586320519 0 -0.33914112230759558 0.34854177562646338 0 -0.35335622086720209 0.35130432617239438 0 -0.31002550233620002 0.34695431679357608 0 -0.333087645521288 0.34926954586320519 0 -0.32162811626190779 0.33797090258238149 0 -0.31002550233620002 0.34695431679357608 0 -0.333087645521288 0.34926954586320519 0 -0.31002550233620002 0.34695431679357608 0 -0.32041068870257461 0.36083228422120273 0 -0.333087645521288 0.34926954586320519 0 -0.30872483574863702 0.32657187416720751 0 -0.32162811626190779 0.33797090258238149 0 -0.33467448144150641 0.3290878735055372 0 -0.30872483574863702 0.32657187416720751 0 -0.31002550233620002 0.34695431679357608 0 -0.32162811626190779 0.33797090258238149 0 -0.30872483574863702 0.32657187416720751 0 -0.32333812918818661 0.31290357558885068 0 -0.33467448144150641 0.3290878735055372 0 -0.31057305952822373 0.29939184074672409 0 -0.30872483574863702 0.32657187416720751 0 -0.32333812918818661 0.31290357558885068 0 -0.30872483574863702 0.32657187416720751 0 -0.33467448144150641 0.3290878735055372 0 -0.33630626353962778 0.30833456735472758 0 -0.32333812918818661 0.31290357558885068 0 -0.33467448144150641 0.3290878735055372 0 -0.33630626353962778 0.30833456735472758 0 -0.33467448144150641 0.3290878735055372 0 -0.3487560005453324 0.32240809969258583 0 -0.33630626353962778 0.30833456735472758 0 -0.33467448144150641 0.3290878735055372 0 -0.33467448144150641 0.3290878735055372 0 -0.34311607417266149 0.32990634486261938 0 -0.3487560005453324 0.32240809969258583 0 -0.333087645521288 0.34926954586320519 0 -0.33914112230759558 0.34854177562646338 0 -0.33467448144150641 0.3290878735055372 0 -0.333087645521288 0.34926954586320519 0 -0.33467448144150641 0.3290878735055372 0 -0.333087645521288 0.34926954586320519 0 -0.32162811626190779 0.33797090258238149 0 -0.33467448144150641 0.3290878735055372 0 -0.33914112230759558 0.34854177562646338 0 -0.34311607417266149 0.32990634486261938 0 -0.3487560005453324 0.32240809969258583 0 -0.33914112230759558 0.34854177562646338 0 -0.33467448144150641 0.3290878735055372 0 -0.34311607417266149 0.32990634486261938 0 -0.33467448144150641 0.3290878735055372 0 -0.34311607417266149 0.32990634486261938 0 -0.33914112230759558 0.34854177562646338 0 -0.35011839650749182 0.33530670105493487 0 -0.3487560005453324 0.32240809969258583 0 -0.33914112230759558 0.34854177562646338 0 -0.34968930912973689 0.34280762561107131 0 -0.35011839650749182 0.33530670105493487 0 -0.33914112230759558 0.34854177562646338 0 -0.3487560005453324 0.32240809969258583 0 -0.35011839650749182 0.33530670105493487 0 -0.35769444153469782 0.32989457078250489 0 -0.3487560005453324 0.32240809969258583 0 -0.35011839650749182 0.33530670105493487 0 -0.35769444153469782 0.32989457078250489 0 -0.35719078111186559 0.33877918077963742 0 -0.35719078111186559 0.33877918077963742 0 -0.36690682475142128 0.33620239319512368 0 -0.35335622086720209 0.35130432617239438 0 -0.34968930912973689 0.34280762561107131 0 -0.35011839650749182 0.33530670105493487 0 -0.35719078111186559 0.33877918077963742 0 -0.35837087878306911 0.29627442375870838 0 -0.3487560005453324 0.32240809969258583 0 -0.3635914276379838 0.32109100298893251 0 -0.35769444153469782 0.32989457078250489 0 -0.3487560005453324 0.32240809969258583 0 -0.3635914276379838 0.32109100298893251 0 -0.37815623955144723 0.32366509893170042 0 -0.3635914276379838 0.32109100298893251 0 -0.36690682475142128 0.33620239319512368 0 -0.37815623955144723 0.32366509893170042 0 -0.37232429382281812 0.31079397890851462 0 -0.3635914276379838 0.32109100298893251 0 -0.35719078111186559 0.33877918077963742 0 -0.36690682475142128 0.33620239319512368 0 -0.35769444153469782 0.32989457078250489 0 -0.3635914276379838 0.32109100298893251 0 -0.36690682475142128 0.33620239319512368 0 -0.35769444153469782 0.32989457078250489 0 -0.35719078111186559 0.33877918077963742 0 -0.36690682475142128 0.33620239319512368 0 -0.37815623955144723 0.32366509893170042 0 -0.36690682475142128 0.33620239319512368 0 -0.38197606614046009 0.35417749789858899 0 -0.35335622086720209 0.35130432617239438 0 -0.38197606614046009 0.35417749789858899 0 -0.36690682475142128 0.33620239319512368 0 -0.35335622086720209 0.35130432617239438 0 -0.38197606614046009 0.35417749789858899 0 -0.36548124366985829 0.36855787139988311 0 -0.35335622086720209 0.35130432617239438 0 -0.36690682475142128 0.33620239319512368 0 -0.35335622086720209 0.35130432617239438 0 -0.37972107570738722 0.37147753735631001 0 -0.36548124366985829 0.36855787139988311 0 -0.37141021567644938 0.3819240236851501 0 -0.3421609016005917 0.36378133182233702 0 -0.35080821595570438 0.37232074509285701 0 -0.35335622086720209 0.35130432617239438 0 -0.36548124366985829 0.36855787139988311 0 -0.35080821595570438 0.37232074509285701 0 -0.35335622086720209 0.35130432617239438 0 -0.36548124366985829 0.36855787139988311 0 -0.35080821595570438 0.37232074509285701 0 -0.3588164178041427 0.38344599948821378 0 -0.3421609016005917 0.36378133182233702 0 -0.35335622086720209 0.35130432617239438 0 -0.33914112230759558 0.34854177562646338 0 -0.34968930912973689 0.34280762561107131 0 -0.35335622086720209 0.35130432617239438 0 -0.34968930912973689 0.34280762561107131 0 -0.35719078111186559 0.33877918077963742 0 -0.35335622086720209 0.35130432617239438 0 -0.35275327903174181 0.39926843559781411 0 -0.35068080181436312 0.41336424778826047 0 -0.32861846321060989 0.40610943204902777 0 -0.35275327903174181 0.39926843559781411 0 -0.3588164178041427 0.38344599948821378 0 -0.36563298770636332 0.39339747448891771 0 -0.35275327903174181 0.39926843559781411 0 -0.34681256478473932 0.38520744666466139 0 -0.33922593908493598 0.3924954373992911 0 -0.35275327903174181 0.39926843559781411 0 -0.34681256478473932 0.38520744666466139 0 -0.3588164178041427 0.38344599948821378 0 -0.35080821595570438 0.37232074509285701 0 -0.34681256478473932 0.38520744666466139 0 -0.3588164178041427 0.38344599948821378 0 -0.3588164178041427 0.38344599948821378 0 -0.37141021567644938 0.3819240236851501 0 -0.36563298770636332 0.39339747448891771 0 -0.36548124366985829 0.36855787139988311 0 -0.3588164178041427 0.38344599948821378 0 -0.37141021567644938 0.3819240236851501 0 -0.37813277588106597 0.39643554819751331 0 -0.37141021567644938 0.3819240236851501 0 -0.36563298770636332 0.39339747448891771 0 -0.37813277588106597 0.39643554819751331 0 -0.36563298770636332 0.39339747448891771 0 -0.36820147828488259 0.40328809187345388 0 -0.35275327903174181 0.39926843559781411 0 -0.36820147828488259 0.40328809187345388 0 -0.36386386329498788 0.41402885397093508 0 -0.35275327903174181 0.39926843559781411 0 -0.36563298770636332 0.39339747448891771 0 -0.36820147828488259 0.40328809187345388 0 -0.37767869276464439 0.41021006436074459 0 -0.37813277588106597 0.39643554819751331 0 -0.36820147828488259 0.40328809187345388 0 -0.37767869276464439 0.41021006436074459 0 -0.36820147828488259 0.40328809187345388 0 -0.36386386329498788 0.41402885397093508 0 -0.37767869276464439 0.41021006436074459 0 -0.36386386329498788 0.41402885397093508 0 -0.37396298612724238 0.42209814300880683 0 -0.38303930066684888 0.43275526436642731 0 -0.3587429051341916 0.43412710024587992 0 -0.38303930066684888 0.43275526436642731 0 -0.37396298612724238 0.42209814300880683 0 -0.3587429051341916 0.43412710024587992 0 -0.36386386329498788 0.41402885397093508 0 -0.37396298612724238 0.42209814300880683 0 -0.3587429051341916 0.43412710024587992 0 -0.3587429051341916 0.43412710024587992 0 -0.34461864203980608 0.42390305052383093 0 -0.35068080181436312 0.41336424778826047 0 -0.3587429051341916 0.43412710024587992 0 -0.34461864203980608 0.42390305052383093 0 -0.33444650960153438 0.4354989361253328 0 -0.3587429051341916 0.43412710024587992 0 -0.33444650960153438 0.4354989361253328 0 -0.36386386329498788 0.41402885397093508 0 -0.3587429051341916 0.43412710024587992 0 -0.35068080181436312 0.41336424778826047 0 -0.35275327903174181 0.39926843559781411 0 -0.36386386329498788 0.41402885397093508 0 -0.35068080181436312 0.41336424778826047 0 -0.34461864203980608 0.42390305052383093 0 -0.35068080181436312 0.41336424778826047 0 -0.32861846321060989 0.40610943204902777 0 -0.34461864203980608 0.42390305052383093 0 -0.33444650960153438 0.4354989361253328 0 -0.32861846321060989 0.40610943204902777 0 -0.33444650960153438 0.4354989361253328 0 -0.32627134408724562 0.43596052662577839 0 -0.32861846321060989 0.40610943204902777 0 -0.34461864203980608 0.42390305052383093 0 -0.33444650960153438 0.4354989361253328 0 -0.33444650960153438 0.4354989361253328 0 -0.32627134408724562 0.43596052662577839 0 -0.32627134408724562 0.43596052662577839 0 -0.31417051431880832 0.41980921175943992 0 -0.30685580228761339 0.43705677717141828 0 -0.32627134408724562 0.43596052662577839 0 -0.30685580228761339 0.43705677717141828 0 -0.31417051431880832 0.41980921175943992 0 -0.31410107685770422 0.39505356118139978 0 -0.32861846321060989 0.40610943204902777 0 -0.32627134408724562 0.43596052662577839 0 -0.32861846321060989 0.40610943204902777 0 -0.32627134408724562 0.43596052662577839 0 -0.31417051431880832 0.41980921175943992 0 -0.32861846321060989 0.40610943204902777 0 -0.31410107685770422 0.39505356118139978 0 -0.32861846321060989 0.40610943204902777 0 -0.33096558233397921 0.37625833747227783 0 -0.32861846321060989 0.40610943204902777 0 -0.33096558233397921 0.37625833747227783 0 -0.35275327903174181 0.39926843559781411 0 -0.32861846321060989 0.40610943204902777 0 -0.33922593908493598 0.3924954373992911 0 -0.32861846321060989 0.40610943204902777 0 -0.33922593908493598 0.3924954373992911 0 -0.33096558233397921 0.37625833747227783 0 -0.35080821595570438 0.37232074509285701 0 -0.34681256478473932 0.38520744666466139 0 -0.33096558233397921 0.37625833747227783 0 -0.34681256478473932 0.38520744666466139 0 -0.33922593908493598 0.3924954373992911 0 -0.33096558233397921 0.37625833747227783 0 -0.30756402461883309 0.37084693675575209 0 -0.31410107685770422 0.39505356118139978 0 -0.33096558233397921 0.37625833747227783 0 -0.31410107685770422 0.39505356118139978 0 -0.33096558233397921 0.37625833747227783 0 -0.30756402461883309 0.37084693675575209 0 -0.31410107685770422 0.39505356118139978 0 -0.29068560893293821 0.39620398503821519 0 -0.31410107685770422 0.39505356118139978 0 -0.29068560893293821 0.39620398503821519 0 -0.29723657138142762 0.41384878489052029 0 -0.31410107685770422 0.39505356118139978 0 -0.29723657138142762 0.41384878489052029 0 -0.29068560893293821 0.39620398503821519 0 -0.27211230282731991 0.40600011999535901 0 -0.28281510774206342 0.41470607118863362 0 -0.29068560893293821 0.39620398503821519 0 -0.28640931081906079 0.37565613161274358 0 -0.2703506674833423 0.38380770016734012 0 -0.30756402461883309 0.37084693675575209 0 -0.29068560893293821 0.39620398503821519 0 -0.28640931081906079 0.37565613161274358 0 -0.29068560893293821 0.39620398503821519 0 -0.2703506674833423 0.38380770016734012 0 -0.27211230282731991 0.40600011999535901 0 -0.2703506674833423 0.38380770016734012 0 -0.27211230282731991 0.40600011999535901 0 -0.25700348794621308 0.39761547011383119 0 -0.2703506674833423 0.38380770016734012 0 -0.25700348794621308 0.39761547011383119 0 -0.25010325997960881 0.38216550747003092 0 -0.25965205920051943 0.36698188524593128 0 -0.2703506674833423 0.38380770016734012 0 -0.25010325997960881 0.38216550747003092 0 -0.25942221545204353 0.41763139312747227 0 -0.27366898966348019 0.42483345741943218 0 -0.26184094295787191 0.43764731614111357 0 -0.25156123850503848 0.43039672435479659 0 -0.26184094295787191 0.43764731614111357 0 -0.24615972341571479 0.43784613295590807 0 -0.25156123850503848 0.43039672435479659 0 -0.25942221545204353 0.41763139312747227 0 -0.2399012026120371 0.42612601373493342 0 -0.25942221545204353 0.41763139312747227 0 -0.26184094295787191 0.43764731614111357 0 -0.25156123850503848 0.43039672435479659 0 -0.25942221545204353 0.41763139312747227 0 -0.26184094295787191 0.43764731614111357 0 -0.25700348794621308 0.39761547011383119 0 -0.25942221545204353 0.41763139312747227 0 -0.24053130872332229 0.40391907954382728 0 -0.27211230282731991 0.40600011999535901 0 -0.25700348794621308 0.39761547011383119 0 -0.25942221545204353 0.41763139312747227 0 -0.25700348794621308 0.39761547011383119 0 -0.25942221545204353 0.41763139312747227 0 -0.27211230282731991 0.40600011999535901 0 -0.27366898966348019 0.42483345741943218 0 -0.28281510774206342 0.41470607118863362 0 -0.27211230282731991 0.40600011999535901 0 -0.25942221545204353 0.41763139312747227 0 -0.27366898966348019 0.42483345741943218 0 -0.27366898966348019 0.42483345741943218 0 -0.28037206590515101 0.43264400859964092 0 -0.28281510774206342 0.41470607118863362 0 -0.27366898966348019 0.42483345741943218 0 -0.28037206590515101 0.43264400859964092 0 -0.26184094295787191 0.43764731614111357 0 -0.27366898966348019 0.42483345741943218 0 -0.26184094295787191 0.43764731614111357 0 -0.28037206590515101 0.43264400859964092 0 -0.296752400632115 0.42786747135004533 0 -0.28744026048798121 0.43815302771705772 0 -0.28037206590515101 0.43264400859964092 0 -0.29723657138142762 0.41384878489052029 0 -0.28037206590515101 0.43264400859964092 0 -0.296752400632115 0.42786747135004533 0 -0.29723657138142762 0.41384878489052029 0 -0.28037206590515101 0.43264400859964092 0 -0.28281510774206342 0.41470607118863362 0 -0.29723657138142762 0.41384878489052029 0 -0.29068560893293821 0.39620398503821519 0 -0.28281510774206342 0.41470607118863362 0 -0.29723657138142762 0.41384878489052029 0 -0.31417051431880832 0.41980921175943992 0 -0.296752400632115 0.42786747135004533 0 -0.29723657138142762 0.41384878489052029 0 -0.31417051431880832 0.41980921175943992 0 -0.31410107685770422 0.39505356118139978 0 -0.29723657138142762 0.41384878489052029 0 -0.296752400632115 0.42786747135004533 0 -0.30685580228761339 0.43705677717141828 0 -0.28744026048798121 0.43815302771705772 0 -0.31417051431880832 0.41980921175943992 0 -0.296752400632115 0.42786747135004533 0 -0.30685580228761339 0.43705677717141828 0 -0.30685580228761339 0.43705677717141828 0 -0.28744026048798121 0.43815302771705772 0 -0.30685580228761339 0.43705677717141828 0 -0.29849254580042622 0.44794815469132682 0 -0.31313778468791831 0.44737603665611397 0 -0.30685580228761339 0.43705677717141828 0 -0.29849254580042622 0.44794815469132682 0 -0.28744026048798121 0.43815302771705772 0 -0.29849254580042622 0.44794815469132682 0 -0.31098882669364708 0.46223989817305211 0 -0.31313778468791831 0.44737603665611397 0 -0.31098882669364708 0.46223989817305211 0 -0.28916058020777119 0.45990927287831379 0 -0.29647135104434053 0.47878932749610997 0 -0.29849254580042622 0.44794815469132682 0 -0.31098882669364708 0.46223989817305211 0 -0.28916058020777119 0.45990927287831379 0 -0.28916058020777119 0.45990927287831379 0 -0.28022650558094409 0.45433094700681009 0 -0.27531716130691303 0.46161351173092802 0 -0.28916058020777119 0.45990927287831379 0 -0.28609329776286768 0.44820947078770429 0 -0.28022650558094409 0.45433094700681009 0 -0.29849254580042622 0.44794815469132682 0 -0.28609329776286768 0.44820947078770429 0 -0.28744026048798121 0.43815302771705772 0 -0.29849254580042622 0.44794815469132682 0 -0.28916058020777119 0.45990927287831379 0 -0.28609329776286768 0.44820947078770429 0 -0.28037206590515101 0.43264400859964092 0 -0.28744026048798121 0.43815302771705772 0 -0.27722176544347471 0.44534867373201048 0 -0.28609329776286768 0.44820947078770429 0 -0.28744026048798121 0.43815302771705772 0 -0.27722176544347471 0.44534867373201048 0 -0.28037206590515101 0.43264400859964092 0 -0.26184094295787191 0.43764731614111357 0 -0.26350756042887552 0.45143923230876237 0 -0.28037206590515101 0.43264400859964092 0 -0.26350756042887552 0.45143923230876237 0 -0.28037206590515101 0.43264400859964092 0 -0.27722176544347471 0.44534867373201048 0 -0.26350756042887552 0.45143923230876237 0 -0.27722176544347471 0.44534867373201048 0 -0.27380845581197633 0.45258975612012992 0 -0.26350756042887552 0.45143923230876237 0 -0.28609329776286768 0.44820947078770429 0 -0.27722176544347471 0.44534867373201048 0 -0.28022650558094409 0.45433094700681009 0 -0.27722176544347471 0.44534867373201048 0 -0.27380845581197633 0.45258975612012992 0 -0.28022650558094409 0.45433094700681009 0 -0.27380845581197633 0.45258975612012992 0 -0.28022650558094409 0.45433094700681009 0 -0.27531716130691303 0.46161351173092802 0 -0.28916058020777119 0.45990927287831379 0 -0.27531716130691303 0.46161351173092802 0 -0.27904536703266691 0.47242688953008888 0 -0.27531716130691303 0.46161351173092802 0 -0.26431274156481122 0.45810242342477397 0 -0.27904536703266691 0.47242688953008888 0 -0.27380845581197633 0.45258975612012992 0 -0.26948020499715708 0.45588601298384429 0 -0.26350756042887552 0.45143923230876237 0 -0.27380845581197633 0.45258975612012992 0 -0.27531716130691303 0.46161351173092802 0 -0.26948020499715708 0.45588601298384429 0 -0.27531716130691303 0.46161351173092802 0 -0.26948020499715708 0.45588601298384429 0 -0.26431274156481122 0.45810242342477397 0 -0.26948020499715708 0.45588601298384429 0 -0.26431274156481122 0.45810242342477397 0 -0.26948020499715708 0.45588601298384429 0 -0.26431274156481122 0.45810242342477397 0 -0.26350756042887552 0.45143923230876237 0 -0.26431274156481122 0.45810242342477397 0 -0.26350756042887552 0.45143923230876237 0 -0.26431274156481122 0.45810242342477397 0 -0.25004986777263122 0.46422000563982629 0 -0.26705649267713277 0.48080804483124129 0 -0.26431274156481122 0.45810242342477397 0 -0.25394781835289071 0.4556248617153123 0 -0.26350756042887552 0.45143923230876237 0 -0.26431274156481122 0.45810242342477397 0 -0.25004986777263122 0.46422000563982629 0 -0.2505232424239156 0.46131945114879969 0 -0.25004986777263122 0.46422000563982629 0 -0.25394781835289071 0.4556248617153123 0 -0.26431274156481122 0.45810242342477397 0 -0.25004986777263122 0.46422000563982629 0 -0.25394781835289071 0.4556248617153123 0 -0.25394781835289071 0.4556248617153123 0 -0.26184094295787191 0.43764731614111357 0 -0.26350756042887552 0.45143923230876237 0 -0.25394781835289071 0.4556248617153123 0 -0.26184094295787191 0.43764731614111357 0 -0.24299242189748579 0.45806677270834578 0 -0.26184094295787191 0.43764731614111357 0 -0.24299242189748579 0.45806677270834578 0 -0.26184094295787191 0.43764731614111357 0 -0.24615972341571479 0.43784613295590807 0 -0.24442569604620579 0.4482207946046467 0 -0.26184094295787191 0.43764731614111357 0 -0.26350756042887552 0.45143923230876237 0 -0.26035812555712912 0.48924140014671352 0 -0.251079557206354 0.48377351451227218 0 -0.26705649267713277 0.48080804483124129 0 -0.25986605528959589 0.50000000000000089 0 -0.251079557206354 0.48377351451227218 0 -0.26035812555712912 0.48924140014671352 0 -0.26705649267713277 0.48080804483124129 0 -0.26922656727750721 0.49876626709077998 0 -0.26035812555712912 0.48924140014671352 0 -0.25986605528959589 0.50000000000000089 0 -0.251079557206354 0.48377351451227218 0 -0.26035812555712912 0.48924140014671352 0 -0.25986605528959589 0.50000000000000089 0 -0.26922656727750721 0.49876626709077998 0 -0.25004986777263122 0.46422000563982629 0 -0.26705649267713277 0.48080804483124129 0 -0.25004986777263122 0.46422000563982629 0 -0.251079557206354 0.48377351451227218 0 -0.26705649267713277 0.48080804483124129 0 -0.26431274156481122 0.45810242342477397 0 -0.26705649267713277 0.48080804483124129 0 -0.26431274156481122 0.45810242342477397 0 -0.26705649267713277 0.48080804483124129 0 -0.27904536703266691 0.47242688953008888 0 -0.26705649267713277 0.48080804483124129 0 -0.27904536703266691 0.47242688953008888 0 -0.28195387539503219 0.49533875681916661 0 -0.26705649267713277 0.48080804483124129 0 -0.28195387539503219 0.49533875681916661 0 -0.26705649267713277 0.48080804483124129 0 -0.26922656727750721 0.49876626709077998 0 -0.26705649267713277 0.48080804483124129 0 -0.26922656727750721 0.49876626709077998 0 -0.28195387539503219 0.49533875681916661 0 -0.25986605528959589 0.50000000000000089 0 -0.26922656727750721 0.49876626709077998 0 -0.27786494380396948 0.49999999999999689 0 -0.26922656727750721 0.49876626709077998 0 -0.27786494380396948 0.49999999999999689 0 -0.28195387539503219 0.49533875681916661 0 -0.27786494380396948 0.49999999999999689 0 -0.28195387539503219 0.49533875681916661 0 -0.28673274126641979 0.49999999999999972 0 -0.28195387539503219 0.49533875681916661 0 -0.28673274126641979 0.49999999999999972 0 -0.3094734040986441 0.47834464980368657 0 -0.33028032000603119 0.48263857631431301 0 -0.28195387539503219 0.49533875681916661 0 -0.29647135104434053 0.47878932749610997 0 -0.28673274126641979 0.49999999999999972 0 -0.28195387539503219 0.49533875681916661 0 -0.29647135104434053 0.47878932749610997 0 -0.27786494380396948 0.49999999999999689 0 -0.28673274126641979 0.49999999999999972 0 -0.28195387539503219 0.49533875681916661 0 -0.28916058020777119 0.45990927287831379 0 -0.27904536703266691 0.47242688953008888 0 -0.29647135104434053 0.47878932749610997 0 -0.27904536703266691 0.47242688953008888 0 -0.28195387539503219 0.49533875681916661 0 -0.29647135104434053 0.47878932749610997 0 -0.31098882669364708 0.46223989817305211 0 -0.29647135104434053 0.47878932749610997 0 -0.3094734040986441 0.47834464980368657 0 -0.31098882669364708 0.46223989817305211 0 -0.29647135104434053 0.47878932749610997 0 -0.28673274126641979 0.49999999999999972 0 -0.29647135104434053 0.47878932749610997 0 -0.3094734040986441 0.47834464980368657 0 -0.28673274126641979 0.49999999999999972 0 -0.33028032000603119 0.48263857631431301 0 -0.36151925059574941 0.5 0 -0.33028032000603119 0.48263857631431301 0 -0.33674311502794713 0.46511351750927371 0 -0.35171827281258011 0.47781160186223881 0 -0.33028032000603119 0.48263857631431301 0 -0.32289378148278169 0.46805544703495833 0 -0.33674311502794713 0.46511351750927371 0 -0.31098882669364708 0.46223989817305211 0 -0.3094734040986441 0.47834464980368657 0 -0.32289378148278169 0.46805544703495833 0 -0.3094734040986441 0.47834464980368657 0 -0.33028032000603119 0.48263857631431301 0 -0.32289378148278169 0.46805544703495833 0 -0.31098882669364708 0.46223989817305211 0 -0.32550630234295669 0.44569046884999691 0 -0.31098882669364708 0.46223989817305211 0 -0.32479880940996292 0.45468849466173261 0 -0.32550630234295669 0.44569046884999691 0 -0.31098882669364708 0.46223989817305211 0 -0.32479880940996292 0.45468849466173261 0 -0.32289378148278169 0.46805544703495833 0 -0.31098882669364708 0.46223989817305211 0 -0.31313778468791831 0.44737603665611397 0 -0.32550630234295669 0.44569046884999691 0 -0.32627134408724562 0.43596052662577839 0 -0.30685580228761339 0.43705677717141828 0 -0.31313778468791831 0.44737603665611397 0 -0.32479880940996292 0.45468849466173261 0 -0.32550630234295669 0.44569046884999691 0 -0.32479880940996292 0.45468849466173261 0 -0.32550630234295669 0.44569046884999691 0 -0.333802869564781 0.45407952620431741 0 -0.32627134408724562 0.43596052662577839 0 -0.31313778468791831 0.44737603665611397 0 -0.32550630234295669 0.44569046884999691 0 -0.32627134408724562 0.43596052662577839 0 -0.32550630234295669 0.44569046884999691 0 -0.33444650960153438 0.4354989361253328 0 -0.32627134408724562 0.43596052662577839 0 -0.32550630234295669 0.44569046884999691 0 -0.33444650960153438 0.4354989361253328 0 -0.32550630234295669 0.44569046884999691 0 -0.33444650960153438 0.4354989361253328 0 -0.32550630234295669 0.44569046884999691 0 -0.33574049104303688 0.44535453977990619 0 -0.32550630234295669 0.44569046884999691 0 -0.33574049104303688 0.44535453977990619 0 -0.333802869564781 0.45407952620431741 0 -0.33574049104303688 0.44535453977990619 0 -0.34373643628597639 0.45311268041564251 0 -0.34543214312110759 0.44323633322608291 0 -0.33574049104303688 0.44535453977990619 0 -0.34373643628597639 0.45311268041564251 0 -0.333802869564781 0.45407952620431741 0 -0.33444650960153438 0.4354989361253328 0 -0.33574049104303688 0.44535453977990619 0 -0.34543214312110759 0.44323633322608291 0 -0.32479880940996292 0.45468849466173261 0 -0.32289378148278169 0.46805544703495833 0 -0.33674311502794713 0.46511351750927371 0 -0.32479880940996292 0.45468849466173261 0 -0.333802869564781 0.45407952620431741 0 -0.33674311502794713 0.46511351750927371 0 -0.34373643628597639 0.45311268041564251 0 -0.333802869564781 0.45407952620431741 0 -0.33674311502794713 0.46511351750927371 0 -0.34373643628597639 0.45311268041564251 0 -0.35568999956368041 0.46490843639763002 0 -0.35449437354079882 0.44808840956365342 0 -0.34373643628597639 0.45311268041564251 0 -0.33674311502794713 0.46511351750927371 0 -0.35568999956368041 0.46490843639763002 0 -0.3587429051341916 0.43412710024587992 0 -0.33444650960153438 0.4354989361253328 0 -0.34543214312110759 0.44323633322608291 0 -0.34373643628597639 0.45311268041564251 0 -0.34543214312110759 0.44323633322608291 0 -0.35449437354079882 0.44808840956365342 0 -0.3587429051341916 0.43412710024587992 0 -0.34543214312110759 0.44323633322608291 0 -0.35449437354079882 0.44808840956365342 0 -0.38303930066684888 0.43275526436642731 0 -0.3587429051341916 0.43412710024587992 0 -0.36821910979165767 0.44821371158351658 0 -0.3587429051341916 0.43412710024587992 0 -0.35449437354079882 0.44808840956365342 0 -0.36821910979165767 0.44821371158351658 0 -0.38186366916293413 0.44676931413255527 0 -0.36821910979165767 0.44821371158351658 0 -0.3739040664231631 0.46119874318328491 0 -0.35568999956368041 0.46490843639763002 0 -0.35449437354079882 0.44808840956365342 0 -0.36821910979165767 0.44821371158351658 0 -0.35568999956368041 0.46490843639763002 0 -0.3739040664231631 0.46119874318328491 0 -0.37435867886949242 0.47639747908997709 0 -0.35568999956368041 0.46490843639763002 0 -0.36821910979165767 0.44821371158351658 0 -0.3739040664231631 0.46119874318328491 0 -0.35568999956368041 0.46490843639763002 0 -0.37435867886949242 0.47639747908997709 0 -0.35171827281258011 0.47781160186223881 0 -0.37435867886949242 0.47639747908997709 0 -0.36151925059574941 0.5 0 -0.35171827281258011 0.47781160186223881 0 -0.33028032000603119 0.48263857631431301 0 -0.36151925059574941 0.5 0 -0.35171827281258011 0.47781160186223881 0 -0.33674311502794713 0.46511351750927371 0 -0.35568999956368041 0.46490843639763002 0 -0.35171827281258011 0.47781160186223881 0 -0.1474516435150327 0.47806394893069287 0 -0.1467864026944907 0.48704719054723838 0 -0.13894219827088411 0.4817024725402696 0 -0.1474516435150327 0.47806394893069287 0 -0.1385458199412011 0.46964907236723769 0 -0.1505705544456486 0.46866892726915721 0 -0.1474516435150327 0.47806394893069287 0 -0.13894219827088411 0.4817024725402696 0 -0.1385458199412011 0.46964907236723769 0 -0.1474516435150327 0.47806394893069287 0 -0.1505705544456486 0.46866892726915721 0 -0.15677245736568321 0.47631989860035162 0 -0.1505705544456486 0.46866892726915721 0 -0.15806426803057599 0.46663486198847992 0 -0.15677245736568321 0.47631989860035162 0 -0.1474516435150327 0.47806394893069287 0 -0.15309242837228881 0.4849961322599029 0 -0.15677245736568321 0.47631989860035162 0 -0.1474516435150327 0.47806394893069287 0 -0.15309242837228881 0.4849961322599029 0 -0.1467864026944907 0.48704719054723838 0 -0.15309242837228881 0.4849961322599029 0 -0.15092658490037461 0.49297772804358142 0 -0.15812411866201689 0.4889085418616394 0 -0.14091444483063531 0.5 0 -0.15864923315993509 0.49436773787014121 0 -0.16739853452881301 0.5 0 -0.15092658490037461 0.49297772804358142 0 -0.14091444483063531 0.5 0 -0.15864923315993509 0.49436773787014121 0 -0.15309242837228881 0.4849961322599029 0 -0.15092658490037461 0.49297772804358142 0 -0.1467864026944907 0.48704719054723838 0 -0.15092658490037461 0.49297772804358142 0 -0.15864923315993509 0.49436773787014121 0 -0.15812411866201689 0.4889085418616394 0 -0.15092658490037461 0.49297772804358142 0 -0.14365703344159611 0.49584659343077248 0 -0.14091444483063531 0.5 0 -0.15092658490037461 0.49297772804358142 0 -0.14365703344159611 0.49584659343077248 0 -0.1467864026944907 0.48704719054723838 0 -0.14365703344159611 0.49584659343077248 0 -0.1467864026944907 0.48704719054723838 0 -0.13894219827088411 0.4817024725402696 0 -0.14365703344159611 0.49584659343077248 0 -0.13894219827088411 0.4817024725402696 0 -0.1242204318380799 0.47830473262078288 0 -0.14365703344159611 0.49584659343077248 0 -0.1242204318380799 0.47830473262078288 0 -0.14365703344159611 0.49584659343077248 0 -0.14091444483063531 0.5 0 -0.1242204318380799 0.47830473262078288 0 -0.14091444483063531 0.5 0 -0.1242204318380799 0.47830473262078288 0 -0.1144303551324576 0.5 0 -0.1385458199412011 0.46964907236723769 0 -0.12614476549805431 0.4611122041341717 0 -0.1242204318380799 0.47830473262078288 0 -0.13894219827088411 0.4817024725402696 0 -0.1385458199412011 0.46964907236723769 0 -0.1242204318380799 0.47830473262078288 0 -0.1385458199412011 0.46964907236723769 0 -0.12614476549805431 0.4611122041341717 0 -0.13715488370634529 0.45607518300104238 0 -0.1385458199412011 0.46964907236723769 0 -0.13715488370634529 0.45607518300104238 0 -0.14547413734208581 0.46196696054357489 0 -0.13715488370634529 0.45607518300104238 0 -0.14378458770106481 0.44893786013440529 0 -0.1231102128986111 0.44164965171733012 0 -0.12614476549805431 0.4611122041341717 0 -0.13715488370634529 0.45607518300104238 0 -0.1231102128986111 0.44164965171733012 0 -0.1343639973044666 0.4387510516917254 0 -0.14378458770106481 0.44893786013440529 0 -0.1231102128986111 0.44164965171733012 0 -0.14378458770106481 0.44893786013440529 0 -0.1231102128986111 0.44164965171733012 0 -0.1343639973044666 0.4387510516917254 0 -0.12435653341535639 0.43280279094571039 0 -0.1231102128986111 0.44164965171733012 0 -0.1343639973044666 0.4387510516917254 0 -0.1417265111894912 0.43994098564297568 0 -0.14413376540632031 0.44406599702081251 0 -0.1343639973044666 0.4387510516917254 0 -0.1417265111894912 0.43994098564297568 0 -0.14267385388780521 0.43584009732048801 0 -0.14378458770106481 0.44893786013440529 0 -0.16445896250351791 0.45622606855148201 0 -0.14378458770106481 0.44893786013440529 0 -0.16445896250351791 0.45622606855148201 0 -0.1564161013607919 0.45127412536802769 0 -0.1343639973044666 0.4387510516917254 0 -0.14413376540632031 0.44406599702081251 0 -0.14378458770106481 0.44893786013440529 0 -0.14646871616614229 0.43959749225320638 0 -0.1472179243373628 0.44309117053012281 0 -0.15019738066575719 0.44049906153135832 0 -0.14646871616614229 0.43959749225320638 0 -0.1417265111894912 0.43994098564297568 0 -0.14267385388780521 0.43584009732048801 0 -0.14646871616614229 0.43959749225320638 0 -0.1417265111894912 0.43994098564297568 0 -0.14413376540632031 0.44406599702081251 0 -0.1472179243373628 0.44309117053012281 0 -0.14772114581910889 0.4475853444336973 0 -0.15019738066575719 0.44049906153135832 0 -0.14646871616614229 0.43959749225320638 0 -0.14413376540632031 0.44406599702081251 0 -0.1472179243373628 0.44309117053012281 0 -0.14413376540632031 0.44406599702081251 0 -0.1472179243373628 0.44309117053012281 0 -0.14772114581910889 0.4475853444336973 0 -0.14772114581910889 0.4475853444336973 0 -0.14378458770106481 0.44893786013440529 0 -0.1517048713122868 0.4484260944199831 0 -0.14413376540632031 0.44406599702081251 0 -0.14772114581910889 0.4475853444336973 0 -0.14378458770106481 0.44893786013440529 0 -0.14378458770106481 0.44893786013440529 0 -0.1517048713122868 0.4484260944199831 0 -0.1564161013607919 0.45127412536802769 0 -0.15515423869319561 0.4477793748710569 0 -0.1517048713122868 0.4484260944199831 0 -0.1564161013607919 0.45127412536802769 0 -0.15515423869319561 0.4477793748710569 0 -0.15444239512130509 0.44520267344337161 0 -0.15815811352103129 0.44676642104436393 0 -0.15515423869319561 0.4477793748710569 0 -0.1517048713122868 0.4484260944199831 0 -0.15444239512130509 0.44520267344337161 0 -0.14772114581910889 0.4475853444336973 0 -0.1517048713122868 0.4484260944199831 0 -0.15444239512130509 0.44520267344337161 0 -0.14772114581910889 0.4475853444336973 0 -0.15444239512130509 0.44520267344337161 0 -0.15818981502419849 0.43893089873107138 0 -0.14772114581910889 0.4475853444336973 0 -0.15019738066575719 0.44049906153135832 0 -0.15509026190184999 0.43444037193913299 0 -0.14646871616614229 0.43959749225320638 0 -0.15019738066575719 0.44049906153135832 0 -0.15055874365518401 0.43538536902734348 0 -0.14378458770106481 0.44893786013440529 0 -0.1594810598500227 0.45821215940093579 0 -0.16445896250351791 0.45622606855148201 0 -0.14378458770106481 0.44893786013440529 0 -0.14749185988044339 0.45746103465072252 0 -0.1594810598500227 0.45821215940093579 0 -0.1385458199412011 0.46964907236723769 0 -0.14547413734208581 0.46196696054357489 0 -0.1505705544456486 0.46866892726915721 0 -0.13715488370634529 0.45607518300104238 0 -0.14378458770106481 0.44893786013440529 0 -0.14749185988044339 0.45746103465072252 0 -0.13715488370634529 0.45607518300104238 0 -0.14547413734208581 0.46196696054357489 0 -0.14749185988044339 0.45746103465072252 0 -0.14547413734208581 0.46196696054357489 0 -0.14749185988044339 0.45746103465072252 0 -0.1515646308026988 0.46211301017365392 0 -0.14749185988044339 0.45746103465072252 0 -0.1515646308026988 0.46211301017365392 0 -0.1594810598500227 0.45821215940093579 0 -0.14547413734208581 0.46196696054357489 0 -0.1515646308026988 0.46211301017365392 0 -0.1505705544456486 0.46866892726915721 0 -0.1515646308026988 0.46211301017365392 0 -0.1505705544456486 0.46866892726915721 0 -0.15806426803057599 0.46663486198847992 0 -0.15806426803057599 0.46663486198847992 0 -0.16351002891015251 0.46216682705007761 0 -0.1594810598500227 0.45821215940093579 0 -0.1515646308026988 0.46211301017365392 0 -0.15806426803057599 0.46663486198847992 0 -0.1594810598500227 0.45821215940093579 0 -0.15806426803057599 0.46663486198847992 0 -0.16351002891015251 0.46216682705007761 0 -0.16549431428263309 0.4673513431977635 0 -0.16351002891015251 0.46216682705007761 0 -0.1594810598500227 0.45821215940093579 0 -0.16445896250351791 0.45622606855148201 0 -0.1594810598500227 0.45821215940093579 0 -0.16445896250351791 0.45622606855148201 0 -0.16445896250351791 0.45622606855148201 0 -0.1682281006195904 0.46281695751932961 0 -0.175933938019187 0.46027127010839042 0 -0.16445896250351791 0.45622606855148201 0 -0.175933938019187 0.46027127010839042 0 -0.16351002891015251 0.46216682705007761 0 -0.16445896250351791 0.45622606855148201 0 -0.1682281006195904 0.46281695751932961 0 -0.1682281006195904 0.46281695751932961 0 -0.16549431428263309 0.4673513431977635 0 -0.17315140010473271 0.46759796457772018 0 -0.16351002891015251 0.46216682705007761 0 -0.1682281006195904 0.46281695751932961 0 -0.16549431428263309 0.4673513431977635 0 -0.16330076185289591 0.44029729794946398 0 -0.15818981502419849 0.43893089873107138 0 -0.1607487489458379 0.44288141891795269 0 -0.16330076185289591 0.44029729794946398 0 -0.15818981502419849 0.43893089873107138 0 -0.16514738111837071 0.43535515807813868 0 -0.15818981502419849 0.43893089873107138 0 -0.15788476815309321 0.44344535303418992 0 -0.1607487489458379 0.44288141891795269 0 -0.15444239512130509 0.44520267344337161 0 -0.15818981502419849 0.43893089873107138 0 -0.15788476815309321 0.44344535303418992 0 -0.15444239512130509 0.44520267344337161 0 -0.15788476815309321 0.44344535303418992 0 -0.15815811352103129 0.44676642104436393 0 -0.15788476815309321 0.44344535303418992 0 -0.1607487489458379 0.44288141891795269 0 -0.15815811352103129 0.44676642104436393 0 -0.16330076185289591 0.44029729794946398 0 -0.1607487489458379 0.44288141891795269 0 -0.16500683428277479 0.44472164816345389 0 -0.1607487489458379 0.44288141891795269 0 -0.16177944438927119 0.44629683336180531 0 -0.16500683428277479 0.44472164816345389 0 -0.16445896250351791 0.45622606855148201 0 -0.1564161013607919 0.45127412536802769 0 -0.16116663313077451 0.4516060069603956 0 -0.16177944438927119 0.44629683336180531 0 -0.16328173006687949 0.44954608004521229 0 -0.16500683428277479 0.44472164816345389 0 -0.16016040449374969 0.44909789335596101 0 -0.16177944438927119 0.44629683336180531 0 -0.16328173006687949 0.44954608004521229 0 -0.1607487489458379 0.44288141891795269 0 -0.16177944438927119 0.44629683336180531 0 -0.15815811352103129 0.44676642104436393 0 -0.15515423869319561 0.4477793748710569 0 -0.15815811352103129 0.44676642104436393 0 -0.1564161013607919 0.45127412536802769 0 -0.16016040449374969 0.44909789335596101 0 -0.15815811352103129 0.44676642104436393 0 -0.1564161013607919 0.45127412536802769 0 -0.16016040449374969 0.44909789335596101 0 -0.16177944438927119 0.44629683336180531 0 -0.15815811352103129 0.44676642104436393 0 -0.16016040449374969 0.44909789335596101 0 -0.1564161013607919 0.45127412536802769 0 -0.16116663313077451 0.4516060069603956 0 -0.16445896250351791 0.45622606855148201 0 -0.16116663313077451 0.4516060069603956 0 -0.16328173006687949 0.44954608004521229 0 -0.16016040449374969 0.44909789335596101 0 -0.16116663313077451 0.4516060069603956 0 -0.16328173006687949 0.44954608004521229 0 -0.16445896250351791 0.45622606855148201 0 -0.17105360242352571 0.44904628144067171 0 -0.1666972290420598 0.44874237744355588 0 -0.16445896250351791 0.45622606855148201 0 -0.16328173006687949 0.44954608004521229 0 -0.1666972290420598 0.44874237744355588 0 -0.17105360242352571 0.44904628144067171 0 -0.1666972290420598 0.44874237744355588 0 -0.16999576680100911 0.4442624712930846 0 -0.16328173006687949 0.44954608004521229 0 -0.1666972290420598 0.44874237744355588 0 -0.16500683428277479 0.44472164816345389 0 -0.1666972290420598 0.44874237744355588 0 -0.16500683428277479 0.44472164816345389 0 -0.16999576680100911 0.4442624712930846 0 -0.16330076185289591 0.44029729794946398 0 -0.16500683428277479 0.44472164816345389 0 -0.1674110298932974 0.43959736585670323 0 -0.16500683428277479 0.44472164816345389 0 -0.16999576680100911 0.4442624712930846 0 -0.1674110298932974 0.43959736585670323 0 -0.16999576680100911 0.4442624712930846 0 -0.1708442347189518 0.43986969115574959 0 -0.173476150996485 0.44263771823923942 0 -0.1708442347189518 0.43986969115574959 0 -0.17316044780097009 0.43673364777592549 0 -0.1692279570628418 0.43675877889382009 0 -0.16999576680100911 0.4442624712930846 0 -0.1708442347189518 0.43986969115574959 0 -0.1674110298932974 0.43959736585670323 0 -0.1708442347189518 0.43986969115574959 0 -0.1674110298932974 0.43959736585670323 0 -0.1692279570628418 0.43675877889382009 0 -0.16330076185289591 0.44029729794946398 0 -0.1674110298932974 0.43959736585670323 0 -0.16514738111837071 0.43535515807813868 0 -0.16445896250351791 0.45622606855148201 0 -0.17105360242352571 0.44904628144067171 0 -0.18011376124557699 0.44998009415305268 0 -0.16445896250351791 0.45622606855148201 0 -0.18011376124557699 0.44998009415305268 0 -0.17550555513362009 0.44024883520190577 0 -0.173476150996485 0.44263771823923942 0 -0.17316044780097009 0.43673364777592549 0 -0.1708442347189518 0.43986969115574959 0 -0.173476150996485 0.44263771823923942 0 -0.17316044780097009 0.43673364777592549 0 -0.17550555513362009 0.44024883520190577 0 -0.17316044780097009 0.43673364777592549 0 -0.173476150996485 0.44263771823923942 0 -0.17879044070221489 0.44517269872224202 0 -0.1746237942602808 0.44620172031443311 0 -0.16999576680100911 0.4442624712930846 0 -0.173476150996485 0.44263771823923942 0 -0.1746237942602808 0.44620172031443311 0 -0.17723072694742181 0.43950652750184083 0 -0.17879044070221489 0.44517269872224202 0 -0.17723072694742181 0.43950652750184083 0 -0.17550555513362009 0.44024883520190577 0 -0.17879044070221489 0.44517269872224202 0 -0.17550555513362009 0.44024883520190577 0 -0.17879044070221489 0.44517269872224202 0 -0.17550555513362009 0.44024883520190577 0 -0.173476150996485 0.44263771823923942 0 -0.17879044070221489 0.44517269872224202 0 -0.17105360242352571 0.44904628144067171 0 -0.1746237942602808 0.44620172031443311 0 -0.18011376124557699 0.44998009415305268 0 -0.17879044070221489 0.44517269872224202 0 -0.18011376124557699 0.44998009415305268 0 -0.17879044070221489 0.44517269872224202 0 -0.1746237942602808 0.44620172031443311 0 -0.18011376124557699 0.44998009415305268 0 -0.17105360242352571 0.44904628144067171 0 -0.16999576680100911 0.4442624712930846 0 -0.1746237942602808 0.44620172031443311 0 -0.18011376124557699 0.44998009415305268 0 -0.18160160082550239 0.44938647375088048 0 -0.17879044070221489 0.44517269872224202 0 -0.18160160082550239 0.44938647375088048 0 -0.17879044070221489 0.44517269872224202 0 -0.18011376124557699 0.44998009415305268 0 -0.18160160082550239 0.44938647375088048 0 -0.17723072694742181 0.43950652750184083 0 -0.18441257875228181 0.44057735087920891 0 -0.1882995472448234 0.43444407002876062 0 -0.17879044070221489 0.44517269872224202 0 -0.18160160082550239 0.44938647375088048 0 -0.18441257875228181 0.44057735087920891 0 -0.17723072694742181 0.43950652750184083 0 -0.17879044070221489 0.44517269872224202 0 -0.18441257875228181 0.44057735087920891 0 -0.18011376124557699 0.44998009415305268 0 -0.1852129211774948 0.46850446323402628 0 -0.19185898589285341 0.46476173206430021 0 -0.18011376124557699 0.44998009415305268 0 -0.1852129211774948 0.46850446323402628 0 -0.16445896250351791 0.45622606855148201 0 -0.18011376124557699 0.44998009415305268 0 -0.175933938019187 0.46027127010839042 0 -0.18011376124557699 0.44998009415305268 0 -0.175933938019187 0.46027127010839042 0 -0.1852129211774948 0.46850446323402628 0 -0.17315140010473271 0.46759796457772018 0 -0.175933938019187 0.46027127010839042 0 -0.1852129211774948 0.46850446323402628 0 -0.1682281006195904 0.46281695751932961 0 -0.17315140010473271 0.46759796457772018 0 -0.175933938019187 0.46027127010839042 0 -0.18011376124557699 0.44998009415305268 0 -0.18160160082550239 0.44938647375088048 0 -0.19185898589285341 0.46476173206430021 0 -0.18160160082550239 0.44938647375088048 0 -0.19185898589285341 0.46476173206430021 0 -0.1852129211774948 0.46850446323402628 0 -0.17978258965613289 0.47880773662141463 0 -0.19031208110941389 0.48702883231499938 0 -0.1852129211774948 0.46850446323402628 0 -0.17978258965613289 0.47880773662141463 0 -0.1752534238628265 0.47350032048584711 0 -0.17978258965613289 0.47880773662141463 0 -0.17695395520064719 0.4849950809780702 0 -0.19031208110941389 0.48702883231499938 0 -0.17978258965613289 0.47880773662141463 0 -0.1711805669302835 0.48000998609412948 0 -0.17695395520064719 0.4849950809780702 0 -0.17978258965613289 0.47880773662141463 0 -0.1752534238628265 0.47350032048584711 0 -0.1711805669302835 0.48000998609412948 0 -0.17315140010473271 0.46759796457772018 0 -0.1852129211774948 0.46850446323402628 0 -0.1752534238628265 0.47350032048584711 0 -0.17315140010473271 0.46759796457772018 0 -0.1752534238628265 0.47350032048584711 0 -0.1687857026666644 0.47314343292096478 0 -0.16549431428263309 0.4673513431977635 0 -0.17315140010473271 0.46759796457772018 0 -0.1687857026666644 0.47314343292096478 0 -0.16549431428263309 0.4673513431977635 0 -0.1687857026666644 0.47314343292096478 0 -0.1625643159439952 0.47227216497573288 0 -0.1687857026666644 0.47314343292096478 0 -0.16535101786787859 0.47807066637850149 0 -0.1625643159439952 0.47227216497573288 0 -0.1752534238628265 0.47350032048584711 0 -0.1687857026666644 0.47314343292096478 0 -0.1711805669302835 0.48000998609412948 0 -0.1711805669302835 0.48000998609412948 0 -0.16608332293560271 0.4827769284309229 0 -0.16702338698221991 0.48845182439306578 0 -0.1687857026666644 0.47314343292096478 0 -0.1711805669302835 0.48000998609412948 0 -0.16535101786787859 0.47807066637850149 0 -0.16608332293560271 0.4827769284309229 0 -0.16535101786787859 0.47807066637850149 0 -0.1609289598952659 0.48374928674150569 0 -0.1711805669302835 0.48000998609412948 0 -0.16608332293560271 0.4827769284309229 0 -0.16535101786787859 0.47807066637850149 0 -0.15309242837228881 0.4849961322599029 0 -0.1609289598952659 0.48374928674150569 0 -0.15677245736568321 0.47631989860035162 0 -0.16535101786787859 0.47807066637850149 0 -0.1609289598952659 0.48374928674150569 0 -0.15677245736568321 0.47631989860035162 0 -0.15806426803057599 0.46663486198847992 0 -0.15677245736568321 0.47631989860035162 0 -0.1625643159439952 0.47227216497573288 0 -0.16535101786787859 0.47807066637850149 0 -0.15677245736568321 0.47631989860035162 0 -0.1625643159439952 0.47227216497573288 0 -0.15806426803057599 0.46663486198847992 0 -0.16549431428263309 0.4673513431977635 0 -0.1625643159439952 0.47227216497573288 0 -0.1609289598952659 0.48374928674150569 0 -0.15812411866201689 0.4889085418616394 0 -0.16702338698221991 0.48845182439306578 0 -0.15864923315993509 0.49436773787014121 0 -0.15812411866201689 0.4889085418616394 0 -0.16702338698221991 0.48845182439306578 0 -0.15309242837228881 0.4849961322599029 0 -0.1609289598952659 0.48374928674150569 0 -0.15812411866201689 0.4889085418616394 0 -0.16702338698221991 0.48845182439306578 0 -0.16805502046077911 0.49415333798925781 0 -0.1750453357695099 0.49031953489726049 0 -0.1711805669302835 0.48000998609412948 0 -0.16702338698221991 0.48845182439306578 0 -0.17695395520064719 0.4849950809780702 0 -0.16608332293560271 0.4827769284309229 0 -0.1609289598952659 0.48374928674150569 0 -0.16702338698221991 0.48845182439306578 0 -0.16805502046077911 0.49415333798925781 0 -0.1721586118634178 0.49762759278582142 0 -0.1750453357695099 0.49031953489726049 0 -0.15864923315993509 0.49436773787014121 0 -0.16805502046077911 0.49415333798925781 0 -0.16739853452881301 0.5 0 -0.15864923315993509 0.49436773787014121 0 -0.16702338698221991 0.48845182439306578 0 -0.16805502046077911 0.49415333798925781 0 -0.16805502046077911 0.49415333798925781 0 -0.16739853452881301 0.5 0 -0.1721586118634178 0.49762759278582142 0 -0.1721586118634178 0.49762759278582142 0 -0.19031208110941389 0.48702883231499938 0 -0.16739853452881301 0.5 0 -0.1721586118634178 0.49762759278582142 0 -0.19388262422699079 0.50000000000000067 0 -0.1721586118634178 0.49762759278582142 0 -0.19388262422699079 0.50000000000000067 0 -0.19031208110941389 0.48702883231499938 0 -0.1721586118634178 0.49762759278582142 0 -0.1750453357695099 0.49031953489726049 0 -0.19031208110941389 0.48702883231499938 0 -0.16702338698221991 0.48845182439306578 0 -0.17695395520064719 0.4849950809780702 0 -0.1750453357695099 0.49031953489726049 0 -0.17695395520064719 0.4849950809780702 0 -0.1750453357695099 0.49031953489726049 0 -0.19031208110941389 0.48702883231499938 0 -0.19388262422699079 0.50000000000000067 0 -0.19031208110941389 0.48702883231499938 0 -0.19388262422699079 0.50000000000000067 0 -0.19031208110941389 0.48702883231499938 0 -0.19568977472517779 0.49417357265214218 0 -0.19031208110941389 0.48702883231499938 0 -0.19325786388371141 0.48857903440291051 0 -0.20211637096020371 0.48013699037772017 0 -0.19031208110941389 0.48702883231499938 0 -0.19325786388371141 0.48857903440291051 0 -0.19568977472517779 0.49417357265214218 0 -0.19325786388371141 0.48857903440291051 0 -0.19899463732504369 0.48967942641241902 0 -0.2045244710245547 0.48374660045775819 0 -0.19325786388371141 0.48857903440291051 0 -0.19899463732504369 0.48967942641241902 0 -0.19568977472517779 0.49417357265214218 0 -0.19899463732504369 0.48967942641241902 0 -0.2025064396667311 0.49221849813686519 0 -0.19568977472517779 0.49417357265214218 0 -0.19899463732504369 0.48967942641241902 0 -0.2025064396667311 0.49221849813686519 0 -0.2045244710245547 0.48374660045775819 0 -0.19325786388371141 0.48857903440291051 0 -0.2045244710245547 0.48374660045775819 0 -0.2025064396667311 0.49221849813686519 0 -0.19568977472517779 0.49417357265214218 0 -0.20428525478291079 0.50000000000000133 0 -0.19388262422699079 0.50000000000000067 0 -0.19568977472517779 0.49417357265214218 0 -0.20428525478291079 0.50000000000000133 0 -0.1852129211774948 0.46850446323402628 0 -0.19031208110941389 0.48702883231499938 0 -0.1852129211774948 0.46850446323402628 0 -0.19031208110941389 0.48702883231499938 0 -0.20211637096020371 0.48013699037772017 0 -0.1852129211774948 0.46850446323402628 0 -0.20211637096020371 0.48013699037772017 0 -0.19185898589285341 0.46476173206430021 0 -0.19325786388371141 0.48857903440291051 0 -0.20211637096020371 0.48013699037772017 0 -0.2045244710245547 0.48374660045775819 0 -0.19031208110941389 0.48702883231499938 0 -0.20211637096020371 0.48013699037772017 0 -0.20211637096020371 0.48013699037772017 0 -0.19185898589285341 0.46476173206430021 0 -0.2045244710245547 0.48374660045775819 0 -0.22896448108620679 0.47326387635408901 0 -0.2045244710245547 0.48374660045775819 0 -0.2107182922369005 0.49303079915574127 0 -0.22896448108620679 0.47326387635408901 0 -0.20211637096020371 0.48013699037772017 0 -0.2045244710245547 0.48374660045775819 0 -0.2199692778245485 0.46971371089328717 0 -0.20211637096020371 0.48013699037772017 0 -0.2199692778245485 0.46971371089328717 0 -0.20586965241249941 0.45744168222451242 0 -0.2045244710245547 0.48374660045775819 0 -0.2199692778245485 0.46971371089328717 0 -0.22896448108620679 0.47326387635408901 0 -0.20211637096020371 0.48013699037772017 0 -0.2199692778245485 0.46971371089328717 0 -0.20211637096020371 0.48013699037772017 0 -0.2045244710245547 0.48374660045775819 0 -0.2107182922369005 0.49303079915574127 0 -0.20428525478291079 0.50000000000000133 0 -0.21536769553238269 0.49999999999999939 0 -0.2025064396667311 0.49221849813686519 0 -0.2107182922369005 0.49303079915574127 0 -0.20428525478291079 0.50000000000000133 0 -0.2107182922369005 0.49303079915574127 0 -0.20428525478291079 0.50000000000000133 0 -0.2045244710245547 0.48374660045775819 0 -0.2107182922369005 0.49303079915574127 0 -0.2025064396667311 0.49221849813686519 0 -0.2045244710245547 0.48374660045775819 0 -0.2107182922369005 0.49303079915574127 0 -0.2107182922369005 0.49303079915574127 0 -0.21536769553238269 0.49999999999999939 0 -0.22608496631267039 0.48991570974458137 0 -0.2107182922369005 0.49303079915574127 0 -0.21536769553238269 0.49999999999999939 0 -0.21536769553238269 0.49999999999999939 0 -0.22608496631267039 0.48991570974458137 0 -0.2376168754109893 0.5 0 -0.2107182922369005 0.49303079915574127 0 -0.22608496631267039 0.48991570974458137 0 -0.22896448108620679 0.47326387635408901 0 -0.22608496631267039 0.48991570974458137 0 -0.2372077878278665 0.48290002592709719 0 -0.2376168754109893 0.5 0 -0.2107182922369005 0.49303079915574127 0 -0.22896448108620679 0.47326387635408901 0 -0.22608496631267039 0.48991570974458137 0 -0.22896448108620679 0.47326387635408901 0 -0.2372077878278665 0.48290002592709719 0 -0.25004986777263122 0.46422000563982629 0 -0.251079557206354 0.48377351451227218 0 -0.24229305912311239 0.46754702902454309 0 -0.251079557206354 0.48377351451227218 0 -0.24229305912311239 0.46754702902454309 0 -0.251079557206354 0.48377351451227218 0 -0.2372077878278665 0.48290002592709719 0 -0.24229305912311239 0.46754702902454309 0 -0.22896448108620679 0.47326387635408901 0 -0.24229305912311239 0.46754702902454309 0 -0.22896448108620679 0.47326387635408901 0 -0.2372077878278665 0.48290002592709719 0 -0.24229305912311239 0.46754702902454309 0 -0.25986605528959589 0.50000000000000089 0 -0.251079557206354 0.48377351451227218 0 -0.2376168754109893 0.5 0 -0.251079557206354 0.48377351451227218 0 -0.2372077878278665 0.48290002592709719 0 -0.2376168754109893 0.5 0 -0.26184094295787191 0.43764731614111357 0 -0.24442569604620579 0.4482207946046467 0 -0.24299242189748579 0.45806677270834578 0 -0.23895845985273889 0.44196680966175478 0 -0.24442569604620579 0.4482207946046467 0 -0.23537895969202979 0.45477840004218067 0 -0.23895845985273889 0.44196680966175478 0 -0.23537895969202979 0.45477840004218067 0 -0.2289267174977076 0.44286270697110458 0 -0.23895845985273889 0.44196680966175478 0 -0.24615972341571479 0.43784613295590807 0 -0.24442569604620579 0.4482207946046467 0 -0.2505232424239156 0.46131945114879969 0 -0.25394781835289071 0.4556248617153123 0 -0.24299242189748579 0.45806677270834578 0 -0.2505232424239156 0.46131945114879969 0 -0.24299242189748579 0.45806677270834578 0 -0.25004986777263122 0.46422000563982629 0 -0.24229305912311239 0.46754702902454309 0 -0.2505232424239156 0.46131945114879969 0 -0.25004986777263122 0.46422000563982629 0 -0.24299242189748579 0.45806677270834578 0 -0.25004986777263122 0.46422000563982629 0 -0.24299242189748579 0.45806677270834578 0 -0.25004986777263122 0.46422000563982629 0 -0.2437976162530488 0.46210611466856277 0 -0.24229305912311239 0.46754702902454309 0 -0.25004986777263122 0.46422000563982629 0 -0.24299242189748579 0.45806677270834578 0 -0.2437976162530488 0.46210611466856277 0 -0.22896448108620679 0.47326387635408901 0 -0.2393161599962266 0.46204943373421781 0 -0.2378221846888933 0.45929043140885412 0 -0.22896448108620679 0.47326387635408901 0 -0.24229305912311239 0.46754702902454309 0 -0.2393161599962266 0.46204943373421781 0 -0.2437976162530488 0.46210611466856277 0 -0.24229305912311239 0.46754702902454309 0 -0.2393161599962266 0.46204943373421781 0 -0.24229305912311239 0.46754702902454309 0 -0.2393161599962266 0.46204943373421781 0 -0.24442569604620579 0.4482207946046467 0 -0.24299242189748579 0.45806677270834578 0 -0.23537895969202979 0.45477840004218067 0 -0.24299242189748579 0.45806677270834578 0 -0.23537895969202979 0.45477840004218067 0 -0.24299242189748579 0.45806677270834578 0 -0.24021298671140601 0.45789458042156389 0 -0.23537895969202979 0.45477840004218067 0 -0.24299242189748579 0.45806677270834578 0 -0.2393161599962266 0.46204943373421781 0 -0.24299242189748579 0.45806677270834578 0 -0.2393161599962266 0.46204943373421781 0 -0.24021298671140601 0.45789458042156389 0 -0.2393161599962266 0.46204943373421781 0 -0.24021298671140601 0.45789458042156389 0 -0.2378221846888933 0.45929043140885412 0 -0.24299242189748579 0.45806677270834578 0 -0.2437976162530488 0.46210611466856277 0 -0.2393161599962266 0.46204943373421781 0 -0.2393161599962266 0.46204943373421781 0 -0.2378221846888933 0.45929043140885412 0 -0.24021298671140601 0.45789458042156389 0 -0.2378221846888933 0.45929043140885412 0 -0.24021298671140601 0.45789458042156389 0 -0.2378221846888933 0.45929043140885412 0 -0.23537895969202979 0.45477840004218067 0 -0.2378221846888933 0.45929043140885412 0 -0.23537895969202979 0.45477840004218067 0 -0.2199692778245485 0.46971371089328717 0 -0.2378221846888933 0.45929043140885412 0 -0.2199692778245485 0.46971371089328717 0 -0.2378221846888933 0.45929043140885412 0 -0.22414240248532841 0.45860216584567831 0 -0.23537895969202979 0.45477840004218067 0 -0.22414240248532841 0.45860216584567831 0 -0.21922286859239429 0.44780033317451889 0 -0.2199692778245485 0.46971371089328717 0 -0.22896448108620679 0.47326387635408901 0 -0.2378221846888933 0.45929043140885412 0 -0.2378221846888933 0.45929043140885412 0 -0.23537895969202979 0.45477840004218067 0 -0.22414240248532841 0.45860216584567831 0 -0.22896448108620679 0.47326387635408901 0 -0.2393161599962266 0.46204943373421781 0 -0.23537895969202979 0.45477840004218067 0 -0.21922286859239429 0.44780033317451889 0 -0.23537895969202979 0.45477840004218067 0 -0.21922286859239429 0.44780033317451889 0 -0.2289267174977076 0.44286270697110458 0 -0.23537895969202979 0.45477840004218067 0 -0.2289267174977076 0.44286270697110458 0 -0.21922286859239429 0.44780033317451889 0 -0.2289267174977076 0.44286270697110458 0 -0.22148399005239799 0.43347414002089463 0 -0.21922286859239429 0.44780033317451889 0 -0.20306677749275931 0.44082226630685611 0 -0.21922286859239429 0.44780033317451889 0 -0.20306677749275931 0.44082226630685611 0 -0.22148399005239799 0.43347414002089463 0 -0.21922286859239429 0.44780033317451889 0 -0.20586965241249941 0.45744168222451242 0 -0.20306677749275931 0.44082226630685611 0 -0.2199692778245485 0.46971371089328717 0 -0.22414240248532841 0.45860216584567831 0 -0.20586965241249941 0.45744168222451242 0 -0.22414240248532841 0.45860216584567831 0 -0.21922286859239429 0.44780033317451889 0 -0.20586965241249941 0.45744168222451242 0 -0.20211637096020371 0.48013699037772017 0 -0.20586965241249941 0.45744168222451242 0 -0.19185898589285341 0.46476173206430021 0 -0.18160160082550239 0.44938647375088048 0 -0.20586965241249941 0.45744168222451242 0 -0.19185898589285341 0.46476173206430021 0 -0.18160160082550239 0.44938647375088048 0 -0.18441257875228181 0.44057735087920891 0 -0.20306677749275931 0.44082226630685611 0 -0.18441257875228181 0.44057735087920891 0 -0.20306677749275931 0.44082226630685611 0 -0.1882995472448234 0.43444407002876062 0 -0.18160160082550239 0.44938647375088048 0 -0.20586965241249941 0.45744168222451242 0 -0.20306677749275931 0.44082226630685611 0 -0.18160160082550239 0.44938647375088048 0 -0.20306677749275931 0.44082226630685611 0 -0.20306677749275931 0.44082226630685611 0 -0.1882995472448234 0.43444407002876062 0 -0.20306677749275931 0.44082226630685611 0 -0.1882995472448234 0.43444407002876062 0 -0.20927647480396341 0.43034829107353961 0 -0.1882995472448234 0.43444407002876062 0 -0.20453930095891021 0.41819292139022213 0 -0.18551792743744441 0.41997680933330178 0 -0.1882995472448234 0.43444407002876062 0 -0.20453930095891021 0.41819292139022213 0 -0.20927647480396341 0.43034829107353961 0 -0.20453930095891021 0.41819292139022213 0 -0.18921349839153559 0.39965031058218409 0 -0.18551792743744441 0.41997680933330178 0 -0.20453930095891021 0.41819292139022213 0 -0.2196724685017912 0.40195902296002051 0 -0.20496182276005989 0.39989300129552913 0 -0.20453930095891021 0.41819292139022213 0 -0.2226419555757877 0.41907054852568831 0 -0.2196724685017912 0.40195902296002051 0 -0.20306677749275931 0.44082226630685611 0 -0.20927647480396341 0.43034829107353961 0 -0.22148399005239799 0.43347414002089463 0 -0.20306677749275931 0.44082226630685611 0 -0.22148399005239799 0.43347414002089463 0 -0.20453930095891021 0.41819292139022213 0 -0.20927647480396341 0.43034829107353961 0 -0.2226419555757877 0.41907054852568831 0 -0.20927647480396341 0.43034829107353961 0 -0.22148399005239799 0.43347414002089463 0 -0.2226419555757877 0.41907054852568831 0 -0.22148399005239799 0.43347414002089463 0 -0.2226419555757877 0.41907054852568831 0 -0.2399012026120371 0.42612601373493342 0 -0.2289267174977076 0.44286270697110458 0 -0.22148399005239799 0.43347414002089463 0 -0.2399012026120371 0.42612601373493342 0 -0.22148399005239799 0.43347414002089463 0 -0.2399012026120371 0.42612601373493342 0 -0.2226419555757877 0.41907054852568831 0 -0.2399012026120371 0.42612601373493342 0 -0.24053130872332229 0.40391907954382728 0 -0.2226419555757877 0.41907054852568831 0 -0.24053130872332229 0.40391907954382728 0 -0.2196724685017912 0.40195902296002051 0 -0.25942221545204353 0.41763139312747227 0 -0.2399012026120371 0.42612601373493342 0 -0.24053130872332229 0.40391907954382728 0 -0.23895845985273889 0.44196680966175478 0 -0.24615972341571479 0.43784613295590807 0 -0.2399012026120371 0.42612601373493342 0 -0.23895845985273889 0.44196680966175478 0 -0.2289267174977076 0.44286270697110458 0 -0.2399012026120371 0.42612601373493342 0 -0.25156123850503848 0.43039672435479659 0 -0.24615972341571479 0.43784613295590807 0 -0.2399012026120371 0.42612601373493342 0 -0.25010325997960881 0.38216550747003092 0 -0.24053130872332229 0.40391907954382728 0 -0.23051294624277591 0.38177469318011997 0 -0.25700348794621308 0.39761547011383119 0 -0.25010325997960881 0.38216550747003092 0 -0.24053130872332229 0.40391907954382728 0 -0.24053130872332229 0.40391907954382728 0 -0.2196724685017912 0.40195902296002051 0 -0.23051294624277591 0.38177469318011997 0 -0.2196724685017912 0.40195902296002051 0 -0.23051294624277591 0.38177469318011997 0 -0.20642202318800279 0.37976975024968967 0 -0.2196724685017912 0.40195902296002051 0 -0.20642202318800279 0.37976975024968967 0 -0.20496182276005989 0.39989300129552913 0 -0.20642202318800279 0.37976975024968967 0 -0.20496182276005989 0.39989300129552913 0 -0.18921349839153559 0.39965031058218409 0 -0.20453930095891021 0.41819292139022213 0 -0.20496182276005989 0.39989300129552913 0 -0.18921349839153559 0.39965031058218409 0 -0.20642202318800279 0.37976975024968967 0 -0.1850348009539724 0.38052128282036313 0 -0.20329233465999791 0.37072482940495782 0 -0.20642202318800279 0.37976975024968967 0 -0.18921349839153559 0.39965031058218409 0 -0.20642202318800279 0.37976975024968967 0 -0.18921349839153559 0.39965031058218409 0 -0.1850348009539724 0.38052128282036313 0 -0.1850348009539724 0.38052128282036313 0 -0.20329233465999791 0.37072482940495782 0 -0.1850348009539724 0.38052128282036313 0 -0.16677726724794631 0.39031773623576738 0 -0.1850348009539724 0.38052128282036313 0 -0.174182632274442 0.37578893496103088 0 -0.18197653885382131 0.37409073109611263 0 -0.1850348009539724 0.38052128282036313 0 -0.16677726724794631 0.39031773623576738 0 -0.1787799813451974 0.39470569668921318 0 -0.1850348009539724 0.38052128282036313 0 -0.18197653885382131 0.37409073109611263 0 -0.19013101972935861 0.37056040509674648 0 -0.1850348009539724 0.38052128282036313 0 -0.174182632274442 0.37578893496103088 0 -0.16677726724794631 0.39031773623576738 0 -0.16677726724794631 0.39031773623576738 0 -0.16400429423111301 0.37482198555222651 0 -0.174182632274442 0.37578893496103088 0 -0.16677726724794631 0.39031773623576738 0 -0.16400429423111301 0.37482198555222651 0 -0.15501597597542349 0.38281496144255639 0 -0.15024865430642689 0.37205208109982879 0 -0.16400429423111301 0.37482198555222651 0 -0.16677726724794631 0.39031773623576738 0 -0.15501597597542349 0.38281496144255639 0 -0.16400429423111301 0.37482198555222651 0 -0.16677726724794631 0.39031773623576738 0 -0.1720049735950667 0.41953087091467711 0 -0.16677726724794631 0.39031773623576738 0 -0.1787799813451974 0.39470569668921318 0 -0.1720049735950667 0.41953087091467711 0 -0.18921349839153559 0.39965031058218409 0 -0.1850348009539724 0.38052128282036313 0 -0.1787799813451974 0.39470569668921318 0 -0.18921349839153559 0.39965031058218409 0 -0.1787799813451974 0.39470569668921318 0 -0.1720049735950667 0.41953087091467711 0 -0.18921349839153559 0.39965031058218409 0 -0.18551792743744441 0.41997680933330178 0 -0.1720049735950667 0.41953087091467711 0 -0.18921349839153559 0.39965031058218409 0 -0.1720049735950667 0.41953087091467711 0 -0.1882995472448234 0.43444407002876062 0 -0.17353231699688759 0.42806587375066502 0 -0.17723072694742181 0.43950652750184083 0 -0.1882995472448234 0.43444407002876062 0 -0.17353231699688759 0.42806587375066502 0 -0.1882995472448234 0.43444407002876062 0 -0.18551792743744441 0.41997680933330178 0 -0.17353231699688759 0.42806587375066502 0 -0.1720049735950667 0.41953087091467711 0 -0.17353231699688759 0.42806587375066502 0 -0.18551792743744441 0.41997680933330178 0 -0.1720049735950667 0.41953087091467711 0 -0.17353231699688759 0.42806587375066502 0 -0.17723072694742181 0.43950652750184083 0 -0.17550555513362009 0.44024883520190577 0 -0.17353231699688759 0.42806587375066502 0 -0.17550555513362009 0.44024883520190577 0 -0.17353231699688759 0.42806587375066502 0 -0.17353231699688759 0.42806587375066502 0 -0.17316044780097009 0.43673364777592549 0 -0.16957669178261869 0.43223803160258401 0 -0.17550555513362009 0.44024883520190577 0 -0.17353231699688759 0.42806587375066502 0 -0.17316044780097009 0.43673364777592549 0 -0.14772114581910889 0.4475853444336973 0 -0.15818981502419849 0.43893089873107138 0 -0.16704317190926249 0.42526311112348281 0 -0.14772114581910889 0.4475853444336973 0 -0.16704317190926249 0.42526311112348281 0 -0.15509026190184999 0.43444037193913299 0 -0.16704317190926249 0.42526311112348281 0 -0.15664582913844899 0.42498202919065159 0 -0.1497656794536138 0.41780069357968819 0 -0.14772114581910889 0.4475853444336973 0 -0.16704317190926249 0.42526311112348281 0 -0.1674110298932974 0.43959736585670323 0 -0.16514738111837071 0.43535515807813868 0 -0.1692279570628418 0.43675877889382009 0 -0.16514738111837071 0.43535515807813868 0 -0.1692279570628418 0.43675877889382009 0 -0.16957669178261869 0.43223803160258401 0 -0.17316044780097009 0.43673364777592549 0 -0.1692279570628418 0.43675877889382009 0 -0.16957669178261869 0.43223803160258401 0 -0.16514738111837071 0.43535515807813868 0 -0.16957669178261869 0.43223803160258401 0 -0.16498926495861271 0.43294679988381912 0 -0.16957669178261869 0.43223803160258401 0 -0.16498926495861271 0.43294679988381912 0 -0.16704317190926249 0.42526311112348281 0 -0.1720049735950667 0.41953087091467711 0 -0.17353231699688759 0.42806587375066502 0 -0.16704317190926249 0.42526311112348281 0 -0.17353231699688759 0.42806587375066502 0 -0.16704317190926249 0.42526311112348281 0 -0.17353231699688759 0.42806587375066502 0 -0.16957669178261869 0.43223803160258401 0 -0.16704317190926249 0.42526311112348281 0 -0.1720049735950667 0.41953087091467711 0 -0.16704317190926249 0.42526311112348281 0 -0.16704317190926249 0.42526311112348281 0 -0.15664582913844899 0.42498202919065159 0 -0.15509026190184999 0.43444037193913299 0 -0.15818981502419849 0.43893089873107138 0 -0.16498926495861271 0.43294679988381912 0 -0.16704317190926249 0.42526311112348281 0 -0.15818981502419849 0.43893089873107138 0 -0.16514738111837071 0.43535515807813868 0 -0.16498926495861271 0.43294679988381912 0 -0.16704317190926249 0.42526311112348281 0 -0.1497656794536138 0.41780069357968819 0 -0.16677726724794631 0.39031773623576738 0 -0.1720049735950667 0.41953087091467711 0 -0.15702009731931041 0.40942616652236941 0 -0.16704317190926249 0.42526311112348281 0 -0.1601856494610778 0.41765600119824992 0 -0.1497656794536138 0.41780069357968819 0 -0.1720049735950667 0.41953087091467711 0 -0.16704317190926249 0.42526311112348281 0 -0.1601856494610778 0.41765600119824992 0 -0.1720049735950667 0.41953087091467711 0 -0.1601856494610778 0.41765600119824992 0 -0.15702009731931041 0.40942616652236941 0 -0.1601856494610778 0.41765600119824992 0 -0.15702009731931041 0.40942616652236941 0 -0.1540005424486042 0.41373859830208431 0 -0.15702009731931041 0.40942616652236941 0 -0.1474581494799623 0.41101968360036423 0 -0.14050604614925871 0.40441409765035402 0 -0.15702009731931041 0.40942616652236941 0 -0.1540005424486042 0.41373859830208431 0 -0.1474581494799623 0.41101968360036423 0 -0.1601856494610778 0.41765600119824992 0 -0.1540005424486042 0.41373859830208431 0 -0.1497656794536138 0.41780069357968819 0 -0.1497656794536138 0.41780069357968819 0 -0.15080777929511491 0.42458835425312969 0 -0.14594582106205661 0.42205701558348557 0 -0.1540005424486042 0.41373859830208431 0 -0.1497656794536138 0.41780069357968819 0 -0.1474581494799623 0.41101968360036423 0 -0.1497656794536138 0.41780069357968819 0 -0.1474581494799623 0.41101968360036423 0 -0.14594582106205661 0.42205701558348557 0 -0.1474581494799623 0.41101968360036423 0 -0.14594582106205661 0.42205701558348557 0 -0.13921215096648901 0.42188485414633281 0 -0.15019738066575719 0.44049906153135832 0 -0.15055874365518401 0.43538536902734348 0 -0.15509026190184999 0.43444037193913299 0 -0.15055874365518401 0.43538536902734348 0 -0.15509026190184999 0.43444037193913299 0 -0.15297215964732599 0.42939319931941139 0 -0.15055874365518401 0.43538536902734348 0 -0.14870940717412909 0.42870883359241152 0 -0.1464162019780135 0.43421495685622552 0 -0.15055874365518401 0.43538536902734348 0 -0.14870940717412909 0.42870883359241152 0 -0.15297215964732599 0.42939319931941139 0 -0.15664582913844899 0.42498202919065159 0 -0.15509026190184999 0.43444037193913299 0 -0.15297215964732599 0.42939319931941139 0 -0.14870940717412909 0.42870883359241152 0 -0.15297215964732599 0.42939319931941139 0 -0.15080777929511491 0.42458835425312969 0 -0.15664582913844899 0.42498202919065159 0 -0.15297215964732599 0.42939319931941139 0 -0.15080777929511491 0.42458835425312969 0 -0.15664582913844899 0.42498202919065159 0 -0.1497656794536138 0.41780069357968819 0 -0.15080777929511491 0.42458835425312969 0 -0.14870940717412909 0.42870883359241152 0 -0.15080777929511491 0.42458835425312969 0 -0.14594582106205661 0.42205701558348557 0 -0.14594582106205661 0.42205701558348557 0 -0.14279697439125111 0.42695020983364929 0 -0.13921215096648901 0.42188485414633281 0 -0.14870940717412909 0.42870883359241152 0 -0.14594582106205661 0.42205701558348557 0 -0.14279697439125111 0.42695020983364929 0 -0.14870940717412909 0.42870883359241152 0 -0.14279697439125111 0.42695020983364929 0 -0.1464162019780135 0.43421495685622552 0 -0.14279697439125111 0.42695020983364929 0 -0.1464162019780135 0.43421495685622552 0 -0.14020240461683939 0.43210673118166232 0 -0.14267385388780521 0.43584009732048801 0 -0.1464162019780135 0.43421495685622552 0 -0.14020240461683939 0.43210673118166232 0 -0.14646871616614229 0.43959749225320638 0 -0.14267385388780521 0.43584009732048801 0 -0.1464162019780135 0.43421495685622552 0 -0.14646871616614229 0.43959749225320638 0 -0.15055874365518401 0.43538536902734348 0 -0.1464162019780135 0.43421495685622552 0 -0.1343639973044666 0.4387510516917254 0 -0.14020240461683939 0.43210673118166232 0 -0.13417200470832419 0.42917885304556358 0 -0.1343639973044666 0.4387510516917254 0 -0.14267385388780521 0.43584009732048801 0 -0.14020240461683939 0.43210673118166232 0 -0.14279697439125111 0.42695020983364929 0 -0.14020240461683939 0.43210673118166232 0 -0.13417200470832419 0.42917885304556358 0 -0.14279697439125111 0.42695020983364929 0 -0.13417200470832419 0.42917885304556358 0 -0.13921215096648901 0.42188485414633281 0 -0.13417200470832419 0.42917885304556358 0 -0.13921215096648901 0.42188485414633281 0 -0.1249469937880598 0.42269056345030942 0 -0.13417200470832419 0.42917885304556358 0 -0.12435653341535639 0.43280279094571039 0 -0.1249469937880598 0.42269056345030942 0 -0.1343639973044666 0.4387510516917254 0 -0.13417200470832419 0.42917885304556358 0 -0.12435653341535639 0.43280279094571039 0 -0.14050604614925871 0.40441409765035402 0 -0.12751187843855469 0.40101677790631879 0 -0.1142348250505705 0.41851045906493961 0 -0.14050604614925871 0.40441409765035402 0 -0.1142348250505705 0.41851045906493961 0 -0.1474581494799623 0.41101968360036423 0 -0.1249469937880598 0.42269056345030942 0 -0.14050604614925871 0.40441409765035402 0 -0.1142348250505705 0.41851045906493961 0 -0.1249469937880598 0.42269056345030942 0 -0.1474581494799623 0.41101968360036423 0 -0.14050604614925871 0.40441409765035402 0 -0.1249469937880598 0.42269056345030942 0 -0.1474581494799623 0.41101968360036423 0 -0.13921215096648901 0.42188485414633281 0 -0.1249469937880598 0.42269056345030942 0 -0.12751187843855469 0.40101677790631879 0 -0.1324068722749793 0.38953532938872132 0 -0.11673400125863551 0.38982675064944111 0 -0.12751187843855469 0.40101677790631879 0 -0.1324068722749793 0.38953532938872132 0 -0.14474338867058989 0.39198839029298821 0 -0.14050604614925871 0.40441409765035402 0 -0.12751187843855469 0.40101677790631879 0 -0.14474338867058989 0.39198839029298821 0 -0.1324068722749793 0.38953532938872132 0 -0.13234106171820231 0.37713097131412238 0 -0.11673400125863551 0.38982675064944111 0 -0.1324068722749793 0.38953532938872132 0 -0.14317830845371191 0.38276826423645161 0 -0.14474338867058989 0.39198839029298821 0 -0.1324068722749793 0.38953532938872132 0 -0.13234106171820231 0.37713097131412238 0 -0.14317830845371191 0.38276826423645161 0 -0.14317830845371191 0.38276826423645161 0 -0.15501597597542349 0.38281496144255639 0 -0.14474338867058989 0.39198839029298821 0 -0.16677726724794631 0.39031773623576738 0 -0.15501597597542349 0.38281496144255639 0 -0.14474338867058989 0.39198839029298821 0 -0.13234106171820231 0.37713097131412238 0 -0.14317830845371191 0.38276826423645161 0 -0.15024865430642689 0.37205208109982879 0 -0.14317830845371191 0.38276826423645161 0 -0.15501597597542349 0.38281496144255639 0 -0.15024865430642689 0.37205208109982879 0 -0.16677726724794631 0.39031773623576738 0 -0.14050604614925871 0.40441409765035402 0 -0.16677726724794631 0.39031773623576738 0 -0.15702009731931041 0.40942616652236941 0 -0.14050604614925871 0.40441409765035402 0 -0.16677726724794631 0.39031773623576738 0 -0.14050604614925871 0.40441409765035402 0 -0.14474338867058989 0.39198839029298821 0 -0.13970486439835389 0.36307215183285813 0 -0.1628287108767307 0.35270566165562961 0 -0.13970486439835389 0.36307215183285813 0 -0.16123132121427991 0.35932623486868559 0 -0.1628287108767307 0.35270566165562961 0 -0.13970486439835389 0.36307215183285813 0 -0.14774715176649311 0.33852092907320269 0 -0.1628287108767307 0.35270566165562961 0 -0.14774715176649311 0.33852092907320269 0 -0.1628287108767307 0.35270566165562961 0 -0.15024865430642689 0.37205208109982879 0 -0.13970486439835389 0.36307215183285813 0 -0.16123132121427991 0.35932623486868559 0 -0.13234106171820231 0.37713097131412238 0 -0.15024865430642689 0.37205208109982879 0 -0.13970486439835389 0.36307215183285813 0 -0.13970486439835389 0.36307215183285813 0 -0.11658101791997739 0.37343864201008697 0 -0.13234106171820231 0.37713097131412238 0 -0.13970486439835389 0.36307215183285813 0 -0.11658101791997739 0.37343864201008697 0 -0.13970486439835389 0.36307215183285813 0 -0.13053366520819221 0.34146399587285181 0 -0.11637724504661399 0.35160978132583581 0 -0.13970486439835389 0.36307215183285813 0 -0.13053366520819221 0.34146399587285181 0 -0.14774715176649311 0.33852092907320269 0 -0.13053366520819221 0.34146399587285181 0 -0.13266559265625361 0.32433619649077777 0 -0.14774715176649311 0.33852092907320269 0 -0.13053366520819221 0.34146399587285181 0 -0.13266559265625361 0.32433619649077777 0 -0.11617347217324669 0.32978092064158437 0 -0.13266559265625361 0.32433619649077777 0 -0.14774715176649311 0.33852092907320269 0 -0.13266559265625361 0.32433619649077777 0 -0.14824870055560391 0.31169234861005829 0 -0.12945900888685291 0.30952987372136809 0 -0.13266559265625361 0.32433619649077777 0 -0.1175840335460145 0.31015146390835241 0 -0.13266559265625361 0.32433619649077777 0 -0.12945900888685291 0.30952987372136809 0 -0.1175840335460145 0.31015146390835241 0 -0.13266559265625361 0.32433619649077777 0 -0.15353712457593449 0.32488747233086829 0 -0.14824870055560391 0.31169234861005829 0 -0.15353712457593449 0.32488747233086829 0 -0.14774715176649311 0.33852092907320269 0 -0.16518122618024619 0.3350944991630459 0 -0.13266559265625361 0.32433619649077777 0 -0.15353712457593449 0.32488747233086829 0 -0.14774715176649311 0.33852092907320269 0 -0.14774715176649311 0.33852092907320269 0 -0.16518122618024619 0.3350944991630459 0 -0.1628287108767307 0.35270566165562961 0 -0.15353712457593449 0.32488747233086829 0 -0.16518122618024619 0.3350944991630459 0 -0.16875016295937409 0.31686772741700958 0 -0.16518122618024619 0.3350944991630459 0 -0.16875016295937409 0.31686772741700958 0 -0.18132022394389929 0.32690549093501098 0 -0.15353712457593449 0.32488747233086829 0 -0.16875016295937409 0.31686772741700958 0 -0.14824870055560391 0.31169234861005829 0 -0.16875016295937409 0.31686772741700958 0 -0.18132022394389929 0.32690549093501098 0 -0.1872822628303274 0.31101889108043218 0 -0.18132022394389929 0.32690549093501098 0 -0.17989425765335451 0.34505512552210682 0 -0.18855140262337081 0.33306280571173591 0 -0.16518122618024619 0.3350944991630459 0 -0.18132022394389929 0.32690549093501098 0 -0.17989425765335451 0.34505512552210682 0 -0.17989425765335451 0.34505512552210682 0 -0.1756879274373172 0.35803661344480298 0 -0.1804697857495596 0.36594462613958079 0 -0.17989425765335451 0.34505512552210682 0 -0.1804697857495596 0.36594462613958079 0 -0.19541348474233289 0.34568228402234802 0 -0.17989425765335451 0.34505512552210682 0 -0.1756879274373172 0.35803661344480298 0 -0.1628287108767307 0.35270566165562961 0 -0.17989425765335451 0.34505512552210682 0 -0.1628287108767307 0.35270566165562961 0 -0.16518122618024619 0.3350944991630459 0 -0.17989425765335451 0.34505512552210682 0 -0.1628287108767307 0.35270566165562961 0 -0.16123132121427991 0.35932623486868559 0 -0.1628287108767307 0.35270566165562961 0 -0.16807392352148451 0.3658556171948778 0 -0.1628287108767307 0.35270566165562961 0 -0.16807392352148451 0.3658556171948778 0 -0.17955895546962369 0.36844104046189402 0 -0.1628287108767307 0.35270566165562961 0 -0.17955895546962369 0.36844104046189402 0 -0.15024865430642689 0.37205208109982879 0 -0.16123132121427991 0.35932623486868559 0 -0.16400429423111301 0.37482198555222651 0 -0.16123132121427991 0.35932623486868559 0 -0.16400429423111301 0.37482198555222651 0 -0.16123132121427991 0.35932623486868559 0 -0.16400429423111301 0.37482198555222651 0 -0.16807392352148451 0.3658556171948778 0 -0.174182632274442 0.37578893496103088 0 -0.16400429423111301 0.37482198555222651 0 -0.16807392352148451 0.3658556171948778 0 -0.174182632274442 0.37578893496103088 0 -0.16807392352148451 0.3658556171948778 0 -0.17955895546962369 0.36844104046189402 0 -0.1756879274373172 0.35803661344480298 0 -0.1628287108767307 0.35270566165562961 0 -0.17955895546962369 0.36844104046189402 0 -0.174182632274442 0.37578893496103088 0 -0.17955895546962369 0.36844104046189402 0 -0.18197653885382131 0.37409073109611263 0 -0.1756879274373172 0.35803661344480298 0 -0.17955895546962369 0.36844104046189402 0 -0.1804697857495596 0.36594462613958079 0 -0.1804697857495596 0.36594462613958079 0 -0.18745753316257061 0.36611250624776642 0 -0.19147229851417219 0.35872318163467232 0 -0.1804697857495596 0.36594462613958079 0 -0.18745753316257061 0.36611250624776642 0 -0.18385276926672489 0.36916690508940903 0 -0.18197653885382131 0.37409073109611263 0 -0.18385276926672489 0.36916690508940903 0 -0.19013101972935861 0.37056040509674648 0 -0.17955895546962369 0.36844104046189402 0 -0.18197653885382131 0.37409073109611263 0 -0.18385276926672489 0.36916690508940903 0 -0.17955895546962369 0.36844104046189402 0 -0.1804697857495596 0.36594462613958079 0 -0.18385276926672489 0.36916690508940903 0 -0.18745753316257061 0.36611250624776642 0 -0.18385276926672489 0.36916690508940903 0 -0.19013101972935861 0.37056040509674648 0 -0.1850348009539724 0.38052128282036313 0 -0.19013101972935861 0.37056040509674648 0 -0.20329233465999791 0.37072482940495782 0 -0.18745753316257061 0.36611250624776642 0 -0.19013101972935861 0.37056040509674648 0 -0.1915157992860653 0.36493098678991331 0 -0.18745753316257061 0.36611250624776642 0 -0.1915157992860653 0.36493098678991331 0 -0.19147229851417219 0.35872318163467232 0 -0.194143290895814 0.36139600357839963 0 -0.1915157992860653 0.36493098678991331 0 -0.19147229851417219 0.35872318163467232 0 -0.19013101972935861 0.37056040509674648 0 -0.1915157992860653 0.36493098678991331 0 -0.19615451943524739 0.36560327932136277 0 -0.194143290895814 0.36139600357839963 0 -0.1915157992860653 0.36493098678991331 0 -0.19615451943524739 0.36560327932136277 0 -0.19615451943524739 0.36560327932136277 0 -0.20175034017681939 0.36245916554988739 0 -0.20329233465999791 0.37072482940495782 0 -0.194143290895814 0.36139600357839963 0 -0.19786748706255489 0.35958492000896652 0 -0.19600436025417761 0.357246415972019 0 -0.194143290895814 0.36139600357839963 0 -0.19615451943524739 0.36560327932136277 0 -0.19786748706255489 0.35958492000896652 0 -0.19615451943524739 0.36560327932136277 0 -0.19786748706255489 0.35958492000896652 0 -0.20175034017681939 0.36245916554988739 0 -0.19013101972935861 0.37056040509674648 0 -0.19615451943524739 0.36560327932136277 0 -0.20329233465999791 0.37072482940495782 0 -0.1804697857495596 0.36594462613958079 0 -0.19541348474233289 0.34568228402234802 0 -0.1804697857495596 0.36594462613958079 0 -0.19147229851417219 0.35872318163467232 0 -0.19541348474233289 0.34568228402234802 0 -0.19147229851417219 0.35872318163467232 0 -0.19750544684798599 0.35294623646504542 0 -0.19541348474233289 0.34568228402234802 0 -0.194143290895814 0.36139600357839963 0 -0.19147229851417219 0.35872318163467232 0 -0.19600436025417761 0.357246415972019 0 -0.19147229851417219 0.35872318163467232 0 -0.19600436025417761 0.357246415972019 0 -0.19750544684798599 0.35294623646504542 0 -0.2005551311099821 0.35563167827880698 0 -0.19750544684798599 0.35294623646504542 0 -0.20408195961926509 0.34744762241738048 0 -0.19786748706255489 0.35958492000896652 0 -0.19600436025417761 0.357246415972019 0 -0.2005551311099821 0.35563167827880698 0 -0.19786748706255489 0.35958492000896652 0 -0.20175034017681939 0.36245916554988739 0 -0.2005551311099821 0.35563167827880698 0 -0.20175034017681939 0.36245916554988739 0 -0.2005551311099821 0.35563167827880698 0 -0.20522260920484461 0.35894203426533577 0 -0.19600436025417761 0.357246415972019 0 -0.2005551311099821 0.35563167827880698 0 -0.19750544684798599 0.35294623646504542 0 -0.19750544684798599 0.35294623646504542 0 -0.19541348474233289 0.34568228402234802 0 -0.20408195961926509 0.34744762241738048 0 -0.20408195961926509 0.34744762241738048 0 -0.2113395564021382 0.35198602314034599 0 -0.21156228421800441 0.34350726545349453 0 -0.20408195961926509 0.34744762241738048 0 -0.20628371061223161 0.35474481842287903 0 -0.2113395564021382 0.35198602314034599 0 -0.2005551311099821 0.35563167827880698 0 -0.20408195961926509 0.34744762241738048 0 -0.20628371061223161 0.35474481842287903 0 -0.20628371061223161 0.35474481842287903 0 -0.21041825300406269 0.35896156860812473 0 -0.2113395564021382 0.35198602314034599 0 -0.2005551311099821 0.35563167827880698 0 -0.20628371061223161 0.35474481842287903 0 -0.20522260920484461 0.35894203426533577 0 -0.20628371061223161 0.35474481842287903 0 -0.20522260920484461 0.35894203426533577 0 -0.21041825300406269 0.35896156860812473 0 -0.2146545563637218 0.35659564315672132 0 -0.2113395564021382 0.35198602314034599 0 -0.21932733532283191 0.35008231759505209 0 -0.21041825300406269 0.35896156860812473 0 -0.2146545563637218 0.35659564315672132 0 -0.21294283650970811 0.3617721408678527 0 -0.21041825300406269 0.35896156860812473 0 -0.2146545563637218 0.35659564315672132 0 -0.2113395564021382 0.35198602314034599 0 -0.2146545563637218 0.35659564315672132 0 -0.218421028909351 0.35785353350527482 0 -0.21294283650970811 0.3617721408678527 0 -0.2146545563637218 0.35659564315672132 0 -0.218421028909351 0.35785353350527482 0 -0.21932733532283191 0.35008231759505209 0 -0.2113395564021382 0.35198602314034599 0 -0.21932733532283191 0.35008231759505209 0 -0.21156228421800441 0.34350726545349453 0 -0.20642202318800279 0.37976975024968967 0 -0.22363054798446999 0.35988918991719521 0 -0.20329233465999791 0.37072482940495782 0 -0.22154986836602331 0.36092837598955252 0 -0.20329233465999791 0.37072482940495782 0 -0.21294283650970811 0.3617721408678527 0 -0.22154986836602331 0.36092837598955252 0 -0.20642202318800279 0.37976975024968967 0 -0.20329233465999791 0.37072482940495782 0 -0.22154986836602331 0.36092837598955252 0 -0.20642202318800279 0.37976975024968967 0 -0.22363054798446999 0.35988918991719521 0 -0.22154986836602331 0.36092837598955252 0 -0.20175034017681939 0.36245916554988739 0 -0.20329233465999791 0.37072482940495782 0 -0.2071056111211273 0.36291294046698069 0 -0.20329233465999791 0.37072482940495782 0 -0.2071056111211273 0.36291294046698069 0 -0.21294283650970811 0.3617721408678527 0 -0.20175034017681939 0.36245916554988739 0 -0.20522260920484461 0.35894203426533577 0 -0.2071056111211273 0.36291294046698069 0 -0.21041825300406269 0.35896156860812473 0 -0.2071056111211273 0.36291294046698069 0 -0.21294283650970811 0.3617721408678527 0 -0.20522260920484461 0.35894203426533577 0 -0.21041825300406269 0.35896156860812473 0 -0.2071056111211273 0.36291294046698069 0 -0.218421028909351 0.35785353350527482 0 -0.21294283650970811 0.3617721408678527 0 -0.22154986836602331 0.36092837598955252 0 -0.23051294624277591 0.38177469318011997 0 -0.22363054798446999 0.35988918991719521 0 -0.2425690902814803 0.35889421656913578 0 -0.23051294624277591 0.38177469318011997 0 -0.20642202318800279 0.37976975024968967 0 -0.22363054798446999 0.35988918991719521 0 -0.218421028909351 0.35785353350527482 0 -0.22363054798446999 0.35988918991719521 0 -0.22154986836602331 0.36092837598955252 0 -0.22363054798446999 0.35988918991719521 0 -0.240839072780935 0.34000862958469869 0 -0.22363054798446999 0.35988918991719521 0 -0.21932733532283191 0.35008231759505209 0 -0.240839072780935 0.34000862958469869 0 -0.218421028909351 0.35785353350527482 0 -0.22363054798446999 0.35988918991719521 0 -0.21932733532283191 0.35008231759505209 0 -0.22363054798446999 0.35988918991719521 0 -0.2425690902814803 0.35889421656913578 0 -0.240839072780935 0.34000862958469869 0 -0.26390121596602339 0.34232385865432319 0 -0.2425690902814803 0.35889421656913578 0 -0.240839072780935 0.34000862958469869 0 -0.25010325997960881 0.38216550747003092 0 -0.23051294624277591 0.38177469318011997 0 -0.2425690902814803 0.35889421656913578 0 -0.24172571062258599 0.32637133415708031 0 -0.23899727848720709 0.31419171975576371 0 -0.22802702305114869 0.32499491229212368 0 -0.24172571062258599 0.32637133415708031 0 -0.23899727848720709 0.31419171975576371 0 -0.2474751831174983 0.31668925353324862 0 -0.23899727848720709 0.31419171975576371 0 -0.2474751831174983 0.31668925353324862 0 -0.24995875472636631 0.30865150553894988 0 -0.25441860091976909 0.32130650551771689 0 -0.24172571062258599 0.32637133415708031 0 -0.2474751831174983 0.31668925353324862 0 -0.25682554436289812 0.32153987549055407 0 -0.240839072780935 0.34000862958469869 0 -0.25441860091976909 0.32130650551771689 0 -0.24172571062258599 0.32637133415708031 0 -0.240839072780935 0.34000862958469869 0 -0.24172571062258599 0.32637133415708031 0 -0.240839072780935 0.34000862958469869 0 -0.22802702305114869 0.32499491229212368 0 -0.240839072780935 0.34000862958469869 0 -0.22802702305114869 0.32499491229212368 0 -0.21554027980264839 0.33746886125268588 0 -0.21932733532283191 0.35008231759505209 0 -0.240839072780935 0.34000862958469869 0 -0.21554027980264839 0.33746886125268588 0 -0.240839072780935 0.34000862958469869 0 -0.21554027980264839 0.33746886125268588 0 -0.22802702305114869 0.32499491229212368 0 -0.21035718373510609 0.32541994190511531 0 -0.22530088272787921 0.30515759978788259 0 -0.23899727848720709 0.31419171975576371 0 -0.22802702305114869 0.32499491229212368 0 -0.22530088272787921 0.30515759978788259 0 -0.21035718373510609 0.32541994190511531 0 -0.22530088272787921 0.30515759978788259 0 -0.21035718373510609 0.32541994190511531 0 -0.20454845862831611 0.31306356765584092 0 -0.22530088272787921 0.30515759978788259 0 -0.21035718373510609 0.32541994190511531 0 -0.20454845862831611 0.31306356765584092 0 -0.19603132446625171 0.32288601700124248 0 -0.19541348474233289 0.34568228402234802 0 -0.20408195961926509 0.34744762241738048 0 -0.21035718373510609 0.32541994190511531 0 -0.21035718373510609 0.32541994190511531 0 -0.21156228421800441 0.34350726545349453 0 -0.21554027980264839 0.33746886125268588 0 -0.20408195961926509 0.34744762241738048 0 -0.21035718373510609 0.32541994190511531 0 -0.21156228421800441 0.34350726545349453 0 -0.22802702305114869 0.32499491229212368 0 -0.21035718373510609 0.32541994190511531 0 -0.21554027980264839 0.33746886125268588 0 -0.21932733532283191 0.35008231759505209 0 -0.21156228421800441 0.34350726545349453 0 -0.21554027980264839 0.33746886125268588 0 -0.17989425765335451 0.34505512552210682 0 -0.19695980442997779 0.33740458938858292 0 -0.18855140262337081 0.33306280571173591 0 -0.17989425765335451 0.34505512552210682 0 -0.19695980442997779 0.33740458938858292 0 -0.17989425765335451 0.34505512552210682 0 -0.19541348474233289 0.34568228402234802 0 -0.19695980442997779 0.33740458938858292 0 -0.19541348474233289 0.34568228402234802 0 -0.21035718373510609 0.32541994190511531 0 -0.19541348474233289 0.34568228402234802 0 -0.21035718373510609 0.32541994190511531 0 -0.19695980442997779 0.33740458938858292 0 -0.21035718373510609 0.32541994190511531 0 -0.19695980442997779 0.33740458938858292 0 -0.19603132446625171 0.32288601700124248 0 -0.19695980442997779 0.33740458938858292 0 -0.18855140262337081 0.33306280571173591 0 -0.19603132446625171 0.32288601700124248 0 -0.20454845862831611 0.31306356765584092 0 -0.19603132446625171 0.32288601700124248 0 -0.1872822628303274 0.31101889108043218 0 -0.18132022394389929 0.32690549093501098 0 -0.19603132446625171 0.32288601700124248 0 -0.1872822628303274 0.31101889108043218 0 -0.18132022394389929 0.32690549093501098 0 -0.18855140262337081 0.33306280571173591 0 -0.19603132446625171 0.32288601700124248 0 -0.1899930353029898 0.29073646708635681 0 -0.20377063938201581 0.30083538850453179 0 -0.1872822628303274 0.31101889108043218 0 -0.20454845862831611 0.31306356765584092 0 -0.20377063938201581 0.30083538850453179 0 -0.1872822628303274 0.31101889108043218 0 -0.1899930353029898 0.29073646708635681 0 -0.211780339812046 0.28146178384770359 0 -0.1937985550263637 0.27288900732367738 0 -0.1899930353029898 0.29073646708635681 0 -0.211780339812046 0.28146178384770359 0 -0.20377063938201581 0.30083538850453179 0 -0.211780339812046 0.28146178384770359 0 -0.20377063938201581 0.30083538850453179 0 -0.22530088272787921 0.30515759978788259 0 -0.20454845862831611 0.31306356765584092 0 -0.20377063938201581 0.30083538850453179 0 -0.22530088272787921 0.30515759978788259 0 -0.211780339812046 0.28146178384770359 0 -0.22530088272787921 0.30515759978788259 0 -0.2270241175148672 0.28270899336049399 0 -0.22530088272787921 0.30515759978788259 0 -0.24024458172065241 0.28489525767064988 0 -0.22530088272787921 0.30515759978788259 0 -0.2270241175148672 0.28270899336049399 0 -0.24024458172065241 0.28489525767064988 0 -0.22530088272787921 0.30515759978788259 0 -0.24024458172065241 0.28489525767064988 0 -0.24413523743933169 0.2940191154466249 0 -0.24024458172065241 0.28489525767064988 0 -0.24464532796551999 0.28657043612991329 0 -0.24413523743933169 0.2940191154466249 0 -0.25316038087885961 0.28154957362374478 0 -0.24466340725627719 0.28241013445123608 0 -0.24890537277938471 0.2846227336004975 0 -0.24466340725627719 0.28241013445123608 0 -0.24464532796551999 0.28657043612991329 0 -0.24890537277938471 0.2846227336004975 0 -0.24024458172065241 0.28489525767064988 0 -0.24466340725627719 0.28241013445123608 0 -0.24464532796551999 0.28657043612991329 0 -0.24464532796551999 0.28657043612991329 0 -0.2479793443816648 0.28801134435840692 0 -0.24890537277938471 0.2846227336004975 0 -0.24464532796551999 0.28657043612991329 0 -0.2479793443816648 0.28801134435840692 0 -0.24413523743933169 0.2940191154466249 0 -0.25065828437581061 0.29099340376357141 0 -0.2479793443816648 0.28801134435840692 0 -0.24413523743933169 0.2940191154466249 0 -0.25122297937698662 0.29503902165060658 0 -0.24413523743933169 0.2940191154466249 0 -0.24754731783654399 0.2993331961295761 0 -0.25122297937698662 0.29503902165060658 0 -0.25065828437581061 0.29099340376357141 0 -0.24413523743933169 0.2940191154466249 0 -0.23899727848720709 0.31419171975576371 0 -0.22530088272787921 0.30515759978788259 0 -0.24215330102188221 0.3040346654238083 0 -0.22530088272787921 0.30515759978788259 0 -0.24413523743933169 0.2940191154466249 0 -0.24215330102188221 0.3040346654238083 0 -0.24413523743933169 0.2940191154466249 0 -0.24754731783654399 0.2993331961295761 0 -0.24215330102188221 0.3040346654238083 0 -0.24754731783654399 0.2993331961295761 0 -0.24801025996080489 0.30351113118129402 0 -0.24215330102188221 0.3040346654238083 0 -0.25230314247590491 0.30116557682720108 0 -0.24754731783654399 0.2993331961295761 0 -0.24801025996080489 0.30351113118129402 0 -0.23899727848720709 0.31419171975576371 0 -0.24995875472636631 0.30865150553894988 0 -0.24215330102188221 0.3040346654238083 0 -0.24801025996080489 0.30351113118129402 0 -0.24995875472636631 0.30865150553894988 0 -0.24215330102188221 0.3040346654238083 0 -0.25244996598307418 0.25641473194636027 0 -0.2328052521041879 0.26216167743402252 0 -0.24729232979450469 0.2396916628870277 0 -0.25869461720137787 0.27326415596874681 0 -0.25244996598307418 0.25641473194636027 0 -0.2328052521041879 0.26216167743402252 0 -0.25869461720137787 0.27326415596874681 0 -0.2328052521041879 0.26216167743402252 0 -0.25869461720137787 0.27326415596874681 0 -0.24466340725627719 0.28241013445123608 0 -0.23816777740444589 0.27478436316032928 0 -0.25869461720137787 0.27326415596874681 0 -0.23816777740444589 0.27478436316032928 0 -0.2328052521041879 0.26216167743402252 0 -0.24024458172065241 0.28489525767064988 0 -0.24466340725627719 0.28241013445123608 0 -0.23816777740444589 0.27478436316032928 0 -0.2270241175148672 0.28270899336049399 0 -0.24024458172065241 0.28489525767064988 0 -0.23816777740444589 0.27478436316032928 0 -0.2270241175148672 0.28270899336049399 0 -0.23816777740444589 0.27478436316032928 0 -0.2328052521041879 0.26216167743402252 0 -0.211780339812046 0.28146178384770359 0 -0.2270241175148672 0.28270899336049399 0 -0.2328052521041879 0.26216167743402252 0 -0.2328052521041879 0.26216167743402252 0 -0.2069158870069982 0.25105919889929779 0 -0.211780339812046 0.28146178384770359 0 -0.2328052521041879 0.26216167743402252 0 -0.2069158870069982 0.25105919889929779 0 -0.211780339812046 0.28146178384770359 0 -0.2069158870069982 0.25105919889929779 0 -0.1937985550263637 0.27288900732367738 0 -0.2069158870069982 0.25105919889929779 0 -0.1937985550263637 0.27288900732367738 0 -0.18196305528885351 0.25996680700311592 0 -0.2069158870069982 0.25105919889929779 0 -0.18196305528885351 0.25996680700311592 0 -0.1810265219098085 0.23995672036457311 0 -0.18196305528885351 0.25996680700311592 0 -0.1690799129501761 0.25245421101349791 0 -0.16534832325763821 0.26366844023445041 0 -0.18196305528885351 0.25996680700311592 0 -0.1690799129501761 0.25245421101349791 0 -0.1810265219098085 0.23995672036457311 0 -0.1690799129501761 0.25245421101349791 0 -0.16534832325763821 0.26366844023445041 0 -0.15818960312719971 0.25356924451958068 0 -0.16534832325763821 0.26366844023445041 0 -0.15818960312719971 0.25356924451958068 0 -0.15129019190655499 0.26430202672395681 0 -0.15918040694440519 0.273460857791128 0 -0.17287780544334219 0.27832574858448522 0 -0.1530267301236426 0.28384781392229852 0 -0.16534832325763821 0.26366844023445041 0 -0.15918040694440519 0.273460857791128 0 -0.15129019190655499 0.26430202672395681 0 -0.16534832325763821 0.26366844023445041 0 -0.15918040694440519 0.273460857791128 0 -0.17287780544334219 0.27832574858448522 0 -0.18196305528885351 0.25996680700311592 0 -0.16534832325763821 0.26366844023445041 0 -0.17287780544334219 0.27832574858448522 0 -0.1899930353029898 0.29073646708635681 0 -0.1937985550263637 0.27288900732367738 0 -0.17287780544334219 0.27832574858448522 0 -0.1937985550263637 0.27288900732367738 0 -0.18196305528885351 0.25996680700311592 0 -0.17287780544334219 0.27832574858448522 0 -0.1899930353029898 0.29073646708635681 0 -0.17287780544334219 0.27832574858448522 0 -0.16771728318504961 0.29844046757859682 0 -0.1899930353029898 0.29073646708635681 0 -0.1872822628303274 0.31101889108043218 0 -0.16771728318504961 0.29844046757859682 0 -0.16875016295937409 0.31686772741700958 0 -0.1872822628303274 0.31101889108043218 0 -0.16771728318504961 0.29844046757859682 0 -0.16875016295937409 0.31686772741700958 0 -0.16771728318504961 0.29844046757859682 0 -0.14824870055560391 0.31169234861005829 0 -0.16771728318504961 0.29844046757859682 0 -0.15414612439731401 0.29586385638735718 0 -0.14824870055560391 0.31169234861005829 0 -0.17287780544334219 0.27832574858448522 0 -0.16771728318504961 0.29844046757859682 0 -0.1530267301236426 0.28384781392229852 0 -0.16771728318504961 0.29844046757859682 0 -0.1530267301236426 0.28384781392229852 0 -0.15414612439731401 0.29586385638735718 0 -0.1530267301236426 0.28384781392229852 0 -0.15414612439731401 0.29586385638735718 0 -0.14450806812294351 0.29549451501591217 0 -0.1530267301236426 0.28384781392229852 0 -0.14450806812294351 0.29549451501591217 0 -0.1383005517829429 0.28787737935391722 0 -0.1530267301236426 0.28384781392229852 0 -0.1383005517829429 0.28787737935391722 0 -0.14300741127673069 0.27807181052421698 0 -0.15414612439731401 0.29586385638735718 0 -0.14450806812294351 0.29549451501591217 0 -0.14824870055560391 0.31169234861005829 0 -0.14450806812294351 0.29549451501591217 0 -0.14824870055560391 0.31169234861005829 0 -0.13673972520275759 0.29730516402597168 0 -0.14824870055560391 0.31169234861005829 0 -0.12610413985970881 0.29996471812102249 0 -0.12945900888685291 0.30952987372136809 0 -0.14824870055560391 0.31169234861005829 0 -0.13673972520275759 0.29730516402597168 0 -0.12610413985970881 0.29996471812102249 0 -0.14824870055560391 0.31169234861005829 0 -0.12610413985970881 0.29996471812102249 0 -0.12610413985970881 0.29996471812102249 0 -0.12945900888685291 0.30952987372136809 0 -0.122692577816684 0.3015046414766292 0 -0.12653716569258899 0.29149685902894829 0 -0.12810727832235039 0.27433304396577768 0 -0.12653716569258899 0.29149685902894829 0 -0.13039382100144811 0.28269142196392 0 -0.12810727832235039 0.27433304396577768 0 -0.12653716569258899 0.29149685902894829 0 -0.12810727832235039 0.27433304396577768 0 -0.1217002420443424 0.28463418193738271 0 -0.1383005517829429 0.28787737935391722 0 -0.13039382100144811 0.28269142196392 0 -0.14300741127673069 0.27807181052421698 0 -0.13673972520275759 0.29730516402597168 0 -0.1383005517829429 0.28787737935391722 0 -0.12653716569258899 0.29149685902894829 0 -0.14450806812294351 0.29549451501591217 0 -0.13673972520275759 0.29730516402597168 0 -0.1383005517829429 0.28787737935391722 0 -0.13673972520275759 0.29730516402597168 0 -0.12610413985970881 0.29996471812102249 0 -0.12653716569258899 0.29149685902894829 0 -0.1383005517829429 0.28787737935391722 0 -0.12653716569258899 0.29149685902894829 0 -0.13039382100144811 0.28269142196392 0 -0.12810727832235039 0.27433304396577768 0 -0.1296773909521125 0.25716922890260729 0 -0.13039382100144811 0.28269142196392 0 -0.12810727832235039 0.27433304396577768 0 -0.13708171723800811 0.26774370321192792 0 -0.12810727832235039 0.27433304396577768 0 -0.13708171723800811 0.26774370321192792 0 -0.1296773909521125 0.25716922890260729 0 -0.12810727832235039 0.27433304396577768 0 -0.1296773909521125 0.25716922890260729 0 -0.1195416394116576 0.26992350229520717 0 -0.13039382100144811 0.28269142196392 0 -0.13708171723800811 0.26774370321192792 0 -0.14300741127673069 0.27807181052421698 0 -0.13039382100144811 0.28269142196392 0 -0.13708171723800811 0.26774370321192792 0 -0.1296773909521125 0.25716922890260729 0 -0.1437696134745676 0.25279598445993562 0 -0.13708171723800811 0.26774370321192792 0 -0.1296773909521125 0.25716922890260729 0 -0.1437696134745676 0.25279598445993562 0 -0.13708171723800811 0.26774370321192792 0 -0.1437696134745676 0.25279598445993562 0 -0.13708171723800811 0.26774370321192792 0 -0.14695536254882749 0.25867412606794921 0 -0.15129019190655499 0.26430202672395681 0 -0.13708171723800811 0.26774370321192792 0 -0.14695536254882749 0.25867412606794921 0 -0.1437696134745676 0.25279598445993562 0 -0.14695536254882749 0.25867412606794921 0 -0.1437696134745676 0.25279598445993562 0 -0.14625356343122631 0.25202513938375759 0 -0.14695536254882749 0.25867412606794921 0 -0.14625356343122631 0.25202513938375759 0 -0.1512904222167957 0.25495129201475403 0 -0.1437696134745676 0.25279598445993562 0 -0.14625356343122631 0.25202513938375759 0 -0.14625356343122631 0.25202513938375759 0 -0.1512904222167957 0.25495129201475403 0 -0.15376339007017009 0.24618592337852629 0 -0.15818960312719971 0.25356924451958068 0 -0.1512904222167957 0.25495129201475403 0 -0.15129019190655499 0.26430202672395681 0 -0.15818960312719971 0.25356924451958068 0 -0.1512904222167957 0.25495129201475403 0 -0.15376339007017009 0.24618592337852629 0 -0.14695536254882749 0.25867412606794921 0 -0.1512904222167957 0.25495129201475403 0 -0.15129019190655499 0.26430202672395681 0 -0.15918040694440519 0.273460857791128 0 -0.1530267301236426 0.28384781392229852 0 -0.14300741127673069 0.27807181052421698 0 -0.15918040694440519 0.273460857791128 0 -0.15129019190655499 0.26430202672395681 0 -0.14300741127673069 0.27807181052421698 0 -0.13708171723800811 0.26774370321192792 0 -0.15129019190655499 0.26430202672395681 0 -0.14300741127673069 0.27807181052421698 0 -0.10898246764291949 0.28111543641016512 0 -0.1064623886704975 0.26437354884241282 0 -0.1022934978105485 0.28463936664179262 0 -0.1064623886704975 0.26437354884241282 0 -0.1022934978105485 0.28463936664179262 0 -0.081815018467918998 0.27650945714295072 0 -0.1064623886704975 0.26437354884241282 0 -0.1022934978105485 0.28463936664179262 0 -0.1064623886704975 0.26437354884241282 0 -0.093286781451782555 0.25248200310933011 0 -0.1121816457685484 0.23657108862201839 0 -0.1064623886704975 0.26437354884241282 0 -0.1121816457685484 0.23657108862201839 0 -0.1296773909521125 0.25716922890260729 0 -0.1064623886704975 0.26437354884241282 0 -0.1296773909521125 0.25716922890260729 0 -0.1064623886704975 0.26437354884241282 0 -0.1195416394116576 0.26992350229520717 0 -0.1296773909521125 0.25716922890260729 0 -0.1064623886704975 0.26437354884241282 0 -0.1121816457685484 0.23657108862201839 0 -0.10898246764291949 0.28111543641016512 0 -0.1064623886704975 0.26437354884241282 0 -0.1152684626941073 0.2776783079158559 0 -0.1064623886704975 0.26437354884241282 0 -0.1195416394116576 0.26992350229520717 0 -0.1152684626941073 0.2776783079158559 0 -0.10898246764291949 0.28111543641016512 0 -0.1152684626941073 0.2776783079158559 0 -0.11508315484010059 0.28455462182817759 0 -0.12810727832235039 0.27433304396577768 0 -0.1195416394116576 0.26992350229520717 0 -0.1211544056181144 0.27664225902855588 0 -0.12810727832235039 0.27433304396577768 0 -0.1211544056181144 0.27664225902855588 0 -0.1217002420443424 0.28463418193738271 0 -0.1152684626941073 0.2776783079158559 0 -0.1211544056181144 0.27664225902855588 0 -0.1217002420443424 0.28463418193738271 0 -0.1195416394116576 0.26992350229520717 0 -0.1152684626941073 0.2776783079158559 0 -0.1211544056181144 0.27664225902855588 0 -0.12610413985970881 0.29996471812102249 0 -0.122692577816684 0.3015046414766292 0 -0.10395957916381381 0.28823708763198669 0 -0.12610413985970881 0.29996471812102249 0 -0.10395957916381381 0.28823708763198669 0 -0.12610413985970881 0.29996471812102249 0 -0.113347173415934 0.28832290743302269 0 -0.10395957916381381 0.28823708763198669 0 -0.1152684626941073 0.2776783079158559 0 -0.1217002420443424 0.28463418193738271 0 -0.11508315484010059 0.28455462182817759 0 -0.1217002420443424 0.28463418193738271 0 -0.1197048831732767 0.29030841628856968 0 -0.11508315484010059 0.28455462182817759 0 -0.12653716569258899 0.29149685902894829 0 -0.1217002420443424 0.28463418193738271 0 -0.1197048831732767 0.29030841628856968 0 -0.12610413985970881 0.29996471812102249 0 -0.1197048831732767 0.29030841628856968 0 -0.113347173415934 0.28832290743302269 0 -0.12610413985970881 0.29996471812102249 0 -0.12653716569258899 0.29149685902894829 0 -0.1197048831732767 0.29030841628856968 0 -0.10898246764291949 0.28111543641016512 0 -0.11508315484010059 0.28455462182817759 0 -0.113347173415934 0.28832290743302269 0 -0.10898246764291949 0.28111543641016512 0 -0.113347173415934 0.28832290743302269 0 -0.1062488158157847 0.28575716431821491 0 -0.1197048831732767 0.29030841628856968 0 -0.11508315484010059 0.28455462182817759 0 -0.113347173415934 0.28832290743302269 0 -0.1175840335460145 0.31015146390835241 0 -0.122692577816684 0.3015046414766292 0 -0.09969952600696666 0.29333046052565159 0 -0.12945900888685291 0.30952987372136809 0 -0.1175840335460145 0.31015146390835241 0 -0.122692577816684 0.3015046414766292 0 -0.1175840335460145 0.31015146390835241 0 -0.122692577816684 0.3015046414766292 0 -0.1175840335460145 0.31015146390835241 0 -0.09969952600696666 0.29333046052565159 0 -0.098489166245894891 0.31253547245506058 0 -0.1175840335460145 0.31015146390835241 0 -0.09969952600696666 0.29333046052565159 0 -0.10395957916381381 0.28823708763198669 0 -0.1022934978105485 0.28463936664179262 0 -0.081815018467918998 0.27650945714295072 0 -0.09969952600696666 0.29333046052565159 0 -0.10395957916381381 0.28823708763198669 0 -0.081815018467918998 0.27650945714295072 0 -0.122692577816684 0.3015046414766292 0 -0.09969952600696666 0.29333046052565159 0 -0.10395957916381381 0.28823708763198669 0 -0.113347173415934 0.28832290743302269 0 -0.10395957916381381 0.28823708763198669 0 -0.1062488158157847 0.28575716431821491 0 -0.10395957916381381 0.28823708763198669 0 -0.1022934978105485 0.28463936664179262 0 -0.1062488158157847 0.28575716431821491 0 -0.10898246764291949 0.28111543641016512 0 -0.1022934978105485 0.28463936664179262 0 -0.1062488158157847 0.28575716431821491 0 -0.10395957916381381 0.28823708763198669 0 -0.081815018467918998 0.27650945714295072 0 -0.09969952600696666 0.29333046052565159 0 -0.083218052598159717 0.29200676127998582 0 -0.081815018467918998 0.27650945714295072 0 -0.09969952600696666 0.29333046052565159 0 -0.081815018467918998 0.27650945714295072 0 -0.083218052598159717 0.29200676127998582 0 -0.07487573982983059 0.28376908626144881 0 -0.081815018467918998 0.27650945714295072 0 -0.09969952600696666 0.29333046052565159 0 -0.083218052598159717 0.29200676127998582 0 -0.081424658254466514 0.30666416548051673 0 -0.09969952600696666 0.29333046052565159 0 -0.081424658254466514 0.30666416548051673 0 -0.098489166245894891 0.31253547245506058 0 -0.081424658254466514 0.30666416548051673 0 -0.069304272823974583 0.29661420625092261 0 -0.067001133515629335 0.31386851525996312 0 -0.069304272823974583 0.29661420625092261 0 -0.057691682549581992 0.30360789120713799 0 -0.067001133515629335 0.31386851525996312 0 -0.083218052598159717 0.29200676127998582 0 -0.081424658254466514 0.30666416548051673 0 -0.069304272823974583 0.29661420625092261 0 -0.083218052598159717 0.29200676127998582 0 -0.07487573982983059 0.28376908626144881 0 -0.069304272823974583 0.29661420625092261 0 -0.069304272823974583 0.29661420625092261 0 -0.065277067323828139 0.28554583594376431 0 -0.056453910793093753 0.2923577122400961 0 -0.07487573982983059 0.28376908626144881 0 -0.069304272823974583 0.29661420625092261 0 -0.065277067323828139 0.28554583594376431 0 -0.071032110492382033 0.2663677559450926 0 -0.07647277531354163 0.27368023625401422 0 -0.050821317811316498 0.27865251346272152 0 -0.065277067323828139 0.28554583594376431 0 -0.07647277531354163 0.27368023625401422 0 -0.049651018632872003 0.28200384157315628 0 -0.07647277531354163 0.27368023625401422 0 -0.049651018632872003 0.28200384157315628 0 -0.071032110492382033 0.2663677559450926 0 -0.078227836623876543 0.27313558745147343 0 -0.081291371374418664 0.26013185346295659 0 -0.071032110492382033 0.2663677559450926 0 -0.07647277531354163 0.27368023625401422 0 -0.078227836623876543 0.27313558745147343 0 -0.071032110492382033 0.2663677559450926 0 -0.078227836623876543 0.27313558745147343 0 -0.07647277531354163 0.27368023625401422 0 -0.078227836623876543 0.27313558745147343 0 -0.07487573982983059 0.28376908626144881 0 -0.065277067323828139 0.28554583594376431 0 -0.07647277531354163 0.27368023625401422 0 -0.07487573982983059 0.28376908626144881 0 -0.07647277531354163 0.27368023625401422 0 -0.081815018467918998 0.27650945714295072 0 -0.1064623886704975 0.26437354884241282 0 -0.081815018467918998 0.27650945714295072 0 -0.078227836623876543 0.27313558745147343 0 -0.1064623886704975 0.26437354884241282 0 -0.078227836623876543 0.27313558745147343 0 -0.081291371374418664 0.26013185346295659 0 -0.1064623886704975 0.26437354884241282 0 -0.078227836623876543 0.27313558745147343 0 -0.07647277531354163 0.27368023625401422 0 -0.081815018467918998 0.27650945714295072 0 -0.078227836623876543 0.27313558745147343 0 -0.07647277531354163 0.27368023625401422 0 -0.081815018467918998 0.27650945714295072 0 -0.081815018467918998 0.27650945714295072 0 -0.078227836623876543 0.27313558745147343 0 -0.1064623886704975 0.26437354884241282 0 -0.093286781451782555 0.25248200310933011 0 -0.081291371374418664 0.26013185346295659 0 -0.093286781451782555 0.25248200310933011 0 -0.081291371374418664 0.26013185346295659 0 -0.082751972805153451 0.25019407668153493 0 -0.081291371374418664 0.26013185346295659 0 -0.082751972805153451 0.25019407668153493 0 -0.072935344474137062 0.2541079673458424 0 -0.071032110492382033 0.2663677559450926 0 -0.072935344474137062 0.2541079673458424 0 -0.067301572475548063 0.25604627783369821 0 -0.071032110492382033 0.2663677559450926 0 -0.081291371374418664 0.26013185346295659 0 -0.071032110492382033 0.2663677559450926 0 -0.081291371374418664 0.26013185346295659 0 -0.072935344474137062 0.2541079673458424 0 -0.071032110492382033 0.2663677559450926 0 -0.059047444570795582 0.25509575946615382 0 -0.071032110492382033 0.2663677559450926 0 -0.067301572475548063 0.25604627783369821 0 -0.059047444570795582 0.25509575946615382 0 -0.067301572475548063 0.25604627783369821 0 -0.059047444570795582 0.25509575946615382 0 -0.066191390364875119 0.24861362857770389 0 -0.072935344474137062 0.2541079673458424 0 -0.067301572475548063 0.25604627783369821 0 -0.066191390364875119 0.24861362857770389 0 -0.05554195815019132 0.25483670679498688 0 -0.059047444570795582 0.25509575946615382 0 -0.052777044882735553 0.2530888411950683 0 -0.05554195815019132 0.25483670679498688 0 -0.059047444570795582 0.25509575946615382 0 -0.052090412493532412 0.25681373511448258 0 -0.059047444570795582 0.25509575946615382 0 -0.04796715180158536 0.26468370067539521 0 -0.052090412493532412 0.25681373511448258 0 -0.04796715180158536 0.26468370067539521 0 -0.052090412493532412 0.25681373511448258 0 -0.046822284816492463 0.26062325432590078 0 -0.048923215434323868 0.25713259867458821 0 -0.052090412493532412 0.25681373511448258 0 -0.046822284816492463 0.26062325432590078 0 -0.048923215434323868 0.25713259867458821 0 -0.046386547381752692 0.25602288905179349 0 -0.046822284816492463 0.26062325432590078 0 -0.059047444570795582 0.25509575946615382 0 -0.052777044882735553 0.2530888411950683 0 -0.050793007043487062 0.24783188033554601 0 -0.048923215434323868 0.25713259867458821 0 -0.049923261759416131 0.25449803400293208 0 -0.046386547381752692 0.25602288905179349 0 -0.048923215434323868 0.25713259867458821 0 -0.049923261759416131 0.25449803400293208 0 -0.052090412493532412 0.25681373511448258 0 -0.049923261759416131 0.25449803400293208 0 -0.047338314127148493 0.25264116884274718 0 -0.046386547381752692 0.25602288905179349 0 -0.047338314127148493 0.25264116884274718 0 -0.050176839751681031 0.25141733800211702 0 -0.045036679799408327 0.2473423560733036 0 -0.049923261759416131 0.25449803400293208 0 -0.047338314127148493 0.25264116884274718 0 -0.050176839751681031 0.25141733800211702 0 -0.050176839751681031 0.25141733800211702 0 -0.052777044882735553 0.2530888411950683 0 -0.050793007043487062 0.24783188033554601 0 -0.049923261759416131 0.25449803400293208 0 -0.050176839751681031 0.25141733800211702 0 -0.052777044882735553 0.2530888411950683 0 -0.05554195815019132 0.25483670679498688 0 -0.052777044882735553 0.2530888411950683 0 -0.052090412493532412 0.25681373511448258 0 -0.049923261759416131 0.25449803400293208 0 -0.052777044882735553 0.2530888411950683 0 -0.052090412493532412 0.25681373511448258 0 -0.059047444570795582 0.25509575946615382 0 -0.04796715180158536 0.26468370067539521 0 -0.050821317811316498 0.27865251346272152 0 -0.07647277531354163 0.27368023625401422 0 -0.050821317811316498 0.27865251346272152 0 -0.049651018632872003 0.28200384157315628 0 -0.071032110492382033 0.2663677559450926 0 -0.050821317811316498 0.27865251346272152 0 -0.071032110492382033 0.2663677559450926 0 -0.059047444570795582 0.25509575946615382 0 -0.050821317811316498 0.27865251346272152 0 -0.059047444570795582 0.25509575946615382 0 -0.050821317811316498 0.27865251346272152 0 -0.04796715180158536 0.26468370067539521 0 -0.050821317811316498 0.27865251346272152 0 -0.042850503340194718 0.27092941067201243 0 -0.050821317811316498 0.27865251346272152 0 -0.049651018632872003 0.28200384157315628 0 -0.034880426293425248 0.27152939180054181 0 -0.02926511767517842 0.2644861082771286 0 -0.03860284121856826 0.28607928907441083 0 -0.02926511767517842 0.2644861082771286 0 -0.03860284121856826 0.28607928907441083 0 -0.050821317811316498 0.27865251346272152 0 -0.041019196007295568 0.27719596369039579 0 -0.042850503340194718 0.27092941067201243 0 -0.050821317811316498 0.27865251346272152 0 -0.041019196007295568 0.27719596369039579 0 -0.040777160748900539 0.284757669055961 0 -0.041019196007295568 0.27719596369039579 0 -0.038273946248512387 0.27868237997847939 0 -0.039209055878356387 0.2823451138376204 0 -0.041019196007295568 0.27719596369039579 0 -0.038387159424593677 0.27096280352791358 0 -0.037786911294179937 0.274199823494857 0 -0.041019196007295568 0.27719596369039579 0 -0.042850503340194718 0.27092941067201243 0 -0.038387159424593677 0.27096280352791358 0 -0.042850503340194718 0.27092941067201243 0 -0.041102256518579489 0.26697922569982929 0 -0.038387159424593677 0.27096280352791358 0 -0.04796715180158536 0.26468370067539521 0 -0.042850503340194718 0.27092941067201243 0 -0.041102256518579489 0.26697922569982929 0 -0.041102256518579489 0.26697922569982929 0 -0.03672418021026163 0.26680397664966121 0 -0.038387159424593677 0.27096280352791358 0 -0.041102256518579489 0.26697922569982929 0 -0.03672418021026163 0.26680397664966121 0 -0.03872836172421032 0.26358304080306949 0 -0.035955092543143372 0.26893902250270052 0 -0.03672418021026163 0.26680397664966121 0 -0.038387159424593677 0.27096280352791358 0 -0.035955092543143372 0.26893902250270052 0 -0.03672418021026163 0.26680397664966121 0 -0.033828604244292917 0.26645991803268543 0 -0.035955092543143372 0.26893902250270052 0 -0.033828604244292917 0.26645991803268543 0 -0.034880426293425248 0.27152939180054181 0 -0.032364889867616473 0.266219845135924 0 -0.034880426293425248 0.27152939180054181 0 -0.02926511767517842 0.2644861082771286 0 -0.033828604244292917 0.26645991803268543 0 -0.032364889867616473 0.266219845135924 0 -0.034880426293425248 0.27152939180054181 0 -0.033828604244292917 0.26645991803268543 0 -0.032364889867616473 0.266219845135924 0 -0.033040871682229897 0.26422029649045331 0 -0.034880426293425248 0.27152939180054181 0 -0.038387159424593677 0.27096280352791358 0 -0.037786911294179937 0.274199823494857 0 -0.035955092543143372 0.26893902250270052 0 -0.034880426293425248 0.27152939180054181 0 -0.038387159424593677 0.27096280352791358 0 -0.034880426293425248 0.27152939180054181 0 -0.038273946248512387 0.27868237997847939 0 -0.03860284121856826 0.28607928907441083 0 -0.041019196007295568 0.27719596369039579 0 -0.037786911294179937 0.274199823494857 0 -0.038273946248512387 0.27868237997847939 0 -0.034880426293425248 0.27152939180054181 0 -0.037786911294179937 0.274199823494857 0 -0.038273946248512387 0.27868237997847939 0 -0.04037260102427237 0.25608446933844359 0 -0.043965817387837218 0.25363705025446809 0 -0.043481973787932358 0.2581789799860788 0 -0.04037260102427237 0.25608446933844359 0 -0.041178788206509123 0.25155243823444212 0 -0.036716465359311147 0.2537002129874506 0 -0.04037260102427237 0.25608446933844359 0 -0.041178788206509123 0.25155243823444212 0 -0.043965817387837218 0.25363705025446809 0 -0.041178788206509123 0.25155243823444212 0 -0.043965817387837218 0.25363705025446809 0 -0.045036679799408327 0.2473423560733036 0 -0.047338314127148493 0.25264116884274718 0 -0.043965817387837218 0.25363705025446809 0 -0.045036679799408327 0.2473423560733036 0 -0.047338314127148493 0.25264116884274718 0 -0.043965817387837218 0.25363705025446809 0 -0.046386547381752692 0.25602288905179349 0 -0.043965817387837218 0.25363705025446809 0 -0.046386547381752692 0.25602288905179349 0 -0.043481973787932358 0.2581789799860788 0 -0.046386547381752692 0.25602288905179349 0 -0.043481973787932358 0.2581789799860788 0 -0.046822284816492463 0.26062325432590078 0 -0.043481973787932358 0.2581789799860788 0 -0.046822284816492463 0.26062325432590078 0 -0.042807107426303191 0.26340306502391891 0 -0.04796715180158536 0.26468370067539521 0 -0.046822284816492463 0.26062325432590078 0 -0.042807107426303191 0.26340306502391891 0 -0.04796715180158536 0.26468370067539521 0 -0.041102256518579489 0.26697922569982929 0 -0.042807107426303191 0.26340306502391891 0 -0.042807107426303191 0.26340306502391891 0 -0.040344021410560732 0.26036007010384532 0 -0.03872836172421032 0.26358304080306949 0 -0.041102256518579489 0.26697922569982929 0 -0.042807107426303191 0.26340306502391891 0 -0.03872836172421032 0.26358304080306949 0 -0.043481973787932358 0.2581789799860788 0 -0.042807107426303191 0.26340306502391891 0 -0.040344021410560732 0.26036007010384532 0 -0.04037260102427237 0.25608446933844359 0 -0.040344021410560732 0.26036007010384532 0 -0.036627584391727579 0.25961984948811001 0 -0.04037260102427237 0.25608446933844359 0 -0.043481973787932358 0.2581789799860788 0 -0.040344021410560732 0.26036007010384532 0 -0.040344021410560732 0.26036007010384532 0 -0.036627584391727579 0.25961984948811001 0 -0.03872836172421032 0.26358304080306949 0 -0.036627584391727579 0.25961984948811001 0 -0.03872836172421032 0.26358304080306949 0 -0.035153691809685209 0.2635963993182216 0 -0.03672418021026163 0.26680397664966121 0 -0.03872836172421032 0.26358304080306949 0 -0.035153691809685209 0.2635963993182216 0 -0.03672418021026163 0.26680397664966121 0 -0.033828604244292917 0.26645991803268543 0 -0.035153691809685209 0.2635963993182216 0 -0.033828604244292917 0.26645991803268543 0 -0.035153691809685209 0.2635963993182216 0 -0.033040871682229897 0.26422029649045331 0 -0.035153691809685209 0.2635963993182216 0 -0.033040871682229897 0.26422029649045331 0 -0.032481589572798369 0.26133568548732677 0 -0.033040871682229897 0.26422029649045331 0 -0.032481589572798369 0.26133568548732677 0 -0.030809429442955841 0.26440351107881099 0 -0.032364889867616473 0.266219845135924 0 -0.033040871682229897 0.26422029649045331 0 -0.030809429442955841 0.26440351107881099 0 -0.03293080828581995 0.25804415541152481 0 -0.032481589572798369 0.26133568548732677 0 -0.028883575755461272 0.25711684775198951 0 -0.036627584391727579 0.25961984948811001 0 -0.03293080828581995 0.25804415541152481 0 -0.032481589572798369 0.26133568548732677 0 -0.036627584391727579 0.25961984948811001 0 -0.035153691809685209 0.2635963993182216 0 -0.032481589572798369 0.26133568548732677 0 -0.03293080828581995 0.25804415541152481 0 -0.036716465359311147 0.2537002129874506 0 -0.032889171011884911 0.25383825479016547 0 -0.03293080828581995 0.25804415541152481 0 -0.032889171011884911 0.25383825479016547 0 -0.028860760065202461 0.25327469637357758 0 -0.04037260102427237 0.25608446933844359 0 -0.036627584391727579 0.25961984948811001 0 -0.036716465359311147 0.2537002129874506 0 -0.036627584391727579 0.25961984948811001 0 -0.03293080828581995 0.25804415541152481 0 -0.036716465359311147 0.2537002129874506 0 -0.041178788206509123 0.25155243823444212 0 -0.036716465359311147 0.2537002129874506 0 -0.039197402965606802 0.2477238199581453 0 -0.036716465359311147 0.2537002129874506 0 -0.034275869000636679 0.24884914989821069 0 -0.039197402965606802 0.2477238199581453 0 -0.036716465359311147 0.2537002129874506 0 -0.032889171011884911 0.25383825479016547 0 -0.034275869000636679 0.24884914989821069 0 -0.032889171011884911 0.25383825479016547 0 -0.03054651971650528 0.25103524046391112 0 -0.034275869000636679 0.24884914989821069 0 -0.02926511767517842 0.2644861082771286 0 -0.013509398937038279 0.25463040593267511 0 -0.019881501782636129 0.2427868029209157 0 -0.032889171011884911 0.25383825479016547 0 -0.028860760065202461 0.25327469637357758 0 -0.03054651971650528 0.25103524046391112 0 -0.028883575755461272 0.25711684775198951 0 -0.02926511767517842 0.2644861082771286 0 -0.019881501782636129 0.2427868029209157 0 -0.02926511767517842 0.2644861082771286 0 -0.019881501782636129 0.2427868029209157 0 -0.028860760065202461 0.25327469637357758 0 -0.028883575755461272 0.25711684775198951 0 -0.019881501782636129 0.2427868029209157 0 -0.028860760065202461 0.25327469637357758 0 -0.03054651971650528 0.25103524046391112 0 -0.026032362202064389 0.24768713845238849 0 -0.03293080828581995 0.25804415541152481 0 -0.028860760065202461 0.25327469637357758 0 -0.028883575755461272 0.25711684775198951 0 -0.028883575755461272 0.25711684775198951 0 -0.02926511767517842 0.2644861082771286 0 -0.030359928111598471 0.26183553814881388 0 -0.032481589572798369 0.26133568548732677 0 -0.028883575755461272 0.25711684775198951 0 -0.030359928111598471 0.26183553814881388 0 -0.02926511767517842 0.2644861082771286 0 -0.030359928111598471 0.26183553814881388 0 -0.030809429442955841 0.26440351107881099 0 -0.032481589572798369 0.26133568548732677 0 -0.030359928111598471 0.26183553814881388 0 -0.030809429442955841 0.26440351107881099 0 -0.032364889867616473 0.266219845135924 0 -0.02926511767517842 0.2644861082771286 0 -0.030809429442955841 0.26440351107881099 0 -0.02926511767517842 0.2644861082771286 0 -0.030809429442955841 0.26440351107881099 0 -0.02926511767517842 0.2644861082771286 0 -0.02408107214772845 0.28081530311659553 0 -0.03860284121856826 0.28607928907441083 0 -0.02926511767517842 0.2644861082771286 0 -0.02408107214772845 0.28081530311659553 0 -0.013674855546831221 0.27593533006100818 0 -0.0010946476457873409 0.26599280009174858 0 -0.013674855546831221 0.27593533006100818 0 -0.00043330719363736072 0.28730603648085062 0 -0.02926511767517842 0.2644861082771286 0 -0.0010946476457873409 0.26599280009174858 0 -0.013674855546831221 0.27593533006100818 0 -0.02926511767517842 0.2644861082771286 0 -0.0010946476457873409 0.26599280009174858 0 -0.013509398937038279 0.25463040593267511 0 -0.0010946476457873409 0.26599280009174858 0 -0.013509398937038279 0.25463040593267511 0 0.00078604608867878457 0.24678879113798841 0 -0.02926511767517842 0.2644861082771286 0 -0.0010946476457873409 0.26599280009174858 0 -0.01263267399806922 0.30186477616689672 0 -0.00043330719363736072 0.28730603648085062 0 0.0078970786378271193 0.30484346010881752 0 -0.01263267399806922 0.30186477616689672 0 -0.003860846205333693 0.31351861193422748 0 0.0078970786378271193 0.30484346010881752 0 -0.01263267399806922 0.30186477616689672 0 -0.003860846205333693 0.31351861193422748 0 -0.01416923381899687 0.31511161454309172 0 -0.013674855546831221 0.27593533006100818 0 -0.00043330719363736072 0.28730603648085062 0 -0.014796796513563699 0.28716350590403072 0 -0.01263267399806922 0.30186477616689672 0 -0.00043330719363736072 0.28730603648085062 0 -0.014796796513563699 0.28716350590403072 0 -0.01263267399806922 0.30186477616689672 0 -0.014796796513563699 0.28716350590403072 0 -0.02561775760831797 0.29397203262065258 0 -0.02408107214772845 0.28081530311659553 0 -0.014796796513563699 0.28716350590403072 0 -0.02561775760831797 0.29397203262065258 0 -0.02408107214772845 0.28081530311659553 0 -0.013674855546831221 0.27593533006100818 0 -0.014796796513563699 0.28716350590403072 0 -0.02408107214772845 0.28081530311659553 0 -0.02561775760831797 0.29397203262065258 0 -0.03860284121856826 0.28607928907441083 0 -0.02561775760831797 0.29397203262065258 0 -0.032859880187313513 0.30475455867987178 0 -0.035252072577642221 0.29579974722062502 0 -0.02561775760831797 0.29397203262065258 0 -0.023000939473428229 0.30920746391563347 0 -0.032859880187313513 0.30475455867987178 0 -0.01263267399806922 0.30186477616689672 0 -0.02561775760831797 0.29397203262065258 0 -0.01263267399806922 0.30186477616689672 0 -0.02561775760831797 0.29397203262065258 0 -0.023000939473428229 0.30920746391563347 0 -0.01263267399806922 0.30186477616689672 0 -0.023000939473428229 0.30920746391563347 0 -0.01416923381899687 0.31511161454309172 0 -0.023000939473428229 0.30920746391563347 0 -0.032859880187313513 0.30475455867987178 0 -0.030703857368318599 0.31673274692988779 0 -0.032859880187313513 0.30475455867987178 0 -0.038576361405678189 0.3137177919565165 0 -0.030703857368318599 0.31673274692988779 0 -0.043927811296368142 0.29839310850756512 0 -0.052023416825963127 0.31711393195578003 0 -0.038576361405678189 0.3137177919565165 0 -0.032859880187313513 0.30475455867987178 0 -0.043927811296368142 0.29839310850756512 0 -0.038576361405678189 0.3137177919565165 0 -0.032859880187313513 0.30475455867987178 0 -0.043927811296368142 0.29839310850756512 0 -0.035252072577642221 0.29579974722062502 0 -0.043927811296368142 0.29839310850756512 0 -0.038576361405678189 0.3137177919565165 0 -0.043927811296368142 0.29839310850756512 0 -0.049651018632872003 0.28200384157315628 0 -0.043927811296368142 0.29839310850756512 0 -0.040777160748900539 0.284757669055961 0 -0.049651018632872003 0.28200384157315628 0 -0.038273946248512387 0.27868237997847939 0 -0.03860284121856826 0.28607928907441083 0 -0.039209055878356387 0.2823451138376204 0 -0.02561775760831797 0.29397203262065258 0 -0.03860284121856826 0.28607928907441083 0 -0.02561775760831797 0.29397203262065258 0 -0.03860284121856826 0.28607928907441083 0 -0.035252072577642221 0.29579974722062502 0 -0.043927811296368142 0.29839310850756512 0 -0.03860284121856826 0.28607928907441083 0 -0.040777160748900539 0.284757669055961 0 -0.043927811296368142 0.29839310850756512 0 -0.03860284121856826 0.28607928907441083 0 -0.035252072577642221 0.29579974722062502 0 -0.043927811296368142 0.29839310850756512 0 -0.03860284121856826 0.28607928907441083 0 -0.040777160748900539 0.284757669055961 0 -0.049651018632872003 0.28200384157315628 0 -0.050821317811316498 0.27865251346272152 0 -0.040777160748900539 0.284757669055961 0 -0.03860284121856826 0.28607928907441083 0 -0.040777160748900539 0.284757669055961 0 -0.041019196007295568 0.27719596369039579 0 -0.040777160748900539 0.284757669055961 0 -0.039209055878356387 0.2823451138376204 0 -0.03860284121856826 0.28607928907441083 0 -0.040777160748900539 0.284757669055961 0 -0.039209055878356387 0.2823451138376204 0 -0.065277067323828139 0.28554583594376431 0 -0.049651018632872003 0.28200384157315628 0 -0.056453910793093753 0.2923577122400961 0 -0.043927811296368142 0.29839310850756512 0 -0.049651018632872003 0.28200384157315628 0 -0.056453910793093753 0.2923577122400961 0 -0.050821317811316498 0.27865251346272152 0 -0.040777160748900539 0.284757669055961 0 -0.049651018632872003 0.28200384157315628 0 -0.043927811296368142 0.29839310850756512 0 -0.057691682549581992 0.30360789120713799 0 -0.052023416825963127 0.31711393195578003 0 -0.043927811296368142 0.29839310850756512 0 -0.052023416825963127 0.31711393195578003 0 -0.043927811296368142 0.29839310850756512 0 -0.056453910793093753 0.2923577122400961 0 -0.057691682549581992 0.30360789120713799 0 -0.069304272823974583 0.29661420625092261 0 -0.056453910793093753 0.2923577122400961 0 -0.057691682549581992 0.30360789120713799 0 -0.057691682549581992 0.30360789120713799 0 -0.052023416825963127 0.31711393195578003 0 -0.067001133515629335 0.31386851525996312 0 -0.052023416825963127 0.31711393195578003 0 -0.060119022355559007 0.33583475540399438 0 -0.047210564423663823 0.33030603244961598 0 -0.052023416825963127 0.31711393195578003 0 -0.060119022355559007 0.33583475540399438 0 -0.052023416825963127 0.31711393195578003 0 -0.060119022355559007 0.33583475540399438 0 -0.067001133515629335 0.31386851525996312 0 -0.060119022355559007 0.33583475540399438 0 -0.047210564423663823 0.33030603244961598 0 -0.038974385856669708 0.35711583833479371 0 -0.047210564423663823 0.33030603244961598 0 -0.033224911514981907 0.32904247540546577 0 -0.038974385856669708 0.35711583833479371 0 -0.033224911514981907 0.32904247540546577 0 -0.038974385856669708 0.35711583833479371 0 -0.047210564423663823 0.33030603244961598 0 -0.033224911514981907 0.32904247540546577 0 -0.038576361405678189 0.3137177919565165 0 -0.052023416825963127 0.31711393195578003 0 -0.047210564423663823 0.33030603244961598 0 -0.038576361405678189 0.3137177919565165 0 -0.033224911514981907 0.32904247540546577 0 -0.030703857368318599 0.31673274692988779 0 -0.033224911514981907 0.32904247540546577 0 -0.038576361405678189 0.3137177919565165 0 -0.033224911514981907 0.32904247540546577 0 -0.038576361405678189 0.3137177919565165 0 -0.030703857368318599 0.31673274692988779 0 -0.023000939473428229 0.30920746391563347 0 -0.030703857368318599 0.31673274692988779 0 -0.02202223385955324 0.32280905455340081 0 -0.023000939473428229 0.30920746391563347 0 -0.02202223385955324 0.32280905455340081 0 -0.01416923381899687 0.31511161454309172 0 -0.02202223385955324 0.32280905455340081 0 -0.019859889904654319 0.334026461012565 0 -0.0083119161314481969 0.32689323102362622 0 -0.033224911514981907 0.32904247540546577 0 -0.030703857368318599 0.31673274692988779 0 -0.02202223385955324 0.32280905455340081 0 -0.033224911514981907 0.32904247540546577 0 -0.019859889904654319 0.334026461012565 0 -0.02660502325981462 0.34799952331774181 0 -0.033224911514981907 0.32904247540546577 0 -0.02202223385955324 0.32280905455340081 0 -0.019859889904654319 0.334026461012565 0 -0.033224911514981907 0.32904247540546577 0 -0.02660502325981462 0.34799952331774181 0 -0.019859889904654319 0.334026461012565 0 -0.011605332740486441 0.34230101708704957 0 -0.02660502325981462 0.34799952331774181 0 -0.019859889904654319 0.334026461012565 0 -0.011605332740486441 0.34230101708704957 0 -0.0083119161314481969 0.32689323102362622 0 -0.011605332740486441 0.34230101708704957 0 -0.0083119161314481969 0.32689323102362622 0 0.003323615605882289 0.33927713467499387 0 -0.003860846205333693 0.31351861193422748 0 -0.0083119161314481969 0.32689323102362622 0 0.0072672062347961756 0.32307572668094031 0 -0.003860846205333693 0.31351861193422748 0 -0.01416923381899687 0.31511161454309172 0 -0.0083119161314481969 0.32689323102362622 0 -0.02202223385955324 0.32280905455340081 0 -0.01416923381899687 0.31511161454309172 0 -0.0083119161314481969 0.32689323102362622 0 -0.0059749126274599154 0.3653843430321988 0 -0.014096044430664209 0.35451917654702292 0 -0.01998513500464168 0.36695657123001568 0 -0.0059749126274599154 0.3653843430321988 0 -0.0040827383222195781 0.35109057594634829 0 0.0075999617333648113 0.35561733717685878 0 -0.011605332740486441 0.34230101708704957 0 -0.0040827383222195781 0.35109057594634829 0 0.003323615605882289 0.33927713467499387 0 -0.011605332740486441 0.34230101708704957 0 -0.0040827383222195781 0.35109057594634829 0 -0.014096044430664209 0.35451917654702292 0 -0.0059749126274599154 0.3653843430321988 0 -0.0040827383222195781 0.35109057594634829 0 -0.014096044430664209 0.35451917654702292 0 -0.02660502325981462 0.34799952331774181 0 -0.01998513500464168 0.36695657123001568 0 -0.038974385856669708 0.35711583833479371 0 -0.014096044430664209 0.35451917654702292 0 -0.02660502325981462 0.34799952331774181 0 -0.01998513500464168 0.36695657123001568 0 -0.02660502325981462 0.34799952331774181 0 -0.01998513500464168 0.36695657123001568 0 -0.011605332740486441 0.34230101708704957 0 -0.014096044430664209 0.35451917654702292 0 -0.02660502325981462 0.34799952331774181 0 -0.01998513500464168 0.36695657123001568 0 -0.031327688219846953 0.37274059320937419 0 -0.038974385856669708 0.35711583833479371 0 -0.0059749126274599154 0.3653843430321988 0 -0.01998513500464168 0.36695657123001568 0 -0.021627371819712089 0.38170076200856728 0 -0.01998513500464168 0.36695657123001568 0 -0.031327688219846953 0.37274059320937419 0 -0.021627371819712089 0.38170076200856728 0 -0.031327688219846953 0.37274059320937419 0 -0.038974385856669708 0.35711583833479371 0 -0.044723860198363288 0.38518920126412037 0 -0.060119022355559007 0.33583475540399438 0 -0.038974385856669708 0.35711583833479371 0 -0.059507662765368681 0.36805813195127252 0 -0.038974385856669708 0.35711583833479371 0 -0.044723860198363288 0.38518920126412037 0 -0.033224911514981907 0.32904247540546577 0 -0.02660502325981462 0.34799952331774181 0 -0.038974385856669708 0.35711583833479371 0 -0.038974385856669708 0.35711583833479371 0 -0.059507662765368681 0.36805813195127252 0 -0.044723860198363288 0.38518920126412037 0 -0.059507662765368681 0.36805813195127252 0 -0.079709314953080729 0.37425895695777112 0 -0.074484465569192707 0.35420189503934879 0 -0.060119022355559007 0.33583475540399438 0 -0.059507662765368681 0.36805813195127252 0 -0.074484465569192707 0.35420189503934879 0 -0.059507662765368681 0.36805813195127252 0 -0.079709314953080729 0.37425895695777112 0 -0.064536785632193353 0.38105252146803198 0 -0.079709314953080729 0.37425895695777112 0 -0.092334221150725343 0.35288979260796488 0 -0.074484465569192707 0.35420189503934879 0 -0.079709314953080729 0.37425895695777112 0 -0.092334221150725343 0.35288979260796488 0 -0.099366902481620556 0.36734611091209762 0 -0.079709314953080729 0.37425895695777112 0 -0.092334221150725343 0.35288979260796488 0 -0.092334221150725343 0.35288979260796488 0 -0.074484465569192707 0.35420189503934879 0 -0.080752106621229724 0.33996783827574101 0 -0.060119022355559007 0.33583475540399438 0 -0.081590793187789612 0.32237893292849917 0 -0.080752106621229724 0.33996783827574101 0 -0.060119022355559007 0.33583475540399438 0 -0.074484465569192707 0.35420189503934879 0 -0.080752106621229724 0.33996783827574101 0 -0.081424658254466514 0.30666416548051673 0 -0.067001133515629335 0.31386851525996312 0 -0.081590793187789612 0.32237893292849917 0 -0.060119022355559007 0.33583475540399438 0 -0.067001133515629335 0.31386851525996312 0 -0.081590793187789612 0.32237893292849917 0 -0.081424658254466514 0.30666416548051673 0 -0.081590793187789612 0.32237893292849917 0 -0.098489166245894891 0.31253547245506058 0 -0.081590793187789612 0.32237893292849917 0 -0.080752106621229724 0.33996783827574101 0 -0.10495912734837 0.33152062825815859 0 -0.092334221150725343 0.35288979260796488 0 -0.080752106621229724 0.33996783827574101 0 -0.10495912734837 0.33152062825815859 0 -0.092334221150725343 0.35288979260796488 0 -0.10495912734837 0.33152062825815859 0 -0.1175840335460145 0.31015146390835241 0 -0.10495912734837 0.33152062825815859 0 -0.098489166245894891 0.31253547245506058 0 -0.081590793187789612 0.32237893292849917 0 -0.10495912734837 0.33152062825815859 0 -0.098489166245894891 0.31253547245506058 0 -0.13266559265625361 0.32433619649077777 0 -0.1175840335460145 0.31015146390835241 0 -0.11617347217324669 0.32978092064158437 0 -0.1175840335460145 0.31015146390835241 0 -0.10495912734837 0.33152062825815859 0 -0.1175840335460145 0.31015146390835241 0 -0.10495912734837 0.33152062825815859 0 -0.11617347217324669 0.32978092064158437 0 -0.10495912734837 0.33152062825815859 0 -0.11617347217324669 0.32978092064158437 0 -0.11637724504661399 0.35160978132583581 0 -0.11617347217324669 0.32978092064158437 0 -0.11637724504661399 0.35160978132583581 0 -0.13053366520819221 0.34146399587285181 0 -0.11617347217324669 0.32978092064158437 0 -0.11637724504661399 0.35160978132583581 0 -0.11637724504661399 0.35160978132583581 0 -0.11658101791997739 0.37343864201008697 0 -0.11637724504661399 0.35160978132583581 0 -0.11658101791997739 0.37343864201008697 0 -0.099366902481620556 0.36734611091209762 0 -0.13970486439835389 0.36307215183285813 0 -0.11637724504661399 0.35160978132583581 0 -0.11658101791997739 0.37343864201008697 0 -0.092334221150725343 0.35288979260796488 0 -0.10495912734837 0.33152062825815859 0 -0.11637724504661399 0.35160978132583581 0 -0.092334221150725343 0.35288979260796488 0 -0.11637724504661399 0.35160978132583581 0 -0.099366902481620556 0.36734611091209762 0 -0.1050828626990957 0.39927102722317098 0 -0.094231598730682445 0.40776193015103679 0 -0.091832713337705901 0.38453338165883072 0 -0.1050828626990957 0.39927102722317098 0 -0.11673400125863551 0.38982675064944111 0 -0.091832713337705901 0.38453338165883072 0 -0.1050828626990957 0.39927102722317098 0 -0.1061473527550669 0.41044266781146088 0 -0.094231598730682445 0.40776193015103679 0 -0.1050828626990957 0.39927102722317098 0 -0.1168869845972898 0.40621485928879508 0 -0.1061473527550669 0.41044266781146088 0 -0.11658101791997739 0.37343864201008697 0 -0.099366902481620556 0.36734611091209762 0 -0.091832713337705901 0.38453338165883072 0 -0.11658101791997739 0.37343864201008697 0 -0.11673400125863551 0.38982675064944111 0 -0.091832713337705901 0.38453338165883072 0 -0.11658101791997739 0.37343864201008697 0 -0.091832713337705901 0.38453338165883072 0 -0.13234106171820231 0.37713097131412238 0 -0.11658101791997739 0.37343864201008697 0 -0.11673400125863551 0.38982675064944111 0 -0.11658101791997739 0.37343864201008697 0 -0.11673400125863551 0.38982675064944111 0 -0.1050828626990957 0.39927102722317098 0 -0.11673400125863551 0.38982675064944111 0 -0.1168869845972898 0.40621485928879508 0 -0.11673400125863551 0.38982675064944111 0 -0.1168869845972898 0.40621485928879508 0 -0.12751187843855469 0.40101677790631879 0 -0.11673400125863551 0.38982675064944111 0 -0.1168869845972898 0.40621485928879508 0 -0.12751187843855469 0.40101677790631879 0 -0.1168869845972898 0.40621485928879508 0 -0.1142348250505705 0.41851045906493961 0 -0.1168869845972898 0.40621485928879508 0 -0.1142348250505705 0.41851045906493961 0 -0.1061473527550669 0.41044266781146088 0 -0.1142348250505705 0.41851045906493961 0 -0.1249469937880598 0.42269056345030942 0 -0.1024358380961574 0.43436144330025489 0 -0.12435653341535639 0.43280279094571039 0 -0.1024358380961574 0.43436144330025489 0 -0.1231102128986111 0.44164965171733012 0 -0.12435653341535639 0.43280279094571039 0 -0.1249469937880598 0.42269056345030942 0 -0.1024358380961574 0.43436144330025489 0 -0.1249469937880598 0.42269056345030942 0 -0.1024358380961574 0.43436144330025489 0 -0.1024358380961574 0.43436144330025489 0 -0.10030049269769591 0.42045506332936228 0 -0.083055339183012999 0.42752935688141303 0 -0.1142348250505705 0.41851045906493961 0 -0.1024358380961574 0.43436144330025489 0 -0.10030049269769591 0.42045506332936228 0 -0.1142348250505705 0.41851045906493961 0 -0.1061473527550669 0.41044266781146088 0 -0.10030049269769591 0.42045506332936228 0 -0.1061473527550669 0.41044266781146088 0 -0.10030049269769591 0.42045506332936228 0 -0.094231598730682445 0.40776193015103679 0 -0.10030049269769591 0.42045506332936228 0 -0.094231598730682445 0.40776193015103679 0 -0.083055339183012999 0.42752935688141303 0 -0.094231598730682445 0.40776193015103679 0 -0.078775293739315022 0.40743941216085039 0 -0.083055339183012999 0.42752935688141303 0 -0.1024358380961574 0.43436144330025489 0 -0.083055339183012999 0.42752935688141303 0 -0.1024358380961574 0.43436144330025489 0 -0.083055339183012999 0.42752935688141303 0 -0.086002469284078037 0.43755437721914547 0 -0.083055339183012999 0.42752935688141303 0 -0.078253872046133405 0.43794260745546171 0 -0.086002469284078037 0.43755437721914547 0 -0.083055339183012999 0.42752935688141303 0 -0.071029409566268076 0.43440036481462369 0 -0.078253872046133405 0.43794260745546171 0 -0.083055339183012999 0.42752935688141303 0 -0.071029409566268076 0.43440036481462369 0 -0.068402860533980134 0.41950584126327162 0 -0.071029409566268076 0.43440036481462369 0 -0.068402860533980134 0.41950584126327162 0 -0.058877829650657493 0.43168947104856298 0 -0.071029409566268076 0.43440036481462369 0 -0.058877829650657493 0.43168947104856298 0 -0.063156146311379599 0.44311474287945929 0 -0.078775293739315022 0.40743941216085039 0 -0.083055339183012999 0.42752935688141303 0 -0.068402860533980134 0.41950584126327162 0 -0.068402860533980134 0.41950584126327162 0 -0.067084408755435337 0.39562812130757691 0 -0.052348782114849703 0.4205699325614955 0 -0.078775293739315022 0.40743941216085039 0 -0.068402860533980134 0.41950584126327162 0 -0.067084408755435337 0.39562812130757691 0 -0.094231598730682445 0.40776193015103679 0 -0.078775293739315022 0.40743941216085039 0 -0.091832713337705901 0.38453338165883072 0 -0.078775293739315022 0.40743941216085039 0 -0.067084408755435337 0.39562812130757691 0 -0.091832713337705901 0.38453338165883072 0 -0.079709314953080729 0.37425895695777112 0 -0.067084408755435337 0.39562812130757691 0 -0.091832713337705901 0.38453338165883072 0 -0.079709314953080729 0.37425895695777112 0 -0.099366902481620556 0.36734611091209762 0 -0.091832713337705901 0.38453338165883072 0 -0.067084408755435337 0.39562812130757691 0 -0.091832713337705901 0.38453338165883072 0 -0.079709314953080729 0.37425895695777112 0 -0.067084408755435337 0.39562812130757691 0 -0.079709314953080729 0.37425895695777112 0 -0.067084408755435337 0.39562812130757691 0 -0.064536785632193353 0.38105252146803198 0 -0.059507662765368681 0.36805813195127252 0 -0.064536785632193353 0.38105252146803198 0 -0.051845756054887893 0.38626487565550688 0 -0.059507662765368681 0.36805813195127252 0 -0.051845756054887893 0.38626487565550688 0 -0.044723860198363288 0.38518920126412037 0 -0.067084408755435337 0.39562812130757691 0 -0.064536785632193353 0.38105252146803198 0 -0.051845756054887893 0.38626487565550688 0 -0.051845756054887893 0.38626487565550688 0 -0.044723860198363288 0.38518920126412037 0 -0.051845756054887893 0.38626487565550688 0 -0.048562340741883828 0.40393162030822699 0 -0.044723860198363288 0.38518920126412037 0 -0.067084408755435337 0.39562812130757691 0 -0.048562340741883828 0.40393162030822699 0 -0.049709259188256083 0.40953175970911998 0 -0.067084408755435337 0.39562812130757691 0 -0.051845756054887893 0.38626487565550688 0 -0.048562340741883828 0.40393162030822699 0 -0.067084408755435337 0.39562812130757691 0 -0.048562340741883828 0.40393162030822699 0 -0.048562340741883828 0.40393162030822699 0 -0.032656094787718908 0.39742497426902329 0 -0.02693109872113511 0.41362897140156718 0 -0.048562340741883828 0.40393162030822699 0 -0.032656094787718908 0.39742497426902329 0 -0.044723860198363288 0.38518920126412037 0 -0.048562340741883828 0.40393162030822699 0 -0.044723860198363288 0.38518920126412037 0 -0.031327688219846953 0.37274059320937419 0 -0.044723860198363288 0.38518920126412037 0 -0.021627371819712089 0.38170076200856728 0 -0.032656094787718908 0.39742497426902329 0 -0.044723860198363288 0.38518920126412037 0 -0.021627371819712089 0.38170076200856728 0 -0.044723860198363288 0.38518920126412037 0 -0.021627371819712089 0.38170076200856728 0 -0.032656094787718908 0.39742497426902329 0 -0.021627371819712089 0.38170076200856728 0 -0.016848479487222949 0.39465861179744438 0 -0.016848479487222949 0.39465861179744438 0 -0.0044969486664877016 0.40232602855505017 0 -0.02693109872113511 0.41362897140156718 0 -0.032656094787718908 0.39742497426902329 0 -0.016848479487222949 0.39465861179744438 0 -0.02693109872113511 0.41362897140156718 0 -0.016848479487222949 0.39465861179744438 0 -0.0044969486664877016 0.40232602855505017 0 0.001469116558939054 0.37821232275301397 0 -0.0059749126274599154 0.3653843430321988 0 -0.021627371819712089 0.38170076200856728 0 0.001469116558939054 0.37821232275301397 0 -0.021627371819712089 0.38170076200856728 0 0.001469116558939054 0.37821232275301397 0 -0.021627371819712089 0.38170076200856728 0 -0.016848479487222949 0.39465861179744438 0 0.001469116558939054 0.37821232275301397 0 -0.0052998567003863196 0.42332632249490748 0 -0.022156471655861699 0.42925103954650079 0 -0.011543683377056991 0.44623855039741162 0 -0.0052998567003863196 0.42332632249490748 0 -0.011543683377056991 0.44623855039741162 0 0.003121881291630373 0.44116679752938442 0 -0.0044969486664877016 0.40232602855505017 0 -0.0052998567003863196 0.42332632249490748 0 -0.02693109872113511 0.41362897140156718 0 -0.02693109872113511 0.41362897140156718 0 -0.022156471655861699 0.42925103954650079 0 -0.039442786826736562 0.41782142512718179 0 -0.0052998567003863196 0.42332632249490748 0 -0.02693109872113511 0.41362897140156718 0 -0.0052998567003863196 0.42332632249490748 0 -0.02693109872113511 0.41362897140156718 0 -0.022156471655861699 0.42925103954650079 0 -0.022156471655861699 0.42925103954650079 0 -0.039442786826736562 0.41782142512718179 0 -0.033363795900300662 0.44008258797786221 0 -0.039442786826736562 0.41782142512718179 0 -0.04716250008800589 0.43063342757595657 0 -0.033363795900300662 0.44008258797786221 0 -0.039442786826736562 0.41782142512718179 0 -0.052348782114849703 0.4205699325614955 0 -0.04716250008800589 0.43063342757595657 0 -0.048562340741883828 0.40393162030822699 0 -0.02693109872113511 0.41362897140156718 0 -0.039442786826736562 0.41782142512718179 0 -0.048562340741883828 0.40393162030822699 0 -0.02693109872113511 0.41362897140156718 0 -0.048562340741883828 0.40393162030822699 0 -0.039442786826736562 0.41782142512718179 0 -0.049709259188256083 0.40953175970911998 0 -0.067084408755435337 0.39562812130757691 0 -0.052348782114849703 0.4205699325614955 0 -0.067084408755435337 0.39562812130757691 0 -0.049709259188256083 0.40953175970911998 0 -0.052348782114849703 0.4205699325614955 0 -0.048562340741883828 0.40393162030822699 0 -0.049709259188256083 0.40953175970911998 0 -0.039442786826736562 0.41782142512718179 0 -0.049709259188256083 0.40953175970911998 0 -0.052348782114849703 0.4205699325614955 0 -0.068402860533980134 0.41950584126327162 0 -0.052348782114849703 0.4205699325614955 0 -0.058877829650657493 0.43168947104856298 0 -0.04716250008800589 0.43063342757595657 0 -0.058877829650657493 0.43168947104856298 0 -0.052118079903095367 0.44190698167726999 0 -0.052348782114849703 0.4205699325614955 0 -0.04716250008800589 0.43063342757595657 0 -0.058877829650657493 0.43168947104856298 0 -0.055172266324007881 0.45014425433437832 0 -0.052118079903095367 0.44190698167726999 0 -0.063156146311379599 0.44311474287945929 0 -0.058877829650657493 0.43168947104856298 0 -0.052118079903095367 0.44190698167726999 0 -0.063156146311379599 0.44311474287945929 0 -0.055172266324007881 0.45014425433437832 0 -0.063156146311379599 0.44311474287945929 0 -0.067835529742304085 0.45229992887139481 0 -0.055172266324007881 0.45014425433437832 0 -0.052118079903095367 0.44190698167726999 0 -0.042427744809699422 0.45202077150177877 0 -0.050323830853560937 0.46137884674198898 0 -0.067086901488520423 0.4631595415672049 0 -0.067835529742304085 0.45229992887139481 0 -0.055172266324007881 0.45014425433437832 0 -0.050323830853560937 0.46137884674198898 0 -0.067835529742304085 0.45229992887139481 0 -0.050323830853560937 0.46137884674198898 0 -0.067835529742304085 0.45229992887139481 0 -0.050323830853560937 0.46137884674198898 0 -0.045185707992022248 0.47568066773521672 0 -0.067086901488520423 0.4631595415672049 0 -0.055172266324007881 0.45014425433437832 0 -0.050323830853560937 0.46137884674198898 0 -0.042427744809699422 0.45202077150177877 0 -0.050323830853560937 0.46137884674198898 0 -0.039092617418532323 0.46478461605930832 0 -0.045185707992022248 0.47568066773521672 0 -0.050323830853560937 0.46137884674198898 0 -0.039092617418532323 0.46478461605930832 0 -0.042427744809699422 0.45202077150177877 0 -0.039092617418532323 0.46478461605930832 0 -0.042427744809699422 0.45202077150177877 0 -0.02730075804887229 0.45837001609354489 0 -0.039092617418532323 0.46478461605930832 0 -0.02730075804887229 0.45837001609354489 0 -0.029085440409622899 0.47302425999642828 0 -0.04716250008800589 0.43063342757595657 0 -0.052118079903095367 0.44190698167726999 0 -0.033363795900300662 0.44008258797786221 0 -0.033363795900300662 0.44008258797786221 0 -0.042427744809699422 0.45202077150177877 0 -0.02730075804887229 0.45837001609354489 0 -0.052118079903095367 0.44190698167726999 0 -0.033363795900300662 0.44008258797786221 0 -0.042427744809699422 0.45202077150177877 0 -0.022156471655861699 0.42925103954650079 0 -0.033363795900300662 0.44008258797786221 0 -0.011543683377056991 0.44623855039741162 0 -0.033363795900300662 0.44008258797786221 0 -0.02730075804887229 0.45837001609354489 0 -0.011543683377056991 0.44623855039741162 0 -0.02730075804887229 0.45837001609354489 0 -0.0070577174092844308 0.47182979877582337 0 -0.029085440409622899 0.47302425999642828 0 -0.011543683377056991 0.44623855039741162 0 -0.0070577174092844308 0.47182979877582337 0 0.0091690796769560295 0.45545780364841948 0 -0.02730075804887229 0.45837001609354489 0 -0.011543683377056991 0.44623855039741162 0 -0.0070577174092844308 0.47182979877582337 0 -0.0026478088853558821 0.50000000000000178 0 -0.02328451449552383 0.48820179390322821 0 -0.0026478088853558821 0.50000000000000178 0 -0.0087387389835913432 0.48480090010242438 0 -0.02328451449552383 0.48820179390322821 0 -0.0026478088853558821 0.50000000000000178 0 -0.01881294746164008 0.5 0 -0.02328451449552383 0.48820179390322821 0 -0.0026478088853558821 0.50000000000000178 0 -0.0087387389835913432 0.48480090010242438 0 0.007195684502623232 0.48555207402655409 0 -0.0087387389835913432 0.48480090010242438 0 -0.0070577174092844308 0.47182979877582337 0 -0.02328451449552383 0.48820179390322821 0 -0.0087387389835913432 0.48480090010242438 0 -0.0070577174092844308 0.47182979877582337 0 0.0099549597849691446 0.46760228601191928 0 -0.0070577174092844308 0.47182979877582337 0 -0.02328451449552383 0.48820179390322821 0 -0.0070577174092844308 0.47182979877582337 0 -0.029085440409622899 0.47302425999642828 0 -0.02328451449552383 0.48820179390322821 0 -0.01881294746164008 0.5 0 -0.02328451449552383 0.48820179390322821 0 -0.03497808603792428 0.50000000000000422 0 -0.02328451449552383 0.48820179390322821 0 -0.03497808603792428 0.50000000000000422 0 -0.02328451449552383 0.48820179390322821 0 -0.045185707992022248 0.47568066773521672 0 -0.047274774760328583 0.49036451706219109 0 -0.02328451449552383 0.48820179390322821 0 -0.03497808603792428 0.50000000000000422 0 -0.047274774760328583 0.49036451706219109 0 -0.029085440409622899 0.47302425999642828 0 -0.02328451449552383 0.48820179390322821 0 -0.045185707992022248 0.47568066773521672 0 -0.02328451449552383 0.48820179390322821 0 -0.045185707992022248 0.47568066773521672 0 -0.039092617418532323 0.46478461605930832 0 -0.029085440409622899 0.47302425999642828 0 -0.045185707992022248 0.47568066773521672 0 -0.045185707992022248 0.47568066773521672 0 -0.063219884115409228 0.48016449380889281 0 -0.067086901488520423 0.4631595415672049 0 -0.045185707992022248 0.47568066773521672 0 -0.047274774760328583 0.49036451706219109 0 -0.063219884115409228 0.48016449380889281 0 -0.045185707992022248 0.47568066773521672 0 -0.067086901488520423 0.4631595415672049 0 -0.03497808603792428 0.50000000000000422 0 -0.06146217573610202 0.5 0 -0.047274774760328583 0.49036451706219109 0 -0.06146217573610202 0.5 0 -0.047274774760328583 0.49036451706219109 0 -0.063219884115409228 0.48016449380889281 0 -0.06146217573610202 0.5 0 -0.087946265434279858 0.5 0 -0.080347275462635481 0.48190236550767213 0 -0.06146217573610202 0.5 0 -0.080347275462635481 0.48190236550767213 0 -0.063219884115409228 0.48016449380889281 0 -0.087946265434279858 0.5 0 -0.080347275462635481 0.48190236550767213 0 -0.10183674132105131 0.48229179202325267 0 -0.092142612953967293 0.47045604941576957 0 -0.080347275462635481 0.48190236550767213 0 -0.10183674132105131 0.48229179202325267 0 -0.092142612953967293 0.47045604941576957 0 -0.080347275462635481 0.48190236550767213 0 -0.077017113126165174 0.46898817030863987 0 -0.080347275462635481 0.48190236550767213 0 -0.063219884115409228 0.48016449380889281 0 -0.077017113126165174 0.46898817030863987 0 -0.063219884115409228 0.48016449380889281 0 -0.077017113126165174 0.46898817030863987 0 -0.067086901488520423 0.4631595415672049 0 -0.067086901488520423 0.4631595415672049 0 -0.073881451749328267 0.45817232652530981 0 -0.067835529742304085 0.45229992887139481 0 -0.073881451749328267 0.45817232652530981 0 -0.067835529742304085 0.45229992887139481 0 -0.079291224734157575 0.45281561882897892 0 -0.077017113126165174 0.46898817030863987 0 -0.067086901488520423 0.4631595415672049 0 -0.073881451749328267 0.45817232652530981 0 -0.077017113126165174 0.46898817030863987 0 -0.073881451749328267 0.45817232652530981 0 -0.082289913498719655 0.45875197998190881 0 -0.067835529742304085 0.45229992887139481 0 -0.075153698424577919 0.44544520590111009 0 -0.08534722863104835 0.44322101100080291 0 -0.067835529742304085 0.45229992887139481 0 -0.08534722863104835 0.44322101100080291 0 -0.067835529742304085 0.45229992887139481 0 -0.08534722863104835 0.44322101100080291 0 -0.079291224734157575 0.45281561882897892 0 -0.071029409566268076 0.43440036481462369 0 -0.063156146311379599 0.44311474287945929 0 -0.075153698424577919 0.44544520590111009 0 -0.063156146311379599 0.44311474287945929 0 -0.067835529742304085 0.45229992887139481 0 -0.075153698424577919 0.44544520590111009 0 -0.071029409566268076 0.43440036481462369 0 -0.075153698424577919 0.44544520590111009 0 -0.078253872046133405 0.43794260745546171 0 -0.075153698424577919 0.44544520590111009 0 -0.078253872046133405 0.43794260745546171 0 -0.079649474655153346 0.44291110478674223 0 -0.1024358380961574 0.43436144330025489 0 -0.08534722863104835 0.44322101100080291 0 -0.086002469284078037 0.43755437721914547 0 -0.08534722863104835 0.44322101100080291 0 -0.088315861892157177 0.45416370806822348 0 -0.10478383023456379 0.46076287181079312 0 -0.075153698424577919 0.44544520590111009 0 -0.079649474655153346 0.44291110478674223 0 -0.08534722863104835 0.44322101100080291 0 -0.082150336493054366 0.440114077729027 0 -0.078253872046133405 0.43794260745546171 0 -0.086002469284078037 0.43755437721914547 0 -0.082150336493054366 0.440114077729027 0 -0.08534722863104835 0.44322101100080291 0 -0.086002469284078037 0.43755437721914547 0 -0.082150336493054366 0.440114077729027 0 -0.078253872046133405 0.43794260745546171 0 -0.079649474655153346 0.44291110478674223 0 -0.082150336493054366 0.440114077729027 0 -0.079649474655153346 0.44291110478674223 0 -0.082988561018816284 0.44224495586142493 0 -0.079649474655153346 0.44291110478674223 0 -0.082988561018816284 0.44224495586142493 0 -0.08534722863104835 0.44322101100080291 0 -0.082150336493054366 0.440114077729027 0 -0.082988561018816284 0.44224495586142493 0 -0.08534722863104835 0.44322101100080291 0 -0.08534722863104835 0.44322101100080291 0 -0.079291224734157575 0.45281561882897892 0 -0.088315861892157177 0.45416370806822348 0 -0.092142612953967293 0.47045604941576957 0 -0.077017113126165174 0.46898817030863987 0 -0.082289913498719655 0.45875197998190881 0 -0.073881451749328267 0.45817232652530981 0 -0.079291224734157575 0.45281561882897892 0 -0.082289913498719655 0.45875197998190881 0 -0.079291224734157575 0.45281561882897892 0 -0.082289913498719655 0.45875197998190881 0 -0.088315861892157177 0.45416370806822348 0 -0.082289913498719655 0.45875197998190881 0 -0.088315861892157177 0.45416370806822348 0 -0.091883054644851983 0.46103365231917381 0 -0.092142612953967293 0.47045604941576957 0 -0.082289913498719655 0.45875197998190881 0 -0.091883054644851983 0.46103365231917381 0 -0.088315861892157177 0.45416370806822348 0 -0.091883054644851983 0.46103365231917381 0 -0.10478383023456379 0.46076287181079312 0 -0.092142612953967293 0.47045604941576957 0 -0.091883054644851983 0.46103365231917381 0 -0.10478383023456379 0.46076287181079312 0 -0.1024358380961574 0.43436144330025489 0 -0.08534722863104835 0.44322101100080291 0 -0.10478383023456379 0.46076287181079312 0 -0.08534722863104835 0.44322101100080291 0 -0.10478383023456379 0.46076287181079312 0 -0.1024358380961574 0.43436144330025489 0 -0.08534722863104835 0.44322101100080291 0 -0.1024358380961574 0.43436144330025489 0 -0.1231102128986111 0.44164965171733012 0 -0.1024358380961574 0.43436144330025489 0 -0.10478383023456379 0.46076287181079312 0 -0.1231102128986111 0.44164965171733012 0 -0.12614476549805431 0.4611122041341717 0 -0.10478383023456379 0.46076287181079312 0 -0.1242204318380799 0.47830473262078288 0 -0.12614476549805431 0.4611122041341717 0 -0.10478383023456379 0.46076287181079312 0 -0.1231102128986111 0.44164965171733012 0 -0.10478383023456379 0.46076287181079312 0 -0.1242204318380799 0.47830473262078288 0 -0.10183674132105131 0.48229179202325267 0 -0.10478383023456379 0.46076287181079312 0 -0.1242204318380799 0.47830473262078288 0 -0.1242204318380799 0.47830473262078288 0 -0.1144303551324576 0.5 0 -0.10183674132105131 0.48229179202325267 0 -0.087946265434279858 0.5 0 -0.1144303551324576 0.5 0 -0.10183674132105131 0.48229179202325267 0 -0.092142612953967293 0.47045604941576957 0 -0.10478383023456379 0.46076287181079312 0 -0.10183674132105131 0.48229179202325267 0 -0.15876041169345931 0.0925574672389822 0 -0.16009620104017949 0.079006303003244113 0 -0.17228225418952309 0.086674789792389934 0 -0.16009620104017949 0.079006303003244113 0 -0.17346614746422759 0.067011802665080666 0 -0.17228225418952309 0.086674789792389934 0 -0.16009620104017949 0.079006303003244113 0 -0.17346614746422759 0.067011802665080666 0 -0.14838807837857729 0.065614822251067961 0 -0.17346614746422759 0.067011802665080666 0 -0.17228225418952309 0.086674789792389934 0 -0.192547197990799 0.079368083981294121 0 -0.17346614746422759 0.067011802665080666 0 -0.19155994038416929 0.052863474537517011 0 -0.192547197990799 0.079368083981294121 0 -0.17228225418952309 0.086674789792389934 0 -0.18311263277446549 0.1008407857276956 0 -0.192547197990799 0.079368083981294121 0 -0.17228225418952309 0.086674789792389934 0 -0.18311263277446549 0.1008407857276956 0 -0.16533558253418881 0.10711395147296909 0 -0.18311263277446549 0.1008407857276956 0 -0.1775615252023004 0.1167727706201571 0 -0.16533558253418881 0.10711395147296909 0 -0.18311263277446549 0.1008407857276956 0 -0.1775615252023004 0.1167727706201571 0 -0.193063527233269 0.1186017105891264 0 -0.1775615252023004 0.1167727706201571 0 -0.193063527233269 0.1186017105891264 0 -0.1816480875392007 0.13386555172959469 0 -0.1671795633116864 0.11767079264746171 0 -0.15643775415811159 0.11938079902363 0 -0.16938339135214481 0.12741564947309081 0 -0.1775615252023004 0.1167727706201571 0 -0.1671795633116864 0.11767079264746171 0 -0.16938339135214481 0.12741564947309081 0 -0.1775615252023004 0.1167727706201571 0 -0.1671795633116864 0.11767079264746171 0 -0.16533558253418881 0.10711395147296909 0 -0.1671795633116864 0.11767079264746171 0 -0.15643775415811159 0.11938079902363 0 -0.16533558253418881 0.10711395147296909 0 -0.15643775415811159 0.11938079902363 0 -0.16533558253418881 0.10711395147296909 0 -0.1510381771220993 0.10472642375448379 0 -0.15876041169345931 0.0925574672389822 0 -0.17228225418952309 0.086674789792389934 0 -0.16533558253418881 0.10711395147296909 0 -0.15876041169345931 0.0925574672389822 0 -0.16533558253418881 0.10711395147296909 0 -0.1510381771220993 0.10472642375448379 0 -0.1510381771220993 0.10472642375448379 0 -0.13599587260611071 0.10316055969234519 0 -0.14706402499744781 0.088285356971321866 0 -0.15876041169345931 0.0925574672389822 0 -0.1510381771220993 0.10472642375448379 0 -0.14706402499744781 0.088285356971321866 0 -0.1510381771220993 0.10472642375448379 0 -0.1423872147350122 0.1116005212142888 0 -0.13599587260611071 0.10316055969234519 0 -0.15643775415811159 0.11938079902363 0 -0.1436769000821792 0.1218582351064668 0 -0.15168790313460401 0.13157208832919101 0 -0.15643775415811159 0.11938079902363 0 -0.1510381771220993 0.10472642375448379 0 -0.1423872147350122 0.1116005212142888 0 -0.15643775415811159 0.11938079902363 0 -0.1423872147350122 0.1116005212142888 0 -0.1436769000821792 0.1218582351064668 0 -0.1436769000821792 0.1218582351064668 0 -0.13127308015220099 0.11796981656743449 0 -0.13186633641382831 0.12962204322641471 0 -0.1423872147350122 0.1116005212142888 0 -0.13127308015220099 0.11796981656743449 0 -0.13599587260611071 0.10316055969234519 0 -0.1423872147350122 0.1116005212142888 0 -0.1436769000821792 0.1218582351064668 0 -0.13127308015220099 0.11796981656743449 0 -0.13127308015220099 0.11796981656743449 0 -0.12498508506313841 0.10687730506524611 0 -0.12036468150963781 0.12182649508351021 0 -0.13127308015220099 0.11796981656743449 0 -0.13186633641382831 0.12962204322641471 0 -0.12036468150963781 0.12182649508351021 0 -0.13599587260611071 0.10316055969234519 0 -0.12831916191688239 0.087299412599157813 0 -0.12498508506313841 0.10687730506524611 0 -0.13127308015220099 0.11796981656743449 0 -0.13599587260611071 0.10316055969234519 0 -0.12498508506313841 0.10687730506524611 0 -0.13599587260611071 0.10316055969234519 0 -0.12831916191688239 0.087299412599157813 0 -0.14706402499744781 0.088285356971321866 0 -0.12831916191688239 0.087299412599157813 0 -0.14706402499744781 0.088285356971321866 0 -0.14838807837857729 0.065614822251067961 0 -0.15876041169345931 0.0925574672389822 0 -0.16009620104017949 0.079006303003244113 0 -0.14706402499744781 0.088285356971321866 0 -0.16009620104017949 0.079006303003244113 0 -0.14706402499744781 0.088285356971321866 0 -0.14838807837857729 0.065614822251067961 0 -0.12831916191688239 0.087299412599157813 0 -0.14838807837857729 0.065614822251067961 0 -0.12259424881628921 0.07311990635227042 0 -0.12831916191688239 0.087299412599157813 0 -0.14838807837857729 0.065614822251067961 0 -0.13221835019387521 0.045559841303602473 0 -0.12259424881628921 0.07311990635227042 0 -0.14838807837857729 0.065614822251067961 0 -0.13221835019387521 0.045559841303602473 0 -0.12259424881628921 0.07311990635227042 0 -0.13221835019387521 0.045559841303602473 0 -0.14625211771231039 0.031018172745912429 0 -0.14184245157145731 0.017999776254933032 0 -0.13221835019387521 0.045559841303602473 0 -0.14184245157145731 0.017999776254933032 0 -0.13221835019387521 0.045559841303602473 0 -0.1252633286195389 0.0259300678444884 0 -0.1179997896040296 0.037241119001395047 0 -0.13221835019387521 0.045559841303602473 0 -0.15026201608533629 0.042355150639171862 0 -0.14625211771231039 0.031018172745912429 0 -0.15026201608533629 0.042355150639171862 0 -0.14625211771231039 0.031018172745912429 0 -0.1570641404198026 0.028913994872190631 0 -0.14838807837857729 0.065614822251067961 0 -0.15026201608533629 0.042355150639171862 0 -0.16845699484027229 0.043930231902977908 0 -0.14838807837857729 0.065614822251067961 0 -0.13221835019387521 0.045559841303602473 0 -0.15026201608533629 0.042355150639171862 0 -0.12905663811260151 0.014123424841729791 0 -0.14549820555302331 0.0075309736539515872 0 -0.1291944312396914 0.0041045353414499199 0 -0.12905663811260151 0.014123424841729791 0 -0.14549820555302331 0.0075309736539515872 0 -0.13443834496835211 -0.0057144966104633061 0 -0.1291944312396914 0.0041045353414499199 0 -0.14549820555302331 0.0075309736539515872 0 -0.12905663811260151 0.014123424841729791 0 -0.14184245157145731 0.017999776254933032 0 -0.14549820555302331 0.0075309736539515872 0 -0.1291944312396914 0.0041045353414499199 0 -0.12905663811260151 0.014123424841729791 0 -0.11815406400030549 0.0084873731821777793 0 -0.1252633286195389 0.0259300678444884 0 -0.14184245157145731 0.017999776254933032 0 -0.12905663811260151 0.014123424841729791 0 -0.1252633286195389 0.0259300678444884 0 -0.14184245157145731 0.017999776254933032 0 -0.13221835019387521 0.045559841303602473 0 -0.1252633286195389 0.0259300678444884 0 -0.14184245157145731 0.017999776254933032 0 -0.14625211771231039 0.031018172745912429 0 -0.15053316178509121 0.018390522018949109 0 -0.1570641404198026 0.028913994872190631 0 -0.15053316178509121 0.018390522018949109 0 -0.1582484341212696 0.016371219518669131 0 -0.1570641404198026 0.028913994872190631 0 -0.15053316178509121 0.018390522018949109 0 -0.15071421965180529 0.013756143585324501 0 -0.1582484341212696 0.016371219518669131 0 -0.15053316178509121 0.018390522018949109 0 -0.15071421965180529 0.013756143585324501 0 -0.14625211771231039 0.031018172745912429 0 -0.15053316178509121 0.018390522018949109 0 -0.14184245157145731 0.017999776254933032 0 -0.14184245157145731 0.017999776254933032 0 -0.15071421965180529 0.013756143585324501 0 -0.15053316178509121 0.018390522018949109 0 -0.14184245157145731 0.017999776254933032 0 -0.15071421965180529 0.013756143585324501 0 -0.15164513545537861 -0.010071686720453939 0 -0.14849449428643871 0.0063295743779320374 0 -0.14549820555302331 0.0075309736539515872 0 -0.15164513545537861 -0.010071686720453939 0 -0.15071421965180529 0.013756143585324501 0 -0.14849449428643871 0.0063295743779320374 0 -0.15164513545537861 -0.010071686720453939 0 -0.15071421965180529 0.013756143585324501 0 -0.15164513545537861 -0.010071686720453939 0 -0.15071421965180529 0.013756143585324501 0 -0.16094102211374159 0.0088643573438431378 0 -0.14184245157145731 0.017999776254933032 0 -0.14549820555302331 0.0075309736539515872 0 -0.14184245157145731 0.017999776254933032 0 -0.15071421965180529 0.013756143585324501 0 -0.14549820555302331 0.0075309736539515872 0 -0.15071421965180529 0.013756143585324501 0 -0.14849449428643871 0.0063295743779320374 0 -0.14549820555302331 0.0075309736539515872 0 -0.15071421965180529 0.013756143585324501 0 -0.16094102211374159 0.0088643573438431378 0 -0.14849449428643871 0.0063295743779320374 0 -0.14549820555302331 0.0075309736539515872 0 -0.16094102211374159 0.0088643573438431378 0 -0.16863211797453581 0.021418672407463341 0 -0.17946841454955409 0.0056100970778848987 0 -0.166761735875191 -0.0073857624883872791 0 -0.16094102211374159 0.0088643573438431378 0 -0.17946841454955409 0.0056100970778848987 0 -0.15071421965180529 0.013756143585324501 0 -0.16094102211374159 0.0088643573438431378 0 -0.1582484341212696 0.016371219518669131 0 -0.16094102211374159 0.0088643573438431378 0 -0.16863211797453581 0.021418672407463341 0 -0.1582484341212696 0.016371219518669131 0 -0.16863211797453581 0.021418672407463341 0 -0.1582484341212696 0.016371219518669131 0 -0.1570641404198026 0.028913994872190631 0 -0.16863211797453581 0.021418672407463341 0 -0.16845699484027229 0.043930231902977908 0 -0.1885259113019673 0.02224564155488783 0 -0.16863211797453581 0.021418672407463341 0 -0.17946841454955409 0.0056100970778848987 0 -0.1885259113019673 0.02224564155488783 0 -0.14838807837857729 0.065614822251067961 0 -0.16845699484027229 0.043930231902977908 0 -0.17346614746422759 0.067011802665080666 0 -0.14838807837857729 0.065614822251067961 0 -0.16845699484027229 0.043930231902977908 0 -0.15026201608533629 0.042355150639171862 0 -0.1570641404198026 0.028913994872190631 0 -0.16845699484027229 0.043930231902977908 0 -0.16863211797453581 0.021418672407463341 0 -0.1570641404198026 0.028913994872190631 0 -0.16845699484027229 0.043930231902977908 0 -0.16845699484027229 0.043930231902977908 0 -0.19155994038416929 0.052863474537517011 0 -0.1885259113019673 0.02224564155488783 0 -0.16845699484027229 0.043930231902977908 0 -0.1885259113019673 0.02224564155488783 0 -0.17346614746422759 0.067011802665080666 0 -0.16845699484027229 0.043930231902977908 0 -0.19155994038416929 0.052863474537517011 0 -0.19155994038416929 0.052863474537517011 0 -0.21242471577330599 0.041185048404524673 0 -0.1885259113019673 0.02224564155488783 0 -0.19155994038416929 0.052863474537517011 0 -0.21242471577330599 0.041185048404524673 0 -0.21375936553629049 0.065272753001030637 0 -0.21242471577330599 0.041185048404524673 0 -0.1885259113019673 0.02224564155488783 0 -0.22178955381057869 0.021567181546350549 0 -0.1885259113019673 0.02224564155488783 0 -0.20859482776366231 0.00056105120679781489 0 -0.22178955381057869 0.021567181546350549 0 -0.17946841454955409 0.0056100970778848987 0 -0.1885259113019673 0.02224564155488783 0 -0.20859482776366231 0.00056105120679781489 0 -0.1885259113019673 0.02224564155488783 0 -0.20859482776366231 0.00056105120679781489 0 -0.20859482776366231 0.00056105120679781489 0 -0.2334181717106491 0.0056181133983165578 0 -0.22178955381057869 0.021567181546350549 0 -0.2334181717106491 0.0056181133983165578 0 -0.22178955381057869 0.021567181546350549 0 -0.24609087816622199 0.020100449583692271 0 -0.22178955381057869 0.021567181546350549 0 -0.24609087816622199 0.020100449583692271 0 -0.24168281814766621 0.039692785129884181 0 -0.2334181717106491 0.0056181133983165578 0 -0.24609087816622199 0.020100449583692271 0 -0.2459253282718992 0.0032477469373470829 0 -0.2375712503994746 -0.0066014752189344121 0 -0.2334181717106491 0.0056181133983165578 0 -0.2459253282718992 0.0032477469373470829 0 -0.21242471577330599 0.041185048404524673 0 -0.24168281814766621 0.039692785129884181 0 -0.23586242867473051 0.060692165078337558 0 -0.21242471577330599 0.041185048404524673 0 -0.23586242867473051 0.060692165078337558 0 -0.21375936553629049 0.065272753001030637 0 -0.21242471577330599 0.041185048404524673 0 -0.22178955381057869 0.021567181546350549 0 -0.24168281814766621 0.039692785129884181 0 -0.26060190944484068 0.058063245326308729 0 -0.24168281814766621 0.039692785129884181 0 -0.23586242867473051 0.060692165078337558 0 -0.23586242867473051 0.060692165078337558 0 -0.2351371319120725 0.089440840196117671 0 -0.25902866719658019 0.081988633488699031 0 -0.23586242867473051 0.060692165078337558 0 -0.2351371319120725 0.089440840196117671 0 -0.25089302828754872 0.1010279180716174 0 -0.25902866719658019 0.081988633488699031 0 -0.2351371319120725 0.089440840196117671 0 -0.2351371319120725 0.089440840196117671 0 -0.21375936553629049 0.065272753001030637 0 -0.2131484849403886 0.087264428083427756 0 -0.2351371319120725 0.089440840196117671 0 -0.2131484849403886 0.087264428083427756 0 -0.21902869528482499 0.10268555580885 0 -0.23586242867473051 0.060692165078337558 0 -0.2351371319120725 0.089440840196117671 0 -0.21375936553629049 0.065272753001030637 0 -0.21375936553629049 0.065272753001030637 0 -0.2131484849403886 0.087264428083427756 0 -0.192547197990799 0.079368083981294121 0 -0.18311263277446549 0.1008407857276956 0 -0.192547197990799 0.079368083981294121 0 -0.20111410106186589 0.10055492256713471 0 -0.2131484849403886 0.087264428083427756 0 -0.192547197990799 0.079368083981294121 0 -0.20111410106186589 0.10055492256713471 0 -0.19155994038416929 0.052863474537517011 0 -0.21375936553629049 0.065272753001030637 0 -0.192547197990799 0.079368083981294121 0 -0.193063527233269 0.1186017105891264 0 -0.20111410106186589 0.10055492256713471 0 -0.21133192336038359 0.1179780728836724 0 -0.18311263277446549 0.1008407857276956 0 -0.193063527233269 0.1186017105891264 0 -0.20111410106186589 0.10055492256713471 0 -0.2131484849403886 0.087264428083427756 0 -0.20111410106186589 0.10055492256713471 0 -0.21902869528482499 0.10268555580885 0 -0.20111410106186589 0.10055492256713471 0 -0.21133192336038359 0.1179780728836724 0 -0.21902869528482499 0.10268555580885 0 -0.21133192336038359 0.1179780728836724 0 -0.21902869528482499 0.10268555580885 0 -0.2344118351494146 0.1181895153138976 0 -0.21133192336038359 0.1179780728836724 0 -0.2344118351494146 0.1181895153138976 0 -0.21743287987325929 0.13386008544736361 0 -0.2351371319120725 0.089440840196117671 0 -0.21902869528482499 0.10268555580885 0 -0.2344118351494146 0.1181895153138976 0 -0.25089302828754872 0.1010279180716174 0 -0.2351371319120725 0.089440840196117671 0 -0.2344118351494146 0.1181895153138976 0 -0.2351371319120725 0.089440840196117671 0 -0.2344118351494146 0.1181895153138976 0 -0.25478247939872278 0.1167748463476304 0 -0.25089302828754872 0.1010279180716174 0 -0.2344118351494146 0.1181895153138976 0 -0.25478247939872278 0.1167748463476304 0 -0.2344118351494146 0.1181895153138976 0 -0.24654633774657539 0.1284046340924572 0 -0.2344118351494146 0.1181895153138976 0 -0.23368653838675671 0.14693819043167761 0 -0.23991918127255549 0.14281558832905911 0 -0.2344118351494146 0.1181895153138976 0 -0.24654633774657539 0.1284046340924572 0 -0.23991918127255549 0.14281558832905911 0 -0.25270287220698268 0.13457527676023789 0 -0.24654633774657539 0.1284046340924572 0 -0.24905264270060931 0.14173952472264159 0 -0.24654633774657539 0.1284046340924572 0 -0.23991918127255549 0.14281558832905911 0 -0.24905264270060931 0.14173952472264159 0 -0.2344118351494146 0.1181895153138976 0 -0.23368653838675671 0.14693819043167761 0 -0.2344118351494146 0.1181895153138976 0 -0.22476626975714581 0.14019724493437949 0 -0.21743287987325929 0.13386008544736361 0 -0.2344118351494146 0.1181895153138976 0 -0.22476626975714581 0.14019724493437949 0 -0.23368653838675671 0.14693819043167761 0 -0.22476626975714581 0.14019724493437949 0 -0.21743287987325929 0.13386008544736361 0 -0.21466245083229099 0.14915897357706329 0 -0.22476626975714581 0.14019724493437949 0 -0.2236376445440072 0.1528394599018956 0 -0.21466245083229099 0.14915897357706329 0 -0.22476626975714581 0.14019724493437949 0 -0.2236376445440072 0.1528394599018956 0 -0.23368653838675671 0.14693819043167761 0 -0.2236376445440072 0.1528394599018956 0 -0.23368653838675671 0.14693819043167761 0 -0.23463639072475401 0.1568329046843194 0 -0.25231996688782288 0.14999036497700921 0 -0.23991918127255549 0.14281558832905911 0 -0.24537043529135269 0.16590981314459491 0 -0.23991918127255549 0.14281558832905911 0 -0.24537043529135269 0.16590981314459491 0 -0.23368653838675671 0.14693819043167761 0 -0.23991918127255549 0.14281558832905911 0 -0.23463639072475401 0.1568329046843194 0 -0.23991918127255549 0.14281558832905911 0 -0.24537043529135269 0.16590981314459491 0 -0.23463639072475401 0.1568329046843194 0 -0.25231996688782288 0.14999036497700921 0 -0.23991918127255549 0.14281558832905911 0 -0.24905264270060931 0.14173952472264159 0 -0.24537043529135269 0.16590981314459491 0 -0.23448735499098 0.16949473470421059 0 -0.23463639072475401 0.1568329046843194 0 -0.25083273839331149 0.18900142988995439 0 -0.24537043529135269 0.16590981314459491 0 -0.25083273839331149 0.18900142988995439 0 -0.23448735499098 0.16949473470421059 0 -0.22819158261301831 0.1787622171697372 0 -0.25083273839331149 0.18900142988995439 0 -0.22819158261301831 0.1787622171697372 0 -0.22962358303744271 0.1933982444320429 0 -0.25083273839331149 0.18900142988995439 0 -0.24537043529135269 0.16590981314459491 0 -0.23448735499098 0.16949473470421059 0 -0.23448735499098 0.16949473470421059 0 -0.22819158261301831 0.1787622171697372 0 -0.21044933501205751 0.16814462792112481 0 -0.22819158261301831 0.1787622171697372 0 -0.2146034324719984 0.18653418896414339 0 -0.22962358303744271 0.1933982444320429 0 -0.23463639072475401 0.1568329046843194 0 -0.21044933501205751 0.16814462792112481 0 -0.23448735499098 0.16949473470421059 0 -0.23463639072475401 0.1568329046843194 0 -0.21044933501205751 0.16814462792112481 0 -0.2236376445440072 0.1528394599018956 0 -0.23463639072475401 0.1568329046843194 0 -0.21044933501205751 0.16814462792112481 0 -0.21044933501205751 0.16814462792112481 0 -0.21466245083229099 0.14915897357706329 0 -0.20494847731601409 0.15546982907879769 0 -0.2236376445440072 0.1528394599018956 0 -0.21044933501205751 0.16814462792112481 0 -0.21466245083229099 0.14915897357706329 0 -0.21044933501205751 0.16814462792112481 0 -0.2146034324719984 0.18653418896414339 0 -0.20040335680126151 0.1836830194395489 0 -0.22819158261301831 0.1787622171697372 0 -0.21044933501205751 0.16814462792112481 0 -0.2146034324719984 0.18653418896414339 0 -0.21044933501205751 0.16814462792112481 0 -0.18626227929936059 0.1794563511579291 0 -0.21044933501205751 0.16814462792112481 0 -0.20040335680126151 0.1836830194395489 0 -0.18626227929936059 0.1794563511579291 0 -0.20040335680126151 0.1836830194395489 0 -0.19190511228061841 0.19100882278138739 0 -0.18626227929936059 0.1794563511579291 0 -0.1925958914534272 0.16369119786878539 0 -0.18626227929936059 0.1794563511579291 0 -0.21044933501205751 0.16814462792112481 0 -0.1925958914534272 0.16369119786878539 0 -0.20494847731601409 0.15546982907879769 0 -0.21044933501205751 0.16814462792112481 0 -0.1925958914534272 0.16369119786878539 0 -0.18626227929936059 0.1794563511579291 0 -0.1925958914534272 0.16369119786878539 0 -0.20200468226003049 0.14085126256689159 0 -0.20494847731601409 0.15546982907879769 0 -0.20200468226003049 0.14085126256689159 0 -0.1816480875392007 0.13386555172959469 0 -0.18572053401925459 0.14772394484669271 0 -0.1925958914534272 0.16369119786878539 0 -0.20200468226003049 0.14085126256689159 0 -0.1925958914534272 0.16369119786878539 0 -0.20200468226003049 0.14085126256689159 0 -0.18572053401925459 0.14772394484669271 0 -0.193063527233269 0.1186017105891264 0 -0.21133192336038359 0.1179780728836724 0 -0.20200468226003049 0.14085126256689159 0 -0.193063527233269 0.1186017105891264 0 -0.20200468226003049 0.14085126256689159 0 -0.1816480875392007 0.13386555172959469 0 -0.21133192336038359 0.1179780728836724 0 -0.20200468226003049 0.14085126256689159 0 -0.21743287987325929 0.13386008544736361 0 -0.21133192336038359 0.1179780728836724 0 -0.20200468226003049 0.14085126256689159 0 -0.20200468226003049 0.14085126256689159 0 -0.21743287987325929 0.13386008544736361 0 -0.21466245083229099 0.14915897357706329 0 -0.20200468226003049 0.14085126256689159 0 -0.21466245083229099 0.14915897357706329 0 -0.20494847731601409 0.15546982907879769 0 -0.2328052521041879 0.26216167743402252 0 -0.24729232979450469 0.2396916628870277 0 -0.230508514647143 0.23043941686541969 0 -0.2328052521041879 0.26216167743402252 0 -0.2069158870069982 0.25105919889929779 0 -0.230508514647143 0.23043941686541969 0 -0.25745122668553339 0.2170900574415493 0 -0.24729232979450469 0.2396916628870277 0 -0.230508514647143 0.23043941686541969 0 -0.230508514647143 0.23043941686541969 0 -0.21653641572042501 0.20588270943650239 0 -0.21032290073364329 0.22522763630894591 0 -0.230508514647143 0.23043941686541969 0 -0.2379537459884605 0.2068106766998774 0 -0.21653641572042501 0.20588270943650239 0 -0.25083273839331149 0.18900142988995439 0 -0.25745122668553339 0.2170900574415493 0 -0.2379537459884605 0.2068106766998774 0 -0.25745122668553339 0.2170900574415493 0 -0.230508514647143 0.23043941686541969 0 -0.2379537459884605 0.2068106766998774 0 -0.25083273839331149 0.18900142988995439 0 -0.2379537459884605 0.2068106766998774 0 -0.22962358303744271 0.1933982444320429 0 -0.2379537459884605 0.2068106766998774 0 -0.22962358303744271 0.1933982444320429 0 -0.21653641572042501 0.20588270943650239 0 -0.2146034324719984 0.18653418896414339 0 -0.22962358303744271 0.1933982444320429 0 -0.21653641572042501 0.20588270943650239 0 -0.2146034324719984 0.18653418896414339 0 -0.20191991958251801 0.19457228587319569 0 -0.21653641572042501 0.20588270943650239 0 -0.2146034324719984 0.18653418896414339 0 -0.20040335680126151 0.1836830194395489 0 -0.20191991958251801 0.19457228587319569 0 -0.20040335680126151 0.1836830194395489 0 -0.20191991958251801 0.19457228587319569 0 -0.19190511228061841 0.19100882278138739 0 -0.20191991958251801 0.19457228587319569 0 -0.19190511228061841 0.19100882278138739 0 -0.19112780689407941 0.2020585764691723 0 -0.19190511228061841 0.19100882278138739 0 -0.19112780689407941 0.2020585764691723 0 -0.17981219882587321 0.1952738809670917 0 -0.20191991958251801 0.19457228587319569 0 -0.19112780689407941 0.2020585764691723 0 -0.20265225544943941 0.2090009968362011 0 -0.20265225544943941 0.2090009968362011 0 -0.1933542343165309 0.21726377609318909 0 -0.21032290073364329 0.22522763630894591 0 -0.19112780689407941 0.2020585764691723 0 -0.20265225544943941 0.2090009968362011 0 -0.1933542343165309 0.21726377609318909 0 -0.19112780689407941 0.2020585764691723 0 -0.1933542343165309 0.21726377609318909 0 -0.1819514893144594 0.20852772225069441 0 -0.20265225544943941 0.2090009968362011 0 -0.21653641572042501 0.20588270943650239 0 -0.21032290073364329 0.22522763630894591 0 -0.20191991958251801 0.19457228587319569 0 -0.20265225544943941 0.2090009968362011 0 -0.21653641572042501 0.20588270943650239 0 -0.1933542343165309 0.21726377609318909 0 -0.21032290073364329 0.22522763630894591 0 -0.19695286789214 0.23391362204099919 0 -0.1933542343165309 0.21726377609318909 0 -0.19695286789214 0.23391362204099919 0 -0.17676051721708441 0.22115292061535829 0 -0.2069158870069982 0.25105919889929779 0 -0.19695286789214 0.23391362204099919 0 -0.1810265219098085 0.23995672036457311 0 -0.2069158870069982 0.25105919889929779 0 -0.1810265219098085 0.23995672036457311 0 -0.2069158870069982 0.25105919889929779 0 -0.21032290073364329 0.22522763630894591 0 -0.19695286789214 0.23391362204099919 0 -0.2069158870069982 0.25105919889929779 0 -0.230508514647143 0.23043941686541969 0 -0.21032290073364329 0.22522763630894591 0 -0.15844826368726381 0.24258154149448821 0 -0.1810265219098085 0.23995672036457311 0 -0.15513715681261869 0.22885424182984859 0 -0.1690799129501761 0.25245421101349791 0 -0.15844826368726381 0.24258154149448821 0 -0.1810265219098085 0.23995672036457311 0 -0.1810265219098085 0.23995672036457311 0 -0.15513715681261869 0.22885424182984859 0 -0.15818960312719971 0.25356924451958068 0 -0.15844826368726381 0.24258154149448821 0 -0.15376339007017009 0.24618592337852629 0 -0.1690799129501761 0.25245421101349791 0 -0.15818960312719971 0.25356924451958068 0 -0.15844826368726381 0.24258154149448821 0 -0.19695286789214 0.23391362204099919 0 -0.1810265219098085 0.23995672036457311 0 -0.17676051721708441 0.22115292061535829 0 -0.1810265219098085 0.23995672036457311 0 -0.17676051721708441 0.22115292061535829 0 -0.15943109109208711 0.22808284760906281 0 -0.1810265219098085 0.23995672036457311 0 -0.15943109109208711 0.22808284760906281 0 -0.15513715681261869 0.22885424182984859 0 -0.15943109109208711 0.22808284760906281 0 -0.16430452301067119 0.2068996305863062 0 -0.15513715681261869 0.22885424182984859 0 -0.15943109109208711 0.22808284760906281 0 -0.15513715681261869 0.22885424182984859 0 -0.16430452301067119 0.2068996305863062 0 -0.15513715681261869 0.22885424182984859 0 -0.17676051721708441 0.22115292061535829 0 -0.15943109109208711 0.22808284760906281 0 -0.16430452301067119 0.2068996305863062 0 -0.16430452301067119 0.2068996305863062 0 -0.1511859404026365 0.20893536690500941 0 -0.15513715681261869 0.22885424182984859 0 -0.16430452301067119 0.2068996305863062 0 -0.16033527449533019 0.19931555195785991 0 -0.1511859404026365 0.20893536690500941 0 -0.1933542343165309 0.21726377609318909 0 -0.17676051721708441 0.22115292061535829 0 -0.1819514893144594 0.20852772225069441 0 -0.16430452301067119 0.2068996305863062 0 -0.1819514893144594 0.20852772225069441 0 -0.17981219882587321 0.1952738809670917 0 -0.17676051721708441 0.22115292061535829 0 -0.16430452301067119 0.2068996305863062 0 -0.1819514893144594 0.20852772225069441 0 -0.16430452301067119 0.2068996305863062 0 -0.17981219882587321 0.1952738809670917 0 -0.1740219045079815 0.18518088967140331 0 -0.19190511228061841 0.19100882278138739 0 -0.17981219882587321 0.1952738809670917 0 -0.18626227929936059 0.1794563511579291 0 -0.19112780689407941 0.2020585764691723 0 -0.1819514893144594 0.20852772225069441 0 -0.17981219882587321 0.1952738809670917 0 -0.16430452301067119 0.2068996305863062 0 -0.1740219045079815 0.18518088967140331 0 -0.1618232830269774 0.1908859011330192 0 -0.1740219045079815 0.18518088967140331 0 -0.16430452301067119 0.2068996305863062 0 -0.16033527449533019 0.19931555195785991 0 -0.1740219045079815 0.18518088967140331 0 -0.16033527449533019 0.19931555195785991 0 -0.1618232830269774 0.1908859011330192 0 -0.1740219045079815 0.18518088967140331 0 -0.1618232830269774 0.1908859011330192 0 -0.15450179096607569 0.19526085377817221 0 -0.15945706984071351 0.1859548772310369 0 -0.16033527449533019 0.19931555195785991 0 -0.1618232830269774 0.1908859011330192 0 -0.15450179096607569 0.19526085377817221 0 -0.15450179096607569 0.19526085377817221 0 -0.13912773914333421 0.19961274671068019 0 -0.15945706984071351 0.1859548772310369 0 -0.13912773914333421 0.19961274671068019 0 -0.15945706984071351 0.1859548772310369 0 -0.13912773914333421 0.19961274671068019 0 -0.15945706984071351 0.1859548772310369 0 -0.13647277472277031 0.1845562559318587 0 -0.16033527449533019 0.19931555195785991 0 -0.15450179096607569 0.19526085377817221 0 -0.15176558832402301 0.20053519185826479 0 -0.15450179096607569 0.19526085377817221 0 -0.15176558832402301 0.20053519185826479 0 -0.13912773914333421 0.19961274671068019 0 -0.16033527449533019 0.19931555195785991 0 -0.15176558832402301 0.20053519185826479 0 -0.1511859404026365 0.20893536690500941 0 -0.15176558832402301 0.20053519185826479 0 -0.13912773914333421 0.19961274671068019 0 -0.1511859404026365 0.20893536690500941 0 -0.13912773914333421 0.19961274671068019 0 -0.13647277472277031 0.1845562559318587 0 -0.1204142734464019 0.19655062799244949 0 -0.13912773914333421 0.19961274671068019 0 -0.11879840844595441 0.21327061619032281 0 -0.13912773914333421 0.19961274671068019 0 -0.13404537851668169 0.2094202143826113 0 -0.11879840844595441 0.21327061619032281 0 -0.13912773914333421 0.19961274671068019 0 -0.13404537851668169 0.2094202143826113 0 -0.1424154182146026 0.21320074075698989 0 -0.13912773914333421 0.19961274671068019 0 -0.11879840844595441 0.21327061619032281 0 -0.1204142734464019 0.19655062799244949 0 -0.13313089149699919 0.2194170042854395 0 -0.11879840844595441 0.21327061619032281 0 -0.13404537851668169 0.2094202143826113 0 -0.13313089149699919 0.2194170042854395 0 -0.11879840844595441 0.21327061619032281 0 -0.13404537851668169 0.2094202143826113 0 -0.1424154182146026 0.21320074075698989 0 -0.13313089149699919 0.2194170042854395 0 -0.13404537851668169 0.2094202143826113 0 -0.13313089149699919 0.2194170042854395 0 -0.1424154182146026 0.21320074075698989 0 -0.1511859404026365 0.20893536690500941 0 -0.15513715681261869 0.22885424182984859 0 -0.13912773914333421 0.19961274671068019 0 -0.1424154182146026 0.21320074075698989 0 -0.1511859404026365 0.20893536690500941 0 -0.15513715681261869 0.22885424182984859 0 -0.13188547782902479 0.23303134600148889 0 -0.15513715681261869 0.22885424182984859 0 -0.13313089149699919 0.2194170042854395 0 -0.1424154182146026 0.21320074075698989 0 -0.15513715681261869 0.22885424182984859 0 -0.13313089149699919 0.2194170042854395 0 -0.15513715681261869 0.22885424182984859 0 -0.13313089149699919 0.2194170042854395 0 -0.13188547782902479 0.23303134600148889 0 -0.13313089149699919 0.2194170042854395 0 -0.13188547782902479 0.23303134600148889 0 -0.1225357551805947 0.2233964605668412 0 -0.13313089149699919 0.2194170042854395 0 -0.13188547782902479 0.23303134600148889 0 -0.1296773909521125 0.25716922890260729 0 -0.13188547782902479 0.23303134600148889 0 -0.1296773909521125 0.25716922890260729 0 -0.1437696134745676 0.25279598445993562 0 -0.13188547782902479 0.23303134600148889 0 -0.14625356343122631 0.25202513938375759 0 -0.15513715681261869 0.22885424182984859 0 -0.15376339007017009 0.24618592337852629 0 -0.1437696134745676 0.25279598445993562 0 -0.14625356343122631 0.25202513938375759 0 -0.15513715681261869 0.22885424182984859 0 -0.1437696134745676 0.25279598445993562 0 -0.15513715681261869 0.22885424182984859 0 -0.15844826368726381 0.24258154149448821 0 -0.15513715681261869 0.22885424182984859 0 -0.15376339007017009 0.24618592337852629 0 -0.1437696134745676 0.25279598445993562 0 -0.15513715681261869 0.22885424182984859 0 -0.13188547782902479 0.23303134600148889 0 -0.15960623237311281 0.14234128510969329 0 -0.16902631378248631 0.1371612484644687 0 -0.17351305370411829 0.14701447176296659 0 -0.16143892687697861 0.15297757880860349 0 -0.15960623237311281 0.14234128510969329 0 -0.17351305370411829 0.14701447176296659 0 -0.16143892687697861 0.15297757880860349 0 -0.17351305370411829 0.14701447176296659 0 -0.16957058237235029 0.15706014103220159 0 -0.16143892687697861 0.15297757880860349 0 -0.15739643298734091 0.16345032107281471 0 -0.15137732553605709 0.151327206515144 0 -0.16143892687697861 0.15297757880860349 0 -0.15960623237311281 0.14234128510969329 0 -0.15137732553605709 0.151327206515144 0 -0.15960623237311281 0.14234128510969329 0 -0.16081297658590649 0.13248666069625289 0 -0.16902631378248631 0.1371612484644687 0 -0.15960623237311281 0.14234128510969329 0 -0.16081297658590649 0.13248666069625289 0 -0.15168790313460401 0.13157208832919101 0 -0.15643775415811159 0.11938079902363 0 -0.16081297658590649 0.13248666069625289 0 -0.16938339135214481 0.12741564947309081 0 -0.15643775415811159 0.11938079902363 0 -0.16081297658590649 0.13248666069625289 0 -0.15168790313460401 0.13157208832919101 0 -0.16081297658590649 0.13248666069625289 0 -0.16938339135214481 0.12741564947309081 0 -0.16902631378248631 0.1371612484644687 0 -0.16938339135214481 0.12741564947309081 0 -0.16902631378248631 0.1371612484644687 0 -0.1816480875392007 0.13386555172959469 0 -0.1775615252023004 0.1167727706201571 0 -0.16938339135214481 0.12741564947309081 0 -0.1816480875392007 0.13386555172959469 0 -0.16902631378248631 0.1371612484644687 0 -0.1816480875392007 0.13386555172959469 0 -0.17351305370411829 0.14701447176296659 0 -0.1816480875392007 0.13386555172959469 0 -0.18572053401925459 0.14772394484669271 0 -0.17351305370411829 0.14701447176296659 0 -0.1925958914534272 0.16369119786878539 0 -0.18572053401925459 0.14772394484669271 0 -0.17900373073950729 0.1571785480435694 0 -0.17351305370411829 0.14701447176296659 0 -0.17900373073950729 0.1571785480435694 0 -0.16957058237235029 0.15706014103220159 0 -0.18572053401925459 0.14772394484669271 0 -0.17351305370411829 0.14701447176296659 0 -0.17900373073950729 0.1571785480435694 0 -0.1925958914534272 0.16369119786878539 0 -0.18626227929936059 0.1794563511579291 0 -0.17978640053809339 0.17229700775139439 0 -0.1925958914534272 0.16369119786878539 0 -0.1786987985391246 0.1649329802809561 0 -0.17900373073950729 0.1571785480435694 0 -0.1925958914534272 0.16369119786878539 0 -0.17978640053809339 0.17229700775139439 0 -0.1925958914534272 0.16369119786878539 0 -0.1786987985391246 0.1649329802809561 0 -0.17978640053809339 0.17229700775139439 0 -0.1786987985391246 0.1649329802809561 0 -0.17229496178022061 0.16732323599282559 0 -0.17978640053809339 0.17229700775139439 0 -0.1786987985391246 0.1649329802809561 0 -0.17229496178022061 0.16732323599282559 0 -0.17900373073950729 0.1571785480435694 0 -0.17229496178022061 0.16732323599282559 0 -0.17900373073950729 0.1571785480435694 0 -0.16957058237235029 0.15706014103220159 0 -0.17981219882587321 0.1952738809670917 0 -0.18626227929936059 0.1794563511579291 0 -0.1740219045079815 0.18518088967140331 0 -0.17981219882587321 0.1952738809670917 0 -0.18626227929936059 0.1794563511579291 0 -0.18626227929936059 0.1794563511579291 0 -0.1740219045079815 0.18518088967140331 0 -0.18626227929936059 0.1794563511579291 0 -0.17978640053809339 0.17229700775139439 0 -0.1740219045079815 0.18518088967140331 0 -0.17978640053809339 0.17229700775139439 0 -0.1740219045079815 0.18518088967140331 0 -0.17229496178022061 0.16732323599282559 0 -0.15945706984071351 0.1859548772310369 0 -0.15739643298734091 0.16345032107281471 0 -0.17229496178022061 0.16732323599282559 0 -0.17978640053809339 0.17229700775139439 0 -0.15945706984071351 0.1859548772310369 0 -0.17978640053809339 0.17229700775139439 0 -0.1740219045079815 0.18518088967140331 0 -0.15945706984071351 0.1859548772310369 0 -0.17978640053809339 0.17229700775139439 0 -0.15945706984071351 0.1859548772310369 0 -0.1618232830269774 0.1908859011330192 0 -0.1740219045079815 0.18518088967140331 0 -0.15945706984071351 0.1859548772310369 0 -0.17229496178022061 0.16732323599282559 0 -0.16957058237235029 0.15706014103220159 0 -0.15739643298734091 0.16345032107281471 0 -0.16143892687697861 0.15297757880860349 0 -0.16957058237235029 0.15706014103220159 0 -0.15739643298734091 0.16345032107281471 0 -0.15739643298734091 0.16345032107281471 0 -0.14328668257734811 0.16027624768954971 0 -0.15137732553605709 0.151327206515144 0 -0.15739643298734091 0.16345032107281471 0 -0.14328668257734811 0.16027624768954971 0 -0.14486789757586091 0.17296170189460039 0 -0.15945706984071351 0.1859548772310369 0 -0.14486789757586091 0.17296170189460039 0 -0.13647277472277031 0.1845562559318587 0 -0.15945706984071351 0.1859548772310369 0 -0.15739643298734091 0.16345032107281471 0 -0.14486789757586091 0.17296170189460039 0 -0.14486789757586091 0.17296170189460039 0 -0.13647277472277031 0.1845562559318587 0 -0.13070284914344249 0.16871892192106211 0 -0.13647277472277031 0.1845562559318587 0 -0.12370591698329771 0.18054928604797399 0 -0.1204142734464019 0.19655062799244949 0 -0.13647277472277031 0.1845562559318587 0 -0.13070284914344249 0.16871892192106211 0 -0.12370591698329771 0.18054928604797399 0 -0.14328668257734811 0.16027624768954971 0 -0.13070284914344249 0.16871892192106211 0 -0.13245731629992549 0.15466047758449719 0 -0.14328668257734811 0.16027624768954971 0 -0.14486789757586091 0.17296170189460039 0 -0.13070284914344249 0.16871892192106211 0 -0.13070284914344249 0.16871892192106211 0 -0.13245731629992549 0.15466047758449719 0 -0.11734218913390621 0.15943289103919139 0 -0.13245731629992549 0.15466047758449719 0 -0.13382083092405439 0.14197113414877341 0 -0.12317756879044529 0.14965397669910341 0 -0.13382083092405439 0.14197113414877341 0 -0.121445467508422 0.13656092897119679 0 -0.12317756879044529 0.14965397669910341 0 -0.13382083092405439 0.14197113414877341 0 -0.14148129772908011 0.14996872208924081 0 -0.14646433330801509 0.14160854450823951 0 -0.13245731629992549 0.15466047758449719 0 -0.13382083092405439 0.14197113414877341 0 -0.14148129772908011 0.14996872208924081 0 -0.14328668257734811 0.16027624768954971 0 -0.13245731629992549 0.15466047758449719 0 -0.14148129772908011 0.14996872208924081 0 -0.14328668257734811 0.16027624768954971 0 -0.14148129772908011 0.14996872208924081 0 -0.15137732553605709 0.151327206515144 0 -0.14148129772908011 0.14996872208924081 0 -0.14646433330801509 0.14160854450823951 0 -0.15137732553605709 0.151327206515144 0 -0.15960623237311281 0.14234128510969329 0 -0.14646433330801509 0.14160854450823951 0 -0.15137732553605709 0.151327206515144 0 -0.15960623237311281 0.14234128510969329 0 -0.14646433330801509 0.14160854450823951 0 -0.15168790313460401 0.13157208832919101 0 -0.14646433330801509 0.14160854450823951 0 -0.15168790313460401 0.13157208832919101 0 -0.14132510598383449 0.13367742705243929 0 -0.1436769000821792 0.1218582351064668 0 -0.15168790313460401 0.13157208832919101 0 -0.14132510598383449 0.13367742705243929 0 -0.1436769000821792 0.1218582351064668 0 -0.14132510598383449 0.13367742705243929 0 -0.13186633641382831 0.12962204322641471 0 -0.13382083092405439 0.14197113414877341 0 -0.14646433330801509 0.14160854450823951 0 -0.14132510598383449 0.13367742705243929 0 -0.13382083092405439 0.14197113414877341 0 -0.14132510598383449 0.13367742705243929 0 -0.13186633641382831 0.12962204322641471 0 -0.13382083092405439 0.14197113414877341 0 -0.13186633641382831 0.12962204322641471 0 -0.121445467508422 0.13656092897119679 0 -0.13186633641382831 0.12962204322641471 0 -0.121445467508422 0.13656092897119679 0 -0.12036468150963781 0.12182649508351021 0 -0.121445467508422 0.13656092897119679 0 -0.10334604606111709 0.12824003644960669 0 -0.1143415461076573 0.14448217252040441 0 -0.121445467508422 0.13656092897119679 0 -0.10334604606111709 0.12824003644960669 0 -0.12036468150963781 0.12182649508351021 0 -0.10334604606111709 0.12824003644960669 0 -0.093721944683534869 0.15580010149827581 0 -0.10334604606111709 0.12824003644960669 0 -0.1064123335060472 0.1509590886717854 0 -0.1143415461076573 0.14448217252040441 0 -0.10334604606111709 0.12824003644960669 0 -0.1064123335060472 0.1509590886717854 0 -0.093721944683534869 0.15580010149827581 0 -0.1064123335060472 0.1509590886717854 0 -0.093721944683534869 0.15580010149827581 0 -0.1064123335060472 0.1509590886717854 0 -0.1024818911830422 0.16182448000171401 0 -0.093721944683534869 0.15580010149827581 0 -0.1064123335060472 0.1509590886717854 0 -0.1143415461076573 0.14448217252040441 0 -0.11734218913390621 0.15943289103919139 0 -0.121445467508422 0.13656092897119679 0 -0.1143415461076573 0.14448217252040441 0 -0.12317756879044529 0.14965397669910341 0 -0.1143415461076573 0.14448217252040441 0 -0.12317756879044529 0.14965397669910341 0 -0.11734218913390621 0.15943289103919139 0 -0.13245731629992549 0.15466047758449719 0 -0.12317756879044529 0.14965397669910341 0 -0.11734218913390621 0.15943289103919139 0 -0.13070284914344249 0.16871892192106211 0 -0.11734218913390621 0.15943289103919139 0 -0.11756513628960211 0.17149899003473529 0 -0.11734218913390621 0.15943289103919139 0 -0.11756513628960211 0.17149899003473529 0 -0.10620568822260509 0.17146079828860519 0 -0.12370591698329771 0.18054928604797399 0 -0.10629147759945649 0.18425357192926459 0 -0.1204142734464019 0.19655062799244949 0 -0.11756513628960211 0.17149899003473529 0 -0.12370591698329771 0.18054928604797399 0 -0.10629147759945649 0.18425357192926459 0 -0.13070284914344249 0.16871892192106211 0 -0.11756513628960211 0.17149899003473529 0 -0.12370591698329771 0.18054928604797399 0 -0.11756513628960211 0.17149899003473529 0 -0.10629147759945649 0.18425357192926459 0 -0.10620568822260509 0.17146079828860519 0 -0.10629147759945649 0.18425357192926459 0 -0.10620568822260509 0.17146079828860519 0 -0.086627528716916452 0.1761160310434029 0 -0.10629147759945649 0.18425357192926459 0 -0.086627528716916452 0.1761160310434029 0 -0.09269499759914468 0.19032338220598169 0 -0.1024818911830422 0.16182448000171401 0 -0.10620568822260509 0.17146079828860519 0 -0.086627528716916452 0.1761160310434029 0 -0.1024818911830422 0.16182448000171401 0 -0.086627528716916452 0.1761160310434029 0 -0.093721944683534869 0.15580010149827581 0 -0.1064123335060472 0.1509590886717854 0 -0.11734218913390621 0.15943289103919139 0 -0.1024818911830422 0.16182448000171401 0 -0.11734218913390621 0.15943289103919139 0 -0.1024818911830422 0.16182448000171401 0 -0.10620568822260509 0.17146079828860519 0 -0.072210020714092188 0.1640062724293069 0 -0.093721944683534869 0.15580010149827581 0 -0.078636846078482814 0.15080234513287699 0 -0.086627528716916452 0.1761160310434029 0 -0.072210020714092188 0.1640062724293069 0 -0.093721944683534869 0.15580010149827581 0 -0.072210020714092188 0.1640062724293069 0 -0.093721944683534869 0.15580010149827581 0 -0.086627528716916452 0.1761160310434029 0 -0.093721944683534869 0.15580010149827581 0 -0.086627528716916452 0.1761160310434029 0 -0.074955771590847695 0.1834368659159091 0 -0.079533112750301851 0.19643196058853121 0 -0.086627528716916452 0.1761160310434029 0 -0.079533112750301851 0.19643196058853121 0 -0.074955771590847695 0.1834368659159091 0 -0.064388136038425178 0.17689434532462819 0 -0.072210020714092188 0.1640062724293069 0 -0.086627528716916452 0.1761160310434029 0 -0.074955771590847695 0.1834368659159091 0 -0.072210020714092188 0.1640062724293069 0 -0.074955771590847695 0.1834368659159091 0 -0.064388136038425178 0.17689434532462819 0 -0.059688655104113551 0.18792179959296451 0 -0.072210020714092188 0.1640062724293069 0 -0.064966715606029596 0.14801799307502991 0 -0.057738118466807688 0.15894625506770171 0 -0.072210020714092188 0.1640062724293069 0 -0.064966715606029596 0.14801799307502991 0 -0.078636846078482814 0.15080234513287699 0 -0.073216231198446641 0.14245195011691941 0 -0.064966715606029596 0.14801799307502991 0 -0.078636846078482814 0.15080234513287699 0 -0.073216231198446641 0.14245195011691941 0 -0.064966715606029596 0.14801799307502991 0 -0.066632897365564894 0.13287767712965881 0 -0.073216231198446641 0.14245195011691941 0 -0.066632897365564894 0.13287767712965881 0 -0.082628465743709301 0.13810978513011191 0 -0.066632897365564894 0.13287767712965881 0 -0.082628465743709301 0.13810978513011191 0 -0.079154850080665973 0.1184200787634784 0 -0.10334604606111709 0.12824003644960669 0 -0.082628465743709301 0.13810978513011191 0 -0.079154850080665973 0.1184200787634784 0 -0.082628465743709301 0.13810978513011191 0 -0.093721944683534869 0.15580010149827581 0 -0.078636846078482814 0.15080234513287699 0 -0.10334604606111709 0.12824003644960669 0 -0.082628465743709301 0.13810978513011191 0 -0.093721944683534869 0.15580010149827581 0 -0.073216231198446641 0.14245195011691941 0 -0.082628465743709301 0.13810978513011191 0 -0.078636846078482814 0.15080234513287699 0 -0.1121816457685484 0.23657108862201839 0 -0.095277421163422096 0.22907273870577841 0 -0.09302706786647455 0.24001215914932211 0 -0.093286781451782555 0.25248200310933011 0 -0.1121816457685484 0.23657108862201839 0 -0.09302706786647455 0.24001215914932211 0 -0.1121816457685484 0.23657108862201839 0 -0.09302706786647455 0.24001215914932211 0 -0.1296773909521125 0.25716922890260729 0 -0.13188547782902479 0.23303134600148889 0 -0.1121816457685484 0.23657108862201839 0 -0.13188547782902479 0.23303134600148889 0 -0.1121816457685484 0.23657108862201839 0 -0.1121816457685484 0.23657108862201839 0 -0.1166823523624451 0.21469224773493459 0 -0.1121816457685484 0.23657108862201839 0 -0.1225357551805947 0.2233964605668412 0 -0.1166823523624451 0.21469224773493459 0 -0.13188547782902479 0.23303134600148889 0 -0.1121816457685484 0.23657108862201839 0 -0.1225357551805947 0.2233964605668412 0 -0.095277421163422096 0.22907273870577841 0 -0.1166823523624451 0.21469224773493459 0 -0.1121816457685484 0.23657108862201839 0 -0.095277421163422096 0.22907273870577841 0 -0.1166823523624451 0.21469224773493459 0 -0.098327871329904046 0.20449196526272789 0 -0.117122629909506 0.2125519699369251 0 -0.095277421163422096 0.22907273870577841 0 -0.098327871329904046 0.20449196526272789 0 -0.1166823523624451 0.21469224773493459 0 -0.117122629909506 0.2125519699369251 0 -0.1204142734464019 0.19655062799244949 0 -0.098327871329904046 0.20449196526272789 0 -0.117122629909506 0.2125519699369251 0 -0.1204142734464019 0.19655062799244949 0 -0.117122629909506 0.2125519699369251 0 -0.11879840844595441 0.21327061619032281 0 -0.1204142734464019 0.19655062799244949 0 -0.098327871329904046 0.20449196526272789 0 -0.1166823523624451 0.21469224773493459 0 -0.117122629909506 0.2125519699369251 0 -0.1166823523624451 0.21469224773493459 0 -0.117122629909506 0.2125519699369251 0 -0.13313089149699919 0.2194170042854395 0 -0.1225357551805947 0.2233964605668412 0 -0.11879840844595441 0.21327061619032281 0 -0.1225357551805947 0.2233964605668412 0 -0.1166823523624451 0.21469224773493459 0 -0.11879840844595441 0.21327061619032281 0 -0.1166823523624451 0.21469224773493459 0 -0.117122629909506 0.2125519699369251 0 -0.11879840844595441 0.21327061619032281 0 -0.1166823523624451 0.21469224773493459 0 -0.11879840844595441 0.21327061619032281 0 -0.117122629909506 0.2125519699369251 0 -0.11879840844595441 0.21327061619032281 0 -0.12370591698329771 0.18054928604797399 0 -0.1204142734464019 0.19655062799244949 0 -0.10629147759945649 0.18425357192926459 0 -0.098327871329904046 0.20449196526272789 0 -0.1204142734464019 0.19655062799244949 0 -0.10629147759945649 0.18425357192926459 0 -0.098327871329904046 0.20449196526272789 0 -0.09269499759914468 0.19032338220598169 0 -0.098327871329904046 0.20449196526272789 0 -0.079533112750301851 0.19643196058853121 0 -0.09269499759914468 0.19032338220598169 0 -0.098327871329904046 0.20449196526272789 0 -0.079533112750301851 0.19643196058853121 0 -0.086627528716916452 0.1761160310434029 0 -0.079533112750301851 0.19643196058853121 0 -0.09269499759914468 0.19032338220598169 0 -0.074955771590847695 0.1834368659159091 0 -0.079533112750301851 0.19643196058853121 0 -0.059688655104113551 0.18792179959296451 0 -0.079533112750301851 0.19643196058853121 0 -0.059688655104113551 0.18792179959296451 0 -0.079533112750301851 0.19643196058853121 0 -0.061330002640318758 0.20461652326959431 0 -0.059688655104113551 0.18792179959296451 0 -0.079533112750301851 0.19643196058853121 0 -0.072704556690467076 0.2159865602144056 0 -0.061330002640318758 0.20461652326959431 0 -0.072704556690467076 0.2159865602144056 0 -0.055851620016787083 0.22117775824043759 0 -0.061330002640318758 0.20461652326959431 0 -0.079533112750301851 0.19643196058853121 0 -0.072704556690467076 0.2159865602144056 0 -0.095277421163422096 0.22907273870577841 0 -0.098327871329904046 0.20449196526272789 0 -0.072704556690467076 0.2159865602144056 0 -0.098327871329904046 0.20449196526272789 0 -0.079533112750301851 0.19643196058853121 0 -0.072704556690467076 0.2159865602144056 0 -0.095277421163422096 0.22907273870577841 0 -0.072704556690467076 0.2159865602144056 0 -0.073872489964400503 0.2434532296766245 0 -0.072704556690467076 0.2159865602144056 0 -0.065876000630632342 0.2355411598402801 0 -0.073872489964400503 0.2434532296766245 0 -0.072704556690467076 0.2159865602144056 0 -0.065876000630632342 0.2355411598402801 0 -0.072704556690467076 0.2159865602144056 0 -0.065876000630632342 0.2355411598402801 0 -0.055851620016787083 0.22117775824043759 0 -0.059047444570795582 0.25509575946615382 0 -0.065876000630632342 0.2355411598402801 0 -0.066191390364875119 0.24861362857770389 0 -0.065876000630632342 0.2355411598402801 0 -0.072263193561016764 0.24374233562569339 0 -0.073872489964400503 0.2434532296766245 0 -0.065876000630632342 0.2355411598402801 0 -0.066191390364875119 0.24861362857770389 0 -0.072263193561016764 0.24374233562569339 0 -0.066191390364875119 0.24861362857770389 0 -0.073872489964400503 0.2434532296766245 0 -0.082751972805153451 0.25019407668153493 0 -0.072935344474137062 0.2541079673458424 0 -0.073872489964400503 0.2434532296766245 0 -0.072935344474137062 0.2541079673458424 0 -0.066191390364875119 0.24861362857770389 0 -0.073872489964400503 0.2434532296766245 0 -0.066191390364875119 0.24861362857770389 0 -0.072263193561016764 0.24374233562569339 0 -0.073872489964400503 0.2434532296766245 0 -0.072263193561016764 0.24374233562569339 0 -0.073872489964400503 0.2434532296766245 0 -0.073872489964400503 0.2434532296766245 0 -0.09302706786647455 0.24001215914932211 0 -0.095277421163422096 0.22907273870577841 0 -0.073872489964400503 0.2434532296766245 0 -0.082751972805153451 0.25019407668153493 0 -0.073872489964400503 0.2434532296766245 0 -0.09302706786647455 0.24001215914932211 0 -0.095277421163422096 0.22907273870577841 0 -0.073872489964400503 0.2434532296766245 0 -0.09302706786647455 0.24001215914932211 0 -0.093286781451782555 0.25248200310933011 0 -0.082751972805153451 0.25019407668153493 0 -0.09302706786647455 0.24001215914932211 0 -0.034275869000636679 0.24884914989821069 0 -0.037162580874913448 0.23957425186318959 0 -0.039197402965606802 0.2477238199581453 0 -0.034275869000636679 0.24884914989821069 0 -0.037162580874913448 0.23957425186318959 0 -0.026032362202064389 0.24768713845238849 0 -0.037162580874913448 0.23957425186318959 0 -0.045036679799408327 0.2473423560733036 0 -0.048811310629491393 0.2376856642371751 0 -0.037162580874913448 0.23957425186318959 0 -0.039197402965606802 0.2477238199581453 0 -0.045036679799408327 0.2473423560733036 0 -0.041178788206509123 0.25155243823444212 0 -0.039197402965606802 0.2477238199581453 0 -0.045036679799408327 0.2473423560733036 0 -0.065876000630632342 0.2355411598402801 0 -0.050793007043487062 0.24783188033554601 0 -0.048811310629491393 0.2376856642371751 0 -0.059047444570795582 0.25509575946615382 0 -0.065876000630632342 0.2355411598402801 0 -0.050176839751681031 0.25141733800211702 0 -0.045036679799408327 0.2473423560733036 0 -0.050793007043487062 0.24783188033554601 0 -0.045036679799408327 0.2473423560733036 0 -0.050793007043487062 0.24783188033554601 0 -0.048811310629491393 0.2376856642371751 0 -0.059047444570795582 0.25509575946615382 0 -0.065876000630632342 0.2355411598402801 0 -0.050793007043487062 0.24783188033554601 0 -0.048811310629491393 0.2376856642371751 0 -0.055851620016787083 0.22117775824043759 0 -0.040523964295445317 0.22256780737264939 0 -0.065876000630632342 0.2355411598402801 0 -0.048811310629491393 0.2376856642371751 0 -0.055851620016787083 0.22117775824043759 0 -0.037162580874913448 0.23957425186318959 0 -0.048811310629491393 0.2376856642371751 0 -0.040523964295445317 0.22256780737264939 0 -0.037162580874913448 0.23957425186318959 0 -0.040523964295445317 0.22256780737264939 0 -0.02688050562954335 0.22474476636891089 0 -0.040523964295445317 0.22256780737264939 0 -0.046709119564914303 0.21042200924074991 0 -0.027728649057022329 0.2018023942854334 0 -0.040523964295445317 0.22256780737264939 0 -0.027728649057022329 0.2018023942854334 0 -0.02688050562954335 0.22474476636891089 0 -0.055851620016787083 0.22117775824043759 0 -0.046709119564914303 0.21042200924074991 0 -0.061330002640318758 0.20461652326959431 0 -0.055851620016787083 0.22117775824043759 0 -0.040523964295445317 0.22256780737264939 0 -0.046709119564914303 0.21042200924074991 0 -0.046709119564914303 0.21042200924074991 0 -0.061330002640318758 0.20461652326959431 0 -0.047496647047879731 0.19695683104163311 0 -0.047496647047879731 0.19695683104163311 0 -0.059688655104113551 0.18792179959296451 0 -0.039844197457924752 0.1794116385973987 0 -0.061330002640318758 0.20461652326959431 0 -0.047496647047879731 0.19695683104163311 0 -0.059688655104113551 0.18792179959296451 0 -0.047496647047879731 0.19695683104163311 0 -0.035619049848398469 0.19159864336426241 0 -0.027728649057022329 0.2018023942854334 0 -0.046709119564914303 0.21042200924074991 0 -0.047496647047879731 0.19695683104163311 0 -0.027728649057022329 0.2018023942854334 0 -0.047496647047879731 0.19695683104163311 0 -0.035619049848398469 0.19159864336426241 0 -0.039844197457924752 0.1794116385973987 0 -0.035619049848398469 0.19159864336426241 0 -0.027728649057022329 0.2018023942854334 0 -0.02918617277520227 0.18041861429135769 0 -0.027728649057022329 0.2018023942854334 0 -0.0285767924845013 0.17886002220195579 0 -0.027728649057022329 0.2018023942854334 0 -0.0285767924845013 0.17886002220195579 0 -0.02199024332441811 0.18735161151472579 0 -0.027728649057022329 0.2018023942854334 0 -0.013600580365509341 0.19211742209433361 0 -0.0088230138482604248 0.21081801240542919 0 -0.027728649057022329 0.2018023942854334 0 -0.013600580365509341 0.19211742209433361 0 -0.02199024332441811 0.18735161151472579 0 -0.013600580365509341 0.19211742209433361 0 -0.0088230138482604248 0.21081801240542919 0 0.0080851947112417864 0.1846781189199892 0 -0.027728649057022329 0.2018023942854334 0 -0.02688050562954335 0.22474476636891089 0 -0.027728649057022329 0.2018023942854334 0 -0.0088230138482604248 0.21081801240542919 0 -0.02688050562954335 0.22474476636891089 0 -0.0088230138482604248 0.21081801240542919 0 -0.02688050562954335 0.22474476636891089 0 -0.013187082754903771 0.22942608010406251 0 -0.02688050562954335 0.22474476636891089 0 -0.013187082754903771 0.22942608010406251 0 -0.019881501782636129 0.2427868029209157 0 -0.0088230138482604248 0.21081801240542919 0 -0.0003166448063192459 0.22929833062518251 0 -0.013187082754903771 0.22942608010406251 0 -0.0003166448063192459 0.22929833062518251 0 -0.013187082754903771 0.22942608010406251 0 -0.0094537253725339963 0.24027076958865309 0 -0.013187082754903771 0.22942608010406251 0 -0.0094537253725339963 0.24027076958865309 0 -0.019881501782636129 0.2427868029209157 0 -0.0003166448063192459 0.22929833062518251 0 -0.0094537253725339963 0.24027076958865309 0 0.00078604608867878457 0.24678879113798841 0 -0.013509398937038279 0.25463040593267511 0 -0.0094537253725339963 0.24027076958865309 0 0.00078604608867878457 0.24678879113798841 0 -0.013509398937038279 0.25463040593267511 0 -0.0094537253725339963 0.24027076958865309 0 -0.019881501782636129 0.2427868029209157 0 -0.02688050562954335 0.22474476636891089 0 -0.026032362202064389 0.24768713845238849 0 -0.02688050562954335 0.22474476636891089 0 -0.019881501782636129 0.2427868029209157 0 -0.026032362202064389 0.24768713845238849 0 -0.037162580874913448 0.23957425186318959 0 -0.02688050562954335 0.22474476636891089 0 -0.026032362202064389 0.24768713845238849 0 -0.03054651971650528 0.25103524046391112 0 -0.034275869000636679 0.24884914989821069 0 -0.026032362202064389 0.24768713845238849 0 -0.028860760065202461 0.25327469637357758 0 -0.019881501782636129 0.2427868029209157 0 -0.026032362202064389 0.24768713845238849 0 -0.039536619107634091 0.15435746120561111 0 -0.035321842941684757 0.14392227981181219 0 -0.04885388943951053 0.1468323728450269 0 -0.035321842941684757 0.14392227981181219 0 -0.043563312914885341 0.13517464378084071 0 -0.04885388943951053 0.1468323728450269 0 -0.039536619107634091 0.15435746120561111 0 -0.04885388943951053 0.1468323728450269 0 -0.047248236390982919 0.16009743375058491 0 -0.039536619107634091 0.15435746120561111 0 -0.035321842941684757 0.14392227981181219 0 -0.029424935911980261 0.15591765011847841 0 -0.035321842941684757 0.14392227981181219 0 -0.033174302736449071 0.13027882978672509 0 -0.043563312914885341 0.13517464378084071 0 -0.042654726280483037 0.1273768711899006 0 -0.043563312914885341 0.13517464378084071 0 -0.049694043820730213 0.12546306997878651 0 -0.033174302736449071 0.13027882978672509 0 -0.042654726280483037 0.1273768711899006 0 -0.044072443506286203 0.1206698917193947 0 -0.033174302736449071 0.13027882978672509 0 -0.042654726280483037 0.1273768711899006 0 -0.043563312914885341 0.13517464378084071 0 -0.043563312914885341 0.13517464378084071 0 -0.054719511258639081 0.1354264450286421 0 -0.04885388943951053 0.1468323728450269 0 -0.043563312914885341 0.13517464378084071 0 -0.049694043820730213 0.12546306997878651 0 -0.054719511258639081 0.1354264450286421 0 -0.049694043820730213 0.12546306997878651 0 -0.054719511258639081 0.1354264450286421 0 -0.06039129774897823 0.1224923682318263 0 -0.066632897365564894 0.13287767712965881 0 -0.054719511258639081 0.1354264450286421 0 -0.06039129774897823 0.1224923682318263 0 -0.064966715606029596 0.14801799307502991 0 -0.066632897365564894 0.13287767712965881 0 -0.054719511258639081 0.1354264450286421 0 -0.064966715606029596 0.14801799307502991 0 -0.054719511258639081 0.1354264450286421 0 -0.04885388943951053 0.1468323728450269 0 -0.064966715606029596 0.14801799307502991 0 -0.04885388943951053 0.1468323728450269 0 -0.057738118466807688 0.15894625506770171 0 -0.04885388943951053 0.1468323728450269 0 -0.057738118466807688 0.15894625506770171 0 -0.047248236390982919 0.16009743375058491 0 -0.072210020714092188 0.1640062724293069 0 -0.050698096744647238 0.17221244336033231 0 -0.064388136038425178 0.17689434532462819 0 -0.072210020714092188 0.1640062724293069 0 -0.050698096744647238 0.17221244336033231 0 -0.072210020714092188 0.1640062724293069 0 -0.057738118466807688 0.15894625506770171 0 -0.050698096744647238 0.17221244336033231 0 -0.057738118466807688 0.15894625506770171 0 -0.047248236390982919 0.16009743375058491 0 -0.050698096744647238 0.17221244336033231 0 -0.064388136038425178 0.17689434532462819 0 -0.059688655104113551 0.18792179959296451 0 -0.050698096744647238 0.17221244336033231 0 -0.059688655104113551 0.18792179959296451 0 -0.039844197457924752 0.1794116385973987 0 -0.059688655104113551 0.18792179959296451 0 -0.050698096744647238 0.17221244336033231 0 -0.039844197457924752 0.1794116385973987 0 -0.050698096744647238 0.17221244336033231 0 -0.02918617277520227 0.18041861429135769 0 -0.050698096744647238 0.17221244336033231 0 -0.037281092099841998 0.1676949431681245 0 -0.02918617277520227 0.18041861429135769 0 -0.050698096744647238 0.17221244336033231 0 -0.039844197457924752 0.1794116385973987 0 -0.02918617277520227 0.18041861429135769 0 -0.037281092099841998 0.1676949431681245 0 -0.02918617277520227 0.18041861429135769 0 -0.0285767924845013 0.17886002220195579 0 -0.035619049848398469 0.19159864336426241 0 -0.039844197457924752 0.1794116385973987 0 -0.02918617277520227 0.18041861429135769 0 -0.037281092099841998 0.1676949431681245 0 -0.0285767924845013 0.17886002220195579 0 -0.029424935911980261 0.15591765011847841 0 -0.039536619107634091 0.15435746120561111 0 -0.047248236390982919 0.16009743375058491 0 -0.037281092099841998 0.1676949431681245 0 -0.047248236390982919 0.16009743375058491 0 -0.050698096744647238 0.17221244336033231 0 -0.037281092099841998 0.1676949431681245 0 -0.039536619107634091 0.15435746120561111 0 -0.037281092099841998 0.1676949431681245 0 -0.029424935911980261 0.15591765011847841 0 -0.0285767924845013 0.17886002220195579 0 -0.029424935911980261 0.15591765011847841 0 -0.021529387543499829 0.16711262741444211 0 -0.0285767924845013 0.17886002220195579 0 -0.029424935911980261 0.15591765011847841 0 -0.021529387543499829 0.16711262741444211 0 -0.015166255009242289 0.1547596114985457 0 -0.029424935911980261 0.15591765011847841 0 -0.027728649057022329 0.2018023942854334 0 -0.02918617277520227 0.18041861429135769 0 -0.0285767924845013 0.17886002220195579 0 -0.0285767924845013 0.17886002220195579 0 -0.022079914062146631 0.17790193114126149 0 -0.02199024332441811 0.18735161151472579 0 -0.021529387543499829 0.16711262741444211 0 -0.0285767924845013 0.17886002220195579 0 -0.022079914062146631 0.17790193114126149 0 -0.021529387543499829 0.16711262741444211 0 -0.022079914062146631 0.17790193114126149 0 -0.016223232896167269 0.17828346343392201 0 -0.022079914062146631 0.17790193114126149 0 -0.016223232896167269 0.17828346343392201 0 -0.02199024332441811 0.18735161151472579 0 -0.013600580365509341 0.19211742209433361 0 -0.016223232896167269 0.17828346343392201 0 -0.02199024332441811 0.18735161151472579 0 -0.013600580365509341 0.19211742209433361 0 -0.016223232896167269 0.17828346343392201 0 0.0080851947112417864 0.1846781189199892 0 -0.016223232896167269 0.17828346343392201 0 -0.0063844341421704686 0.1671665448316203 0 0.0080851947112417864 0.1846781189199892 0 -0.021529387543499829 0.16711262741444211 0 -0.0063844341421704686 0.1671665448316203 0 -0.015166255009242289 0.1547596114985457 0 -0.0063844341421704686 0.1671665448316203 0 -0.0030735853369053862 0.1523147141600294 0 -0.015166255009242289 0.1547596114985457 0 -0.021529387543499829 0.16711262741444211 0 -0.016223232896167269 0.17828346343392201 0 -0.0063844341421704686 0.1671665448316203 0 -0.0063844341421704686 0.1671665448316203 0 -0.0030735853369053862 0.1523147141600294 0 0.0085080071840959951 0.16392486580065979 0 -0.0030735853369053862 0.1523147141600294 0 -0.010555977713924339 0.14227916237107949 0 -0.00096800065077765236 0.13369603841210301 0 -0.010555977713924339 0.14227916237107949 0 -0.015166255009242289 0.1547596114985457 0 -0.020603684105980551 0.1452182615090814 0 -0.0030735853369053862 0.1523147141600294 0 -0.010555977713924339 0.14227916237107949 0 -0.015166255009242289 0.1547596114985457 0 -0.015166255009242289 0.1547596114985457 0 -0.020603684105980551 0.1452182615090814 0 -0.029424935911980261 0.15591765011847841 0 -0.035321842941684757 0.14392227981181219 0 -0.020603684105980551 0.1452182615090814 0 -0.029424935911980261 0.15591765011847841 0 -0.033174302736449071 0.13027882978672509 0 -0.020603684105980551 0.1452182615090814 0 -0.02844693203283748 0.12394293298542031 0 -0.020603684105980551 0.1452182615090814 0 -0.01572584202194972 0.13237338506023161 0 -0.02844693203283748 0.12394293298542031 0 -0.020603684105980551 0.1452182615090814 0 -0.02844693203283748 0.12394293298542031 0 -0.035321842941684757 0.14392227981181219 0 -0.033174302736449071 0.13027882978672509 0 -0.020603684105980551 0.1452182615090814 0 -0.010555977713924339 0.14227916237107949 0 -0.020603684105980551 0.1452182615090814 0 -0.01572584202194972 0.13237338506023161 0 -0.00096800065077765236 0.13369603841210301 0 -0.018629090305235629 0.1181818214369309 0 -0.01572584202194972 0.13237338506023161 0 -0.00096800065077765236 0.13369603841210301 0 -0.018629090305235629 0.1181818214369309 0 -0.010555977713924339 0.14227916237107949 0 -0.01572584202194972 0.13237338506023161 0 -0.00096800065077765236 0.13369603841210301 0 -0.0026800463400507191 0.1173094583242295 0 -0.010869363267277939 0.1105403102559034 0 -0.018629090305235629 0.1181818214369309 0 -0.00096800065077765236 0.13369603841210301 0 -0.0026800463400507191 0.1173094583242295 0 -0.018629090305235629 0.1181818214369309 0 -0.010869363267277939 0.1105403102559034 0 -0.017287007168887571 0.10506811689412041 0 -0.018629090305235629 0.1181818214369309 0 -0.0026800463400507191 0.1173094583242295 0 -0.010869363267277939 0.1105403102559034 0 -0.001686238602976459 0.10732934986218851 0 -0.001686238602976459 0.10732934986218851 0 -0.0023530059837071501 0.098742106906744342 0 -0.0099325828239776592 0.1014021857749559 0 -0.010869363267277939 0.1105403102559034 0 -0.001686238602976459 0.10732934986218851 0 -0.0099325828239776592 0.1014021857749559 0 -0.0023530059837071501 0.098742106906744342 0 -0.00092041545904237763 0.09259409097327688 0 -0.0087315180311875479 0.090179240843459255 0 -0.0023530059837071501 0.098742106906744342 0 -0.0099325828239776592 0.1014021857749559 0 -0.0087315180311875479 0.090179240843459255 0 -0.0099325828239776592 0.1014021857749559 0 -0.016084067273906811 0.096382145040589409 0 -0.0087315180311875479 0.090179240843459255 0 -0.0099325828239776592 0.1014021857749559 0 -0.017287007168887571 0.10506811689412041 0 -0.016084067273906811 0.096382145040589409 0 -0.010869363267277939 0.1105403102559034 0 -0.0099325828239776592 0.1014021857749559 0 -0.017287007168887571 0.10506811689412041 0 -0.024472894110276571 0.1059020649361006 0 -0.018629090305235629 0.1181818214369309 0 -0.036290179959693913 0.1026676044617591 0 -0.017287007168887571 0.10506811689412041 0 -0.025685299007289459 0.097690716951592177 0 -0.024472894110276571 0.1059020649361006 0 -0.016084067273906811 0.096382145040589409 0 -0.025685299007289459 0.097690716951592177 0 -0.021142100104426839 0.089351891769854364 0 -0.017287007168887571 0.10506811689412041 0 -0.016084067273906811 0.096382145040589409 0 -0.025685299007289459 0.097690716951592177 0 -0.025685299007289459 0.097690716951592177 0 -0.029984688351381839 0.088725921695155793 0 -0.036290179959693913 0.1026676044617591 0 -0.025685299007289459 0.097690716951592177 0 -0.024472894110276571 0.1059020649361006 0 -0.036290179959693913 0.1026676044617591 0 -0.02844693203283748 0.12394293298542031 0 -0.018629090305235629 0.1181818214369309 0 -0.036290179959693913 0.1026676044617591 0 -0.018629090305235629 0.1181818214369309 0 -0.036290179959693913 0.1026676044617591 0 -0.01572584202194972 0.13237338506023161 0 -0.02844693203283748 0.12394293298542031 0 -0.018629090305235629 0.1181818214369309 0 -0.017287007168887571 0.10506811689412041 0 -0.024472894110276571 0.1059020649361006 0 -0.018629090305235629 0.1181818214369309 0 -0.010094729421848161 0.069813938637967296 0 -0.0047843932498527518 0.083558754877721325 0 -0.025224927858368561 0.073781434318475142 0 -0.0047843932498527518 0.083558754877721325 0 -0.0087315180311875479 0.090179240843459255 0 -0.025224927858368561 0.073781434318475142 0 -0.0047843932498527518 0.083558754877721325 0 -0.025224927858368561 0.073781434318475142 0 -0.0047843932498527518 0.083558754877721325 0 0.001138175510299308 0.086391697088443103 0 -0.0047843932498527518 0.083558754877721325 0 -0.0087315180311875479 0.090179240843459255 0 0.001138175510299308 0.086391697088443103 0 -0.00092041545904237763 0.09259409097327688 0 -0.0087315180311875479 0.090179240843459255 0 0.001138175510299308 0.086391697088443103 0 -0.016084067273906811 0.096382145040589409 0 -0.0087315180311875479 0.090179240843459255 0 -0.021142100104426839 0.089351891769854364 0 -0.0087315180311875479 0.090179240843459255 0 -0.021142100104426839 0.089351891769854364 0 -0.025224927858368561 0.073781434318475142 0 -0.025685299007289459 0.097690716951592177 0 -0.021142100104426839 0.089351891769854364 0 -0.029984688351381839 0.088725921695155793 0 -0.021142100104426839 0.089351891769854364 0 -0.029984688351381839 0.088725921695155793 0 -0.025224927858368561 0.073781434318475142 0 -0.010094729421848161 0.069813938637967296 0 -0.025224927858368561 0.073781434318475142 0 -0.019394451164015749 0.052875352388623273 0 -0.025224927858368561 0.073781434318475142 0 -0.043939105593365717 0.081919388005133362 0 -0.051588031227036701 0.061171171548507347 0 -0.025224927858368561 0.073781434318475142 0 -0.051588031227036701 0.061171171548507347 0 -0.029984688351381839 0.088725921695155793 0 -0.043939105593365717 0.081919388005133362 0 -0.036290179959693913 0.1026676044617591 0 -0.043939105593365717 0.081919388005133362 0 -0.050916392360139888 0.089819346673304407 0 -0.036290179959693913 0.1026676044617591 0 -0.043939105593365717 0.081919388005133362 0 -0.036290179959693913 0.1026676044617591 0 -0.029984688351381839 0.088725921695155793 0 -0.025224927858368561 0.073781434318475142 0 -0.043939105593365717 0.081919388005133362 0 -0.050916392360139888 0.089819346673304407 0 -0.058775836227469597 0.071896483967971797 0 -0.050916392360139888 0.089819346673304407 0 -0.058775836227469597 0.071896483967971797 0 -0.063536826324196272 0.078733045959702902 0 -0.043939105593365717 0.081919388005133362 0 -0.050916392360139888 0.089819346673304407 0 -0.058775836227469597 0.071896483967971797 0 -0.050916392360139888 0.089819346673304407 0 -0.064841770068670396 0.092009388573163098 0 -0.063536826324196272 0.078733045959702902 0 -0.050916392360139888 0.089819346673304407 0 -0.063536826324196272 0.078733045959702902 0 -0.043939105593365717 0.081919388005133362 0 -0.051588031227036701 0.061171171548507347 0 -0.043939105593365717 0.081919388005133362 0 -0.058775836227469597 0.071896483967971797 0 -0.051588031227036701 0.061171171548507347 0 -0.02844693203283748 0.12394293298542031 0 -0.042045347548294393 0.1100490882300147 0 -0.036290179959693913 0.1026676044617591 0 -0.033174302736449071 0.13027882978672509 0 -0.042045347548294393 0.1100490882300147 0 -0.02844693203283748 0.12394293298542031 0 -0.036290179959693913 0.1026676044617591 0 -0.033174302736449071 0.13027882978672509 0 -0.02844693203283748 0.12394293298542031 0 -0.042045347548294393 0.1100490882300147 0 -0.033174302736449071 0.13027882978672509 0 -0.042045347548294393 0.1100490882300147 0 -0.044072443506286203 0.1206698917193947 0 -0.042045347548294393 0.1100490882300147 0 -0.044072443506286203 0.1206698917193947 0 -0.052564192858311647 0.1143395004238357 0 -0.042654726280483037 0.1273768711899006 0 -0.049694043820730213 0.12546306997878651 0 -0.044072443506286203 0.1206698917193947 0 -0.050916392360139888 0.089819346673304407 0 -0.042045347548294393 0.1100490882300147 0 -0.050916392360139888 0.089819346673304407 0 -0.042045347548294393 0.1100490882300147 0 -0.036290179959693913 0.1026676044617591 0 -0.050916392360139888 0.089819346673304407 0 -0.036290179959693913 0.1026676044617591 0 -0.050916392360139888 0.089819346673304407 0 -0.042045347548294393 0.1100490882300147 0 -0.055208713150145902 0.102751246286561 0 -0.042045347548294393 0.1100490882300147 0 -0.055208713150145902 0.102751246286561 0 -0.052564192858311647 0.1143395004238357 0 -0.055208713150145902 0.102751246286561 0 -0.065675862915313007 0.1075389075324867 0 -0.064841770068670396 0.092009388573163098 0 -0.050916392360139888 0.089819346673304407 0 -0.055208713150145902 0.102751246286561 0 -0.064841770068670396 0.092009388573163098 0 -0.055208713150145902 0.102751246286561 0 -0.052564192858311647 0.1143395004238357 0 -0.065675862915313007 0.1075389075324867 0 -0.052564192858311647 0.1143395004238357 0 -0.06039129774897823 0.1224923682318263 0 -0.065675862915313007 0.1075389075324867 0 -0.049694043820730213 0.12546306997878651 0 -0.044072443506286203 0.1206698917193947 0 -0.052564192858311647 0.1143395004238357 0 -0.049694043820730213 0.12546306997878651 0 -0.052564192858311647 0.1143395004238357 0 -0.06039129774897823 0.1224923682318263 0 -0.06039129774897823 0.1224923682318263 0 -0.079154850080665973 0.1184200787634784 0 -0.065675862915313007 0.1075389075324867 0 -0.066632897365564894 0.13287767712965881 0 -0.06039129774897823 0.1224923682318263 0 -0.079154850080665973 0.1184200787634784 0 -0.10334604606111709 0.12824003644960669 0 -0.079154850080665973 0.1184200787634784 0 -0.09395610009940196 0.1061308875038746 0 -0.07920402875836359 0.094477839074487549 0 -0.095837290397081387 0.088770327387604098 0 -0.09395610009940196 0.1061308875038746 0 -0.079154850080665973 0.1184200787634784 0 -0.07920402875836359 0.094477839074487549 0 -0.09395610009940196 0.1061308875038746 0 -0.079154850080665973 0.1184200787634784 0 -0.07920402875836359 0.094477839074487549 0 -0.065675862915313007 0.1075389075324867 0 -0.07920402875836359 0.094477839074487549 0 -0.065675862915313007 0.1075389075324867 0 -0.064841770068670396 0.092009388573163098 0 -0.064841770068670396 0.092009388573163098 0 -0.063536826324196272 0.078733045959702902 0 -0.07499383936065171 0.080759170305679334 0 -0.07920402875836359 0.094477839074487549 0 -0.064841770068670396 0.092009388573163098 0 -0.07499383936065171 0.080759170305679334 0 -0.058775836227469597 0.071896483967971797 0 -0.066635280094797994 0.053973621262638563 0 -0.058775836227469597 0.071896483967971797 0 -0.072821582829785694 0.069529896726757204 0 -0.066635280094797994 0.053973621262638563 0 -0.058775836227469597 0.071896483967971797 0 -0.063536826324196272 0.078733045959702902 0 -0.072821582829785694 0.069529896726757204 0 -0.063536826324196272 0.078733045959702902 0 -0.07499383936065171 0.080759170305679334 0 -0.072821582829785694 0.069529896726757204 0 -0.088169894934220616 0.074683787418281439 0 -0.097135761110077629 0.054889735762075363 0 -0.088169894934220616 0.074683787418281439 0 -0.097135761110077629 0.054889735762075363 0 -0.082226194531849664 0.059522338770801132 0 -0.072821582829785694 0.069529896726757204 0 -0.088169894934220616 0.074683787418281439 0 -0.082226194531849664 0.059522338770801132 0 -0.07499383936065171 0.080759170305679334 0 -0.072821582829785694 0.069529896726757204 0 -0.088169894934220616 0.074683787418281439 0 -0.07920402875836359 0.094477839074487549 0 -0.088169894934220616 0.074683787418281439 0 -0.095837290397081387 0.088770327387604098 0 -0.07920402875836359 0.094477839074487549 0 -0.07499383936065171 0.080759170305679334 0 -0.088169894934220616 0.074683787418281439 0 -0.07920402875836359 0.094477839074487549 0 -0.088169894934220616 0.074683787418281439 0 -0.088169894934220616 0.074683787418281439 0 -0.095837290397081387 0.088770327387604098 0 -0.10442725878177959 0.07188957059860604 0 -0.108774270798733 0.083631490045669221 0 -0.095837290397081387 0.088770327387604098 0 -0.11297014743870309 0.10067997140093859 0 -0.108774270798733 0.083631490045669221 0 -0.095837290397081387 0.088770327387604098 0 -0.10442725878177959 0.07188957059860604 0 -0.088169894934220616 0.074683787418281439 0 -0.10442725878177959 0.07188957059860604 0 -0.097135761110077629 0.054889735762075363 0 -0.10442725878177959 0.07188957059860604 0 -0.12259424881628921 0.07311990635227042 0 -0.113375305712122 0.055561248308253271 0 -0.108774270798733 0.083631490045669221 0 -0.10442725878177959 0.07188957059860604 0 -0.12259424881628921 0.07311990635227042 0 -0.108774270798733 0.083631490045669221 0 -0.12259424881628921 0.07311990635227042 0 -0.11297014743870309 0.10067997140093859 0 -0.12831916191688239 0.087299412599157813 0 -0.12259424881628921 0.07311990635227042 0 -0.11297014743870309 0.10067997140093859 0 -0.12259424881628921 0.07311990635227042 0 -0.11297014743870309 0.10067997140093859 0 -0.12831916191688239 0.087299412599157813 0 -0.11297014743870309 0.10067997140093859 0 -0.12498508506313841 0.10687730506524611 0 -0.10334604606111709 0.12824003644960669 0 -0.11297014743870309 0.10067997140093859 0 -0.12036468150963781 0.12182649508351021 0 -0.11297014743870309 0.10067997140093859 0 -0.12498508506313841 0.10687730506524611 0 -0.12036468150963781 0.12182649508351021 0 -0.10334604606111709 0.12824003644960669 0 -0.11297014743870309 0.10067997140093859 0 -0.10334604606111709 0.12824003644960669 0 -0.11297014743870309 0.10067997140093859 0 -0.09395610009940196 0.1061308875038746 0 -0.095837290397081387 0.088770327387604098 0 -0.11297014743870309 0.10067997140093859 0 -0.09395610009940196 0.1061308875038746 0 -0.10868431907899501 0.0222919598246368 0 -0.098370341644408901 0.016872546016086669 0 -0.091602837798278741 0.029140992434583679 0 -0.10868431907899501 0.0222919598246368 0 -0.1086842494538159 0.029393997777206519 0 -0.091602837798278741 0.029140992434583679 0 -0.1086842494538159 0.029393997777206519 0 -0.106101627285936 0.035095684105869933 0 -0.091602837798278741 0.029140992434583679 0 -0.10868431907899501 0.0222919598246368 0 -0.091602837798278741 0.029140992434583679 0 -0.10868431907899501 0.0222919598246368 0 -0.098370341644408901 0.016872546016086669 0 -0.1086844222207676 0.011771099516097561 0 -0.10868431907899501 0.0222919598246368 0 -0.1086844222207676 0.011771099516097561 0 -0.10868431907899501 0.0222919598246368 0 -0.1086842494538159 0.029393997777206519 0 -0.096474233828364037 -0.0068040047894571357 0 -0.1086844222207676 0.011771099516097561 0 -0.098370341644408901 0.016872546016086669 0 -0.096670047024322206 0.006693395324862475 0 -0.1086844222207676 0.011771099516097561 0 -0.098370341644408901 0.016872546016086669 0 -0.096670047024322206 0.006693395324862475 0 -0.090603107185942056 0.010457335366242909 0 -0.096474233828364037 -0.0068040047894571357 0 -0.096670047024322206 0.006693395324862475 0 -0.1086844222207676 0.011771099516097561 0 -0.096474233828364037 -0.0068040047894571357 0 -0.096670047024322206 0.006693395324862475 0 -0.088518055910885796 0.001011111111938902 0 -0.1086844222207676 0.011771099516097561 0 -0.11341023564281411 0.01896038066573752 0 -0.11882490356417411 -0.003904598360146466 0 -0.1086844222207676 0.011771099516097561 0 -0.11815406400030549 0.0084873731821777793 0 -0.1086844222207676 0.011771099516097561 0 -0.11815406400030549 0.0084873731821777793 0 -0.11341023564281411 0.01896038066573752 0 -0.12905663811260151 0.014123424841729791 0 -0.11815406400030549 0.0084873731821777793 0 -0.11341023564281411 0.01896038066573752 0 -0.11815406400030549 0.0084873731821777793 0 -0.11341023564281411 0.01896038066573752 0 -0.11882490356417411 -0.003904598360146466 0 -0.1291944312396914 0.0041045353414499199 0 -0.11815406400030549 0.0084873731821777793 0 -0.12905663811260151 0.014123424841729791 0 -0.1252633286195389 0.0259300678444884 0 -0.1126150706721803 0.020715876029509681 0 -0.1252633286195389 0.0259300678444884 0 -0.1086842494538159 0.029393997777206519 0 -0.10868420566762239 0.033860359434047978 0 -0.1252633286195389 0.0259300678444884 0 -0.1086842494538159 0.029393997777206519 0 -0.1126150706721803 0.020715876029509681 0 -0.12905663811260151 0.014123424841729791 0 -0.1126150706721803 0.020715876029509681 0 -0.1252633286195389 0.0259300678444884 0 -0.10868420566762239 0.033860359434047978 0 -0.12905663811260151 0.014123424841729791 0 -0.11341023564281411 0.01896038066573752 0 -0.1126150706721803 0.020715876029509681 0 -0.10868431907899501 0.0222919598246368 0 -0.1086844222207676 0.011771099516097561 0 -0.11341023564281411 0.01896038066573752 0 -0.10868431907899501 0.0222919598246368 0 -0.1126150706721803 0.020715876029509681 0 -0.10868431907899501 0.0222919598246368 0 -0.11341023564281411 0.01896038066573752 0 -0.1126150706721803 0.020715876029509681 0 -0.11341023564281411 0.01896038066573752 0 -0.1126150706721803 0.020715876029509681 0 -0.10868431907899501 0.0222919598246368 0 -0.1086842494538159 0.029393997777206519 0 -0.1126150706721803 0.020715876029509681 0 -0.1086842494538159 0.029393997777206519 0 -0.1126150706721803 0.020715876029509681 0 -0.13221835019387521 0.045559841303602473 0 -0.1179997896040296 0.037241119001395047 0 -0.1151488860501188 0.044120637816367179 0 -0.1252633286195389 0.0259300678444884 0 -0.1179997896040296 0.037241119001395047 0 -0.10868420566762239 0.033860359434047978 0 -0.1179997896040296 0.037241119001395047 0 -0.1151488860501188 0.044120637816367179 0 -0.1086841774889921 0.036734688608468111 0 -0.1151488860501188 0.044120637816367179 0 -0.1086841774889921 0.036734688608468111 0 -0.1080891515294494 0.04528039892020698 0 -0.1179997896040296 0.037241119001395047 0 -0.10868420566762239 0.033860359434047978 0 -0.1086841774889921 0.036734688608468111 0 -0.13221835019387521 0.045559841303602473 0 -0.12259424881628921 0.07311990635227042 0 -0.113375305712122 0.055561248308253271 0 -0.13221835019387521 0.045559841303602473 0 -0.1151488860501188 0.044120637816367179 0 -0.113375305712122 0.055561248308253271 0 -0.1151488860501188 0.044120637816367179 0 -0.113375305712122 0.055561248308253271 0 -0.1080891515294494 0.04528039892020698 0 -0.113375305712122 0.055561248308253271 0 -0.097135761110077629 0.054889735762075363 0 -0.1080891515294494 0.04528039892020698 0 -0.10442725878177959 0.07188957059860604 0 -0.113375305712122 0.055561248308253271 0 -0.097135761110077629 0.054889735762075363 0 -0.097135761110077629 0.054889735762075363 0 -0.106101627285936 0.035095684105869933 0 -0.1080891515294494 0.04528039892020698 0 -0.097135761110077629 0.054889735762075363 0 -0.106101627285936 0.035095684105869933 0 -0.097135761110077629 0.054889735762075363 0 -0.106101627285936 0.035095684105869933 0 -0.086368453690366956 0.044534652684254217 0 -0.106101627285936 0.035095684105869933 0 -0.086368453690366956 0.044534652684254217 0 -0.091602837798278741 0.029140992434583679 0 -0.106101627285936 0.035095684105869933 0 -0.086368453690366956 0.044534652684254217 0 -0.106101627285936 0.035095684105869933 0 -0.1086841774889921 0.036734688608468111 0 -0.1080891515294494 0.04528039892020698 0 -0.1086842494538159 0.029393997777206519 0 -0.10868420566762239 0.033860359434047978 0 -0.106101627285936 0.035095684105869933 0 -0.10868420566762239 0.033860359434047978 0 -0.1086842494538159 0.029393997777206519 0 -0.106101627285936 0.035095684105869933 0 -0.10868420566762239 0.033860359434047978 0 -0.1086842494538159 0.029393997777206519 0 -0.106101627285936 0.035095684105869933 0 -0.10868420566762239 0.033860359434047978 0 -0.1086841774889921 0.036734688608468111 0 -0.106101627285936 0.035095684105869933 0 -0.10868420566762239 0.033860359434047978 0 -0.1086841774889921 0.036734688608468111 0 -0.07558498835758741 0.033564493701655353 0 -0.074521356517562476 0.035990025044530652 0 -0.091602837798278741 0.029140992434583679 0 -0.074521356517562476 0.035990025044530652 0 -0.091602837798278741 0.029140992434583679 0 -0.086368453690366956 0.044534652684254217 0 -0.074521356517562476 0.035990025044530652 0 -0.091602837798278741 0.029140992434583679 0 -0.086368453690366956 0.044534652684254217 0 -0.082226194531849664 0.059522338770801132 0 -0.066635280094797994 0.053973621262638563 0 -0.097135761110077629 0.054889735762075363 0 -0.086368453690366956 0.044534652684254217 0 -0.082226194531849664 0.059522338770801132 0 -0.086368453690366956 0.044534652684254217 0 -0.066635280094797994 0.053973621262638563 0 -0.072821582829785694 0.069529896726757204 0 -0.082226194531849664 0.059522338770801132 0 -0.066635280094797994 0.053973621262638563 0 -0.074521356517562476 0.035990025044530652 0 -0.058503465934432827 0.042412597720955333 0 -0.068943562013502546 0.032255417571422182 0 -0.064574802698611003 0.025943695368219478 0 -0.058503465934432827 0.042412597720955333 0 -0.074521356517562476 0.035990025044530652 0 -0.068943562013502546 0.032255417571422182 0 -0.058503465934432827 0.042412597720955333 0 -0.066635280094797994 0.053973621262638563 0 -0.074521356517562476 0.035990025044530652 0 -0.058503465934432827 0.042412597720955333 0 -0.066635280094797994 0.053973621262638563 0 -0.074521356517562476 0.035990025044530652 0 -0.086368453690366956 0.044534652684254217 0 -0.066635280094797994 0.053973621262638563 0 -0.074521356517562476 0.035990025044530652 0 -0.07558498835758741 0.033564493701655353 0 -0.074521356517562476 0.035990025044530652 0 -0.068943562013502546 0.032255417571422182 0 -0.07558498835758741 0.033564493701655353 0 -0.074521356517562476 0.035990025044530652 0 -0.068943562013502546 0.032255417571422182 0 -0.064574802698611003 0.025943695368219478 0 -0.073323153203615599 0.024906305652105699 0 -0.064574802698611003 0.025943695368219478 0 -0.070646139462790539 0.0094747930154841092 0 -0.064574802698611003 0.025943695368219478 0 -0.073323153203615599 0.024906305652105699 0 -0.070646139462790539 0.0094747930154841092 0 -0.064574802698611003 0.025943695368219478 0 -0.070646139462790539 0.0094747930154841092 0 -0.054137166241978563 0.01499649795477126 0 -0.073323153203615599 0.024906305652105699 0 -0.080648623158005014 0.02068761432773053 0 -0.070646139462790539 0.0094747930154841092 0 -0.07558498835758741 0.033564493701655353 0 -0.068943562013502546 0.032255417571422182 0 -0.073323153203615599 0.024906305652105699 0 -0.07558498835758741 0.033564493701655353 0 -0.073323153203615599 0.024906305652105699 0 -0.082220898185533978 0.025652939356513541 0 -0.07558498835758741 0.033564493701655353 0 -0.082220898185533978 0.025652939356513541 0 -0.091602837798278741 0.029140992434583679 0 -0.073323153203615599 0.024906305652105699 0 -0.082220898185533978 0.025652939356513541 0 -0.080648623158005014 0.02068761432773053 0 -0.080648623158005014 0.02068761432773053 0 -0.087535047032796715 0.01885721442770209 0 -0.081764474224611694 0.0103318590650552 0 -0.082220898185533978 0.025652939356513541 0 -0.080648623158005014 0.02068761432773053 0 -0.087535047032796715 0.01885721442770209 0 -0.098370341644408901 0.016872546016086669 0 -0.087535047032796715 0.01885721442770209 0 -0.091602837798278741 0.029140992434583679 0 -0.082220898185533978 0.025652939356513541 0 -0.087535047032796715 0.01885721442770209 0 -0.091602837798278741 0.029140992434583679 0 -0.088518055910885796 0.001011111111938902 0 -0.090603107185942056 0.010457335366242909 0 -0.081764474224611694 0.0103318590650552 0 -0.096670047024322206 0.006693395324862475 0 -0.088518055910885796 0.001011111111938902 0 -0.090603107185942056 0.010457335366242909 0 -0.087535047032796715 0.01885721442770209 0 -0.090603107185942056 0.010457335366242909 0 -0.081764474224611694 0.0103318590650552 0 -0.098370341644408901 0.016872546016086669 0 -0.087535047032796715 0.01885721442770209 0 -0.090603107185942056 0.010457335366242909 0 -0.078334814199318203 -0.002763550018114088 0 -0.088518055910885796 0.001011111111938902 0 -0.081764474224611694 0.0103318590650552 0 -0.078334814199318203 -0.002763550018114088 0 -0.081764474224611694 0.0103318590650552 0 -0.070646139462790539 0.0094747930154841092 0 -0.067452598589598109 -0.0051396610207635326 0 -0.05314374056246722 -0.0011078366443659951 0 -0.070646139462790539 0.0094747930154841092 0 -0.078334814199318203 -0.002763550018114088 0 -0.067452598589598109 -0.0051396610207635326 0 -0.070646139462790539 0.0094747930154841092 0 -0.080648623158005014 0.02068761432773053 0 -0.081764474224611694 0.0103318590650552 0 -0.070646139462790539 0.0094747930154841092 0 -0.05314374056246722 -0.0011078366443659951 0 -0.070646139462790539 0.0094747930154841092 0 -0.054137166241978563 0.01499649795477126 0 -0.064574802698611003 0.025943695368219478 0 -0.054137166241978563 0.01499649795477126 0 -0.051479177151407637 0.02901892216642327 0 -0.064574802698611003 0.025943695368219478 0 -0.051479177151407637 0.02901892216642327 0 -0.055034278840522692 0.036919159612053422 0 -0.054137166241978563 0.01499649795477126 0 -0.051479177151407637 0.02901892216642327 0 -0.045752118447198641 0.022486949746481969 0 -0.045752118447198641 0.022486949746481969 0 -0.040021524222800441 0.029842175019524721 0 -0.036235149607516573 0.01641997732291554 0 -0.054137166241978563 0.01499649795477126 0 -0.045752118447198641 0.022486949746481969 0 -0.036235149607516573 0.01641997732291554 0 -0.051479177151407637 0.02901892216642327 0 -0.045752118447198641 0.022486949746481969 0 -0.040021524222800441 0.029842175019524721 0 -0.040021524222800441 0.029842175019524721 0 -0.036235149607516573 0.01641997732291554 0 -0.03063881180234183 0.027977595990517121 0 -0.05314374056246722 -0.0011078366443659951 0 -0.054137166241978563 0.01499649795477126 0 -0.02986916218455692 0.00093512753027480411 0 -0.054137166241978563 0.01499649795477126 0 -0.02986916218455692 0.00093512753027480411 0 -0.054137166241978563 0.01499649795477126 0 -0.036235149607516573 0.01641997732291554 0 -0.02986916218455692 0.00093512753027480411 0 -0.051588031227036701 0.061171171548507347 0 -0.056321252896382921 0.043287583210436562 0 -0.058503465934432827 0.042412597720955333 0 -0.066635280094797994 0.053973621262638563 0 -0.051588031227036701 0.061171171548507347 0 -0.058503465934432827 0.042412597720955333 0 -0.058775836227469597 0.071896483967971797 0 -0.066635280094797994 0.053973621262638563 0 -0.051588031227036701 0.061171171548507347 0 -0.051588031227036701 0.061171171548507347 0 -0.048084362210970018 0.048506802192702231 0 -0.056321252896382921 0.043287583210436562 0 -0.051588031227036701 0.061171171548507347 0 -0.058503465934432827 0.042412597720955333 0 -0.066635280094797994 0.053973621262638563 0 -0.051588031227036701 0.061171171548507347 0 -0.064574802698611003 0.025943695368219478 0 -0.058503465934432827 0.042412597720955333 0 -0.064574802698611003 0.025943695368219478 0 -0.058503465934432827 0.042412597720955333 0 -0.055034278840522692 0.036919159612053422 0 -0.056321252896382921 0.043287583210436562 0 -0.055034278840522692 0.036919159612053422 0 -0.04591643982308477 0.039643699128053468 0 -0.048084362210970018 0.048506802192702231 0 -0.056321252896382921 0.043287583210436562 0 -0.04591643982308477 0.039643699128053468 0 -0.056321252896382921 0.043287583210436562 0 -0.058503465934432827 0.042412597720955333 0 -0.055034278840522692 0.036919159612053422 0 -0.056321252896382921 0.043287583210436562 0 -0.058503465934432827 0.042412597720955333 0 -0.051479177151407637 0.02901892216642327 0 -0.055034278840522692 0.036919159612053422 0 -0.04591643982308477 0.039643699128053468 0 -0.040021524222800441 0.029842175019524721 0 -0.03178153062986272 0.039245191628270552 0 -0.04591643982308477 0.039643699128053468 0 -0.051479177151407637 0.02901892216642327 0 -0.040021524222800441 0.029842175019524721 0 -0.04591643982308477 0.039643699128053468 0 -0.040021524222800441 0.029842175019524721 0 -0.03178153062986272 0.039245191628270552 0 -0.03063881180234183 0.027977595990517121 0 -0.03178153062986272 0.039245191628270552 0 -0.04591643982308477 0.039643699128053468 0 -0.038511724897375373 0.049924754883811463 0 -0.048084362210970018 0.048506802192702231 0 -0.04591643982308477 0.039643699128053468 0 -0.038511724897375373 0.049924754883811463 0 -0.025224927858368561 0.073781434318475142 0 -0.051588031227036701 0.061171171548507347 0 -0.038511724897375373 0.049924754883811463 0 -0.051588031227036701 0.061171171548507347 0 -0.048084362210970018 0.048506802192702231 0 -0.038511724897375373 0.049924754883811463 0 -0.03178153062986272 0.039245191628270552 0 -0.038511724897375373 0.049924754883811463 0 -0.019394451164015749 0.052875352388623273 0 -0.025224927858368561 0.073781434318475142 0 -0.038511724897375373 0.049924754883811463 0 -0.019394451164015749 0.052875352388623273 0 -0.03178153062986272 0.039245191628270552 0 -0.019394451164015749 0.052875352388623273 0 -0.02033676481494506 0.035452109267522833 0 -0.03178153062986272 0.039245191628270552 0 -0.02033676481494506 0.035452109267522833 0 -0.03063881180234183 0.027977595990517121 0 -0.0055155519870559947 0.043415263487139623 0 -0.007545586830714132 0.02826159655138423 0 0.0090443642049707791 0.034401988067768292 0 -0.019394451164015749 0.052875352388623273 0 -0.02033676481494506 0.035452109267522833 0 -0.0055155519870559947 0.043415263487139623 0 -0.02033676481494506 0.035452109267522833 0 -0.0055155519870559947 0.043415263487139623 0 -0.007545586830714132 0.02826159655138423 0 -0.019394451164015749 0.052875352388623273 0 -0.0055155519870559947 0.043415263487139623 0 -0.002301178751836312 0.057485792433887448 0 -0.010094729421848161 0.069813938637967296 0 -0.019394451164015749 0.052875352388623273 0 -0.002301178751836312 0.057485792433887448 0 -0.021570220396010292 0.0083113083359250533 0 -0.024819089736584359 0.018928526714351981 0 -0.0091074989120523125 0.01187870620834572 0 -0.021570220396010292 0.0083113083359250533 0 -0.02986916218455692 0.00093512753027480411 0 -0.01307847104267023 0.001682871512254519 0 -0.036235149607516573 0.01641997732291554 0 -0.021570220396010292 0.0083113083359250533 0 -0.024819089736584359 0.018928526714351981 0 -0.036235149607516573 0.01641997732291554 0 -0.021570220396010292 0.0083113083359250533 0 -0.02986916218455692 0.00093512753027480411 0 -0.02033676481494506 0.035452109267522833 0 -0.024819089736584359 0.018928526714351981 0 -0.007545586830714132 0.02826159655138423 0 -0.036235149607516573 0.01641997732291554 0 -0.024819089736584359 0.018928526714351981 0 -0.03063881180234183 0.027977595990517121 0 -0.02033676481494506 0.035452109267522833 0 -0.024819089736584359 0.018928526714351981 0 -0.03063881180234183 0.027977595990517121 0 -0.024819089736584359 0.018928526714351981 0 -0.007545586830714132 0.02826159655138423 0 -0.0091074989120523125 0.01187870620834572 0 -0.007545586830714132 0.02826159655138423 0 -0.0091074989120523125 0.01187870620834572 0 0.01131525294236692 0.01502849756313805 0 -0.021570220396010292 0.0083113083359250533 0 -0.0091074989120523125 0.01187870620834572 0 -0.01307847104267023 0.001682871512254519 0 -0.0091074989120523125 0.01187870620834572 0 -0.01307847104267023 0.001682871512254519 0 0.0013368076600828139 0.00064641566715705325 0 0.0013368076600828139 0.00064641566715705325 0 0.01131525294236692 0.01502849756313805 0 0.017202183584489831 -0.00165383889496219 0 -0.0091074989120523125 0.01187870620834572 0 0.0013368076600828139 0.00064641566715705325 0 0.01131525294236692 0.01502849756313805 0 -0.007545586830714132 0.02826159655138423 0 0.01131525294236692 0.01502849756313805 0 0.0090443642049707791 0.034401988067768292 0 0.01131525294236692 0.01502849756313805 0 0.030314467033418759 0.022914020889482599 0 0.0090443642049707791 0.034401988067768292 0 0.027816065546242441 0.0086543597504839531 0 0.017202183584489831 -0.00165383889496219 0 0.039156041060281373 -0.0063405088962643318 0 0.01131525294236692 0.01502849756313805 0 0.030314467033418759 0.022914020889482599 0 0.027816065546242441 0.0086543597504839531 0 0.01131525294236692 0.01502849756313805 0 0.027816065546242441 0.0086543597504839531 0 0.017202183584489831 -0.00165383889496219 0 -0.002301178751836312 0.057485792433887448 0 0.010342632402674591 0.051620203392647758 0 0.018705060752044381 0.067219935534496913 0 -0.0055155519870559947 0.043415263487139623 0 -0.002301178751836312 0.057485792433887448 0 0.010342632402674591 0.051620203392647758 0 -0.0055155519870559947 0.043415263487139623 0 0.010342632402674591 0.051620203392647758 0 0.0090443642049707791 0.034401988067768292 0 0.010342632402674591 0.051620203392647758 0 0.0090443642049707791 0.034401988067768292 0 0.024792305864775269 0.042186719846534007 0 0.030314467033418759 0.022914020889482599 0 0.0090443642049707791 0.034401988067768292 0 0.024792305864775269 0.042186719846534007 0 0.04211242653980999 0.051052730384725797 0 0.018705060752044381 0.067219935534496913 0 0.024792305864775269 0.042186719846534007 0 0.04211242653980999 0.051052730384725797 0 0.018705060752044381 0.067219935534496913 0 0.010342632402674591 0.051620203392647758 0 0.024792305864775269 0.042186719846534007 0 0.018705060752044381 0.067219935534496913 0 0.024792305864775269 0.042186719846534007 0 0.04211242653980999 0.051052730384725797 0 0.047908148831452363 0.028926183586987848 0 0.030314467033418759 0.022914020889482599 0 0.024792305864775269 0.042186719846534007 0 0.047908148831452363 0.028926183586987848 0 0.04211242653980999 0.051052730384725797 0 0.065519792327575571 0.034885525234954723 0 0.04211242653980999 0.051052730384725797 0 0.065519792327575571 0.034885525234954723 0 0.070112824696668866 0.047921667263493777 0 0.04211242653980999 0.051052730384725797 0 0.047908148831452363 0.028926183586987848 0 0.065519792327575571 0.034885525234954723 0 0.04211242653980999 0.051052730384725797 0 0.057516148265934652 0.062038588379671182 0 0.043870352276893072 0.072547356422293721 0 0.04211242653980999 0.051052730384725797 0 0.057516148265934652 0.062038588379671182 0 0.070112824696668866 0.047921667263493777 0 0.027816065546242441 0.0086543597504839531 0 0.041092383110655363 0.013323628091025641 0 0.039156041060281373 -0.0063405088962643318 0 0.041092383110655363 0.013323628091025641 0 0.059645236190275362 0.0145065955261905 0 0.039156041060281373 -0.0063405088962643318 0 0.030314467033418759 0.022914020889482599 0 0.027816065546242441 0.0086543597504839531 0 0.041092383110655363 0.013323628091025641 0 0.030314467033418759 0.022914020889482599 0 0.041092383110655363 0.013323628091025641 0 0.047908148831452363 0.028926183586987848 0 0.047908148831452363 0.028926183586987848 0 0.06140945254390668 0.025034214395326 0 0.065519792327575571 0.034885525234954723 0 0.041092383110655363 0.013323628091025641 0 0.047908148831452363 0.028926183586987848 0 0.059645236190275362 0.0145065955261905 0 0.047908148831452363 0.028926183586987848 0 0.06140945254390668 0.025034214395326 0 0.059645236190275362 0.0145065955261905 0 0.059645236190275362 0.0145065955261905 0 0.039156041060281373 -0.0063405088962643318 0 0.07046445119507376 0.019381762022810171 0 0.070816077693478641 -0.009158143217873338 0 0.059645236190275362 0.0145065955261905 0 0.07046445119507376 0.019381762022810171 0 0.070816077693478641 -0.009158143217873338 0 0.07046445119507376 0.019381762022810171 0 0.094115934799620465 0.002956992047629543 0 0.070816077693478641 -0.009158143217873338 0 0.07046445119507376 0.019381762022810171 0 0.090758605498639719 0.033499335305823767 0 0.094115934799620465 0.002956992047629543 0 0.06140945254390668 0.025034214395326 0 0.059645236190275362 0.0145065955261905 0 0.07046445119507376 0.019381762022810171 0 0.06140945254390668 0.025034214395326 0 0.07046445119507376 0.019381762022810171 0 0.065519792327575571 0.034885525234954723 0 0.07046445119507376 0.019381762022810171 0 0.070112824696668866 0.047921667263493777 0 0.090758605498639719 0.033499335305823767 0 0.07046445119507376 0.019381762022810171 0 0.070112824696668866 0.047921667263493777 0 0.07046445119507376 0.019381762022810171 0 0.065519792327575571 0.034885525234954723 0 0.070112824696668866 0.047921667263493777 0 0.070112824696668866 0.047921667263493777 0 0.069761198198263985 0.076461572504177178 0 0.057516148265934652 0.062038588379671182 0 0.070112824696668866 0.047921667263493777 0 0.069761198198263985 0.076461572504177178 0 0.070112824696668866 0.047921667263493777 0 0.094841862682265479 0.056875809283352813 0 0.069761198198263985 0.076461572504177178 0 0.070112824696668866 0.047921667263493777 0 0.090758605498639719 0.033499335305823767 0 0.094841862682265479 0.056875809283352813 0 0.090758605498639719 0.033499335305823767 0 0.1091203502907839 0.044890400588431273 0 0.094841862682265479 0.056875809283352813 0 0.090758605498639719 0.033499335305823767 0 0.1091203502907839 0.044890400588431273 0 0.11205610120770269 0.02148849400253016 0 0.1091203502907839 0.044890400588431273 0 0.094841862682265479 0.056875809283352813 0 0.11187978735429489 0.065560952420802121 0 0.1091203502907839 0.044890400588431273 0 0.11187978735429489 0.065560952420802121 0 0.12661665692874949 0.054581172971564437 0 0.1091203502907839 0.044890400588431273 0 0.13635288112719929 0.035740320573991811 0 0.12661665692874949 0.054581172971564437 0 0.1091203502907839 0.044890400588431273 0 0.11205610120770269 0.02148849400253016 0 0.13635288112719929 0.035740320573991811 0 0.11205610120770269 0.02148849400253016 0 0.13622699799421389 0.01171634775034593 0 0.1181245711307409 -0.01222909671881825 0 0.11205610120770269 0.02148849400253016 0 0.094115934799620465 0.002956992047629543 0 0.1181245711307409 -0.01222909671881825 0 0.090758605498639719 0.033499335305823767 0 0.11205610120770269 0.02148849400253016 0 0.094115934799620465 0.002956992047629543 0 0.11455352190873851 0.1008041347564587 0 0.093485130716933651 0.086255446843363184 0 0.092128398751601809 0.1156350844033736 0 0.11455352190873851 0.1008041347564587 0 0.092128398751601809 0.1156350844033736 0 0.1167558334748582 0.12638472335056161 0 0.11455352190873851 0.1008041347564587 0 0.1167558334748582 0.12638472335056161 0 0.13365954943985389 0.10583369982579691 0 0.11455352190873851 0.1008041347564587 0 0.1163820690046866 0.08231591411283562 0 0.13362653152931531 0.087902504541129606 0 0.1163820690046866 0.08231591411283562 0 0.11187978735429489 0.065560952420802121 0 0.1310097943044751 0.070561523775904744 0 0.11187978735429489 0.065560952420802121 0 0.12661665692874949 0.054581172971564437 0 0.1310097943044751 0.070561523775904744 0 0.1163820690046866 0.08231591411283562 0 0.11187978735429489 0.065560952420802121 0 0.093485130716933651 0.086255446843363184 0 0.094841862682265479 0.056875809283352813 0 0.11187978735429489 0.065560952420802121 0 0.093485130716933651 0.086255446843363184 0 0.094841862682265479 0.056875809283352813 0 0.093485130716933651 0.086255446843363184 0 0.11455352190873851 0.1008041347564587 0 0.1163820690046866 0.08231591411283562 0 0.093485130716933651 0.086255446843363184 0 0.094841862682265479 0.056875809283352813 0 0.093485130716933651 0.086255446843363184 0 0.069761198198263985 0.076461572504177178 0 0.093485130716933651 0.086255446843363184 0 0.069761198198263985 0.076461572504177178 0 0.069409571699859091 0.1050014777448607 0 0.069761198198263985 0.076461572504177178 0 0.069409571699859091 0.1050014777448607 0 0.049406517695206861 0.091341084456523502 0 0.069761198198263985 0.076461572504177178 0 0.069409571699859091 0.1050014777448607 0 0.093485130716933651 0.086255446843363184 0 0.092128398751601809 0.1156350844033736 0 0.093485130716933651 0.086255446843363184 0 0.069409571699859091 0.1050014777448607 0 0.092128398751601809 0.1156350844033736 0 0.069409571699859091 0.1050014777448607 0 0.069057945201454224 0.1335413829855443 0 0.069409571699859091 0.1050014777448607 0 0.055693576731866229 0.12065951591280299 0 0.069057945201454224 0.1335413829855443 0 0.069409571699859091 0.1050014777448607 0 0.092128398751601809 0.1156350844033736 0 0.069057945201454224 0.1335413829855443 0 0.069409571699859091 0.1050014777448607 0 0.055693576731866229 0.12065951591280299 0 0.049772540779466398 0.1078846446585774 0 0.055693576731866229 0.12065951591280299 0 0.049772540779466398 0.1078846446585774 0 0.043454187182237737 0.1231772993404657 0 0.069409571699859091 0.1050014777448607 0 0.049772540779466398 0.1078846446585774 0 0.049406517695206861 0.091341084456523502 0 0.049772540779466398 0.1078846446585774 0 0.034040126559311448 0.1002226823188109 0 0.049406517695206861 0.091341084456523502 0 0.049772540779466398 0.1078846446585774 0 0.034040126559311448 0.1002226823188109 0 0.035301321676678848 0.1132640601754991 0 0.035301321676678848 0.1132640601754991 0 0.031603539470721101 0.12335595826277949 0 0.043454187182237737 0.1231772993404657 0 0.049772540779466398 0.1078846446585774 0 0.035301321676678848 0.1132640601754991 0 0.043454187182237737 0.1231772993404657 0 0.057516148265934652 0.062038588379671182 0 0.069761198198263985 0.076461572504177178 0 0.043870352276893072 0.072547356422293721 0 0.069761198198263985 0.076461572504177178 0 0.049406517695206861 0.091341084456523502 0 0.043870352276893072 0.072547356422293721 0 0.049406517695206861 0.091341084456523502 0 0.043870352276893072 0.072547356422293721 0 0.02958531665744717 0.085928773090421143 0 0.034040126559311448 0.1002226823188109 0 0.049406517695206861 0.091341084456523502 0 0.02958531665744717 0.085928773090421143 0 0.04211242653980999 0.051052730384725797 0 0.043870352276893072 0.072547356422293721 0 0.018705060752044381 0.067219935534496913 0 0.043870352276893072 0.072547356422293721 0 0.018705060752044381 0.067219935534496913 0 0.02958531665744717 0.085928773090421143 0 0.018705060752044381 0.067219935534496913 0 0.02958531665744717 0.085928773090421143 0 0.01447722466854655 0.086613725078604584 0 0.02958531665744717 0.085928773090421143 0 0.01447722466854655 0.086613725078604584 0 0.018785028097272709 0.097425650586625737 0 -0.0047843932498527518 0.083558754877721325 0 0.018705060752044381 0.067219935534496913 0 0.001138175510299308 0.086391697088443103 0 0.018705060752044381 0.067219935534496913 0 0.01447722466854655 0.086613725078604584 0 0.001138175510299308 0.086391697088443103 0 0.01447722466854655 0.086613725078604584 0 0.018785028097272709 0.097425650586625737 0 0.00626468666842588 0.095063319054460804 0 -0.00092041545904237763 0.09259409097327688 0 0.001138175510299308 0.086391697088443103 0 0.00626468666842588 0.095063319054460804 0 0.01447722466854655 0.086613725078604584 0 0.001138175510299308 0.086391697088443103 0 0.00626468666842588 0.095063319054460804 0 -0.010094729421848161 0.069813938637967296 0 -0.0047843932498527518 0.083558754877721325 0 0.018705060752044381 0.067219935534496913 0 -0.010094729421848161 0.069813938637967296 0 -0.002301178751836312 0.057485792433887448 0 0.018705060752044381 0.067219935534496913 0 -0.0047843932498527518 0.083558754877721325 0 0.018705060752044381 0.067219935534496913 0 0.021012537877372721 0.1136421372766425 0 0.01050613594836323 0.1219748504031691 0 0.019456660463996332 0.1327980879482277 0 0.031603539470721101 0.12335595826277949 0 0.021012537877372721 0.1136421372766425 0 0.019456660463996332 0.1327980879482277 0 0.035301321676678848 0.1132640601754991 0 0.031603539470721101 0.12335595826277949 0 0.021012537877372721 0.1136421372766425 0 0.021012537877372721 0.1136421372766425 0 0.018785028097272709 0.097425650586625737 0 0.0095323385132711005 0.103492141275567 0 0.034040126559311448 0.1002226823188109 0 0.035301321676678848 0.1132640601754991 0 0.021012537877372721 0.1136421372766425 0 0.034040126559311448 0.1002226823188109 0 0.021012537877372721 0.1136421372766425 0 0.018785028097272709 0.097425650586625737 0 0.034040126559311448 0.1002226823188109 0 0.02958531665744717 0.085928773090421143 0 0.018785028097272709 0.097425650586625737 0 0.018785028097272709 0.097425650586625737 0 0.0095323385132711005 0.103492141275567 0 0.00626468666842588 0.095063319054460804 0 -0.0023530059837071501 0.098742106906744342 0 0.0095323385132711005 0.103492141275567 0 0.00626468666842588 0.095063319054460804 0 -0.0023530059837071501 0.098742106906744342 0 -0.00092041545904237763 0.09259409097327688 0 0.00626468666842588 0.095063319054460804 0 -0.001686238602976459 0.10732934986218851 0 -0.0023530059837071501 0.098742106906744342 0 0.0095323385132711005 0.103492141275567 0 -0.001686238602976459 0.10732934986218851 0 0.0095323385132711005 0.103492141275567 0 0.0061852282838836094 0.1124898966357307 0 -0.0026800463400507191 0.1173094583242295 0 -0.001686238602976459 0.10732934986218851 0 0.0061852282838836094 0.1124898966357307 0 -0.00096800065077765236 0.13369603841210301 0 -0.0026800463400507191 0.1173094583242295 0 0.01050613594836323 0.1219748504031691 0 0.021012537877372721 0.1136421372766425 0 0.0061852282838836094 0.1124898966357307 0 0.01050613594836323 0.1219748504031691 0 0.021012537877372721 0.1136421372766425 0 0.0095323385132711005 0.103492141275567 0 0.0061852282838836094 0.1124898966357307 0 -0.0026800463400507191 0.1173094583242295 0 0.0061852282838836094 0.1124898966357307 0 0.01050613594836323 0.1219748504031691 0 -0.00096800065077765236 0.13369603841210301 0 0.01050613594836323 0.1219748504031691 0 0.019456660463996332 0.1327980879482277 0 -0.00096800065077765236 0.13369603841210301 0 0.019456660463996332 0.1327980879482277 0 0.016526064189811271 0.1407433743883667 0 0.031603539470721101 0.12335595826277949 0 0.019456660463996332 0.1327980879482277 0 0.039496390879510533 0.13430704427718351 0 0.019456660463996332 0.1327980879482277 0 0.016526064189811271 0.1407433743883667 0 0.022576509302280161 0.1455063239738606 0 0.029396999684776909 0.15087691968618619 0 0.022333724574653709 0.1531633248391133 0 0.03340960743062743 0.15708947718765731 0 0.029396999684776909 0.15087691968618619 0 0.022576509302280161 0.1455063239738606 0 0.022333724574653709 0.1531633248391133 0 0.029396999684776909 0.15087691968618619 0 0.022576509302280161 0.1455063239738606 0 0.032065031142810153 0.14596012806264891 0 0.019456660463996332 0.1327980879482277 0 0.022576509302280161 0.1455063239738606 0 0.032065031142810153 0.14596012806264891 0 0.016526064189811271 0.1407433743883667 0 0.022576509302280161 0.1455063239738606 0 0.016693089003680339 0.14921025538727509 0 0.016693089003680339 0.14921025538727509 0 0.022333724574653709 0.1531633248391133 0 0.014777277314474519 0.1579447741833363 0 0.022576509302280161 0.1455063239738606 0 0.016693089003680339 0.14921025538727509 0 0.022333724574653709 0.1531633248391133 0 -0.00096800065077765236 0.13369603841210301 0 0.016693089003680339 0.14921025538727509 0 -0.0030735853369053862 0.1523147141600294 0 -0.00096800065077765236 0.13369603841210301 0 0.0071873575029135616 0.1514181295886807 0 -0.00096800065077765236 0.13369603841210301 0 0.016526064189811271 0.1407433743883667 0 0.016693089003680339 0.14921025538727509 0 -0.00096800065077765236 0.13369603841210301 0 0.016693089003680339 0.14921025538727509 0 0.0071873575029135616 0.1514181295886807 0 0.016693089003680339 0.14921025538727509 0 0.0071873575029135616 0.1514181295886807 0 0.014777277314474519 0.1579447741833363 0 -0.0030735853369053862 0.1523147141600294 0 0.0071873575029135616 0.1514181295886807 0 0.0085080071840959951 0.16392486580065979 0 0.014777277314474519 0.1579447741833363 0 0.0085080071840959951 0.16392486580065979 0 0.022411695568990649 0.16812682744983021 0 0.0071873575029135616 0.1514181295886807 0 0.014777277314474519 0.1579447741833363 0 0.0085080071840959951 0.16392486580065979 0 -0.0063844341421704686 0.1671665448316203 0 0.0085080071840959951 0.16392486580065979 0 0.0080851947112417864 0.1846781189199892 0 0.0085080071840959951 0.16392486580065979 0 0.0080851947112417864 0.1846781189199892 0 0.022411695568990649 0.16812682744983021 0 0.022411695568990649 0.16812682744983021 0 0.037641972249252052 0.16825265058296879 0 0.030713705276702689 0.1905912713821318 0 0.0080851947112417864 0.1846781189199892 0 0.022411695568990649 0.16812682744983021 0 0.030713705276702689 0.1905912713821318 0 0.022333724574653709 0.1531633248391133 0 0.014777277314474519 0.1579447741833363 0 0.022411695568990649 0.16812682744983021 0 0.022333724574653709 0.1531633248391133 0 0.037641972249252052 0.16825265058296879 0 0.022333724574653709 0.1531633248391133 0 0.022411695568990649 0.16812682744983021 0 0.037641972249252052 0.16825265058296879 0 0.022333724574653709 0.1531633248391133 0 0.03340960743062743 0.15708947718765731 0 0.037641972249252052 0.16825265058296879 0 0.03340960743062743 0.15708947718765731 0 0.037641972249252052 0.16825265058296879 0 0.043062170252137932 0.16028749519830349 0 0.03340960743062743 0.15708947718765731 0 0.043062170252137932 0.16028749519830349 0 0.03660012597351308 0.15266534436765081 0 0.037641972249252052 0.16825265058296879 0 0.043062170252137932 0.16028749519830349 0 0.055720812218779399 0.16398507385210701 0 0.037641972249252052 0.16825265058296879 0 0.052950219923850309 0.18334197632682431 0 0.030713705276702689 0.1905912713821318 0 0.037641972249252052 0.16825265058296879 0 0.052950219923850309 0.18334197632682431 0 0.052950219923850309 0.18334197632682431 0 0.055720812218779399 0.16398507385210701 0 0.068526985958265882 0.1766369021136929 0 0.055720812218779399 0.16398507385210701 0 0.044081489583532439 0.14743968808721969 0 0.068706318703058836 0.162081288226228 0 0.037641972249252052 0.16825265058296879 0 0.052950219923850309 0.18334197632682431 0 0.055720812218779399 0.16398507385210701 0 0.043062170252137932 0.16028749519830349 0 0.055720812218779399 0.16398507385210701 0 0.042914638479267658 0.15133324559054659 0 0.055720812218779399 0.16398507385210701 0 0.042914638479267658 0.15133324559054659 0 0.055720812218779399 0.16398507385210701 0 0.068526985958265882 0.1766369021136929 0 0.044081489583532439 0.14743968808721969 0 0.068706318703058836 0.162081288226228 0 0.055720812218779399 0.16398507385210701 0 0.042914638479267658 0.15133324559054659 0 0.044081489583532439 0.14743968808721969 0 0.053931548719100733 0.14577270442166659 0 0.044081489583532439 0.14743968808721969 0 0.068706318703058836 0.162081288226228 0 0.053931548719100733 0.14577270442166659 0 0.060667243902651553 0.144068433248664 0 0.068706318703058836 0.162081288226228 0 0.053931548719100733 0.14577270442166659 0 0.046804833781012543 0.13995541035482359 0 0.044081489583532439 0.14743968808721969 0 0.053931548719100733 0.14577270442166659 0 0.060667243902651553 0.144068433248664 0 0.052548468348746158 0.1344380125310371 0 0.060667243902651553 0.144068433248664 0 0.052548468348746158 0.1344380125310371 0 0.069057945201454224 0.1335413829855443 0 0.055693576731866229 0.12065951591280299 0 0.052548468348746158 0.1344380125310371 0 0.069057945201454224 0.1335413829855443 0 0.055693576731866229 0.12065951591280299 0 0.043454187182237737 0.1231772993404657 0 0.052548468348746158 0.1344380125310371 0 0.053931548719100733 0.14577270442166659 0 0.052548468348746158 0.1344380125310371 0 0.046804833781012543 0.13995541035482359 0 0.046804833781012543 0.13995541035482359 0 0.039496390879510533 0.13430704427718351 0 0.044081489583532439 0.14743968808721969 0 0.019456660463996332 0.1327980879482277 0 0.044081489583532439 0.14743968808721969 0 0.019456660463996332 0.1327980879482277 0 0.039496390879510533 0.13430704427718351 0 0.044081489583532439 0.14743968808721969 0 0.052548468348746158 0.1344380125310371 0 0.046804833781012543 0.13995541035482359 0 0.039496390879510533 0.13430704427718351 0 0.043454187182237737 0.1231772993404657 0 0.052548468348746158 0.1344380125310371 0 0.039496390879510533 0.13430704427718351 0 0.031603539470721101 0.12335595826277949 0 0.043454187182237737 0.1231772993404657 0 0.039496390879510533 0.13430704427718351 0 0.019456660463996332 0.1327980879482277 0 0.032065031142810153 0.14596012806264891 0 0.044081489583532439 0.14743968808721969 0 0.032065031142810153 0.14596012806264891 0 0.03912970843553748 0.14958802321536341 0 0.044081489583532439 0.14743968808721969 0 0.029396999684776909 0.15087691968618619 0 0.032065031142810153 0.14596012806264891 0 0.03660012597351308 0.15266534436765081 0 0.029396999684776909 0.15087691968618619 0 0.03340960743062743 0.15708947718765731 0 0.03660012597351308 0.15266534436765081 0 0.032065031142810153 0.14596012806264891 0 0.03660012597351308 0.15266534436765081 0 0.03912970843553748 0.14958802321536341 0 0.03912970843553748 0.14958802321536341 0 0.042914638479267658 0.15133324559054659 0 0.044081489583532439 0.14743968808721969 0 0.043062170252137932 0.16028749519830349 0 0.03660012597351308 0.15266534436765081 0 0.042914638479267658 0.15133324559054659 0 0.03660012597351308 0.15266534436765081 0 0.03912970843553748 0.14958802321536341 0 0.042914638479267658 0.15133324559054659 0 -0.0003166448063192459 0.22929833062518251 0 0.02074561315948352 0.23989236757757401 0 0.00078604608867878457 0.24678879113798841 0 0.02074561315948352 0.23989236757757401 0 0.00078604608867878457 0.24678879113798841 0 0.013123440841508641 0.25580196675434841 0 -0.0003166448063192459 0.22929833062518251 0 0.02074561315948352 0.23989236757757401 0 0.014415403935362661 0.21228524324878159 0 0.02074561315948352 0.23989236757757401 0 0.014415403935362661 0.21228524324878159 0 0.02074561315948352 0.23989236757757401 0 0.014415403935362661 0.21228524324878159 0 0.032381361487006682 0.21417603169712471 0 0.014415403935362661 0.21228524324878159 0 0.030713705276702689 0.1905912713821318 0 0.032381361487006682 0.21417603169712471 0 -0.0088230138482604248 0.21081801240542919 0 -0.0003166448063192459 0.22929833062518251 0 0.014415403935362661 0.21228524324878159 0 -0.0088230138482604248 0.21081801240542919 0 0.0080851947112417864 0.1846781189199892 0 0.014415403935362661 0.21228524324878159 0 0.0080851947112417864 0.1846781189199892 0 0.014415403935362661 0.21228524324878159 0 0.0080851947112417864 0.1846781189199892 0 0.014415403935362661 0.21228524324878159 0 0.030713705276702689 0.1905912713821318 0 0.052950219923850309 0.18334197632682431 0 0.030713705276702689 0.1905912713821318 0 0.04974328895074337 0.20568151984717681 0 0.052950219923850309 0.18334197632682431 0 0.04974328895074337 0.20568151984717681 0 0.068258467598486666 0.19843130207064111 0 0.052950219923850309 0.18334197632682431 0 0.068258467598486666 0.19843130207064111 0 0.04974328895074337 0.20568151984717681 0 0.067971562753977047 0.22171804841545931 0 0.068258467598486666 0.19843130207064111 0 0.04974328895074337 0.20568151984717681 0 0.046184416664399222 0.2258304891908787 0 0.067971562753977047 0.22171804841545931 0 0.04974328895074337 0.20568151984717681 0 0.032381361487006682 0.21417603169712471 0 0.046184416664399222 0.2258304891908787 0 0.030713705276702689 0.1905912713821318 0 0.04974328895074337 0.20568151984717681 0 0.032381361487006682 0.21417603169712471 0 0.02074561315948352 0.23989236757757401 0 0.032381361487006682 0.21417603169712471 0 0.046184416664399222 0.2258304891908787 0 0.046184416664399222 0.2258304891908787 0 0.05597643677099591 0.23893569992543581 0 0.067971562753977047 0.22171804841545931 0 0.046184416664399222 0.2258304891908787 0 0.05597643677099591 0.23893569992543581 0 0.047127946614086987 0.24996446111788881 0 0.067684657909432247 0.24500479476027689 0 0.056540995624820033 0.25261720487182782 0 0.05597643677099591 0.23893569992543581 0 0.067684657909432247 0.24500479476027689 0 0.056540995624820033 0.25261720487182782 0 0.05597643677099591 0.23893569992543581 0 0.047127946614086987 0.24996446111788881 0 0.056540995624820033 0.25261720487182782 0 0.02074561315948352 0.23989236757757401 0 0.046184416664399222 0.2258304891908787 0 0.034451152271647488 0.24664222207921541 0 0.046184416664399222 0.2258304891908787 0 0.047127946614086987 0.24996446111788881 0 0.046184416664399222 0.2258304891908787 0 0.047127946614086987 0.24996446111788881 0 0.034451152271647488 0.24664222207921541 0 0.081808183827857719 0.23535679316384431 0 0.096376220560316098 0.24709182360332529 0 0.081311918929848126 0.25262264126969791 0 0.081808183827857719 0.23535679316384431 0 0.095931709746281082 0.22570879156740861 0 0.096376220560316098 0.24709182360332529 0 0.081808183827857719 0.23535679316384431 0 0.067684657909432247 0.24500479476027689 0 0.081311918929848126 0.25262264126969791 0 0.05597643677099591 0.23893569992543581 0 0.067684657909432247 0.24500479476027689 0 0.067971562753977047 0.22171804841545931 0 0.081808183827857719 0.23535679316384431 0 0.067684657909432247 0.24500479476027689 0 0.067684657909432247 0.24500479476027689 0 0.067971562753977047 0.22171804841545931 0 0.081808183827857719 0.23535679316384431 0 0.067971562753977047 0.22171804841545931 0 0.082095088672363897 0.21207004681904509 0 0.081808183827857719 0.23535679316384431 0 0.067684657909432247 0.24500479476027689 0 0.067971562753977047 0.22171804841545931 0 0.081808183827857719 0.23535679316384431 0 0.082095088672363897 0.21207004681904509 0 0.095931709746281082 0.22570879156740861 0 0.081808183827857719 0.23535679316384431 0 0.095931709746281082 0.22570879156740861 0 0.082095088672363897 0.21207004681904509 0 0.095931709746281082 0.22570879156740861 0 0.087853186589706853 0.20821356491253001 0 0.088404508343005936 0.19627485210498871 0 0.095165577136686982 0.21299946717437729 0 0.087853186589706853 0.20821356491253001 0 0.082095088672363897 0.21207004681904509 0 0.088404508343005936 0.19627485210498871 0 0.082095088672363897 0.21207004681904509 0 0.095165577136686982 0.21299946717437729 0 0.095931709746281082 0.22570879156740861 0 0.087853186589706853 0.20821356491253001 0 0.082095088672363897 0.21207004681904509 0 0.095165577136686982 0.21299946717437729 0 0.067971562753977047 0.22171804841545931 0 0.068258467598486666 0.19843130207064111 0 0.067971562753977047 0.22171804841545931 0 0.082095088672363897 0.21207004681904509 0 0.068258467598486666 0.19843130207064111 0 0.082095088672363897 0.21207004681904509 0 0.068258467598486666 0.19843130207064111 0 0.068258467598486666 0.19843130207064111 0 0.088404508343005936 0.19627485210498871 0 0.068526985958265882 0.1766369021136929 0 0.068258467598486666 0.19843130207064111 0 0.068526985958265882 0.1766369021136929 0 0.082095088672363897 0.21207004681904509 0 0.068258467598486666 0.19843130207064111 0 0.088404508343005936 0.19627485210498871 0 0.087853186589706853 0.20821356491253001 0 0.088404508343005936 0.19627485210498871 0 0.088404508343005936 0.19627485210498871 0 0.1090954601060144 0.21671642767616919 0 0.11123775428268851 0.18736992150245441 0 0.1090954601060144 0.21671642767616919 0 0.11123775428268851 0.18736992150245441 0 0.1330605737444378 0.20034548348151471 0 0.11123775428268851 0.18736992150245441 0 0.1330605737444378 0.20034548348151471 0 0.1090954601060144 0.21671642767616919 0 0.1330605737444378 0.20034548348151471 0 0.088404508343005936 0.19627485210498871 0 0.1090954601060144 0.21671642767616919 0 0.095165577136686982 0.21299946717437729 0 0.088404508343005936 0.19627485210498871 0 0.1090954601060144 0.21671642767616919 0 0.1090954601060144 0.21671642767616919 0 0.095165577136686982 0.21299946717437729 0 0.095931709746281082 0.22570879156740861 0 0.1090954601060144 0.21671642767616919 0 0.095931709746281082 0.22570879156740861 0 0.1216419531253209 0.2291117050005208 0 0.1090954601060144 0.21671642767616919 0 0.095931709746281082 0.22570879156740861 0 0.1090954601060144 0.21671642767616919 0 0.1216419531253209 0.2291117050005208 0 0.1339040667011808 0.22010809859798591 0 0.095931709746281082 0.22570879156740861 0 0.1216419531253209 0.2291117050005208 0 0.1137556677469518 0.24327785068076879 0 0.1090954601060144 0.21671642767616919 0 0.1216419531253209 0.2291117050005208 0 0.1216419531253209 0.2291117050005208 0 0.1137556677469518 0.24327785068076879 0 0.13577324987587541 0.24088922869785701 0 0.095931709746281082 0.22570879156740861 0 0.1137556677469518 0.24327785068076879 0 0.096376220560316098 0.24709182360332529 0 0.095931709746281082 0.22570879156740861 0 0.1137556677469518 0.24327785068076879 0 0.092128398751601809 0.1156350844033736 0 0.090771666786269994 0.14501472196338391 0 0.069057945201454224 0.1335413829855443 0 0.092128398751601809 0.1156350844033736 0 0.090771666786269994 0.14501472196338391 0 0.060667243902651553 0.144068433248664 0 0.069057945201454224 0.1335413829855443 0 0.068706318703058836 0.162081288226228 0 0.069057945201454224 0.1335413829855443 0 0.068706318703058836 0.162081288226228 0 0.090771666786269994 0.14501472196338391 0 0.069057945201454224 0.1335413829855443 0 0.068706318703058836 0.162081288226228 0 0.068706318703058836 0.162081288226228 0 0.068526985958265882 0.1766369021136929 0 0.089414934820938902 0.17439435952339441 0 0.068706318703058836 0.162081288226228 0 0.068526985958265882 0.1766369021136929 0 0.055720812218779399 0.16398507385210701 0 0.068706318703058836 0.162081288226228 0 0.068526985958265882 0.1766369021136929 0 0.052950219923850309 0.18334197632682431 0 0.068258467598486666 0.19843130207064111 0 0.068526985958265882 0.1766369021136929 0 0.088404508343005936 0.19627485210498871 0 0.089414934820938902 0.17439435952339441 0 0.088404508343005936 0.19627485210498871 0 0.068526985958265882 0.1766369021136929 0 0.089414934820938902 0.17439435952339441 0 0.088404508343005936 0.19627485210498871 0 0.068526985958265882 0.1766369021136929 0 0.068706318703058836 0.162081288226228 0 0.089414934820938902 0.17439435952339441 0 0.090771666786269994 0.14501472196338391 0 0.068706318703058836 0.162081288226228 0 0.089414934820938902 0.17439435952339441 0 0.090771666786269994 0.14501472196338391 0 0.089414934820938902 0.17439435952339441 0 0.090771666786269994 0.14501472196338391 0 0.089414934820938902 0.17439435952339441 0 0.10846579928773931 0.1646144126804254 0 0.088404508343005936 0.19627485210498871 0 0.089414934820938902 0.17439435952339441 0 0.11123775428268851 0.18736992150245441 0 0.089414934820938902 0.17439435952339441 0 0.10846579928773931 0.1646144126804254 0 0.11123775428268851 0.18736992150245441 0 0.089414934820938902 0.17439435952339441 0 0.11123775428268851 0.18736992150245441 0 0.11123775428268851 0.18736992150245441 0 0.1211070715302426 0.1740089814421075 0 0.13106536925687931 0.18370196674424061 0 0.10846579928773931 0.1646144126804254 0 0.11123775428268851 0.18736992150245441 0 0.1211070715302426 0.1740089814421075 0 0.10846579928773931 0.1646144126804254 0 0.1211070715302426 0.1740089814421075 0 0.1248576874695331 0.16010612798087351 0 0.10846579928773931 0.1646144126804254 0 0.1248576874695331 0.16010612798087351 0 0.1148755072536744 0.14694858495711699 0 0.090771666786269994 0.14501472196338391 0 0.10846579928773931 0.1646144126804254 0 0.1148755072536744 0.14694858495711699 0 0.090771666786269994 0.14501472196338391 0 0.1148755072536744 0.14694858495711699 0 0.1167558334748582 0.12638472335056161 0 0.092128398751601809 0.1156350844033736 0 0.090771666786269994 0.14501472196338391 0 0.1167558334748582 0.12638472335056161 0 0.1148755072536744 0.14694858495711699 0 0.1167558334748582 0.12638472335056161 0 0.14042761819651439 0.1463370263915999 0 0.1167558334748582 0.12638472335056161 0 0.14042761819651439 0.1463370263915999 0 0.13858681745168011 0.1243347892083516 0 0.15359766949230449 0.13154692394142151 0 0.14042761819651439 0.1463370263915999 0 0.13858681745168011 0.1243347892083516 0 0.14042761819651439 0.1463370263915999 0 0.14951300210131249 0.1577417530082135 0 0.16372371916271811 0.1480770957314328 0 0.14042761819651439 0.1463370263915999 0 0.16372371916271811 0.1480770957314328 0 0.15359766949230449 0.13154692394142151 0 0.14042761819651439 0.1463370263915999 0 0.16372371916271811 0.1480770957314328 0 0.14042761819651439 0.1463370263915999 0 0.13867183113735829 0.16155845213427941 0 0.14951300210131249 0.1577417530082135 0 0.1248576874695331 0.16010612798087351 0 0.1148755072536744 0.14694858495711699 0 0.14042761819651439 0.1463370263915999 0 0.1248576874695331 0.16010612798087351 0 0.14042761819651439 0.1463370263915999 0 0.13867183113735829 0.16155845213427941 0 0.1211070715302426 0.1740089814421075 0 0.1248576874695331 0.16010612798087351 0 0.13463247194388281 0.17239622980972771 0 0.1248576874695331 0.16010612798087351 0 0.13867183113735829 0.16155845213427941 0 0.13463247194388281 0.17239622980972771 0 0.13867183113735829 0.16155845213427941 0 0.13463247194388281 0.17239622980972771 0 0.14392837597554869 0.17121112348098219 0 0.13106536925687931 0.18370196674424061 0 0.14778703990303471 0.18703381200129471 0 0.14070125123716881 0.180379967908988 0 0.1211070715302426 0.1740089814421075 0 0.13106536925687931 0.18370196674424061 0 0.13463247194388281 0.17239622980972771 0 0.13463247194388281 0.17239622980972771 0 0.14070125123716881 0.180379967908988 0 0.1442310180347077 0.17645358952469609 0 0.13106536925687931 0.18370196674424061 0 0.13463247194388281 0.17239622980972771 0 0.14070125123716881 0.180379967908988 0 0.14778703990303471 0.18703381200129471 0 0.1457725981354514 0.18031424646169611 0 0.1499357934278735 0.17734594866875 0 0.14778703990303471 0.18703381200129471 0 0.14070125123716881 0.180379967908988 0 0.1457725981354514 0.18031424646169611 0 0.13463247194388281 0.17239622980972771 0 0.1442310180347077 0.17645358952469609 0 0.14392837597554869 0.17121112348098219 0 0.1457725981354514 0.18031424646169611 0 0.1442310180347077 0.17645358952469609 0 0.1499357934278735 0.17734594866875 0 0.14070125123716881 0.180379967908988 0 0.1457725981354514 0.18031424646169611 0 0.1442310180347077 0.17645358952469609 0 0.1442310180347077 0.17645358952469609 0 0.1499357934278735 0.17734594866875 0 0.14392837597554869 0.17121112348098219 0 0.15244201980853789 0.17202575962988609 0 0.1499357934278735 0.17734594866875 0 0.14392837597554869 0.17121112348098219 0 0.15244201980853789 0.17202575962988609 0 0.1499357934278735 0.17734594866875 0 0.14778703990303471 0.18703381200129471 0 0.1499357934278735 0.17734594866875 0 0.14957984638293431 0.18906090980573839 0 0.15244201980853789 0.17202575962988609 0 0.14951300210131249 0.1577417530082135 0 0.16372371916271811 0.1480770957314328 0 0.13867183113735829 0.16155845213427941 0 0.14392837597554869 0.17121112348098219 0 0.14951300210131249 0.1577417530082135 0 0.15244201980853789 0.17202575962988609 0 0.14392837597554869 0.17121112348098219 0 0.15244201980853789 0.17202575962988609 0 0.14392837597554869 0.17121112348098219 0 0.14951300210131249 0.1577417530082135 0 0.15244201980853789 0.17202575962988609 0 0.17051003309412049 0.16164788570900429 0 0.17180504446991299 0.17387852915498489 0 0.15244201980853789 0.17202575962988609 0 0.16372371916271811 0.1480770957314328 0 0.15244201980853789 0.17202575962988609 0 0.17051003309412049 0.16164788570900429 0 0.16372371916271811 0.1480770957314328 0 0.17180504446991299 0.17387852915498489 0 0.14957984638293431 0.18906090980573839 0 0.17180504446991299 0.17387852915498489 0 0.14957984638293431 0.18906090980573839 0 0.1754809300101017 0.19073342404320481 0 0.15244201980853789 0.17202575962988609 0 0.1499357934278735 0.17734594866875 0 0.17180504446991299 0.17387852915498489 0 0.1499357934278735 0.17734594866875 0 0.17180504446991299 0.17387852915498489 0 0.14957984638293431 0.18906090980573839 0 0.15244201980853789 0.17202575962988609 0 0.17180504446991299 0.17387852915498489 0 0.17180504446991299 0.17387852915498489 0 0.186215504933683 0.17525740784035551 0 0.1754809300101017 0.19073342404320481 0 0.17180504446991299 0.17387852915498489 0 0.186215504933683 0.17525740784035551 0 0.186215504933683 0.17525740784035551 0 0.1754809300101017 0.19073342404320481 0 0.1885925596276489 0.18789185736744429 0 0.186215504933683 0.17525740784035551 0 0.1754809300101017 0.19073342404320481 0 0.17051003309412049 0.16164788570900429 0 0.1848260994501926 0.164983642710719 0 0.17975328257924111 0.14927440131799749 0 0.17051003309412049 0.16164788570900429 0 0.17180504446991299 0.17387852915498489 0 0.1848260994501926 0.164983642710719 0 0.17180504446991299 0.17387852915498489 0 0.1848260994501926 0.164983642710719 0 0.17180504446991299 0.17387852915498489 0 0.186215504933683 0.17525740784035551 0 0.1848260994501926 0.164983642710719 0 0.17975328257924111 0.14927440131799749 0 0.17379718252912299 0.12669326153397351 0 0.16372371916271811 0.1480770957314328 0 0.1848260994501926 0.164983642710719 0 0.17975328257924111 0.14927440131799749 0 0.19578284599576409 0.15047170690456119 0 0.17379718252912299 0.12669326153397351 0 0.18746046633474081 0.1362555979217423 0 0.18946130443793341 0.12206981170430629 0 0.17975328257924111 0.14927440131799749 0 0.17379718252912299 0.12669326153397351 0 0.18746046633474081 0.1362555979217423 0 0.17379718252912299 0.12669326153397351 0 0.16372371916271811 0.1480770957314328 0 0.15359766949230449 0.13154692394142151 0 0.17379718252912299 0.12669326153397351 0 0.16372371916271811 0.1480770957314328 0 0.17975328257924111 0.14927440131799749 0 0.16372371916271811 0.1480770957314328 0 0.17051003309412049 0.16164788570900429 0 0.17975328257924111 0.14927440131799749 0 0.16372371916271811 0.1480770957314328 0 0.15167502031345109 0.24185816144881761 0 0.13577324987587541 0.24088922869785701 0 0.14936745616991859 0.22838116949567311 0 0.15167502031345109 0.24185816144881761 0 0.13577324987587541 0.24088922869785701 0 0.14893238512369489 0.25643887141978111 0 0.15167502031345109 0.24185816144881761 0 0.14893238512369489 0.25643887141978111 0 0.1635289098691716 0.25032935374465742 0 0.15167502031345109 0.24185816144881761 0 0.14936745616991859 0.22838116949567311 0 0.16239461665354349 0.23407638917780441 0 0.1137556677469518 0.24327785068076879 0 0.13577324987587541 0.24088922869785701 0 0.13157962574762419 0.26084690979412711 0 0.13577324987587541 0.24088922869785701 0 0.1339040667011808 0.22010809859798591 0 0.14936745616991859 0.22838116949567311 0 0.1216419531253209 0.2291117050005208 0 0.13577324987587541 0.24088922869785701 0 0.1339040667011808 0.22010809859798591 0 0.1339040667011808 0.22010809859798591 0 0.14936745616991859 0.22838116949567311 0 0.14367651654048061 0.21605781197651969 0 0.14936745616991859 0.22838116949567311 0 0.14367651654048061 0.21605781197651969 0 0.1583739695463848 0.2153964963309066 0 0.14936745616991859 0.22838116949567311 0 0.1583739695463848 0.2153964963309066 0 0.14367651654048061 0.21605781197651969 0 0.1330605737444378 0.20034548348151471 0 0.1583739695463848 0.2153964963309066 0 0.1330605737444378 0.20034548348151471 0 0.1583739695463848 0.2153964963309066 0 0.1339040667011808 0.22010809859798591 0 0.14367651654048061 0.21605781197651969 0 0.1330605737444378 0.20034548348151471 0 0.1090954601060144 0.21671642767616919 0 0.1339040667011808 0.22010809859798591 0 0.1330605737444378 0.20034548348151471 0 0.11123775428268851 0.18736992150245441 0 0.13106536925687931 0.18370196674424061 0 0.1330605737444378 0.20034548348151471 0 0.13106536925687931 0.18370196674424061 0 0.14778703990303471 0.18703381200129471 0 0.1330605737444378 0.20034548348151471 0 0.1330605737444378 0.20034548348151471 0 0.14957984638293431 0.18906090980573839 0 0.14778703990303471 0.18703381200129471 0 0.1330605737444378 0.20034548348151471 0 0.14957984638293431 0.18906090980573839 0 0.1330605737444378 0.20034548348151471 0 0.14957984638293431 0.18906090980573839 0 0.1583739695463848 0.2153964963309066 0 0.14778703990303471 0.18703381200129471 0 0.14957984638293431 0.18906090980573839 0 0.14957984638293431 0.18906090980573839 0 0.1754809300101017 0.19073342404320481 0 0.16474635508651969 0.2062094402460537 0 0.14957984638293431 0.18906090980573839 0 0.16474635508651969 0.2062094402460537 0 0.1754809300101017 0.19073342404320481 0 0.16474635508651969 0.2062094402460537 0 0.1754809300101017 0.19073342404320481 0 0.18791279909768471 0.19795509679330131 0 0.1885925596276489 0.18789185736744429 0 0.1754809300101017 0.19073342404320481 0 0.17941790966457061 0.2054272936852462 0 0.18791279909768471 0.19795509679330131 0 0.1754809300101017 0.19073342404320481 0 0.17941790966457061 0.2054272936852462 0 0.16474635508651969 0.2062094402460537 0 0.17941790966457061 0.2054272936852462 0 0.16474635508651969 0.2062094402460537 0 0.17684863047863911 0.21989329076267081 0 0.17941790966457061 0.2054272936852462 0 0.1931830717156531 0.20695074300794081 0 0.18791279909768471 0.19795509679330131 0 0.17941790966457061 0.2054272936852462 0 0.17684863047863911 0.21989329076267081 0 0.18996676049365099 0.21828085508161829 0 0.16474635508651969 0.2062094402460537 0 0.17684863047863911 0.21989329076267081 0 0.16474635508651969 0.2062094402460537 0 0.1583739695463848 0.2153964963309066 0 0.17684863047863911 0.21989329076267081 0 0.14957984638293431 0.18906090980573839 0 0.16474635508651969 0.2062094402460537 0 0.1583739695463848 0.2153964963309066 0 0.16474635508651969 0.2062094402460537 0 0.1583739695463848 0.2153964963309066 0 0.16239461665354349 0.23407638917780441 0 0.17366243770857179 0.22448681880509699 0 0.17702095730703921 0.24263156709986539 0 0.1583739695463848 0.2153964963309066 0 0.16239461665354349 0.23407638917780441 0 0.17366243770857179 0.22448681880509699 0 0.1583739695463848 0.2153964963309066 0 0.17684863047863911 0.21989329076267081 0 0.17366243770857179 0.22448681880509699 0 0.14936745616991859 0.22838116949567311 0 0.1583739695463848 0.2153964963309066 0 0.16239461665354349 0.23407638917780441 0 0.1583739695463848 0.2153964963309066 0 0.17366243770857179 0.22448681880509699 0 0.17366243770857179 0.22448681880509699 0 0.17702095730703921 0.24263156709986539 0 0.18895090587075861 0.2335771412792878 0 0.17684863047863911 0.21989329076267081 0 0.17366243770857179 0.22448681880509699 0 0.18895090587075861 0.2335771412792878 0 0.17684863047863911 0.21989329076267081 0 0.18895090587075861 0.2335771412792878 0 0.18996676049365099 0.21828085508161829 0 0.17684863047863911 0.21989329076267081 0 0.18895090587075861 0.2335771412792878 0 0.17366243770857179 0.22448681880509699 0 0.18895090587075861 0.2335771412792878 0 0.17702095730703921 0.24263156709986539 0 0.19154732197045099 0.24989166113898409 0 0.18895090587075861 0.2335771412792878 0 0.15167502031345109 0.24185816144881761 0 0.16239461665354349 0.23407638917780441 0 0.1635289098691716 0.25032935374465742 0 0.16239461665354349 0.23407638917780441 0 0.17702095730703921 0.24263156709986539 0 0.1635289098691716 0.25032935374465742 0 0.2028847490760563 0.2351906915158247 0 0.22412344287508229 0.2385800200543893 0 0.2125479016800508 0.24287719683085501 0 0.22412344287508229 0.2385800200543893 0 0.2068760714913315 0.25384484126876389 0 0.22412344287508229 0.2385800200543893 0 0.20515814249971351 0.25771502270987628 0 0.2125479016800508 0.24287719683085501 0 0.2028847490760563 0.2351906915158247 0 0.22412344287508229 0.2385800200543893 0 0.2028847490760563 0.2351906915158247 0 0.214741083504773 0.23328315031744351 0 0.22412344287508229 0.2385800200543893 0 0.22412344287508229 0.2385800200543893 0 0.21906318420961379 0.247802371404342 0 0.20515814249971351 0.25771502270987628 0 0.2125479016800508 0.24287719683085501 0 0.2056992798528012 0.2413970917129846 0 0.2028847490760563 0.2351906915158247 0 0.2056992798528012 0.2413970917129846 0 0.2070420516370646 0.24594056756133659 0 0.1990854194188578 0.23960298999702631 0 0.2070420516370646 0.24594056756133659 0 0.1990854194188578 0.23960298999702631 0 0.2068760714913315 0.25384484126876389 0 0.2125479016800508 0.24287719683085501 0 0.2070420516370646 0.24594056756133659 0 0.2068760714913315 0.25384484126876389 0 0.2125479016800508 0.24287719683085501 0 0.2056992798528012 0.2413970917129846 0 0.2070420516370646 0.24594056756133659 0 0.1990854194188578 0.23960298999702631 0 0.18895090587075861 0.2335771412792878 0 0.2068760714913315 0.25384484126876389 0 0.18895090587075861 0.2335771412792878 0 0.2068760714913315 0.25384484126876389 0 0.19154732197045099 0.24989166113898409 0 0.18895090587075861 0.2335771412792878 0 0.2068760714913315 0.25384484126876389 0 0.1990854194188578 0.23960298999702631 0 0.1974650460822861 0.23331134944579279 0 0.18895090587075861 0.2335771412792878 0 0.1990854194188578 0.23960298999702631 0 0.18895090587075861 0.2335771412792878 0 0.2056992798528012 0.2413970917129846 0 0.1990854194188578 0.23960298999702631 0 0.2028847490760563 0.2351906915158247 0 0.1990854194188578 0.23960298999702631 0 0.2028847490760563 0.2351906915158247 0 0.1974650460822861 0.23331134944579279 0 0.2028847490760563 0.2351906915158247 0 0.20151517482983189 0.22960766978030919 0 0.1974650460822861 0.23331134944579279 0 0.20151517482983189 0.22960766978030919 0 0.20131353611400121 0.224557209036571 0 0.20605247060360549 0.22673663836037181 0 0.20151517482983189 0.22960766978030919 0 0.1957173518267025 0.2271491086509396 0 0.20131353611400121 0.224557209036571 0 0.20151517482983189 0.22960766978030919 0 0.1957173518267025 0.2271491086509396 0 0.1974650460822861 0.23331134944579279 0 0.1957173518267025 0.2271491086509396 0 0.1974650460822861 0.23331134944579279 0 0.18895090587075861 0.2335771412792878 0 0.1957173518267025 0.2271491086509396 0 0.18895090587075861 0.2335771412792878 0 0.18996676049365099 0.21828085508161829 0 0.1957173518267025 0.2271491086509396 0 0.19768027988876191 0.22050754291988939 0 0.18996676049365099 0.21828085508161829 0 0.1957173518267025 0.2271491086509396 0 0.19768027988876191 0.22050754291988939 0 0.20131353611400121 0.224557209036571 0 0.19768027988876191 0.22050754291988939 0 0.20131353611400121 0.224557209036571 0 0.20299801072685 0.2185055986779029 0 0.20131353611400121 0.224557209036571 0 0.20606998178642649 0.22184407148703481 0 0.20299801072685 0.2185055986779029 0 0.20606998178642649 0.22184407148703481 0 0.2078916558171712 0.21762818246779261 0 0.20299801072685 0.2185055986779029 0 0.20606998178642649 0.22184407148703481 0 0.21140751338200969 0.22231019188420201 0 0.2078916558171712 0.21762818246779261 0 0.20606998178642649 0.22184407148703481 0 0.20605247060360549 0.22673663836037181 0 0.21140751338200969 0.22231019188420201 0 0.20605247060360549 0.22673663836037181 0 0.2103021949386881 0.22857621607568801 0 0.21140751338200969 0.22231019188420201 0 0.20131353611400121 0.224557209036571 0 0.20606998178642649 0.22184407148703481 0 0.20605247060360549 0.22673663836037181 0 0.2028847490760563 0.2351906915158247 0 0.20833330986526241 0.2320748182790757 0 0.214741083504773 0.23328315031744351 0 0.20151517482983189 0.22960766978030919 0 0.20605247060360549 0.22673663836037181 0 0.2056578952763396 0.2307010216723554 0 0.2028847490760563 0.2351906915158247 0 0.2056578952763396 0.2307010216723554 0 0.20833330986526241 0.2320748182790757 0 0.2028847490760563 0.2351906915158247 0 0.20151517482983189 0.22960766978030919 0 0.2056578952763396 0.2307010216723554 0 0.20605247060360549 0.22673663836037181 0 0.2056578952763396 0.2307010216723554 0 0.2103021949386881 0.22857621607568801 0 0.2056578952763396 0.2307010216723554 0 0.20833330986526241 0.2320748182790757 0 0.2103021949386881 0.22857621607568801 0 0.2103021949386881 0.22857621607568801 0 0.214741083504773 0.23328315031744351 0 0.21530752448675841 0.22750326573931859 0 0.20833330986526241 0.2320748182790757 0 0.2103021949386881 0.22857621607568801 0 0.214741083504773 0.23328315031744351 0 0.214741083504773 0.23328315031744351 0 0.21838064010484981 0.22961102681668311 0 0.2195678861890771 0.23263904406907279 0 0.21838064010484981 0.22961102681668311 0 0.21530752448675841 0.22750326573931859 0 0.22084428590689029 0.22701894242305681 0 0.214741083504773 0.23328315031744351 0 0.21838064010484981 0.22961102681668311 0 0.21530752448675841 0.22750326573931859 0 0.21530752448675841 0.22750326573931859 0 0.2170461787360918 0.22279199530028629 0 0.22084428590689029 0.22701894242305681 0 0.2170461787360918 0.22279199530028629 0 0.21655507968796919 0.21844628855618359 0 0.221633255725254 0.21863111029678689 0 0.2170461787360918 0.22279199530028629 0 0.21140751338200969 0.22231019188420201 0 0.21655507968796919 0.21844628855618359 0 0.21140751338200969 0.22231019188420201 0 0.21272221523268811 0.21562976229483549 0 0.21655507968796919 0.21844628855618359 0 0.2103021949386881 0.22857621607568801 0 0.21530752448675841 0.22750326573931859 0 0.21140751338200969 0.22231019188420201 0 0.21530752448675841 0.22750326573931859 0 0.2170461787360918 0.22279199530028629 0 0.21140751338200969 0.22231019188420201 0 0.21272221523268811 0.21562976229483549 0 0.21861019256041081 0.21351427757986 0 0.21171615671429311 0.20963538285282379 0 0.21272221523268811 0.21562976229483549 0 0.21655507968796919 0.21844628855618359 0 0.21861019256041081 0.21351427757986 0 0.21861019256041081 0.21351427757986 0 0.21713409688216739 0.20744986370190319 0 0.21171615671429311 0.20963538285282379 0 0.21713409688216739 0.20744986370190319 0 0.21360857963124369 0.20294303393208141 0 0.21928754553685209 0.20214311392614931 0 0.21171615671429311 0.20963538285282379 0 0.20784755544292949 0.2050319648165107 0 0.21360857963124369 0.20294303393208141 0 0.21713409688216739 0.20744986370190319 0 0.21171615671429311 0.20963538285282379 0 0.21360857963124369 0.20294303393208141 0 0.21171615671429311 0.20963538285282379 0 0.20784755544292949 0.2050319648165107 0 0.20615033729844501 0.21226551839430469 0 0.20784755544292949 0.2050319648165107 0 0.2017796639396616 0.20619592249543289 0 0.2044034487031377 0.2009767563029049 0 0.20784755544292949 0.2050319648165107 0 0.20615033729844501 0.21226551839430469 0 0.2017796639396616 0.20619592249543289 0 0.21272221523268811 0.21562976229483549 0 0.21171615671429311 0.20963538285282379 0 0.20615033729844501 0.21226551839430469 0 0.21140751338200969 0.22231019188420201 0 0.21272221523268811 0.21562976229483549 0 0.2078916558171712 0.21762818246779261 0 0.21272221523268811 0.21562976229483549 0 0.20615033729844501 0.21226551839430469 0 0.2078916558171712 0.21762818246779261 0 0.20615033729844501 0.21226551839430469 0 0.2078916558171712 0.21762818246779261 0 0.20299801072685 0.2185055986779029 0 0.20615033729844501 0.21226551839430469 0 0.20299801072685 0.2185055986779029 0 0.1984057402826048 0.21404494315241521 0 0.19768027988876191 0.22050754291988939 0 0.20299801072685 0.2185055986779029 0 0.1984057402826048 0.21404494315241521 0 0.19768027988876191 0.22050754291988939 0 0.1984057402826048 0.21404494315241521 0 0.18996676049365099 0.21828085508161829 0 0.1984057402826048 0.21404494315241521 0 0.18996676049365099 0.21828085508161829 0 0.1931830717156531 0.20695074300794081 0 0.17941790966457061 0.2054272936852462 0 0.18996676049365099 0.21828085508161829 0 0.1931830717156531 0.20695074300794081 0 0.1984057402826048 0.21404494315241521 0 0.1931830717156531 0.20695074300794081 0 0.2017796639396616 0.20619592249543289 0 0.1931830717156531 0.20695074300794081 0 0.2017796639396616 0.20619592249543289 0 0.19873658879524889 0.199084887648729 0 0.20615033729844501 0.21226551839430469 0 0.1984057402826048 0.21404494315241521 0 0.2017796639396616 0.20619592249543289 0 0.2017796639396616 0.20619592249543289 0 0.19873658879524889 0.199084887648729 0 0.2044034487031377 0.2009767563029049 0 0.19873658879524889 0.199084887648729 0 0.20137723297130911 0.19165118312521809 0 0.20432770500860081 0.19637961002344589 0 0.19873658879524889 0.199084887648729 0 0.20432770500860081 0.19637961002344589 0 0.2044034487031377 0.2009767563029049 0 0.19873658879524889 0.199084887648729 0 0.18791279909768471 0.19795509679330131 0 0.1946390438749675 0.19189183742509661 0 0.1931830717156531 0.20695074300794081 0 0.19873658879524889 0.199084887648729 0 0.18791279909768471 0.19795509679330131 0 0.18791279909768471 0.19795509679330131 0 0.1885925596276489 0.18789185736744429 0 0.1946390438749675 0.19189183742509661 0 0.1885925596276489 0.18789185736744429 0 0.1946390438749675 0.19189183742509661 0 0.1987145202218091 0.18362152073526411 0 0.1946390438749675 0.19189183742509661 0 0.20137723297130911 0.19165118312521809 0 0.1987145202218091 0.18362152073526411 0 0.19873658879524889 0.199084887648729 0 0.1946390438749675 0.19189183742509661 0 0.20137723297130911 0.19165118312521809 0 0.21618281478461621 0.18990610252098289 0 0.22997263895004769 0.19284959568539711 0 0.2078985392329947 0.17986588113903881 0 0.20137723297130911 0.19165118312521809 0 0.20673139893936959 0.19202554863571619 0 0.20508341838226599 0.18671276256068131 0 0.20993904391379731 0.1889742125588941 0 0.20673139893936959 0.19202554863571619 0 0.20508341838226599 0.18671276256068131 0 0.20993904391379731 0.1889742125588941 0 0.20673139893936959 0.19202554863571619 0 0.21185117187598221 0.19280187222899781 0 0.20673139893936959 0.19202554863571619 0 0.20932573032924789 0.19819139653040579 0 0.21185117187598221 0.19280187222899781 0 0.20137723297130911 0.19165118312521809 0 0.20673139893936959 0.19202554863571619 0 0.20432770500860081 0.19637961002344589 0 0.20432770500860081 0.19637961002344589 0 0.2044034487031377 0.2009767563029049 0 0.20932573032924789 0.19819139653040579 0 0.20673139893936959 0.19202554863571619 0 0.20432770500860081 0.19637961002344589 0 0.20932573032924789 0.19819139653040579 0 0.20784755544292949 0.2050319648165107 0 0.2044034487031377 0.2009767563029049 0 0.20932573032924789 0.19819139653040579 0 0.20784755544292949 0.2050319648165107 0 0.20932573032924789 0.19819139653040579 0 0.21360857963124369 0.20294303393208141 0 0.20932573032924789 0.19819139653040579 0 0.21560944725216971 0.19655325474810531 0 0.21185117187598221 0.19280187222899781 0 0.20932573032924789 0.19819139653040579 0 0.21360857963124369 0.20294303393208141 0 0.21560944725216971 0.19655325474810531 0 0.21360857963124369 0.20294303393208141 0 0.21560944725216971 0.19655325474810531 0 0.21928754553685209 0.20214311392614931 0 0.21560944725216971 0.19655325474810531 0 0.21618281478461621 0.18990610252098289 0 0.22154703834952549 0.19658312317108939 0 0.20993904391379731 0.1889742125588941 0 0.21618281478461621 0.18990610252098289 0 0.21185117187598221 0.19280187222899781 0 0.20993904391379731 0.1889742125588941 0 0.21618281478461621 0.18990610252098289 0 0.20918306397070471 0.1854742052254276 0 0.21560944725216971 0.19655325474810531 0 0.21618281478461621 0.18990610252098289 0 0.21185117187598221 0.19280187222899781 0 0.21618281478461621 0.18990610252098289 0 0.22154703834952549 0.19658312317108939 0 0.22997263895004769 0.19284959568539711 0 0.21560944725216971 0.19655325474810531 0 0.22154703834952549 0.19658312317108939 0 0.21928754553685209 0.20214311392614931 0 0.22154703834952549 0.19658312317108939 0 0.2255995964222911 0.20202298753285849 0 0.22997263895004769 0.19284959568539711 0 0.22154703834952549 0.19658312317108939 0 0.21928754553685209 0.20214311392614931 0 0.2255995964222911 0.20202298753285849 0 0.2255995964222911 0.20202298753285849 0 0.22997263895004769 0.19284959568539711 0 0.232350796807761 0.20582407700460259 0 0.22997263895004769 0.19284959568539711 0 0.24018138016534979 0.20642721737280559 0 0.232350796807761 0.20582407700460259 0 0.22997263895004769 0.19284959568539711 0 0.25204673866710092 0.2058333102317555 0 0.22997263895004769 0.19284959568539711 0 0.24018138016534979 0.20642721737280559 0 0.25204673866710092 0.2058333102317555 0 0.22997263895004769 0.19284959568539711 0 0.24520795932152911 0.1939810497728984 0 0.25204673866710092 0.2058333102317555 0 0.22997263895004769 0.19284959568539711 0 0.24520795932152911 0.1939810497728984 0 0.24634121590032301 0.18101059397227429 0 0.24018138016534979 0.20642721737280559 0 0.2375386407054241 0.21230846142595591 0 0.232350796807761 0.20582407700460259 0 0.24018138016534979 0.20642721737280559 0 0.24377933448393299 0.21299667612784751 0 0.2375386407054241 0.21230846142595591 0 0.24018138016534979 0.20642721737280559 0 0.24633818236044069 0.2090659575015239 0 0.25204673866710092 0.2058333102317555 0 0.24018138016534979 0.20642721737280559 0 0.24633818236044069 0.2090659575015239 0 0.24377933448393299 0.21299667612784751 0 0.24633818236044069 0.2090659575015239 0 0.24934527612537849 0.21100662627368691 0 0.25204673866710092 0.2058333102317555 0 0.24934527612537849 0.21100662627368691 0 0.24377933448393299 0.21299667612784751 0 0.24062525139964769 0.2184147640139715 0 0.24934527612537849 0.21100662627368691 0 0.24172970213161429 0.22559049353151511 0 0.24934527612537849 0.21100662627368691 0 0.24062525139964769 0.2184147640139715 0 0.24172970213161429 0.22559049353151511 0 0.24934527612537849 0.21100662627368691 0 0.24377933448393299 0.21299667612784751 0 0.24633818236044069 0.2090659575015239 0 0.24934527612537849 0.21100662627368691 0 0.24377933448393299 0.21299667612784751 0 0.24377933448393299 0.21299667612784751 0 0.24062525139964769 0.2184147640139715 0 0.2375386407054241 0.21230846142595591 0 0.24062525139964769 0.2184147640139715 0 0.2375386407054241 0.21230846142595591 0 0.23402459165049899 0.21682860210635571 0 0.23402459165049899 0.21682860210635571 0 0.22786650807421571 0.21863867304824769 0 0.2307743019731405 0.21250265987999811 0 0.22786650807421571 0.21863867304824769 0 0.2307743019731405 0.21250265987999811 0 0.22498317294685299 0.21326601897757219 0 0.2307743019731405 0.21250265987999811 0 0.2273511539798142 0.20823708990939691 0 0.22498317294685299 0.21326601897757219 0 0.2375386407054241 0.21230846142595591 0 0.23402459165049899 0.21682860210635571 0 0.2307743019731405 0.21250265987999811 0 0.2375386407054241 0.21230846142595591 0 0.2307743019731405 0.21250265987999811 0 0.232350796807761 0.20582407700460259 0 0.2255995964222911 0.20202298753285849 0 0.232350796807761 0.20582407700460259 0 0.2273511539798142 0.20823708990939691 0 0.2307743019731405 0.21250265987999811 0 0.232350796807761 0.20582407700460259 0 0.2273511539798142 0.20823708990939691 0 0.2273511539798142 0.20823708990939691 0 0.22222918603121561 0.2077566468774949 0 0.22498317294685299 0.21326601897757219 0 0.2255995964222911 0.20202298753285849 0 0.2273511539798142 0.20823708990939691 0 0.22222918603121561 0.2077566468774949 0 0.21928754553685209 0.20214311392614931 0 0.2255995964222911 0.20202298753285849 0 0.22222918603121561 0.2077566468774949 0 0.21713409688216739 0.20744986370190319 0 0.21928754553685209 0.20214311392614931 0 0.22222918603121561 0.2077566468774949 0 0.21861019256041081 0.21351427757986 0 0.21713409688216739 0.20744986370190319 0 0.22222918603121561 0.2077566468774949 0 0.21861019256041081 0.21351427757986 0 0.22222918603121561 0.2077566468774949 0 0.22498317294685299 0.21326601897757219 0 0.21861019256041081 0.21351427757986 0 0.221633255725254 0.21863111029678689 0 0.22498317294685299 0.21326601897757219 0 0.21655507968796919 0.21844628855618359 0 0.21861019256041081 0.21351427757986 0 0.221633255725254 0.21863111029678689 0 0.22786650807421571 0.21863867304824769 0 0.221633255725254 0.21863111029678689 0 0.22498317294685299 0.21326601897757219 0 0.2232896482700317 0.22319357109392829 0 0.22084428590689029 0.22701894242305681 0 0.225035646800197 0.22755270183730369 0 0.2232896482700317 0.22319357109392829 0 0.225035646800197 0.22755270183730369 0 0.2277581278961206 0.22421601093178789 0 0.22786650807421571 0.21863867304824769 0 0.2232896482700317 0.22319357109392829 0 0.2277581278961206 0.22421601093178789 0 0.22786650807421571 0.21863867304824769 0 0.221633255725254 0.21863111029678689 0 0.2232896482700317 0.22319357109392829 0 0.2170461787360918 0.22279199530028629 0 0.221633255725254 0.21863111029678689 0 0.2232896482700317 0.22319357109392829 0 0.2170461787360918 0.22279199530028629 0 0.2232896482700317 0.22319357109392829 0 0.22084428590689029 0.22701894242305681 0 0.21838064010484981 0.22961102681668311 0 0.22084428590689029 0.22701894242305681 0 0.2225115420203975 0.2313589075424268 0 0.2195678861890771 0.23263904406907279 0 0.2225115420203975 0.2313589075424268 0 0.22233495122579411 0.2355578589333753 0 0.214741083504773 0.23328315031744351 0 0.2195678861890771 0.23263904406907279 0 0.22233495122579411 0.2355578589333753 0 0.21838064010484981 0.22961102681668311 0 0.2195678861890771 0.23263904406907279 0 0.2225115420203975 0.2313589075424268 0 0.2225115420203975 0.2313589075424268 0 0.22522435604312591 0.2338769813008055 0 0.22233495122579411 0.2355578589333753 0 0.2225115420203975 0.2313589075424268 0 0.2257705784771866 0.2310683973980599 0 0.22522435604312591 0.2338769813008055 0 0.2257705784771866 0.2310683973980599 0 0.22522435604312591 0.2338769813008055 0 0.22821962157113501 0.2331507238769506 0 0.22084428590689029 0.22701894242305681 0 0.2225115420203975 0.2313589075424268 0 0.225035646800197 0.22755270183730369 0 0.2225115420203975 0.2313589075424268 0 0.2257705784771866 0.2310683973980599 0 0.225035646800197 0.22755270183730369 0 0.225035646800197 0.22755270183730369 0 0.2302255788632965 0.2283303846653538 0 0.2277581278961206 0.22421601093178789 0 0.2257705784771866 0.2310683973980599 0 0.225035646800197 0.22755270183730369 0 0.2302255788632965 0.2283303846653538 0 0.2257705784771866 0.2310683973980599 0 0.2302255788632965 0.2283303846653538 0 0.22821962157113501 0.2331507238769506 0 0.2302255788632965 0.2283303846653538 0 0.22821962157113501 0.2331507238769506 0 0.23147072978670771 0.23406147663227089 0 0.22522435604312591 0.2338769813008055 0 0.22821962157113501 0.2331507238769506 0 0.2282103088636547 0.23572553533474949 0 0.22821962157113501 0.2331507238769506 0 0.23147072978670771 0.23406147663227089 0 0.2282103088636547 0.23572553533474949 0 0.2302255788632965 0.2283303846653538 0 0.2277581278961206 0.22421601093178789 0 0.23374009153803671 0.2220975864348731 0 0.22786650807421571 0.21863867304824769 0 0.2277581278961206 0.22421601093178789 0 0.23374009153803671 0.2220975864348731 0 0.23402459165049899 0.21682860210635571 0 0.22786650807421571 0.21863867304824769 0 0.23374009153803671 0.2220975864348731 0 0.24062525139964769 0.2184147640139715 0 0.23374009153803671 0.2220975864348731 0 0.24172970213161429 0.22559049353151511 0 0.24062525139964769 0.2184147640139715 0 0.23402459165049899 0.21682860210635571 0 0.23374009153803671 0.2220975864348731 0 0.2302255788632965 0.2283303846653538 0 0.23374009153803671 0.2220975864348731 0 0.24172970213161429 0.22559049353151511 0 0.24934527612537849 0.21100662627368691 0 0.24172970213161429 0.22559049353151511 0 0.24989052864815531 0.2205716808775571 0 0.23147072978670771 0.23406147663227089 0 0.24172970213161429 0.22559049353151511 0 0.23411412813784871 0.24017436078934251 0 0.24172970213161429 0.22559049353151511 0 0.23411412813784871 0.24017436078934251 0 0.2302255788632965 0.2283303846653538 0 0.23147072978670771 0.23406147663227089 0 0.24172970213161429 0.22559049353151511 0 0.23411412813784871 0.24017436078934251 0 0.2438721241591377 0.25167873840379662 0 0.25683111238660761 0.24379959893971959 0 0.24172970213161429 0.22559049353151511 0 0.23411412813784871 0.24017436078934251 0 0.25683111238660761 0.24379959893971959 0 0.23411412813784871 0.24017436078934251 0 0.25683111238660761 0.24379959893971959 0 0.23411412813784871 0.24017436078934251 0 0.22885494512739871 0.25024572599068279 0 0.2438721241591377 0.25167873840379662 0 0.23411412813784871 0.24017436078934251 0 0.22885494512739871 0.25024572599068279 0 0.22660345763591019 0.2443665287508951 0 0.23411412813784871 0.24017436078934251 0 0.22885494512739871 0.25024572599068279 0 0.23411412813784871 0.24017436078934251 0 0.22412344287508229 0.2385800200543893 0 0.23411412813784871 0.24017436078934251 0 0.2282103088636547 0.23572553533474949 0 0.22412344287508229 0.2385800200543893 0 0.22660345763591019 0.2443665287508951 0 0.23411412813784871 0.24017436078934251 0 0.22412344287508229 0.2385800200543893 0 0.23147072978670771 0.23406147663227089 0 0.23411412813784871 0.24017436078934251 0 0.2282103088636547 0.23572553533474949 0 0.214741083504773 0.23328315031744351 0 0.22412344287508229 0.2385800200543893 0 0.22233495122579411 0.2355578589333753 0 0.2282103088636547 0.23572553533474949 0 0.22412344287508229 0.2385800200543893 0 0.22417285293599701 0.2368068870992231 0 0.22522435604312591 0.2338769813008055 0 0.2282103088636547 0.23572553533474949 0 0.22417285293599701 0.2368068870992231 0 0.22412344287508229 0.2385800200543893 0 0.22417285293599701 0.2368068870992231 0 0.22233495122579411 0.2355578589333753 0 0.22522435604312591 0.2338769813008055 0 0.22417285293599701 0.2368068870992231 0 0.22233495122579411 0.2355578589333753 0 0.22660345763591019 0.2443665287508951 0 0.22036769382774901 0.25054791410220723 0 0.22885494512739871 0.25024572599068279 0 0.22660345763591019 0.2443665287508951 0 0.22412344287508229 0.2385800200543893 0 0.21906318420961379 0.247802371404342 0 0.22660345763591019 0.2443665287508951 0 0.21906318420961379 0.247802371404342 0 0.22036769382774901 0.25054791410220723 0 0.20303195169049379 0.15101316861005951 0 0.21249557186720441 0.16082053544960251 0 0.22292227531449421 0.15249884822433041 0 0.21572836212019661 0.14501832908663881 0 0.20303195169049379 0.15101316861005951 0 0.22292227531449421 0.15249884822433041 0 0.2123991114697345 0.13750855221395031 0 0.20303195169049379 0.15101316861005951 0 0.19578284599576409 0.15047170690456119 0 0.20303195169049379 0.15101316861005951 0 0.22292227531449421 0.15249884822433041 0 0.2123991114697345 0.13750855221395031 0 0.19578284599576409 0.15047170690456119 0 0.2123991114697345 0.13750855221395031 0 0.20303195169049379 0.15101316861005951 0 0.21572836212019661 0.14501832908663881 0 0.2123991114697345 0.13750855221395031 0 0.20303195169049379 0.15101316861005951 0 0.21572836212019661 0.14501832908663881 0 0.2123991114697345 0.13750855221395031 0 0.21779578088462451 0.13711675373016019 0 0.2123991114697345 0.13750855221395031 0 0.22242263275859289 0.1230576606807216 0 0.2123991114697345 0.13750855221395031 0 0.21450817484077669 0.12631794065680549 0 0.2088179732992933 0.12642889348441841 0 0.2123991114697345 0.13750855221395031 0 0.21450817484077669 0.12631794065680549 0 0.22242263275859289 0.1230576606807216 0 0.2123991114697345 0.13750855221395031 0 0.2088179732992933 0.12642889348441841 0 0.19850771613164259 0.13276880814787359 0 0.18746046633474081 0.1362555979217423 0 0.19850771613164259 0.13276880814787359 0 0.19578284599576409 0.15047170690456119 0 0.2123991114697345 0.13750855221395031 0 0.19850771613164259 0.13276880814787359 0 0.19578284599576409 0.15047170690456119 0 0.2088179732992933 0.12642889348441841 0 0.19850771613164259 0.13276880814787359 0 0.20197316262899839 0.1197245188846791 0 0.18746046633474081 0.1362555979217423 0 0.19850771613164259 0.13276880814787359 0 0.18946130443793341 0.12206981170430629 0 0.17975328257924111 0.14927440131799749 0 0.18746046633474081 0.1362555979217423 0 0.19578284599576409 0.15047170690456119 0 0.17975328257924111 0.14927440131799749 0 0.19578284599576409 0.15047170690456119 0 0.1848260994501926 0.164983642710719 0 0.20303195169049379 0.15101316861005951 0 0.19578284599576409 0.15047170690456119 0 0.20303195169049379 0.15101316861005951 0 0.19578284599576409 0.15047170690456119 0 0.186215504933683 0.17525740784035551 0 0.1848260994501926 0.164983642710719 0 0.20303195169049379 0.15101316861005951 0 0.186215504933683 0.17525740784035551 0 0.20303195169049379 0.15101316861005951 0 0.186215504933683 0.17525740784035551 0 0.20303195169049379 0.15101316861005951 0 0.20444777679966281 0.16411842840100341 0 0.186215504933683 0.17525740784035551 0 0.2024584755789462 0.17146994049452779 0 0.20444777679966281 0.16411842840100341 0 0.186215504933683 0.17525740784035551 0 0.1987145202218091 0.18362152073526411 0 0.20625740858922961 0.17717513655099559 0 0.186215504933683 0.17525740784035551 0 0.20625740858922961 0.17717513655099559 0 0.186215504933683 0.17525740784035551 0 0.2024584755789462 0.17146994049452779 0 0.20625740858922961 0.17717513655099559 0 0.186215504933683 0.17525740784035551 0 0.1885925596276489 0.18789185736744429 0 0.1987145202218091 0.18362152073526411 0 0.20137723297130911 0.19165118312521809 0 0.1987145202218091 0.18362152073526411 0 0.20508341838226599 0.18671276256068131 0 0.1987145202218091 0.18362152073526411 0 0.20508341838226599 0.18671276256068131 0 0.20542739007940081 0.18256990124228151 0 0.20625740858922961 0.17717513655099559 0 0.22629931224477631 0.17909286526163501 0 0.20625740858922961 0.17717513655099559 0 0.21193081230107841 0.17014021101353671 0 0.22629931224477631 0.17909286526163501 0 0.2078985392329947 0.17986588113903881 0 0.20625740858922961 0.17717513655099559 0 0.22629931224477631 0.17909286526163501 0 0.20993904391379731 0.1889742125588941 0 0.20918306397070471 0.1854742052254276 0 0.20508341838226599 0.18671276256068131 0 0.20918306397070471 0.1854742052254276 0 0.20508341838226599 0.18671276256068131 0 0.20542739007940081 0.18256990124228151 0 0.20542739007940081 0.18256990124228151 0 0.2078985392329947 0.17986588113903881 0 0.20625740858922961 0.17717513655099559 0 0.1987145202218091 0.18362152073526411 0 0.20542739007940081 0.18256990124228151 0 0.20625740858922961 0.17717513655099559 0 0.20918306397070471 0.1854742052254276 0 0.20542739007940081 0.18256990124228151 0 0.2078985392329947 0.17986588113903881 0 0.2024584755789462 0.17146994049452779 0 0.20625740858922961 0.17717513655099559 0 0.21193081230107841 0.17014021101353671 0 0.21618281478461621 0.18990610252098289 0 0.20918306397070471 0.1854742052254276 0 0.2078985392329947 0.17986588113903881 0 0.20303195169049379 0.15101316861005951 0 0.20444777679966281 0.16411842840100341 0 0.21249557186720441 0.16082053544960251 0 0.20444777679966281 0.16411842840100341 0 0.21193081230107841 0.17014021101353671 0 0.21249557186720441 0.16082053544960251 0 0.2024584755789462 0.17146994049452779 0 0.20444777679966281 0.16411842840100341 0 0.21193081230107841 0.17014021101353671 0 0.21193081230107841 0.17014021101353671 0 0.21249557186720441 0.16082053544960251 0 0.22014504323029291 0.16633202099908259 0 0.21249557186720441 0.16082053544960251 0 0.22014504323029291 0.16633202099908259 0 0.22292227531449421 0.15249884822433041 0 0.22014504323029291 0.16633202099908259 0 0.23015321489336851 0.1669039920256104 0 0.22292227531449421 0.15249884822433041 0 0.23015321489336851 0.1669039920256104 0 0.24211261818636931 0.1623099121402044 0 0.22292227531449421 0.15249884822433041 0 0.21193081230107841 0.17014021101353671 0 0.22014504323029291 0.16633202099908259 0 0.22629931224477631 0.17909286526163501 0 0.22014504323029291 0.16633202099908259 0 0.23015321489336851 0.1669039920256104 0 0.22629931224477631 0.17909286526163501 0 0.23015321489336851 0.1669039920256104 0 0.22629931224477631 0.17909286526163501 0 0.24634121590032301 0.18101059397227429 0 0.22997263895004769 0.19284959568539711 0 0.22629931224477631 0.17909286526163501 0 0.24634121590032301 0.18101059397227429 0 0.22997263895004769 0.19284959568539711 0 0.2078985392329947 0.17986588113903881 0 0.22997263895004769 0.19284959568539711 0 0.2078985392329947 0.17986588113903881 0 0.22629931224477631 0.17909286526163501 0 0.24634121590032301 0.18101059397227429 0 0.24211261818636931 0.1623099121402044 0 0.25583925113042488 0.17312828799689009 0 0.22629931224477631 0.17909286526163501 0 0.24634121590032301 0.18101059397227429 0 0.24520795932152911 0.1939810497728984 0 0.24634121590032301 0.18101059397227429 0 0.25257572134146028 0.18705864139486761 0 0.23015321489336851 0.1669039920256104 0 0.24634121590032301 0.18101059397227429 0 0.24211261818636931 0.1623099121402044 0 0.24211261818636931 0.1623099121402044 0 0.2415776953324367 0.149084223004644 0 0.25681636437199401 0.15682310848494821 0 0.24211261818636931 0.1623099121402044 0 0.2415776953324367 0.149084223004644 0 0.22292227531449421 0.15249884822433041 0 0.2415776953324367 0.149084223004644 0 0.2420361936952389 0.13776107602179749 0 0.25207379538507518 0.1432516637935872 0 0.2415776953324367 0.149084223004644 0 0.2325934964036705 0.14096171351464909 0 0.2420361936952389 0.13776107602179749 0 0.2415776953324367 0.149084223004644 0 0.2325934964036705 0.14096171351464909 0 0.22292227531449421 0.15249884822433041 0 0.21572836212019661 0.14501832908663881 0 0.22317318142902959 0.14233798044881649 0 0.22292227531449421 0.15249884822433041 0 0.2325934964036705 0.14096171351464909 0 0.22317318142902959 0.14233798044881649 0 0.22292227531449421 0.15249884822433041 0 0.21572836212019661 0.14501832908663881 0 0.21779578088462451 0.13711675373016019 0 0.22317318142902959 0.14233798044881649 0 0.2123991114697345 0.13750855221395031 0 0.2269404386870181 0.12616415750505719 0 0.21779578088462451 0.13711675373016019 0 0.2269404386870181 0.12616415750505719 0 0.2123991114697345 0.13750855221395031 0 0.2269404386870181 0.12616415750505719 0 0.22242263275859289 0.1230576606807216 0 0.21779578088462451 0.13711675373016019 0 0.22317318142902959 0.14233798044881649 0 0.22687388728332411 0.13576934621548031 0 0.21779578088462451 0.13711675373016019 0 0.22687388728332411 0.13576934621548031 0 0.2269404386870181 0.12616415750505719 0 0.2123991114697345 0.13750855221395031 0 0.21779578088462451 0.13711675373016019 0 0.2269404386870181 0.12616415750505719 0 0.2325934964036705 0.14096171351464909 0 0.22317318142902959 0.14233798044881649 0 0.22687388728332411 0.13576934621548031 0 0.2325934964036705 0.14096171351464909 0 0.22687388728332411 0.13576934621548031 0 0.23398044619926589 0.13380814872774691 0 0.22687388728332411 0.13576934621548031 0 0.23398044619926589 0.13380814872774691 0 0.2269404386870181 0.12616415750505719 0 0.23398044619926589 0.13380814872774691 0 0.2269404386870181 0.12616415750505719 0 0.2405467862892994 0.12748543453340319 0 0.2325934964036705 0.14096171351464909 0 0.23398044619926589 0.13380814872774691 0 0.2420361936952389 0.13776107602179749 0 0.23398044619926589 0.13380814872774691 0 0.2405467862892994 0.12748543453340319 0 0.2420361936952389 0.13776107602179749 0 0.2420361936952389 0.13776107602179749 0 0.25144494256168609 0.1319752725567547 0 0.25207379538507518 0.1432516637935872 0 0.2405467862892994 0.12748543453340319 0 0.24794648612135611 0.1223238382092047 0 0.25144494256168609 0.1319752725567547 0 0.2405467862892994 0.12748543453340319 0 0.2420361936952389 0.13776107602179749 0 0.25144494256168609 0.1319752725567547 0 0.24794648612135611 0.1223238382092047 0 0.24121625453580739 0.11502690109371561 0 0.25324217801320742 0.1153607628831249 0 0.2269404386870181 0.12616415750505719 0 0.2447492746237224 0.1048344376326756 0 0.2405467862892994 0.12748543453340319 0 0.24794648612135611 0.1223238382092047 0 0.24121625453580739 0.11502690109371561 0 0.2269404386870181 0.12616415750505719 0 0.24121625453580739 0.11502690109371561 0 0.2447492746237224 0.1048344376326756 0 0.2269404386870181 0.12616415750505719 0 0.2447492746237224 0.1048344376326756 0 0.2327332096166275 0.1129012882214651 0 0.24121625453580739 0.11502690109371561 0 0.25549207038459648 0.1038896446823738 0 0.25324217801320742 0.1153607628831249 0 0.24121625453580739 0.11502690109371561 0 0.25549207038459648 0.1038896446823738 0 0.2269404386870181 0.12616415750505719 0 0.2405467862892994 0.12748543453340319 0 0.24121625453580739 0.11502690109371561 0 0.2447492746237224 0.1048344376326756 0 0.23956784571650899 0.0977238576729412 0 0.24538200687215811 0.087263294126548194 0 0.24121625453580739 0.11502690109371561 0 0.2447492746237224 0.1048344376326756 0 0.25549207038459648 0.1038896446823738 0 0.2447492746237224 0.1048344376326756 0 0.23538197931245899 0.10341077542761901 0 0.2327332096166275 0.1129012882214651 0 0.2447492746237224 0.1048344376326756 0 0.23538197931245899 0.10341077542761901 0 0.23956784571650899 0.0977238576729412 0 0.23538197931245899 0.10341077542761901 0 0.23956784571650899 0.0977238576729412 0 0.23159571860376729 0.09649072864859462 0 0.23956784571650899 0.0977238576729412 0 0.23159571860376729 0.09649072864859462 0 0.24538200687215811 0.087263294126548194 0 0.23538197931245899 0.10341077542761901 0 0.22753734584296301 0.10579344317721411 0 0.2327332096166275 0.1129012882214651 0 0.23538197931245899 0.10341077542761901 0 0.23159571860376729 0.09649072864859462 0 0.22753734584296301 0.10579344317721411 0 0.22753734584296301 0.10579344317721411 0 0.21960050251509619 0.1099799501037499 0 0.2162430223416752 0.097626182423161872 0 0.23159571860376729 0.09649072864859462 0 0.22753734584296301 0.10579344317721411 0 0.2162430223416752 0.097626182423161872 0 0.2269404386870181 0.12616415750505719 0 0.24121625453580739 0.11502690109371561 0 0.2269404386870181 0.12616415750505719 0 0.2327332096166275 0.1129012882214651 0 0.2263431360543938 0.1184171888901953 0 0.22753734584296301 0.10579344317721411 0 0.2327332096166275 0.1129012882214651 0 0.22566534494936821 0.1127349876536001 0 0.2327332096166275 0.1129012882214651 0 0.22566534494936821 0.1127349876536001 0 0.2263431360543938 0.1184171888901953 0 0.22566534494936821 0.1127349876536001 0 0.22211253071776041 0.11658306787537639 0 0.2263431360543938 0.1184171888901953 0 0.22753734584296301 0.10579344317721411 0 0.22566534494936821 0.1127349876536001 0 0.21960050251509619 0.1099799501037499 0 0.22566534494936821 0.1127349876536001 0 0.21960050251509619 0.1099799501037499 0 0.22211253071776041 0.11658306787537639 0 0.22211253071776041 0.11658306787537639 0 0.22242263275859289 0.1230576606807216 0 0.2143929818354865 0.11827665624813249 0 0.22211253071776041 0.11658306787537639 0 0.2263431360543938 0.1184171888901953 0 0.22242263275859289 0.1230576606807216 0 0.2269404386870181 0.12616415750505719 0 0.2263431360543938 0.1184171888901953 0 0.22242263275859289 0.1230576606807216 0 0.21450817484077669 0.12631794065680549 0 0.2088179732992933 0.12642889348441841 0 0.2143929818354865 0.11827665624813249 0 0.21450817484077669 0.12631794065680549 0 0.22242263275859289 0.1230576606807216 0 0.2143929818354865 0.11827665624813249 0 0.2088179732992933 0.12642889348441841 0 0.2143929818354865 0.11827665624813249 0 0.20197316262899839 0.1197245188846791 0 0.2143929818354865 0.11827665624813249 0 0.20908255143541821 0.1086886721306938 0 0.20197316262899839 0.1197245188846791 0 0.21960050251509619 0.1099799501037499 0 0.2143929818354865 0.11827665624813249 0 0.20908255143541821 0.1086886721306938 0 0.21960050251509619 0.1099799501037499 0 0.22211253071776041 0.11658306787537639 0 0.2143929818354865 0.11827665624813249 0 0.2162430223416752 0.097626182423161872 0 0.20908255143541821 0.1086886721306938 0 0.20024208695950441 0.1022483441924653 0 0.2162430223416752 0.097626182423161872 0 0.20024208695950441 0.1022483441924653 0 0.20549980874625851 0.091008753748841612 0 0.21960050251509619 0.1099799501037499 0 0.2162430223416752 0.097626182423161872 0 0.20908255143541821 0.1086886721306938 0 0.20024208695950441 0.1022483441924653 0 0.19430728846377851 0.1110760012560025 0 0.18387064589552871 0.10530942733651449 0 0.20024208695950441 0.1022483441924653 0 0.19394410926193431 0.083925593139055454 0 0.18387064589552871 0.10530942733651449 0 0.19394410926193431 0.083925593139055454 0 0.18387064589552871 0.10530942733651449 0 0.20908255143541821 0.1086886721306938 0 0.20024208695950441 0.1022483441924653 0 0.19430728846377851 0.1110760012560025 0 0.19430728846377851 0.1110760012560025 0 0.18946130443793341 0.12206981170430629 0 0.18387064589552871 0.10530942733651449 0 0.19430728846377851 0.1110760012560025 0 0.18946130443793341 0.12206981170430629 0 0.20197316262899839 0.1197245188846791 0 0.19850771613164259 0.13276880814787359 0 0.18946130443793341 0.12206981170430629 0 0.20197316262899839 0.1197245188846791 0 0.20908255143541821 0.1086886721306938 0 0.19430728846377851 0.1110760012560025 0 0.20197316262899839 0.1197245188846791 0 0.19338632722691479 0.052403929446642863 0 0.18335112545645091 0.07267208885274215 0 0.19394410926193431 0.083925593139055454 0 0.2040175726283398 0.062541758941596526 0 0.2040175726283398 0.062541758941596526 0 0.19338632722691479 0.052403929446642863 0 0.18335112545645091 0.07267208885274215 0 0.19394410926193431 0.083925593139055454 0 0.2040175726283398 0.062541758941596526 0 0.18335112545645091 0.07267208885274215 0 0.20024208695950441 0.1022483441924653 0 0.19394410926193431 0.083925593139055454 0 0.20549980874625851 0.091008753748841612 0 0.2162430223416752 0.097626182423161872 0 0.21157001642192019 0.080234895240683876 0 0.22397198276100469 0.086225967890014507 0 0.19394410926193431 0.083925593139055454 0 0.21157001642192019 0.080234895240683876 0 0.20549980874625851 0.091008753748841612 0 0.2162430223416752 0.097626182423161872 0 0.21157001642192019 0.080234895240683876 0 0.20549980874625851 0.091008753748841612 0 0.21157001642192019 0.080234895240683876 0 0.2040175726283398 0.062541758941596526 0 0.22781483724739229 0.07246317403249615 0 0.19394410926193431 0.083925593139055454 0 0.21157001642192019 0.080234895240683876 0 0.2040175726283398 0.062541758941596526 0 0.23159571860376729 0.09649072864859462 0 0.22397198276100469 0.086225967890014507 0 0.24538200687215811 0.087263294126548194 0 0.21157001642192019 0.080234895240683876 0 0.22781483724739229 0.07246317403249615 0 0.22397198276100469 0.086225967890014507 0 0.22781483724739229 0.07246317403249615 0 0.22397198276100469 0.086225967890014507 0 0.24538200687215811 0.087263294126548194 0 0.23159571860376729 0.09649072864859462 0 0.2162430223416752 0.097626182423161872 0 0.22397198276100469 0.086225967890014507 0 0.22781483724739229 0.07246317403249615 0 0.24666024164512479 0.069066845306638189 0 0.23616622209355401 0.056796777262918888 0 0.22781483724739229 0.07246317403249615 0 0.24538200687215811 0.087263294126548194 0 0.24666024164512479 0.069066845306638189 0 0.24666024164512479 0.069066845306638189 0 0.23616622209355401 0.056796777262918888 0 0.25864351714315309 0.050820700414198471 0 0.23616622209355401 0.056796777262918888 0 0.23209433130971449 0.039333694524741773 0 0.25864351714315309 0.050820700414198471 0 0.24941127910515279 0.036109464950164052 0 0.23209433130971449 0.039333694524741773 0 0.25864351714315309 0.050820700414198471 0 0.23209433130971449 0.039333694524741773 0 0.25864351714315309 0.050820700414198471 0 0.23209433130971449 0.039333694524741773 0 0.20554514547627459 0.027846688635287751 0 0.23616622209355401 0.056796777262918888 0 0.23209433130971449 0.039333694524741773 0 0.21561818312238529 0.052299472036519863 0 0.22781483724739229 0.07246317403249615 0 0.21561818312238529 0.052299472036519863 0 0.22781483724739229 0.07246317403249615 0 0.23616622209355401 0.056796777262918888 0 0.21561818312238529 0.052299472036519863 0 0.24360219425436941 0.0024857581900680202 0 0.23740384123011041 0.015909569431439341 0 0.26296926762040529 0.01668300548729458 0 0.24941127910515279 0.036109464950164052 0 0.23740384123011041 0.015909569431439341 0 0.26295058972466029 0.02758912776660603 0 0.24941127910515279 0.036109464950164052 0 0.23209433130971449 0.039333694524741773 0 0.23740384123011041 0.015909569431439341 0 0.23209433130971449 0.039333694524741773 0 0.22299690983789841 0.024900679360035469 0 0.20554514547627459 0.027846688635287751 0 0.23209433130971449 0.039333694524741773 0 0.23740384123011041 0.015909569431439341 0 0.22299690983789841 0.024900679360035469 0 0.23740384123011041 0.015909569431439341 0 0.22299690983789841 0.024900679360035469 0 0.2118384148398155 0.015136133375583741 0 0.23740384123011041 0.015909569431439341 0 0.2118384148398155 0.015136133375583741 0 0.2211015613305348 -0.0035727011820369729 0 0.24360219425436941 0.0024857581900680202 0 0.23740384123011041 0.015909569431439341 0 0.2211015613305348 -0.0035727011820369729 0 0.23740384123011041 0.015909569431439341 0 0.2118384148398155 0.015136133375583741 0 0.2118384148398155 0.015136133375583741 0 0.1986053995495487 0.0055804718487439519 0 0.20534867250976391 -0.0043642885281037769 0 0.2118384148398155 0.015136133375583741 0 0.2211015613305348 -0.0035727011820369729 0 0.2118384148398155 0.015136133375583741 0 0.20534867250976391 -0.0043642885281037769 0 0.2211015613305348 -0.0035727011820369729 0 0.2118384148398155 0.015136133375583741 0 0.195144875697468 0.01463110033309107 0 0.22299690983789841 0.024900679360035469 0 0.2118384148398155 0.015136133375583741 0 0.20554514547627459 0.027846688635287751 0 0.2118384148398155 0.015136133375583741 0 0.20554514547627459 0.027846688635287751 0 0.1991546682193249 0.025081728144688242 0 0.2118384148398155 0.015136133375583741 0 0.20554514547627459 0.027846688635287751 0 0.20554514547627459 0.027846688635287751 0 0.20342152899737859 0.032135770040543507 0 0.1991546682193249 0.025081728144688242 0 0.18859511266510859 0.0076245034646380038 0 0.2118384148398155 0.015136133375583741 0 0.1991546682193249 0.025081728144688242 0 0.195144875697468 0.01463110033309107 0 0.1991546682193249 0.025081728144688242 0 0.18859511266510859 0.0076245034646380038 0 0.17728684093665509 0.015620200308707101 0 0.1991546682193249 0.025081728144688242 0 0.17728684093665509 0.015620200308707101 0 0.1991546682193249 0.025081728144688242 0 0.195144875697468 0.01463110033309107 0 0.18859511266510859 0.0076245034646380038 0 0.1991546682193249 0.025081728144688242 0 0.20342152899737859 0.032135770040543507 0 0.19294744602722999 0.034621277313508329 0 0.1991546682193249 0.025081728144688242 0 0.20342152899737859 0.032135770040543507 0 0.20554514547627459 0.027846688635287751 0 0.1991546682193249 0.025081728144688242 0 0.20342152899737859 0.032135770040543507 0 0.20554514547627459 0.027846688635287751 0 0.1991546682193249 0.025081728144688242 0 0.1991546682193249 0.025081728144688242 0 0.19294744602722999 0.034621277313508329 0 0.18464038303927241 0.029256106364947888 0 0.2118384148398155 0.015136133375583741 0 0.195144875697468 0.01463110033309107 0 0.1986053995495487 0.0055804718487439519 0 0.195144875697468 0.01463110033309107 0 0.18859511266510859 0.0076245034646380038 0 0.1986053995495487 0.0055804718487439519 0 0.18859511266510859 0.0076245034646380038 0 0.1986053995495487 0.0055804718487439519 0 0.19209992203558721 -0.0051250894014892127 0 0.2040175726283398 0.062541758941596526 0 0.22781483724739229 0.07246317403249615 0 0.21561818312238529 0.052299472036519863 0 0.2040175726283398 0.062541758941596526 0 0.2041109029937547 0.049845232616325702 0 0.21561818312238529 0.052299472036519863 0 0.21561818312238529 0.052299472036519863 0 0.20342152899737859 0.032135770040543507 0 0.23209433130971449 0.039333694524741773 0 0.20554514547627459 0.027846688635287751 0 0.20342152899737859 0.032135770040543507 0 0.23209433130971449 0.039333694524741773 0 0.21561818312238529 0.052299472036519863 0 0.20342152899737859 0.032135770040543507 0 0.2041109029937547 0.049845232616325702 0 0.21561818312238529 0.052299472036519863 0 0.20342152899737859 0.032135770040543507 0 0.20342152899737859 0.032135770040543507 0 0.19294744602722999 0.034621277313508329 0 0.19338632722691479 0.052403929446642863 0 0.20342152899737859 0.032135770040543507 0 0.19338632722691479 0.052403929446642863 0 0.19294744602722999 0.034621277313508329 0 0.19338632722691479 0.052403929446642863 0 0.18348422961527 0.038604369627883113 0 0.2041109029937547 0.049845232616325702 0 0.20342152899737859 0.032135770040543507 0 0.19338632722691479 0.052403929446642863 0 0.2040175726283398 0.062541758941596526 0 0.2041109029937547 0.049845232616325702 0 0.19338632722691479 0.052403929446642863 0 0.19338632722691479 0.052403929446642863 0 0.1749691938242936 0.051134462326208593 0 0.18348422961527 0.038604369627883113 0 0.19338632722691479 0.052403929446642863 0 0.1749691938242936 0.051134462326208593 0 0.18335112545645091 0.07267208885274215 0 0.1749691938242936 0.051134462326208593 0 0.18348422961527 0.038604369627883113 0 0.17032873039788099 0.032352956429954761 0 0.19294744602722999 0.034621277313508329 0 0.18348422961527 0.038604369627883113 0 0.18464038303927241 0.029256106364947888 0 0.18348422961527 0.038604369627883113 0 0.17032873039788099 0.032352956429954761 0 0.18464038303927241 0.029256106364947888 0 0.1749691938242936 0.051134462326208593 0 0.15636506353577381 0.046692307168754908 0 0.17032873039788099 0.032352956429954761 0 0.15636506353577381 0.046692307168754908 0 0.17032873039788099 0.032352956429954761 0 0.154004664183681 0.031738558907009051 0 0.1749691938242936 0.051134462326208593 0 0.15636506353577381 0.046692307168754908 0 0.16390842835161831 0.066545365680370783 0 0.18859511266510859 0.0076245034646380038 0 0.1729201067315736 0.0058886509416483691 0 0.17728684093665509 0.015620200308707101 0 0.18859511266510859 0.0076245034646380038 0 0.1729201067315736 0.0058886509416483691 0 0.17803555711089469 -0.0098327212154136895 0 0.17032873039788099 0.032352956429954761 0 0.17728684093665509 0.015620200308707101 0 0.18464038303927241 0.029256106364947888 0 0.1991546682193249 0.025081728144688242 0 0.17728684093665509 0.015620200308707101 0 0.18464038303927241 0.029256106364947888 0 0.17032873039788099 0.032352956429954761 0 0.17728684093665509 0.015620200308707101 0 0.16191195669533551 0.016428798204604671 0 0.17032873039788099 0.032352956429954761 0 0.16191195669533551 0.016428798204604671 0 0.154004664183681 0.031738558907009051 0 0.1729201067315736 0.0058886509416483691 0 0.16191195669533551 0.016428798204604671 0 0.15877106624987389 -0.00039752605429424232 0 0.1729201067315736 0.0058886509416483691 0 0.17728684093665509 0.015620200308707101 0 0.16191195669533551 0.016428798204604671 0 0.16191195669533551 0.016428798204604671 0 0.13622699799421389 0.01171634775034593 0 0.15877106624987389 -0.00039752605429424232 0 0.16191195669533551 0.016428798204604671 0 0.13622699799421389 0.01171634775034593 0 0.154004664183681 0.031738558907009051 0 0.13622699799421389 0.01171634775034593 0 0.154004664183681 0.031738558907009051 0 0.13635288112719929 0.035740320573991811 0 0.11205610120770269 0.02148849400253016 0 0.13622699799421389 0.01171634775034593 0 0.13635288112719929 0.035740320573991811 0 0.15636506353577381 0.046692307168754908 0 0.14341451201013661 0.058636371590328147 0 0.13635288112719929 0.035740320573991811 0 0.15636506353577381 0.046692307168754908 0 0.14341451201013661 0.058636371590328147 0 0.16390842835161831 0.066545365680370783 0 0.15636506353577381 0.046692307168754908 0 0.154004664183681 0.031738558907009051 0 0.13635288112719929 0.035740320573991811 0 0.14341451201013661 0.058636371590328147 0 0.13635288112719929 0.035740320573991811 0 0.12661665692874949 0.054581172971564437 0 0.14341451201013661 0.058636371590328147 0 0.12661665692874949 0.054581172971564437 0 0.1310097943044751 0.070561523775904744 0 0.14341451201013661 0.058636371590328147 0 0.1310097943044751 0.070561523775904744 0 0.150064053805991 0.076052824957966086 0 0.14341451201013661 0.058636371590328147 0 0.150064053805991 0.076052824957966086 0 0.16390842835161831 0.066545365680370783 0 0.150064053805991 0.076052824957966086 0 0.15538270849102209 0.092138700293370873 0 0.13362653152931531 0.087902504541129606 0 0.1310097943044751 0.070561523775904744 0 0.150064053805991 0.076052824957966086 0 0.13362653152931531 0.087902504541129606 0 0.1163820690046866 0.08231591411283562 0 0.1310097943044751 0.070561523775904744 0 0.13362653152931531 0.087902504541129606 0 0.11455352190873851 0.1008041347564587 0 0.13362653152931531 0.087902504541129606 0 0.13365954943985389 0.10583369982579691 0 0.1167558334748582 0.12638472335056161 0 0.13365954943985389 0.10583369982579691 0 0.13858681745168011 0.1243347892083516 0 0.15359766949230449 0.13154692394142151 0 0.13858681745168011 0.1243347892083516 0 0.15441260358810449 0.1130133211511212 0 0.13365954943985389 0.10583369982579691 0 0.13858681745168011 0.1243347892083516 0 0.15441260358810449 0.1130133211511212 0 0.15538270849102209 0.092138700293370873 0 0.13365954943985389 0.10583369982579691 0 0.15441260358810449 0.1130133211511212 0 0.15538270849102209 0.092138700293370873 0 0.13362653152931531 0.087902504541129606 0 0.13365954943985389 0.10583369982579691 0 0.15538270849102209 0.092138700293370873 0 0.16815581283795311 0.1060189917147643 0 0.17331592368598711 0.092940248258841382 0 0.15538270849102209 0.092138700293370873 0 0.15441260358810449 0.1130133211511212 0 0.16815581283795311 0.1060189917147643 0 0.15359766949230449 0.13154692394142151 0 0.17379718252912299 0.12669326153397351 0 0.15441260358810449 0.1130133211511212 0 0.17379718252912299 0.12669326153397351 0 0.15441260358810449 0.1130133211511212 0 0.16815581283795311 0.1060189917147643 0 0.17379718252912299 0.12669326153397351 0 0.18946130443793341 0.12206981170430629 0 0.18387064589552871 0.10530942733651449 0 0.17379718252912299 0.12669326153397351 0 0.18387064589552871 0.10530942733651449 0 0.17379718252912299 0.12669326153397351 0 0.16815581283795311 0.1060189917147643 0 0.18387064589552871 0.10530942733651449 0 0.19394410926193431 0.083925593139055454 0 0.18387064589552871 0.10530942733651449 0 0.17331592368598711 0.092940248258841382 0 0.16815581283795311 0.1060189917147643 0 0.18387064589552871 0.10530942733651449 0 0.17331592368598711 0.092940248258841382 0 0.17331592368598711 0.092940248258841382 0 0.18335112545645091 0.07267208885274215 0 0.17331592368598711 0.092940248258841382 0 0.18335112545645091 0.07267208885274215 0 0.16692344975895551 0.079845484570615355 0 0.19394410926193431 0.083925593139055454 0 0.17331592368598711 0.092940248258841382 0 0.18335112545645091 0.07267208885274215 0 0.1749691938242936 0.051134462326208593 0 0.18335112545645091 0.07267208885274215 0 0.16390842835161831 0.066545365680370783 0 0.18335112545645091 0.07267208885274215 0 0.16390842835161831 0.066545365680370783 0 0.16692344975895551 0.079845484570615355 0 0.150064053805991 0.076052824957966086 0 0.16390842835161831 0.066545365680370783 0 0.16692344975895551 0.079845484570615355 0 0.150064053805991 0.076052824957966086 0 0.15538270849102209 0.092138700293370873 0 0.16692344975895551 0.079845484570615355 0 0.15538270849102209 0.092138700293370873 0 0.17331592368598711 0.092940248258841382 0 0.16692344975895551 0.079845484570615355 0 0.10179167732903389 0.48308683226836818 0 0.115091112272804 0.47231809867616492 0 0.097274609860171168 0.46687925761877969 0 0.10179167732903389 0.48308683226836818 0 0.097274609860171168 0.46687925761877969 0 0.082845296896251558 0.47623680504689653 0 0.10179167732903389 0.48308683226836818 0 0.1209839170242257 0.5 0 0.092763450591716867 0.5 0 0.10179167732903389 0.48308683226836818 0 0.1209839170242257 0.5 0 0.115091112272804 0.47231809867616492 0 0.1209839170242257 0.5 0 0.115091112272804 0.47231809867616492 0 0.13833352194313761 0.4790861776640451 0 0.115091112272804 0.47231809867616492 0 0.11610071914341689 0.45717566159288442 0 0.1032993735170569 0.45654765280212389 0 0.115091112272804 0.47231809867616492 0 0.11610071914341689 0.45717566159288442 0 0.12906247977961399 0.46660672509549889 0 0.11610071914341689 0.45717566159288442 0 0.11980953052138919 0.44948907119100989 0 0.12685937845245909 0.45572263694949983 0 0.11610071914341689 0.45717566159288442 0 0.12685937845245909 0.45572263694949983 0 0.12906247977961399 0.46660672509549889 0 0.1246563877060802 0.44199006469265029 0 0.11980953052138919 0.44948907119100989 0 0.10172939828585929 0.44528721393036369 0 0.11610071914341689 0.45717566159288442 0 0.11980953052138919 0.44948907119100989 0 0.10172939828585929 0.44528721393036369 0 0.1246563877060802 0.44199006469265029 0 0.1148879104590744 0.43954495881483652 0 0.10172939828585929 0.44528721393036369 0 0.1246563877060802 0.44199006469265029 0 0.10172939828585929 0.44528721393036369 0 0.1246563877060802 0.44199006469265029 0 0.1148879104590744 0.43954495881483652 0 0.12712502726540631 0.43823690565346551 0 0.1148879104590744 0.43954495881483652 0 0.1122547638824089 0.43553718498847349 0 0.12712502726540631 0.43823690565346551 0 0.1246563877060802 0.44199006469265029 0 0.11980953052138919 0.44948907119100989 0 0.12960071115027069 0.44840118378863691 0 0.1148879104590744 0.43954495881483652 0 0.10172939828585929 0.44528721393036369 0 0.1122547638824089 0.43553718498847349 0 0.1148879104590744 0.43954495881483652 0 0.1122547638824089 0.43553718498847349 0 0.10172939828585929 0.44528721393036369 0 0.093212323443053052 0.43207999874758901 0 0.1122547638824089 0.43553718498847349 0 0.11610071914341689 0.45717566159288442 0 0.10172939828585929 0.44528721393036369 0 0.1032993735170569 0.45654765280212389 0 0.10172939828585929 0.44528721393036369 0 0.1032993735170569 0.45654765280212389 0 0.09235290899158613 0.45424912968328612 0 0.115091112272804 0.47231809867616492 0 0.1032993735170569 0.45654765280212389 0 0.097274609860171168 0.46687925761877969 0 0.1032993735170569 0.45654765280212389 0 0.097274609860171168 0.46687925761877969 0 0.09235290899158613 0.45424912968328612 0 0.097274609860171168 0.46687925761877969 0 0.09235290899158613 0.45424912968328612 0 0.085103072120266215 0.46367821153365513 0 0.09235290899158613 0.45424912968328612 0 0.080432531720900591 0.4556085613980147 0 0.085103072120266215 0.46367821153365513 0 0.085103072120266215 0.46367821153365513 0 0.072610013132421589 0.46541730392129832 0 0.082845296896251558 0.47623680504689653 0 0.080432531720900591 0.4556085613980147 0 0.085103072120266215 0.46367821153365513 0 0.072610013132421589 0.46541730392129832 0 0.10172939828585929 0.44528721393036369 0 0.084096468762346804 0.43773940819485019 0 0.093212323443053052 0.43207999874758901 0 0.10172939828585929 0.44528721393036369 0 0.07880240886563844 0.44858436316807743 0 0.10172939828585929 0.44528721393036369 0 0.084096468762346804 0.43773940819485019 0 0.07880240886563844 0.44858436316807743 0 0.10172939828585929 0.44528721393036369 0 0.09235290899158613 0.45424912968328612 0 0.07880240886563844 0.44858436316807743 0 0.084096468762346804 0.43773940819485019 0 0.07880240886563844 0.44858436316807743 0 0.074169883003697451 0.42862281250670331 0 0.09235290899158613 0.45424912968328612 0 0.080432531720900591 0.4556085613980147 0 0.07880240886563844 0.44858436316807743 0 0.080432531720900591 0.4556085613980147 0 0.07880240886563844 0.44858436316807743 0 0.065152265931926356 0.45054740146952249 0 0.065441911109278689 0.42703823491860421 0 0.07880240886563844 0.44858436316807743 0 0.074169883003697451 0.42862281250670331 0 0.07880240886563844 0.44858436316807743 0 0.070891617227632944 0.43869820301572682 0 0.074169883003697451 0.42862281250670331 0 0.070891617227632944 0.43869820301572682 0 0.065152265931926356 0.45054740146952249 0 0.065441911109278689 0.42703823491860421 0 0.07880240886563844 0.44858436316807743 0 0.065152265931926356 0.45054740146952249 0 0.07880240886563844 0.44858436316807743 0 0.070891617227632944 0.43869820301572682 0 0.065152265931926356 0.45054740146952249 0 0.07880240886563844 0.44858436316807743 0 0.065152265931926356 0.45054740146952249 0 0.07349908205918794 0.45548727844820158 0 0.065152265931926356 0.45054740146952249 0 0.064847625045567736 0.47527370073475161 0 0.065152265931926356 0.45054740146952249 0 0.072610013132421589 0.46541730392129832 0 0.064847625045567736 0.47527370073475161 0 0.065152265931926356 0.45054740146952249 0 0.072610013132421589 0.46541730392129832 0 0.07349908205918794 0.45548727844820158 0 0.080432531720900591 0.4556085613980147 0 0.072610013132421589 0.46541730392129832 0 0.07349908205918794 0.45548727844820158 0 0.080432531720900591 0.4556085613980147 0 0.07880240886563844 0.44858436316807743 0 0.07349908205918794 0.45548727844820158 0 0.064847625045567736 0.47527370073475161 0 0.082845296896251558 0.47623680504689653 0 0.064542984159208283 0.49999999999998068 0 0.072610013132421589 0.46541730392129832 0 0.064847625045567736 0.47527370073475161 0 0.082845296896251558 0.47623680504689653 0 0.097274609860171168 0.46687925761877969 0 0.085103072120266215 0.46367821153365513 0 0.082845296896251558 0.47623680504689653 0 0.082845296896251558 0.47623680504689653 0 0.092763450591716867 0.5 0 0.064542984159208283 0.49999999999998068 0 0.10179167732903389 0.48308683226836818 0 0.082845296896251558 0.47623680504689653 0 0.092763450591716867 0.5 0 0.064847625045567736 0.47527370073475161 0 0.064542984159208283 0.49999999999998068 0 0.064542984159208283 0.49999999999998068 0 0.050539468043203112 0.48470517092988419 0 0.040481609015171227 0.5 0 0.064847625045567736 0.47527370073475161 0 0.064542984159208283 0.49999999999998068 0 0.050539468043203112 0.48470517092988419 0 0.064847625045567736 0.47527370073475161 0 0.050539468043203112 0.48470517092988419 0 0.048781279939927341 0.46821170774348109 0 0.050539468043203112 0.48470517092988419 0 0.030992253386882281 0.47535833038601571 0 0.048781279939927341 0.46821170774348109 0 0.050539468043203112 0.48470517092988419 0 0.040481609015171227 0.5 0 0.030992253386882281 0.47535833038601571 0 0.016420233871134171 0.49999999999999961 0 0.030992253386882281 0.47535833038601571 0 0.040481609015171227 0.5 0 0.016420233871134171 0.49999999999999961 0 0.030992253386882281 0.47535833038601571 0 0.016420233871134171 0.49999999999999961 0 0.030992253386882281 0.47535833038601571 0 0.01783758336189846 0.47845206576366972 0 0.030992253386882281 0.47535833038601571 0 0.01783758336189846 0.47845206576366972 0 0.02462478526388363 0.46374763839386002 0 0.01783758336189846 0.47845206576366972 0 0.0099549597849691446 0.46760228601191928 0 0.02462478526388363 0.46374763839386002 0 -0.0087387389835913432 0.48480090010242438 0 0.007195684502623232 0.48555207402655409 0 0.0099549597849691446 0.46760228601191928 0 -0.0087387389835913432 0.48480090010242438 0 0.0099549597849691446 0.46760228601191928 0 0.01783758336189846 0.47845206576366972 0 0.007195684502623232 0.48555207402655409 0 0.0099549597849691446 0.46760228601191928 0 0.016420233871134171 0.49999999999999961 0 0.01783758336189846 0.47845206576366972 0 0.007195684502623232 0.48555207402655409 0 -0.0026478088853558821 0.50000000000000178 0 0.016420233871134171 0.49999999999999961 0 0.007195684502623232 0.48555207402655409 0 -0.011543683377056991 0.44623855039741162 0 0.003121881291630373 0.44116679752938442 0 0.0091690796769560295 0.45545780364841948 0 0.003121881291630373 0.44116679752938442 0 0.0091690796769560295 0.45545780364841948 0 0.01633138532036239 0.43302367358824773 0 -0.0070577174092844308 0.47182979877582337 0 0.0091690796769560295 0.45545780364841948 0 0.0099549597849691446 0.46760228601191928 0 -0.0070577174092844308 0.47182979877582337 0 0.0091690796769560295 0.45545780364841948 0 0.0099549597849691446 0.46760228601191928 0 0.028648658553529639 0.45040367192141417 0 0.0091690796769560295 0.45545780364841948 0 0.0099549597849691446 0.46760228601191928 0 0.028648658553529639 0.45040367192141417 0 0.0099549597849691446 0.46760228601191928 0 0.02462478526388363 0.46374763839386002 0 0.028648658553529639 0.45040367192141417 0 0.0091690796769560295 0.45545780364841948 0 0.025395876763196559 0.43908580852101559 0 0.0091690796769560295 0.45545780364841948 0 0.025395876763196559 0.43908580852101559 0 0.01633138532036239 0.43302367358824773 0 0.0091690796769560295 0.45545780364841948 0 0.028648658553529639 0.45040367192141417 0 0.025395876763196559 0.43908580852101559 0 0.028648658553529639 0.45040367192141417 0 0.047342357322090127 0.43320505783090912 0 0.028648658553529639 0.45040367192141417 0 0.025395876763196559 0.43908580852101559 0 0.047342357322090127 0.43320505783090912 0 0.028648658553529639 0.45040367192141417 0 0.045564272902630598 0.45071666077203187 0 0.047342357322090127 0.43320505783090912 0 0.02462478526388363 0.46374763839386002 0 0.028648658553529639 0.45040367192141417 0 0.045564272902630598 0.45071666077203187 0 0.030992253386882281 0.47535833038601571 0 0.045564272902630598 0.45071666077203187 0 0.030992253386882281 0.47535833038601571 0 0.02462478526388363 0.46374763839386002 0 0.045564272902630598 0.45071666077203187 0 0.030992253386882281 0.47535833038601571 0 0.045564272902630598 0.45071666077203187 0 0.048781279939927341 0.46821170774348109 0 0.045564272902630598 0.45071666077203187 0 0.048781279939927341 0.46821170774348109 0 0.050436985986723491 0.45266361800212629 0 0.065152265931926356 0.45054740146952249 0 0.064847625045567736 0.47527370073475161 0 0.050436985986723491 0.45266361800212629 0 0.064847625045567736 0.47527370073475161 0 0.048781279939927341 0.46821170774348109 0 0.050436985986723491 0.45266361800212629 0 0.045564272902630598 0.45071666077203187 0 0.050436985986723491 0.45266361800212629 0 0.060136292418380963 0.42607499115804948 0 0.045564272902630598 0.45071666077203187 0 0.060136292418380963 0.42607499115804948 0 0.065152265931926356 0.45054740146952249 0 0.050436985986723491 0.45266361800212629 0 0.060136292418380963 0.42607499115804948 0 0.065152265931926356 0.45054740146952249 0 0.050436985986723491 0.45266361800212629 0 0.060136292418380963 0.42607499115804948 0 0.041622673849437103 0.42271381339361191 0 0.045564272902630598 0.45071666077203187 0 0.047342357322090127 0.43320505783090912 0 0.060136292418380963 0.42607499115804948 0 0.060136292418380963 0.42607499115804948 0 0.057241128124478097 0.4181655267506787 0 0.041622673849437103 0.42271381339361191 0 0.047342357322090127 0.43320505783090912 0 0.060136292418380963 0.42607499115804948 0 0.041622673849437103 0.42271381339361191 0 0.053709176521409253 0.41051916020350832 0 0.065795679193410478 0.39832450701343358 0 0.065566922287166179 0.4168916527142712 0 0.060136292418380963 0.42607499115804948 0 0.057241128124478097 0.4181655267506787 0 0.065566922287166179 0.4168916527142712 0 0.057241128124478097 0.4181655267506787 0 0.053709176521409253 0.41051916020350832 0 0.065566922287166179 0.4168916527142712 0 0.057241128124478097 0.4181655267506787 0 0.053709176521409253 0.41051916020350832 0 0.041622673849437103 0.42271381339361191 0 0.053709176521409253 0.41051916020350832 0 0.041622673849437103 0.42271381339361191 0 0.037765446364156061 0.42020230694235011 0 0.031165525650873108 0.3974630952199053 0 0.053709176521409253 0.41051916020350832 0 0.042376685942107153 0.40662927421238731 0 0.041622673849437103 0.42271381339361191 0 0.037765446364156061 0.42020230694235011 0 0.026739734746463181 0.41660377148548028 0 0.031165525650873108 0.3974630952199053 0 0.042376685942107153 0.40662927421238731 0 0.037765446364156061 0.42020230694235011 0 0.041622673849437103 0.42271381339361191 0 0.042376685942107153 0.40662927421238731 0 0.037765446364156061 0.42020230694235011 0 0.031165525650873108 0.3974630952199053 0 0.035473850043907851 0.42159748436394823 0 0.037765446364156061 0.42020230694235011 0 0.026739734746463181 0.41660377148548028 0 0.035473850043907851 0.42159748436394823 0 0.037765446364156061 0.42020230694235011 0 0.041622673849437103 0.42271381339361191 0 0.025395876763196559 0.43908580852101559 0 0.041622673849437103 0.42271381339361191 0 0.025395876763196559 0.43908580852101559 0 0.047342357322090127 0.43320505783090912 0 0.041622673849437103 0.42271381339361191 0 0.035473850043907851 0.42159748436394823 0 0.041622673849437103 0.42271381339361191 0 0.026284108703420989 0.42794969655711812 0 0.035473850043907851 0.42159748436394823 0 0.041622673849437103 0.42271381339361191 0 0.025395876763196559 0.43908580852101559 0 0.041622673849437103 0.42271381339361191 0 0.026284108703420989 0.42794969655711812 0 0.025395876763196559 0.43908580852101559 0 0.01633138532036239 0.43302367358824773 0 0.026284108703420989 0.42794969655711812 0 0.01633138532036239 0.43302367358824773 0 0.026284108703420989 0.42794969655711812 0 0.015255130279907559 0.42204770709296918 0 0.026284108703420989 0.42794969655711812 0 0.026739734746463181 0.41660377148548028 0 0.015255130279907559 0.42204770709296918 0 0.035473850043907851 0.42159748436394823 0 0.026284108703420989 0.42794969655711812 0 0.026739734746463181 0.41660377148548028 0 0.026739734746463181 0.41660377148548028 0 0.01222027932967755 0.40933507133909242 0 0.031165525650873108 0.3974630952199053 0 0.026739734746463181 0.41660377148548028 0 0.01222027932967755 0.40933507133909242 0 0.015255130279907559 0.42204770709296918 0 -0.0052998567003863196 0.42332632249490748 0 0.01222027932967755 0.40933507133909242 0 0.015255130279907559 0.42204770709296918 0 -0.0044969486664877016 0.40232602855505017 0 -0.0052998567003863196 0.42332632249490748 0 0.01222027932967755 0.40933507133909242 0 -0.0052998567003863196 0.42332632249490748 0 0.003121881291630373 0.44116679752938442 0 0.01633138532036239 0.43302367358824773 0 -0.0052998567003863196 0.42332632249490748 0 0.01633138532036239 0.43302367358824773 0 -0.0052998567003863196 0.42332632249490748 0 0.01633138532036239 0.43302367358824773 0 0.015255130279907559 0.42204770709296918 0 0.001469116558939054 0.37821232275301397 0 0.024565604937590229 0.37472388349746072 0 0.001469116558939054 0.37821232275301397 0 0.01298471556211845 0.39241208027290447 0 0.024565604937590229 0.37472388349746072 0 -0.0044969486664877016 0.40232602855505017 0 0.001469116558939054 0.37821232275301397 0 0.01298471556211845 0.39241208027290447 0 -0.0044969486664877016 0.40232602855505017 0 0.01222027932967755 0.40933507133909242 0 0.01298471556211845 0.39241208027290447 0 0.01222027932967755 0.40933507133909242 0 0.01298471556211845 0.39241208027290447 0 0.031165525650873108 0.3974630952199053 0 0.031165525650873108 0.3974630952199053 0 0.024565604937590229 0.37472388349746072 0 0.031165525650873108 0.3974630952199053 0 0.035931585500428853 0.38327354481031922 0 0.024565604937590229 0.37472388349746072 0 0.01298471556211845 0.39241208027290447 0 0.031165525650873108 0.3974630952199053 0 0.024565604937590229 0.37472388349746072 0 0.035931585500428853 0.38327354481031922 0 0.045040958363013042 0.3889606951664108 0 0.042954253050239047 0.3719465053574999 0 0.035931585500428853 0.38327354481031922 0 0.042954253050239047 0.3719465053574999 0 0.024565604937590229 0.37472388349746072 0 0.031165525650873108 0.3974630952199053 0 0.035931585500428853 0.38327354481031922 0 0.045040958363013042 0.3889606951664108 0 0.042376685942107153 0.40662927421238731 0 0.031165525650873108 0.3974630952199053 0 0.045040958363013042 0.3889606951664108 0 0.042376685942107153 0.40662927421238731 0 0.045040958363013042 0.3889606951664108 0 0.054743136791604703 0.39761026363380919 0 0.053709176521409253 0.41051916020350832 0 0.042376685942107153 0.40662927421238731 0 0.054743136791604703 0.39761026363380919 0 0.045040958363013042 0.3889606951664108 0 0.054743136791604703 0.39761026363380919 0 0.0573720447487387 0.3879974749757083 0 0.054743136791604703 0.39761026363380919 0 0.0573720447487387 0.3879974749757083 0 0.065863373530896982 0.39283006906565548 0 0.054743136791604703 0.39761026363380919 0 0.065795679193410478 0.39832450701343358 0 0.065863373530896982 0.39283006906565548 0 0.053709176521409253 0.41051916020350832 0 0.054743136791604703 0.39761026363380919 0 0.065795679193410478 0.39832450701343358 0 0.053709176521409253 0.41051916020350832 0 0.065795679193410478 0.39832450701343358 0 0.045040958363013042 0.3889606951664108 0 0.052946775063646367 0.37584257789266518 0 0.042954253050239047 0.3719465053574999 0 0.045040958363013042 0.3889606951664108 0 0.052946775063646367 0.37584257789266518 0 0.0573720447487387 0.3879974749757083 0 0.0573720447487387 0.3879974749757083 0 0.062867077540465721 0.37991903176289288 0 0.065863373530896982 0.39283006906565548 0 0.052946775063646367 0.37584257789266518 0 0.062867077540465721 0.37991903176289288 0 0.060386341461311763 0.37478775816706661 0 0.052946775063646367 0.37584257789266518 0 0.0573720447487387 0.3879974749757083 0 0.062867077540465721 0.37991903176289288 0 0.065863373530896982 0.39283006906565548 0 0.066137955661315584 0.37494030005877049 0 0.070883629998827968 0.38681650157159331 0 0.065863373530896982 0.39283006906565548 0 0.066137955661315584 0.37494030005877049 0 0.070883629998827968 0.38681650157159331 0 0.070727618337926235 0.37997122991889831 0 0.066137955661315584 0.37494030005877049 0 0.062867077540465721 0.37991903176289288 0 0.065863373530896982 0.39283006906565548 0 0.066137955661315584 0.37494030005877049 0 0.062867077540465721 0.37991903176289288 0 0.066137955661315584 0.37494030005877049 0 0.060386341461311763 0.37478775816706661 0 0.062867077540465721 0.37991903176289288 0 0.065863373530896982 0.39283006906565548 0 0.070883629998827968 0.38681650157159331 0 0.078590854731123372 0.3854148397238677 0 0.065795679193410478 0.39832450701343358 0 0.070883629998827968 0.38681650157159331 0 0.070727618337926235 0.37997122991889831 0 0.077205184093142948 0.38219006419039903 0 0.070883629998827968 0.38681650157159331 0 0.077205184093142948 0.38219006419039903 0 0.078590854731123372 0.3854148397238677 0 0.077205184093142948 0.38219006419039903 0 0.078590854731123372 0.3854148397238677 0 0.070727618337926235 0.37997122991889831 0 0.077205184093142948 0.38219006419039903 0 0.067990626142223565 0.36816507047965702 0 0.077205184093142948 0.38219006419039903 0 0.067990626142223565 0.36816507047965702 0 0.077205184093142948 0.38219006419039903 0 0.084341955444361044 0.37961227792723379 0 0.07856329134812981 0.37390160315812471 0 0.085149171434427101 0.3837775525537454 0 0.10162449936236261 0.38147412319369911 0 0.092449965536357898 0.37143171703073841 0 0.084341955444361044 0.37961227792723379 0 0.085149171434427101 0.3837775525537454 0 0.077205184093142948 0.38219006419039903 0 0.084341955444361044 0.37961227792723379 0 0.078590854731123372 0.3854148397238677 0 0.084341955444361044 0.37961227792723379 0 0.078590854731123372 0.3854148397238677 0 0.081880140762702835 0.38930556970219771 0 0.085149171434427101 0.3837775525537454 0 0.088036370436965786 0.39867564289760238 0 0.078590854731123372 0.3854148397238677 0 0.081880140762702835 0.38930556970219771 0 0.085149171434427101 0.3837775525537454 0 0.078590854731123372 0.3854148397238677 0 0.081880140762702835 0.38930556970219771 0 0.080943366969799341 0.39088967891114168 0 0.078590854731123372 0.3854148397238677 0 0.080943366969799341 0.39088967891114168 0 0.078590854731123372 0.3854148397238677 0 0.081880140762702835 0.38930556970219771 0 0.081880140762702835 0.38930556970219771 0 0.080943366969799341 0.39088967891114168 0 0.084341955444361044 0.37961227792723379 0 0.078590854731123372 0.3854148397238677 0 0.085149171434427101 0.3837775525537454 0 0.081880140762702835 0.38930556970219771 0 0.085149171434427101 0.3837775525537454 0 0.084341955444361044 0.37961227792723379 0 0.085149171434427101 0.3837775525537454 0 0.092449965536357898 0.37143171703073841 0 0.085149171434427101 0.3837775525537454 0 0.092449965536357898 0.37143171703073841 0 0.084341955444361044 0.37961227792723379 0 0.092449965536357898 0.37143171703073841 0 0.088036370436965786 0.39867564289760238 0 0.081829996274370598 0.39295307003040802 0 0.082608010672415341 0.40881347922834799 0 0.085149171434427101 0.3837775525537454 0 0.088036370436965786 0.39867564289760238 0 0.085149171434427101 0.3837775525537454 0 0.088036370436965786 0.39867564289760238 0 0.10020768409765821 0.39293932187943548 0 0.081880140762702835 0.38930556970219771 0 0.088036370436965786 0.39867564289760238 0 0.081880140762702835 0.38930556970219771 0 0.088036370436965786 0.39867564289760238 0 0.081829996274370598 0.39295307003040802 0 0.080943366969799341 0.39088967891114168 0 0.081829996274370598 0.39295307003040802 0 0.081880140762702835 0.38930556970219771 0 0.080943366969799341 0.39088967891114168 0 0.081829996274370598 0.39295307003040802 0 0.080943366969799341 0.39088967891114168 0 0.069790069515620251 0.40975019928550521 0 0.081829996274370598 0.39295307003040802 0 0.069790069515620251 0.40975019928550521 0 0.082608010672415341 0.40881347922834799 0 0.080943366969799341 0.39088967891114168 0 0.081829996274370598 0.39295307003040802 0 0.069790069515620251 0.40975019928550521 0 0.080943366969799341 0.39088967891114168 0 0.065795679193410478 0.39832450701343358 0 0.069790069515620251 0.40975019928550521 0 0.078590854731123372 0.3854148397238677 0 0.065795679193410478 0.39832450701343358 0 0.078590854731123372 0.3854148397238677 0 0.080943366969799341 0.39088967891114168 0 0.065795679193410478 0.39832450701343358 0 0.070883629998827968 0.38681650157159331 0 0.065795679193410478 0.39832450701343358 0 0.065863373530896982 0.39283006906565548 0 0.065795679193410478 0.39832450701343358 0 0.065863373530896982 0.39283006906565548 0 0.065795679193410478 0.39832450701343358 0 0.069790069515620251 0.40975019928550521 0 0.069790069515620251 0.40975019928550521 0 0.074169883003697451 0.42862281250670331 0 0.082099638629041294 0.41999056404740359 0 0.069790069515620251 0.40975019928550521 0 0.065566922287166179 0.4168916527142712 0 0.074169883003697451 0.42862281250670331 0 0.065795679193410478 0.39832450701343358 0 0.069790069515620251 0.40975019928550521 0 0.065566922287166179 0.4168916527142712 0 0.069790069515620251 0.40975019928550521 0 0.074169883003697451 0.42862281250670331 0 0.065795679193410478 0.39832450701343358 0 0.065566922287166179 0.4168916527142712 0 0.069790069515620251 0.40975019928550521 0 0.065566922287166179 0.4168916527142712 0 0.060136292418380963 0.42607499115804948 0 0.065566922287166179 0.4168916527142712 0 0.065152265931926356 0.45054740146952249 0 0.060136292418380963 0.42607499115804948 0 0.065441911109278689 0.42703823491860421 0 0.070891617227632944 0.43869820301572682 0 0.065441911109278689 0.42703823491860421 0 0.074169883003697451 0.42862281250670331 0 0.060136292418380963 0.42607499115804948 0 0.065566922287166179 0.4168916527142712 0 0.065441911109278689 0.42703823491860421 0 0.065566922287166179 0.4168916527142712 0 0.065441911109278689 0.42703823491860421 0 0.065566922287166179 0.4168916527142712 0 0.065441911109278689 0.42703823491860421 0 0.074169883003697451 0.42862281250670331 0 0.065441911109278689 0.42703823491860421 0 0.074169883003697451 0.42862281250670331 0 0.060136292418380963 0.42607499115804948 0 0.065441911109278689 0.42703823491860421 0 0.074169883003697451 0.42862281250670331 0 0.093212323443053052 0.43207999874758901 0 0.082099638629041294 0.41999056404740359 0 0.074169883003697451 0.42862281250670331 0 0.093212323443053052 0.43207999874758901 0 0.084096468762346804 0.43773940819485019 0 0.074169883003697451 0.42862281250670331 0 0.093212323443053052 0.43207999874758901 0 0.093212323443053052 0.43207999874758901 0 0.082099638629041294 0.41999056404740359 0 0.091966025010738875 0.41895285579795088 0 0.088036370436965786 0.39867564289760238 0 0.091966025010738875 0.41895285579795088 0 0.100145567159687 0.41710641394303821 0 0.088036370436965786 0.39867564289760238 0 0.091966025010738875 0.41895285579795088 0 0.088036370436965786 0.39867564289760238 0 0.082608010672415341 0.40881347922834799 0 0.091966025010738875 0.41895285579795088 0 0.069790069515620251 0.40975019928550521 0 0.082608010672415341 0.40881347922834799 0 0.082099638629041294 0.41999056404740359 0 0.082608010672415341 0.40881347922834799 0 0.082099638629041294 0.41999056404740359 0 0.091966025010738875 0.41895285579795088 0 0.088036370436965786 0.39867564289760238 0 0.100145567159687 0.41710641394303821 0 0.1071904922178962 0.40370791288740998 0 0.088036370436965786 0.39867564289760238 0 0.100145567159687 0.41710641394303821 0 0.091966025010738875 0.41895285579795088 0 0.100145567159687 0.41710641394303821 0 0.097637659211397332 0.4250371212313957 0 0.100145567159687 0.41710641394303821 0 0.1148919673657257 0.41381795514065678 0 0.1071904922178962 0.40370791288740998 0 0.100145567159687 0.41710641394303821 0 0.1122547638824089 0.43553718498847349 0 0.1143180310867869 0.42393744222280411 0 0.093212323443053052 0.43207999874758901 0 0.1122547638824089 0.43553718498847349 0 0.100145567159687 0.41710641394303821 0 0.1122547638824089 0.43553718498847349 0 0.093212323443053052 0.43207999874758901 0 0.097637659211397332 0.4250371212313957 0 0.1122547638824089 0.43553718498847349 0 0.100145567159687 0.41710641394303821 0 0.097637659211397332 0.4250371212313957 0 0.1122547638824089 0.43553718498847349 0 0.093212323443053052 0.43207999874758901 0 0.091966025010738875 0.41895285579795088 0 0.097637659211397332 0.4250371212313957 0 0.1122547638824089 0.43553718498847349 0 0.1143180310867869 0.42393744222280411 0 0.1209544195606387 0.43040174782631491 0 0.1143180310867869 0.42393744222280411 0 0.12334343746547451 0.42282390921553709 0 0.1209544195606387 0.43040174782631491 0 0.12334343746547451 0.42282390921553709 0 0.1209544195606387 0.43040174782631491 0 0.12850296771530451 0.42923587583194978 0 0.1122547638824089 0.43553718498847349 0 0.12712502726540631 0.43823690565346551 0 0.1122547638824089 0.43553718498847349 0 0.1209544195606387 0.43040174782631491 0 0.12712502726540631 0.43823690565346551 0 0.1148919673657257 0.41381795514065678 0 0.12231423594728109 0.40435843208107952 0 0.1071904922178962 0.40370791288740998 0 0.100145567159687 0.41710641394303821 0 0.1143180310867869 0.42393744222280411 0 0.1148919673657257 0.41381795514065678 0 0.1143180310867869 0.42393744222280411 0 0.12334343746547451 0.42282390921553709 0 0.1148919673657257 0.41381795514065678 0 0.12334343746547451 0.42282390921553709 0 0.1148919673657257 0.41381795514065678 0 0.12851505446848019 0.41250129933738711 0 0.1148919673657257 0.41381795514065678 0 0.12231423594728109 0.40435843208107952 0 0.12851505446848019 0.41250129933738711 0 0.12231423594728109 0.40435843208107952 0 0.1171133612418457 0.39687689803769338 0 0.1071904922178962 0.40370791288740998 0 0.1171133612418457 0.39687689803769338 0 0.11145354249469561 0.39051886824224069 0 0.1071904922178962 0.40370791288740998 0 0.1171133612418457 0.39687689803769338 0 0.12483432845731431 0.3920386013744388 0 0.11145354249469561 0.39051886824224069 0 0.12231423594728109 0.40435843208107952 0 0.1171133612418457 0.39687689803769338 0 0.12483432845731431 0.3920386013744388 0 0.12483432845731431 0.3920386013744388 0 0.1155142409189933 0.38180633119697882 0 0.12576558562142021 0.38108448267032891 0 0.12483432845731431 0.3920386013744388 0 0.1155142409189933 0.38180633119697882 0 0.11145354249469561 0.39051886824224069 0 0.1155142409189933 0.38180633119697882 0 0.1204293528173238 0.37385702257331599 0 0.12576558562142021 0.38108448267032891 0 0.1204293528173238 0.37385702257331599 0 0.12784274552907141 0.37445089338973708 0 0.12576558562142021 0.38108448267032891 0 0.1155142409189933 0.38180633119697882 0 0.110048275283272 0.37348394267696799 0 0.1204293528173238 0.37385702257331599 0 0.1155142409189933 0.38180633119697882 0 0.11145354249469561 0.39051886824224069 0 0.10162449936236261 0.38147412319369911 0 0.085149171434427101 0.3837775525537454 0 0.10162449936236261 0.38147412319369911 0 0.10020768409765821 0.39293932187943548 0 0.11145354249469561 0.39051886824224069 0 0.10162449936236261 0.38147412319369911 0 0.10020768409765821 0.39293932187943548 0 0.1155142409189933 0.38180633119697882 0 0.10162449936236261 0.38147412319369911 0 0.110048275283272 0.37348394267696799 0 0.10162449936236261 0.38147412319369911 0 0.1011716305860072 0.37240877013621593 0 0.110048275283272 0.37348394267696799 0 0.10162449936236261 0.38147412319369911 0 0.1011716305860072 0.37240877013621593 0 0.092449965536357898 0.37143171703073841 0 0.088036370436965786 0.39867564289760238 0 0.10020768409765821 0.39293932187943548 0 0.1071904922178962 0.40370791288740998 0 0.11145354249469561 0.39051886824224069 0 0.10020768409765821 0.39293932187943548 0 0.1071904922178962 0.40370791288740998 0 0.10757231892246941 0.34585941831649958 0 0.10056378216203669 0.36324529764345898 0 0.117229722058771 0.34643023023780622 0 0.10056378216203669 0.36324529764345898 0 0.117229722058771 0.34643023023780622 0 0.10757231892246941 0.34585941831649958 0 0.096970081433520233 0.36378808174502919 0 0.10757231892246941 0.34585941831649958 0 0.096970081433520233 0.36378808174502919 0 0.10056378216203669 0.36324529764345898 0 0.10757231892246941 0.34585941831649958 0 0.098668007951022901 0.35047124715661621 0 0.096970081433520233 0.36378808174502919 0 0.098668007951022901 0.35047124715661621 0 0.098425786747696614 0.33961598467064208 0 0.092108983285303703 0.34963298478862909 0 0.10757231892246941 0.34585941831649958 0 0.098668007951022901 0.35047124715661621 0 0.098425786747696614 0.33961598467064208 0 0.098668007951022901 0.35047124715661621 0 0.094552077149147498 0.35507933330598812 0 0.096970081433520233 0.36378808174502919 0 0.098668007951022901 0.35047124715661621 0 0.094552077149147498 0.35507933330598812 0 0.092108983285303703 0.34963298478862909 0 0.096970081433520233 0.36378808174502919 0 0.10056378216203669 0.36324529764345898 0 0.092449965536357898 0.37143171703073841 0 0.096970081433520233 0.36378808174502919 0 0.10056378216203669 0.36324529764345898 0 0.10056378216203669 0.36324529764345898 0 0.092449965536357898 0.37143171703073841 0 0.10056378216203669 0.36324529764345898 0 0.1011716305860072 0.37240877013621593 0 0.092449965536357898 0.37143171703073841 0 0.096970081433520233 0.36378808174502919 0 0.092449965536357898 0.37143171703073841 0 0.10056378216203669 0.36324529764345898 0 0.110048275283272 0.37348394267696799 0 0.11570957291069769 0.36742917922163748 0 0.10056378216203669 0.36324529764345898 0 0.1011716305860072 0.37240877013621593 0 0.110048275283272 0.37348394267696799 0 0.10056378216203669 0.36324529764345898 0 0.11570957291069769 0.36742917922163748 0 0.1210829497201717 0.36014613085985381 0 0.10056378216203669 0.36324529764345898 0 0.1210829497201717 0.36014613085985381 0 0.110048275283272 0.37348394267696799 0 0.11570957291069769 0.36742917922163748 0 0.1204293528173238 0.37385702257331599 0 0.11570957291069769 0.36742917922163748 0 0.1204293528173238 0.37385702257331599 0 0.12551479594939799 0.36750364240483918 0 0.1204293528173238 0.37385702257331599 0 0.12784274552907141 0.37445089338973708 0 0.12551479594939799 0.36750364240483918 0 0.11570957291069769 0.36742917922163748 0 0.1210829497201717 0.36014613085985381 0 0.12551479594939799 0.36750364240483918 0 0.10056378216203669 0.36324529764345898 0 0.1210829497201717 0.36014613085985381 0 0.117229722058771 0.34643023023780622 0 0.1210829497201717 0.36014613085985381 0 0.1241458030540669 0.3518864823720903 0 0.117229722058771 0.34643023023780622 0 0.1241458030540669 0.3518864823720903 0 0.117229722058771 0.34643023023780622 0 0.12909490417984781 0.34730226367485229 0 0.10757231892246941 0.34585941831649958 0 0.117229722058771 0.34643023023780622 0 0.1181745564114227 0.3279307548879723 0 0.117229722058771 0.34643023023780622 0 0.1181745564114227 0.3279307548879723 0 0.13389566195550659 0.32961516283215492 0 0.10757231892246941 0.34585941831649958 0 0.1181745564114227 0.3279307548879723 0 0.1181745564114227 0.3279307548879723 0 0.12877679390037611 0.31000209145944507 0 0.1181745564114227 0.3279307548879723 0 0.1156520549318536 0.30942242908436141 0 0.12877679390037611 0.31000209145944507 0 0.1181745564114227 0.3279307548879723 0 0.09665906355898668 0.3272934088073689 0 0.1156520549318536 0.30942242908436141 0 0.09665906355898668 0.3272934088073689 0 0.1156520549318536 0.30942242908436141 0 0.09665906355898668 0.3272934088073689 0 0.096615630641231035 0.30611309179795571 0 0.1156520549318536 0.30942242908436141 0 0.1181745564114227 0.3279307548879723 0 0.09665906355898668 0.3272934088073689 0 0.098425786747696614 0.33961598467064208 0 0.10757231892246941 0.34585941831649958 0 0.1181745564114227 0.3279307548879723 0 0.098425786747696614 0.33961598467064208 0 0.09665906355898668 0.3272934088073689 0 0.077666072186121204 0.34516438853037801 0 0.09665906355898668 0.3272934088073689 0 0.074728257989039745 0.33000512126716891 0 0.077666072186121204 0.34516438853037801 0 0.09665906355898668 0.3272934088073689 0 0.098425786747696614 0.33961598467064208 0 0.077666072186121204 0.34516438853037801 0 0.09665906355898668 0.3272934088073689 0 0.083900487564655263 0.31546065793833822 0 0.096615630641231035 0.30611309179795571 0 0.09665906355898668 0.3272934088073689 0 0.083900487564655263 0.31546065793833822 0 0.074728257989039745 0.33000512126716891 0 0.066827724944140271 0.31455810128844558 0 0.066573411289030826 0.33519957072024492 0 0.066827724944140271 0.31455810128844558 0 0.074728257989039745 0.33000512126716891 0 0.066573411289030826 0.33519957072024492 0 0.083900487564655263 0.31546065793833822 0 0.066827724944140271 0.31455810128844558 0 0.074728257989039745 0.33000512126716891 0 0.066827724944140271 0.31455810128844558 0 0.066573411289030826 0.33519957072024492 0 0.059633388311997673 0.32536697280426158 0 0.066573411289030826 0.33519957072024492 0 0.066319097633892321 0.35584104015204371 0 0.057906489009868743 0.33727754455793763 0 0.074728257989039745 0.33000512126716891 0 0.066573411289030826 0.33519957072024492 0 0.077666072186121204 0.34516438853037801 0 0.074728257989039745 0.33000512126716891 0 0.077666072186121204 0.34516438853037801 0 0.066573411289030826 0.33519957072024492 0 0.066319097633892321 0.35584104015204371 0 0.066573411289030826 0.33519957072024492 0 0.066319097633892321 0.35584104015204371 0 0.077666072186121204 0.34516438853037801 0 0.072599628298336438 0.35832736929116349 0 0.077666072186121204 0.34516438853037801 0 0.081721611841939504 0.36609117471043517 0 0.066319097633892321 0.35584104015204371 0 0.062348332468100641 0.35957723222249638 0 0.066319097633892321 0.35584104015204371 0 0.062348332468100641 0.35957723222249638 0 0.059887644102313231 0.35583194796273382 0 0.066319097633892321 0.35584104015204371 0 0.072599628298336438 0.35832736929116349 0 0.077666072186121204 0.34516438853037801 0 0.066319097633892321 0.35584104015204371 0 0.077666072186121204 0.34516438853037801 0 0.098425786747696614 0.33961598467064208 0 0.077666072186121204 0.34516438853037801 0 0.092108983285303703 0.34963298478862909 0 0.077666072186121204 0.34516438853037801 0 0.0886058398182544 0.35723480305553018 0 0.081721611841939504 0.36609117471043517 0 0.077666072186121204 0.34516438853037801 0 0.081721611841939504 0.36609117471043517 0 0.094552077149147498 0.35507933330598812 0 0.096970081433520233 0.36378808174502919 0 0.0886058398182544 0.35723480305553018 0 0.094552077149147498 0.35507933330598812 0 0.0886058398182544 0.35723480305553018 0 0.092108983285303703 0.34963298478862909 0 0.077666072186121204 0.34516438853037801 0 0.0886058398182544 0.35723480305553018 0 0.092108983285303703 0.34963298478862909 0 0.084341955444361044 0.37961227792723379 0 0.092449965536357898 0.37143171703073841 0 0.081721611841939504 0.36609117471043517 0 0.096970081433520233 0.36378808174502919 0 0.092449965536357898 0.37143171703073841 0 0.081721611841939504 0.36609117471043517 0 0.096970081433520233 0.36378808174502919 0 0.0886058398182544 0.35723480305553018 0 0.081721611841939504 0.36609117471043517 0 0.096970081433520233 0.36378808174502919 0 0.081721611841939504 0.36609117471043517 0 0.084341955444361044 0.37961227792723379 0 0.081721611841939504 0.36609117471043517 0 0.07856329134812981 0.37390160315812471 0 0.084341955444361044 0.37961227792723379 0 0.081721611841939504 0.36609117471043517 0 0.077205184093142948 0.38219006419039903 0 0.07856329134812981 0.37390160315812471 0 0.07098441401307648 0.36771289580443028 0 0.077205184093142948 0.38219006419039903 0 0.07098441401307648 0.36771289580443028 0 0.067990626142223565 0.36816507047965702 0 0.077205184093142948 0.38219006419039903 0 0.07098441401307648 0.36771289580443028 0 0.081721611841939504 0.36609117471043517 0 0.07856329134812981 0.37390160315812471 0 0.07098441401307648 0.36771289580443028 0 0.081721611841939504 0.36609117471043517 0 0.07098441401307648 0.36771289580443028 0 0.072599628298336438 0.35832736929116349 0 0.081721611841939504 0.36609117471043517 0 0.07098441401307648 0.36771289580443028 0 0.066319097633892321 0.35584104015204371 0 0.06620082230776396 0.36544090425750653 0 0.066319097633892321 0.35584104015204371 0 0.06620082230776396 0.36544090425750653 0 0.062348332468100641 0.35957723222249638 0 0.066319097633892321 0.35584104015204371 0 0.07098441401307648 0.36771289580443028 0 0.06620082230776396 0.36544090425750653 0 0.066319097633892321 0.35584104015204371 0 0.072599628298336438 0.35832736929116349 0 0.07098441401307648 0.36771289580443028 0 0.066319097633892321 0.35584104015204371 0 0.07098441401307648 0.36771289580443028 0 0.07098441401307648 0.36771289580443028 0 0.06620082230776396 0.36544090425750653 0 0.067990626142223565 0.36816507047965702 0 0.06620082230776396 0.36544090425750653 0 0.067990626142223565 0.36816507047965702 0 0.06620082230776396 0.36544090425750653 0 0.063556055498084824 0.36649689731633661 0 0.060859471313764242 0.36135991842726878 0 0.06620082230776396 0.36544090425750653 0 0.06616385980000257 0.36844098096937927 0 0.06620082230776396 0.36544090425750653 0 0.063556055498084824 0.36649689731633661 0 0.06616385980000257 0.36844098096937927 0 0.06620082230776396 0.36544090425750653 0 0.060859471313764242 0.36135991842726878 0 0.062348332468100641 0.35957723222249638 0 0.06620082230776396 0.36544090425750653 0 0.062348332468100641 0.35957723222249638 0 0.070727618337926235 0.37997122991889831 0 0.067990626142223565 0.36816507047965702 0 0.066137955661315584 0.37494030005877049 0 0.067990626142223565 0.36816507047965702 0 0.06616385980000257 0.36844098096937927 0 0.066137955661315584 0.37494030005877049 0 0.07098441401307648 0.36771289580443028 0 0.067990626142223565 0.36816507047965702 0 0.06620082230776396 0.36544090425750653 0 0.067990626142223565 0.36816507047965702 0 0.06616385980000257 0.36844098096937927 0 0.067990626142223565 0.36816507047965702 0 0.06616385980000257 0.36844098096937927 0 0.06616385980000257 0.36844098096937927 0 0.061342901162887847 0.36916912721753858 0 0.06616385980000257 0.36844098096937927 0 0.066137955661315584 0.37494030005877049 0 0.061342901162887847 0.36916912721753858 0 0.063556055498084824 0.36649689731633661 0 0.06616385980000257 0.36844098096937927 0 0.061342901162887847 0.36916912721753858 0 0.066137955661315584 0.37494030005877049 0 0.061342901162887847 0.36916912721753858 0 0.06616385980000257 0.36844098096937927 0 0.066137955661315584 0.37494030005877049 0 0.066137955661315584 0.37494030005877049 0 0.060386341461311763 0.37478775816706661 0 0.061342901162887847 0.36916912721753858 0 0.061342901162887847 0.36916912721753858 0 0.042954253050239047 0.3719465053574999 0 0.052946775063646367 0.37584257789266518 0 0.061342901162887847 0.36916912721753858 0 0.042954253050239047 0.3719465053574999 0 0.061342901162887847 0.36916912721753858 0 0.060859471313764242 0.36135991842726878 0 0.05299352348986535 0.35140499166627043 0 0.052946775063646367 0.37584257789266518 0 0.060386341461311763 0.37478775816706661 0 0.061342901162887847 0.36916912721753858 0 0.061342901162887847 0.36916912721753858 0 0.043527626987868231 0.3477272381812978 0 0.045735100492876102 0.3624552404071974 0 0.061342901162887847 0.36916912721753858 0 0.042954253050239047 0.3719465053574999 0 0.045735100492876102 0.3624552404071974 0 0.063556055498084824 0.36649689731633661 0 0.061342901162887847 0.36916912721753858 0 0.060859471313764242 0.36135991842726878 0 0.061342901162887847 0.36916912721753858 0 0.043527626987868231 0.3477272381812978 0 0.066319097633892321 0.35584104015204371 0 0.057906489009868743 0.33727754455793763 0 0.059887644102313231 0.35583194796273382 0 0.05299352348986535 0.35140499166627043 0 0.057906489009868743 0.33727754455793763 0 0.061342901162887847 0.36916912721753858 0 0.05299352348986535 0.35140499166627043 0 0.043527626987868231 0.3477272381812978 0 0.066319097633892321 0.35584104015204371 0 0.059887644102313231 0.35583194796273382 0 0.057906489009868743 0.33727754455793763 0 0.060859471313764242 0.36135991842726878 0 0.059887644102313231 0.35583194796273382 0 0.05299352348986535 0.35140499166627043 0 0.060859471313764242 0.36135991842726878 0 0.062348332468100641 0.35957723222249638 0 0.059887644102313231 0.35583194796273382 0 0.062348332468100641 0.35957723222249638 0 0.059887644102313231 0.35583194796273382 0 0.05299352348986535 0.35140499166627043 0 0.043527626987868231 0.3477272381812978 0 0.050727992485640069 0.34204781896865111 0 0.043527626987868231 0.3477272381812978 0 0.02860565798467302 0.35013504693425868 0 0.025767130556677151 0.34067197388867948 0 0.043527626987868231 0.3477272381812978 0 0.045735100492876102 0.3624552404071974 0 0.035115620770509212 0.36097809087245269 0 0.043527626987868231 0.3477272381812978 0 0.035115620770509212 0.36097809087245269 0 0.02860565798467302 0.35013504693425868 0 0.042954253050239047 0.3719465053574999 0 0.024565604937590229 0.37472388349746072 0 0.042954253050239047 0.3719465053574999 0 0.035115620770509212 0.36097809087245269 0 0.024565604937590229 0.37472388349746072 0 0.042954253050239047 0.3719465053574999 0 0.045735100492876102 0.3624552404071974 0 0.035115620770509212 0.36097809087245269 0 0.024565604937590229 0.37472388349746072 0 0.020277031743418689 0.3599481341989576 0 0.024565604937590229 0.37472388349746072 0 0.020277031743418689 0.3599481341989576 0 0.0095873604691705736 0.36677720413169801 0 0.035115620770509212 0.36097809087245269 0 0.024565604937590229 0.37472388349746072 0 0.020277031743418689 0.3599481341989576 0 0.035115620770509212 0.36097809087245269 0 0.020277031743418689 0.3599481341989576 0 0.02860565798467302 0.35013504693425868 0 0.02860565798467302 0.35013504693425868 0 0.0159884585492472 0.34517238490045449 0 0.025767130556677151 0.34067197388867948 0 0.020277031743418689 0.3599481341989576 0 0.02860565798467302 0.35013504693425868 0 0.0159884585492472 0.34517238490045449 0 0.020277031743418689 0.3599481341989576 0 0.0159884585492472 0.34517238490045449 0 0.020277031743418689 0.3599481341989576 0 0.0159884585492472 0.34517238490045449 0 0.0075999617333648113 0.35561733717685878 0 0.0159884585492472 0.34517238490045449 0 0.0075999617333648113 0.35561733717685878 0 0.003323615605882289 0.33927713467499387 0 -0.0040827383222195781 0.35109057594634829 0 0.0075999617333648113 0.35561733717685878 0 0.003323615605882289 0.33927713467499387 0 -0.0059749126274599154 0.3653843430321988 0 0.0075999617333648113 0.35561733717685878 0 0.0095873604691705736 0.36677720413169801 0 0.001469116558939054 0.37821232275301397 0 0.024565604937590229 0.37472388349746072 0 0.0095873604691705736 0.36677720413169801 0 -0.0059749126274599154 0.3653843430321988 0 0.001469116558939054 0.37821232275301397 0 0.0095873604691705736 0.36677720413169801 0 0.020277031743418689 0.3599481341989576 0 0.0075999617333648113 0.35561733717685878 0 0.0095873604691705736 0.36677720413169801 0 -0.003860846205333693 0.31351861193422748 0 0.0072672062347961756 0.32307572668094031 0 0.0078970786378271193 0.30484346010881752 0 0.0072672062347961756 0.32307572668094031 0 0.025712352812847668 0.32628534914505758 0 0.0078970786378271193 0.30484346010881752 0 0.0072672062347961756 0.32307572668094031 0 0.003323615605882289 0.33927713467499387 0 0.01500155644874961 0.33403985028232908 0 -0.0083119161314481969 0.32689323102362622 0 0.0072672062347961756 0.32307572668094031 0 0.003323615605882289 0.33927713467499387 0 0.0159884585492472 0.34517238490045449 0 0.003323615605882289 0.33927713467499387 0 0.01500155644874961 0.33403985028232908 0 0.01500155644874961 0.33403985028232908 0 0.025767130556677151 0.34067197388867948 0 0.025712352812847668 0.32628534914505758 0 0.0159884585492472 0.34517238490045449 0 0.01500155644874961 0.33403985028232908 0 0.025767130556677151 0.34067197388867948 0 0.0072672062347961756 0.32307572668094031 0 0.01500155644874961 0.33403985028232908 0 0.025712352812847668 0.32628534914505758 0 0.025712352812847668 0.32628534914505758 0 0.0078970786378271193 0.30484346010881752 0 0.025712352812847668 0.32628534914505758 0 0.036080602804983937 0.30960050646949611 0 0.024304984730837299 0.30413502623142308 0 0.025712352812847668 0.32628534914505758 0 0.039673435971373183 0.31862497568920117 0 0.036080602804983937 0.30960050646949611 0 0.025712352812847668 0.32628534914505758 0 0.039673435971373183 0.31862497568920117 0 0.041475438167891801 0.33064690994676132 0 0.039673435971373183 0.31862497568920117 0 0.041475438167891801 0.33064690994676132 0 0.049804326775705871 0.31842194220570208 0 0.039673435971373183 0.31862497568920117 0 0.046241097532026987 0.31012948498664628 0 0.036080602804983937 0.30960050646949611 0 0.039673435971373183 0.31862497568920117 0 0.049804326775705871 0.31842194220570208 0 0.046241097532026987 0.31012948498664628 0 0.043527626987868231 0.3477272381812978 0 0.025767130556677151 0.34067197388867948 0 0.025712352812847668 0.32628534914505758 0 0.043527626987868231 0.3477272381812978 0 0.025712352812847668 0.32628534914505758 0 0.041475438167891801 0.33064690994676132 0 0.043527626987868231 0.3477272381812978 0 0.025712352812847668 0.32628534914505758 0 0.043527626987868231 0.3477272381812978 0 0.041475438167891801 0.33064690994676132 0 0.050727992485640069 0.34204781896865111 0 0.050727992485640069 0.34204781896865111 0 0.049804326775705871 0.31842194220570208 0 0.041475438167891801 0.33064690994676132 0 0.050727992485640069 0.34204781896865111 0 0.049804326775705871 0.31842194220570208 0 0.050727992485640069 0.34204781896865111 0 0.057906489009868743 0.33727754455793763 0 0.049804326775705871 0.31842194220570208 0 0.05299352348986535 0.35140499166627043 0 0.050727992485640069 0.34204781896865111 0 0.057906489009868743 0.33727754455793763 0 0.066573411289030826 0.33519957072024492 0 0.057906489009868743 0.33727754455793763 0 0.059633388311997673 0.32536697280426158 0 0.066827724944140271 0.31455810128844558 0 0.049804326775705871 0.31842194220570208 0 0.059633388311997673 0.32536697280426158 0 0.057906489009868743 0.33727754455793763 0 0.049804326775705871 0.31842194220570208 0 0.057906489009868743 0.33727754455793763 0 0.049804326775705871 0.31842194220570208 0 0.059633388311997673 0.32536697280426158 0 0.049804326775705871 0.31842194220570208 0 0.046241097532026987 0.31012948498664628 0 0.066827724944140271 0.31455810128844558 0 0.04901500651346534 0.29823240497190889 0 0.067082038599260249 0.29391663185664663 0 0.066827724944140271 0.31455810128844558 0 0.049804326775705871 0.31842194220570208 0 0.04901500651346534 0.29823240497190889 0 0.049804326775705871 0.31842194220570208 0 0.04901500651346534 0.29823240497190889 0 0.049804326775705871 0.31842194220570208 0 0.04901500651346534 0.29823240497190889 0 0.046241097532026987 0.31012948498664628 0 0.04901500651346534 0.29823240497190889 0 0.055615433555380588 0.28588892805208932 0 0.067082038599260249 0.29391663185664663 0 0.04901500651346534 0.29823240497190889 0 0.048071476563774758 0.27409843304489889 0 0.04901500651346534 0.29823240497190889 0 0.055615433555380588 0.28588892805208932 0 0.048071476563774758 0.27409843304489889 0 0.055615433555380588 0.28588892805208932 0 0.058842539712014558 0.27764054003748578 0 0.067082038599260249 0.29391663185664663 0 0.04901500651346534 0.29823240497190889 0 0.067082038599260249 0.29391663185664663 0 0.04901500651346534 0.29823240497190889 0 0.032017373421507657 0.29394929332400332 0 0.037541657333522369 0.28783475914438239 0 0.04901500651346534 0.29823240497190889 0 0.037541657333522369 0.28783475914438239 0 0.041700371433828792 0.28083150275320751 0 0.04901500651346534 0.29823240497190889 0 0.041700371433828792 0.28083150275320751 0 0.048071476563774758 0.27409843304489889 0 0.032017373421507657 0.29394929332400332 0 0.037541657333522369 0.28783475914438239 0 0.03064180209764937 0.28579829389447042 0 0.037541657333522369 0.28783475914438239 0 0.03064180209764937 0.28579829389447042 0 0.033912109114237289 0.27972077196759632 0 0.037541657333522369 0.28783475914438239 0 0.033912109114237289 0.27972077196759632 0 0.041700371433828792 0.28083150275320751 0 0.04901500651346534 0.29823240497190889 0 0.032017373421507657 0.29394929332400332 0 0.024304984730837299 0.30413502623142308 0 0.04901500651346534 0.29823240497190889 0 0.036080602804983937 0.30960050646949611 0 0.024304984730837299 0.30413502623142308 0 0.04901500651346534 0.29823240497190889 0 0.024304984730837299 0.30413502623142308 0 0.04901500651346534 0.29823240497190889 0 0.046241097532026987 0.31012948498664628 0 0.036080602804983937 0.30960050646949611 0 0.025712352812847668 0.32628534914505758 0 0.024304984730837299 0.30413502623142308 0 0.0078970786378271193 0.30484346010881752 0 0.024304984730837299 0.30413502623142308 0 0.022413573075614101 0.28706631093808832 0 0.01160775709485508 0.29261288285021197 0 0.032017373421507657 0.29394929332400332 0 0.024304984730837299 0.30413502623142308 0 0.022413573075614101 0.28706631093808832 0 0.03064180209764937 0.28579829389447042 0 0.022413573075614101 0.28706631093808832 0 0.027324297543365451 0.28042033409828182 0 0.032017373421507657 0.29394929332400332 0 0.03064180209764937 0.28579829389447042 0 0.022413573075614101 0.28706631093808832 0 0.03064180209764937 0.28579829389447042 0 0.027324297543365451 0.28042033409828182 0 0.033912109114237289 0.27972077196759632 0 0.022413573075614101 0.28706631093808832 0 0.01160775709485508 0.29261288285021197 0 0.012595922244947939 0.27412516136125692 0 -0.00043330719363736072 0.28730603648085062 0 0.01160775709485508 0.29261288285021197 0 0.012595922244947939 0.27412516136125692 0 -0.00043330719363736072 0.28730603648085062 0 0.01160775709485508 0.29261288285021197 0 0.0078970786378271193 0.30484346010881752 0 0.024304984730837299 0.30413502623142308 0 0.01160775709485508 0.29261288285021197 0 0.0078970786378271193 0.30484346010881752 0 -0.0010946476457873409 0.26599280009174858 0 0.013123440841508641 0.25580196675434841 0 0.027075822383603908 0.26749949190636652 0 -0.0010946476457873409 0.26599280009174858 0 0.00078604608867878457 0.24678879113798841 0 0.013123440841508641 0.25580196675434841 0 -0.0010946476457873409 0.26599280009174858 0 0.012595922244947939 0.27412516136125692 0 0.027075822383603908 0.26749949190636652 0 -0.0010946476457873409 0.26599280009174858 0 -0.00043330719363736072 0.28730603648085062 0 0.012595922244947939 0.27412516136125692 0 -0.0010946476457873409 0.26599280009174858 0 0.027075822383603908 0.26749949190636652 0 0.012595922244947939 0.27412516136125692 0 0.022117402899652739 0.27602894114557908 0 0.027075822383603908 0.26749949190636652 0 0.022413573075614101 0.28706631093808832 0 0.012595922244947939 0.27412516136125692 0 0.022117402899652739 0.27602894114557908 0 0.022413573075614101 0.28706631093808832 0 0.022117402899652739 0.27602894114557908 0 0.027324297543365451 0.28042033409828182 0 0.022117402899652739 0.27602894114557908 0 0.027324297543365451 0.28042033409828182 0 0.02851597346585857 0.27378023691374131 0 0.027324297543365451 0.28042033409828182 0 0.02851597346585857 0.27378023691374131 0 0.033912109114237289 0.27972077196759632 0 0.022117402899652739 0.27602894114557908 0 0.02851597346585857 0.27378023691374131 0 0.027075822383603908 0.26749949190636652 0 0.02851597346585857 0.27378023691374131 0 0.027075822383603908 0.26749949190636652 0 0.031953200633371912 0.27350184254223903 0 0.02851597346585857 0.27378023691374131 0 0.027075822383603908 0.26749949190636652 0 0.02074561315948352 0.23989236757757401 0 0.013123440841508641 0.25580196675434841 0 0.027075822383603908 0.26749949190636652 0 0.02074561315948352 0.23989236757757401 0 0.034451152271647488 0.24664222207921541 0 0.027075822383603908 0.26749949190636652 0 0.02074561315948352 0.23989236757757401 0 0.027075822383603908 0.26749949190636652 0 0.047127946614086987 0.24996446111788881 0 0.037978623397910263 0.25875735230657138 0 0.047072742622351497 0.26856902308600028 0 0.034451152271647488 0.24664222207921541 0 0.027075822383603908 0.26749949190636652 0 0.037978623397910263 0.25875735230657138 0 0.027075822383603908 0.26749949190636652 0 0.037978623397910263 0.25875735230657138 0 0.047072742622351497 0.26856902308600028 0 0.047127946614086987 0.24996446111788881 0 0.034451152271647488 0.24664222207921541 0 0.037978623397910263 0.25875735230657138 0 0.027075822383603908 0.26749949190636652 0 0.047072742622351497 0.26856902308600028 0 0.027075822383603908 0.26749949190636652 0 0.038308897569787899 0.27300686938125213 0 0.047072742622351497 0.26856902308600028 0 0.033912109114237289 0.27972077196759632 0 0.038308897569787899 0.27300686938125213 0 0.041700371433828792 0.28083150275320751 0 0.033912109114237289 0.27972077196759632 0 0.031953200633371912 0.27350184254223903 0 0.038308897569787899 0.27300686938125213 0 0.02851597346585857 0.27378023691374131 0 0.033912109114237289 0.27972077196759632 0 0.031953200633371912 0.27350184254223903 0 0.027075822383603908 0.26749949190636652 0 0.031953200633371912 0.27350184254223903 0 0.038308897569787899 0.27300686938125213 0 0.038308897569787899 0.27300686938125213 0 0.043664003321935527 0.27354626305001573 0 0.047072742622351497 0.26856902308600028 0 0.043664003321935527 0.27354626305001573 0 0.048071476563774758 0.27409843304489889 0 0.047072742622351497 0.26856902308600028 0 0.038308897569787899 0.27300686938125213 0 0.043664003321935527 0.27354626305001573 0 0.041700371433828792 0.28083150275320751 0 0.043664003321935527 0.27354626305001573 0 0.041700371433828792 0.28083150275320751 0 0.048071476563774758 0.27409843304489889 0 0.055615433555380588 0.28588892805208932 0 0.048071476563774758 0.27409843304489889 0 0.058842539712014558 0.27764054003748578 0 0.048071476563774758 0.27409843304489889 0 0.058842539712014558 0.27764054003748578 0 0.056060401587328022 0.26483799392533292 0 0.058842539712014558 0.27764054003748578 0 0.056060401587328022 0.26483799392533292 0 0.067383348254339753 0.26946071330846172 0 0.056060401587328022 0.26483799392533292 0 0.056540995624820033 0.25261720487182782 0 0.067383348254339753 0.26946071330846172 0 0.047127946614086987 0.24996446111788881 0 0.048071476563774758 0.27409843304489889 0 0.047127946614086987 0.24996446111788881 0 0.048071476563774758 0.27409843304489889 0 0.056060401587328022 0.26483799392533292 0 0.047127946614086987 0.24996446111788881 0 0.048071476563774758 0.27409843304489889 0 0.047072742622351497 0.26856902308600028 0 0.047127946614086987 0.24996446111788881 0 0.056060401587328022 0.26483799392533292 0 0.056540995624820033 0.25261720487182782 0 0.067684657909432247 0.24500479476027689 0 0.056540995624820033 0.25261720487182782 0 0.067383348254339753 0.26946071330846172 0 0.067684657909432247 0.24500479476027689 0 0.067383348254339753 0.26946071330846172 0 0.067684657909432247 0.24500479476027689 0 0.081311918929848126 0.25262264126969791 0 0.067383348254339753 0.26946071330846172 0 0.096376220560316098 0.24709182360332529 0 0.081311918929848126 0.25262264126969791 0 0.093307184097297213 0.26619908151258098 0 0.081311918929848126 0.25262264126969791 0 0.093307184097297213 0.26619908151258098 0 0.067383348254339753 0.26946071330846172 0 0.093307184097297213 0.26619908151258098 0 0.067383348254339753 0.26946071330846172 0 0.089636342191476925 0.2885289590716133 0 0.058842539712014558 0.27764054003748578 0 0.067383348254339753 0.26946071330846172 0 0.067082038599260249 0.29391663185664663 0 0.067383348254339753 0.26946071330846172 0 0.067082038599260249 0.29391663185664663 0 0.089636342191476925 0.2885289590716133 0 0.067383348254339753 0.26946071330846172 0 0.067082038599260249 0.29391663185664663 0 0.066827724944140271 0.31455810128844558 0 0.067082038599260249 0.29391663185664663 0 0.083900487564655263 0.31546065793833822 0 0.066827724944140271 0.31455810128844558 0 0.080722167008445034 0.30224889853638959 0 0.066827724944140271 0.31455810128844558 0 0.067082038599260249 0.29391663185664663 0 0.080722167008445034 0.30224889853638959 0 0.080722167008445034 0.30224889853638959 0 0.089636342191476925 0.2885289590716133 0 0.096615630641231035 0.30611309179795571 0 0.083900487564655263 0.31546065793833822 0 0.080722167008445034 0.30224889853638959 0 0.096615630641231035 0.30611309179795571 0 0.067082038599260249 0.29391663185664663 0 0.080722167008445034 0.30224889853638959 0 0.089636342191476925 0.2885289590716133 0 0.067082038599260249 0.29391663185664663 0 0.089636342191476925 0.2885289590716133 0 0.089636342191476925 0.2885289590716133 0 0.1086137941887079 0.29850486439461082 0 0.11219064578368371 0.28314128628653801 0 0.089636342191476925 0.2885289590716133 0 0.11219064578368371 0.28314128628653801 0 0.096615630641231035 0.30611309179795571 0 0.1086137941887079 0.29850486439461082 0 0.1156520549318536 0.30942242908436141 0 0.089636342191476925 0.2885289590716133 0 0.096615630641231035 0.30611309179795571 0 0.1086137941887079 0.29850486439461082 0 0.1086137941887079 0.29850486439461082 0 0.1156520549318536 0.30942242908436141 0 0.1212776406944049 0.29225856843692177 0 0.1156520549318536 0.30942242908436141 0 0.1212776406944049 0.29225856843692177 0 0.1346450463047206 0.29155144936135369 0 0.11219064578368371 0.28314128628653801 0 0.1212776406944049 0.29225856843692177 0 0.1347449493758904 0.2777536135014626 0 0.1086137941887079 0.29850486439461082 0 0.11219064578368371 0.28314128628653801 0 0.1212776406944049 0.29225856843692177 0 0.11219064578368371 0.28314128628653801 0 0.1347449493758904 0.2777536135014626 0 0.11219064578368371 0.28314128628653801 0 0.122598329490925 0.27089276136067392 0 0.1118780970565018 0.26182923586056789 0 0.11219064578368371 0.28314128628653801 0 0.122598329490925 0.27089276136067392 0 0.1347449493758904 0.2777536135014626 0 0.1137556677469518 0.24327785068076879 0 0.13157962574762419 0.26084690979412711 0 0.1137556677469518 0.24327785068076879 0 0.1118780970565018 0.26182923586056789 0 0.13157962574762419 0.26084690979412711 0 0.122598329490925 0.27089276136067392 0 0.1118780970565018 0.26182923586056789 0 0.13157962574762419 0.26084690979412711 0 0.1137556677469518 0.24327785068076879 0 0.096376220560316098 0.24709182360332529 0 0.1118780970565018 0.26182923586056789 0 0.096376220560316098 0.24709182360332529 0 0.093307184097297213 0.26619908151258098 0 0.1118780970565018 0.26182923586056789 0 0.093307184097297213 0.26619908151258098 0 0.089636342191476925 0.2885289590716133 0 0.11219064578368371 0.28314128628653801 0 0.093307184097297213 0.26619908151258098 0 0.11219064578368371 0.28314128628653801 0 0.1118780970565018 0.26182923586056789 0 0.14940358374829679 0.27841596890748538 0 0.14893238512369489 0.25643887141978111 0 0.16576628710114549 0.26960293963739668 0 0.14940358374829679 0.27841596890748538 0 0.14893238512369489 0.25643887141978111 0 0.13157962574762419 0.26084690979412711 0 0.13577324987587541 0.24088922869785701 0 0.14893238512369489 0.25643887141978111 0 0.13157962574762419 0.26084690979412711 0 0.14940358374829679 0.27841596890748538 0 0.13157962574762419 0.26084690979412711 0 0.14940358374829679 0.27841596890748538 0 0.13157962574762419 0.26084690979412711 0 0.1347449493758904 0.2777536135014626 0 0.122598329490925 0.27089276136067392 0 0.13157962574762419 0.26084690979412711 0 0.1347449493758904 0.2777536135014626 0 0.1212776406944049 0.29225856843692177 0 0.1347449493758904 0.2777536135014626 0 0.1346450463047206 0.29155144936135369 0 0.14940358374829679 0.27841596890748538 0 0.1347449493758904 0.2777536135014626 0 0.1346450463047206 0.29155144936135369 0 0.1156520549318536 0.30942242908436141 0 0.1346450463047206 0.29155144936135369 0 0.1346450463047206 0.29155144936135369 0 0.12877679390037611 0.31000209145944507 0 0.14089987585839489 0.30250575362905929 0 0.1156520549318536 0.30942242908436141 0 0.1346450463047206 0.29155144936135369 0 0.12877679390037611 0.31000209145944507 0 0.12877679390037611 0.31000209145944507 0 0.14089987585839489 0.30250575362905929 0 0.15056160185224221 0.31280009542650339 0 0.1496160613762407 0.29566937826893508 0 0.16722754174896939 0.29598502802084381 0 0.15056160185224221 0.31280009542650339 0 0.14089987585839489 0.30250575362905929 0 0.1496160613762407 0.29566937826893508 0 0.15056160185224221 0.31280009542650339 0 0.14940358374829679 0.27841596890748538 0 0.1496160613762407 0.29566937826893508 0 0.16722754174896939 0.29598502802084381 0 0.14940358374829679 0.27841596890748538 0 0.1346450463047206 0.29155144936135369 0 0.1496160613762407 0.29566937826893508 0 0.1346450463047206 0.29155144936135369 0 0.14089987585839489 0.30250575362905929 0 0.1496160613762407 0.29566937826893508 0 0.14940358374829679 0.27841596890748538 0 0.16722754174896939 0.29598502802084381 0 0.14940358374829679 0.27841596890748538 0 0.16722754174896939 0.29598502802084381 0 0.16576628710114549 0.26960293963739668 0 0.16722754174896939 0.29598502802084381 0 0.15056160185224221 0.31280009542650339 0 0.16722754174896939 0.29598502802084381 0 0.1640633387012338 0.315782588619403 0 0.15056160185224221 0.31280009542650339 0 0.16722754174896939 0.29598502802084381 0 0.17511810654585039 0.31720785356835768 0 0.1640633387012338 0.315782588619403 0 0.16722754174896939 0.29598502802084381 0 0.18622225067974779 0.31470809525615079 0 0.16722754174896939 0.29598502802084381 0 0.18622225067974779 0.31470809525615079 0 0.17511810654585039 0.31720785356835768 0 0.16722754174896939 0.29598502802084381 0 0.1959824317677841 0.29412413634298762 0 0.18622225067974779 0.31470809525615079 0 0.16722754174896939 0.29598502802084381 0 0.18619284212434559 0.27685002536536418 0 0.16722754174896939 0.29598502802084381 0 0.18619284212434559 0.27685002536536418 0 0.1959824317677841 0.29412413634298762 0 0.18619284212434559 0.27685002536536418 0 0.16576628710114549 0.26960293963739668 0 0.17931245999239509 0.25959839036624888 0 0.16722754174896939 0.29598502802084381 0 0.18619284212434559 0.27685002536536418 0 0.16576628710114549 0.26960293963739668 0 0.14893238512369489 0.25643887141978111 0 0.16576628710114549 0.26960293963739668 0 0.1635289098691716 0.25032935374465742 0 0.16576628710114549 0.26960293963739668 0 0.1635289098691716 0.25032935374465742 0 0.17931245999239509 0.25959839036624888 0 0.17702095730703921 0.24263156709986539 0 0.19154732197045099 0.24989166113898409 0 0.17931245999239509 0.25959839036624888 0 0.17702095730703921 0.24263156709986539 0 0.1635289098691716 0.25032935374465742 0 0.17931245999239509 0.25959839036624888 0 0.19154732197045099 0.24989166113898409 0 0.17931245999239509 0.25959839036624888 0 0.20515814249971351 0.25771502270987628 0 0.18619284212434559 0.27685002536536418 0 0.17931245999239509 0.25959839036624888 0 0.20515814249971351 0.25771502270987628 0 0.19154732197045099 0.24989166113898409 0 0.2068760714913315 0.25384484126876389 0 0.20515814249971351 0.25771502270987628 0 0.18619284212434559 0.27685002536536418 0 0.20515814249971351 0.25771502270987628 0 0.18619284212434559 0.27685002536536418 0 0.20747451401872469 0.27456655474043629 0 0.20515814249971351 0.25771502270987628 0 0.20747451401872469 0.27456655474043629 0 0.21615741577319009 0.26763240529397991 0 0.22465158988199771 0.27823475258349289 0 0.20747451401872469 0.27456655474043629 0 0.22465158988199771 0.27823475258349289 0 0.21329321475596999 0.28901379052801868 0 0.20747451401872469 0.27456655474043629 0 0.21615741577319009 0.26763240529397991 0 0.21247500370739639 0.26196120618749869 0 0.22412344287508229 0.2385800200543893 0 0.2068760714913315 0.25384484126876389 0 0.20515814249971351 0.25771502270987628 0 0.20747451401872469 0.27456655474043629 0 0.20515814249971351 0.25771502270987628 0 0.21247500370739639 0.26196120618749869 0 0.20515814249971351 0.25771502270987628 0 0.21247500370739639 0.26196120618749869 0 0.21600402894377591 0.25574719168017052 0 0.21615741577319009 0.26763240529397991 0 0.21247500370739639 0.26196120618749869 0 0.21983853686688101 0.26140438256590692 0 0.21247500370739639 0.26196120618749869 0 0.21600402894377591 0.25574719168017052 0 0.21983853686688101 0.26140438256590692 0 0.20515814249971351 0.25771502270987628 0 0.21600402894377591 0.25574719168017052 0 0.22036769382774901 0.25054791410220723 0 0.21906318420961379 0.247802371404342 0 0.20515814249971351 0.25771502270987628 0 0.22036769382774901 0.25054791410220723 0 0.22255875348912821 0.25571012252952918 0 0.22885494512739871 0.25024572599068279 0 0.22772856267983621 0.2606053983086789 0 0.22036769382774901 0.25054791410220723 0 0.22255875348912821 0.25571012252952918 0 0.22885494512739871 0.25024572599068279 0 0.21600402894377591 0.25574719168017052 0 0.22036769382774901 0.25054791410220723 0 0.22255875348912821 0.25571012252952918 0 0.21600402894377591 0.25574719168017052 0 0.22255875348912821 0.25571012252952918 0 0.21983853686688101 0.26140438256590692 0 0.22885494512739871 0.25024572599068279 0 0.22772856267983621 0.2606053983086789 0 0.23507042217394439 0.25756457460733628 0 0.22772856267983621 0.2606053983086789 0 0.23856470965594639 0.26807141709233429 0 0.23507042217394439 0.25756457460733628 0 0.22772856267983621 0.2606053983086789 0 0.21983853686688101 0.26140438256590692 0 0.22451572724532209 0.26854475801069339 0 0.22255875348912821 0.25571012252952918 0 0.22772856267983621 0.2606053983086789 0 0.21983853686688101 0.26140438256590692 0 0.21615741577319009 0.26763240529397991 0 0.21983853686688101 0.26140438256590692 0 0.22451572724532209 0.26854475801069339 0 0.21615741577319009 0.26763240529397991 0 0.22451572724532209 0.26854475801069339 0 0.22465158988199771 0.27823475258349289 0 0.22451572724532209 0.26854475801069339 0 0.22465158988199771 0.27823475258349289 0 0.23856470965594639 0.26807141709233429 0 0.22772856267983621 0.2606053983086789 0 0.22451572724532209 0.26854475801069339 0 0.23856470965594639 0.26807141709233429 0 0.22465158988199771 0.27823475258349289 0 0.23856470965594639 0.26807141709233429 0 0.2399843947419818 0.28661617184751792 0 0.23856470965594639 0.26807141709233429 0 0.2399843947419818 0.28661617184751792 0 0.25620705141910971 0.27963943373887518 0 0.23856470965594639 0.26807141709233429 0 0.2438721241591377 0.25167873840379662 0 0.23507042217394439 0.25756457460733628 0 0.23856470965594639 0.26807141709233429 0 0.2438721241591377 0.25167873840379662 0 0.25837332287901649 0.26029226688259027 0 0.22885494512739871 0.25024572599068279 0 0.2438721241591377 0.25167873840379662 0 0.23507042217394439 0.25756457460733628 0 0.23908292882361229 0.30258203705803582 0 0.24808748913268031 0.31562373023971702 0 0.23857683436127861 0.31792718636871159 0 0.23908292882361229 0.30258203705803582 0 0.24808748913268031 0.31562373023971702 0 0.25358365163434232 0.30053274337824049 0 0.23908292882361229 0.30258203705803582 0 0.2399843947419818 0.28661617184751792 0 0.25358365163434232 0.30053274337824049 0 0.2399843947419818 0.28661617184751792 0 0.25358365163434232 0.30053274337824049 0 0.25620705141910971 0.27963943373887518 0 0.23908292882361229 0.30258203705803582 0 0.2399843947419818 0.28661617184751792 0 0.22521493312828389 0.29383819736544259 0 0.22465158988199771 0.27823475258349289 0 0.2399843947419818 0.28661617184751792 0 0.22521493312828389 0.29383819736544259 0 0.22465158988199771 0.27823475258349289 0 0.22521493312828389 0.29383819736544259 0 0.21329321475596999 0.28901379052801868 0 0.22521493312828389 0.29383819736544259 0 0.22477075182866091 0.3063184979960405 0 0.2131426049830594 0.30430531160773427 0 0.23908292882361229 0.30258203705803582 0 0.22521493312828389 0.29383819736544259 0 0.22477075182866091 0.3063184979960405 0 0.23908292882361229 0.30258203705803582 0 0.22477075182866091 0.3063184979960405 0 0.2268533686681117 0.31489035328121412 0 0.22477075182866091 0.3063184979960405 0 0.21992743813388299 0.31318074430373061 0 0.2268533686681117 0.31489035328121412 0 0.22477075182866091 0.3063184979960405 0 0.2131426049830594 0.30430531160773427 0 0.21992743813388299 0.31318074430373061 0 0.2131426049830594 0.30430531160773427 0 0.21344653687764031 0.31919484327667552 0 0.21992743813388299 0.31318074430373061 0 0.2131426049830594 0.30430531160773427 0 0.1959824317677841 0.29412413634298762 0 0.2022063955520188 0.31274697880855118 0 0.2131426049830594 0.30430531160773427 0 0.2022063955520188 0.31274697880855118 0 0.21344653687764031 0.31919484327667552 0 0.2131426049830594 0.30430531160773427 0 0.21329321475596999 0.28901379052801868 0 0.1959824317677841 0.29412413634298762 0 0.20747451401872469 0.27456655474043629 0 0.21329321475596999 0.28901379052801868 0 0.1959824317677841 0.29412413634298762 0 0.22521493312828389 0.29383819736544259 0 0.2131426049830594 0.30430531160773427 0 0.21329321475596999 0.28901379052801868 0 0.18619284212434559 0.27685002536536418 0 0.20747451401872469 0.27456655474043629 0 0.1959824317677841 0.29412413634298762 0 0.1959824317677841 0.29412413634298762 0 0.2022063955520188 0.31274697880855118 0 0.18622225067974779 0.31470809525615079 0 0.2022063955520188 0.31274697880855118 0 0.20521695961052661 0.33343116249145749 0 0.18622225067974779 0.31470809525615079 0 0.19016753307818859 0.32531950802990739 0 0.20521695961052661 0.33343116249145749 0 0.18622225067974779 0.31470809525615079 0 0.20521695961052661 0.33343116249145749 0 0.18622225067974779 0.31470809525615079 0 0.19016753307818859 0.32531950802990739 0 0.19224120776601131 0.34110995331931632 0 0.18351907589344141 0.32549743268375098 0 0.19016753307818859 0.32531950802990739 0 0.19224120776601131 0.34110995331931632 0 0.20521695961052661 0.33343116249145749 0 0.19224120776601131 0.34110995331931632 0 0.18351907589344141 0.32549743268375098 0 0.19016753307818859 0.32531950802990739 0 0.20521695961052661 0.33343116249145749 0 0.19224120776601131 0.34110995331931632 0 0.20521695961052661 0.33343116249145749 0 0.2065514902329609 0.34657223030076001 0 0.20521695961052661 0.33343116249145749 0 0.22115676709391111 0.3420227330879177 0 0.20521695961052661 0.33343116249145749 0 0.22115676709391111 0.3420227330879177 0 0.21892181289016061 0.34694002384541461 0 0.20521695961052661 0.33343116249145749 0 0.2173925770623201 0.32848297773663743 0 0.22115676709391111 0.3420227330879177 0 0.20521695961052661 0.33343116249145749 0 0.21892181289016061 0.34694002384541461 0 0.2065514902329609 0.34657223030076001 0 0.20521695961052661 0.33343116249145749 0 0.21892181289016061 0.34694002384541461 0 0.2022063955520188 0.31274697880855118 0 0.20521695961052661 0.33343116249145749 0 0.21344653687764031 0.31919484327667552 0 0.2173925770623201 0.32848297773663743 0 0.21344653687764031 0.31919484327667552 0 0.22142392831194271 0.32119471535698851 0 0.20521695961052661 0.33343116249145749 0 0.2173925770623201 0.32848297773663743 0 0.21344653687764031 0.31919484327667552 0 0.21344653687764031 0.31919484327667552 0 0.21992743813388299 0.31318074430373061 0 0.22142392831194271 0.32119471535698851 0 0.21992743813388299 0.31318074430373061 0 0.2268533686681117 0.31489035328121412 0 0.22142392831194271 0.32119471535698851 0 0.23908292882361229 0.30258203705803582 0 0.2268533686681117 0.31489035328121412 0 0.23072367765895199 0.32301448762834117 0 0.2268533686681117 0.31489035328121412 0 0.2256364766727017 0.32179911962176461 0 0.22142392831194271 0.32119471535698851 0 0.2268533686681117 0.31489035328121412 0 0.23072367765895199 0.32301448762834117 0 0.2256364766727017 0.32179911962176461 0 0.23072367765895199 0.32301448762834117 0 0.23567513802859341 0.32328133624743888 0 0.23438019201156629 0.32810793723973958 0 0.23072367765895199 0.32301448762834117 0 0.2231955650799306 0.32724200194756498 0 0.2256364766727017 0.32179911962176461 0 0.2231955650799306 0.32724200194756498 0 0.2256364766727017 0.32179911962176461 0 0.22142392831194271 0.32119471535698851 0 0.2173925770623201 0.32848297773663743 0 0.2231955650799306 0.32724200194756498 0 0.22142392831194271 0.32119471535698851 0 0.23072367765895199 0.32301448762834117 0 0.22115676709391111 0.3420227330879177 0 0.23072367765895199 0.32301448762834117 0 0.23220718014058991 0.34280652424742208 0 0.22850835527070959 0.33523123379445557 0 0.23072367765895199 0.32301448762834117 0 0.23220718014058991 0.34280652424742208 0 0.23072367765895199 0.32301448762834117 0 0.23220718014058991 0.34280652424742208 0 0.23299968021618619 0.33400139933927181 0 0.2173925770623201 0.32848297773663743 0 0.2231955650799306 0.32724200194756498 0 0.22115676709391111 0.3420227330879177 0 0.23072367765895199 0.32301448762834117 0 0.22115676709391111 0.3420227330879177 0 0.22850835527070959 0.33523123379445557 0 0.23072367765895199 0.32301448762834117 0 0.2231955650799306 0.32724200194756498 0 0.22115676709391111 0.3420227330879177 0 0.22115676709391111 0.3420227330879177 0 0.22850835527070959 0.33523123379445557 0 0.22852748895707301 0.3459955588137118 0 0.23220718014058991 0.34280652424742208 0 0.23299968021618619 0.33400139933927181 0 0.2326111967174361 0.34819668097626588 0 0.23299968021618619 0.33400139933927181 0 0.23554799802528839 0.34073043797420732 0 0.2326111967174361 0.34819668097626588 0 0.23220718014058991 0.34280652424742208 0 0.22850835527070959 0.33523123379445557 0 0.22852748895707301 0.3459955588137118 0 0.23072367765895199 0.32301448762834117 0 0.23299968021618619 0.33400139933927181 0 0.23438019201156629 0.32810793723973958 0 0.23299968021618619 0.33400139933927181 0 0.23589196666075471 0.33148199127555139 0 0.23438019201156629 0.32810793723973958 0 0.23849056376145111 0.3320035277129269 0 0.24428309002532289 0.33375713509263161 0 0.24069478785101381 0.32579353879793971 0 0.23719433858867731 0.32851951605627422 0 0.23589196666075471 0.33148199127555139 0 0.23438019201156629 0.32810793723973958 0 0.23719433858867731 0.32851951605627422 0 0.23589196666075471 0.33148199127555139 0 0.23849056376145111 0.3320035277129269 0 0.23299968021618619 0.33400139933927181 0 0.23622025776130809 0.33437564915292511 0 0.2373504644595176 0.33741453307082903 0 0.23299968021618619 0.33400139933927181 0 0.23589196666075471 0.33148199127555139 0 0.23622025776130809 0.33437564915292511 0 0.23622025776130809 0.33437564915292511 0 0.23849056376145111 0.3320035277129269 0 0.2373504644595176 0.33741453307082903 0 0.23589196666075471 0.33148199127555139 0 0.23622025776130809 0.33437564915292511 0 0.23849056376145111 0.3320035277129269 0 0.23849056376145111 0.3320035277129269 0 0.2373504644595176 0.33741453307082903 0 0.24428309002532289 0.33375713509263161 0 0.23719433858867731 0.32851951605627422 0 0.23849056376145111 0.3320035277129269 0 0.24069478785101381 0.32579353879793971 0 0.23554799802528839 0.34073043797420732 0 0.2373504644595176 0.33741453307082903 0 0.23923065070801369 0.34330913851046241 0 0.23299968021618619 0.33400139933927181 0 0.23554799802528839 0.34073043797420732 0 0.2373504644595176 0.33741453307082903 0 0.2373504644595176 0.33741453307082903 0 0.2442109069357796 0.33974485927538678 0 0.24428309002532289 0.33375713509263161 0 0.2373504644595176 0.33741453307082903 0 0.23923065070801369 0.34330913851046241 0 0.2442109069357796 0.33974485927538678 0 0.2442109069357796 0.33974485927538678 0 0.24428309002532289 0.33375713509263161 0 0.25276909406611109 0.33853655995408199 0 0.2442109069357796 0.33974485927538678 0 0.2465577747650276 0.34464272094215392 0 0.25276909406611109 0.33853655995408199 0 0.23923065070801369 0.34330913851046241 0 0.2442109069357796 0.33974485927538678 0 0.2465577747650276 0.34464272094215392 0 0.24428309002532289 0.33375713509263161 0 0.25219736353756511 0.32691542280319091 0 0.25276909406611109 0.33853655995408199 0 0.24428309002532289 0.33375713509263161 0 0.24069478785101381 0.32579353879793971 0 0.25219736353756511 0.32691542280319091 0 0.24808748913268031 0.31562373023971702 0 0.24069478785101381 0.32579353879793971 0 0.25219736353756511 0.32691542280319091 0 0.23908292882361229 0.30258203705803582 0 0.23072367765895199 0.32301448762834117 0 0.23857683436127861 0.31792718636871159 0 0.23908292882361229 0.30258203705803582 0 0.23072367765895199 0.32301448762834117 0 0.24808748913268031 0.31562373023971702 0 0.23857683436127861 0.31792718636871159 0 0.24069478785101381 0.32579353879793971 0 0.23072367765895199 0.32301448762834117 0 0.23857683436127861 0.31792718636871159 0 0.23567513802859341 0.32328133624743888 0 0.23857683436127861 0.31792718636871159 0 0.23567513802859341 0.32328133624743888 0 0.24069478785101381 0.32579353879793971 0 0.23719433858867731 0.32851951605627422 0 0.23567513802859341 0.32328133624743888 0 0.24069478785101381 0.32579353879793971 0 0.23719433858867731 0.32851951605627422 0 0.23567513802859341 0.32328133624743888 0 0.23438019201156629 0.32810793723973958 0 0.237880124679344 0.36678126610568262 0 0.23457292647272809 0.37436895074600141 0 0.25118990869597579 0.37874665639394561 0 0.23360158420270791 0.36140986101350958 0 0.25118990869597579 0.37874665639394561 0 0.237880124679344 0.36678126610568262 0 0.23360158420270791 0.36140986101350958 0 0.25118990869597579 0.37874665639394561 0 0.23360158420270791 0.36140986101350958 0 0.25118990869597579 0.37874665639394561 0 0.26437826943248371 0.36531916179410401 0 0.237880124679344 0.36678126610568262 0 0.23457292647272809 0.37436895074600141 0 0.237880124679344 0.36678126610568262 0 0.23457292647272809 0.37436895074600141 0 0.23360158420270791 0.36140986101350958 0 0.2465577747650276 0.34464272094215392 0 0.2384823244012641 0.3513612240881604 0 0.25537891313490357 0.34894679750734542 0 0.2384823244012641 0.3513612240881604 0 0.23360158420270791 0.36140986101350958 0 0.26437826943248371 0.36531916179410401 0 0.2384823244012641 0.3513612240881604 0 0.25537891313490357 0.34894679750734542 0 0.23923065070801369 0.34330913851046241 0 0.2384823244012641 0.3513612240881604 0 0.2326111967174361 0.34819668097626588 0 0.23923065070801369 0.34330913851046241 0 0.2465577747650276 0.34464272094215392 0 0.2384823244012641 0.3513612240881604 0 0.2384823244012641 0.3513612240881604 0 0.2326111967174361 0.34819668097626588 0 0.2384823244012641 0.3513612240881604 0 0.2329080966882901 0.35215774957445062 0 0.2326111967174361 0.34819668097626588 0 0.23554799802528839 0.34073043797420732 0 0.23923065070801369 0.34330913851046241 0 0.2326111967174361 0.34819668097626588 0 0.2384823244012641 0.3513612240881604 0 0.2329080966882901 0.35215774957445062 0 0.23360158420270791 0.36140986101350958 0 0.2384823244012641 0.3513612240881604 0 0.2329080966882901 0.35215774957445062 0 0.2329080966882901 0.35215774957445062 0 0.23360158420270791 0.36140986101350958 0 0.22531586606529411 0.35324263621712387 0 0.23360158420270791 0.36140986101350958 0 0.2329080966882901 0.35215774957445062 0 0.22531586606529411 0.35324263621712387 0 0.23360158420270791 0.36140986101350958 0 0.22370358518378969 0.35775343857925368 0 0.22531586606529411 0.35324263621712387 0 0.23360158420270791 0.36140986101350958 0 0.2329080966882901 0.35215774957445062 0 0.22531586606529411 0.35324263621712387 0 0.2329080966882901 0.35215774957445062 0 0.22847976433211581 0.35011763413132158 0 0.22531586606529411 0.35324263621712387 0 0.23220718014058991 0.34280652424742208 0 0.2326111967174361 0.34819668097626588 0 0.2326111967174361 0.34819668097626588 0 0.22852748895707301 0.3459955588137118 0 0.23220718014058991 0.34280652424742208 0 0.2326111967174361 0.34819668097626588 0 0.22852748895707301 0.3459955588137118 0 0.2329080966882901 0.35215774957445062 0 0.2326111967174361 0.34819668097626588 0 0.22847976433211581 0.35011763413132158 0 0.2329080966882901 0.35215774957445062 0 0.2326111967174361 0.34819668097626588 0 0.2326111967174361 0.34819668097626588 0 0.22847976433211581 0.35011763413132158 0 0.22852748895707301 0.3459955588137118 0 0.22847976433211581 0.35011763413132158 0 0.22852748895707301 0.3459955588137118 0 0.22303617323248651 0.35099554507505598 0 0.23220718014058991 0.34280652424742208 0 0.22852748895707301 0.3459955588137118 0 0.22115676709391111 0.3420227330879177 0 0.22852748895707301 0.3459955588137118 0 0.21892181289016061 0.34694002384541461 0 0.22852748895707301 0.3459955588137118 0 0.22303617323248651 0.35099554507505598 0 0.21892181289016061 0.34694002384541461 0 0.22115676709391111 0.3420227330879177 0 0.22852748895707301 0.3459955588137118 0 0.22847976433211581 0.35011763413132158 0 0.22303617323248651 0.35099554507505598 0 0.22531586606529411 0.35324263621712387 0 0.22852748895707301 0.3459955588137118 0 0.22303617323248651 0.35099554507505598 0 0.22303617323248651 0.35099554507505598 0 0.21892181289016061 0.34694002384541461 0 0.21968450594629779 0.35404732559980462 0 0.22303617323248651 0.35099554507505598 0 0.21892181289016061 0.34694002384541461 0 0.22115676709391111 0.3420227330879177 0 0.21892181289016061 0.34694002384541461 0 0.22370358518378969 0.35775343857925368 0 0.22531586606529411 0.35324263621712387 0 0.21968450594629779 0.35404732559980462 0 0.22303617323248651 0.35099554507505598 0 0.22531586606529411 0.35324263621712387 0 0.21968450594629779 0.35404732559980462 0 0.22303617323248651 0.35099554507505598 0 0.22531586606529411 0.35324263621712387 0 0.22531586606529411 0.35324263621712387 0 0.21968450594629779 0.35404732559980462 0 0.22303617323248651 0.35099554507505598 0 0.21968450594629779 0.35404732559980462 0 0.22370358518378969 0.35775343857925368 0 0.21968450594629779 0.35404732559980462 0 0.2190120100733586 0.36060376489944151 0 0.2190120100733586 0.36060376489944151 0 0.2213117526922459 0.36531851871984361 0 0.2242333209384878 0.3620599753308032 0 0.22370358518378969 0.35775343857925368 0 0.2190120100733586 0.36060376489944151 0 0.2242333209384878 0.3620599753308032 0 0.2213117526922459 0.36531851871984361 0 0.22591339296006091 0.36652256294099361 0 0.2242333209384878 0.3620599753308032 0 0.22591339296006091 0.36652256294099361 0 0.23360158420270791 0.36140986101350958 0 0.22837210257845639 0.37175930682888059 0 0.22370358518378969 0.35775343857925368 0 0.2242333209384878 0.3620599753308032 0 0.23360158420270791 0.36140986101350958 0 0.22591339296006091 0.36652256294099361 0 0.2242333209384878 0.3620599753308032 0 0.23360158420270791 0.36140986101350958 0 0.23457292647272809 0.37436895074600141 0 0.23360158420270791 0.36140986101350958 0 0.22837210257845639 0.37175930682888059 0 0.23457292647272809 0.37436895074600141 0 0.22837210257845639 0.37175930682888059 0 0.22585405805035749 0.37623525690190462 0 0.23457292647272809 0.37436895074600141 0 0.23360158420270791 0.36140986101350958 0 0.22837210257845639 0.37175930682888059 0 0.2218196235328721 0.37023435545289568 0 0.22585405805035749 0.37623525690190462 0 0.2213117526922459 0.36531851871984361 0 0.22591339296006091 0.36652256294099361 0 0.2218196235328721 0.37023435545289568 0 0.22591339296006091 0.36652256294099361 0 0.22837210257845639 0.37175930682888059 0 0.2218196235328721 0.37023435545289568 0 0.2213117526922459 0.36531851871984361 0 0.2218196235328721 0.37023435545289568 0 0.21558041595644989 0.36717193497508349 0 0.2218196235328721 0.37023435545289568 0 0.21866656125640971 0.37518547870806751 0 0.22585405805035749 0.37623525690190462 0 0.2218196235328721 0.37023435545289568 0 0.21558041595644989 0.36717193497508349 0 0.21866656125640971 0.37518547870806751 0 0.21558041595644989 0.36717193497508349 0 0.20841399459180779 0.37005906481422618 0 0.21866656125640971 0.37518547870806751 0 0.2190120100733586 0.36060376489944151 0 0.2213117526922459 0.36531851871984361 0 0.21558041595644989 0.36717193497508349 0 0.21558041595644989 0.36717193497508349 0 0.2128722961648882 0.36025002036819359 0 0.20841399459180779 0.37005906481422618 0 0.2190120100733586 0.36060376489944151 0 0.21558041595644989 0.36717193497508349 0 0.2128722961648882 0.36025002036819359 0 0.2128722961648882 0.36025002036819359 0 0.20628490284613599 0.36624801388081268 0 0.20096333963858121 0.35672247395488149 0 0.2128722961648882 0.36025002036819359 0 0.20628490284613599 0.36624801388081268 0 0.20841399459180779 0.37005906481422618 0 0.20628490284613599 0.36624801388081268 0 0.20096333963858121 0.35672247395488149 0 0.2128722961648882 0.36025002036819359 0 0.20841399459180779 0.37005906481422618 0 0.2128722961648882 0.36025002036819359 0 0.20628490284613599 0.36624801388081268 0 0.20628490284613599 0.36624801388081268 0 0.20841399459180779 0.37005906481422618 0 0.20184956898591869 0.37547944144833922 0 0.20628490284613599 0.36624801388081268 0 0.20841399459180779 0.37005906481422618 0 0.21892181289016061 0.34694002384541461 0 0.21541413125952549 0.35465753789273019 0 0.2065514902329609 0.34657223030076001 0 0.21892181289016061 0.34694002384541461 0 0.21541413125952549 0.35465753789273019 0 0.21968450594629779 0.35404732559980462 0 0.21541413125952549 0.35465753789273019 0 0.21892181289016061 0.34694002384541461 0 0.21968450594629779 0.35404732559980462 0 0.21541413125952549 0.35465753789273019 0 0.21968450594629779 0.35404732559980462 0 0.2190120100733586 0.36060376489944151 0 0.2128722961648882 0.36025002036819359 0 0.21968450594629779 0.35404732559980462 0 0.2128722961648882 0.36025002036819359 0 0.21541413125952549 0.35465753789273019 0 0.21968450594629779 0.35404732559980462 0 0.2128722961648882 0.36025002036819359 0 0.2128722961648882 0.36025002036819359 0 0.21541413125952549 0.35465753789273019 0 0.21541413125952549 0.35465753789273019 0 0.20096333963858121 0.35672247395488149 0 0.2128722961648882 0.36025002036819359 0 0.21541413125952549 0.35465753789273019 0 0.20096333963858121 0.35672247395488149 0 0.21541413125952549 0.35465753789273019 0 0.2065514902329609 0.34657223030076001 0 0.20096333963858121 0.35672247395488149 0 0.19224120776601131 0.34110995331931632 0 0.20096333963858121 0.35672247395488149 0 0.18546400528544579 0.3589372408191932 0 0.19224120776601131 0.34110995331931632 0 0.2065514902329609 0.34657223030076001 0 0.20096333963858121 0.35672247395488149 0 0.19224120776601131 0.34110995331931632 0 0.20096333963858121 0.35672247395488149 0 0.20096333963858121 0.35672247395488149 0 0.18546400528544579 0.3589372408191932 0 0.20628490284613599 0.36624801388081268 0 0.19228717343725599 0.37899331177382778 0 0.20628490284613599 0.36624801388081268 0 0.19228717343725599 0.37899331177382778 0 0.20184956898591869 0.37547944144833922 0 0.20628490284613599 0.36624801388081268 0 0.19306729237789069 0.3665282458408412 0 0.19228717343725599 0.37899331177382778 0 0.20628490284613599 0.36624801388081268 0 0.20096333963858121 0.35672247395488149 0 0.19306729237789069 0.3665282458408412 0 0.20096333963858121 0.35672247395488149 0 0.19306729237789069 0.3665282458408412 0 0.18546400528544579 0.3589372408191932 0 0.19306729237789069 0.3665282458408412 0 0.18033704068203521 0.37174018877549081 0 0.19228717343725599 0.37899331177382778 0 0.18033704068203521 0.37174018877549081 0 0.1699646709323101 0.36115200768350442 0 0.16800483183096471 0.37802389816723919 0 0.19306729237789069 0.3665282458408412 0 0.18033704068203521 0.37174018877549081 0 0.18546400528544579 0.3589372408191932 0 0.1699646709323101 0.36115200768350442 0 0.18546400528544579 0.3589372408191932 0 0.18033704068203521 0.37174018877549081 0 0.1699646709323101 0.36115200768350442 0 0.18546400528544579 0.3589372408191932 0 0.1699646709323101 0.36115200768350442 0 0.16800483183096471 0.37802389816723919 0 0.1699646709323101 0.36115200768350442 0 0.1567668837839398 0.36303789652185708 0 0.16800483183096471 0.37802389816723919 0 0.1699646709323101 0.36115200768350442 0 0.1567668837839398 0.36303789652185708 0 0.16458959539153961 0.35732027904175628 0 0.1699646709323101 0.36115200768350442 0 0.1567668837839398 0.36303789652185708 0 0.1567668837839398 0.36303789652185708 0 0.15559501663287911 0.37369825934902468 0 0.16800483183096471 0.37802389816723919 0 0.1567668837839398 0.36303789652185708 0 0.16800483183096471 0.37802389816723919 0 0.1596245678969003 0.34780363618391757 0 0.15614148140597969 0.33998058930149477 0 0.15456391976108999 0.34885385400351138 0 0.1596245678969003 0.34780363618391757 0 0.16581467922742771 0.35166159932845381 0 0.16467571254984409 0.34342081108504202 0 0.1596245678969003 0.34780363618391757 0 0.16001343299228801 0.35324491415657361 0 0.16581467922742771 0.35166159932845381 0 0.1596245678969003 0.34780363618391757 0 0.16001343299228801 0.35324491415657361 0 0.15456391976108999 0.34885385400351138 0 0.1567668837839398 0.36303789652185708 0 0.16001343299228801 0.35324491415657361 0 0.16458959539153961 0.35732027904175628 0 0.1567668837839398 0.36303789652185708 0 0.16001343299228801 0.35324491415657361 0 0.15456391976108999 0.34885385400351138 0 0.16001343299228801 0.35324491415657361 0 0.16581467922742771 0.35166159932845381 0 0.16458959539153961 0.35732027904175628 0 0.16581467922742771 0.35166159932845381 0 0.16458959539153961 0.35732027904175628 0 0.17038831002173269 0.35750497751839361 0 0.1699646709323101 0.36115200768350442 0 0.16458959539153961 0.35732027904175628 0 0.17038831002173269 0.35750497751839361 0 0.1699646709323101 0.36115200768350442 0 0.17038831002173269 0.35750497751839361 0 0.16581467922742771 0.35166159932845381 0 0.17038831002173269 0.35750497751839361 0 0.17070709761643871 0.35181243969092918 0 0.16581467922742771 0.35166159932845381 0 0.17063951493970189 0.34686222529448768 0 0.16467571254984409 0.34342081108504202 0 0.16581467922742771 0.35166159932845381 0 0.17070709761643871 0.35181243969092918 0 0.17063951493970189 0.34686222529448768 0 0.17598588627689241 0.35122095662238201 0 0.18181789371959639 0.34621076850869842 0 0.17651015532500369 0.34310092554850968 0 0.17063951493970189 0.34686222529448768 0 0.17598588627689241 0.35122095662238201 0 0.17651015532500369 0.34310092554850968 0 0.19224120776601131 0.34110995331931632 0 0.18546400528544579 0.3589372408191932 0 0.18181789371959639 0.34621076850869842 0 0.17070709761643871 0.35181243969092918 0 0.17063951493970189 0.34686222529448768 0 0.17598588627689241 0.35122095662238201 0 0.1699646709323101 0.36115200768350442 0 0.17038831002173269 0.35750497751839361 0 0.18546400528544579 0.3589372408191932 0 0.17038831002173269 0.35750497751839361 0 0.17598588627689241 0.35122095662238201 0 0.18546400528544579 0.3589372408191932 0 0.17038831002173269 0.35750497751839361 0 0.17070709761643871 0.35181243969092918 0 0.17598588627689241 0.35122095662238201 0 0.17598588627689241 0.35122095662238201 0 0.18546400528544579 0.3589372408191932 0 0.18181789371959639 0.34621076850869842 0 0.19224120776601131 0.34110995331931632 0 0.18201824041583489 0.33974712359776199 0 0.1821981474181886 0.33412207025752422 0 0.19224120776601131 0.34110995331931632 0 0.18181789371959639 0.34621076850869842 0 0.18201824041583489 0.33974712359776199 0 0.18181789371959639 0.34621076850869842 0 0.18201824041583489 0.33974712359776199 0 0.17651015532500369 0.34310092554850968 0 0.18201824041583489 0.33974712359776199 0 0.1821981474181886 0.33412207025752422 0 0.17687629506357799 0.33583271586494817 0 0.19224120776601131 0.34110995331931632 0 0.1821981474181886 0.33412207025752422 0 0.18351907589344141 0.32549743268375098 0 0.1821981474181886 0.33412207025752422 0 0.1763359179520772 0.32842312582184319 0 0.18351907589344141 0.32549743268375098 0 0.1821981474181886 0.33412207025752422 0 0.17687629506357799 0.33583271586494817 0 0.1763359179520772 0.32842312582184319 0 0.1763359179520772 0.32842312582184319 0 0.16867159354445621 0.32642324469953998 0 0.17154356767783341 0.33297918055764603 0 0.17687629506357799 0.33583271586494817 0 0.1763359179520772 0.32842312582184319 0 0.17154356767783341 0.33297918055764603 0 0.17687629506357799 0.33583271586494817 0 0.17651015532500369 0.34310092554850968 0 0.1707841960723514 0.33926600350929509 0 0.17687629506357799 0.33583271586494817 0 0.1707841960723514 0.33926600350929509 0 0.17154356767783341 0.33297918055764603 0 0.17063951493970189 0.34686222529448768 0 0.17651015532500369 0.34310092554850968 0 0.1707841960723514 0.33926600350929509 0 0.18201824041583489 0.33974712359776199 0 0.17687629506357799 0.33583271586494817 0 0.17651015532500369 0.34310092554850968 0 0.19016753307818859 0.32531950802990739 0 0.18622225067974779 0.31470809525615079 0 0.17511810654585039 0.31720785356835768 0 0.19016753307818859 0.32531950802990739 0 0.18351907589344141 0.32549743268375098 0 0.17511810654585039 0.31720785356835768 0 0.19016753307818859 0.32531950802990739 0 0.17511810654585039 0.31720785356835768 0 0.1763359179520772 0.32842312582184319 0 0.17511810654585039 0.31720785356835768 0 0.16867159354445621 0.32642324469953998 0 0.1763359179520772 0.32842312582184319 0 0.18351907589344141 0.32549743268375098 0 0.17511810654585039 0.31720785356835768 0 0.17511810654585039 0.31720785356835768 0 0.1640633387012338 0.315782588619403 0 0.16867159354445621 0.32642324469953998 0 0.1640633387012338 0.315782588619403 0 0.16867159354445621 0.32642324469953998 0 0.15873784981465069 0.32649672138176999 0 0.1640633387012338 0.315782588619403 0 0.15873784981465069 0.32649672138176999 0 0.15056160185224221 0.31280009542650339 0 0.16467571254984409 0.34342081108504202 0 0.1707841960723514 0.33926600350929509 0 0.16504983575670401 0.3349508128926032 0 0.17063951493970189 0.34686222529448768 0 0.16467571254984409 0.34342081108504202 0 0.1707841960723514 0.33926600350929509 0 0.1707841960723514 0.33926600350929509 0 0.17154356767783341 0.33297918055764603 0 0.16504983575670401 0.3349508128926032 0 0.16867159354445621 0.32642324469953998 0 0.17154356767783341 0.33297918055764603 0 0.16504983575670401 0.3349508128926032 0 0.16867159354445621 0.32642324469953998 0 0.15873784981465069 0.32649672138176999 0 0.16504983575670401 0.3349508128926032 0 0.15873784981465069 0.32649672138176999 0 0.16504983575670401 0.3349508128926032 0 0.15614148140597969 0.33998058930149477 0 0.1596245678969003 0.34780363618391757 0 0.16467571254984409 0.34342081108504202 0 0.15614148140597969 0.33998058930149477 0 0.16467571254984409 0.34342081108504202 0 0.16504983575670401 0.3349508128926032 0 0.15614148140597969 0.33998058930149477 0 0.149703536823901 0.34106899023611342 0 0.15614148140597969 0.33998058930149477 0 0.15456391976108999 0.34885385400351138 0 0.149703536823901 0.34106899023611342 0 0.15614148140597969 0.33998058930149477 0 0.1499000586686802 0.33176962466262289 0 0.15873784981465069 0.32649672138176999 0 0.15614148140597969 0.33998058930149477 0 0.1499000586686802 0.33176962466262289 0 0.1499000586686802 0.33176962466262289 0 0.14192641153621571 0.33050903507335821 0 0.14418034527378121 0.33686602381223152 0 0.14418034527378121 0.33686602381223152 0 0.13423810367657729 0.33299537146795 0 0.14550249373025739 0.3480166339949044 0 0.149703536823901 0.34106899023611342 0 0.1499000586686802 0.33176962466262289 0 0.14418034527378121 0.33686602381223152 0 0.149703536823901 0.34106899023611342 0 0.14418034527378121 0.33686602381223152 0 0.14550249373025739 0.3480166339949044 0 0.14192641153621571 0.33050903507335821 0 0.15056160185224221 0.31280009542650339 0 0.13389566195550659 0.32961516283215492 0 0.15056160185224221 0.31280009542650339 0 0.13389566195550659 0.32961516283215492 0 0.1499000586686802 0.33176962466262289 0 0.14192641153621571 0.33050903507335821 0 0.15056160185224221 0.31280009542650339 0 0.15873784981465069 0.32649672138176999 0 0.1499000586686802 0.33176962466262289 0 0.15056160185224221 0.31280009542650339 0 0.1181745564114227 0.3279307548879723 0 0.12877679390037611 0.31000209145944507 0 0.13389566195550659 0.32961516283215492 0 0.12877679390037611 0.31000209145944507 0 0.15056160185224221 0.31280009542650339 0 0.13389566195550659 0.32961516283215492 0 0.117229722058771 0.34643023023780622 0 0.13423810367657729 0.33299537146795 0 0.12909490417984781 0.34730226367485229 0 0.117229722058771 0.34643023023780622 0 0.13423810367657729 0.33299537146795 0 0.13389566195550659 0.32961516283215492 0 0.117229722058771 0.34643023023780622 0 0.13389566195550659 0.32961516283215492 0 0.13423810367657729 0.33299537146795 0 0.13641616222916411 0.34806655783248019 0 0.14550249373025739 0.3480166339949044 0 0.13423810367657729 0.33299537146795 0 0.12909490417984781 0.34730226367485229 0 0.13641616222916411 0.34806655783248019 0 0.13423810367657729 0.33299537146795 0 0.14550249373025739 0.3480166339949044 0 0.14192641153621571 0.33050903507335821 0 0.14418034527378121 0.33686602381223152 0 0.13423810367657729 0.33299537146795 0 0.14192641153621571 0.33050903507335821 0 0.13423810367657729 0.33299537146795 0 0.13389566195550659 0.32961516283215492 0 0.1210829497201717 0.36014613085985381 0 0.14160211727830629 0.35704696407624698 0 0.1210829497201717 0.36014613085985381 0 0.13046838729231139 0.3528896797631047 0 0.14160211727830629 0.35704696407624698 0 0.1241458030540669 0.3518864823720903 0 0.12909490417984781 0.34730226367485229 0 0.13046838729231139 0.3528896797631047 0 0.12909490417984781 0.34730226367485229 0 0.13641616222916411 0.34806655783248019 0 0.13046838729231139 0.3528896797631047 0 0.13641616222916411 0.34806655783248019 0 0.13046838729231139 0.3528896797631047 0 0.14160211727830629 0.35704696407624698 0 0.1210829497201717 0.36014613085985381 0 0.1241458030540669 0.3518864823720903 0 0.13046838729231139 0.3528896797631047 0 0.1210829497201717 0.36014613085985381 0 0.12551479594939799 0.36750364240483918 0 0.14160211727830629 0.35704696407624698 0 0.12551479594939799 0.36750364240483918 0 0.14114083986666881 0.36527076946334752 0 0.12551479594939799 0.36750364240483918 0 0.14114083986666881 0.36527076946334752 0 0.14160211727830629 0.35704696407624698 0 0.12551479594939799 0.36750364240483918 0 0.1339353388624212 0.37178676495940088 0 0.14114083986666881 0.36527076946334752 0 0.12784274552907141 0.37445089338973708 0 0.12551479594939799 0.36750364240483918 0 0.1339353388624212 0.37178676495940088 0 0.12784274552907141 0.37445089338973708 0 0.1339353388624212 0.37178676495940088 0 0.13393948177229409 0.37855972345554367 0 0.1339353388624212 0.37178676495940088 0 0.14114083986666881 0.36527076946334752 0 0.14148366969842249 0.37431976025069519 0 0.1339353388624212 0.37178676495940088 0 0.14148366969842249 0.37431976025069519 0 0.13393948177229409 0.37855972345554367 0 0.1567668837839398 0.36303789652185708 0 0.14114083986666881 0.36527076946334752 0 0.14160211727830629 0.35704696407624698 0 0.1567668837839398 0.36303789652185708 0 0.14114083986666881 0.36527076946334752 0 0.1487932584290369 0.37022934879909503 0 0.1567668837839398 0.36303789652185708 0 0.14114083986666881 0.36527076946334752 0 0.14114083986666881 0.36527076946334752 0 0.14148366969842249 0.37431976025069519 0 0.1487932584290369 0.37022934879909503 0 0.14148366969842249 0.37431976025069519 0 0.1487932584290369 0.37022934879909503 0 0.14845004422706559 0.37647105357028049 0 0.1567668837839398 0.36303789652185708 0 0.1487932584290369 0.37022934879909503 0 0.15559501663287911 0.37369825934902468 0 0.1487932584290369 0.37022934879909503 0 0.15559501663287911 0.37369825934902468 0 0.14845004422706559 0.37647105357028049 0 0.1567668837839398 0.36303789652185708 0 0.14550249373025739 0.3480166339949044 0 0.1567668837839398 0.36303789652185708 0 0.15456391976108999 0.34885385400351138 0 0.14550249373025739 0.3480166339949044 0 0.149703536823901 0.34106899023611342 0 0.15456391976108999 0.34885385400351138 0 0.14550249373025739 0.3480166339949044 0 0.13641616222916411 0.34806655783248019 0 0.14550249373025739 0.3480166339949044 0 0.14160211727830629 0.35704696407624698 0 0.1567668837839398 0.36303789652185708 0 0.14550249373025739 0.3480166339949044 0 0.14160211727830629 0.35704696407624698 0 0.14663277326372701 0.39614154427881498 0 0.14385970217766131 0.38469990959277128 0 0.13685552682275301 0.39550847292701541 0 0.14663277326372701 0.39614154427881498 0 0.14322836617504639 0.40232761128890582 0 0.13685552682275301 0.39550847292701541 0 0.14663277326372701 0.39614154427881498 0 0.14322836617504639 0.40232761128890582 0 0.14959500679943841 0.40550477481228869 0 0.14663277326372701 0.39614154427881498 0 0.14959500679943841 0.40550477481228869 0 0.15519765398380941 0.39997841816642032 0 0.14959500679943841 0.40550477481228869 0 0.15519765398380941 0.39997841816642032 0 0.15673335615863471 0.40968153338218649 0 0.14663277326372701 0.39614154427881498 0 0.15519765398380941 0.39997841816642032 0 0.15585171999193589 0.38993574203358938 0 0.14663277326372701 0.39614154427881498 0 0.15585171999193589 0.38993574203358938 0 0.14385970217766131 0.38469990959277128 0 0.15585171999193589 0.38993574203358938 0 0.15596006489338929 0.38072909968665258 0 0.14385970217766131 0.38469990959277128 0 0.15596006489338929 0.38072909968665258 0 0.14845004422706559 0.37647105357028049 0 0.14385970217766131 0.38469990959277128 0 0.15559501663287911 0.37369825934902468 0 0.15596006489338929 0.38072909968665258 0 0.14845004422706559 0.37647105357028049 0 0.14148366969842249 0.37431976025069519 0 0.14845004422706559 0.37647105357028049 0 0.14385970217766131 0.38469990959277128 0 0.14385970217766131 0.38469990959277128 0 0.1319491752554515 0.38710484470673701 0 0.13685552682275301 0.39550847292701541 0 0.14385970217766131 0.38469990959277128 0 0.13393948177229409 0.37855972345554367 0 0.1319491752554515 0.38710484470673701 0 0.14148366969842249 0.37431976025069519 0 0.14385970217766131 0.38469990959277128 0 0.13393948177229409 0.37855972345554367 0 0.12784274552907141 0.37445089338973708 0 0.13393948177229409 0.37855972345554367 0 0.12576558562142021 0.38108448267032891 0 0.13393948177229409 0.37855972345554367 0 0.12576558562142021 0.38108448267032891 0 0.1319491752554515 0.38710484470673701 0 0.12483432845731431 0.3920386013744388 0 0.12576558562142021 0.38108448267032891 0 0.1319491752554515 0.38710484470673701 0 0.12483432845731431 0.3920386013744388 0 0.1319491752554515 0.38710484470673701 0 0.13685552682275301 0.39550847292701541 0 0.12483432845731431 0.3920386013744388 0 0.13685552682275301 0.39550847292701541 0 0.13021439542875479 0.40078433468945102 0 0.13685552682275301 0.39550847292701541 0 0.13021439542875479 0.40078433468945102 0 0.137012166532296 0.40625040057670919 0 0.14322836617504639 0.40232761128890582 0 0.13685552682275301 0.39550847292701541 0 0.137012166532296 0.40625040057670919 0 0.12231423594728109 0.40435843208107952 0 0.12483432845731431 0.3920386013744388 0 0.13021439542875479 0.40078433468945102 0 0.12231423594728109 0.40435843208107952 0 0.13021439542875479 0.40078433468945102 0 0.12851505446848019 0.41250129933738711 0 0.13021439542875479 0.40078433468945102 0 0.12851505446848019 0.41250129933738711 0 0.137012166532296 0.40625040057670919 0 0.12334343746547451 0.42282390921553709 0 0.12851505446848019 0.41250129933738711 0 0.13308327788055091 0.4225114190202513 0 0.12851505446848019 0.41250129933738711 0 0.1384024494973933 0.41680378574257471 0 0.13308327788055091 0.4225114190202513 0 0.1384024494973933 0.41680378574257471 0 0.13308327788055091 0.4225114190202513 0 0.14125420699109151 0.42362069779884398 0 0.12851505446848019 0.41250129933738711 0 0.1384024494973933 0.41680378574257471 0 0.137012166532296 0.40625040057670919 0 0.1384024494973933 0.41680378574257471 0 0.137012166532296 0.40625040057670919 0 0.1436212773908459 0.41141398623664638 0 0.13543753526146821 0.43397545952730809 0 0.1475833771263011 0.43869291545493688 0 0.12712502726540631 0.43823690565346551 0 0.12850296771530451 0.42923587583194978 0 0.13543753526146821 0.43397545952730809 0 0.12712502726540631 0.43823690565346551 0 0.1209544195606387 0.43040174782631491 0 0.12850296771530451 0.42923587583194978 0 0.12712502726540631 0.43823690565346551 0 0.12334343746547451 0.42282390921553709 0 0.12850296771530451 0.42923587583194978 0 0.13308327788055091 0.4225114190202513 0 0.12850296771530451 0.42923587583194978 0 0.13308327788055091 0.4225114190202513 0 0.138538768938861 0.42973614116888009 0 0.13308327788055091 0.4225114190202513 0 0.138538768938861 0.42973614116888009 0 0.14125420699109151 0.42362069779884398 0 0.138538768938861 0.42973614116888009 0 0.13543753526146821 0.43397545952730809 0 0.1475833771263011 0.43869291545493688 0 0.12850296771530451 0.42923587583194978 0 0.138538768938861 0.42973614116888009 0 0.13543753526146821 0.43397545952730809 0 0.138538768938861 0.42973614116888009 0 0.1478458505812702 0.42670730266814638 0 0.1475833771263011 0.43869291545493688 0 0.14125420699109151 0.42362069779884398 0 0.1478458505812702 0.42670730266814638 0 0.14921363846458349 0.41741743458019809 0 0.138538768938861 0.42973614116888009 0 0.14125420699109151 0.42362069779884398 0 0.1478458505812702 0.42670730266814638 0 0.1478458505812702 0.42670730266814638 0 0.14921363846458349 0.41741743458019809 0 0.16269647917881369 0.42372251931153743 0 0.1478458505812702 0.42670730266814638 0 0.16269647917881369 0.42372251931153743 0 0.1475833771263011 0.43869291545493688 0 0.14959500679943841 0.40550477481228869 0 0.1436212773908459 0.41141398623664638 0 0.14921363846458349 0.41741743458019809 0 0.14322836617504639 0.40232761128890582 0 0.137012166532296 0.40625040057670919 0 0.1436212773908459 0.41141398623664638 0 0.14322836617504639 0.40232761128890582 0 0.14959500679943841 0.40550477481228869 0 0.1436212773908459 0.41141398623664638 0 0.1384024494973933 0.41680378574257471 0 0.14125420699109151 0.42362069779884398 0 0.14921363846458349 0.41741743458019809 0 0.1384024494973933 0.41680378574257471 0 0.1436212773908459 0.41141398623664638 0 0.14921363846458349 0.41741743458019809 0 0.14921363846458349 0.41741743458019809 0 0.15673335615863471 0.40968153338218649 0 0.16269647917881369 0.42372251931153743 0 0.14959500679943841 0.40550477481228869 0 0.14921363846458349 0.41741743458019809 0 0.15673335615863471 0.40968153338218649 0 0.15673335615863471 0.40968153338218649 0 0.16269647917881369 0.42372251931153743 0 0.16535065550488939 0.40087320873938831 0 0.16269647917881369 0.42372251931153743 0 0.16535065550488939 0.40087320873938831 0 0.16934648468828889 0.40895373843002741 0 0.16269647917881369 0.42372251931153743 0 0.16535065550488939 0.40087320873938831 0 0.16934648468828889 0.40895373843002741 0 0.16269647917881369 0.42372251931153743 0 0.17643851866188581 0.41580523298895661 0 0.16269647917881369 0.42372251931153743 0 0.1732545027601694 0.43789489259122788 0 0.16004230285273799 0.44657182988368632 0 0.16269647917881369 0.42372251931153743 0 0.16004230285273799 0.44657182988368632 0 0.16269647917881369 0.42372251931153743 0 0.16004230285273799 0.44657182988368632 0 0.1475833771263011 0.43869291545493688 0 0.16269647917881369 0.42372251931153743 0 0.17455137553560149 0.42622820949976631 0 0.17643851866188581 0.41580523298895661 0 0.16269647917881369 0.42372251931153743 0 0.17455137553560149 0.42622820949976631 0 0.1732545027601694 0.43789489259122788 0 0.17455137553560149 0.42622820949976631 0 0.18544788972008719 0.4292397985891373 0 0.1732545027601694 0.43789489259122788 0 0.17455137553560149 0.42622820949976631 0 0.18544788972008719 0.4292397985891373 0 0.17643851866188581 0.41580523298895661 0 0.18544788972008719 0.4292397985891373 0 0.1888245482483677 0.43977847129862963 0 0.1732545027601694 0.43789489259122788 0 0.17643851866188581 0.41580523298895661 0 0.18172889730252689 0.4089885268248491 0 0.17382910078154551 0.40485149331171888 0 0.16934648468828889 0.40895373843002741 0 0.17643851866188581 0.41580523298895661 0 0.17382910078154551 0.40485149331171888 0 0.18544788972008719 0.4292397985891373 0 0.17643851866188581 0.41580523298895661 0 0.19018018631803449 0.4160287695218422 0 0.17643851866188581 0.41580523298895661 0 0.18172889730252689 0.4089885268248491 0 0.19018018631803449 0.4160287695218422 0 0.18172889730252689 0.4089885268248491 0 0.1890667700418521 0.40611036371793119 0 0.19018018631803449 0.4160287695218422 0 0.1782894440283741 0.39173860966684071 0 0.1890667700418521 0.40611036371793119 0 0.18172889730252689 0.4089885268248491 0 0.179129910709317 0.40214677458379677 0 0.1890667700418521 0.40611036371793119 0 0.1782894440283741 0.39173860966684071 0 0.179129910709317 0.40214677458379677 0 0.1890667700418521 0.40611036371793119 0 0.1782894440283741 0.39173860966684071 0 0.1890667700418521 0.40611036371793119 0 0.19107010118365339 0.39268600606932252 0 0.1782894440283741 0.39173860966684071 0 0.1693499374744255 0.39987826365774598 0 0.1782894440283741 0.39173860966684071 0 0.179129910709317 0.40214677458379677 0 0.1693499374744255 0.39987826365774598 0 0.179129910709317 0.40214677458379677 0 0.17382910078154551 0.40485149331171888 0 0.1693499374744255 0.39987826365774598 0 0.18172889730252689 0.4089885268248491 0 0.179129910709317 0.40214677458379677 0 0.17382910078154551 0.40485149331171888 0 0.16934648468828889 0.40895373843002741 0 0.16946904461228729 0.4036391760347201 0 0.16535065550488939 0.40087320873938831 0 0.16535065550488939 0.40087320873938831 0 0.1693499374744255 0.39987826365774598 0 0.16800483183096471 0.37802389816723919 0 0.17382910078154551 0.40485149331171888 0 0.16946904461228729 0.4036391760347201 0 0.1693499374744255 0.39987826365774598 0 0.16934648468828889 0.40895373843002741 0 0.17382910078154551 0.40485149331171888 0 0.16946904461228729 0.4036391760347201 0 0.16946904461228729 0.4036391760347201 0 0.16535065550488939 0.40087320873938831 0 0.1693499374744255 0.39987826365774598 0 0.15519765398380941 0.39997841816642032 0 0.15585171999193589 0.38993574203358938 0 0.16535065550488939 0.40087320873938831 0 0.15519765398380941 0.39997841816642032 0 0.15673335615863471 0.40968153338218649 0 0.16535065550488939 0.40087320873938831 0 0.15585171999193589 0.38993574203358938 0 0.16535065550488939 0.40087320873938831 0 0.16800483183096471 0.37802389816723919 0 0.16535065550488939 0.40087320873938831 0 0.16800483183096471 0.37802389816723919 0 0.15559501663287911 0.37369825934902468 0 0.15596006489338929 0.38072909968665258 0 0.16800483183096471 0.37802389816723919 0 0.15585171999193589 0.38993574203358938 0 0.15596006489338929 0.38072909968665258 0 0.16800483183096471 0.37802389816723919 0 0.18033704068203521 0.37174018877549081 0 0.1782894440283741 0.39173860966684071 0 0.19228717343725599 0.37899331177382778 0 0.18033704068203521 0.37174018877549081 0 0.1782894440283741 0.39173860966684071 0 0.16800483183096471 0.37802389816723919 0 0.1782894440283741 0.39173860966684071 0 0.1693499374744255 0.39987826365774598 0 0.16800483183096471 0.37802389816723919 0 0.1782894440283741 0.39173860966684071 0 0.16800483183096471 0.37802389816723919 0 0.1782894440283741 0.39173860966684071 0 0.19228717343725599 0.37899331177382778 0 0.1782894440283741 0.39173860966684071 0 0.19228717343725599 0.37899331177382778 0 0.19107010118365339 0.39268600606932252 0 0.19228717343725599 0.37899331177382778 0 0.20137370433419791 0.38554893666741319 0 0.19107010118365339 0.39268600606932252 0 0.19228717343725599 0.37899331177382778 0 0.20137370433419791 0.38554893666741319 0 0.20184956898591869 0.37547944144833922 0 0.1890667700418521 0.40611036371793119 0 0.19433341407658711 0.4010388085205997 0 0.19107010118365339 0.39268600606932252 0 0.1890667700418521 0.40611036371793119 0 0.19433341407658711 0.4010388085205997 0 0.1958158334226385 0.40782989948832449 0 0.20137370433419791 0.38554893666741319 0 0.19433341407658711 0.4010388085205997 0 0.20137370433419791 0.38554893666741319 0 0.19433341407658711 0.4010388085205997 0 0.20290073250943219 0.39607459909254272 0 0.20137370433419791 0.38554893666741319 0 0.19433341407658711 0.4010388085205997 0 0.19107010118365339 0.39268600606932252 0 0.19433341407658711 0.4010388085205997 0 0.20290073250943219 0.39607459909254272 0 0.20213195198526779 0.40360353850356828 0 0.19433341407658711 0.4010388085205997 0 0.20213195198526779 0.40360353850356828 0 0.1958158334226385 0.40782989948832449 0 0.2163667656098974 0.40130979316057092 0 0.22476035176883841 0.39688188093981752 0 0.2149477770649495 0.41939481113363369 0 0.20213195198526779 0.40360353850356828 0 0.20949453170194141 0.40590993912757117 0 0.2078881067627906 0.39867692631845969 0 0.20290073250943219 0.39607459909254272 0 0.20213195198526779 0.40360353850356828 0 0.2078881067627906 0.39867692631845969 0 0.2078881067627906 0.39867692631845969 0 0.2121332302927609 0.39693589556428782 0 0.21167270850820849 0.40066106743854579 0 0.20949453170194141 0.40590993912757117 0 0.2078881067627906 0.39867692631845969 0 0.21167270850820849 0.40066106743854579 0 0.20137370433419791 0.38554893666741319 0 0.20290073250943219 0.39607459909254272 0 0.20877648538831781 0.39150478545267231 0 0.2078881067627906 0.39867692631845969 0 0.20877648538831781 0.39150478545267231 0 0.2121332302927609 0.39693589556428782 0 0.20290073250943219 0.39607459909254272 0 0.2078881067627906 0.39867692631845969 0 0.20877648538831781 0.39150478545267231 0 0.21545696040368811 0.39264458321163181 0 0.21587278001067439 0.38341020911812518 0 0.2233315654295415 0.39676135342202401 0 0.21545696040368811 0.39264458321163181 0 0.2121332302927609 0.39693589556428782 0 0.2163667656098974 0.40130979316057092 0 0.21545696040368811 0.39264458321163181 0 0.2163667656098974 0.40130979316057092 0 0.2233315654295415 0.39676135342202401 0 0.20877648538831781 0.39150478545267231 0 0.21545696040368811 0.39264458321163181 0 0.2121332302927609 0.39693589556428782 0 0.2121332302927609 0.39693589556428782 0 0.21167270850820849 0.40066106743854579 0 0.2163667656098974 0.40130979316057092 0 0.20949453170194141 0.40590993912757117 0 0.21167270850820849 0.40066106743854579 0 0.2163667656098974 0.40130979316057092 0 0.20841399459180779 0.37005906481422618 0 0.20137370433419791 0.38554893666741319 0 0.20184956898591869 0.37547944144833922 0 0.20841399459180779 0.37005906481422618 0 0.20137370433419791 0.38554893666741319 0 0.20841399459180779 0.37005906481422618 0 0.20137370433419791 0.38554893666741319 0 0.21587278001067439 0.38341020911812518 0 0.20137370433419791 0.38554893666741319 0 0.20877648538831781 0.39150478545267231 0 0.21587278001067439 0.38341020911812518 0 0.20877648538831781 0.39150478545267231 0 0.21545696040368811 0.39264458321163181 0 0.21587278001067439 0.38341020911812518 0 0.20841399459180779 0.37005906481422618 0 0.21587278001067439 0.38341020911812518 0 0.21866656125640971 0.37518547870806751 0 0.20841399459180779 0.37005906481422618 0 0.21587278001067439 0.38341020911812518 0 0.23457292647272809 0.37436895074600141 0 0.22476035176883841 0.39688188093981752 0 0.21866656125640971 0.37518547870806751 0 0.22585405805035749 0.37623525690190462 0 0.224458495396297 0.38400205098617002 0 0.23457292647272809 0.37436895074600141 0 0.22476035176883841 0.39688188093981752 0 0.23595456745107871 0.3928020097913304 0 0.23457292647272809 0.37436895074600141 0 0.22452700661512559 0.38949759336648299 0 0.22476035176883841 0.39688188093981752 0 0.21587278001067439 0.38341020911812518 0 0.21866656125640971 0.37518547870806751 0 0.224458495396297 0.38400205098617002 0 0.23457292647272809 0.37436895074600141 0 0.22585405805035749 0.37623525690190462 0 0.224458495396297 0.38400205098617002 0 0.23457292647272809 0.37436895074600141 0 0.224458495396297 0.38400205098617002 0 0.22452700661512559 0.38949759336648299 0 0.21587278001067439 0.38341020911812518 0 0.2233315654295415 0.39676135342202401 0 0.21587278001067439 0.38341020911812518 0 0.22452700661512559 0.38949759336648299 0 0.2233315654295415 0.39676135342202401 0 0.21587278001067439 0.38341020911812518 0 0.224458495396297 0.38400205098617002 0 0.22452700661512559 0.38949759336648299 0 0.2163667656098974 0.40130979316057092 0 0.22476035176883841 0.39688188093981752 0 0.2233315654295415 0.39676135342202401 0 0.22452700661512559 0.38949759336648299 0 0.22476035176883841 0.39688188093981752 0 0.2233315654295415 0.39676135342202401 0 0.22476035176883841 0.39688188093981752 0 0.23103426212848491 0.40484276767644861 0 0.22627238523225879 0.4105595448014504 0 0.22476035176883841 0.39688188093981752 0 0.23103426212848491 0.40484276767644861 0 0.23595456745107871 0.3928020097913304 0 0.23595456745107871 0.3928020097913304 0 0.2429198700278816 0.40154823855985128 0 0.2373362084294284 0.41123506883665928 0 0.23595456745107871 0.3928020097913304 0 0.2373362084294284 0.41123506883665928 0 0.23103426212848491 0.40484276767644861 0 0.23595456745107871 0.3928020097913304 0 0.2373362084294284 0.41123506883665928 0 0.23595456745107871 0.3928020097913304 0 0.2432725560210984 0.38503685377657998 0 0.25137282146461121 0.39422979817504239 0 0.23595456745107871 0.3928020097913304 0 0.2429198700278816 0.40154823855985128 0 0.25137282146461121 0.39422979817504239 0 0.23457292647272809 0.37436895074600141 0 0.23595456745107871 0.3928020097913304 0 0.2432725560210984 0.38503685377657998 0 0.23457292647272809 0.37436895074600141 0 0.2432725560210984 0.38503685377657998 0 0.25118990869597579 0.37874665639394561 0 0.2432725560210984 0.38503685377657998 0 0.25118990869597579 0.37874665639394561 0 0.25137282146461121 0.39422979817504239 0 0.23457292647272809 0.37436895074600141 0 0.23595456745107871 0.3928020097913304 0 0.2435217460266236 0.42183389744484701 0 0.22527741296318071 0.44043504749073381 0 0.2435217460266236 0.42183389744484701 0 0.22527741296318071 0.44043504749073381 0 0.2426690178941325 0.44391826882859919 0 0.2435217460266236 0.42183389744484701 0 0.24162283316394431 0.42067897469673787 0 0.22527741296318071 0.44043504749073381 0 0.2435217460266236 0.42183389744484701 0 0.2426690178941325 0.44391826882859919 0 0.26276772926709291 0.43353934443560388 0 0.2435217460266236 0.42183389744484701 0 0.25614998960793017 0.40895867460961588 0 0.2435217460266236 0.42183389744484701 0 0.2451475384980121 0.4109184687308377 0 0.2408374516114459 0.41599100256191818 0 0.2435217460266236 0.42183389744484701 0 0.24162283316394431 0.42067897469673787 0 0.2435217460266236 0.42183389744484701 0 0.2451475384980121 0.4109184687308377 0 0.25614998960793017 0.40895867460961588 0 0.2429198700278816 0.40154823855985128 0 0.2451475384980121 0.4109184687308377 0 0.25614998960793017 0.40895867460961588 0 0.2429198700278816 0.40154823855985128 0 0.2451475384980121 0.4109184687308377 0 0.2373362084294284 0.41123506883665928 0 0.2451475384980121 0.4109184687308377 0 0.2373362084294284 0.41123506883665928 0 0.2408374516114459 0.41599100256191818 0 0.2373362084294284 0.41123506883665928 0 0.23552300969198151 0.41632496525857199 0 0.23168037876577829 0.41280456645233649 0 0.24162283316394431 0.42067897469673787 0 0.23552300969198151 0.41632496525857199 0 0.22823602834673781 0.42106048568855209 0 0.2435217460266236 0.42183389744484701 0 0.24162283316394431 0.42067897469673787 0 0.2408374516114459 0.41599100256191818 0 0.24162283316394431 0.42067897469673787 0 0.2408374516114459 0.41599100256191818 0 0.23552300969198151 0.41632496525857199 0 0.2373362084294284 0.41123506883665928 0 0.2408374516114459 0.41599100256191818 0 0.23552300969198151 0.41632496525857199 0 0.22476035176883841 0.39688188093981752 0 0.2149477770649495 0.41939481113363369 0 0.22823602834673781 0.42106048568855209 0 0.23168037876577829 0.41280456645233649 0 0.22627238523225879 0.4105595448014504 0 0.23552300969198151 0.41632496525857199 0 0.22823602834673781 0.42106048568855209 0 0.23168037876577829 0.41280456645233649 0 0.22476035176883841 0.39688188093981752 0 0.22627238523225879 0.4105595448014504 0 0.2149477770649495 0.41939481113363369 0 0.23103426212848491 0.40484276767644861 0 0.23168037876577829 0.41280456645233649 0 0.22627238523225879 0.4105595448014504 0 0.23103426212848491 0.40484276767644861 0 0.2373362084294284 0.41123506883665928 0 0.23168037876577829 0.41280456645233649 0 0.22823602834673781 0.42106048568855209 0 0.22627238523225879 0.4105595448014504 0 0.2149477770649495 0.41939481113363369 0 0.22823602834673781 0.42106048568855209 0 0.2149477770649495 0.41939481113363369 0 0.22527741296318071 0.44043504749073381 0 0.24162283316394431 0.42067897469673787 0 0.22823602834673781 0.42106048568855209 0 0.22527741296318071 0.44043504749073381 0 0.2149477770649495 0.41939481113363369 0 0.2051352023610605 0.44190774132745009 0 0.22527741296318071 0.44043504749073381 0 0.2149477770649495 0.41939481113363369 0 0.19790009895877619 0.42659424630802018 0 0.2051352023610605 0.44190774132745009 0 0.2149477770649495 0.41939481113363369 0 0.2051352023610605 0.44190774132745009 0 0.2149477770649495 0.41939481113363369 0 0.20336684469145089 0.41236801717768112 0 0.19790009895877619 0.42659424630802018 0 0.20949453170194141 0.40590993912757117 0 0.2163667656098974 0.40130979316057092 0 0.2149477770649495 0.41939481113363369 0 0.20949453170194141 0.40590993912757117 0 0.2149477770649495 0.41939481113363369 0 0.20336684469145089 0.41236801717768112 0 0.20213195198526779 0.40360353850356828 0 0.20949453170194141 0.40590993912757117 0 0.20336684469145089 0.41236801717768112 0 0.20213195198526779 0.40360353850356828 0 0.20336684469145089 0.41236801717768112 0 0.1958158334226385 0.40782989948832449 0 0.20336684469145089 0.41236801717768112 0 0.1958158334226385 0.40782989948832449 0 0.19018018631803449 0.4160287695218422 0 0.20336684469145089 0.41236801717768112 0 0.19018018631803449 0.4160287695218422 0 0.19790009895877619 0.42659424630802018 0 0.1890667700418521 0.40611036371793119 0 0.1958158334226385 0.40782989948832449 0 0.19018018631803449 0.4160287695218422 0 0.19790009895877619 0.42659424630802018 0 0.1888245482483677 0.43977847129862963 0 0.2051352023610605 0.44190774132745009 0 0.18544788972008719 0.4292397985891373 0 0.19018018631803449 0.4160287695218422 0 0.19790009895877619 0.42659424630802018 0 0.18544788972008719 0.4292397985891373 0 0.19790009895877619 0.42659424630802018 0 0.1888245482483677 0.43977847129862963 0 0.1888245482483677 0.43977847129862963 0 0.19142257890317041 0.45099418766238658 0 0.2051352023610605 0.44190774132745009 0 0.19142257890317041 0.45099418766238658 0 0.19532262765717159 0.46442067152126643 0 0.2051352023610605 0.44190774132745009 0 0.19532262765717159 0.46442067152126643 0 0.2070330798997396 0.45903619753662228 0 0.2051352023610605 0.44190774132745009 0 0.19532262765717159 0.46442067152126643 0 0.2070330798997396 0.45903619753662228 0 0.18878874683629851 0.47763734758251092 0 0.2070330798997396 0.45903619753662228 0 0.18878874683629851 0.47763734758251092 0 0.19532262765717159 0.46442067152126643 0 0.2051352023610605 0.44190774132745009 0 0.19532262765717159 0.46442067152126643 0 0.17986202334542789 0.46500087158953413 0 0.1873409029504991 0.45801110917067739 0 0.19142257890317041 0.45099418766238658 0 0.19532262765717159 0.46442067152126643 0 0.1873409029504991 0.45801110917067739 0 0.21453187761829839 0.45281800831342228 0 0.22194197356966841 0.46642760970431019 0 0.2100885969700251 0.47640900415671078 0 0.2070330798997396 0.45903619753662228 0 0.21453187761829839 0.45281800831342228 0 0.2100885969700251 0.47640900415671078 0 0.21453187761829839 0.45281800831342228 0 0.2100885969700251 0.47640900415671078 0 0.2070330798997396 0.45903619753662228 0 0.2051352023610605 0.44190774132745009 0 0.22527741296318071 0.44043504749073381 0 0.2070330798997396 0.45903619753662228 0 0.21453187761829839 0.45281800831342228 0 0.22527741296318071 0.44043504749073381 0 0.2070330798997396 0.45903619753662228 0 0.22527741296318071 0.44043504749073381 0 0.22527741296318071 0.44043504749073381 0 0.22701931350411839 0.4528004082727487 0 0.2426690178941325 0.44391826882859919 0 0.21453187761829839 0.45281800831342228 0 0.22527741296318071 0.44043504749073381 0 0.22701931350411839 0.4528004082727487 0 0.21453187761829839 0.45281800831342228 0 0.22701931350411839 0.4528004082727487 0 0.22194197356966841 0.46642760970431019 0 0.22701931350411839 0.4528004082727487 0 0.22194197356966841 0.46642760970431019 0 0.23645079978521591 0.46098474888720142 0 0.23645079978521591 0.46098474888720142 0 0.25044195169525613 0.46847414930888109 0 0.25994723793266422 0.45598679955958499 0 0.23645079978521591 0.46098474888720142 0 0.2426690178941325 0.44391826882859919 0 0.25994723793266422 0.45598679955958499 0 0.22701931350411839 0.4528004082727487 0 0.23645079978521591 0.46098474888720142 0 0.2426690178941325 0.44391826882859919 0 0.24483898282083391 0.48281988538596848 0 0.22613804643396099 0.48304484195670438 0 0.23373817092943391 0.5 0 0.24483898282083391 0.48281988538596848 0 0.23373817092943391 0.5 0 0.26183102553711568 0.5 0 0.23645079978521591 0.46098474888720142 0 0.24483898282083391 0.48281988538596848 0 0.25044195169525613 0.46847414930888109 0 0.23645079978521591 0.46098474888720142 0 0.24483898282083391 0.48281988538596848 0 0.22613804643396099 0.48304484195670438 0 0.22194197356966841 0.46642760970431019 0 0.23645079978521591 0.46098474888720142 0 0.22613804643396099 0.48304484195670438 0 0.22194197356966841 0.46642760970431019 0 0.22613804643396099 0.48304484195670438 0 0.2100885969700251 0.47640900415671078 0 0.22613804643396099 0.48304484195670438 0 0.23373817092943391 0.5 0 0.20564531632175201 0.49999999999999928 0 0.20564531632175201 0.49999999999999928 0 0.2100885969700251 0.47640900415671078 0 0.22613804643396099 0.48304484195670438 0 0.20564531632175201 0.49999999999999928 0 0.2100885969700251 0.47640900415671078 0 0.2070330798997396 0.45903619753662228 0 0.2100885969700251 0.47640900415671078 0 0.18878874683629851 0.47763734758251092 0 0.19532262765717159 0.46442067152126643 0 0.18878874683629851 0.47763734758251092 0 0.17986202334542789 0.46500087158953413 0 0.20564531632175201 0.49999999999999928 0 0.18878874683629851 0.47763734758251092 0 0.17742484988924331 0.5 0 0.20564531632175201 0.49999999999999928 0 0.2100885969700251 0.47640900415671078 0 0.18878874683629851 0.47763734758251092 0 0.18878874683629851 0.47763734758251092 0 0.17742484988924331 0.5 0 0.1705444137728574 0.49623849762839939 0 0.18878874683629851 0.47763734758251092 0 0.1705444137728574 0.49623849762839939 0 0.1705444137728574 0.49623849762839939 0 0.15755314014648611 0.48534703383262368 0 0.17163990689440531 0.47906522103993948 0 0.1705444137728574 0.49623849762839939 0 0.15755314014648611 0.48534703383262368 0 0.14920438345673451 0.5 0 0.17742484988924331 0.5 0 0.1705444137728574 0.49623849762839939 0 0.14920438345673451 0.5 0 0.15755314014648611 0.48534703383262368 0 0.15738812652666229 0.46942114045583511 0 0.17163990689440531 0.47906522103993948 0 0.15738812652666229 0.46942114045583511 0 0.17163990689440531 0.47906522103993948 0 0.1691301579663671 0.46787373281266992 0 0.18878874683629851 0.47763734758251092 0 0.17163990689440531 0.47906522103993948 0 0.17986202334542789 0.46500087158953413 0 0.18878874683629851 0.47763734758251092 0 0.1705444137728574 0.49623849762839939 0 0.17163990689440531 0.47906522103993948 0 0.17163990689440531 0.47906522103993948 0 0.17986202334542789 0.46500087158953413 0 0.1691301579663671 0.46787373281266992 0 0.17986202334542789 0.46500087158953413 0 0.1873409029504991 0.45801110917067739 0 0.18099146795004609 0.45000507619416158 0 0.17986202334542789 0.46500087158953413 0 0.18099146795004609 0.45000507619416158 0 0.17007557889691041 0.45615508891696882 0 0.17986202334542789 0.46500087158953413 0 0.1691301579663671 0.46787373281266992 0 0.17007557889691041 0.45615508891696882 0 0.18099146795004609 0.45000507619416158 0 0.1732545027601694 0.43789489259122788 0 0.17007557889691041 0.45615508891696882 0 0.1888245482483677 0.43977847129862963 0 0.18099146795004609 0.45000507619416158 0 0.1732545027601694 0.43789489259122788 0 0.1888245482483677 0.43977847129862963 0 0.19142257890317041 0.45099418766238658 0 0.18099146795004609 0.45000507619416158 0 0.19142257890317041 0.45099418766238658 0 0.1873409029504991 0.45801110917067739 0 0.18099146795004609 0.45000507619416158 0 0.1732545027601694 0.43789489259122788 0 0.16004230285273799 0.44657182988368632 0 0.17007557889691041 0.45615508891696882 0 0.15738812652666229 0.46942114045583511 0 0.16004230285273799 0.44657182988368632 0 0.17007557889691041 0.45615508891696882 0 0.15738812652666229 0.46942114045583511 0 0.16004230285273799 0.44657182988368632 0 0.15738812652666229 0.46942114045583511 0 0.1691301579663671 0.46787373281266992 0 0.17007557889691041 0.45615508891696882 0 0.15738812652666229 0.46942114045583511 0 0.16004230285273799 0.44657182988368632 0 0.14778807667062721 0.45064895147753442 0 0.15738812652666229 0.46942114045583511 0 0.14778807667062721 0.45064895147753442 0 0.13872382032612021 0.45844817940074412 0 0.16004230285273799 0.44657182988368632 0 0.14778807667062721 0.45064895147753442 0 0.1475833771263011 0.43869291545493688 0 0.14778807667062721 0.45064895147753442 0 0.13707321412885029 0.44622181830043722 0 0.13872382032612021 0.45844817940074412 0 0.14778807667062721 0.45064895147753442 0 0.1475833771263011 0.43869291545493688 0 0.13707321412885029 0.44622181830043722 0 0.1246563877060802 0.44199006469265029 0 0.1475833771263011 0.43869291545493688 0 0.12712502726540631 0.43823690565346551 0 0.1246563877060802 0.44199006469265029 0 0.1475833771263011 0.43869291545493688 0 0.13707321412885029 0.44622181830043722 0 0.1246563877060802 0.44199006469265029 0 0.1475833771263011 0.43869291545493688 0 0.13707321412885029 0.44622181830043722 0 0.12960071115027069 0.44840118378863691 0 0.13872382032612021 0.45844817940074412 0 0.11980953052138919 0.44948907119100989 0 0.12960071115027069 0.44840118378863691 0 0.12685937845245909 0.45572263694949983 0 0.1246563877060802 0.44199006469265029 0 0.13707321412885029 0.44622181830043722 0 0.12960071115027069 0.44840118378863691 0 0.13872382032612021 0.45844817940074412 0 0.12906247977961399 0.46660672509549889 0 0.13833352194313761 0.4790861776640451 0 0.12960071115027069 0.44840118378863691 0 0.13872382032612021 0.45844817940074412 0 0.12685937845245909 0.45572263694949983 0 0.13872382032612021 0.45844817940074412 0 0.12685937845245909 0.45572263694949983 0 0.12906247977961399 0.46660672509549889 0 0.115091112272804 0.47231809867616492 0 0.12906247977961399 0.46660672509549889 0 0.13833352194313761 0.4790861776640451 0 0.1209839170242257 0.5 0 0.13833352194313761 0.4790861776640451 0 0.14920438345673451 0.5 0 0.15755314014648611 0.48534703383262368 0 0.13833352194313761 0.4790861776640451 0 0.14920438345673451 0.5 0 0.15755314014648611 0.48534703383262368 0 0.15738812652666229 0.46942114045583511 0 0.13833352194313761 0.4790861776640451 0 0.15738812652666229 0.46942114045583511 0 0.13872382032612021 0.45844817940074412 0 0.13833352194313761 0.4790861776640451 0 0.35654691942848682 0.4825969655955476 0 0.33889139488913189 0.4651939311910922 0 0.35654691942848682 0.4825969655955476 0 0.33889139488913189 0.4651939311910922 0 0.33918069303948661 0.48511011273318172 0 0.35654691942848682 0.4825969655955476 0 0.3534222470005442 0.46810961585913152 0 0.33889139488913189 0.4651939311910922 0 0.35654691942848682 0.4825969655955476 0 0.3461095893601609 0.5 0 0.37420244396784258 0.500000000000002 0 0.35654691942848682 0.4825969655955476 0 0.3461095893601609 0.5 0 0.33918069303948661 0.48511011273318172 0 0.35654691942848682 0.4825969655955476 0 0.37420244396784258 0.500000000000002 0 0.35654691942848682 0.4825969655955476 0 0.37420244396784258 0.500000000000002 0 0.37572687517328129 0.48034458252852968 0 0.35654691942848682 0.4825969655955476 0 0.36860561038677397 0.46251868070522451 0 0.37572687517328129 0.48034458252852968 0 0.35654691942848682 0.4825969655955476 0 0.36860561038677397 0.46251868070522451 0 0.3534222470005442 0.46810961585913152 0 0.36860561038677397 0.46251868070522451 0 0.3705945277430176 0.44134522703541063 0 0.35752529845659631 0.44656930123953598 0 0.3705945277430176 0.44134522703541063 0 0.35752529845659631 0.44656930123953598 0 0.35050391817635401 0.43437110775068372 0 0.35752529845659631 0.44656930123953598 0 0.34755687037767619 0.44427964482718141 0 0.35050391817635401 0.43437110775068372 0 0.35752529845659631 0.44656930123953598 0 0.34755687037767619 0.44427964482718141 0 0.34632837061468907 0.45509716804984562 0 0.34755687037767619 0.44427964482718141 0 0.33586989426306552 0.44108100226866032 0 0.35050391817635401 0.43437110775068372 0 0.36860561038677397 0.46251868070522451 0 0.34632837061468907 0.45509716804984562 0 0.36860561038677397 0.46251868070522451 0 0.3534222470005442 0.46810961585913152 0 0.34632837061468907 0.45509716804984562 0 0.36860561038677397 0.46251868070522451 0 0.35752529845659631 0.44656930123953598 0 0.34632837061468907 0.45509716804984562 0 0.3534222470005442 0.46810961585913152 0 0.34632837061468907 0.45509716804984562 0 0.33889139488913189 0.4651939311910922 0 0.34632837061468907 0.45509716804984562 0 0.33889139488913189 0.4651939311910922 0 0.32405113084260412 0.44767565539446658 0 0.33889139488913189 0.4651939311910922 0 0.32123587034977708 0.44779089678663692 0 0.34632837061468907 0.45509716804984562 0 0.33586989426306552 0.44108100226866032 0 0.32405113084260412 0.44767565539446658 0 0.34632837061468907 0.45509716804984562 0 0.32405113084260412 0.44767565539446658 0 0.33586989426306552 0.44108100226866032 0 0.35050391817635401 0.43437110775068372 0 0.34755687037767619 0.44427964482718141 0 0.34632837061468907 0.45509716804984562 0 0.33586989426306552 0.44108100226866032 0 0.33586989426306552 0.44108100226866032 0 0.32123587034977708 0.44779089678663692 0 0.33586989426306552 0.44108100226866032 0 0.32123587034977708 0.44779089678663692 0 0.32496301259183669 0.42997353384538423 0 0.33586989426306552 0.44108100226866032 0 0.32123587034977708 0.44779089678663692 0 0.32405113084260412 0.44767565539446658 0 0.32123587034977708 0.44779089678663692 0 0.30564736051652153 0.43242531688910207 0 0.33889139488913189 0.4651939311910922 0 0.32123587034977708 0.44779089678663692 0 0.31254704891762558 0.4638152300645581 0 0.33889139488913189 0.4651939311910922 0 0.32123587034977708 0.44779089678663692 0 0.32405113084260412 0.44767565539446658 0 0.33889139488913189 0.4651939311910922 0 0.31254704891762558 0.4638152300645581 0 0.32488441752376418 0.48045609830764407 0 0.31254704891762558 0.4638152300645581 0 0.32488441752376418 0.48045609830764407 0 0.30831884531275539 0.48378806107616379 0 0.33889139488913189 0.4651939311910922 0 0.32488441752376418 0.48045609830764407 0 0.33918069303948661 0.48511011273318172 0 0.3461095893601609 0.5 0 0.33918069303948661 0.48511011273318172 0 0.31801673475247921 0.5 0 0.32488441752376418 0.48045609830764407 0 0.31801673475247921 0.5 0 0.30831884531275539 0.48378806107616379 0 0.32488441752376418 0.48045609830764407 0 0.33918069303948661 0.48511011273318172 0 0.31801673475247921 0.5 0 0.30831884531275539 0.48378806107616379 0 0.29622214522511059 0.47466897700861682 0 0.28992388014479747 0.5 0 0.31801673475247921 0.5 0 0.30831884531275539 0.48378806107616379 0 0.28992388014479747 0.5 0 0.31254704891762558 0.4638152300645581 0 0.30831884531275539 0.48378806107616379 0 0.29622214522511059 0.47466897700861682 0 0.29622214522511059 0.47466897700861682 0 0.27932582031755221 0.48372971458644981 0 0.2824527914389659 0.46557345407339928 0 0.29622214522511059 0.47466897700861682 0 0.28992388014479747 0.5 0 0.27932582031755221 0.48372971458644981 0 0.27932582031755221 0.48372971458644981 0 0.26364588712989989 0.47419666972968388 0 0.26183102553711568 0.5 0 0.28992388014479747 0.5 0 0.27932582031755221 0.48372971458644981 0 0.26183102553711568 0.5 0 0.27932582031755221 0.48372971458644981 0 0.26364588712989989 0.47419666972968388 0 0.2824527914389659 0.46557345407339928 0 0.26364588712989989 0.47419666972968388 0 0.2824527914389659 0.46557345407339928 0 0.24483898282083391 0.48281988538596848 0 0.26364588712989989 0.47419666972968388 0 0.24483898282083391 0.48281988538596848 0 0.26364588712989989 0.47419666972968388 0 0.25044195169525613 0.46847414930888109 0 0.24483898282083391 0.48281988538596848 0 0.26364588712989989 0.47419666972968388 0 0.26183102553711568 0.5 0 0.2426690178941325 0.44391826882859919 0 0.25994723793266422 0.45598679955958499 0 0.26276772926709291 0.43353934443560388 0 0.26364588712989989 0.47419666972968388 0 0.25044195169525613 0.46847414930888109 0 0.25994723793266422 0.45598679955958499 0 0.25994723793266422 0.45598679955958499 0 0.28201371250756252 0.4452447914263602 0 0.2824527914389659 0.46557345407339928 0 0.26364588712989989 0.47419666972968388 0 0.25994723793266422 0.45598679955958499 0 0.2824527914389659 0.46557345407339928 0 0.25994723793266422 0.45598679955958499 0 0.28201371250756252 0.4452447914263602 0 0.26276772926709291 0.43353934443560388 0 0.28201371250756252 0.4452447914263602 0 0.26276772926709291 0.43353934443560388 0 0.28201371250756252 0.4452447914263602 0 0.29340052722609139 0.43837676135226661 0 0.3012596957480323 0.45695023841711591 0 0.28201371250756252 0.4452447914263602 0 0.29340052722609139 0.43837676135226661 0 0.28306310195657541 0.43266516710112962 0 0.28201371250756252 0.4452447914263602 0 0.3012596957480323 0.45695023841711591 0 0.2824527914389659 0.46557345407339928 0 0.3012596957480323 0.45695023841711591 0 0.29622214522511059 0.47466897700861682 0 0.2824527914389659 0.46557345407339928 0 0.3012596957480323 0.45695023841711591 0 0.28201371250756252 0.4452447914263602 0 0.2824527914389659 0.46557345407339928 0 0.3012596957480323 0.45695023841711591 0 0.31254704891762558 0.4638152300645581 0 0.29622214522511059 0.47466897700861682 0 0.3012596957480323 0.45695023841711591 0 0.32123587034977708 0.44779089678663692 0 0.31254704891762558 0.4638152300645581 0 0.3012596957480323 0.45695023841711591 0 0.31254704891762558 0.4638152300645581 0 0.3012596957480323 0.45695023841711591 0 0.32123587034977708 0.44779089678663692 0 0.3012596957480323 0.45695023841711591 0 0.29340052722609139 0.43837676135226661 0 0.3012596957480323 0.45695023841711591 0 0.30564736051652153 0.43242531688910207 0 0.32123587034977708 0.44779089678663692 0 0.3012596957480323 0.45695023841711591 0 0.30564736051652153 0.43242531688910207 0 0.30564736051652153 0.43242531688910207 0 0.29005885068326592 0.41705973699156762 0 0.30564736051652153 0.43242531688910207 0 0.29005885068326592 0.41705973699156762 0 0.31580085904858068 0.41371102861472492 0 0.29005885068326592 0.41705973699156762 0 0.30133209013916451 0.40325784294305173 0 0.31580085904858068 0.41371102861472492 0 0.29005885068326592 0.41705973699156762 0 0.27447034085001071 0.4016941570940325 0 0.29340052722609139 0.43837676135226661 0 0.29005885068326592 0.41705973699156762 0 0.28306310195657541 0.43266516710112962 0 0.29340052722609139 0.43837676135226661 0 0.30564736051652153 0.43242531688910207 0 0.29005885068326592 0.41705973699156762 0 0.29005885068326592 0.41705973699156762 0 0.28306310195657541 0.43266516710112962 0 0.27876672140329328 0.41717966209758089 0 0.28201371250756252 0.4452447914263602 0 0.27266171584030252 0.42721222498007572 0 0.26276772926709291 0.43353934443560388 0 0.28201371250756252 0.4452447914263602 0 0.28306310195657541 0.43266516710112962 0 0.27266171584030252 0.42721222498007572 0 0.28306310195657541 0.43266516710112962 0 0.27266171584030252 0.42721222498007572 0 0.27876672140329328 0.41717966209758089 0 0.28306310195657541 0.43266516710112962 0 0.27876672140329328 0.41717966209758089 0 0.27876672140329328 0.41717966209758089 0 0.27447034085001071 0.4016941570940325 0 0.27876672140329328 0.41717966209758089 0 0.26789932753875578 0.41185601163520252 0 0.27447034085001071 0.4016941570940325 0 0.29005885068326592 0.41705973699156762 0 0.27876672140329328 0.41717966209758089 0 0.27447034085001071 0.4016941570940325 0 0.27266171584030252 0.42721222498007572 0 0.26789932753875578 0.41185601163520252 0 0.26060010165614089 0.42068003062106912 0 0.27266171584030252 0.42721222498007572 0 0.27876672140329328 0.41717966209758089 0 0.26789932753875578 0.41185601163520252 0 0.2435217460266236 0.42183389744484701 0 0.26060010165614089 0.42068003062106912 0 0.25614998960793017 0.40895867460961588 0 0.26789932753875578 0.41185601163520252 0 0.26060010165614089 0.42068003062106912 0 0.25614998960793017 0.40895867460961588 0 0.2435217460266236 0.42183389744484701 0 0.26276772926709291 0.43353934443560388 0 0.2435217460266236 0.42183389744484701 0 0.26060010165614089 0.42068003062106912 0 0.26276772926709291 0.43353934443560388 0 0.27266171584030252 0.42721222498007572 0 0.26060010165614089 0.42068003062106912 0 0.26276772926709291 0.43353934443560388 0 0.25118990869597579 0.37874665639394561 0 0.26877823318923849 0.39608345177438659 0 0.25118990869597579 0.37874665639394561 0 0.25137282146461121 0.39422979817504239 0 0.26877823318923849 0.39608345177438659 0 0.25118990869597579 0.37874665639394561 0 0.26877823318923849 0.39608345177438659 0 0.27200181707317678 0.39279682204108107 0 0.25118990869597579 0.37874665639394561 0 0.27200181707317678 0.39279682204108107 0 0.26437826943248371 0.36531916179410401 0 0.25614998960793017 0.40895867460961588 0 0.25137282146461121 0.39422979817504239 0 0.26877823318923849 0.39608345177438659 0 0.26789932753875578 0.41185601163520252 0 0.25614998960793017 0.40895867460961588 0 0.26877823318923849 0.39608345177438659 0 0.2429198700278816 0.40154823855985128 0 0.25614998960793017 0.40895867460961588 0 0.25137282146461121 0.39422979817504239 0 0.25614998960793017 0.40895867460961588 0 0.26877823318923849 0.39608345177438659 0 0.27200181707317678 0.39279682204108107 0 0.27447034085001071 0.4016941570940325 0 0.28786213468886129 0.39440877086228282 0 0.26877823318923849 0.39608345177438659 0 0.27200181707317678 0.39279682204108107 0 0.27447034085001071 0.4016941570940325 0 0.26789932753875578 0.41185601163520252 0 0.26877823318923849 0.39608345177438659 0 0.27447034085001071 0.4016941570940325 0 0.27200181707317678 0.39279682204108107 0 0.27447034085001071 0.4016941570940325 0 0.26877823318923849 0.39608345177438659 0 0.27200181707317678 0.39279682204108107 0 0.26877823318923849 0.39608345177438659 0 0.27447034085001071 0.4016941570940325 0 0.27200181707317678 0.39279682204108107 0 0.26437826943248371 0.36531916179410401 0 0.27200181707317678 0.39279682204108107 0 0.28699551789137961 0.37750987909322148 0 0.27200181707317678 0.39279682204108107 0 0.28699551789137961 0.37750987909322148 0 0.26437826943248371 0.36531916179410401 0 0.28699551789137961 0.37750987909322148 0 0.28786213468886129 0.39440877086228282 0 0.30371818864625588 0.38652341369843118 0 0.27200181707317678 0.39279682204108107 0 0.28699551789137961 0.37750987909322148 0 0.28786213468886129 0.39440877086228282 0 0.28699551789137961 0.37750987909322148 0 0.30371818864625588 0.38652341369843118 0 0.29005885068326592 0.41705973699156762 0 0.27447034085001071 0.4016941570940325 0 0.28786213468886129 0.39440877086228282 0 0.29005885068326592 0.41705973699156762 0 0.28786213468886129 0.39440877086228282 0 0.30133209013916451 0.40325784294305173 0 0.30133209013916451 0.40325784294305173 0 0.30371818864625588 0.38652341369843118 0 0.32044085940113132 0.39553694830364222 0 0.28786213468886129 0.39440877086228282 0 0.30133209013916451 0.40325784294305173 0 0.30371818864625588 0.38652341369843118 0 0.30371818864625588 0.38652341369843118 0 0.32044085940113132 0.39553694830364222 0 0.30371818864625588 0.38652341369843118 0 0.32044085940113132 0.39553694830364222 0 0.32428573035753427 0.37454978793987381 0 0.34141312810638941 0.38740518223138531 0 0.3497575667784204 0.36424410841202359 0 0.32428573035753427 0.37454978793987381 0 0.34141312810638941 0.38740518223138531 0 0.32044085940113132 0.39553694830364222 0 0.32428573035753427 0.37454978793987381 0 0.34141312810638941 0.38740518223138531 0 0.33408213750957938 0.40263879163041733 0 0.35387421401387548 0.41247148598627648 0 0.34141312810638941 0.38740518223138531 0 0.33408213750957938 0.40263879163041733 0 0.32044085940113132 0.39553694830364222 0 0.33408213750957938 0.40263879163041733 0 0.32044085940113132 0.39553694830364222 0 0.31580085904858068 0.41371102861472492 0 0.30133209013916451 0.40325784294305173 0 0.32044085940113132 0.39553694830364222 0 0.31580085904858068 0.41371102861472492 0 0.33408213750957938 0.40263879163041733 0 0.31580085904858068 0.41371102861472492 0 0.33345995062300199 0.41651193600610781 0 0.31580085904858068 0.41371102861472492 0 0.32496301259183669 0.42997353384538423 0 0.33345995062300199 0.41651193600610781 0 0.32123587034977708 0.44779089678663692 0 0.30564736051652153 0.43242531688910207 0 0.32496301259183669 0.42997353384538423 0 0.30564736051652153 0.43242531688910207 0 0.31580085904858068 0.41371102861472492 0 0.32496301259183669 0.42997353384538423 0 0.33586989426306552 0.44108100226866032 0 0.32496301259183669 0.42997353384538423 0 0.33932659559133221 0.42761603992363678 0 0.32496301259183669 0.42997353384538423 0 0.33932659559133221 0.42761603992363678 0 0.33345995062300199 0.41651193600610781 0 0.33586989426306552 0.44108100226866032 0 0.33932659559133221 0.42761603992363678 0 0.35050391817635401 0.43437110775068372 0 0.33932659559133221 0.42761603992363678 0 0.33345995062300199 0.41651193600610781 0 0.35387421401387548 0.41247148598627648 0 0.33408213750957938 0.40263879163041733 0 0.33345995062300199 0.41651193600610781 0 0.35387421401387548 0.41247148598627648 0 0.35387421401387548 0.41247148598627648 0 0.35050391817635401 0.43437110775068372 0 0.36323150974858093 0.42739503681771418 0 0.33932659559133221 0.42761603992363678 0 0.35387421401387548 0.41247148598627648 0 0.35050391817635401 0.43437110775068372 0 0.3705945277430176 0.44134522703541063 0 0.36323150974858093 0.42739503681771418 0 0.37795337906107629 0.42139232649848579 0 0.3705945277430176 0.44134522703541063 0 0.35050391817635401 0.43437110775068372 0 0.36323150974858093 0.42739503681771418 0 0.35387421401387548 0.41247148598627648 0 0.37066327734310889 0.3919173187360443 0 0.37795337906107629 0.42139232649848579 0 0.35387421401387548 0.41247148598627648 0 0.36323150974858093 0.42739503681771418 0 0.37795337906107629 0.42139232649848579 0 0.34141312810638941 0.38740518223138531 0 0.37066327734310889 0.3919173187360443 0 0.34141312810638941 0.38740518223138531 0 0.37066327734310889 0.3919173187360443 0 0.3497575667784204 0.36424410841202359 0 0.34141312810638941 0.38740518223138531 0 0.35387421401387548 0.41247148598627648 0 0.37066327734310889 0.3919173187360443 0 0.3497575667784204 0.36424410841202359 0 0.35546018143314417 0.34029530503237782 0 0.33166663686561132 0.35712453969031632 0 0.3497575667784204 0.36424410841202359 0 0.36969699905057951 0.35149713060627391 0 0.35546018143314417 0.34029530503237782 0 0.3497575667784204 0.36424410841202359 0 0.37289207530280949 0.36561539260536879 0 0.36969699905057951 0.35149713060627391 0 0.37066327734310889 0.3919173187360443 0 0.3497575667784204 0.36424410841202359 0 0.37289207530280949 0.36561539260536879 0 0.36969699905057951 0.35149713060627391 0 0.35546018143314417 0.34029530503237782 0 0.38533089315871227 0.34193328573644149 0 0.36782465737738818 0.33023566754044598 0 0.35771634269531127 0.31791095471892478 0 0.35546018143314417 0.34029530503237782 0 0.36782465737738818 0.33023566754044598 0 0.35546018143314417 0.34029530503237782 0 0.38533089315871227 0.34193328573644149 0 0.35546018143314417 0.34029530503237782 0 0.38533089315871227 0.34193328573644149 0 0.37472895794248501 0.31550722054144797 0 0.35771634269531127 0.31791095471892478 0 0.38372978902200161 0.32918525847137431 0 0.36782465737738818 0.33023566754044598 0 0.35771634269531127 0.31791095471892478 0 0.38372978902200161 0.32918525847137431 0 0.37472895794248501 0.31550722054144797 0 0.35771634269531127 0.31791095471892478 0 0.36939539495710833 0.30854513180684351 0 0.35771634269531127 0.31791095471892478 0 0.38372978902200161 0.32918525847137431 0 0.35771634269531127 0.31791095471892478 0 0.35546018143314417 0.34029530503237782 0 0.3393298241950965 0.32468672166385909 0 0.35546018143314417 0.34029530503237782 0 0.3393298241950965 0.32468672166385909 0 0.32558946970757602 0.33865732432831419 0 0.35546018143314417 0.34029530503237782 0 0.32558946970757602 0.33865732432831419 0 0.3393298241950965 0.32468672166385909 0 0.32325718877729259 0.32008512032791342 0 0.32558946970757602 0.33865732432831419 0 0.35771634269531127 0.31791095471892478 0 0.3393298241950965 0.32468672166385909 0 0.33170289636862088 0.30663665096647541 0 0.3393298241950965 0.32468672166385909 0 0.32325718877729259 0.32008512032791342 0 0.33170289636862088 0.30663665096647541 0 0.32325718877729259 0.32008512032791342 0 0.32558946970757602 0.33865732432831419 0 0.30461012032082851 0.32189096203948819 0 0.32325718877729259 0.32008512032791342 0 0.30461012032082851 0.32189096203948819 0 0.3143899840562781 0.30732118102087269 0 0.32558946970757602 0.33865732432831419 0 0.33166663686561132 0.35712453969031632 0 0.30554299134728929 0.35859965992950549 0 0.35546018143314417 0.34029530503237782 0 0.32558946970757602 0.33865732432831419 0 0.33166663686561132 0.35712453969031632 0 0.3497575667784204 0.36424410841202359 0 0.33166663686561132 0.35712453969031632 0 0.32428573035753427 0.37454978793987381 0 0.33166663686561132 0.35712453969031632 0 0.32428573035753427 0.37454978793987381 0 0.30554299134728929 0.35859965992950549 0 0.28699551789137961 0.37750987909322148 0 0.30371818864625588 0.38652341369843118 0 0.30554299134728929 0.35859965992950549 0 0.30371818864625588 0.38652341369843118 0 0.32428573035753427 0.37454978793987381 0 0.30554299134728929 0.35859965992950549 0 0.32558946970757602 0.33865732432831419 0 0.30554299134728929 0.35859965992950549 0 0.29571875798200781 0.33701934362425051 0 0.30554299134728929 0.35859965992950549 0 0.28653429321579282 0.34802826956553862 0 0.29571875798200781 0.33701934362425051 0 0.30554299134728929 0.35859965992950549 0 0.28653429321579282 0.34802826956553862 0 0.28211878375832211 0.36128156525990213 0 0.28699551789137961 0.37750987909322148 0 0.30554299134728929 0.35859965992950549 0 0.28211878375832211 0.36128156525990213 0 0.28699551789137961 0.37750987909322148 0 0.30554299134728929 0.35859965992950549 0 0.28211878375832211 0.36128156525990213 0 0.27187147084844132 0.35681806029675128 0 0.26437826943248371 0.36531916179410401 0 0.28699551789137961 0.37750987909322148 0 0.26437826943248371 0.36531916179410401 0 0.28699551789137961 0.37750987909322148 0 0.28211878375832211 0.36128156525990213 0 0.26437826943248371 0.36531916179410401 0 0.28653429321579282 0.34802826956553862 0 0.28211878375832211 0.36128156525990213 0 0.27187147084844132 0.35681806029675128 0 0.28653429321579282 0.34802826956553862 0 0.27227550186854282 0.34653237092652939 0 0.27187147084844132 0.35681806029675128 0 0.27187147084844132 0.35681806029675128 0 0.26165987003319352 0.35552119651210667 0 0.26437826943248371 0.36531916179410401 0 0.27227550186854282 0.34653237092652939 0 0.27187147084844132 0.35681806029675128 0 0.26165987003319352 0.35552119651210667 0 0.2384823244012641 0.3513612240881604 0 0.26437826943248371 0.36531916179410401 0 0.27227550186854282 0.34653237092652939 0 0.25537891313490357 0.34894679750734542 0 0.26343371324167641 0.34143214775837749 0 0.27227550186854282 0.34653237092652939 0 0.26165987003319352 0.35552119651210667 0 0.25537891313490357 0.34894679750734542 0 0.2384823244012641 0.3513612240881604 0 0.26165987003319352 0.35552119651210667 0 0.25537891313490357 0.34894679750734542 0 0.2384823244012641 0.3513612240881604 0 0.26165987003319352 0.35552119651210667 0 0.26437826943248371 0.36531916179410401 0 0.27227550186854282 0.34653237092652939 0 0.25537891313490357 0.34894679750734542 0 0.2465577747650276 0.34464272094215392 0 0.25537891313490357 0.34894679750734542 0 0.25276909406611109 0.33853655995408199 0 0.26165987003319352 0.35552119651210667 0 0.26437826943248371 0.36531916179410401 0 0.24808748913268031 0.31562373023971702 0 0.26485613167357869 0.31659667885524201 0 0.25219736353756511 0.32691542280319091 0 0.26485613167357869 0.31659667885524201 0 0.25219736353756511 0.32691542280319091 0 0.26249358847668408 0.33118489387953348 0 0.25219736353756511 0.32691542280319091 0 0.25276909406611109 0.33853655995408199 0 0.26249358847668408 0.33118489387953348 0 0.25537891313490357 0.34894679750734542 0 0.25276909406611109 0.33853655995408199 0 0.26343371324167641 0.34143214775837749 0 0.25276909406611109 0.33853655995408199 0 0.26343371324167641 0.34143214775837749 0 0.26249358847668408 0.33118489387953348 0 0.26343371324167641 0.34143214775837749 0 0.26249358847668408 0.33118489387953348 0 0.27998578451608319 0.33159900934936731 0 0.28653429321579282 0.34802826956553862 0 0.27227550186854282 0.34653237092652939 0 0.27998578451608319 0.33159900934936731 0 0.27227550186854282 0.34653237092652939 0 0.26343371324167641 0.34143214775837749 0 0.27998578451608319 0.33159900934936731 0 0.26485613167357869 0.31659667885524201 0 0.26249358847668408 0.33118489387953348 0 0.27998578451608319 0.33159900934936731 0 0.26485613167357869 0.31659667885524201 0 0.27998578451608319 0.33159900934936731 0 0.2903677670307161 0.30937816355314168 0 0.27998578451608319 0.33159900934936731 0 0.30461012032082851 0.32189096203948819 0 0.2903677670307161 0.30937816355314168 0 0.27998578451608319 0.33159900934936731 0 0.29571875798200781 0.33701934362425051 0 0.30461012032082851 0.32189096203948819 0 0.28653429321579282 0.34802826956553862 0 0.27998578451608319 0.33159900934936731 0 0.29571875798200781 0.33701934362425051 0 0.32558946970757602 0.33865732432831419 0 0.29571875798200781 0.33701934362425051 0 0.32558946970757602 0.33865732432831419 0 0.29571875798200781 0.33701934362425051 0 0.30461012032082851 0.32189096203948819 0 0.30461012032082851 0.32189096203948819 0 0.2903677670307161 0.30937816355314168 0 0.3143899840562781 0.30732118102087269 0 0.30220217382048992 0.29471521394158467 0 0.2903677670307161 0.30937816355314168 0 0.3143899840562781 0.30732118102087269 0 0.30220217382048992 0.29471521394158467 0 0.31988913808627878 0.27814654644892178 0 0.3143899840562781 0.30732118102087269 0 0.30220217382048992 0.29471521394158467 0 0.30273324978810251 0.28044393983364763 0 0.31988913808627878 0.27814654644892178 0 0.30220217382048992 0.29471521394158467 0 0.28770107244241672 0.2874525166111952 0 0.30273324978810251 0.28044393983364763 0 0.30220217382048992 0.29471521394158467 0 0.28770107244241672 0.2874525166111952 0 0.2903677670307161 0.30937816355314168 0 0.28770107244241672 0.2874525166111952 0 0.2903677670307161 0.30937816355314168 0 0.26962472211910848 0.29420309291478308 0 0.26485613167357869 0.31659667885524201 0 0.2903677670307161 0.30937816355314168 0 0.26962472211910848 0.29420309291478308 0 0.26962472211910848 0.29420309291478308 0 0.25620705141910971 0.27963943373887518 0 0.27521684301793181 0.27113957603071742 0 0.28770107244241672 0.2874525166111952 0 0.26962472211910848 0.29420309291478308 0 0.27521684301793181 0.27113957603071742 0 0.26962472211910848 0.29420309291478308 0 0.25358365163434232 0.30053274337824049 0 0.25620705141910971 0.27963943373887518 0 0.26485613167357869 0.31659667885524201 0 0.26962472211910848 0.29420309291478308 0 0.25358365163434232 0.30053274337824049 0 0.24808748913268031 0.31562373023971702 0 0.26485613167357869 0.31659667885524201 0 0.25358365163434232 0.30053274337824049 0 0.25837332287901649 0.26029226688259027 0 0.27954809663536612 0.24742483709009899 0 0.25683111238660761 0.24379959893971959 0 0.2438721241591377 0.25167873840379662 0 0.25837332287901649 0.26029226688259027 0 0.25683111238660761 0.24379959893971959 0 0.23856470965594639 0.26807141709233429 0 0.25837332287901649 0.26029226688259027 0 0.25620705141910971 0.27963943373887518 0 0.25837332287901649 0.26029226688259027 0 0.25620705141910971 0.27963943373887518 0 0.27521684301793181 0.27113957603071742 0 0.25837332287901649 0.26029226688259027 0 0.27521684301793181 0.27113957603071742 0 0.27954809663536612 0.24742483709009899 0 0.27521684301793181 0.27113957603071742 0 0.29847933329574461 0.26441301039474852 0 0.27954809663536612 0.24742483709009899 0 0.28770107244241672 0.2874525166111952 0 0.30273324978810251 0.28044393983364763 0 0.29847933329574461 0.26441301039474852 0 0.28770107244241672 0.2874525166111952 0 0.27521684301793181 0.27113957603071742 0 0.29847933329574461 0.26441301039474852 0 0.30273324978810251 0.28044393983364763 0 0.29847933329574461 0.26441301039474852 0 0.31988913808627878 0.27814654644892178 0 0.29847933329574461 0.26441301039474852 0 0.31988913808627878 0.27814654644892178 0 0.32538829211628489 0.2489719118769719 0 0.31988913808627878 0.27814654644892178 0 0.32538829211628489 0.2489719118769719 0 0.31988913808627878 0.27814654644892178 0 0.34779853276984413 0.26215334039684829 0 0.32538829211628489 0.2489719118769719 0 0.34779853276984413 0.26215334039684829 0 0.32538829211628489 0.2489719118769719 0 0.31988913808627878 0.27814654644892178 0 0.34379095829174139 0.28367187861656512 0 0.34779853276984413 0.26215334039684829 0 0.31988913808627878 0.27814654644892178 0 0.3143899840562781 0.30732118102087269 0 0.31988913808627878 0.27814654644892178 0 0.3143899840562781 0.30732118102087269 0 0.3292579820075448 0.29357651780203597 0 0.32325718877729259 0.32008512032791342 0 0.3143899840562781 0.30732118102087269 0 0.33170289636862088 0.30663665096647541 0 0.3143899840562781 0.30732118102087269 0 0.33170289636862088 0.30663665096647541 0 0.3292579820075448 0.29357651780203597 0 0.33170289636862088 0.30663665096647541 0 0.33958459709277761 0.29607521625869471 0 0.35512038363218928 0.30240025980037732 0 0.33170289636862088 0.30663665096647541 0 0.3292579820075448 0.29357651780203597 0 0.33958459709277761 0.29607521625869471 0 0.31988913808627878 0.27814654644892178 0 0.3292579820075448 0.29357651780203597 0 0.34379095829174139 0.28367187861656512 0 0.3292579820075448 0.29357651780203597 0 0.33958459709277761 0.29607521625869471 0 0.34379095829174139 0.28367187861656512 0 0.33958459709277761 0.29607521625869471 0 0.34379095829174139 0.28367187861656512 0 0.35512038363218928 0.30240025980037732 0 0.34379095829174139 0.28367187861656512 0 0.35512038363218928 0.30240025980037732 0 0.36561841316174232 0.28530600046300292 0 0.35771634269531127 0.31791095471892478 0 0.33170289636862088 0.30663665096647541 0 0.35512038363218928 0.30240025980037732 0 0.35771634269531127 0.31791095471892478 0 0.33170289636862088 0.30663665096647541 0 0.35512038363218928 0.30240025980037732 0 0.36939539495710833 0.30854513180684351 0 0.38073501833434981 0.29829023857975828 0 0.35512038363218928 0.30240025980037732 0 0.38073501833434981 0.29829023857975828 0 0.35771634269531127 0.31791095471892478 0 0.35512038363218928 0.30240025980037732 0 0.36939539495710833 0.30854513180684351 0 0.37472895794248501 0.31550722054144797 0 0.36939539495710833 0.30854513180684351 0 0.37867627218120631 0.30861698539370919 0 0.36561841316174232 0.28530600046300292 0 0.37020877342339947 0.27533476891673098 0 0.38073501833434981 0.29829023857975828 0 0.35512038363218928 0.30240025980037732 0 0.36561841316174232 0.28530600046300292 0 0.38073501833434981 0.29829023857975828 0 0.36561841316174232 0.28530600046300292 0 0.37020877342339947 0.27533476891673098 0 0.36561841316174232 0.28530600046300292 0 0.37020877342339947 0.27533476891673098 0 0.34779853276984413 0.26215334039684829 0 0.37020877342339947 0.27533476891673098 0 0.36083912985981348 0.24913549553757319 0 0.38206125475814667 0.24958867731389359 0 0.37020877342339947 0.27533476891673098 0 0.34779853276984413 0.26215334039684829 0 0.36083912985981348 0.24913549553757319 0 0.34379095829174139 0.28367187861656512 0 0.36561841316174232 0.28530600046300292 0 0.34779853276984413 0.26215334039684829 0 0.37020877342339947 0.27533476891673098 0 0.34779853276984413 0.26215334039684829 0 0.40607724214345892 0.27769938249506909 0 0.39176719638803931 0.26829413317901002 0 0.41186466019954732 0.2622657206562346 0 0.40607724214345892 0.27769938249506909 0 0.39176719638803931 0.26829413317901002 0 0.39503557293764319 0.28993758770093031 0 0.39176719638803931 0.26829413317901002 0 0.40604663183827611 0.24222092895334069 0 0.38206125475814667 0.24958867731389359 0 0.39176719638803931 0.26829413317901002 0 0.41186466019954732 0.2622657206562346 0 0.40604663183827611 0.24222092895334069 0 0.37020877342339947 0.27533476891673098 0 0.39176719638803931 0.26829413317901002 0 0.38206125475814667 0.24958867731389359 0 0.37020877342339947 0.27533476891673098 0 0.38206125475814667 0.24958867731389359 0 0.37020877342339947 0.27533476891673098 0 0.39176719638803931 0.26829413317901002 0 0.39503557293764319 0.28993758770093031 0 0.37020877342339947 0.27533476891673098 0 0.38073501833434981 0.29829023857975828 0 0.39503557293764319 0.28993758770093031 0 0.37020877342339947 0.27533476891673098 0 0.39503557293764319 0.28993758770093031 0 0.38073501833434981 0.29829023857975828 0 0.39792806090674449 0.3071898739509758 0 0.38817498791584981 0.31316171144430482 0 0.37867627218120631 0.30861698539370919 0 0.38073501833434981 0.29829023857975828 0 0.38817498791584981 0.31316171144430482 0 0.37472895794248501 0.31550722054144797 0 0.37867627218120631 0.30861698539370919 0 0.38817498791584981 0.31316171144430482 0 0.36939539495710833 0.30854513180684351 0 0.37867627218120631 0.30861698539370919 0 0.38073501833434981 0.29829023857975828 0 0.38073501833434981 0.29829023857975828 0 0.39792806090674449 0.3071898739509758 0 0.40634965303651011 0.29418021735913952 0 0.39792806090674449 0.3071898739509758 0 0.39649907274880702 0.31550894877057661 0 0.38817498791584981 0.31316171144430482 0 0.39792806090674449 0.3071898739509758 0 0.40634965303651011 0.29418021735913952 0 0.40886081965842352 0.30844225178462542 0 0.39792806090674449 0.3071898739509758 0 0.40886081965842352 0.30844225178462542 0 0.40419991039170761 0.31760194929573932 0 0.38073501833434981 0.29829023857975828 0 0.39503557293764319 0.28993758770093031 0 0.40634965303651011 0.29418021735913952 0 0.40607724214345892 0.27769938249506909 0 0.39503557293764319 0.28993758770093031 0 0.40634965303651011 0.29418021735913952 0 0.38073501833434981 0.29829023857975828 0 0.40634965303651011 0.29418021735913952 0 0.40634965303651011 0.29418021735913952 0 0.4216156668419172 0.30627080459198558 0 0.43196428773867029 0.29007019613852048 0 0.40634965303651011 0.29418021735913952 0 0.43196428773867029 0.29007019613852048 0 0.40607724214345892 0.27769938249506909 0 0.40634965303651011 0.29418021735913952 0 0.42230322522903979 0.27492776793443308 0 0.40634965303651011 0.29418021735913952 0 0.43196428773867029 0.29007019613852048 0 0.42230322522903979 0.27492776793443308 0 0.40634965303651011 0.29418021735913952 0 0.40886081965842352 0.30844225178462542 0 0.4216156668419172 0.30627080459198558 0 0.40886081965842352 0.30844225178462542 0 0.4216156668419172 0.30627080459198558 0 0.41421080711523828 0.31696841372528689 0 0.4216156668419172 0.30627080459198558 0 0.43196428773867029 0.29007019613852048 0 0.4394779674401415 0.30688967390460242 0 0.4216156668419172 0.30627080459198558 0 0.4394779674401415 0.30688967390460242 0 0.42935326040146821 0.32199002092562512 0 0.43196428773867029 0.29007019613852048 0 0.42230322522903979 0.27492776793443308 0 0.44392037998397449 0.27022839011935967 0 0.42230322522903979 0.27492776793443308 0 0.42889529200320847 0.25303008029564289 0 0.44392037998397449 0.27022839011935967 0 0.40607724214345892 0.27769938249506909 0 0.42230322522903979 0.27492776793443308 0 0.41186466019954732 0.2622657206562346 0 0.41186466019954732 0.2622657206562346 0 0.42889529200320847 0.25303008029564289 0 0.40604663183827611 0.24222092895334069 0 0.42230322522903979 0.27492776793443308 0 0.41186466019954732 0.2622657206562346 0 0.42889529200320847 0.25303008029564289 0 0.42889529200320847 0.25303008029564289 0 0.45095767982717339 0.2516030008942155 0 0.44392037998397449 0.27022839011935967 0 0.5 0.26776742217061072 0 0.46892701935690739 0.29481950255521272 0 0.4744563855037533 0.35477230099091261 0 0.44392037998397449 0.27022839011935967 0 0.45869888629496081 0.28014712678774001 0 0.45071916439200738 0.29205092407883471 0 0.45869888629496081 0.28014712678774001 0 0.46658482199607421 0.2641796619238409 0 0.46892701935690739 0.29481950255521272 0 0.44392037998397449 0.27022839011935967 0 0.45869888629496081 0.28014712678774001 0 0.46658482199607421 0.2641796619238409 0 0.45095767982717339 0.2516030008942155 0 0.44392037998397449 0.27022839011935967 0 0.46658482199607421 0.2641796619238409 0 0.45095767982717339 0.2516030008942155 0 0.46658482199607421 0.2641796619238409 0 0.46307205025087572 0.24152961596284159 0 0.46658482199607421 0.2641796619238409 0 0.5 0.26776742217061072 0 0.48051773825862748 0.24316257497690641 0 0.46658482199607421 0.2641796619238409 0 0.5 0.26776742217061072 0 0.46892701935690739 0.29481950255521272 0 0.46892701935690739 0.29481950255521272 0 0.46132644553738988 0.31015065496757299 0 0.45071916439200738 0.29205092407883471 0 0.45869888629496081 0.28014712678774001 0 0.46892701935690739 0.29481950255521272 0 0.45071916439200738 0.29205092407883471 0 0.43196428773867029 0.29007019613852048 0 0.45071916439200738 0.29205092407883471 0 0.4394779674401415 0.30688967390460242 0 0.43196428773867029 0.29007019613852048 0 0.44392037998397449 0.27022839011935967 0 0.45071916439200738 0.29205092407883471 0 0.46132644553738988 0.31015065496757299 0 0.45071916439200738 0.29205092407883471 0 0.4394779674401415 0.30688967390460242 0 0.44775043047180357 0.32081450615603191 0 0.4424915868006794 0.33640718108372081 0 0.42935326040146821 0.32199002092562512 0 0.46132644553738988 0.31015065496757299 0 0.45928765691476681 0.33268133536300531 0 0.4744563855037533 0.35477230099091261 0 0.46132644553738988 0.31015065496757299 0 0.4394779674401415 0.30688967390460242 0 0.44775043047180357 0.32081450615603191 0 0.4394779674401415 0.30688967390460242 0 0.44775043047180357 0.32081450615603191 0 0.42935326040146821 0.32199002092562512 0 0.46892701935690739 0.29481950255521272 0 0.46132644553738988 0.31015065496757299 0 0.4744563855037533 0.35477230099091261 0 0.5 0.26776742217061072 0 0.4744563855037533 0.35477230099091261 0 0.5 0.38218688082651342 0 0.4424915868006794 0.33640718108372081 0 0.45928765691476681 0.33268133536300531 0 0.45724886829214351 0.35521201575843753 0 0.44775043047180357 0.32081450615603191 0 0.4424915868006794 0.33640718108372081 0 0.45928765691476681 0.33268133536300531 0 0.46132644553738988 0.31015065496757299 0 0.44775043047180357 0.32081450615603191 0 0.45928765691476681 0.33268133536300531 0 0.46132644553738988 0.31015065496757299 0 0.45928765691476681 0.33268133536300531 0 0.4744563855037533 0.35477230099091261 0 0.4664812215634086 0.38012013624496521 0 0.5 0.38218688082651342 0 0.4744563855037533 0.35477230099091261 0 0.4664812215634086 0.38012013624496521 0 0.4744563855037533 0.35477230099091261 0 0.46334913875720651 0.36696178728704631 0 0.4664812215634086 0.38012013624496521 0 0.46334913875720651 0.36696178728704631 0 0.45724886829214351 0.35521201575843753 0 0.45521007966952032 0.37774269615386991 0 0.45724886829214351 0.35521201575843753 0 0.45521007966952032 0.37774269615386991 0 0.45724886829214351 0.35521201575843753 0 0.44817328548063989 0.36454661661699062 0 0.45521007966952032 0.37774269615386991 0 0.46334913875720651 0.36696178728704631 0 0.45521007966952032 0.37774269615386991 0 0.4664812215634086 0.38012013624496521 0 0.4744563855037533 0.35477230099091261 0 0.46334913875720651 0.36696178728704631 0 0.45724886829214351 0.35521201575843753 0 0.45928765691476681 0.33268133536300531 0 0.4744563855037533 0.35477230099091261 0 0.45724886829214351 0.35521201575843753 0 0.45928765691476681 0.33268133536300531 0 0.45724886829214351 0.35521201575843753 0 0.4424915868006794 0.33640718108372081 0 0.45724886829214351 0.35521201575843753 0 0.43575668167538212 0.35173386597627321 0 0.45724886829214351 0.35521201575843753 0 0.44817328548063989 0.36454661661699062 0 0.43575668167538212 0.35173386597627321 0 0.4478062579380831 0.37413884582092038 0 0.43873713396489178 0.36494574650753703 0 0.43192784699413489 0.37303701948332457 0 0.4478062579380831 0.37413884582092038 0 0.44817328548063989 0.36454661661699062 0 0.45521007966952032 0.37774269615386991 0 0.44817328548063989 0.36454661661699062 0 0.43873713396489178 0.36494574650753703 0 0.43575668167538212 0.35173386597627321 0 0.4478062579380831 0.37413884582092038 0 0.44817328548063989 0.36454661661699062 0 0.43873713396489178 0.36494574650753703 0 0.43873713396489178 0.36494574650753703 0 0.42696789480462932 0.36179242820621849 0 0.43575668167538212 0.35173386597627321 0 0.43873713396489178 0.36494574650753703 0 0.43192784699413489 0.37303701948332457 0 0.42696789480462932 0.36179242820621849 0 0.43192784699413489 0.37303701948332457 0 0.42696789480462932 0.36179242820621849 0 0.41822119890699833 0.37126524873438288 0 0.42696789480462932 0.36179242820621849 0 0.41822119890699833 0.37126524873438288 0 0.41344283339688043 0.35747745658086161 0 0.41822119890699833 0.37126524873438288 0 0.41344283339688043 0.35747745658086161 0 0.4043931483687826 0.36943856651623719 0 0.41822119890699833 0.37126524873438288 0 0.4043931483687826 0.36943856651623719 0 0.40808084241684078 0.3807928051824212 0 0.40725438771253392 0.35130792578067749 0 0.41547380693871688 0.34294320871839867 0 0.39819659026815363 0.35002097606450833 0 0.40725438771253392 0.35130792578067749 0 0.41444925350555961 0.35150117213534449 0 0.41547380693871688 0.34294320871839867 0 0.40725438771253392 0.35130792578067749 0 0.41344283339688043 0.35747745658086161 0 0.399339301059361 0.35754738949915021 0 0.40725438771253392 0.35130792578067749 0 0.41344283339688043 0.35747745658086161 0 0.41444925350555961 0.35150117213534449 0 0.41344283339688043 0.35747745658086161 0 0.41444925350555961 0.35150117213534449 0 0.42189818802854401 0.35364803973933401 0 0.42696789480462932 0.36179242820621849 0 0.41344283339688043 0.35747745658086161 0 0.42189818802854401 0.35364803973933401 0 0.41444925350555961 0.35150117213534449 0 0.42189818802854401 0.35364803973933401 0 0.41547380693871688 0.34294320871839867 0 0.42189818802854401 0.35364803973933401 0 0.43575668167538212 0.35173386597627321 0 0.41547380693871688 0.34294320871839867 0 0.43575668167538212 0.35173386597627321 0 0.41547380693871688 0.34294320871839867 0 0.42696789480462932 0.36179242820621849 0 0.42189818802854401 0.35364803973933401 0 0.43575668167538212 0.35173386597627321 0 0.4424915868006794 0.33640718108372081 0 0.42477105937138271 0.33647537161932428 0 0.42935326040146821 0.32199002092562512 0 0.4424915868006794 0.33640718108372081 0 0.43575668167538212 0.35173386597627321 0 0.42477105937138271 0.33647537161932428 0 0.43575668167538212 0.35173386597627321 0 0.42477105937138271 0.33647537161932428 0 0.41547380693871688 0.34294320871839867 0 0.42477105937138271 0.33647537161932428 0 0.42935326040146821 0.32199002092562512 0 0.41822920063266711 0.3269698572687354 0 0.4216156668419172 0.30627080459198558 0 0.42935326040146821 0.32199002092562512 0 0.41421080711523828 0.31696841372528689 0 0.41421080711523828 0.31696841372528689 0 0.41822920063266711 0.3269698572687354 0 0.41095098751352849 0.32402894009384359 0 0.42935326040146821 0.32199002092562512 0 0.41421080711523828 0.31696841372528689 0 0.41822920063266711 0.3269698572687354 0 0.41095098751352849 0.32402894009384359 0 0.41251014829712651 0.33191286042823598 0 0.4056048711309031 0.32669161975122007 0 0.41095098751352849 0.32402894009384359 0 0.40419991039170761 0.31760194929573932 0 0.4056048711309031 0.32669161975122007 0 0.41822920063266711 0.3269698572687354 0 0.41095098751352849 0.32402894009384359 0 0.41251014829712651 0.33191286042823598 0 0.41421080711523828 0.31696841372528689 0 0.41095098751352849 0.32402894009384359 0 0.40419991039170761 0.31760194929573932 0 0.40886081965842352 0.30844225178462542 0 0.41421080711523828 0.31696841372528689 0 0.40419991039170761 0.31760194929573932 0 0.42477105937138271 0.33647537161932428 0 0.41547380693871688 0.34294320871839867 0 0.40974323534869178 0.34045956222382368 0 0.42477105937138271 0.33647537161932428 0 0.41251014829712651 0.33191286042823598 0 0.40974323534869178 0.34045956222382368 0 0.42477105937138271 0.33647537161932428 0 0.41822920063266711 0.3269698572687354 0 0.41251014829712651 0.33191286042823598 0 0.41251014829712651 0.33191286042823598 0 0.40145627511592991 0.33046631225318812 0 0.4056048711309031 0.32669161975122007 0 0.41251014829712651 0.33191286042823598 0 0.40974323534869178 0.34045956222382368 0 0.40145627511592991 0.33046631225318812 0 0.41547380693871688 0.34294320871839867 0 0.40974323534869178 0.34045956222382368 0 0.41547380693871688 0.34294320871839867 0 0.38533089315871227 0.34193328573644149 0 0.40974323534869178 0.34045956222382368 0 0.40145627511592991 0.33046631225318812 0 0.38372978902200161 0.32918525847137431 0 0.40974323534869178 0.34045956222382368 0 0.38372978902200161 0.32918525847137431 0 0.41547380693871688 0.34294320871839867 0 0.40974323534869178 0.34045956222382368 0 0.38533089315871227 0.34193328573644149 0 0.40974323534869178 0.34045956222382368 0 0.38372978902200161 0.32918525847137431 0 0.38533089315871227 0.34193328573644149 0 0.40145627511592991 0.33046631225318812 0 0.39569333178092608 0.32408226039128668 0 0.38372978902200161 0.32918525847137431 0 0.39792806090674449 0.3071898739509758 0 0.40419991039170761 0.31760194929573932 0 0.39649907274880702 0.31550894877057661 0 0.40419991039170761 0.31760194929573932 0 0.39569333178092608 0.32408226039128668 0 0.39649907274880702 0.31550894877057661 0 0.40145627511592991 0.33046631225318812 0 0.4056048711309031 0.32669161975122007 0 0.39569333178092608 0.32408226039128668 0 0.40419991039170761 0.31760194929573932 0 0.4056048711309031 0.32669161975122007 0 0.39569333178092608 0.32408226039128668 0 0.39569333178092608 0.32408226039128668 0 0.39649907274880702 0.31550894877057661 0 0.38817498791584981 0.31316171144430482 0 0.39569333178092608 0.32408226039128668 0 0.38817498791584981 0.31316171144430482 0 0.38372978902200161 0.32918525847137431 0 0.37472895794248501 0.31550722054144797 0 0.38817498791584981 0.31316171144430482 0 0.38372978902200161 0.32918525847137431 0 0.36782465737738818 0.33023566754044598 0 0.38372978902200161 0.32918525847137431 0 0.38533089315871227 0.34193328573644149 0 0.37289207530280949 0.36561539260536879 0 0.36969699905057951 0.35149713060627391 0 0.385949038149073 0.3555738810010175 0 0.36969699905057951 0.35149713060627391 0 0.38533089315871227 0.34193328573644149 0 0.385949038149073 0.3555738810010175 0 0.38533089315871227 0.34193328573644149 0 0.385949038149073 0.3555738810010175 0 0.39819659026815363 0.35002097606450833 0 0.37066327734310889 0.3919173187360443 0 0.37289207530280949 0.36561539260536879 0 0.39023837005482281 0.36682911149436248 0 0.37289207530280949 0.36561539260536879 0 0.385949038149073 0.3555738810010175 0 0.39023837005482281 0.36682911149436248 0 0.39023837005482281 0.36682911149436248 0 0.4043931483687826 0.36943856651623719 0 0.399339301059361 0.35754738949915021 0 0.385949038149073 0.3555738810010175 0 0.39023837005482281 0.36682911149436248 0 0.399339301059361 0.35754738949915021 0 0.39023837005482281 0.36682911149436248 0 0.4043931483687826 0.36943856651623719 0 0.39544018780827611 0.38076860707975779 0 0.41344283339688043 0.35747745658086161 0 0.4043931483687826 0.36943856651623719 0 0.399339301059361 0.35754738949915021 0 0.41547380693871688 0.34294320871839867 0 0.38533089315871227 0.34193328573644149 0 0.39819659026815363 0.35002097606450833 0 0.40725438771253392 0.35130792578067749 0 0.399339301059361 0.35754738949915021 0 0.39819659026815363 0.35002097606450833 0 0.385949038149073 0.3555738810010175 0 0.399339301059361 0.35754738949915021 0 0.39819659026815363 0.35002097606450833 0 0.39991342657982842 0.39642945524070328 0 0.39544018780827611 0.38076860707975779 0 0.40808084241684078 0.3807928051824212 0 0.4043931483687826 0.36943856651623719 0 0.39544018780827611 0.38076860707975779 0 0.40808084241684078 0.3807928051824212 0 0.37066327734310889 0.3919173187360443 0 0.39023837005482281 0.36682911149436248 0 0.39544018780827611 0.38076860707975779 0 0.37066327734310889 0.3919173187360443 0 0.39991342657982842 0.39642945524070328 0 0.39544018780827611 0.38076860707975779 0 0.37066327734310889 0.3919173187360443 0 0.39991342657982842 0.39642945524070328 0 0.37795337906107629 0.42139232649848579 0 0.37066327734310889 0.3919173187360443 0 0.39991342657982842 0.39642945524070328 0 0.37795337906107629 0.42139232649848579 0 0.40287333655568969 0.4387392969579339 0 0.38688384976119988 0.45000345338151698 0 0.37795337906107629 0.42139232649848579 0 0.39856009499275269 0.4195355633387815 0 0.40287333655568969 0.4387392969579339 0 0.39856009499275269 0.4195355633387815 0 0.41601845618611838 0.41984044435164752 0 0.40287333655568969 0.4387392969579339 0 0.39991342657982842 0.39642945524070328 0 0.39856009499275269 0.4195355633387815 0 0.41601845618611838 0.41984044435164752 0 0.39991342657982842 0.39642945524070328 0 0.37795337906107629 0.42139232649848579 0 0.39856009499275269 0.4195355633387815 0 0.41601845618611838 0.41984044435164752 0 0.42870335573571228 0.43635758940424668 0 0.40287333655568969 0.4387392969579339 0 0.41601845618611838 0.41984044435164752 0 0.40287333655568969 0.4387392969579339 0 0.41601845618611838 0.41984044435164752 0 0.42870335573571228 0.43635758940424668 0 0.43686331413452839 0.41856745146380397 0 0.41601845618611838 0.41984044435164752 0 0.43686331413452839 0.41856745146380397 0 0.42916357581654802 0.40094159174536181 0 0.41601845618611838 0.41984044435164752 0 0.42916357581654802 0.40094159174536181 0 0.42916357581654802 0.40094159174536181 0 0.42243625042031868 0.38606214834102498 0 0.43848491687731511 0.38754021878314082 0 0.42916357581654802 0.40094159174536181 0 0.43848491687731511 0.38754021878314082 0 0.39991342657982842 0.39642945524070328 0 0.41601845618611838 0.41984044435164752 0 0.42916357581654802 0.40094159174536181 0 0.39991342657982842 0.39642945524070328 0 0.42916357581654802 0.40094159174536181 0 0.42243625042031868 0.38606214834102498 0 0.39991342657982842 0.39642945524070328 0 0.42916357581654802 0.40094159174536181 0 0.39991342657982842 0.39642945524070328 0 0.40808084241684078 0.3807928051824212 0 0.42243625042031868 0.38606214834102498 0 0.41822119890699833 0.37126524873438288 0 0.40808084241684078 0.3807928051824212 0 0.42243625042031868 0.38606214834102498 0 0.43192784699413489 0.37303701948332457 0 0.42243625042031868 0.38606214834102498 0 0.43848491687731511 0.38754021878314082 0 0.43192784699413489 0.37303701948332457 0 0.41822119890699833 0.37126524873438288 0 0.42243625042031868 0.38606214834102498 0 0.44892353895489839 0.38675088130945029 0 0.45317129104689707 0.40027337654930228 0 0.45521007966952032 0.37774269615386991 0 0.4478062579380831 0.37413884582092038 0 0.43848491687731511 0.38754021878314082 0 0.44882786822586151 0.38144723375148859 0 0.5 0.38218688082651342 0 0.49405465749444499 0.41095170882531501 0 0.5 0.5 0 0.4478062579380831 0.37413884582092038 0 0.43192784699413489 0.37303701948332457 0 0.43848491687731511 0.38754021878314082 0 0.4478062579380831 0.37413884582092038 0 0.43848491687731511 0.38754021878314082 0 0.43848491687731511 0.38754021878314082 0 0.44892353895489839 0.38675088130945029 0 0.44882786822586151 0.38144723375148859 0 0.44892353895489839 0.38675088130945029 0 0.44882786822586151 0.38144723375148859 0 0.45521007966952032 0.37774269615386991 0 0.4478062579380831 0.37413884582092038 0 0.44882786822586151 0.38144723375148859 0 0.45521007966952032 0.37774269615386991 0 0.42916357581654802 0.40094159174536181 0 0.43848491687731511 0.38754021878314082 0 0.45317129104689707 0.40027337654930228 0 0.42916357581654802 0.40094159174536181 0 0.45850605762306262 0.40546797149901742 0 0.42916357581654802 0.40094159174536181 0 0.45317129104689707 0.40027337654930228 0 0.45850605762306262 0.40546797149901742 0 0.43848491687731511 0.38754021878314082 0 0.44892353895489839 0.38675088130945029 0 0.45317129104689707 0.40027337654930228 0 0.45850605762306262 0.40546797149901742 0 0.4664812215634086 0.38012013624496521 0 0.47628035755875392 0.4082098401621661 0 0.45850605762306262 0.40546797149901742 0 0.45834216247572213 0.39090104511178858 0 0.4664812215634086 0.38012013624496521 0 0.45850605762306262 0.40546797149901742 0 0.4664812215634086 0.38012013624496521 0 0.45317129104689707 0.40027337654930228 0 0.45850605762306262 0.40546797149901742 0 0.45834216247572213 0.39090104511178858 0 0.45317129104689707 0.40027337654930228 0 0.45521007966952032 0.37774269615386991 0 0.45317129104689707 0.40027337654930228 0 0.45834216247572213 0.39090104511178858 0 0.45521007966952032 0.37774269615386991 0 0.45834216247572213 0.39090104511178858 0 0.45521007966952032 0.37774269615386991 0 0.4664812215634086 0.38012013624496521 0 0.4664812215634086 0.38012013624496521 0 0.5 0.38218688082651342 0 0.47628035755875392 0.4082098401621661 0 0.5 0.38218688082651342 0 0.49405465749444499 0.41095170882531501 0 0.47628035755875392 0.4082098401621661 0 0.49405465749444499 0.41095170882531501 0 0.47963362803360238 0.42176580783950651 0 0.47982216293327368 0.44181379244336949 0 0.49405465749444499 0.41095170882531501 0 0.47628035755875392 0.4082098401621661 0 0.49405465749444499 0.41095170882531501 0 0.47963362803360238 0.42176580783950651 0 0.47628035755875392 0.4082098401621661 0 0.47963362803360238 0.42176580783950651 0 0.47628035755875392 0.4082098401621661 0 0.46837733414793697 0.42608788992717539 0 0.47963362803360238 0.42176580783950651 0 0.46837733414793697 0.42608788992717539 0 0.47982216293327368 0.44181379244336949 0 0.46837733414793697 0.42608788992717539 0 0.45066171642882358 0.43040000672180517 0 0.46081559970033958 0.4452160280060331 0 0.45850605762306262 0.40546797149901742 0 0.47628035755875392 0.4082098401621661 0 0.46837733414793697 0.42608788992717539 0 0.45850605762306262 0.40546797149901742 0 0.46837733414793697 0.42608788992717539 0 0.45066171642882358 0.43040000672180517 0 0.45850605762306262 0.40546797149901742 0 0.47628035755875392 0.4082098401621661 0 0.45850605762306262 0.40546797149901742 0 0.45066171642882358 0.43040000672180517 0 0.43686331413452839 0.41856745146380397 0 0.45850605762306262 0.40546797149901742 0 0.45066171642882358 0.43040000672180517 0 0.43686331413452839 0.41856745146380397 0 0.42916357581654802 0.40094159174536181 0 0.45850605762306262 0.40546797149901742 0 0.42870335573571228 0.43635758940424668 0 0.43686331413452839 0.41856745146380397 0 0.45066171642882358 0.43040000672180517 0 0.42870335573571228 0.43635758940424668 0 0.45066171642882358 0.43040000672180517 0 0.44281737523458342 0.45533204194459248 0 0.45066171642882358 0.43040000672180517 0 0.44281737523458342 0.45533204194459248 0 0.46081559970033958 0.4452160280060331 0 0.45066171642882358 0.43040000672180517 0 0.44281737523458342 0.45533204194459248 0 0.49405465749444499 0.41095170882531501 0 0.47982216293327368 0.44181379244336949 0 0.5 0.5 0 0.44281737523458342 0.45533204194459248 0 0.4349730340403431 0.48026407716738018 0 0.46081559970033958 0.4452160280060331 0 0.47982216293327368 0.44181379244336949 0 0.46239940975707972 0.47244640899322249 0 0.44281737523458342 0.45533204194459248 0 0.46081559970033958 0.4452160280060331 0 0.46239940975707972 0.47244640899322249 0 0.46837733414793697 0.42608788992717539 0 0.46081559970033958 0.4452160280060331 0 0.47982216293327368 0.44181379244336949 0 0.5 0.5 0 0.46239940975707972 0.47244640899322249 0 0.44522048074552789 0.5 0 0.47982216293327368 0.44181379244336949 0 0.5 0.5 0 0.46239940975707972 0.47244640899322249 0 0.46239940975707972 0.47244640899322249 0 0.44522048074552789 0.5 0 0.4349730340403431 0.48026407716738018 0 0.44281737523458342 0.45533204194459248 0 0.46239940975707972 0.47244640899322249 0 0.4349730340403431 0.48026407716738018 0 0.44522048074552789 0.5 0 0.4349730340403431 0.48026407716738018 0 0.40448891233450313 0.5 0 0.41316008993094377 0.47736170601598238 0 0.4349730340403431 0.48026407716738018 0 0.40448891233450313 0.5 0 0.41316008993094377 0.47736170601598238 0 0.4349730340403431 0.48026407716738018 0 0.41995375455682521 0.45567512635303659 0 0.44281737523458342 0.45533204194459248 0 0.4349730340403431 0.48026407716738018 0 0.41995375455682521 0.45567512635303659 0 0.42870335573571228 0.43635758940424668 0 0.44281737523458342 0.45533204194459248 0 0.41995375455682521 0.45567512635303659 0 0.42870335573571228 0.43635758940424668 0 0.41995375455682521 0.45567512635303659 0 0.40287333655568969 0.4387392969579339 0 0.41995375455682521 0.45567512635303659 0 0.40289592266469559 0.45801870747629952 0 0.40287333655568969 0.4387392969579339 0 0.41316008993094377 0.47736170601598238 0 0.41995375455682521 0.45567512635303659 0 0.40289592266469559 0.45801870747629952 0 0.41316008993094377 0.47736170601598238 0 0.40289592266469559 0.45801870747629952 0 0.39088285015885887 0.46994019336060339 0 0.40289592266469559 0.45801870747629952 0 0.38688384976119988 0.45000345338151698 0 0.39088285015885887 0.46994019336060339 0 0.40289592266469559 0.45801870747629952 0 0.40287333655568969 0.4387392969579339 0 0.38688384976119988 0.45000345338151698 0 0.3705945277430176 0.44134522703541063 0 0.37795337906107629 0.42139232649848579 0 0.38688384976119988 0.45000345338151698 0 0.36860561038677397 0.46251868070522451 0 0.3705945277430176 0.44134522703541063 0 0.38688384976119988 0.45000345338151698 0 0.36860561038677397 0.46251868070522451 0 0.39088285015885887 0.46994019336060339 0 0.36860561038677397 0.46251868070522451 0 0.38688384976119988 0.45000345338151698 0 0.39088285015885887 0.46994019336060339 0 0.36860561038677397 0.46251868070522451 0 0.37572687517328129 0.48034458252852968 0 0.39088285015885887 0.46994019336060339 0 0.37572687517328129 0.48034458252852968 0 0.39169223431308581 0.48552929638102382 0 0.39088285015885887 0.46994019336060339 0 0.37420244396784258 0.500000000000002 0 0.40448891233450313 0.5 0 0.39169223431308581 0.48552929638102382 0 0.37420244396784258 0.500000000000002 0 0.37572687517328129 0.48034458252852968 0 0.39169223431308581 0.48552929638102382 0 0.41316008993094377 0.47736170601598238 0 0.40448891233450313 0.5 0 0.39169223431308581 0.48552929638102382 0 0.41316008993094377 0.47736170601598238 0 0.39088285015885887 0.46994019336060339 0 0.41316008993094377 0.47736170601598238 0 0.39169223431308581 0.48552929638102382 0 0.39088285015885887 0.46994019336060339 0 0.34293781640415338 0.087292218529047089 0 0.32116753328673259 0.091981683751102827 0 0.33366928850209171 0.10172474599342381 0 0.34293781640415338 0.087292218529047089 0 0.33003433635438628 0.073719362038793548 0 0.31617120364569801 0.075711138780457224 0 0.34293781640415338 0.087292218529047089 0 0.31617120364569801 0.075711138780457224 0 0.33003433635438628 0.073719362038793548 0 0.35358732366028939 0.068665658686024728 0 0.33003433635438628 0.073719362038793548 0 0.35358732366028939 0.068665658686024728 0 0.33729680427899089 0.059636240372677563 0 0.34293781640415338 0.087292218529047089 0 0.33003433635438628 0.073719362038793548 0 0.35358732366028939 0.068665658686024728 0 0.33003433635438628 0.073719362038793548 0 0.33729680427899089 0.059636240372677563 0 0.3240617327592436 0.060092650422404449 0 0.31617120364569801 0.075711138780457224 0 0.3240617327592436 0.060092650422404449 0 0.30772393368124712 0.057332118614841478 0 0.33003433635438628 0.073719362038793548 0 0.31617120364569801 0.075711138780457224 0 0.3240617327592436 0.060092650422404449 0 0.31617120364569801 0.075711138780457224 0 0.32116753328673259 0.091981683751102827 0 0.31035678071649098 0.08568617399181544 0 0.34293781640415338 0.087292218529047089 0 0.31617120364569801 0.075711138780457224 0 0.32116753328673259 0.091981683751102827 0 0.32116753328673259 0.091981683751102827 0 0.31035678071649098 0.08568617399181544 0 0.3075496865138202 0.096467053973533903 0 0.31676081294145758 0.1060561683469823 0 0.32831003131186559 0.1141704830316722 0 0.33366928850209171 0.10172474599342381 0 0.32116753328673259 0.091981683751102827 0 0.31676081294145758 0.1060561683469823 0 0.33366928850209171 0.10172474599342381 0 0.32116753328673259 0.091981683751102827 0 0.31676081294145758 0.1060561683469823 0 0.3075496865138202 0.096467053973533903 0 0.32831003131186559 0.1141704830316722 0 0.3122880780541169 0.1180758610802294 0 0.3245146634885665 0.12706791928245009 0 0.31676081294145758 0.1060561683469823 0 0.32831003131186559 0.1141704830316722 0 0.3122880780541169 0.1180758610802294 0 0.32831003131186559 0.1141704830316722 0 0.34669391551977508 0.1112449469745317 0 0.33805724807416199 0.1297431271969651 0 0.32831003131186559 0.1141704830316722 0 0.33805724807416199 0.1297431271969651 0 0.3245146634885665 0.12706791928245009 0 0.32831003131186559 0.1141704830316722 0 0.33366928850209171 0.10172474599342381 0 0.34669391551977508 0.1112449469745317 0 0.33366928850209171 0.10172474599342381 0 0.34547685842903042 0.099198013104333363 0 0.34669391551977508 0.1112449469745317 0 0.34293781640415338 0.087292218529047089 0 0.33366928850209171 0.10172474599342381 0 0.34547685842903042 0.099198013104333363 0 0.35860641329010162 0.096530140920330854 0 0.34669391551977508 0.1112449469745317 0 0.36352822570966498 0.1199074593567073 0 0.34293781640415338 0.087292218529047089 0 0.35860641329010162 0.096530140920330854 0 0.36970442916260859 0.098873298277636884 0 0.34293781640415338 0.087292218529047089 0 0.34547685842903042 0.099198013104333363 0 0.35860641329010162 0.096530140920330854 0 0.34547685842903042 0.099198013104333363 0 0.35860641329010162 0.096530140920330854 0 0.34669391551977508 0.1112449469745317 0 0.34669391551977508 0.1112449469745317 0 0.33805724807416199 0.1297431271969651 0 0.35390678597640041 0.13312310803449121 0 0.34669391551977508 0.1112449469745317 0 0.36352822570966498 0.1199074593567073 0 0.35390678597640041 0.13312310803449121 0 0.36352822570966498 0.1199074593567073 0 0.36970442916260859 0.098873298277636884 0 0.37807516818821962 0.1143336682491599 0 0.36352822570966498 0.1199074593567073 0 0.38259697595954079 0.1280995373360688 0 0.37807516818821962 0.1143336682491599 0 0.35860641329010162 0.096530140920330854 0 0.36352822570966498 0.1199074593567073 0 0.35860641329010162 0.096530140920330854 0 0.36352822570966498 0.1199074593567073 0 0.36970442916260859 0.098873298277636884 0 0.36970442916260859 0.098873298277636884 0 0.36137097124462358 0.083164443900838825 0 0.37577154926106882 0.084268762090540045 0 0.34293781640415338 0.087292218529047089 0 0.36137097124462358 0.083164443900838825 0 0.35358732366028939 0.068665658686024728 0 0.34293781640415338 0.087292218529047089 0 0.36970442916260859 0.098873298277636884 0 0.36137097124462358 0.083164443900838825 0 0.34293781640415338 0.087292218529047089 0 0.36970442916260859 0.098873298277636884 0 0.36137097124462358 0.083164443900838825 0 0.37714031096619238 0.063611955333255907 0 0.37577154926106882 0.084268762090540045 0 0.36137097124462358 0.083164443900838825 0 0.35358732366028939 0.068665658686024728 0 0.37714031096619238 0.063611955333255907 0 0.35358732366028939 0.068665658686024728 0 0.37714031096619238 0.063611955333255907 0 0.35358732366028939 0.068665658686024728 0 0.36477455860353691 0.044596483390004972 0 0.37714031096619238 0.063611955333255907 0 0.36477455860353691 0.044596483390004972 0 0.37497075983577061 0.018948531908704831 0 0.34684354477029788 0.030465290920241431 0 0.36477455860353691 0.044596483390004972 0 0.3469599518863431 0.049974705610143937 0 0.34684354477029788 0.030465290920241431 0 0.35358732366028939 0.068665658686024728 0 0.36477455860353691 0.044596483390004972 0 0.3469599518863431 0.049974705610143937 0 0.35358732366028939 0.068665658686024728 0 0.3469599518863431 0.049974705610143937 0 0.33729680427899089 0.059636240372677563 0 0.37497075983577061 0.018948531908704831 0 0.35915158492916199 0.0079260634808653013 0 0.37898781164764822 -0.01117852005808853 0 0.37497075983577061 0.018948531908704831 0 0.34684354477029788 0.030465290920241431 0 0.35915158492916199 0.0079260634808653013 0 0.34684354477029788 0.030465290920241431 0 0.35915158492916199 0.0079260634808653013 0 0.33938907275826552 0.01063358945049037 0 0.35915158492916199 0.0079260634808653013 0 0.33938907275826552 0.01063358945049037 0 0.35556673563382762 -0.0092385748170215991 0 0.33938907275826552 0.01063358945049037 0 0.32125639535210132 0.011525324495911839 0 0.33214565962000692 -0.0072986295759546668 0 0.34684354477029788 0.030465290920241431 0 0.33938907275826552 0.01063358945049037 0 0.32094170856369569 0.029577279443373058 0 0.34684354477029788 0.030465290920241431 0 0.32094170856369569 0.029577279443373058 0 0.32094170856369569 0.029577279443373058 0 0.32125639535210132 0.011525324495911839 0 0.31050366710434679 0.020516156039299929 0 0.33938907275826552 0.01063358945049037 0 0.32094170856369569 0.029577279443373058 0 0.32125639535210132 0.011525324495911839 0 0.32125639535210132 0.011525324495911839 0 0.31483687449220549 0.002832224057131111 0 0.33214565962000692 -0.0072986295759546668 0 0.32125639535210132 0.011525324495911839 0 0.30969621282895171 0.01160010063091353 0 0.31050366710434679 0.020516156039299929 0 0.32125639535210132 0.011525324495911839 0 0.31483687449220549 0.002832224057131111 0 0.30969621282895171 0.01160010063091353 0 0.33729680427899089 0.059636240372677563 0 0.33229752811860069 0.046509854681771018 0 0.3240617327592436 0.060092650422404449 0 0.3469599518863431 0.049974705610143937 0 0.33729680427899089 0.059636240372677563 0 0.33229752811860069 0.046509854681771018 0 0.3469599518863431 0.049974705610143937 0 0.34684354477029788 0.030465290920241431 0 0.33229752811860069 0.046509854681771018 0 0.34684354477029788 0.030465290920241431 0 0.32094170856369569 0.029577279443373058 0 0.33229752811860069 0.046509854681771018 0 0.32094170856369569 0.029577279443373058 0 0.33229752811860069 0.046509854681771018 0 0.3178811683511979 0.047218804517551012 0 0.32094170856369569 0.029577279443373058 0 0.3178811683511979 0.047218804517551012 0 0.30438093863320231 0.042582119425365023 0 0.3178811683511979 0.047218804517551012 0 0.3240617327592436 0.060092650422404449 0 0.30772393368124712 0.057332118614841478 0 0.33229752811860069 0.046509854681771018 0 0.3178811683511979 0.047218804517551012 0 0.3240617327592436 0.060092650422404449 0 0.30772393368124712 0.057332118614841478 0 0.29779098592544562 0.052779850837777358 0 0.28940459088724302 0.064130059031866693 0 0.30772393368124712 0.057332118614841478 0 0.29779098592544562 0.052779850837777358 0 0.30438093863320231 0.042582119425365023 0 0.29779098592544562 0.052779850837777358 0 0.30438093863320231 0.042582119425365023 0 0.28965448050009052 0.047075106279035522 0 0.3178811683511979 0.047218804517551012 0 0.30772393368124712 0.057332118614841478 0 0.30438093863320231 0.042582119425365023 0 0.32094170856369569 0.029577279443373058 0 0.30438093863320231 0.042582119425365023 0 0.29503987235709361 0.028689267966503989 0 0.28965448050009052 0.047075106279035522 0 0.29503987235709361 0.028689267966503989 0 0.28992643889377823 0.028513960410491781 0 0.28965448050009052 0.047075106279035522 0 0.29503987235709361 0.028689267966503989 0 0.28188835542846957 0.040158609786560467 0 0.28965448050009052 0.047075106279035522 0 0.28992643889377823 0.028513960410491781 0 0.28965448050009052 0.047075106279035522 0 0.28992643889377823 0.028513960410491781 0 0.30438093863320231 0.042582119425365023 0 0.28965448050009052 0.047075106279035522 0 0.29503987235709361 0.028689267966503989 0 0.28188835542846957 0.040158609786560467 0 0.28992643889377823 0.028513960410491781 0 0.28168211408134192 0.02823131423073668 0 0.28188835542846957 0.040158609786560467 0 0.28965448050009052 0.047075106279035522 0 0.27841913892968401 0.050754215378281051 0 0.28965448050009052 0.047075106279035522 0 0.28940459088724302 0.064130059031866693 0 0.28519270297659249 0.062307706303653891 0 0.28965448050009052 0.047075106279035522 0 0.28940459088724302 0.064130059031866693 0 0.29779098592544562 0.052779850837777358 0 0.28965448050009052 0.047075106279035522 0 0.28940459088724302 0.064130059031866693 0 0.28519270297659249 0.062307706303653891 0 0.28965448050009052 0.047075106279035522 0 0.27841913892968401 0.050754215378281051 0 0.28519270297659249 0.062307706303653891 0 0.28965448050009052 0.047075106279035522 0 0.30236152105378 0.0036930090696695372 0 0.29012509451929769 0.0149557245607731 0 0.30272876338121668 -0.0048620563018758464 0 0.31483687449220549 0.002832224057131111 0 0.30236152105378 0.0036930090696695372 0 0.30872458360618632 -0.0053586843348857188 0 0.31483687449220549 0.002832224057131111 0 0.30236152105378 0.0036930090696695372 0 0.30969621282895171 0.01160010063091353 0 0.30236152105378 0.0036930090696695372 0 0.2925997977392446 0.017579423954881521 0 0.30236152105378 0.0036930090696695372 0 0.29824403811713329 0.017750180309561811 0 0.30236152105378 0.0036930090696695372 0 0.30969621282895171 0.01160010063091353 0 0.30187936995323322 0.017860160744624869 0 0.30236152105378 0.0036930090696695372 0 0.29824403811713329 0.017750180309561811 0 0.30187936995323322 0.017860160744624869 0 0.30236152105378 0.0036930090696695372 0 0.29824403811713329 0.017750180309561811 0 0.2925997977392446 0.017579423954881521 0 0.32094170856369569 0.029577279443373058 0 0.29503987235709361 0.028689267966503989 0 0.32094170856369569 0.029577279443373058 0 0.31050366710434679 0.020516156039299929 0 0.29503987235709361 0.028689267966503989 0 0.29824403811713329 0.017750180309561811 0 0.30187936995323322 0.017860160744624869 0 0.29503987235709361 0.028689267966503989 0 0.30187936995323322 0.017860160744624869 0 0.31050366710434679 0.020516156039299929 0 0.29503987235709361 0.028689267966503989 0 0.29824403811713329 0.017750180309561811 0 0.30187936995323322 0.017860160744624869 0 0.30969621282895171 0.01160010063091353 0 0.30187936995323322 0.017860160744624869 0 0.31050366710434679 0.020516156039299929 0 0.29503987235709361 0.028689267966503989 0 0.29223275696489248 0.024919279279063868 0 0.2937776647541257 0.021646597735866531 0 0.28992643889377823 0.028513960410491781 0 0.29003315534465379 0.021230568328148292 0 0.29223275696489248 0.024919279279063868 0 0.28992643889377823 0.028513960410491781 0 0.29003315534465379 0.021230568328148292 0 0.29503987235709361 0.028689267966503989 0 0.28992643889377823 0.028513960410491781 0 0.29503987235709361 0.028689267966503989 0 0.29223275696489248 0.024919279279063868 0 0.28992643889377823 0.028513960410491781 0 0.28550138132365549 0.027677185610149559 0 0.28168211408134192 0.02823131423073668 0 0.2885346940107002 0.017456441543148109 0 0.28992643889377823 0.028513960410491781 0 0.28550138132365549 0.027677185610149559 0 0.28168211408134192 0.02823131423073668 0 0.28992643889377823 0.028513960410491781 0 0.28168211408134192 0.02823131423073668 0 0.28992643889377823 0.028513960410491781 0 0.28550138132365549 0.027677185610149559 0 0.29003315534465379 0.021230568328148292 0 0.28550138132365549 0.027677185610149559 0 0.29003315534465379 0.021230568328148292 0 0.28168211408134192 0.02823131423073668 0 0.2885346940107002 0.017456441543148109 0 0.2740341663592768 0.022489972256945889 0 0.28550138132365549 0.027677185610149559 0 0.2885346940107002 0.017456441543148109 0 0.29003315534465379 0.021230568328148292 0 0.28168211408134192 0.02823131423073668 0 0.2885346940107002 0.017456441543148109 0 0.2885346940107002 0.017456441543148109 0 0.29012509451929769 0.0149557245607731 0 0.29824403811713329 0.017750180309561811 0 0.29503987235709361 0.028689267966503989 0 0.29008776551766308 0.017503426932028578 0 0.29012509451929769 0.0149557245607731 0 0.29824403811713329 0.017750180309561811 0 0.29503987235709361 0.028689267966503989 0 0.2937776647541257 0.021646597735866531 0 0.2885346940107002 0.017456441543148109 0 0.29008776551766308 0.017503426932028578 0 0.29012509451929769 0.0149557245607731 0 0.29008776551766308 0.017503426932028578 0 0.2925997977392446 0.017579423954881521 0 0.29012509451929769 0.0149557245607731 0 0.2885346940107002 0.017456441543148109 0 0.29008776551766308 0.017503426932028578 0 0.29008776551766308 0.017503426932028578 0 0.2925997977392446 0.017579423954881521 0 0.2925997977392446 0.017579423954881521 0 0.29003315534465379 0.021230568328148292 0 0.29008776551766308 0.017503426932028578 0 0.29003315534465379 0.021230568328148292 0 0.2885346940107002 0.017456441543148109 0 0.29008776551766308 0.017503426932028578 0 0.29003315534465379 0.021230568328148292 0 0.29008776551766308 0.017503426932028578 0 0.2925997977392446 0.017579423954881521 0 0.29003315534465379 0.021230568328148292 0 0.2925997977392446 0.017579423954881521 0 0.29003315534465379 0.021230568328148292 0 0.2937776647541257 0.021646597735866531 0 0.29223275696489248 0.024919279279063868 0 0.29003315534465379 0.021230568328148292 0 0.2937776647541257 0.021646597735866531 0 0.29824403811713329 0.017750180309561811 0 0.2925997977392446 0.017579423954881521 0 0.2937776647541257 0.021646597735866531 0 0.29824403811713329 0.017750180309561811 0 0.2925997977392446 0.017579423954881521 0 0.29012509451929769 0.0149557245607731 0 0.29725171961803792 -0.0044083980251518858 0 0.30272876338121668 -0.0048620563018758464 0 0.29012509451929769 0.0149557245607731 0 0.27598913265549041 0.002700792776901364 0 0.2905643360198632 -0.0150224844328585 0 0.29012509451929769 0.0149557245607731 0 0.30272876338121668 -0.0048620563018758464 0 0.30236152105378 0.0036930090696695372 0 0.2925997977392446 0.017579423954881521 0 0.29012509451929769 0.0149557245607731 0 0.2885346940107002 0.017456441543148109 0 0.29012509451929769 0.0149557245607731 0 0.27598913265549041 0.002700792776901364 0 0.2885346940107002 0.017456441543148109 0 0.27598913265549041 0.002700792776901364 0 0.26296926762040529 0.01668300548729458 0 0.2885346940107002 0.017456441543148109 0 0.2740341663592768 0.022489972256945889 0 0.26296926762040529 0.01668300548729458 0 0.28168211408134192 0.02823131423073668 0 0.26295058972466029 0.02758912776660603 0 0.28168211408134192 0.02823131423073668 0 0.2740341663592768 0.022489972256945889 0 0.26295058972466029 0.02758912776660603 0 0.28168211408134192 0.02823131423073668 0 0.26295058972466029 0.02758912776660603 0 0.26944609677483022 0.035058538759194693 0 0.2885346940107002 0.017456441543148109 0 0.26296926762040529 0.01668300548729458 0 0.2740341663592768 0.022489972256945889 0 0.26295058972466029 0.02758912776660603 0 0.26296926762040529 0.01668300548729458 0 0.23740384123011041 0.015909569431439341 0 0.26295058972466029 0.02758912776660603 0 0.26296926762040529 0.01668300548729458 0 0.23740384123011041 0.015909569431439341 0 0.26296926762040529 0.01668300548729458 0 0.24360219425436941 0.0024857581900680202 0 0.26296926762040529 0.01668300548729458 0 0.25588371482308608 -0.0061647016811608134 0 0.27598913265549041 0.002700792776901364 0 0.26296926762040529 0.01668300548729458 0 0.25588371482308608 -0.0061647016811608134 0 0.28519270297659249 0.062307706303653891 0 0.27841913892968401 0.050754215378281051 0 0.25864351714315309 0.050820700414198471 0 0.27841913892968401 0.050754215378281051 0 0.27074895923799669 0.045422409077532401 0 0.25864351714315309 0.050820700414198471 0 0.28036694649713179 0.062174997887912517 0 0.25864351714315309 0.050820700414198471 0 0.26185905163455958 0.066340364090568843 0 0.28519270297659249 0.062307706303653891 0 0.25864351714315309 0.050820700414198471 0 0.28519270297659249 0.062307706303653891 0 0.28036694649713179 0.062174997887912517 0 0.25864351714315309 0.050820700414198471 0 0.28188835542846957 0.040158609786560467 0 0.27841913892968401 0.050754215378281051 0 0.27074895923799669 0.045422409077532401 0 0.28168211408134192 0.02823131423073668 0 0.26944609677483022 0.035058538759194693 0 0.27074895923799669 0.045422409077532401 0 0.28188835542846957 0.040158609786560467 0 0.28168211408134192 0.02823131423073668 0 0.27074895923799669 0.045422409077532401 0 0.28168211408134192 0.02823131423073668 0 0.27074895923799669 0.045422409077532401 0 0.26944609677483022 0.035058538759194693 0 0.27074895923799669 0.045422409077532401 0 0.26240272405532178 0.038991303961905088 0 0.27074895923799669 0.045422409077532401 0 0.26240272405532178 0.038991303961905088 0 0.25864351714315309 0.050820700414198471 0 0.24941127910515279 0.036109464950164052 0 0.26295058972466029 0.02758912776660603 0 0.26240272405532178 0.038991303961905088 0 0.26295058972466029 0.02758912776660603 0 0.26944609677483022 0.035058538759194693 0 0.26240272405532178 0.038991303961905088 0 0.24941127910515279 0.036109464950164052 0 0.26240272405532178 0.038991303961905088 0 0.25864351714315309 0.050820700414198471 0 0.24666024164512479 0.069066845306638189 0 0.25864351714315309 0.050820700414198471 0 0.26185905163455958 0.066340364090568843 0 0.24666024164512479 0.069066845306638189 0 0.26185905163455958 0.066340364090568843 0 0.2625581105604271 0.083504717760294028 0 0.2447492746237224 0.1048344376326756 0 0.24538200687215811 0.087263294126548194 0 0.2625581105604271 0.083504717760294028 0 0.24538200687215811 0.087263294126548194 0 0.24666024164512479 0.069066845306638189 0 0.2625581105604271 0.083504717760294028 0 0.2625581105604271 0.083504717760294028 0 0.27356512968973917 0.087284715508075011 0 0.26155298514579067 0.09618130092776081 0 0.2625581105604271 0.083504717760294028 0 0.27356512968973917 0.087284715508075011 0 0.27656712766196201 0.077508732349291204 0 0.27356512968973917 0.087284715508075011 0 0.27656712766196201 0.077508732349291204 0 0.28364580317887328 0.081112696372306253 0 0.27356512968973917 0.087284715508075011 0 0.28364580317887328 0.081112696372306253 0 0.28375414840417468 0.092804687267302455 0 0.28036694649713179 0.062174997887912517 0 0.2625581105604271 0.083504717760294028 0 0.28036694649713179 0.062174997887912517 0 0.26185905163455958 0.066340364090568843 0 0.2625581105604271 0.083504717760294028 0 0.28036694649713179 0.062174997887912517 0 0.2625581105604271 0.083504717760294028 0 0.27656712766196201 0.077508732349291204 0 0.27656712766196201 0.077508732349291204 0 0.28244197628467449 0.071698743677068827 0 0.28364580317887328 0.081112696372306253 0 0.28036694649713179 0.062174997887912517 0 0.27656712766196201 0.077508732349291204 0 0.28244197628467449 0.071698743677068827 0 0.28519270297659249 0.062307706303653891 0 0.28940459088724302 0.064130059031866693 0 0.28244197628467449 0.071698743677068827 0 0.28519270297659249 0.062307706303653891 0 0.28036694649713179 0.062174997887912517 0 0.28244197628467449 0.071698743677068827 0 0.28519270297659249 0.062307706303653891 0 0.28244197628467449 0.071698743677068827 0 0.28940459088724302 0.064130059031866693 0 0.28928034837223637 0.072609604056719859 0 0.28244197628467449 0.071698743677068827 0 0.28519270297659249 0.062307706303653891 0 0.28940459088724302 0.064130059031866693 0 0.28940459088724302 0.064130059031866693 0 0.294289427755073 0.073851687171478816 0 0.28928034837223637 0.072609604056719859 0 0.28940459088724302 0.064130059031866693 0 0.28928034837223637 0.072609604056719859 0 0.294289427755073 0.073851687171478816 0 0.28928034837223637 0.072609604056719859 0 0.29380699855640008 0.082105911870406625 0 0.28940459088724302 0.064130059031866693 0 0.294289427755073 0.073851687171478816 0 0.30466577320441279 0.07656117372692138 0 0.28928034837223637 0.072609604056719859 0 0.28244197628467449 0.071698743677068827 0 0.28364580317887328 0.081112696372306253 0 0.28364580317887328 0.081112696372306253 0 0.28375414840417468 0.092804687267302455 0 0.29380699855640008 0.082105911870406625 0 0.28928034837223637 0.072609604056719859 0 0.28364580317887328 0.081112696372306253 0 0.29380699855640008 0.082105911870406625 0 0.28375414840417468 0.092804687267302455 0 0.29380699855640008 0.082105911870406625 0 0.29553168733579421 0.096019518232800152 0 0.29380699855640008 0.082105911870406625 0 0.30222970693179119 0.087709819727061863 0 0.30466577320441279 0.07656117372692138 0 0.29380699855640008 0.082105911870406625 0 0.30222970693179119 0.087709819727061863 0 0.29553168733579421 0.096019518232800152 0 0.30222970693179119 0.087709819727061863 0 0.3075496865138202 0.096467053973533903 0 0.29553168733579421 0.096019518232800152 0 0.30222970693179119 0.087709819727061863 0 0.31035678071649098 0.08568617399181544 0 0.3075496865138202 0.096467053973533903 0 0.31617120364569801 0.075711138780457224 0 0.31035678071649098 0.08568617399181544 0 0.30466577320441279 0.07656117372692138 0 0.30222970693179119 0.087709819727061863 0 0.31035678071649098 0.08568617399181544 0 0.30466577320441279 0.07656117372692138 0 0.31617120364569801 0.075711138780457224 0 0.28940459088724302 0.064130059031866693 0 0.30466577320441279 0.07656117372692138 0 0.31617120364569801 0.075711138780457224 0 0.28940459088724302 0.064130059031866693 0 0.31617120364569801 0.075711138780457224 0 0.30772393368124712 0.057332118614841478 0 0.28940459088724302 0.064130059031866693 0 0.294289427755073 0.073851687171478816 0 0.29380699855640008 0.082105911870406625 0 0.30466577320441279 0.07656117372692138 0 0.3122880780541169 0.1180758610802294 0 0.30019286658774019 0.11038029811046619 0 0.29927381675924403 0.13002852083960131 0 0.31676081294145758 0.1060561683469823 0 0.3122880780541169 0.1180758610802294 0 0.30019286658774019 0.11038029811046619 0 0.31676081294145758 0.1060561683469823 0 0.30019286658774019 0.11038029811046619 0 0.3075496865138202 0.096467053973533903 0 0.30019286658774019 0.11038029811046619 0 0.3075496865138202 0.096467053973533903 0 0.29553168733579421 0.096019518232800152 0 0.30019286658774019 0.11038029811046619 0 0.29553168733579421 0.096019518232800152 0 0.2856567170208385 0.1066493384480298 0 0.28375414840417468 0.092804687267302455 0 0.29553168733579421 0.096019518232800152 0 0.2856567170208385 0.1066493384480298 0 0.30019286658774019 0.11038029811046619 0 0.28826264884904967 0.1185553539241159 0 0.29927381675924403 0.13002852083960131 0 0.2856567170208385 0.1066493384480298 0 0.28826264884904967 0.1185553539241159 0 0.27642073026315828 0.1160961700510811 0 0.30019286658774019 0.11038029811046619 0 0.2856567170208385 0.1066493384480298 0 0.28826264884904967 0.1185553539241159 0 0.28826264884904967 0.1185553539241159 0 0.27642073026315828 0.1160961700510811 0 0.28005226282775009 0.12935703738488491 0 0.27642073026315828 0.1160961700510811 0 0.26914316120917509 0.1255612116215174 0 0.28005226282775009 0.12935703738488491 0 0.27642073026315828 0.1160961700510811 0 0.27128922077482098 0.101996164583392 0 0.26380914817732831 0.1133778628946655 0 0.27642073026315828 0.1160961700510811 0 0.26380914817732831 0.1133778628946655 0 0.26914316120917509 0.1255612116215174 0 0.27356512968973917 0.087284715508075011 0 0.28375414840417468 0.092804687267302455 0 0.27128922077482098 0.101996164583392 0 0.28375414840417468 0.092804687267302455 0 0.2856567170208385 0.1066493384480298 0 0.27128922077482098 0.101996164583392 0 0.2856567170208385 0.1066493384480298 0 0.27642073026315828 0.1160961700510811 0 0.27128922077482098 0.101996164583392 0 0.27356512968973917 0.087284715508075011 0 0.27128922077482098 0.101996164583392 0 0.26155298514579067 0.09618130092776081 0 0.2447492746237224 0.1048344376326756 0 0.2625581105604271 0.083504717760294028 0 0.26155298514579067 0.09618130092776081 0 0.2447492746237224 0.1048344376326756 0 0.26155298514579067 0.09618130092776081 0 0.25549207038459648 0.1038896446823738 0 0.27128922077482098 0.101996164583392 0 0.26155298514579067 0.09618130092776081 0 0.25549207038459648 0.1038896446823738 0 0.27128922077482098 0.101996164583392 0 0.25549207038459648 0.1038896446823738 0 0.26380914817732831 0.1133778628946655 0 0.2447492746237224 0.1048344376326756 0 0.2625581105604271 0.083504717760294028 0 0.25832525489360281 0.12223929131243159 0 0.26380914817732831 0.1133778628946655 0 0.26914316120917509 0.1255612116215174 0 0.25832525489360281 0.12223929131243159 0 0.26380914817732831 0.1133778628946655 0 0.25324217801320742 0.1153607628831249 0 0.25549207038459648 0.1038896446823738 0 0.26380914817732831 0.1133778628946655 0 0.25324217801320742 0.1153607628831249 0 0.24794648612135611 0.1223238382092047 0 0.25832525489360281 0.12223929131243159 0 0.25324217801320742 0.1153607628831249 0 0.25832525489360281 0.12223929131243159 0 0.25144494256168609 0.1319752725567547 0 0.26740803439442051 0.13794503939852351 0 0.24794648612135611 0.1223238382092047 0 0.25832525489360281 0.12223929131243159 0 0.25144494256168609 0.1319752725567547 0 0.25832525489360281 0.12223929131243159 0 0.26914316120917509 0.1255612116215174 0 0.26740803439442051 0.13794503939852351 0 0.25144494256168609 0.1319752725567547 0 0.26740803439442051 0.13794503939852351 0 0.25207379538507518 0.1432516637935872 0 0.26914316120917509 0.1255612116215174 0 0.26740803439442051 0.13794503939852351 0 0.28005226282775009 0.12935703738488491 0 0.26740803439442051 0.13794503939852351 0 0.28005226282775009 0.12935703738488491 0 0.2846327663216443 0.1434308830262882 0 0.26740803439442051 0.13794503939852351 0 0.27377075710346321 0.16423169209477731 0 0.2846327663216443 0.1434308830262882 0 0.27377075710346321 0.16423169209477731 0 0.2846327663216443 0.1434308830262882 0 0.26740803439442051 0.13794503939852351 0 0.25681636437199401 0.15682310848494821 0 0.27377075710346321 0.16423169209477731 0 0.26740803439442051 0.13794503939852351 0 0.25207379538507518 0.1432516637935872 0 0.25681636437199401 0.15682310848494821 0 0.2415776953324367 0.149084223004644 0 0.25207379538507518 0.1432516637935872 0 0.25681636437199401 0.15682310848494821 0 0.24211261818636931 0.1623099121402044 0 0.25681636437199401 0.15682310848494821 0 0.25583925113042488 0.17312828799689009 0 0.25681636437199401 0.15682310848494821 0 0.25583925113042488 0.17312828799689009 0 0.27377075710346321 0.16423169209477731 0 0.25583925113042488 0.17312828799689009 0 0.26290874788528201 0.18503250116326639 0 0.27377075710346321 0.16423169209477731 0 0.24634121590032301 0.18101059397227429 0 0.25257572134146028 0.18705864139486761 0 0.25583925113042488 0.17312828799689009 0 0.25257572134146028 0.18705864139486761 0 0.25583925113042488 0.17312828799689009 0 0.26290874788528201 0.18503250116326639 0 0.26290874788528201 0.18503250116326639 0 0.27377075710346321 0.16423169209477731 0 0.26290874788528201 0.18503250116326639 0 0.27377075710346321 0.16423169209477731 0 0.28467121379418919 0.1800533915312704 0 0.29045032717785879 0.16206182078351561 0 0.28467121379418919 0.1800533915312704 0 0.30664582520251382 0.17092974582876991 0 0.27377075710346321 0.16423169209477731 0 0.29045032717785879 0.16206182078351561 0 0.28467121379418919 0.1800533915312704 0 0.27377075710346321 0.16423169209477731 0 0.29045032717785879 0.16206182078351561 0 0.2846327663216443 0.1434308830262882 0 0.30664582520251382 0.17092974582876991 0 0.30212351210439758 0.1921362665791356 0 0.32493745776742361 0.18397935582364289 0 0.28467121379418919 0.1800533915312704 0 0.30664582520251382 0.17092974582876991 0 0.30212351210439758 0.1921362665791356 0 0.29045032717785879 0.16206182078351561 0 0.30664582520251382 0.17092974582876991 0 0.30253107346748348 0.1516633914364722 0 0.30664582520251382 0.17092974582876991 0 0.30253107346748348 0.1516633914364722 0 0.32625236812611269 0.1604294171297401 0 0.3122880780541169 0.1180758610802294 0 0.29927381675924403 0.13002852083960131 0 0.31849749607394068 0.14012229345739921 0 0.30253107346748348 0.1516633914364722 0 0.29927381675924403 0.13002852083960131 0 0.31849749607394068 0.14012229345739921 0 0.28005226282775009 0.12935703738488491 0 0.29927381675924403 0.13002852083960131 0 0.2846327663216443 0.1434308830262882 0 0.28826264884904967 0.1185553539241159 0 0.28005226282775009 0.12935703738488491 0 0.29927381675924403 0.13002852083960131 0 0.30253107346748348 0.1516633914364722 0 0.29927381675924403 0.13002852083960131 0 0.2846327663216443 0.1434308830262882 0 0.29045032717785879 0.16206182078351561 0 0.30253107346748348 0.1516633914364722 0 0.2846327663216443 0.1434308830262882 0 0.2685555013172104 0.23454703804013771 0 0.27954809663536612 0.24742483709009899 0 0.25683111238660761 0.24379959893971959 0 0.27954809663536612 0.24742483709009899 0 0.25683111238660761 0.24379959893971959 0 0.2685555013172104 0.23454703804013771 0 0.27954809663536612 0.24742483709009899 0 0.27945984455766021 0.22195736268573399 0 0.2685555013172104 0.23454703804013771 0 0.25683111238660761 0.24379959893971959 0 0.25838295168920761 0.22500635344499789 0 0.24172970213161429 0.22559049353151511 0 0.24989052864815531 0.2205716808775571 0 0.25838295168920761 0.22500635344499789 0 0.24172970213161429 0.22559049353151511 0 0.25683111238660761 0.24379959893971959 0 0.25838295168920761 0.22500635344499789 0 0.2685555013172104 0.23454703804013771 0 0.25838295168920761 0.22500635344499789 0 0.27945984455766021 0.22195736268573399 0 0.25649562077834531 0.2084500880901195 0 0.27930956644137189 0.20029317733462881 0 0.27945984455766021 0.22195736268573399 0 0.25649562077834531 0.2084500880901195 0 0.27930956644137189 0.20029317733462881 0 0.27945984455766021 0.22195736268573399 0 0.25649562077834531 0.2084500880901195 0 0.24989052864815531 0.2205716808775571 0 0.25838295168920761 0.22500635344499789 0 0.25649562077834531 0.2084500880901195 0 0.25838295168920761 0.22500635344499789 0 0.27945984455766021 0.22195736268573399 0 0.25649562077834531 0.2084500880901195 0 0.24934527612537849 0.21100662627368691 0 0.24989052864815531 0.2205716808775571 0 0.25649562077834531 0.2084500880901195 0 0.24934527612537849 0.21100662627368691 0 0.25649562077834531 0.2084500880901195 0 0.24934527612537849 0.21100662627368691 0 0.25204673866710092 0.2058333102317555 0 0.24934527612537849 0.21100662627368691 0 0.25204673866710092 0.2058333102317555 0 0.25649562077834531 0.2084500880901195 0 0.25204673866710092 0.2058333102317555 0 0.25649562077834531 0.2084500880901195 0 0.26290874788528201 0.18503250116326639 0 0.25204673866710092 0.2058333102317555 0 0.25649562077834531 0.2084500880901195 0 0.26290874788528201 0.18503250116326639 0 0.25204673866710092 0.2058333102317555 0 0.25318479180384301 0.19297637564069689 0 0.26290874788528201 0.18503250116326639 0 0.25204673866710092 0.2058333102317555 0 0.24520795932152911 0.1939810497728984 0 0.25204673866710092 0.2058333102317555 0 0.25318479180384301 0.19297637564069689 0 0.25257572134146028 0.18705864139486761 0 0.26290874788528201 0.18503250116326639 0 0.25318479180384301 0.19297637564069689 0 0.24520795932152911 0.1939810497728984 0 0.25257572134146028 0.18705864139486761 0 0.25318479180384301 0.19297637564069689 0 0.26290874788528201 0.18503250116326639 0 0.28467121379418919 0.1800533915312704 0 0.27930956644137189 0.20029317733462881 0 0.26290874788528201 0.18503250116326639 0 0.25649562077834531 0.2084500880901195 0 0.27930956644137189 0.20029317733462881 0 0.28467121379418919 0.1800533915312704 0 0.27930956644137189 0.20029317733462881 0 0.30212351210439758 0.1921362665791356 0 0.27930956644137189 0.20029317733462881 0 0.30212351210439758 0.1921362665791356 0 0.27930956644137189 0.20029317733462881 0 0.30212351210439758 0.1921362665791356 0 0.30146263765974191 0.21248138548804479 0 0.30212351210439758 0.1921362665791356 0 0.30146263765974191 0.21248138548804479 0 0.31892439470881501 0.20135900054956901 0 0.27945984455766021 0.22195736268573399 0 0.27930956644137189 0.20029317733462881 0 0.30146263765974191 0.21248138548804479 0 0.27945984455766021 0.22195736268573399 0 0.30242406833697288 0.23546463728135211 0 0.27945984455766021 0.22195736268573399 0 0.30146263765974191 0.21248138548804479 0 0.30242406833697288 0.23546463728135211 0 0.30146263765974191 0.21248138548804479 0 0.30242406833697288 0.23546463728135211 0 0.33076077822175681 0.22046928801608581 0 0.29847933329574461 0.26441301039474852 0 0.30242406833697288 0.23546463728135211 0 0.32538829211628489 0.2489719118769719 0 0.27954809663536612 0.24742483709009899 0 0.27945984455766021 0.22195736268573399 0 0.30242406833697288 0.23546463728135211 0 0.29847933329574461 0.26441301039474852 0 0.27954809663536612 0.24742483709009899 0 0.30242406833697288 0.23546463728135211 0 0.34779853276984413 0.26215334039684829 0 0.33915831076210728 0.23699708836674779 0 0.32538829211628489 0.2489719118769719 0 0.33915831076210728 0.23699708836674779 0 0.32538829211628489 0.2489719118769719 0 0.33076077822175681 0.22046928801608581 0 0.30242406833697288 0.23546463728135211 0 0.32538829211628489 0.2489719118769719 0 0.32538829211628489 0.2489719118769719 0 0.33076077822175681 0.22046928801608581 0 0.30242406833697288 0.23546463728135211 0 0.32538829211628489 0.2489719118769719 0 0.33076077822175681 0.22046928801608581 0 0.33915831076210728 0.23699708836674779 0 0.33076077822175681 0.22046928801608581 0 0.34682230307527351 0.21429442097949639 0 0.33076077822175681 0.22046928801608581 0 0.33613326432723228 0.19196666415520039 0 0.33076077822175681 0.22046928801608581 0 0.31892439470881501 0.20135900054956901 0 0.33613326432723228 0.19196666415520039 0 0.3391055680671563 0.19408716403156781 0 0.34682230307527351 0.21429442097949639 0 0.33076077822175681 0.22046928801608581 0 0.3391055680671563 0.19408716403156781 0 0.34682230307527351 0.21429442097949639 0 0.30146263765974191 0.21248138548804479 0 0.33076077822175681 0.22046928801608581 0 0.31892439470881501 0.20135900054956901 0 0.30212351210439758 0.1921362665791356 0 0.31892439470881501 0.20135900054956901 0 0.32493745776742361 0.18397935582364289 0 0.30212351210439758 0.1921362665791356 0 0.32493745776742361 0.18397935582364289 0 0.31892439470881501 0.20135900054956901 0 0.33613326432723228 0.19196666415520039 0 0.32493745776742361 0.18397935582364289 0 0.33684791759722771 0.18817521771017329 0 0.33613326432723228 0.19196666415520039 0 0.32493745776742361 0.18397935582364289 0 0.33613326432723228 0.19196666415520039 0 0.32493745776742361 0.18397935582364289 0 0.33076077822175681 0.22046928801608581 0 0.33613326432723228 0.19196666415520039 0 0.3391055680671563 0.19408716403156781 0 0.33684791759722771 0.18817521771017329 0 0.3391055680671563 0.19408716403156781 0 0.34385559518278641 0.1889158374652237 0 0.33684791759722771 0.18817521771017329 0 0.3391055680671563 0.19408716403156781 0 0.33684791759722771 0.18817521771017329 0 0.33613326432723228 0.19196666415520039 0 0.33613326432723228 0.19196666415520039 0 0.3391055680671563 0.19408716403156781 0 0.33684791759722771 0.18817521771017329 0 0.33613326432723228 0.19196666415520039 0 0.3391055680671563 0.19408716403156781 0 0.3391055680671563 0.19408716403156781 0 0.35132413651511551 0.1937209644956033 0 0.35866257585850392 0.20803951757016639 0 0.3391055680671563 0.19408716403156781 0 0.35866257585850392 0.20803951757016639 0 0.35132413651511551 0.1937209644956033 0 0.36312383446793622 0.18929535671809289 0 0.35866257585850392 0.20803951757016639 0 0.3391055680671563 0.19408716403156781 0 0.35132413651511551 0.1937209644956033 0 0.34385559518278641 0.1889158374652237 0 0.35132413651511551 0.1937209644956033 0 0.34385559518278641 0.1889158374652237 0 0.35087658143359529 0.18609652604924551 0 0.35132413651511551 0.1937209644956033 0 0.36312383446793622 0.18929535671809289 0 0.35087658143359529 0.18609652604924551 0 0.36312383446793622 0.18929535671809289 0 0.37326070818919249 0.20296527965472649 0 0.35866257585850392 0.20803951757016639 0 0.36312383446793622 0.18929535671809289 0 0.37326070818919249 0.20296527965472649 0 0.37821586635925752 0.1896699011718003 0 0.35866257585850392 0.20803951757016639 0 0.36225237224269791 0.2229278344074607 0 0.37821958364985042 0.22199187110876659 0 0.35866257585850392 0.20803951757016639 0 0.37821958364985042 0.22199187110876659 0 0.37326070818919249 0.20296527965472649 0 0.35866257585850392 0.20803951757016639 0 0.37821958364985042 0.22199187110876659 0 0.3391055680671563 0.19408716403156781 0 0.35866257585850392 0.20803951757016639 0 0.34682230307527351 0.21429442097949639 0 0.35866257585850392 0.20803951757016639 0 0.34682230307527351 0.21429442097949639 0 0.36225237224269791 0.2229278344074607 0 0.33915831076210728 0.23699708836674779 0 0.34682230307527351 0.21429442097949639 0 0.35453903808339199 0.23450167792742441 0 0.34682230307527351 0.21429442097949639 0 0.35453903808339199 0.23450167792742441 0 0.34682230307527351 0.21429442097949639 0 0.36225237224269791 0.2229278344074607 0 0.35453903808339199 0.23450167792742441 0 0.36225237224269791 0.2229278344074607 0 0.37126886936199149 0.23623742030379469 0 0.37821958364985042 0.22199187110876659 0 0.36225237224269791 0.2229278344074607 0 0.37126886936199149 0.23623742030379469 0 0.35453903808339199 0.23450167792742441 0 0.36083912985981348 0.24913549553757319 0 0.37126886936199149 0.23623742030379469 0 0.38206125475814667 0.24958867731389359 0 0.36083912985981348 0.24913549553757319 0 0.37126886936199149 0.23623742030379469 0 0.35453903808339199 0.23450167792742441 0 0.34779853276984413 0.26215334039684829 0 0.33915831076210728 0.23699708836674779 0 0.36083912985981348 0.24913549553757319 0 0.33915831076210728 0.23699708836674779 0 0.36083912985981348 0.24913549553757319 0 0.35453903808339199 0.23450167792742441 0 0.34161885875908521 0.16286396725198951 0 0.3446810784563778 0.14661798829592609 0 0.33144605620476969 0.14569132069002541 0 0.34161885875908521 0.16286396725198951 0 0.3446810784563778 0.14661798829592609 0 0.33144605620476969 0.14569132069002541 0 0.33805724807416199 0.1297431271969651 0 0.3446810784563778 0.14661798829592609 0 0.33144605620476969 0.14569132069002541 0 0.33805724807416199 0.1297431271969651 0 0.3245146634885665 0.12706791928245009 0 0.3122880780541169 0.1180758610802294 0 0.31849749607394068 0.14012229345739921 0 0.3245146634885665 0.12706791928245009 0 0.33144605620476969 0.14569132069002541 0 0.31849749607394068 0.14012229345739921 0 0.3245146634885665 0.12706791928245009 0 0.31849749607394068 0.14012229345739921 0 0.32625236812611269 0.1604294171297401 0 0.33144605620476969 0.14569132069002541 0 0.31849749607394068 0.14012229345739921 0 0.32625236812611269 0.1604294171297401 0 0.30253107346748348 0.1516633914364722 0 0.31849749607394068 0.14012229345739921 0 0.32625236812611269 0.1604294171297401 0 0.30664582520251382 0.17092974582876991 0 0.32625236812611269 0.1604294171297401 0 0.32437444525399028 0.1731369857550859 0 0.30664582520251382 0.17092974582876991 0 0.32493745776742361 0.18397935582364289 0 0.30664582520251382 0.17092974582876991 0 0.32437444525399028 0.1731369857550859 0 0.32493745776742361 0.18397935582364289 0 0.32437444525399028 0.1731369857550859 0 0.32493745776742361 0.18397935582364289 0 0.33400724017828098 0.18073654080208251 0 0.32625236812611269 0.1604294171297401 0 0.33400724017828098 0.18073654080208251 0 0.33855663906179329 0.17910994620805301 0 0.33684791759722771 0.18817521771017329 0 0.32493745776742361 0.18397935582364289 0 0.33400724017828098 0.18073654080208251 0 0.32493745776742361 0.18397935582364289 0 0.33400724017828098 0.18073654080208251 0 0.33684791759722771 0.18817521771017329 0 0.33400724017828098 0.18073654080208251 0 0.33684791759722771 0.18817521771017329 0 0.33855663906179329 0.17910994620805301 0 0.33684791759722771 0.18817521771017329 0 0.34385559518278641 0.1889158374652237 0 0.33855663906179329 0.17910994620805301 0 0.33684791759722771 0.18817521771017329 0 0.33400724017828098 0.18073654080208251 0 0.33855663906179329 0.17910994620805301 0 0.33400724017828098 0.18073654080208251 0 0.33855663906179329 0.17910994620805301 0 0.32625236812611269 0.1604294171297401 0 0.33400724017828098 0.18073654080208251 0 0.33144605620476969 0.14569132069002541 0 0.32625236812611269 0.1604294171297401 0 0.34161885875908521 0.16286396725198951 0 0.33855663906179329 0.17910994620805301 0 0.34161885875908521 0.16286396725198951 0 0.32625236812611269 0.1604294171297401 0 0.32437444525399028 0.1731369857550859 0 0.33400724017828098 0.18073654080208251 0 0.32625236812611269 0.1604294171297401 0 0.33855663906179329 0.17910994620805301 0 0.34161885875908521 0.16286396725198951 0 0.33855663906179329 0.17910994620805301 0 0.34161885875908521 0.16286396725198951 0 0.35596424480529693 0.17288602121875651 0 0.34161885875908521 0.16286396725198951 0 0.35681721413975759 0.15846297015784311 0 0.35596424480529693 0.17288602121875651 0 0.33855663906179329 0.17910994620805301 0 0.35596424480529693 0.17288602121875651 0 0.33855663906179329 0.17910994620805301 0 0.35087658143359529 0.18609652604924551 0 0.35596424480529693 0.17288602121875651 0 0.36312383446793622 0.18929535671809289 0 0.35087658143359529 0.18609652604924551 0 0.35596424480529693 0.17288602121875651 0 0.34385559518278641 0.1889158374652237 0 0.33855663906179329 0.17910994620805301 0 0.35087658143359529 0.18609652604924551 0 0.36312383446793622 0.18929535671809289 0 0.35596424480529693 0.17288602121875651 0 0.37337185054879968 0.16666209622945849 0 0.36312383446793622 0.18929535671809289 0 0.37337185054879968 0.16666209622945849 0 0.37821586635925752 0.1896699011718003 0 0.35681721413975759 0.15846297015784311 0 0.35596424480529693 0.17288602121875651 0 0.37337185054879968 0.16666209622945849 0 0.35596424480529693 0.17288602121875651 0 0.37337185054879968 0.16666209622945849 0 0.37337185054879968 0.16666209622945849 0 0.36845003812922827 0.14328477779308371 0 0.35681721413975759 0.15846297015784311 0 0.37337185054879968 0.16666209622945849 0 0.36845003812922827 0.14328477779308371 0 0.36845003812922827 0.14328477779308371 0 0.3446810784563778 0.14661798829592609 0 0.35390678597640041 0.13312310803449121 0 0.35681721413975759 0.15846297015784311 0 0.36845003812922827 0.14328477779308371 0 0.3446810784563778 0.14661798829592609 0 0.34161885875908521 0.16286396725198951 0 0.35681721413975759 0.15846297015784311 0 0.3446810784563778 0.14661798829592609 0 0.33805724807416199 0.1297431271969651 0 0.3446810784563778 0.14661798829592609 0 0.35390678597640041 0.13312310803449121 0 0.36352822570966498 0.1199074593567073 0 0.36845003812922827 0.14328477779308371 0 0.38259697595954079 0.1280995373360688 0 0.36352822570966498 0.1199074593567073 0 0.36845003812922827 0.14328477779308371 0 0.36352822570966498 0.1199074593567073 0 0.36845003812922827 0.14328477779308371 0 0.35390678597640041 0.13312310803449121 0 0.36845003812922827 0.14328477779308371 0 0.38259697595954079 0.1280995373360688 0 0.38629195675005717 0.14466105091457321 0 0.38259697595954079 0.1280995373360688 0 0.40561940378974659 0.12862563964825049 0 0.38629195675005717 0.14466105091457321 0 0.40561940378974659 0.12862563964825049 0 0.38629195675005717 0.14466105091457321 0 0.40142151532296988 0.15663320356600349 0 0.37337185054879968 0.16666209622945849 0 0.36845003812922827 0.14328477779308371 0 0.38629195675005717 0.14466105091457321 0 0.37337185054879968 0.16666209622945849 0 0.38629195675005717 0.14466105091457321 0 0.40142151532296988 0.15663320356600349 0 0.37337185054879968 0.16666209622945849 0 0.40142151532296988 0.15663320356600349 0 0.37337185054879968 0.16666209622945849 0 0.39653744385362238 0.17787094126613839 0 0.40142151532296988 0.15663320356600349 0 0.37337185054879968 0.16666209622945849 0 0.37821586635925752 0.1896699011718003 0 0.37337185054879968 0.16666209622945849 0 0.39653744385362238 0.17787094126613839 0 0.37821586635925752 0.1896699011718003 0 0.39653744385362238 0.17787094126613839 0 0.40142151532296988 0.15663320356600349 0 0.41761869876238961 0.17235040250538211 0 0.40142151532296988 0.15663320356600349 0 0.41761869876238961 0.17235040250538211 0 0.42947118009713908 0.14660431090254589 0 0.41761869876238961 0.17235040250538211 0 0.40576621742764202 0.19809649410821931 0 0.39653744385362238 0.17787094126613839 0 0.41761869876238961 0.17235040250538211 0 0.40576621742764202 0.19809649410821931 0 0.41761869876238961 0.17235040250538211 0 0.40576621742764202 0.19809649410821931 0 0.42452308497122848 0.18799792314227251 0 0.41761869876238961 0.17235040250538211 0 0.42452308497122848 0.18799792314227251 0 0.44412378587840112 0.18169279763009669 0 0.41761869876238961 0.17235040250538211 0 0.42947118009713908 0.14660431090254589 0 0.41761869876238961 0.17235040250538211 0 0.43805277782239921 0.16096090069195201 0 0.44412378587840112 0.18169279763009669 0 0.41761869876238961 0.17235040250538211 0 0.42947118009713908 0.14660431090254589 0 0.43805277782239921 0.16096090069195201 0 0.42947118009713908 0.14660431090254589 0 0.44402095070549319 0.14140217786873491 0 0.43805277782239921 0.16096090069195201 0 0.42947118009713908 0.14660431090254589 0 0.4324326193293776 0.1401714397090702 0 0.42218479762870709 0.13572162511479879 0 0.42947118009713908 0.14660431090254589 0 0.44402095070549319 0.14140217786873491 0 0.42947118009713908 0.14660431090254589 0 0.4324326193293776 0.1401714397090702 0 0.44402095070549319 0.14140217786873491 0 0.42947118009713908 0.14660431090254589 0 0.4324326193293776 0.1401714397090702 0 0.4324326193293776 0.1401714397090702 0 0.42218479762870709 0.13572162511479879 0 0.43384741516086089 0.1216687626148904 0 0.4324326193293776 0.1401714397090702 0 0.44402095070549319 0.14140217786873491 0 0.43384741516086089 0.1216687626148904 0 0.42218479762870709 0.13572162511479879 0 0.43384741516086089 0.1216687626148904 0 0.42662034777092628 0.1224176779367297 0 0.42218479762870709 0.13572162511479879 0 0.42662034777092628 0.1224176779367297 0 0.42164062919100648 0.1244980441607199 0 0.42218479762870709 0.13572162511479879 0 0.43384741516086089 0.1216687626148904 0 0.40561940378974659 0.12862563964825049 0 0.42218479762870709 0.13572162511479879 0 0.42164062919100648 0.1244980441607199 0 0.40561940378974659 0.12862563964825049 0 0.40142151532296988 0.15663320356600349 0 0.42218479762870709 0.13572162511479879 0 0.40142151532296988 0.15663320356600349 0 0.42947118009713908 0.14660431090254589 0 0.40142151532296988 0.15663320356600349 0 0.42947118009713908 0.14660431090254589 0 0.42218479762870709 0.13572162511479879 0 0.40604663183827611 0.24222092895334069 0 0.38206125475814667 0.24958867731389359 0 0.39391373609289432 0.22384258571105639 0 0.38206125475814667 0.24958867731389359 0 0.39391373609289432 0.22384258571105639 0 0.37126886936199149 0.23623742030379469 0 0.38206125475814667 0.24958867731389359 0 0.39391373609289432 0.22384258571105639 0 0.37126886936199149 0.23623742030379469 0 0.37821958364985042 0.22199187110876659 0 0.39391373609289432 0.22384258571105639 0 0.40604663183827611 0.24222092895334069 0 0.39391373609289432 0.22384258571105639 0 0.41303284257265832 0.21962183099374771 0 0.39391373609289432 0.22384258571105639 0 0.40576621742764202 0.19809649410821931 0 0.41303284257265832 0.21962183099374771 0 0.39391373609289432 0.22384258571105639 0 0.40576621742764202 0.19809649410821931 0 0.39391373609289432 0.22384258571105639 0 0.38808168061041459 0.20582975170480669 0 0.40576621742764202 0.19809649410821931 0 0.37821958364985042 0.22199187110876659 0 0.39391373609289432 0.22384258571105639 0 0.38808168061041459 0.20582975170480669 0 0.37326070818919249 0.20296527965472649 0 0.37821958364985042 0.22199187110876659 0 0.38808168061041459 0.20582975170480669 0 0.37326070818919249 0.20296527965472649 0 0.38808168061041459 0.20582975170480669 0 0.37821586635925752 0.1896699011718003 0 0.39653744385362238 0.17787094126613839 0 0.37821586635925752 0.1896699011718003 0 0.40576621742764202 0.19809649410821931 0 0.38808168061041459 0.20582975170480669 0 0.37821586635925752 0.1896699011718003 0 0.40576621742764202 0.19809649410821931 0 0.40576621742764202 0.19809649410821931 0 0.42452308497122848 0.18799792314227251 0 0.41814469285105238 0.2038671249169047 0 0.42452308497122848 0.18799792314227251 0 0.41814469285105238 0.2038671249169047 0 0.44473927081379688 0.2082364454030759 0 0.41814469285105238 0.2038671249169047 0 0.44473927081379688 0.2082364454030759 0 0.42867935217801129 0.2178044812286479 0 0.41814469285105238 0.2038671249169047 0 0.44473927081379688 0.2082364454030759 0 0.42867935217801129 0.2178044812286479 0 0.41814469285105238 0.2038671249169047 0 0.41303284257265832 0.21962183099374771 0 0.40576621742764202 0.19809649410821931 0 0.41814469285105238 0.2038671249169047 0 0.41303284257265832 0.21962183099374771 0 0.40604663183827611 0.24222092895334069 0 0.41303284257265832 0.21962183099374771 0 0.42581510826064839 0.23358407449275359 0 0.42867935217801129 0.2178044812286479 0 0.42581510826064839 0.23358407449275359 0 0.43996163458994397 0.2248335389724026 0 0.42867935217801129 0.2178044812286479 0 0.41303284257265832 0.21962183099374771 0 0.42581510826064839 0.23358407449275359 0 0.42581510826064839 0.23358407449275359 0 0.44212338901905213 0.23815193365682641 0 0.43996163458994397 0.2248335389724026 0 0.42889529200320847 0.25303008029564289 0 0.42581510826064839 0.23358407449275359 0 0.44212338901905213 0.23815193365682641 0 0.42889529200320847 0.25303008029564289 0 0.40604663183827611 0.24222092895334069 0 0.42581510826064839 0.23358407449275359 0 0.46307205025087572 0.24152961596284159 0 0.44212338901905213 0.23815193365682641 0 0.45504462907429738 0.22863197735199911 0 0.45095767982717339 0.2516030008942155 0 0.46307205025087572 0.24152961596284159 0 0.44212338901905213 0.23815193365682641 0 0.42889529200320847 0.25303008029564289 0 0.45095767982717339 0.2516030008942155 0 0.44212338901905213 0.23815193365682641 0 0.44212338901905213 0.23815193365682641 0 0.43996163458994397 0.2248335389724026 0 0.45504462907429738 0.22863197735199911 0 0.43996163458994397 0.2248335389724026 0 0.45504462907429738 0.22863197735199911 0 0.44473927081379688 0.2082364454030759 0 0.46053736631600789 0.21951606046485969 0 0.47133384877654139 0.21260576588924721 0 0.47103171659939619 0.2285900532151168 0 0.46307205025087572 0.24152961596284159 0 0.45504462907429738 0.22863197735199911 0 0.47103171659939619 0.2285900532151168 0 0.46053736631600789 0.21951606046485969 0 0.45504462907429738 0.22863197735199911 0 0.44473927081379688 0.2082364454030759 0 0.46053736631600789 0.21951606046485969 0 0.45504462907429738 0.22863197735199911 0 0.47103171659939619 0.2285900532151168 0 0.46053736631600789 0.21951606046485969 0 0.44473927081379688 0.2082364454030759 0 0.47133384877654139 0.21260576588924721 0 0.44473927081379688 0.2082364454030759 0 0.45998269114494711 0.19960220381287591 0 0.47133384877654139 0.21260576588924721 0 0.44473927081379688 0.2082364454030759 0 0.47133384877654139 0.21260576588924721 0 0.42867935217801129 0.2178044812286479 0 0.43996163458994397 0.2248335389724026 0 0.44473927081379688 0.2082364454030759 0 0.42452308497122848 0.18799792314227251 0 0.44473927081379688 0.2082364454030759 0 0.44412378587840112 0.18169279763009669 0 0.44473927081379688 0.2082364454030759 0 0.45998269114494711 0.19960220381287591 0 0.44412378587840112 0.18169279763009669 0 0.45998269114494711 0.19960220381287591 0 0.47704591959473502 0.20546008792152551 0 0.46603759663165362 0.18410745123726241 0 0.45998269114494711 0.19960220381287591 0 0.44412378587840112 0.18169279763009669 0 0.46603759663165362 0.18410745123726241 0 0.48372026918296368 0.18944051653507801 0 0.5 0.21697508637541851 0 0.5 0.18013799908791031 0 0.48372026918296368 0.18944051653507801 0 0.47704591959473502 0.20546008792152551 0 0.46603759663165362 0.18410745123726241 0 0.47704591959473502 0.20546008792152551 0 0.46603759663165362 0.18410745123726241 0 0.48372026918296368 0.18944051653507801 0 0.5 0.21697508637541851 0 0.47704591959473502 0.20546008792152551 0 0.5 0.21697508637541851 0 0.47133384877654139 0.21260576588924721 0 0.5 0.21697508637541851 0 0.47704591959473502 0.20546008792152551 0 0.47133384877654139 0.21260576588924721 0 0.45998269114494711 0.19960220381287591 0 0.47704591959473502 0.20546008792152551 0 0.47133384877654139 0.21260576588924721 0 0.5 0.26776742217061072 0 0.5 0.21697508637541851 0 0.48051773825862748 0.24316257497690641 0 0.5 0.21697508637541851 0 0.47133384877654139 0.21260576588924721 0 0.47103171659939619 0.2285900532151168 0 0.5 0.21697508637541851 0 0.47103171659939619 0.2285900532151168 0 0.48051773825862748 0.24316257497690641 0 0.46658482199607421 0.2641796619238409 0 0.46307205025087572 0.24152961596284159 0 0.48051773825862748 0.24316257497690641 0 0.46307205025087572 0.24152961596284159 0 0.47103171659939619 0.2285900532151168 0 0.48051773825862748 0.24316257497690641 0 0.46212294937073312 0.14903258468521111 0 0.44402095070549319 0.14140217786873491 0 0.45502927366857221 0.16275481455299931 0 0.46212294937073312 0.14903258468521111 0 0.44402095070549319 0.14140217786873491 0 0.47185217015972342 0.13145138826583699 0 0.44402095070549319 0.14140217786873491 0 0.47185217015972342 0.13145138826583699 0 0.44402095070549319 0.14140217786873491 0 0.47185217015972342 0.13145138826583699 0 0.45514358255272308 0.12047558815332669 0 0.44402095070549319 0.14140217786873491 0 0.43384741516086089 0.1216687626148904 0 0.44402095070549319 0.14140217786873491 0 0.45514358255272308 0.12047558815332669 0 0.43384741516086089 0.1216687626148904 0 0.44402095070549319 0.14140217786873491 0 0.45502927366857221 0.16275481455299931 0 0.44402095070549319 0.14140217786873491 0 0.43805277782239921 0.16096090069195201 0 0.45502927366857221 0.16275481455299931 0 0.43805277782239921 0.16096090069195201 0 0.44412378587840112 0.18169279763009669 0 0.45502927366857221 0.16275481455299931 0 0.44412378587840112 0.18169279763009669 0 0.46603759663165362 0.18410745123726241 0 0.45502927366857221 0.16275481455299931 0 0.46603759663165362 0.18410745123726241 0 0.45502927366857221 0.16275481455299931 0 0.46603759663165362 0.18410745123726241 0 0.45502927366857221 0.16275481455299931 0 0.47758940294914393 0.16052195805327329 0 0.46212294937073312 0.14903258468521111 0 0.45502927366857221 0.16275481455299931 0 0.47758940294914393 0.16052195805327329 0 0.47758940294914393 0.16052195805327329 0 0.5 0.18013799908791031 0 0.48728124068070522 0.14840298601749011 0 0.48372026918296368 0.18944051653507801 0 0.46603759663165362 0.18410745123726241 0 0.47758940294914393 0.16052195805327329 0 0.48372026918296368 0.18944051653507801 0 0.47758940294914393 0.16052195805327329 0 0.5 0.18013799908791031 0 0.5 0.18013799908791031 0 0.48728124068070522 0.14840298601749011 0 0.5 0.12150059866293959 0 0.46212294937073312 0.14903258468521111 0 0.47758940294914393 0.16052195805327329 0 0.47185217015972342 0.13145138826583699 0 0.47758940294914393 0.16052195805327329 0 0.48728124068070522 0.14840298601749011 0 0.47185217015972342 0.13145138826583699 0 0.47185217015972342 0.13145138826583699 0 0.5 0.12150059866293959 0 0.48728124068070522 0.14840298601749011 0 0.47185217015972342 0.13145138826583699 0 0.5 0.12150059866293959 0 0.5 0.11662602654305181 0 0.47566375273060402 0.1060518947422171 0 0.4833060416990777 0.062073626595079527 0 0.5 0.11662602654305181 0 0.4833060416990777 0.062073626595079527 0 0.50000000000000377 0.042208581255142277 0 0.5 0.11662602654305181 0 0.5 0.12150059866293959 0 0.47566375273060402 0.1060518947422171 0 0.47185217015972342 0.13145138826583699 0 0.5 0.12150059866293959 0 0.47566375273060402 0.1060518947422171 0 0.47566375273060402 0.1060518947422171 0 0.46681983285300588 0.081938671935016805 0 0.4833060416990777 0.062073626595079527 0 0.46681983285300588 0.081938671935016805 0 0.4833060416990777 0.062073626595079527 0 0.46681983285300588 0.081938671935016805 0 0.46437963260426379 0.060396454760273423 0 0.4833060416990777 0.062073626595079527 0 0.46681983285300588 0.081938671935016805 0 0.44746687222407833 0.083744452441356962 0 0.44952954695634217 0.067712390893937074 0 0.46681983285300588 0.081938671935016805 0 0.44952954695634217 0.067712390893937074 0 0.46437963260426379 0.060396454760273423 0 0.46681983285300588 0.081938671935016805 0 0.44746687222407833 0.083744452441356962 0 0.45033362400693389 0.1018037172749541 0 0.46681983285300588 0.081938671935016805 0 0.45033362400693389 0.1018037172749541 0 0.44746687222407833 0.083744452441356962 0 0.45033362400693389 0.1018037172749541 0 0.4370548795278052 0.090152726673807082 0 0.44746687222407833 0.083744452441356962 0 0.4370548795278052 0.090152726673807082 0 0.43455494679965612 0.0768888064023944 0 0.44746687222407833 0.083744452441356962 0 0.44952954695634217 0.067712390893937074 0 0.43455494679965612 0.0768888064023944 0 0.44952954695634217 0.067712390893937074 0 0.43455494679965612 0.0768888064023944 0 0.4352860471045254 0.062167033992187003 0 0.47566375273060402 0.1060518947422171 0 0.45514358255272308 0.12047558815332669 0 0.45033362400693389 0.1018037172749541 0 0.47185217015972342 0.13145138826583699 0 0.47566375273060402 0.1060518947422171 0 0.45514358255272308 0.12047558815332669 0 0.47566375273060402 0.1060518947422171 0 0.46681983285300588 0.081938671935016805 0 0.45033362400693389 0.1018037172749541 0 0.45033362400693389 0.1018037172749541 0 0.43100635300065637 0.10019381899880291 0 0.4370548795278052 0.090152726673807082 0 0.45033362400693389 0.1018037172749541 0 0.43384741516086089 0.1216687626148904 0 0.43124718033100962 0.11662513609686651 0 0.45514358255272308 0.12047558815332669 0 0.45033362400693389 0.1018037172749541 0 0.43384741516086089 0.1216687626148904 0 0.45033362400693389 0.1018037172749541 0 0.43384741516086089 0.1216687626148904 0 0.43384741516086089 0.1216687626148904 0 0.43124718033100962 0.11662513609686651 0 0.43384741516086089 0.1216687626148904 0 0.43124718033100962 0.11662513609686651 0 0.42662034777092628 0.1224176779367297 0 0.43124718033100962 0.11662513609686651 0 0.42157648067840597 0.1153481425976956 0 0.42983707259557319 0.1081917010280929 0 0.42157648067840597 0.1153481425976956 0 0.41502172496086043 0.10698769017214529 0 0.42983707259557319 0.1081917010280929 0 0.43124718033100962 0.11662513609686651 0 0.42662034777092628 0.1224176779367297 0 0.42157648067840597 0.1153481425976956 0 0.42662034777092628 0.1224176779367297 0 0.42164062919100648 0.1244980441607199 0 0.42157648067840597 0.1153481425976956 0 0.40561940378974659 0.12862563964825049 0 0.42157648067840597 0.1153481425976956 0 0.41502172496086043 0.10698769017214529 0 0.40561940378974659 0.12862563964825049 0 0.42164062919100648 0.1244980441607199 0 0.42157648067840597 0.1153481425976956 0 0.41502172496086043 0.10698769017214529 0 0.42417439773641868 0.089432360776682304 0 0.40776222722062799 0.091246510304245673 0 0.41502172496086043 0.10698769017214529 0 0.40776222722062799 0.091246510304245673 0 0.39647104192106392 0.11045437802622669 0 0.45033362400693389 0.1018037172749541 0 0.42983707259557319 0.1081917010280929 0 0.43100635300065637 0.10019381899880291 0 0.45033362400693389 0.1018037172749541 0 0.43124718033100962 0.11662513609686651 0 0.42983707259557319 0.1081917010280929 0 0.41502172496086043 0.10698769017214529 0 0.43100635300065637 0.10019381899880291 0 0.42417439773641868 0.089432360776682304 0 0.41502172496086043 0.10698769017214529 0 0.42983707259557319 0.1081917010280929 0 0.43100635300065637 0.10019381899880291 0 0.43100635300065637 0.10019381899880291 0 0.4370548795278052 0.090152726673807082 0 0.42417439773641868 0.089432360776682304 0 0.42417439773641868 0.089432360776682304 0 0.43455494679965612 0.0768888064023944 0 0.41924624795768972 0.071242727696768718 0 0.4370548795278052 0.090152726673807082 0 0.42417439773641868 0.089432360776682304 0 0.43455494679965612 0.0768888064023944 0 0.43455494679965612 0.0768888064023944 0 0.41924624795768972 0.071242727696768718 0 0.4352860471045254 0.062167033992187003 0 0.41924624795768972 0.071242727696768718 0 0.40431348323597188 0.07596827623812473 0 0.40069329827209549 0.058558251980487079 0 0.41924624795768972 0.071242727696768718 0 0.40776222722062799 0.091246510304245673 0 0.40431348323597188 0.07596827623812473 0 0.42417439773641868 0.089432360776682304 0 0.41924624795768972 0.071242727696768718 0 0.40776222722062799 0.091246510304245673 0 0.40776222722062799 0.091246510304245673 0 0.40431348323597188 0.07596827623812473 0 0.39045851188817893 0.085919723152736799 0 0.40431348323597188 0.07596827623812473 0 0.37714031096619238 0.063611955333255907 0 0.40069329827209549 0.058558251980487079 0 0.40431348323597188 0.07596827623812473 0 0.37714031096619238 0.063611955333255907 0 0.39045851188817893 0.085919723152736799 0 0.37714031096619238 0.063611955333255907 0 0.37577154926106882 0.084268762090540045 0 0.39045851188817893 0.085919723152736799 0 0.36970442916260859 0.098873298277636884 0 0.37577154926106882 0.084268762090540045 0 0.39045851188817893 0.085919723152736799 0 0.36970442916260859 0.098873298277636884 0 0.37807516818821962 0.1143336682491599 0 0.39647104192106392 0.11045437802622669 0 0.36970442916260859 0.098873298277636884 0 0.39045851188817893 0.085919723152736799 0 0.39647104192106392 0.11045437802622669 0 0.36970442916260859 0.098873298277636884 0 0.39647104192106392 0.11045437802622669 0 0.38259697595954079 0.1280995373360688 0 0.37807516818821962 0.1143336682491599 0 0.39647104192106392 0.11045437802622669 0 0.40561940378974659 0.12862563964825049 0 0.41502172496086043 0.10698769017214529 0 0.39647104192106392 0.11045437802622669 0 0.38259697595954079 0.1280995373360688 0 0.40561940378974659 0.12862563964825049 0 0.39647104192106392 0.11045437802622669 0 0.40776222722062799 0.091246510304245673 0 0.39045851188817893 0.085919723152736799 0 0.39647104192106392 0.11045437802622669 0 0.39265656573566748 0.0096679386167966043 0 0.38960231188623701 0.036693787457408887 0 0.40670468296404011 0.020940342140974441 0 0.39265656573566748 0.0096679386167966043 0 0.40670468296404011 0.020940342140974441 0 0.41009497645066811 0.0039050710386491299 0 0.39265656573566748 0.0096679386167966043 0 0.41009497645066811 0.0039050710386491299 0 0.400196106343358 -0.0076650283668836059 0 0.37497075983577061 0.018948531908704831 0 0.39265656573566748 0.0096679386167966043 0 0.37898781164764822 -0.01117852005808853 0 0.37497075983577061 0.018948531908704831 0 0.39265656573566748 0.0096679386167966043 0 0.38960231188623701 0.036693787457408887 0 0.36477455860353691 0.044596483390004972 0 0.37497075983577061 0.018948531908704831 0 0.38960231188623701 0.036693787457408887 0 0.37714031096619238 0.063611955333255907 0 0.38960231188623701 0.036693787457408887 0 0.40069329827209549 0.058558251980487079 0 0.37714031096619238 0.063611955333255907 0 0.40069329827209549 0.058558251980487079 0 0.36477455860353691 0.044596483390004972 0 0.37714031096619238 0.063611955333255907 0 0.38960231188623701 0.036693787457408887 0 0.38960231188623701 0.036693787457408887 0 0.40069329827209549 0.058558251980487079 0 0.41508537740549611 0.037599190939584248 0 0.38960231188623701 0.036693787457408887 0 0.41508537740549611 0.037599190939584248 0 0.40670468296404011 0.020940342140974441 0 0.41924624795768972 0.071242727696768718 0 0.40069329827209549 0.058558251980487079 0 0.42424628557799882 0.053504548627718217 0 0.40069329827209549 0.058558251980487079 0 0.41508537740549611 0.037599190939584248 0 0.42424628557799882 0.053504548627718217 0 0.40069329827209549 0.058558251980487079 0 0.42424628557799882 0.053504548627718217 0 0.42424628557799882 0.053504548627718217 0 0.44779927288390231 0.048450845274950832 0 0.42424628557799882 0.053504548627718217 0 0.4352860471045254 0.062167033992187003 0 0.44779927288390231 0.048450845274950832 0 0.42424628557799882 0.053504548627718217 0 0.43345525575244792 0.040177897211411948 0 0.44779927288390231 0.048450845274950832 0 0.41924624795768972 0.071242727696768718 0 0.42424628557799882 0.053504548627718217 0 0.4352860471045254 0.062167033992187003 0 0.41508537740549611 0.037599190939584248 0 0.43345525575244792 0.040177897211411948 0 0.43109108177213429 0.027556727492174658 0 0.41508537740549611 0.037599190939584248 0 0.42424628557799882 0.053504548627718217 0 0.43345525575244792 0.040177897211411948 0 0.43345525575244792 0.040177897211411948 0 0.43109108177213429 0.027556727492174658 0 0.44727586844743972 0.027822396242105831 0 0.43109108177213429 0.027556727492174658 0 0.4187281006660592 0.024545773208399919 0 0.42305703920260479 0.01186078162065215 0 0.43109108177213429 0.027556727492174658 0 0.42305703920260479 0.01186078162065215 0 0.4455570731088791 0.0078869224280541037 0 0.40670468296404011 0.020940342140974441 0 0.4187281006660592 0.024545773208399919 0 0.42305703920260479 0.01186078162065215 0 0.41508537740549611 0.037599190939584248 0 0.43109108177213429 0.027556727492174658 0 0.4187281006660592 0.024545773208399919 0 0.41508537740549611 0.037599190939584248 0 0.40670468296404011 0.020940342140974441 0 0.4187281006660592 0.024545773208399919 0 0.40670468296404011 0.020940342140974441 0 0.41009497645066811 0.0039050710386491299 0 0.42305703920260479 0.01186078162065215 0 0.41009497645066811 0.0039050710386491299 0 0.41897626367806479 0.00066143370406012173 0 0.42305703920260479 0.01186078162065215 0 0.4455570731088791 0.0078869224280541037 0 0.4281797331679516 -0.0064768029116052516 0 0.42305703920260479 0.01186078162065215 0 0.4455570731088791 0.0078869224280541037 0 0.4281797331679516 -0.0064768029116052516 0 0.41897626367806479 0.00066143370406012173 0 0.42305703920260479 0.01186078162065215 0 0.4281797331679516 -0.0064768029116052516 0 0.4455570731088791 0.0078869224280541037 0 0.44727586844743972 0.027822396242105831 0 0.46108062987457271 0.014904200016225279 0 0.43109108177213429 0.027556727492174658 0 0.4455570731088791 0.0078869224280541037 0 0.44727586844743972 0.027822396242105831 0 0.46108062987457271 0.014904200016225279 0 0.46295643311916818 0.031836546622491503 0 0.47811359335443282 0.015222247970030909 0 0.44727586844743972 0.027822396242105831 0 0.46108062987457271 0.014904200016225279 0 0.46295643311916818 0.031836546622491503 0 0.4455570731088791 0.0078869224280541037 0 0.46108062987457271 0.014904200016225279 0 0.46634936328909238 -0.0054823721987209972 0 0.46108062987457271 0.014904200016225279 0 0.4703799186058169 0.0067965832963905216 0 0.46634936328909238 -0.0054823721987209972 0 0.44952954695634217 0.067712390893937074 0 0.4352860471045254 0.062167033992187003 0 0.44779927288390231 0.048450845274950832 0 0.4352860471045254 0.062167033992187003 0 0.44779927288390231 0.048450845274950832 0 0.43345525575244792 0.040177897211411948 0 0.44727586844743972 0.027822396242105831 0 0.44779927288390231 0.048450845274950832 0 0.44727586844743972 0.027822396242105831 0 0.44779927288390231 0.048450845274950832 0 0.46295643311916818 0.031836546622491503 0 0.44779927288390231 0.048450845274950832 0 0.46295643311916818 0.031836546622491503 0 0.44779927288390231 0.048450845274950832 0 0.46295643311916818 0.031836546622491503 0 0.47389963644195299 0.042850558011653973 0 0.44779927288390231 0.048450845274950832 0 0.47389963644195299 0.042850558011653973 0 0.44779927288390231 0.048450845274950832 0 0.46437963260426379 0.060396454760273423 0 0.47389963644195299 0.042850558011653973 0 0.44952954695634217 0.067712390893937074 0 0.44779927288390231 0.048450845274950832 0 0.46437963260426379 0.060396454760273423 0 0.46437963260426379 0.060396454760273423 0 0.4833060416990777 0.062073626595079527 0 0.47389963644195299 0.042850558011653973 0 0.46295643311916818 0.031836546622491503 0 0.47389963644195299 0.042850558011653973 0 0.48299393258311091 0.027912339459993659 0 0.47389963644195299 0.042850558011653973 0 0.500000000000004 0.037250270748357711 0 0.48299393258311091 0.027912339459993659 0 0.47389963644195299 0.042850558011653973 0 0.50000000000000377 0.042208581255142277 0 0.500000000000004 0.037250270748357711 0 0.47389963644195299 0.042850558011653973 0 0.500000000000004 0.037250270748357711 0 0.4833060416990777 0.062073626595079527 0 0.47389963644195299 0.042850558011653973 0 0.50000000000000377 0.042208581255142277 0 0.4833060416990777 0.062073626595079527 0 0.50000000000000377 0.042208581255142277 0 0.48300826515730871 0.0084876879706565628 0 0.4703799186058169 0.0067965832963905216 0 0.46634936328909238 -0.0054823721987209972 0 0.48300826515730871 0.0084876879706565628 0 0.46634936328909238 -0.0054823721987209972 0 0.46108062987457271 0.014904200016225279 0 0.47811359335443282 0.015222247970030909 0 0.4703799186058169 0.0067965832963905216 0 0.47811359335443282 0.015222247970030909 0 0.48300826515730871 0.0084876879706565628 0 0.4703799186058169 0.0067965832963905216 0 0.46295643311916818 0.031836546622491503 0 0.47811359335443282 0.015222247970030909 0 0.46295643311916818 0.031836546622491503 0 0.47811359335443282 0.015222247970030909 0 0.48299393258311091 0.027912339459993659 0 0.500000000000004 0.037250270748357711 0 0.48299393258311091 0.027912339459993659 0 0.5 0.0124020739474342 0 0.47811359335443282 0.015222247970030909 0 0.48299393258311091 0.027912339459993659 0 0.5 0.0124020739474342 0 0.47811359335443282 0.015222247970030909 0 0.5 0.0124020739474342 0 0.49327075358969752 -0.001392050682429716 0 0.47811359335443282 0.015222247970030909 0 0.49327075358969752 -0.001392050682429716 0 0.47811359335443282 0.015222247970030909 0 0.48300826515730871 0.0084876879706565628 0 0.49327075358969752 -0.001392050682429716 0 0.48300826515730871 0.0084876879706565628 0 0.49327075358969752 -0.001392050682429716 0 0.4813802113439114 -0.003417979918573638 0 0.5 0.0124020739474342 0 0.49327075358969752 -0.001392050682429716 0 0.5 -0.01244612285348934 0 0.49327075358969752 -0.001392050682429716 0 0.5 -0.01244612285348934 0 0.48289246333954727 -0.0152851847638004 0 0.49327075358969752 -0.001392050682429716 0 0.4813802113439114 -0.003417979918573638 0 0.48289246333954727 -0.0152851847638004 0 0.4813802113439114 -0.003417979918573638 0 0.48289246333954727 -0.0152851847638004 0 0.46634936328909238 -0.0054823721987209972 0 0.48300826515730871 0.0084876879706565628 0 0.4813802113439114 -0.003417979918573638 0 0.46634936328909238 -0.0054823721987209972 0 0.48289246333954727 -0.0152851847638004 0 0.47170768249117201 -0.028805393878638751 0 0.46634936328909238 -0.0054823721987209972 0 0.48289246333954727 -0.0152851847638004 0 0.47170768249117201 -0.028805393878638751 0 0.48697588378395862 -0.02851687936247474 0 0.5 -0.01244612285348934 0 0.48697588378395862 -0.02851687936247474 0 0.50000000000000089 -0.037294319654412877 0 0.5 -0.01244612285348934 0 0.48289246333954727 -0.0152851847638004 0 0.48697588378395862 -0.02851687936247474 0 0.48697588378395862 -0.02851687936247474 0 0.50000000000000089 -0.037294319654412877 0 0.4802792730890737 -0.048753375662032347 0 0.50000000000000089 -0.037294319654412877 0 0.4802792730890737 -0.048753375662032347 0 0.4802792730890737 -0.048753375662032347 0 0.5 -0.062695539532148681 0 0.47760945267796828 -0.064321156498220594 0 0.50000000000000089 -0.037294319654412877 0 0.4802792730890737 -0.048753375662032347 0 0.5 -0.062695539532148681 0 0.4802792730890737 -0.048753375662032347 0 0.46055854617814612 -0.060212431669651519 0 0.47760945267796828 -0.064321156498220594 0 0.4802792730890737 -0.048753375662032347 0 0.46055854617814612 -0.060212431669651519 0 0.47170768249117201 -0.028805393878638751 0 0.48697588378395862 -0.02851687936247474 0 0.4802792730890737 -0.048753375662032347 0 0.47170768249117201 -0.028805393878638751 0 0.4802792730890737 -0.048753375662032347 0 0.45658653113877212 -0.043598404764500137 0 0.47170768249117201 -0.028805393878638751 0 0.45658653113877212 -0.043598404764500137 0 0.45899186421544919 -0.026839127790256118 0 0.45658653113877212 -0.043598404764500137 0 0.44867161037407938 -0.032718900222612202 0 0.45899186421544919 -0.026839127790256118 0 0.4802792730890737 -0.048753375662032347 0 0.45658653113877212 -0.043598404764500137 0 0.46055854617814612 -0.060212431669651519 0 0.45658653113877212 -0.043598404764500137 0 0.46055854617814612 -0.060212431669651519 0 0.44824732015985902 -0.058142825035838952 0 0.45658653113877212 -0.043598404764500137 0 0.44824732015985902 -0.058142825035838952 0 0.44168415030879782 -0.051577669863923342 0 0.44824732015985902 -0.058142825035838952 0 0.44168415030879782 -0.051577669863923342 0 0.43885303495432032 -0.061523158387983001 0 0.44867161037407938 -0.032718900222612202 0 0.44119354281757939 -0.040672027585114817 0 0.43303155955265882 -0.033422492537474778 0 0.44867161037407938 -0.032718900222612202 0 0.43303155955265882 -0.033422492537474778 0 0.45658653113877212 -0.043598404764500137 0 0.44867161037407938 -0.032718900222612202 0 0.44119354281757939 -0.040672027585114817 0 0.45658653113877212 -0.043598404764500137 0 0.44168415030879782 -0.051577669863923342 0 0.44119354281757939 -0.040672027585114817 0 0.44168415030879782 -0.051577669863923342 0 0.44119354281757939 -0.040672027585114817 0 0.43184727087558672 -0.047093391488808513 0 0.44867161037407938 -0.032718900222612202 0 0.4496904614208761 -0.019452432368098529 0 0.43303155955265882 -0.033422492537474778 0 0.4496904614208761 -0.019452432368098529 0 0.43303155955265882 -0.033422492537474778 0 0.4496904614208761 -0.019452432368098529 0 0.43647993322734152 -0.017090192495124949 0 0.43303155955265882 -0.033422492537474778 0 0.44867161037407938 -0.032718900222612202 0 0.4496904614208761 -0.019452432368098529 0 0.45899186421544919 -0.026839127790256118 0 0.4455570731088791 0.0078869224280541037 0 0.44616978830999132 -0.0067247126137383838 0 0.46634936328909238 -0.0054823721987209972 0 0.4455570731088791 0.0078869224280541037 0 0.44616978830999132 -0.0067247126137383838 0 0.4281797331679516 -0.0064768029116052516 0 0.4496904614208761 -0.019452432368098529 0 0.44616978830999132 -0.0067247126137383838 0 0.43647993322734152 -0.017090192495124949 0 0.4496904614208761 -0.019452432368098529 0 0.44616978830999132 -0.0067247126137383838 0 0.46634936328909238 -0.0054823721987209972 0 0.4496904614208761 -0.019452432368098529 0 0.46634936328909238 -0.0054823721987209972 0 0.4496904614208761 -0.019452432368098529 0 0.46634936328909238 -0.0054823721987209972 0 0.45899186421544919 -0.026839127790256118 0 0.47170768249117201 -0.028805393878638751 0 0.46634936328909238 -0.0054823721987209972 0 0.45899186421544919 -0.026839127790256118 0 0.47163713788373318 -0.11271087201801989 0 0.48139964457095469 -0.1179916218699773 0 0.48031365886015742 -0.10177553107716029 0 0.47132948585385198 -0.1237168696133549 0 0.47163713788373318 -0.11271087201801989 0 0.46864714632167231 -0.12701204618258541 0 0.47132948585385198 -0.1237168696133549 0 0.47163713788373318 -0.11271087201801989 0 0.48139964457095469 -0.1179916218699773 0 0.47132948585385198 -0.1237168696133549 0 0.48139964457095469 -0.1179916218699773 0 0.47850296460072422 -0.12923472475304679 0 0.48139964457095469 -0.1179916218699773 0 0.48693253848029699 -0.1276409801415864 0 0.47850296460072422 -0.12923472475304679 0 0.48139964457095469 -0.1179916218699773 0 0.5 -0.1134979792876203 0 0.48031365886015742 -0.10177553107716029 0 0.48139964457095469 -0.1179916218699773 0 0.5 -0.1134979792876203 0 0.48693253848029699 -0.1276409801415864 0 0.5 -0.1134979792876203 0 0.48031365886015742 -0.10177553107716029 0 0.5 -0.08809675940988454 0 0.48031365886015742 -0.10177553107716029 0 0.4683974351121456 -0.086564392668117149 0 0.46101273635115742 -0.1019699136795246 0 0.47163713788373318 -0.11271087201801989 0 0.48031365886015742 -0.10177553107716029 0 0.46101273635115742 -0.1019699136795246 0 0.48031365886015742 -0.10177553107716029 0 0.48152981512055509 -0.079805302453960281 0 0.4683974351121456 -0.086564392668117149 0 0.48152981512055509 -0.079805302453960281 0 0.46698311227591582 -0.072830011536869271 0 0.4683974351121456 -0.086564392668117149 0 0.48031365886015742 -0.10177553107716029 0 0.48152981512055509 -0.079805302453960281 0 0.5 -0.08809675940988454 0 0.48152981512055509 -0.079805302453960281 0 0.5 -0.08809675940988454 0 0.5 -0.062695539532148681 0 0.48152981512055509 -0.079805302453960281 0 0.5 -0.062695539532148681 0 0.47760945267796828 -0.064321156498220594 0 0.48152981512055509 -0.079805302453960281 0 0.47760945267796828 -0.064321156498220594 0 0.46698311227591582 -0.072830011536869271 0 0.46055854617814612 -0.060212431669651519 0 0.46698311227591582 -0.072830011536869271 0 0.45337832638064052 -0.07692778117646458 0 0.46055854617814612 -0.060212431669651519 0 0.47760945267796828 -0.064321156498220594 0 0.46698311227591582 -0.072830011536869271 0 0.46055854617814612 -0.060212431669651519 0 0.45337832638064052 -0.07692778117646458 0 0.44083781926721849 -0.07167148767727069 0 0.46055854617814612 -0.060212431669651519 0 0.44824732015985902 -0.058142825035838952 0 0.44083781926721849 -0.07167148767727069 0 0.46055854617814612 -0.060212431669651519 0 0.44083781926721849 -0.07167148767727069 0 0.44824732015985902 -0.058142825035838952 0 0.43885303495432032 -0.061523158387983001 0 0.44083781926721849 -0.07167148767727069 0 0.45337832638064052 -0.07692778117646458 0 0.43838725020888852 -0.086503678625914071 0 0.4460404974401147 -0.096036006748782737 0 0.45337832638064052 -0.07692778117646458 0 0.44083781926721849 -0.07167148767727069 0 0.43838725020888852 -0.086503678625914071 0 0.45337832638064052 -0.07692778117646458 0 0.46101273635115742 -0.1019699136795246 0 0.4460404974401147 -0.096036006748782737 0 0.45337832638064052 -0.07692778117646458 0 0.4683974351121456 -0.086564392668117149 0 0.46101273635115742 -0.1019699136795246 0 0.45337832638064052 -0.07692778117646458 0 0.46101273635115742 -0.1019699136795246 0 0.46698311227591582 -0.072830011536869271 0 0.45337832638064052 -0.07692778117646458 0 0.4683974351121456 -0.086564392668117149 0 0.43838725020888852 -0.086503678625914071 0 0.4460404974401147 -0.096036006748782737 0 0.42956839586260021 -0.099823066893351298 0 0.44785577839728691 -0.114955593368659 0 0.42956839586260021 -0.099823066893351298 0 0.46101273635115742 -0.1019699136795246 0 0.4460404974401147 -0.096036006748782737 0 0.44785577839728691 -0.114955593368659 0 0.4460404974401147 -0.096036006748782737 0 0.44785577839728691 -0.114955593368659 0 0.42956839586260021 -0.099823066893351298 0 0.44785577839728691 -0.114955593368659 0 0.43613336312651968 -0.122784714366969 0 0.42956839586260021 -0.099823066893351298 0 0.44785577839728691 -0.114955593368659 0 0.43613336312651968 -0.122784714366969 0 0.45057495674546771 -0.12819946303377849 0 0.44785577839728691 -0.114955593368659 0 0.466143160931974 -0.13008811984396629 0 0.45057495674546771 -0.12819946303377849 0 0.46101273635115742 -0.1019699136795246 0 0.46864714632167231 -0.12701204618258541 0 0.44785577839728691 -0.114955593368659 0 0.466143160931974 -0.13008811984396629 0 0.44785577839728691 -0.114955593368659 0 0.46864714632167231 -0.12701204618258541 0 0.466143160931974 -0.13008811984396629 0 0.46101273635115742 -0.1019699136795246 0 0.44785577839728691 -0.114955593368659 0 0.46864714632167231 -0.12701204618258541 0 0.47163713788373318 -0.11271087201801989 0 0.46101273635115742 -0.1019699136795246 0 0.46864714632167231 -0.12701204618258541 0 0.40873754477022989 -0.1136119743593146 0 0.42215261761117978 -0.12059275905020719 0 0.41384201319835262 -0.13049276915318689 0 0.40873754477022989 -0.1136119743593146 0 0.42215261761117978 -0.12059275905020719 0 0.42956839586260021 -0.099823066893351298 0 0.42215261761117978 -0.12059275905020719 0 0.43613336312651968 -0.122784714366969 0 0.42956839586260021 -0.099823066893351298 0 0.40873754477022989 -0.1136119743593146 0 0.42956839586260021 -0.099823066893351298 0 0.41128101332791339 -0.084690540418043497 0 0.42956839586260021 -0.099823066893351298 0 0.41128101332791339 -0.084690540418043497 0 0.42956839586260021 -0.099823066893351298 0 0.41128101332791339 -0.084690540418043497 0 0.42111709235629102 -0.083130543684889882 0 0.41128101332791339 -0.084690540418043497 0 0.42111709235629102 -0.083130543684889882 0 0.41229430499283148 -0.074987740586916637 0 0.43838725020888852 -0.086503678625914071 0 0.42956839586260021 -0.099823066893351298 0 0.42111709235629102 -0.083130543684889882 0 0.44083781926721849 -0.07167148767727069 0 0.43838725020888852 -0.086503678625914071 0 0.42111709235629102 -0.083130543684889882 0 0.44083781926721849 -0.07167148767727069 0 0.42111709235629102 -0.083130543684889882 0 0.44083781926721849 -0.07167148767727069 0 0.4235948296245301 -0.071646646613971673 0 0.42852159744637658 -0.061088008813704409 0 0.44083781926721849 -0.07167148767727069 0 0.42111709235629102 -0.083130543684889882 0 0.4235948296245301 -0.071646646613971673 0 0.43885303495432032 -0.061523158387983001 0 0.44083781926721849 -0.07167148767727069 0 0.42852159744637658 -0.061088008813704409 0 0.4235948296245301 -0.071646646613971673 0 0.41248495886219261 -0.065912958274946309 0 0.42852159744637658 -0.061088008813704409 0 0.42111709235629102 -0.083130543684889882 0 0.4235948296245301 -0.071646646613971673 0 0.41229430499283148 -0.074987740586916637 0 0.4235948296245301 -0.071646646613971673 0 0.41229430499283148 -0.074987740586916637 0 0.41248495886219261 -0.065912958274946309 0 0.41248495886219261 -0.065912958274946309 0 0.39299363079323008 -0.06955801394273145 0 0.39657944895238068 -0.06399102475017196 0 0.41128101332791339 -0.084690540418043497 0 0.39299363079323008 -0.06955801394273145 0 0.41229430499283148 -0.074987740586916637 0 0.41248495886219261 -0.065912958274946309 0 0.39299363079323008 -0.06955801394273145 0 0.41128101332791339 -0.084690540418043497 0 0.41229430499283148 -0.074987740586916637 0 0.39299363079323008 -0.06955801394273145 0 0.39299363079323008 -0.06955801394273145 0 0.39657944895238068 -0.06399102475017196 0 0.38239526636350041 -0.075885799435057549 0 0.39299363079323008 -0.06955801394273145 0 0.39657944895238068 -0.06399102475017196 0 0.39657944895238068 -0.06399102475017196 0 0.38239526636350041 -0.075885799435057549 0 0.38384044741453188 -0.057119215976211141 0 0.38239526636350041 -0.075885799435057549 0 0.38384044741453188 -0.057119215976211141 0 0.38239526636350041 -0.075885799435057549 0 0.38384044741453188 -0.057119215976211141 0 0.37399656981387569 -0.062461616764116837 0 0.39299363079323008 -0.06955801394273145 0 0.38239526636350041 -0.075885799435057549 0 0.38150957732531399 -0.08738702777030849 0 0.39657944895238068 -0.06399102475017196 0 0.38239526636350041 -0.075885799435057549 0 0.38239526636350041 -0.075885799435057549 0 0.37399656981387569 -0.062461616764116837 0 0.37187821865404541 -0.073385226930072572 0 0.38239526636350041 -0.075885799435057549 0 0.37187821865404541 -0.073385226930072572 0 0.37250813375658048 -0.084177092493506564 0 0.39299363079323008 -0.06955801394273145 0 0.38150957732531399 -0.08738702777030849 0 0.38239526636350041 -0.075885799435057549 0 0.38150957732531399 -0.08738702777030849 0 0.38239526636350041 -0.075885799435057549 0 0.38150957732531399 -0.08738702777030849 0 0.37250813375658048 -0.084177092493506564 0 0.38239526636350041 -0.075885799435057549 0 0.37250813375658048 -0.084177092493506564 0 0.41128101332791339 -0.084690540418043497 0 0.39299363079323008 -0.06955801394273145 0 0.38150957732531399 -0.08738702777030849 0 0.41128101332791339 -0.084690540418043497 0 0.38150957732531399 -0.08738702777030849 0 0.39521797991419982 -0.1003001884103957 0 0.40873754477022989 -0.1136119743593146 0 0.41128101332791339 -0.084690540418043497 0 0.39521797991419982 -0.1003001884103957 0 0.38150957732531399 -0.08738702777030849 0 0.37934378423334508 -0.1155112110939164 0 0.38150957732531399 -0.08738702777030849 0 0.39521797991419982 -0.1003001884103957 0 0.37934378423334508 -0.1155112110939164 0 0.38150957732531399 -0.08738702777030849 0 0.36944154193379142 -0.1061226745929468 0 0.38150957732531399 -0.08738702777030849 0 0.37934378423334508 -0.1155112110939164 0 0.36944154193379142 -0.1061226745929468 0 0.37934378423334508 -0.1155112110939164 0 0.37832409813727819 -0.1287524753701009 0 0.37934378423334508 -0.1155112110939164 0 0.37648634552666121 -0.128162964220709 0 0.37832409813727819 -0.1287524753701009 0 0.40873754477022989 -0.1136119743593146 0 0.37934378423334508 -0.1155112110939164 0 0.40097204220777982 -0.13601744425832429 0 0.40873754477022989 -0.1136119743593146 0 0.39521797991419982 -0.1003001884103957 0 0.37934378423334508 -0.1155112110939164 0 0.41080239322702422 -0.02084052825126461 0 0.4157690902138424 -0.034199071904189783 0 0.39342505328609723 -0.035204253590924661 0 0.41080239322702422 -0.02084052825126461 0 0.4281797331679516 -0.0064768029116052516 0 0.42480147490818532 -0.020176278292046369 0 0.41080239322702422 -0.02084052825126461 0 0.42480147490818532 -0.020176278292046369 0 0.4157690902138424 -0.034199071904189783 0 0.42480147490818532 -0.020176278292046369 0 0.4157690902138424 -0.034199071904189783 0 0.41080239322702422 -0.02084052825126461 0 0.4281797331679516 -0.0064768029116052516 0 0.41080239322702422 -0.02084052825126461 0 0.41457330589103508 -0.0066433149314555368 0 0.400196106343358 -0.0076650283668836059 0 0.41080239322702422 -0.02084052825126461 0 0.41457330589103508 -0.0066433149314555368 0 0.4281797331679516 -0.0064768029116052516 0 0.41009497645066811 0.0039050710386491299 0 0.41457330589103508 -0.0066433149314555368 0 0.400196106343358 -0.0076650283668836059 0 0.41897626367806479 0.00066143370406012173 0 0.41457330589103508 -0.0066433149314555368 0 0.4281797331679516 -0.0064768029116052516 0 0.41009497645066811 0.0039050710386491299 0 0.41897626367806479 0.00066143370406012173 0 0.41457330589103508 -0.0066433149314555368 0 0.44616978830999132 -0.0067247126137383838 0 0.4281797331679516 -0.0064768029116052516 0 0.43647993322734152 -0.017090192495124949 0 0.4281797331679516 -0.0064768029116052516 0 0.43647993322734152 -0.017090192495124949 0 0.42480147490818532 -0.020176278292046369 0 0.42480147490818532 -0.020176278292046369 0 0.43303155955265882 -0.033422492537474778 0 0.4157690902138424 -0.034199071904189783 0 0.43647993322734152 -0.017090192495124949 0 0.42480147490818532 -0.020176278292046369 0 0.43303155955265882 -0.033422492537474778 0 0.43303155955265882 -0.033422492537474778 0 0.43184727087558672 -0.047093391488808513 0 0.41480550425252027 -0.048706758643823921 0 0.43303155955265882 -0.033422492537474778 0 0.4157690902138424 -0.034199071904189783 0 0.43303155955265882 -0.033422492537474778 0 0.41480550425252027 -0.048706758643823921 0 0.44119354281757939 -0.040672027585114817 0 0.43303155955265882 -0.033422492537474778 0 0.43184727087558672 -0.047093391488808513 0 0.43184727087558672 -0.047093391488808513 0 0.42852159744637658 -0.061088008813704409 0 0.41480550425252027 -0.048706758643823921 0 0.44168415030879782 -0.051577669863923342 0 0.43885303495432032 -0.061523158387983001 0 0.42852159744637658 -0.061088008813704409 0 0.44168415030879782 -0.051577669863923342 0 0.43184727087558672 -0.047093391488808513 0 0.42852159744637658 -0.061088008813704409 0 0.41248495886219261 -0.065912958274946309 0 0.42852159744637658 -0.061088008813704409 0 0.41480550425252027 -0.048706758643823921 0 0.41248495886219261 -0.065912958274946309 0 0.39657944895238068 -0.06399102475017196 0 0.41480550425252027 -0.048706758643823921 0 0.43303155955265882 -0.033422492537474778 0 0.41480550425252027 -0.048706758643823921 0 0.4157690902138424 -0.034199071904189783 0 0.41480550425252027 -0.048706758643823921 0 0.4157690902138424 -0.034199071904189783 0 0.40617426958311242 -0.049095048327181312 0 0.4157690902138424 -0.034199071904189783 0 0.40617426958311242 -0.049095048327181312 0 0.4157690902138424 -0.034199071904189783 0 0.39342505328609723 -0.035204253590924661 0 0.4157690902138424 -0.034199071904189783 0 0.39342505328609723 -0.035204253590924661 0 0.40617426958311242 -0.049095048327181312 0 0.39342505328609723 -0.035204253590924661 0 0.40617426958311242 -0.049095048327181312 0 0.39272973982143422 -0.049801373967598893 0 0.39657944895238068 -0.06399102475017196 0 0.41480550425252027 -0.048706758643823921 0 0.39657944895238068 -0.06399102475017196 0 0.41480550425252027 -0.048706758643823921 0 0.40617426958311242 -0.049095048327181312 0 0.39657944895238068 -0.06399102475017196 0 0.40617426958311242 -0.049095048327181312 0 0.39657944895238068 -0.06399102475017196 0 0.40617426958311242 -0.049095048327181312 0 0.39272973982143422 -0.049801373967598893 0 0.39657944895238068 -0.06399102475017196 0 0.39272973982143422 -0.049801373967598893 0 0.38384044741453188 -0.057119215976211141 0 0.39272973982143422 -0.049801373967598893 0 0.38384044741453188 -0.057119215976211141 0 0.3818667058031962 -0.044758128302997073 0 0.38384044741453188 -0.057119215976211141 0 0.37599297436973311 -0.05025206290640493 0 0.3818667058031962 -0.044758128302997073 0 0.38384044741453188 -0.057119215976211141 0 0.37599297436973311 -0.05025206290640493 0 0.37399656981387569 -0.062461616764116837 0 0.39342505328609723 -0.035204253590924661 0 0.3818667058031962 -0.044758128302997073 0 0.37408676880857261 -0.036074216770478298 0 0.39342505328609723 -0.035204253590924661 0 0.38277589814286372 -0.02608624261155006 0 0.37408676880857261 -0.036074216770478298 0 0.39342505328609723 -0.035204253590924661 0 0.37408676880857261 -0.036074216770478298 0 0.39342505328609723 -0.035204253590924661 0 0.39272973982143422 -0.049801373967598893 0 0.3818667058031962 -0.044758128302997073 0 0.39342505328609723 -0.035204253590924661 0 0.3818667058031962 -0.044758128302997073 0 0.37599297436973311 -0.05025206290640493 0 0.3818667058031962 -0.044758128302997073 0 0.37408676880857261 -0.036074216770478298 0 0.38277589814286372 -0.02608624261155006 0 0.37898781164764822 -0.01117852005808853 0 0.36533524944456658 -0.023406129650250369 0 0.38277589814286372 -0.02608624261155006 0 0.39406158510810507 -0.020900816615938692 0 0.37898781164764822 -0.01117852005808853 0 0.39342505328609723 -0.035204253590924661 0 0.38277589814286372 -0.02608624261155006 0 0.39406158510810507 -0.020900816615938692 0 0.41080239322702422 -0.02084052825126461 0 0.39406158510810507 -0.020900816615938692 0 0.400196106343358 -0.0076650283668836059 0 0.41080239322702422 -0.02084052825126461 0 0.39342505328609723 -0.035204253590924661 0 0.39406158510810507 -0.020900816615938692 0 0.41080239322702422 -0.02084052825126461 0 0.39342505328609723 -0.035204253590924661 0 0.39406158510810507 -0.020900816615938692 0 0.400196106343358 -0.0076650283668836059 0 0.37898781164764822 -0.01117852005808853 0 0.39265656573566748 0.0096679386167966043 0 0.400196106343358 -0.0076650283668836059 0 0.37898781164764822 -0.01117852005808853 0 0.35915158492916199 0.0079260634808653013 0 0.37898781164764822 -0.01117852005808853 0 0.35556673563382762 -0.0092385748170215991 0 0.37898781164764822 -0.01117852005808853 0 0.35556673563382762 -0.0092385748170215991 0 0.37898781164764822 -0.01117852005808853 0 0.36533524944456658 -0.023406129650250369 0 0.35556673563382762 -0.0092385748170215991 0 0.38277589814286372 -0.02608624261155006 0 0.36533524944456658 -0.023406129650250369 0 0.37408676880857261 -0.036074216770478298 0 0.36533524944456658 -0.023406129650250369 0 0.34528392997144841 -0.02065693021093791 0 0.35474848433104789 -0.036944179950031242 0 0.34528392997144841 -0.02065693021093791 0 0.33877122988932418 -0.030413225822010458 0 0.35474848433104789 -0.036944179950031242 0 0.36533524944456658 -0.023406129650250369 0 0.34528392997144841 -0.02065693021093791 0 0.35556673563382762 -0.0092385748170215991 0 0.35556673563382762 -0.0092385748170215991 0 0.33214565962000692 -0.0072986295759546668 0 0.34528392997144841 -0.02065693021093791 0 0.35556673563382762 -0.0092385748170215991 0 0.33214565962000692 -0.0072986295759546668 0 0.33938907275826552 0.01063358945049037 0 0.35556673563382762 -0.0092385748170215991 0 0.33214565962000692 -0.0072986295759546668 0 0.33214565962000692 -0.0072986295759546668 0 0.33104291587925999 -0.019261687345335309 0 0.32393707334895128 -0.014693251642263139 0 0.34528392997144841 -0.02065693021093791 0 0.33214565962000692 -0.0072986295759546668 0 0.33104291587925999 -0.019261687345335309 0 0.34528392997144841 -0.02065693021093791 0 0.33877122988932418 -0.030413225822010458 0 0.33104291587925999 -0.019261687345335309 0 0.33877122988932418 -0.030413225822010458 0 0.33104291587925999 -0.019261687345335309 0 0.32383513429035082 -0.02685400531287762 0 0.32383513429035082 -0.02685400531287762 0 0.32393707334895128 -0.014693251642263139 0 0.30872458360618632 -0.0053586843348857188 0 0.33104291587925999 -0.019261687345335309 0 0.32383513429035082 -0.02685400531287762 0 0.32393707334895128 -0.014693251642263139 0 0.31889935370817962 -0.030288399934848029 0 0.32383513429035082 -0.02685400531287762 0 0.30669332649862419 -0.01109586361129177 0 0.31889935370817962 -0.030288399934848029 0 0.314442955565715 -0.037553256275193167 0 0.30669332649862419 -0.01109586361129177 0 0.31889935370817962 -0.030288399934848029 0 0.30669332649862419 -0.01109586361129177 0 0.32383513429035082 -0.02685400531287762 0 0.30872458360618632 -0.0053586843348857188 0 0.32383513429035082 -0.02685400531287762 0 0.30669332649862419 -0.01109586361129177 0 0.30872458360618632 -0.0053586843348857188 0 0.33214565962000692 -0.0072986295759546668 0 0.32393707334895128 -0.014693251642263139 0 0.30872458360618632 -0.0053586843348857188 0 0.33214565962000692 -0.0072986295759546668 0 0.30872458360618632 -0.0053586843348857188 0 0.31483687449220549 0.002832224057131111 0 0.33214565962000692 -0.0072986295759546668 0 0.30872458360618632 -0.0053586843348857188 0 0.314442955565715 -0.037553256275193167 0 0.32219258463280592 -0.064010648939094514 0 0.30365769883117838 -0.044217921006371709 0 0.314442955565715 -0.037553256275193167 0 0.33894568497451411 -0.048349326290870208 0 0.32219258463280592 -0.064010648939094514 0 0.314442955565715 -0.037553256275193167 0 0.32219258463280592 -0.064010648939094514 0 0.31889935370817962 -0.030288399934848029 0 0.314442955565715 -0.037553256275193167 0 0.33894568497451411 -0.048349326290870208 0 0.31889935370817962 -0.030288399934848029 0 0.32383513429035082 -0.02685400531287762 0 0.33894568497451411 -0.048349326290870208 0 0.32383513429035082 -0.02685400531287762 0 0.33894568497451411 -0.048349326290870208 0 0.33877122988932418 -0.030413225822010458 0 0.32383513429035082 -0.02685400531287762 0 0.33894568497451411 -0.048349326290870208 0 0.33894568497451411 -0.048349326290870208 0 0.34490711484355979 -0.064050126546692704 0 0.32219258463280592 -0.064010648939094514 0 0.33894568497451411 -0.048349326290870208 0 0.35316174971769271 -0.051119266768919133 0 0.34490711484355979 -0.064050126546692704 0 0.35316174971769271 -0.051119266768919133 0 0.36341508881179929 -0.06554338567096013 0 0.34490711484355979 -0.064050126546692704 0 0.33894568497451411 -0.048349326290870208 0 0.35316174971769271 -0.051119266768919133 0 0.35474848433104789 -0.036944179950031242 0 0.33877122988932418 -0.030413225822010458 0 0.33894568497451411 -0.048349326290870208 0 0.35474848433104789 -0.036944179950031242 0 0.35316174971769271 -0.051119266768919133 0 0.35474848433104789 -0.036944179950031242 0 0.36617438000848901 -0.050847136718221247 0 0.36533524944456658 -0.023406129650250369 0 0.35474848433104789 -0.036944179950031242 0 0.37408676880857261 -0.036074216770478298 0 0.35474848433104789 -0.036944179950031242 0 0.37408676880857261 -0.036074216770478298 0 0.35474848433104789 -0.036944179950031242 0 0.37408676880857261 -0.036074216770478298 0 0.36617438000848901 -0.050847136718221247 0 0.37599297436973311 -0.05025206290640493 0 0.37408676880857261 -0.036074216770478298 0 0.36617438000848901 -0.050847136718221247 0 0.35316174971769271 -0.051119266768919133 0 0.36617438000848901 -0.050847136718221247 0 0.36341508881179929 -0.06554338567096013 0 0.37599297436973311 -0.05025206290640493 0 0.36617438000848901 -0.050847136718221247 0 0.37399656981387569 -0.062461616764116837 0 0.36617438000848901 -0.050847136718221247 0 0.37399656981387569 -0.062461616764116837 0 0.36341508881179929 -0.06554338567096013 0 0.37399656981387569 -0.062461616764116837 0 0.36341508881179929 -0.06554338567096013 0 0.37187821865404541 -0.073385226930072572 0 0.36341508881179929 -0.06554338567096013 0 0.36468605026092138 -0.077765137298670184 0 0.3535392414215866 -0.078255762911707952 0 0.36341508881179929 -0.06554338567096013 0 0.36468605026092138 -0.077765137298670184 0 0.37187821865404541 -0.073385226930072572 0 0.36468605026092138 -0.077765137298670184 0 0.37187821865404541 -0.073385226930072572 0 0.37250813375658048 -0.084177092493506564 0 0.38150957732531399 -0.08738702777030849 0 0.37250813375658048 -0.084177092493506564 0 0.36935991114130579 -0.092701560101932076 0 0.37250813375658048 -0.084177092493506564 0 0.36935991114130579 -0.092701560101932076 0 0.36208956866059511 -0.087464218487103743 0 0.36935991114130579 -0.092701560101932076 0 0.36208956866059511 -0.087464218487103743 0 0.36125073403024882 -0.098356787165794463 0 0.36468605026092138 -0.077765137298670184 0 0.36208956866059511 -0.087464218487103743 0 0.3535392414215866 -0.078255762911707952 0 0.36468605026092138 -0.077765137298670184 0 0.37250813375658048 -0.084177092493506564 0 0.36208956866059511 -0.087464218487103743 0 0.36208956866059511 -0.087464218487103743 0 0.3535392414215866 -0.078255762911707952 0 0.34702771845632119 -0.094184473173097499 0 0.3535392414215866 -0.078255762911707952 0 0.34702771845632119 -0.094184473173097499 0 0.33818833950296079 -0.077022368698604363 0 0.36208956866059511 -0.087464218487103743 0 0.36125073403024882 -0.098356787165794463 0 0.34702771845632119 -0.094184473173097499 0 0.36341508881179929 -0.06554338567096013 0 0.3535392414215866 -0.078255762911707952 0 0.34490711484355979 -0.064050126546692704 0 0.3535392414215866 -0.078255762911707952 0 0.34490711484355979 -0.064050126546692704 0 0.33818833950296079 -0.077022368698604363 0 0.36470071927033793 -0.113482810372266 0 0.35888227241674919 -0.1225159596603199 0 0.37648634552666121 -0.128162964220709 0 0.36470071927033793 -0.113482810372266 0 0.35888227241674919 -0.1225159596603199 0 0.37934378423334508 -0.1155112110939164 0 0.36470071927033793 -0.113482810372266 0 0.37648634552666121 -0.128162964220709 0 0.36470071927033793 -0.113482810372266 0 0.37648634552666121 -0.128162964220709 0 0.37934378423334508 -0.1155112110939164 0 0.36944154193379142 -0.1061226745929468 0 0.37934378423334508 -0.1155112110939164 0 0.36470071927033793 -0.113482810372266 0 0.36944154193379142 -0.1061226745929468 0 0.36470071927033793 -0.113482810372266 0 0.36065067066371759 -0.1085348234248332 0 0.36944154193379142 -0.1061226745929468 0 0.36470071927033793 -0.113482810372266 0 0.36065067066371759 -0.1085348234248332 0 0.35888227241674919 -0.1225159596603199 0 0.36470071927033793 -0.113482810372266 0 0.36944154193379142 -0.1061226745929468 0 0.38150957732531399 -0.08738702777030849 0 0.36935991114130579 -0.092701560101932076 0 0.36944154193379142 -0.1061226745929468 0 0.36944154193379142 -0.1061226745929468 0 0.36125073403024882 -0.098356787165794463 0 0.36065067066371759 -0.1085348234248332 0 0.36944154193379142 -0.1061226745929468 0 0.36125073403024882 -0.098356787165794463 0 0.36935991114130579 -0.092701560101932076 0 0.36944154193379142 -0.1061226745929468 0 0.36125073403024882 -0.098356787165794463 0 0.36125073403024882 -0.098356787165794463 0 0.34702771845632119 -0.094184473173097499 0 0.35302813427408081 -0.1071438722802712 0 0.34702771845632119 -0.094184473173097499 0 0.34386591217427331 -0.1067764981182672 0 0.35302813427408081 -0.1071438722802712 0 0.34386591217427331 -0.1067764981182672 0 0.35302813427408081 -0.1071438722802712 0 0.34906382797694252 -0.11318166604912611 0 0.36065067066371759 -0.1085348234248332 0 0.36125073403024882 -0.098356787165794463 0 0.35302813427408081 -0.1071438722802712 0 0.34906382797694252 -0.11318166604912611 0 0.35888227241674919 -0.1225159596603199 0 0.34270678016947698 -0.11732721283357429 0 0.35888227241674919 -0.1225159596603199 0 0.34270678016947698 -0.11732721283357429 0 0.36065067066371759 -0.1085348234248332 0 0.35302813427408081 -0.1071438722802712 0 0.35888227241674919 -0.1225159596603199 0 0.35302813427408081 -0.1071438722802712 0 0.34906382797694252 -0.11318166604912611 0 0.35888227241674919 -0.1225159596603199 0 0.34386591217427331 -0.1067764981182672 0 0.34906382797694252 -0.11318166604912611 0 0.34270678016947698 -0.11732721283357429 0 0.34386591217427331 -0.1067764981182672 0 0.34270678016947698 -0.11732721283357429 0 0.33769184276698749 -0.116925434266897 0 0.33769184276698749 -0.116925434266897 0 0.32994221369989668 -0.090468041602995874 0 0.34386591217427331 -0.1067764981182672 0 0.33769184276698749 -0.116925434266897 0 0.32994221369989668 -0.090468041602995874 0 0.34702771845632119 -0.094184473173097499 0 0.34386591217427331 -0.1067764981182672 0 0.32994221369989668 -0.090468041602995874 0 0.3146630019107105 -0.1111230659484212 0 0.32994221369989668 -0.090468041602995874 0 0.30545681348555331 -0.08539399450045429 0 0.33769184276698749 -0.116925434266897 0 0.3146630019107105 -0.1111230659484212 0 0.32994221369989668 -0.090468041602995874 0 0.33769184276698749 -0.116925434266897 0 0.3146630019107105 -0.1111230659484212 0 0.32386919033586758 -0.1368521373963881 0 0.3146630019107105 -0.1111230659484212 0 0.32386919033586758 -0.1368521373963881 0 0.34490711484355979 -0.064050126546692704 0 0.33818833950296079 -0.077022368698604363 0 0.32219258463280592 -0.064010648939094514 0 0.33818833950296079 -0.077022368698604363 0 0.32994221369989668 -0.090468041602995874 0 0.32219258463280592 -0.064010648939094514 0 0.34702771845632119 -0.094184473173097499 0 0.33818833950296079 -0.077022368698604363 0 0.32994221369989668 -0.090468041602995874 0 0.32994221369989668 -0.090468041602995874 0 0.30858649601180399 -0.070602618650759327 0 0.30545681348555331 -0.08539399450045429 0 0.32994221369989668 -0.090468041602995874 0 0.32219258463280592 -0.064010648939094514 0 0.32994221369989668 -0.090468041602995874 0 0.32219258463280592 -0.064010648939094514 0 0.30858649601180399 -0.070602618650759327 0 0.30545681348555331 -0.08539399450045429 0 0.29625062506039618 -0.059664923052487322 0 0.30858649601180399 -0.070602618650759327 0 0.30545681348555331 -0.08539399450045429 0 0.29625062506039618 -0.059664923052487322 0 0.32219258463280592 -0.064010648939094514 0 0.30858649601180399 -0.070602618650759327 0 0.30235244850459853 -0.056828862303271242 0 0.30545681348555331 -0.08539399450045429 0 0.28549220902505718 -0.085593347451699581 0 0.29525068796770942 -0.1030030443394792 0 0.27330550655162361 -0.070329562989045025 0 0.29123141869238939 -0.060550841264584279 0 0.29625062506039618 -0.059664923052487322 0 0.27330550655162361 -0.070329562989045025 0 0.29625062506039618 -0.059664923052487322 0 0.30545681348555331 -0.08539399450045429 0 0.28549220902505718 -0.085593347451699581 0 0.29625062506039618 -0.059664923052487322 0 0.28549220902505718 -0.085593347451699581 0 0.27330550655162361 -0.070329562989045025 0 0.29625062506039618 -0.059664923052487322 0 0.3146630019107105 -0.1111230659484212 0 0.29525068796770942 -0.1030030443394792 0 0.29513323820690268 -0.1273986056088563 0 0.3146630019107105 -0.1111230659484212 0 0.30545681348555331 -0.08539399450045429 0 0.29525068796770942 -0.1030030443394792 0 0.3146630019107105 -0.1111230659484212 0 0.30545681348555331 -0.08539399450045429 0 0.28549220902505718 -0.085593347451699581 0 0.29525068796770942 -0.1030030443394792 0 0.27550817721032361 -0.1055062081879647 0 0.29525068796770942 -0.1030030443394792 0 0.27550817721032361 -0.1055062081879647 0 0.29513323820690268 -0.1273986056088563 0 0.27550817721032361 -0.1055062081879647 0 0.26546892566193231 -0.1358239841599812 0 0.29513323820690268 -0.1273986056088563 0 0.27550817721032361 -0.1055062081879647 0 0.26670448122355611 -0.089867910678253088 0 0.24773076343232489 -0.11194471229237909 0 0.26670448122355611 -0.089867910678253088 0 0.25036038804285082 -0.080994202925602082 0 0.24773076343232489 -0.11194471229237909 0 0.27550817721032361 -0.1055062081879647 0 0.26546892566193231 -0.1358239841599812 0 0.24773076343232489 -0.11194471229237909 0 0.27330550655162361 -0.070329562989045025 0 0.25751068913328939 -0.063954986009077994 0 0.26833522515522229 -0.056596875488382742 0 0.28549220902505718 -0.085593347451699581 0 0.27330550655162361 -0.070329562989045025 0 0.26670448122355611 -0.089867910678253088 0 0.28549220902505718 -0.085593347451699581 0 0.27550817721032361 -0.1055062081879647 0 0.26670448122355611 -0.089867910678253088 0 0.27330550655162361 -0.070329562989045025 0 0.26670448122355611 -0.089867910678253088 0 0.25036038804285082 -0.080994202925602082 0 0.27330550655162361 -0.070329562989045025 0 0.25036038804285082 -0.080994202925602082 0 0.27330550655162361 -0.070329562989045025 0 0.25036038804285082 -0.080994202925602082 0 0.25751068913328939 -0.063954986009077994 0 0.25751068913328939 -0.063954986009077994 0 0.25824058407494688 -0.049435220191031921 0 0.24438717338176699 -0.054105405518205238 0 0.25824058407494688 -0.049435220191031921 0 0.24438717338176699 -0.054105405518205238 0 0.2480947890546242 -0.045966293254975567 0 0.25751068913328939 -0.063954986009077994 0 0.25824058407494688 -0.049435220191031921 0 0.26833522515522229 -0.056596875488382742 0 0.27330550655162361 -0.070329562989045025 0 0.26833522515522229 -0.056596875488382742 0 0.28127593121444222 -0.053273343437439821 0 0.25824058407494688 -0.049435220191031921 0 0.26833522515522229 -0.056596875488382742 0 0.27134341480180918 -0.0459912648153189 0 0.26833522515522229 -0.056596875488382742 0 0.27134341480180918 -0.0459912648153189 0 0.28127593121444222 -0.053273343437439821 0 0.28068685106863189 -0.042768739469615367 0 0.27134341480180918 -0.0459912648153189 0 0.28127593121444222 -0.053273343437439821 0 0.28068685106863189 -0.042768739469615367 0 0.2725116089567366 -0.034929080799236727 0 0.28729972284974359 -0.03464931486959115 0 0.28068685106863189 -0.042768739469615367 0 0.27134341480180918 -0.0459912648153189 0 0.2725116089567366 -0.034929080799236727 0 0.27134341480180918 -0.0459912648153189 0 0.2725116089567366 -0.034929080799236727 0 0.26400378617379933 -0.040408361231744232 0 0.2725116089567366 -0.034929080799236727 0 0.26074657356094638 -0.032086525775053033 0 0.26400378617379933 -0.040408361231744232 0 0.26074657356094638 -0.032086525775053033 0 0.26400378617379933 -0.040408361231744232 0 0.25117533351094129 -0.037336580867862117 0 0.25824058407494688 -0.049435220191031921 0 0.27134341480180918 -0.0459912648153189 0 0.26400378617379933 -0.040408361231744232 0 0.25824058407494688 -0.049435220191031921 0 0.25117533351094129 -0.037336580867862117 0 0.2480947890546242 -0.045966293254975567 0 0.25824058407494688 -0.049435220191031921 0 0.26400378617379933 -0.040408361231744232 0 0.25117533351094129 -0.037336580867862117 0 0.26074657356094638 -0.032086525775053033 0 0.25117533351094129 -0.037336580867862117 0 0.25496149132205381 -0.026198307184793539 0 0.25117533351094129 -0.037336580867862117 0 0.25496149132205381 -0.026198307184793539 0 0.24692454306444639 -0.027596528692534771 0 0.25496149132205381 -0.026198307184793539 0 0.25819897443239292 -0.01703612764640754 0 0.24759495222635161 -0.018769166369227801 0 0.25819897443239292 -0.01703612764640754 0 0.26546566106218578 -0.023898857826792481 0 0.26853358871840749 -0.012269336606309319 0 0.25496149132205381 -0.026198307184793539 0 0.25819897443239292 -0.01703612764640754 0 0.26546566106218578 -0.023898857826792481 0 0.26074657356094638 -0.032086525775053033 0 0.25496149132205381 -0.026198307184793539 0 0.26546566106218578 -0.023898857826792481 0 0.25819897443239292 -0.01703612764640754 0 0.25588371482308608 -0.0061647016811608134 0 0.24759495222635161 -0.018769166369227801 0 0.25819897443239292 -0.01703612764640754 0 0.25588371482308608 -0.0061647016811608134 0 0.26853358871840749 -0.012269336606309319 0 0.27598913265549041 0.002700792776901364 0 0.25588371482308608 -0.0061647016811608134 0 0.26853358871840749 -0.012269336606309319 0 0.27598913265549041 0.002700792776901364 0 0.26853358871840749 -0.012269336606309319 0 0.2905643360198632 -0.0150224844328585 0 0.26853358871840749 -0.012269336606309319 0 0.27662353418633168 -0.02384655221281862 0 0.2905643360198632 -0.0150224844328585 0 0.2725116089567366 -0.034929080799236727 0 0.26546566106218578 -0.023898857826792481 0 0.27662353418633168 -0.02384655221281862 0 0.2725116089567366 -0.034929080799236727 0 0.26074657356094638 -0.032086525775053033 0 0.26546566106218578 -0.023898857826792481 0 0.26546566106218578 -0.023898857826792481 0 0.26853358871840749 -0.012269336606309319 0 0.27662353418633168 -0.02384655221281862 0 0.2725116089567366 -0.034929080799236727 0 0.27662353418633168 -0.02384655221281862 0 0.28729972284974359 -0.03464931486959115 0 0.27662353418633168 -0.02384655221281862 0 0.2905643360198632 -0.0150224844328585 0 0.28729972284974359 -0.03464931486959115 0 0.2905643360198632 -0.0150224844328585 0 0.30081408358685557 -0.02758551104699267 0 0.29100357752042838 -0.045000693426490247 0 0.2905643360198632 -0.0150224844328585 0 0.29100357752042838 -0.045000693426490247 0 0.2905643360198632 -0.0150224844328585 0 0.29852260708532452 -0.01262284752975068 0 0.30081408358685557 -0.02758551104699267 0 0.29012509451929769 0.0149557245607731 0 0.2905643360198632 -0.0150224844328585 0 0.29725171961803792 -0.0044083980251518858 0 0.29012509451929769 0.0149557245607731 0 0.2905643360198632 -0.0150224844328585 0 0.2905643360198632 -0.0150224844328585 0 0.29725171961803792 -0.0044083980251518858 0 0.29852260708532452 -0.01262284752975068 0 0.30236152105378 0.0036930090696695372 0 0.30272876338121668 -0.0048620563018758464 0 0.30492055949125441 -0.0050436006694624426 0 0.29725171961803792 -0.0044083980251518858 0 0.30272876338121668 -0.0048620563018758464 0 0.29852260708532452 -0.01262284752975068 0 0.30236152105378 0.0036930090696695372 0 0.30492055949125441 -0.0050436006694624426 0 0.29725171961803792 -0.0044083980251518858 0 0.30272876338121668 -0.0048620563018758464 0 0.30272876338121668 -0.0048620563018758464 0 0.30492055949125441 -0.0050436006694624426 0 0.30272876338121668 -0.0048620563018758464 0 0.29852260708532452 -0.01262284752975068 0 0.30669332649862419 -0.01109586361129177 0 0.30669332649862419 -0.01109586361129177 0 0.30492055949125441 -0.0050436006694624426 0 0.30272876338121668 -0.0048620563018758464 0 0.30669332649862419 -0.01109586361129177 0 0.30236152105378 0.0036930090696695372 0 0.30872458360618632 -0.0053586843348857188 0 0.30236152105378 0.0036930090696695372 0 0.30492055949125441 -0.0050436006694624426 0 0.30872458360618632 -0.0053586843348857188 0 0.30669332649862419 -0.01109586361129177 0 0.30492055949125441 -0.0050436006694624426 0 0.30872458360618632 -0.0053586843348857188 0 0.30272876338121668 -0.0048620563018758464 0 0.30669332649862419 -0.01109586361129177 0 0.30492055949125441 -0.0050436006694624426 0 0.30492055949125441 -0.0050436006694624426 0 0.30872458360618632 -0.0053586843348857188 0 0.314442955565715 -0.037553256275193167 0 0.30669332649862419 -0.01109586361129177 0 0.314442955565715 -0.037553256275193167 0 0.30669332649862419 -0.01109586361129177 0 0.30081408358685557 -0.02758551104699267 0 0.29852260708532452 -0.01262284752975068 0 0.30669332649862419 -0.01109586361129177 0 0.30081408358685557 -0.02758551104699267 0 0.30081408358685557 -0.02758551104699267 0 0.30365769883117838 -0.044217921006371709 0 0.29100357752042838 -0.045000693426490247 0 0.314442955565715 -0.037553256275193167 0 0.30081408358685557 -0.02758551104699267 0 0.30365769883117838 -0.044217921006371709 0 0.32219258463280592 -0.064010648939094514 0 0.30365769883117838 -0.044217921006371709 0 0.30235244850459853 -0.056828862303271242 0 0.30858649601180399 -0.070602618650759327 0 0.30235244850459853 -0.056828862303271242 0 0.29625062506039618 -0.059664923052487322 0 0.30235244850459853 -0.056828862303271242 0 0.29625062506039618 -0.059664923052487322 0 0.30365769883117838 -0.044217921006371709 0 0.30235244850459853 -0.056828862303271242 0 0.29100357752042838 -0.045000693426490247 0 0.30235244850459853 -0.056828862303271242 0 0.29625062506039618 -0.059664923052487322 0 0.29100357752042838 -0.045000693426490247 0 0.29123141869238939 -0.060550841264584279 0 0.29100357752042838 -0.045000693426490247 0 0.27330550655162361 -0.070329562989045025 0 0.29123141869238939 -0.060550841264584279 0 0.28127593121444222 -0.053273343437439821 0 0.29625062506039618 -0.059664923052487322 0 0.29100357752042838 -0.045000693426490247 0 0.29123141869238939 -0.060550841264584279 0 0.29625062506039618 -0.059664923052487322 0 0.29100357752042838 -0.045000693426490247 0 0.29123141869238939 -0.060550841264584279 0 0.28127593121444222 -0.053273343437439821 0 0.29100357752042838 -0.045000693426490247 0 0.28068685106863189 -0.042768739469615367 0 0.28127593121444222 -0.053273343437439821 0 0.29100357752042838 -0.045000693426490247 0 0.2905643360198632 -0.0150224844328585 0 0.28729972284974359 -0.03464931486959115 0 0.29100357752042838 -0.045000693426490247 0 0.28068685106863189 -0.042768739469615367 0 0.28729972284974359 -0.03464931486959115 0 0.29100357752042838 -0.045000693426490247 0 0.28729972284974359 -0.03464931486959115 0 0.29100357752042838 -0.045000693426490247 0 0.28323921807590452 -0.21471415656553139 0 0.29353611780662697 -0.19008435279266181 0 0.3035329552806848 -0.20558737528796089 0 0.28323921807590452 -0.21471415656553139 0 0.3035329552806848 -0.20558737528796089 0 0.29748256776229581 -0.220886853963117 0 0.28323921807590452 -0.21471415656553139 0 0.29353611780662697 -0.19008435279266181 0 0.26925372904517608 -0.19003272049834211 0 0.29353611780662697 -0.19008435279266181 0 0.31208084341075332 -0.19009786032476589 0 0.3035329552806848 -0.20558737528796089 0 0.31208084341075332 -0.19009786032476589 0 0.3035329552806848 -0.20558737528796089 0 0.31892108884509601 -0.20466356123903129 0 0.3035329552806848 -0.20558737528796089 0 0.3114159520914474 -0.21134282389962489 0 0.31892108884509601 -0.20466356123903129 0 0.3035329552806848 -0.20558737528796089 0 0.30663479565466278 -0.21847385935877339 0 0.29748256776229581 -0.220886853963117 0 0.3035329552806848 -0.20558737528796089 0 0.3114159520914474 -0.21134282389962489 0 0.30663479565466278 -0.21847385935877339 0 0.3114159520914474 -0.21134282389962489 0 0.30663479565466278 -0.21847385935877339 0 0.31658175095876367 -0.2182296243775472 0 0.3036409362625152 -0.2282847194198952 0 0.29748256776229581 -0.220886853963117 0 0.29722470710663301 -0.23939559263272081 0 0.30663479565466278 -0.21847385935877339 0 0.31147951467216639 -0.22593456563964431 0 0.3036409362625152 -0.2282847194198952 0 0.30663479565466278 -0.21847385935877339 0 0.31147951467216639 -0.22593456563964431 0 0.31658175095876367 -0.2182296243775472 0 0.31147951467216639 -0.22593456563964431 0 0.3036409362625152 -0.2282847194198952 0 0.3088129829012784 -0.23774344222986871 0 0.30663479565466278 -0.21847385935877339 0 0.3036409362625152 -0.2282847194198952 0 0.29748256776229581 -0.220886853963117 0 0.30503355016040851 -0.24455767959907179 0 0.3088129829012784 -0.23774344222986871 0 0.32140124380329088 -0.23461863491331561 0 0.30503355016040851 -0.24455767959907179 0 0.32140124380329088 -0.23461863491331561 0 0.30422372247005153 -0.25477663167984083 0 0.3036409362625152 -0.2282847194198952 0 0.3088129829012784 -0.23774344222986871 0 0.29722470710663301 -0.23939559263272081 0 0.30503355016040851 -0.24455767959907179 0 0.3088129829012784 -0.23774344222986871 0 0.29722470710663301 -0.23939559263272081 0 0.30503355016040851 -0.24455767959907179 0 0.29722470710663301 -0.23939559263272081 0 0.30422372247005153 -0.25477663167984083 0 0.29722470710663301 -0.23939559263272081 0 0.28413004761536498 -0.2381259043685697 0 0.30422372247005153 -0.25477663167984083 0 0.28413004761536498 -0.2381259043685697 0 0.27543402669994532 -0.24910534309240301 0 0.28573134910733872 -0.25585429266773813 0 0.28413004761536498 -0.2381259043685697 0 0.30422372247005153 -0.25477663167984083 0 0.28573134910733872 -0.25585429266773813 0 0.28413004761536498 -0.2381259043685697 0 0.30422372247005153 -0.25477663167984083 0 0.28323921807590452 -0.21471415656553139 0 0.29748256776229581 -0.220886853963117 0 0.29722470710663301 -0.23939559263272081 0 0.28323921807590452 -0.21471415656553139 0 0.29722470710663301 -0.23939559263272081 0 0.28413004761536498 -0.2381259043685697 0 0.28323921807590452 -0.21471415656553139 0 0.29722470710663301 -0.23939559263272081 0 0.28323921807590452 -0.21471415656553139 0 0.28413004761536498 -0.2381259043685697 0 0.26403637276067871 -0.22147517705729849 0 0.28413004761536498 -0.2381259043685697 0 0.26358232833744422 -0.2424727382481226 0 0.26403637276067871 -0.22147517705729849 0 0.28413004761536498 -0.2381259043685697 0 0.26403637276067871 -0.22147517705729849 0 0.28413004761536498 -0.2381259043685697 0 0.27543402669994532 -0.24910534309240301 0 0.26358232833744422 -0.2424727382481226 0 0.26358232833744422 -0.2424727382481226 0 0.249183462268279 -0.25713094297952488 0 0.23991114730868279 -0.23163852260462789 0 0.26358232833744422 -0.2424727382481226 0 0.26403637276067871 -0.22147517705729849 0 0.23991114730868279 -0.23163852260462789 0 0.26403637276067871 -0.22147517705729849 0 0.26925372904517608 -0.19003272049834211 0 0.2439426979059923 -0.20482444974602729 0 0.26403637276067871 -0.22147517705729849 0 0.2439426979059923 -0.20482444974602729 0 0.28323921807590452 -0.21471415656553139 0 0.26403637276067871 -0.22147517705729849 0 0.26925372904517608 -0.19003272049834211 0 0.28323921807590452 -0.21471415656553139 0 0.26925372904517608 -0.19003272049834211 0 0.26925372904517608 -0.19003272049834211 0 0.244462968919885 -0.183239804984342 0 0.2439426979059923 -0.20482444974602729 0 0.26925372904517608 -0.19003272049834211 0 0.2552682400144477 -0.1653512844311528 0 0.244462968919885 -0.183239804984342 0 0.26925372904517608 -0.19003272049834211 0 0.2552682400144477 -0.1653512844311528 0 0.2552682400144477 -0.1653512844311528 0 0.28600630015430228 -0.1519732718427074 0 0.28212161233344513 -0.17311283781805961 0 0.26925372904517608 -0.19003272049834211 0 0.2552682400144477 -0.1653512844311528 0 0.28212161233344513 -0.17311283781805961 0 0.26546892566193231 -0.1358239841599812 0 0.24773076343232489 -0.11194471229237909 0 0.2455508571621941 -0.14546861019775381 0 0.2552682400144477 -0.1653512844311528 0 0.26546892566193231 -0.1358239841599812 0 0.2455508571621941 -0.14546861019775381 0 0.2552682400144477 -0.1653512844311528 0 0.26546892566193231 -0.1358239841599812 0 0.28600630015430228 -0.1519732718427074 0 0.26546892566193231 -0.1358239841599812 0 0.28600630015430228 -0.1519732718427074 0 0.26546892566193231 -0.1358239841599812 0 0.29513323820690268 -0.1273986056088563 0 0.28600630015430228 -0.1519732718427074 0 0.29513323820690268 -0.1273986056088563 0 0.28600630015430228 -0.1519732718427074 0 0.30612502930667101 -0.14828346353624949 0 0.28600630015430228 -0.1519732718427074 0 0.30612502930667101 -0.14828346353624949 0 0.30654367464667243 -0.16812255952543359 0 0.29513323820690268 -0.1273986056088563 0 0.30612502930667101 -0.14828346353624949 0 0.32386919033586758 -0.1368521373963881 0 0.3146630019107105 -0.1111230659484212 0 0.29513323820690268 -0.1273986056088563 0 0.32386919033586758 -0.1368521373963881 0 0.29353611780662697 -0.19008435279266181 0 0.28212161233344513 -0.17311283781805961 0 0.30654367464667243 -0.16812255952543359 0 0.29353611780662697 -0.19008435279266181 0 0.26925372904517608 -0.19003272049834211 0 0.28212161233344513 -0.17311283781805961 0 0.28600630015430228 -0.1519732718427074 0 0.30654367464667243 -0.16812255952543359 0 0.28600630015430228 -0.1519732718427074 0 0.28212161233344513 -0.17311283781805961 0 0.30654367464667243 -0.16812255952543359 0 0.30612502930667101 -0.14828346353624949 0 0.30654367464667243 -0.16812255952543359 0 0.31907274318961021 -0.15707074330786239 0 0.29353611780662697 -0.19008435279266181 0 0.31208084341075332 -0.19009786032476589 0 0.30654367464667243 -0.16812255952543359 0 0.31208084341075332 -0.19009786032476589 0 0.30654367464667243 -0.16812255952543359 0 0.32708104913904268 -0.18427184720815981 0 0.30654367464667243 -0.16812255952543359 0 0.32708104913904268 -0.18427184720815981 0 0.32662336972040079 -0.17259796457630991 0 0.30654367464667243 -0.16812255952543359 0 0.32708104913904268 -0.18427184720815981 0 0.30654367464667243 -0.16812255952543359 0 0.32662336972040079 -0.17259796457630991 0 0.31907274318961021 -0.15707074330786239 0 0.32662336972040079 -0.17259796457630991 0 0.31907274318961021 -0.15707074330786239 0 0.33307537876102039 -0.16258120884435651 0 0.32662336972040079 -0.17259796457630991 0 0.33307537876102039 -0.16258120884435651 0 0.33307537876102039 -0.16258120884435651 0 0.34291694909148318 -0.16645624069520171 0 0.34544147183407942 -0.14338282693079801 0 0.33307537876102039 -0.16258120884435651 0 0.33776772078339912 -0.17569517062489581 0 0.32662336972040079 -0.17259796457630991 0 0.33307537876102039 -0.16258120884435651 0 0.33776772078339912 -0.17569517062489581 0 0.33307537876102039 -0.16258120884435651 0 0.34291694909148318 -0.16645624069520171 0 0.33776772078339912 -0.17569517062489581 0 0.34291694909148318 -0.16645624069520171 0 0.33776772078339912 -0.17569517062489581 0 0.34948893652894131 -0.17759570931399729 0 0.33776772078339912 -0.17569517062489581 0 0.34125341335475118 -0.18737536760527371 0 0.34653658168086171 -0.18484532022259309 0 0.32708104913904268 -0.18427184720815981 0 0.33776772078339912 -0.17569517062489581 0 0.34125341335475118 -0.18737536760527371 0 0.32708104913904268 -0.18427184720815981 0 0.32662336972040079 -0.17259796457630991 0 0.33776772078339912 -0.17569517062489581 0 0.31907274318961021 -0.15707074330786239 0 0.33307537876102039 -0.16258120884435651 0 0.32386919033586758 -0.1368521373963881 0 0.30612502930667101 -0.14828346353624949 0 0.31907274318961021 -0.15707074330786239 0 0.32386919033586758 -0.1368521373963881 0 0.33307537876102039 -0.16258120884435651 0 0.32386919033586758 -0.1368521373963881 0 0.34544147183407942 -0.14338282693079801 0 0.33307537876102039 -0.16258120884435651 0 0.34544147183407942 -0.14338282693079801 0 0.33307537876102039 -0.16258120884435651 0 0.32386919033586758 -0.1368521373963881 0 0.33769184276698749 -0.116925434266897 0 0.34544147183407942 -0.14338282693079801 0 0.34270678016947698 -0.11732721283357429 0 0.33769184276698749 -0.116925434266897 0 0.34544147183407942 -0.14338282693079801 0 0.33769184276698749 -0.116925434266897 0 0.32386919033586758 -0.1368521373963881 0 0.34544147183407942 -0.14338282693079801 0 0.35888227241674919 -0.1225159596603199 0 0.34544147183407942 -0.14338282693079801 0 0.35888227241674919 -0.1225159596603199 0 0.34270678016947698 -0.11732721283357429 0 0.34544147183407942 -0.14338282693079801 0 0.35888227241674919 -0.1225159596603199 0 0.34544147183407942 -0.14338282693079801 0 0.36195517600972288 -0.14192170223924999 0 0.34544147183407942 -0.14338282693079801 0 0.35937731848399529 -0.1553847638606827 0 0.35306910887246212 -0.16942373630531521 0 0.34544147183407942 -0.14338282693079801 0 0.35937731848399529 -0.1553847638606827 0 0.36195517600972288 -0.14192170223924999 0 0.35937731848399529 -0.1553847638606827 0 0.36835541207988548 -0.15081225480559371 0 0.36195517600972288 -0.14192170223924999 0 0.35937731848399529 -0.1553847638606827 0 0.36835541207988548 -0.15081225480559371 0 0.37171518111635399 -0.16123121672003141 0 0.36835541207988548 -0.15081225480559371 0 0.37171518111635399 -0.16123121672003141 0 0.37654699642712791 -0.15182925701937849 0 0.36835541207988548 -0.15081225480559371 0 0.37112600087122621 -0.14190017721947151 0 0.37654699642712791 -0.15182925701937849 0 0.36835541207988548 -0.15081225480559371 0 0.37112600087122621 -0.14190017721947151 0 0.36195517600972288 -0.14192170223924999 0 0.35888227241674919 -0.1225159596603199 0 0.36195517600972288 -0.14192170223924999 0 0.3705700571182553 -0.1346043858399166 0 0.35888227241674919 -0.1225159596603199 0 0.37648634552666121 -0.128162964220709 0 0.35888227241674919 -0.1225159596603199 0 0.3705700571182553 -0.1346043858399166 0 0.37648634552666121 -0.128162964220709 0 0.37112600087122621 -0.14190017721947151 0 0.3705700571182553 -0.1346043858399166 0 0.37820236272113428 -0.1303332861932181 0 0.37112600087122621 -0.14190017721947151 0 0.36195517600972288 -0.14192170223924999 0 0.3705700571182553 -0.1346043858399166 0 0.34948893652894131 -0.17759570931399729 0 0.35306910887246212 -0.16942373630531521 0 0.36341780173684829 -0.17732166849843919 0 0.3566317042475845 -0.18597656083682429 0 0.34948893652894131 -0.17759570931399729 0 0.36341780173684829 -0.17732166849843919 0 0.3566317042475845 -0.18597656083682429 0 0.34653658168086171 -0.18484532022259309 0 0.35301308450239532 -0.19127884209787549 0 0.3566317042475845 -0.18597656083682429 0 0.34653658168086171 -0.18484532022259309 0 0.34948893652894131 -0.17759570931399729 0 0.33776772078339912 -0.17569517062489581 0 0.34653658168086171 -0.18484532022259309 0 0.34948893652894131 -0.17759570931399729 0 0.34291694909148318 -0.16645624069520171 0 0.34948893652894131 -0.17759570931399729 0 0.35306910887246212 -0.16942373630531521 0 0.34544147183407942 -0.14338282693079801 0 0.35306910887246212 -0.16942373630531521 0 0.34291694909148318 -0.16645624069520171 0 0.34544147183407942 -0.14338282693079801 0 0.35306910887246212 -0.16942373630531521 0 0.35937731848399529 -0.1553847638606827 0 0.35306910887246212 -0.16942373630531521 0 0.36449420806855531 -0.1673373226460014 0 0.35306910887246212 -0.16942373630531521 0 0.36449420806855531 -0.1673373226460014 0 0.36341780173684829 -0.17732166849843919 0 0.37171518111635399 -0.16123121672003141 0 0.3748916301331161 -0.17332522784553861 0 0.37654699642712791 -0.15182925701937849 0 0.35937731848399529 -0.1553847638606827 0 0.36449420806855531 -0.1673373226460014 0 0.37171518111635399 -0.16123121672003141 0 0.37171518111635399 -0.16123121672003141 0 0.3748916301331161 -0.17332522784553861 0 0.36449420806855531 -0.1673373226460014 0 0.37171518111635399 -0.16123121672003141 0 0.3748916301331161 -0.17332522784553861 0 0.3748916301331161 -0.17332522784553861 0 0.37418345882206372 -0.18252127702053381 0 0.36449420806855531 -0.1673373226460014 0 0.3748916301331161 -0.17332522784553861 0 0.36341780173684829 -0.17732166849843919 0 0.3748916301331161 -0.17332522784553861 0 0.36850373942360137 -0.1810236888022099 0 0.37418345882206372 -0.18252127702053381 0 0.3748916301331161 -0.17332522784553861 0 0.36341780173684829 -0.17732166849843919 0 0.36850373942360137 -0.1810236888022099 0 0.3566317042475845 -0.18597656083682429 0 0.36341780173684829 -0.17732166849843919 0 0.3650364732024643 -0.18561116033437369 0 0.36341780173684829 -0.17732166849843919 0 0.3650364732024643 -0.18561116033437369 0 0.36850373942360137 -0.1810236888022099 0 0.3650364732024643 -0.18561116033437369 0 0.36850373942360137 -0.1810236888022099 0 0.37418345882206372 -0.18252127702053381 0 0.37418345882206372 -0.18252127702053381 0 0.36154400611628018 -0.19649721953995319 0 0.37418345882206372 -0.18252127702053381 0 0.37223485586726651 -0.20782511002692061 0 0.37418345882206372 -0.18252127702053381 0 0.36885463579900529 -0.19077884273797599 0 0.36154400611628018 -0.19649721953995319 0 0.37418345882206372 -0.18252127702053381 0 0.36885463579900529 -0.19077884273797599 0 0.36851707203006617 -0.19787959309087511 0 0.37418345882206372 -0.18252127702053381 0 0.36851707203006617 -0.19787959309087511 0 0.37223485586726651 -0.20782511002692061 0 0.36851707203006617 -0.19787959309087511 0 0.36154400611628018 -0.19649721953995319 0 0.36540025384305608 -0.20474644217763449 0 0.3650364732024643 -0.18561116033437369 0 0.37418345882206372 -0.18252127702053381 0 0.36154400611628018 -0.19649721953995319 0 0.3566317042475845 -0.18597656083682429 0 0.3650364732024643 -0.18561116033437369 0 0.36154400611628018 -0.19649721953995319 0 0.36885463579900529 -0.19077884273797599 0 0.36154400611628018 -0.19649721953995319 0 0.36885463579900529 -0.19077884273797599 0 0.36851707203006617 -0.19787959309087511 0 0.36154400611628018 -0.19649721953995319 0 0.37223485586726651 -0.20782511002692061 0 0.36536423493863368 -0.2151801688146896 0 0.37028625291247069 -0.2331289430333075 0 0.36851707203006617 -0.19787959309087511 0 0.37223485586726651 -0.20782511002692061 0 0.36540025384305608 -0.20474644217763449 0 0.37223485586726651 -0.20782511002692061 0 0.36540025384305608 -0.20474644217763449 0 0.36536423493863368 -0.2151801688146896 0 0.36540025384305608 -0.20474644217763449 0 0.36536423493863368 -0.2151801688146896 0 0.35867036505117161 -0.20952552766198959 0 0.36154400611628018 -0.19649721953995319 0 0.36540025384305608 -0.20474644217763449 0 0.35867036505117161 -0.20952552766198959 0 0.36536423493863368 -0.2151801688146896 0 0.35867036505117161 -0.20952552766198959 0 0.3602294470192034 -0.22067482117359549 0 0.36154400611628018 -0.19649721953995319 0 0.34608419894132869 -0.21359173949013591 0 0.33857876513653501 -0.21446063814679439 0 0.36154400611628018 -0.19649721953995319 0 0.33857876513653501 -0.21446063814679439 0 0.36154400611628018 -0.19649721953995319 0 0.35867036505117161 -0.20952552766198959 0 0.34608419894132869 -0.21359173949013591 0 0.35308983892821028 -0.1974317448101732 0 0.34761842363141282 -0.20042113489088609 0 0.33857876513653501 -0.21446063814679439 0 0.35308983892821028 -0.1974317448101732 0 0.33857876513653501 -0.21446063814679439 0 0.36154400611628018 -0.19649721953995319 0 0.34608419894132869 -0.21359173949013591 0 0.35351519702052231 -0.2167156076602938 0 0.35867036505117161 -0.20952552766198959 0 0.34608419894132869 -0.21359173949013591 0 0.35351519702052231 -0.2167156076602938 0 0.35867036505117161 -0.20952552766198959 0 0.3602294470192034 -0.22067482117359549 0 0.35351519702052231 -0.2167156076602938 0 0.34608419894132869 -0.21359173949013591 0 0.34868583354542038 -0.22134286183993679 0 0.36154400611628018 -0.19649721953995319 0 0.35308983892821028 -0.1974317448101732 0 0.33857876513653501 -0.21446063814679439 0 0.3566317042475845 -0.18597656083682429 0 0.36154400611628018 -0.19649721953995319 0 0.35301308450239532 -0.19127884209787549 0 0.36154400611628018 -0.19649721953995319 0 0.35301308450239532 -0.19127884209787549 0 0.35308983892821028 -0.1974317448101732 0 0.35308983892821028 -0.1974317448101732 0 0.34761842363141282 -0.20042113489088609 0 0.3472632915390399 -0.19164336507983351 0 0.34125341335475118 -0.18737536760527371 0 0.34761842363141282 -0.20042113489088609 0 0.3472632915390399 -0.19164336507983351 0 0.35301308450239532 -0.19127884209787549 0 0.35308983892821028 -0.1974317448101732 0 0.3472632915390399 -0.19164336507983351 0 0.34653658168086171 -0.18484532022259309 0 0.35301308450239532 -0.19127884209787549 0 0.3472632915390399 -0.19164336507983351 0 0.34125341335475118 -0.18737536760527371 0 0.34653658168086171 -0.18484532022259309 0 0.3472632915390399 -0.19164336507983351 0 0.32708104913904268 -0.18427184720815981 0 0.34761842363141282 -0.20042113489088609 0 0.32708104913904268 -0.18427184720815981 0 0.34125341335475118 -0.18737536760527371 0 0.34761842363141282 -0.20042113489088609 0 0.32708104913904268 -0.18427184720815981 0 0.34761842363141282 -0.20042113489088609 0 0.33303611729776889 -0.20096192819575659 0 0.34761842363141282 -0.20042113489088609 0 0.33303611729776889 -0.20096192819575659 0 0.33805436120117471 -0.20592959137173189 0 0.34761842363141282 -0.20042113489088609 0 0.33805436120117471 -0.20592959137173189 0 0.33857876513653501 -0.21446063814679439 0 0.33805436120117471 -0.20592959137173189 0 0.33857876513653501 -0.21446063814679439 0 0.33298413873898219 -0.20787466425349069 0 0.33857876513653501 -0.21446063814679439 0 0.32634359202406338 -0.21388356423094179 0 0.3236958740189067 -0.2261020401883316 0 0.33857876513653501 -0.21446063814679439 0 0.33298413873898219 -0.20787466425349069 0 0.32634359202406338 -0.21388356423094179 0 0.33298413873898219 -0.20787466425349069 0 0.32660897743327932 -0.20459317529547419 0 0.32634359202406338 -0.21388356423094179 0 0.33303611729776889 -0.20096192819575659 0 0.33805436120117471 -0.20592959137173189 0 0.33298413873898219 -0.20787466425349069 0 0.33303611729776889 -0.20096192819575659 0 0.33298413873898219 -0.20787466425349069 0 0.32660897743327932 -0.20459317529547419 0 0.32660897743327932 -0.20459317529547419 0 0.32634359202406338 -0.21388356423094179 0 0.31892108884509601 -0.20466356123903129 0 0.32634359202406338 -0.21388356423094179 0 0.31658175095876367 -0.2182296243775472 0 0.31892108884509601 -0.20466356123903129 0 0.3114159520914474 -0.21134282389962489 0 0.31658175095876367 -0.2182296243775472 0 0.31892108884509601 -0.20466356123903129 0 0.32708104913904268 -0.18427184720815981 0 0.33303611729776889 -0.20096192819575659 0 0.32388264995274418 -0.19482047817992471 0 0.31208084341075332 -0.19009786032476589 0 0.31892108884509601 -0.20466356123903129 0 0.32388264995274418 -0.19482047817992471 0 0.31208084341075332 -0.19009786032476589 0 0.32708104913904268 -0.18427184720815981 0 0.32388264995274418 -0.19482047817992471 0 0.32660897743327932 -0.20459317529547419 0 0.31892108884509601 -0.20466356123903129 0 0.32388264995274418 -0.19482047817992471 0 0.33303611729776889 -0.20096192819575659 0 0.32660897743327932 -0.20459317529547419 0 0.32388264995274418 -0.19482047817992471 0 0.32140124380329088 -0.23461863491331561 0 0.30422372247005153 -0.25477663167984083 0 0.32140124380329088 -0.23461863491331561 0 0.31678988285030069 -0.25058484649103441 0 0.30422372247005153 -0.25477663167984083 0 0.32140124380329088 -0.23461863491331561 0 0.32264717387843078 -0.2448270135925518 0 0.31678988285030069 -0.25058484649103441 0 0.32140124380329088 -0.23461863491331561 0 0.32264717387843078 -0.2448270135925518 0 0.32989419099344969 -0.24130129543993559 0 0.32140124380329088 -0.23461863491331561 0 0.33062439176637698 -0.23068625944031851 0 0.32989419099344969 -0.24130129543993559 0 0.32264717387843078 -0.2448270135925518 0 0.32989419099344969 -0.24130129543993559 0 0.32559372426922811 -0.25235623485284842 0 0.32264717387843078 -0.2448270135925518 0 0.31678988285030069 -0.25058484649103441 0 0.32559372426922811 -0.25235623485284842 0 0.33857876513653501 -0.21446063814679439 0 0.32140124380329088 -0.23461863491331561 0 0.3236958740189067 -0.2261020401883316 0 0.31147951467216639 -0.22593456563964431 0 0.3088129829012784 -0.23774344222986871 0 0.3236958740189067 -0.2261020401883316 0 0.3088129829012784 -0.23774344222986871 0 0.32140124380329088 -0.23461863491331561 0 0.3236958740189067 -0.2261020401883316 0 0.3088129829012784 -0.23774344222986871 0 0.3236958740189067 -0.2261020401883316 0 0.31147951467216639 -0.22593456563964431 0 0.31658175095876367 -0.2182296243775472 0 0.3236958740189067 -0.2261020401883316 0 0.32634359202406338 -0.21388356423094179 0 0.31658175095876367 -0.2182296243775472 0 0.3236958740189067 -0.2261020401883316 0 0.33857876513653501 -0.21446063814679439 0 0.32140124380329088 -0.23461863491331561 0 0.33062439176637698 -0.23068625944031851 0 0.34608419894132869 -0.21359173949013591 0 0.33062439176637698 -0.23068625944031851 0 0.33857876513653501 -0.21446063814679439 0 0.32140124380329088 -0.23461863491331561 0 0.34608419894132869 -0.21359173949013591 0 0.33062439176637698 -0.23068625944031851 0 0.34292025110560581 -0.22615333697170359 0 0.34608419894132869 -0.21359173949013591 0 0.33857876513653501 -0.21446063814679439 0 0.33062439176637698 -0.23068625944031851 0 0.33857876513653501 -0.21446063814679439 0 0.3236958740189067 -0.2261020401883316 0 0.33062439176637698 -0.23068625944031851 0 0.34292025110560581 -0.22615333697170359 0 0.33950803773136767 -0.2341864206554809 0 0.33950803773136767 -0.2341864206554809 0 0.32989419099344969 -0.24130129543993559 0 0.33910009289611492 -0.24372601578183781 0 0.33950803773136767 -0.2341864206554809 0 0.33910009289611492 -0.24372601578183781 0 0.34992682598094399 -0.2438058699606922 0 0.33062439176637698 -0.23068625944031851 0 0.33950803773136767 -0.2341864206554809 0 0.32989419099344969 -0.24130129543993559 0 0.32989419099344969 -0.24130129543993559 0 0.33910009289611492 -0.24372601578183781 0 0.33400535805737203 -0.2517659625411961 0 0.32989419099344969 -0.24130129543993559 0 0.32559372426922811 -0.25235623485284842 0 0.33400535805737203 -0.2517659625411961 0 0.33910009289611492 -0.24372601578183781 0 0.34992682598094399 -0.2438058699606922 0 0.344264411345303 -0.25725337817701638 0 0.33950803773136767 -0.2341864206554809 0 0.34992682598094399 -0.2438058699606922 0 0.35043592123748513 -0.23129037424449719 0 0.34992682598094399 -0.2438058699606922 0 0.35043592123748513 -0.23129037424449719 0 0.35951862711982158 -0.2406260276213448 0 0.34992682598094399 -0.2438058699606922 0 0.35951862711982158 -0.2406260276213448 0 0.35754962389898892 -0.25149465906435842 0 0.34868583354542038 -0.22134286183993679 0 0.35043592123748513 -0.23129037424449719 0 0.35411464012598121 -0.22267022263622141 0 0.34608419894132869 -0.21359173949013591 0 0.34292025110560581 -0.22615333697170359 0 0.34868583354542038 -0.22134286183993679 0 0.34292025110560581 -0.22615333697170359 0 0.34868583354542038 -0.22134286183993679 0 0.35043592123748513 -0.23129037424449719 0 0.34292025110560581 -0.22615333697170359 0 0.33950803773136767 -0.2341864206554809 0 0.35043592123748513 -0.23129037424449719 0 0.35043592123748513 -0.23129037424449719 0 0.35875525685457849 -0.23000386548132681 0 0.35951862711982158 -0.2406260276213448 0 0.35043592123748513 -0.23129037424449719 0 0.35875525685457849 -0.23000386548132681 0 0.35411464012598121 -0.22267022263622141 0 0.35875525685457849 -0.23000386548132681 0 0.35411464012598121 -0.22267022263622141 0 0.3602294470192034 -0.22067482117359549 0 0.35351519702052231 -0.2167156076602938 0 0.35411464012598121 -0.22267022263622141 0 0.3602294470192034 -0.22067482117359549 0 0.35351519702052231 -0.2167156076602938 0 0.34868583354542038 -0.22134286183993679 0 0.35411464012598121 -0.22267022263622141 0 0.37223485586726651 -0.20782511002692061 0 0.37028625291247069 -0.2331289430333075 0 0.36536423493863368 -0.2151801688146896 0 0.3602294470192034 -0.22067482117359549 0 0.37028625291247069 -0.2331289430333075 0 0.37223485586726651 -0.20782511002692061 0 0.37028625291247069 -0.2331289430333075 0 0.37908872258066317 -0.2197936142354413 0 0.35875525685457849 -0.23000386548132681 0 0.3602294470192034 -0.22067482117359549 0 0.37028625291247069 -0.2331289430333075 0 0.37028625291247069 -0.2331289430333075 0 0.36833764995767848 -0.25843277603969472 0 0.37028625291247069 -0.2331289430333075 0 0.35951862711982158 -0.2406260276213448 0 0.36833764995767848 -0.25843277603969472 0 0.37028625291247069 -0.2331289430333075 0 0.38239558738084822 -0.24828307997950019 0 0.36833764995767848 -0.25843277603969472 0 0.35875525685457849 -0.23000386548132681 0 0.37028625291247069 -0.2331289430333075 0 0.35951862711982158 -0.2406260276213448 0 0.38239558738084822 -0.24828307997950019 0 0.39035452886211652 -0.23219866427544231 0 0.39722980504343369 -0.25837558894478962 0 0.37028625291247069 -0.2331289430333075 0 0.38239558738084822 -0.24828307997950019 0 0.39035452886211652 -0.23219866427544231 0 0.39035452886211652 -0.23219866427544231 0 0.40646741491459182 -0.24266775271262619 0 0.39722980504343369 -0.25837558894478962 0 0.39035452886211652 -0.23219866427544231 0 0.39722980504343369 -0.25837558894478962 0 0.39035452886211652 -0.23219866427544231 0 0.40646741491459182 -0.24266775271262619 0 0.40952450294023218 -0.22729326167579511 0 0.39035452886211652 -0.23219866427544231 0 0.39754035536088128 -0.216266228206035 0 0.40952450294023218 -0.22729326167579511 0 0.39035452886211652 -0.23219866427544231 0 0.37908872258066317 -0.2197936142354413 0 0.3834792526807993 -0.20602173960609479 0 0.37028625291247069 -0.2331289430333075 0 0.39035452886211652 -0.23219866427544231 0 0.37908872258066317 -0.2197936142354413 0 0.39035452886211652 -0.23219866427544231 0 0.3834792526807993 -0.20602173960609479 0 0.39035452886211652 -0.23219866427544231 0 0.3834792526807993 -0.20602173960609479 0 0.39754035536088128 -0.216266228206035 0 0.37223485586726651 -0.20782511002692061 0 0.37908872258066317 -0.2197936142354413 0 0.3834792526807993 -0.20602173960609479 0 0.37418345882206372 -0.18252127702053381 0 0.37223485586726651 -0.20782511002692061 0 0.3834792526807993 -0.20602173960609479 0 0.3834792526807993 -0.20602173960609479 0 0.37660397649948352 -0.17984481493674689 0 0.39064611612477279 -0.18233489870353839 0 0.3834792526807993 -0.20602173960609479 0 0.37660397649948352 -0.17984481493674689 0 0.37418345882206372 -0.18252127702053381 0 0.3834792526807993 -0.20602173960609479 0 0.37660397649948352 -0.17984481493674689 0 0.3834792526807993 -0.20602173960609479 0 0.39886497956440298 -0.1913747484320171 0 0.39064611612477279 -0.18233489870353839 0 0.3834792526807993 -0.20602173960609479 0 0.39886497956440298 -0.1913747484320171 0 0.40037792428941449 -0.20417968286198679 0 0.39886497956440298 -0.1913747484320171 0 0.40037792428941449 -0.20417968286198679 0 0.41215697569587972 -0.19597670877393861 0 0.3834792526807993 -0.20602173960609479 0 0.39754035536088128 -0.216266228206035 0 0.40037792428941449 -0.20417968286198679 0 0.39754035536088128 -0.216266228206035 0 0.40037792428941449 -0.20417968286198679 0 0.40981758195384221 -0.21227133269763071 0 0.39754035536088128 -0.216266228206035 0 0.40981758195384221 -0.21227133269763071 0 0.40952450294023218 -0.22729326167579511 0 0.40037792428941449 -0.20417968286198679 0 0.40981758195384221 -0.21227133269763071 0 0.41215697569587972 -0.19597670877393861 0 0.40981758195384221 -0.21227133269763071 0 0.41215697569587972 -0.19597670877393861 0 0.43485794073674 -0.20198807277050829 0 0.39886497956440298 -0.1913747484320171 0 0.41215697569587972 -0.19597670877393861 0 0.41660069954715251 -0.17889734160597101 0 0.41215697569587972 -0.19597670877393861 0 0.43485794073674 -0.20198807277050829 0 0.41660069954715251 -0.17889734160597101 0 0.43485794073674 -0.20198807277050829 0 0.41660069954715251 -0.17889734160597101 0 0.42308839184736641 -0.1829796589571579 0 0.43485794073674 -0.20198807277050829 0 0.42308839184736641 -0.1829796589571579 0 0.43779570447596072 -0.18275583478861249 0 0.43485794073674 -0.20198807277050829 0 0.41660069954715251 -0.17889734160597101 0 0.40981758195384221 -0.21227133269763071 0 0.43485794073674 -0.20198807277050829 0 0.427776273515521 -0.2203728082232671 0 0.427776273515521 -0.2203728082232671 0 0.42519086303444098 -0.23998278393976971 0 0.45311518192632749 -0.22507880393504559 0 0.42519086303444098 -0.23998278393976971 0 0.44599599997607198 -0.24965978204602779 0 0.4277230159403882 -0.25720133080015573 0 0.42519086303444098 -0.23998278393976971 0 0.40646741491459182 -0.24266775271262619 0 0.41305436357402792 -0.25485420803451297 0 0.42519086303444098 -0.23998278393976971 0 0.40646741491459182 -0.24266775271262619 0 0.40952450294023218 -0.22729326167579511 0 0.427776273515521 -0.2203728082232671 0 0.42519086303444098 -0.23998278393976971 0 0.40952450294023218 -0.22729326167579511 0 0.40981758195384221 -0.21227133269763071 0 0.427776273515521 -0.2203728082232671 0 0.40952450294023218 -0.22729326167579511 0 0.37934378423334508 -0.1155112110939164 0 0.40097204220777982 -0.13601744425832429 0 0.40097204220777982 -0.13601744425832429 0 0.37832409813727819 -0.1287524753701009 0 0.40097204220777982 -0.13601744425832429 0 0.37820236272113428 -0.1303332861932181 0 0.3882729105393472 -0.14306994831732811 0 0.40097204220777982 -0.13601744425832429 0 0.37820236272113428 -0.1303332861932181 0 0.37832409813727819 -0.1287524753701009 0 0.37934378423334508 -0.1155112110939164 0 0.40097204220777982 -0.13601744425832429 0 0.37832409813727819 -0.1287524753701009 0 0.37820236272113428 -0.1303332861932181 0 0.37832409813727819 -0.1287524753701009 0 0.37820236272113428 -0.1303332861932181 0 0.37648634552666121 -0.128162964220709 0 0.3705700571182553 -0.1346043858399166 0 0.37820236272113428 -0.1303332861932181 0 0.37648634552666121 -0.128162964220709 0 0.37820236272113428 -0.1303332861932181 0 0.37648634552666121 -0.128162964220709 0 0.37832409813727819 -0.1287524753701009 0 0.37648634552666121 -0.128162964220709 0 0.37832409813727819 -0.1287524753701009 0 0.37820236272113428 -0.1303332861932181 0 0.3882729105393472 -0.14306994831732811 0 0.37820236272113428 -0.1303332861932181 0 0.37654699642712791 -0.15182925701937849 0 0.37112600087122621 -0.14190017721947151 0 0.37820236272113428 -0.1303332861932181 0 0.37654699642712791 -0.15182925701937849 0 0.37820236272113428 -0.1303332861932181 0 0.3882729105393472 -0.14306994831732811 0 0.37654699642712791 -0.15182925701937849 0 0.3882729105393472 -0.14306994831732811 0 0.37654699642712791 -0.15182925701937849 0 0.38765927068814132 -0.15463288211680781 0 0.3882729105393472 -0.14306994831732811 0 0.39834345835756529 -0.15580661044143401 0 0.3882729105393472 -0.14306994831732811 0 0.38765927068814132 -0.15463288211680781 0 0.39834345835756529 -0.15580661044143401 0 0.3882729105393472 -0.14306994831732811 0 0.39834345835756529 -0.15580661044143401 0 0.39832792383343768 -0.14563511206331431 0 0.40097204220777982 -0.13601744425832429 0 0.3882729105393472 -0.14306994831732811 0 0.39832792383343768 -0.14563511206331431 0 0.40097204220777982 -0.13601744425832429 0 0.39832792383343768 -0.14563511206331431 0 0.40572328422905868 -0.14764644523617099 0 0.39834345835756529 -0.15580661044143401 0 0.39832792383343768 -0.14563511206331431 0 0.40572328422905868 -0.14764644523617099 0 0.39834345835756529 -0.15580661044143401 0 0.40572328422905868 -0.14764644523617099 0 0.41179881287691272 -0.16051437118729611 0 0.39834345835756529 -0.15580661044143401 0 0.40572328422905868 -0.14764644523617099 0 0.39834345835756529 -0.15580661044143401 0 0.38747371742852482 -0.16782571268909069 0 0.41660069954715251 -0.17889734160597101 0 0.38765927068814132 -0.15463288211680781 0 0.39834345835756529 -0.15580661044143401 0 0.38747371742852482 -0.16782571268909069 0 0.39834345835756529 -0.15580661044143401 0 0.38747371742852482 -0.16782571268909069 0 0.37654699642712791 -0.15182925701937849 0 0.38765927068814132 -0.15463288211680781 0 0.38747371742852482 -0.16782571268909069 0 0.3748916301331161 -0.17332522784553861 0 0.37654699642712791 -0.15182925701937849 0 0.38747371742852482 -0.16782571268909069 0 0.3748916301331161 -0.17332522784553861 0 0.37654699642712791 -0.15182925701937849 0 0.38747371742852482 -0.16782571268909069 0 0.37660397649948352 -0.17984481493674689 0 0.39064611612477279 -0.18233489870353839 0 0.3748916301331161 -0.17332522784553861 0 0.37418345882206372 -0.18252127702053381 0 0.37660397649948352 -0.17984481493674689 0 0.38747371742852482 -0.16782571268909069 0 0.37660397649948352 -0.17984481493674689 0 0.3748916301331161 -0.17332522784553861 0 0.38747371742852482 -0.16782571268909069 0 0.37660397649948352 -0.17984481493674689 0 0.3748916301331161 -0.17332522784553861 0 0.37660397649948352 -0.17984481493674689 0 0.37418345882206372 -0.18252127702053381 0 0.37660397649948352 -0.17984481493674689 0 0.39886497956440298 -0.1913747484320171 0 0.39064611612477279 -0.18233489870353839 0 0.41660069954715251 -0.17889734160597101 0 0.38747371742852482 -0.16782571268909069 0 0.39064611612477279 -0.18233489870353839 0 0.41660069954715251 -0.17889734160597101 0 0.41660069954715251 -0.17889734160597101 0 0.42308839184736641 -0.1829796589571579 0 0.42032532873154621 -0.16805820189220511 0 0.42308839184736641 -0.1829796589571579 0 0.43503054483070103 -0.16830906926307529 0 0.43779570447596072 -0.18275583478861249 0 0.42308839184736641 -0.1829796589571579 0 0.43503054483070103 -0.16830906926307529 0 0.42032532873154621 -0.16805820189220511 0 0.42308839184736641 -0.1829796589571579 0 0.43503054483070103 -0.16830906926307529 0 0.43503054483070103 -0.16830906926307529 0 0.41800129351924081 -0.15216325676069939 0 0.43521399347871031 -0.15620780530270459 0 0.43503054483070103 -0.16830906926307529 0 0.41800129351924081 -0.15216325676069939 0 0.43503054483070103 -0.16830906926307529 0 0.42032532873154621 -0.16805820189220511 0 0.41800129351924081 -0.15216325676069939 0 0.42032532873154621 -0.16805820189220511 0 0.41179881287691272 -0.16051437118729611 0 0.41800129351924081 -0.15216325676069939 0 0.39834345835756529 -0.15580661044143401 0 0.41660069954715251 -0.17889734160597101 0 0.39834345835756529 -0.15580661044143401 0 0.41660069954715251 -0.17889734160597101 0 0.41179881287691272 -0.16051437118729611 0 0.41660069954715251 -0.17889734160597101 0 0.42032532873154621 -0.16805820189220511 0 0.41179881287691272 -0.16051437118729611 0 0.40097204220777982 -0.13601744425832429 0 0.42056390422844808 -0.14230208835667771 0 0.41800129351924081 -0.15216325676069939 0 0.40097204220777982 -0.13601744425832429 0 0.41800129351924081 -0.15216325676069939 0 0.40097204220777982 -0.13601744425832429 0 0.40572328422905868 -0.14764644523617099 0 0.41800129351924081 -0.15216325676069939 0 0.40572328422905868 -0.14764644523617099 0 0.41179881287691272 -0.16051437118729611 0 0.41800129351924081 -0.15216325676069939 0 0.42056390422844808 -0.14230208835667771 0 0.41800129351924081 -0.15216325676069939 0 0.42616964984690531 -0.14752281596549061 0 0.41800129351924081 -0.15216325676069939 0 0.43521399347871031 -0.15620780530270459 0 0.42616964984690531 -0.14752281596549061 0 0.43521399347871031 -0.15620780530270459 0 0.43182678352543558 -0.14344137169670959 0 0.42616964984690531 -0.14752281596549061 0 0.43521399347871031 -0.15620780530270459 0 0.43182678352543558 -0.14344137169670959 0 0.44267453686232211 -0.1466781392400216 0 0.43182678352543558 -0.14344137169670959 0 0.42616964984690531 -0.14752281596549061 0 0.42563538335396162 -0.14213673469906279 0 0.42056390422844808 -0.14230208835667771 0 0.42616964984690531 -0.14752281596549061 0 0.42563538335396162 -0.14213673469906279 0 0.43613336312651968 -0.122784714366969 0 0.42398119581505728 -0.13528066277737341 0 0.44224122569553809 -0.1361498501222233 0 0.42056390422844808 -0.14230208835667771 0 0.42563538335396162 -0.14213673469906279 0 0.42398119581505728 -0.13528066277737341 0 0.43182678352543558 -0.14344137169670959 0 0.42398119581505728 -0.13528066277737341 0 0.44224122569553809 -0.1361498501222233 0 0.43182678352543558 -0.14344137169670959 0 0.42563538335396162 -0.14213673469906279 0 0.42398119581505728 -0.13528066277737341 0 0.42398119581505728 -0.13528066277737341 0 0.44224122569553809 -0.1361498501222233 0 0.42215261761117978 -0.12059275905020719 0 0.43613336312651968 -0.122784714366969 0 0.42398119581505728 -0.13528066277737341 0 0.40097204220777982 -0.13601744425832429 0 0.42056390422844808 -0.14230208835667771 0 0.42215261761117978 -0.12059275905020719 0 0.42398119581505728 -0.13528066277737341 0 0.41384201319835262 -0.13049276915318689 0 0.40097204220777982 -0.13601744425832429 0 0.42056390422844808 -0.14230208835667771 0 0.41384201319835262 -0.13049276915318689 0 0.40873754477022989 -0.1136119743593146 0 0.40097204220777982 -0.13601744425832429 0 0.41384201319835262 -0.13049276915318689 0 0.42056390422844808 -0.14230208835667771 0 0.42398119581505728 -0.13528066277737341 0 0.41384201319835262 -0.13049276915318689 0 0.46864714632167231 -0.12701204618258541 0 0.466143160931974 -0.13008811984396629 0 0.466143160931974 -0.13008811984396629 0 0.47074610733539718 -0.13389698686920509 0 0.46864714632167231 -0.12701204618258541 0 0.466143160931974 -0.13008811984396629 0 0.47074610733539718 -0.13389698686920509 0 0.46050125557601901 -0.13701903746707461 0 0.47186277800635651 -0.1375598521086297 0 0.46050125557601901 -0.13701903746707461 0 0.4735791742455846 -0.14318991680471441 0 0.47186277800635651 -0.1375598521086297 0 0.466143160931974 -0.13008811984396629 0 0.46050125557601901 -0.13701903746707461 0 0.47074610733539718 -0.13389698686920509 0 0.46050125557601901 -0.13701903746707461 0 0.47186277800635651 -0.1375598521086297 0 0.47074610733539718 -0.13389698686920509 0 0.466143160931974 -0.13008811984396629 0 0.46050125557601901 -0.13701903746707461 0 0.466143160931974 -0.13008811984396629 0 0.46050125557601901 -0.13701903746707461 0 0.45057495674546771 -0.12819946303377849 0 0.46050125557601901 -0.13701903746707461 0 0.45057495674546771 -0.12819946303377849 0 0.44224122569553809 -0.1361498501222233 0 0.46050125557601901 -0.13701903746707461 0 0.44224122569553809 -0.1361498501222233 0 0.45364665995588638 -0.14543971002102479 0 0.46050125557601901 -0.13701903746707461 0 0.44224122569553809 -0.1361498501222233 0 0.43613336312651968 -0.122784714366969 0 0.45057495674546771 -0.12819946303377849 0 0.44224122569553809 -0.1361498501222233 0 0.43521399347871031 -0.15620780530270459 0 0.44267453686232211 -0.1466781392400216 0 0.45364665995588638 -0.14543971002102479 0 0.44224122569553809 -0.1361498501222233 0 0.44267453686232211 -0.1466781392400216 0 0.45364665995588638 -0.14543971002102479 0 0.44267453686232211 -0.1466781392400216 0 0.45364665995588638 -0.14543971002102479 0 0.43182678352543558 -0.14344137169670959 0 0.44224122569553809 -0.1361498501222233 0 0.44267453686232211 -0.1466781392400216 0 0.45364665995588638 -0.14543971002102479 0 0.4735791742455846 -0.14318991680471441 0 0.45364665995588638 -0.14543971002102479 0 0.46078134844418861 -0.16439683011681 0 0.4735791742455846 -0.14318991680471441 0 0.46050125557601901 -0.13701903746707461 0 0.45364665995588638 -0.14543971002102479 0 0.4735791742455846 -0.14318991680471441 0 0.46050125557601901 -0.13701903746707461 0 0.45364665995588638 -0.14543971002102479 0 0.43503054483070103 -0.16830906926307529 0 0.45364665995588638 -0.14543971002102479 0 0.43503054483070103 -0.16830906926307529 0 0.43521399347871031 -0.15620780530270459 0 0.45364665995588638 -0.14543971002102479 0 0.43503054483070103 -0.16830906926307529 0 0.45364665995588638 -0.14543971002102479 0 0.46078134844418861 -0.16439683011681 0 0.43503054483070103 -0.16830906926307529 0 0.45236916093524299 -0.1847481974170033 0 0.43503054483070103 -0.16830906926307529 0 0.45236916093524299 -0.1847481974170033 0 0.43779570447596072 -0.18275583478861249 0 0.43503054483070103 -0.16830906926307529 0 0.46078134844418861 -0.16439683011681 0 0.45236916093524299 -0.1847481974170033 0 0.46078134844418861 -0.16439683011681 0 0.45236916093524299 -0.1847481974170033 0 0.4699664508452388 -0.18034214174574531 0 0.4699664508452388 -0.18034214174574531 0 0.48678958712279108 -0.18652226481441581 0 0.48018438068418717 -0.1648560908095652 0 0.48678958712279108 -0.18652226481441581 0 0.48018438068418717 -0.1648560908095652 0 0.48678958712279108 -0.18652226481441581 0 0.5 -0.17009006061559351 0 0.5 -0.19997233671985509 0 0.48678958712279108 -0.18652226481441581 0 0.5 -0.17009006061559351 0 0.48018438068418717 -0.1648560908095652 0 0.5 -0.17009006061559351 0 0.48018438068418717 -0.1648560908095652 0 0.49999999999999989 -0.1388991991653562 0 0.46078134844418861 -0.16439683011681 0 0.4699664508452388 -0.18034214174574531 0 0.48018438068418717 -0.1648560908095652 0 0.46078134844418861 -0.16439683011681 0 0.48018438068418717 -0.1648560908095652 0 0.4735791742455846 -0.14318991680471441 0 0.48018438068418717 -0.1648560908095652 0 0.4735791742455846 -0.14318991680471441 0 0.48018438068418717 -0.1648560908095652 0 0.4735791742455846 -0.14318991680471441 0 0.49999999999999989 -0.1388991991653562 0 0.4735791742455846 -0.14318991680471441 0 0.49999999999999989 -0.1388991991653562 0 0.49999999999999989 -0.1388991991653562 0 0.47537463040584271 -0.1377270181911949 0 0.5 -0.1134979792876203 0 0.49999999999999989 -0.1388991991653562 0 0.48693253848029699 -0.1276409801415864 0 0.49999999999999989 -0.1388991991653562 0 0.48693253848029699 -0.1276409801415864 0 0.47537463040584271 -0.1377270181911949 0 0.4735791742455846 -0.14318991680471441 0 0.49999999999999989 -0.1388991991653562 0 0.47537463040584271 -0.1377270181911949 0 0.48693253848029699 -0.1276409801415864 0 0.47850296460072422 -0.12923472475304679 0 0.47537463040584271 -0.1377270181911949 0 0.47537463040584271 -0.1377270181911949 0 0.47186277800635651 -0.1375598521086297 0 0.47074610733539718 -0.13389698686920509 0 0.47537463040584271 -0.1377270181911949 0 0.47074610733539718 -0.13389698686920509 0 0.47850296460072422 -0.12923472475304679 0 0.47537463040584271 -0.1377270181911949 0 0.47074610733539718 -0.13389698686920509 0 0.4735791742455846 -0.14318991680471441 0 0.47537463040584271 -0.1377270181911949 0 0.47186277800635651 -0.1375598521086297 0 0.4735791742455846 -0.14318991680471441 0 0.47186277800635651 -0.1375598521086297 0 0.47537463040584271 -0.1377270181911949 0 0.47186277800635651 -0.1375598521086297 0 0.47186277800635651 -0.1375598521086297 0 0.47074610733539718 -0.13389698686920509 0 0.46864714632167231 -0.12701204618258541 0 0.47074610733539718 -0.13389698686920509 0 0.47230642602791068 -0.12846515685454801 0 0.46864714632167231 -0.12701204618258541 0 0.47074610733539718 -0.13389698686920509 0 0.47132948585385198 -0.1237168696133549 0 0.46864714632167231 -0.12701204618258541 0 0.47230642602791068 -0.12846515685454801 0 0.47132948585385198 -0.1237168696133549 0 0.46864714632167231 -0.12701204618258541 0 0.47132948585385198 -0.1237168696133549 0 0.47850296460072422 -0.12923472475304679 0 0.47230642602791068 -0.12846515685454801 0 0.47850296460072422 -0.12923472475304679 0 0.47074610733539718 -0.13389698686920509 0 0.47230642602791068 -0.12846515685454801 0 0.45311518192632749 -0.22507880393504559 0 0.46903285614812051 -0.21826636425226431 0 0.47137242311591487 -0.2481695350995827 0 0.45311518192632749 -0.22507880393504559 0 0.47137242311591487 -0.2481695350995827 0 0.44599599997607198 -0.24965978204602779 0 0.45311518192632749 -0.22507880393504559 0 0.47137242311591487 -0.2481695350995827 0 0.42519086303444098 -0.23998278393976971 0 0.44599599997607198 -0.24965978204602779 0 0.45311518192632749 -0.22507880393504559 0 0.43485794073674 -0.20198807277050829 0 0.427776273515521 -0.2203728082232671 0 0.45311518192632749 -0.22507880393504559 0 0.43485794073674 -0.20198807277050829 0 0.45311518192632749 -0.22507880393504559 0 0.45245532377937359 -0.2022315829087786 0 0.43485794073674 -0.20198807277050829 0 0.45311518192632749 -0.22507880393504559 0 0.45236916093524299 -0.1847481974170033 0 0.43779570447596072 -0.18275583478861249 0 0.45245532377937359 -0.2022315829087786 0 0.43485794073674 -0.20198807277050829 0 0.43779570447596072 -0.18275583478861249 0 0.45245532377937359 -0.2022315829087786 0 0.45236916093524299 -0.1847481974170033 0 0.45245532377937359 -0.2022315829087786 0 0.46970777703978411 -0.20118732557093241 0 0.45236916093524299 -0.1847481974170033 0 0.46970777703978411 -0.20118732557093241 0 0.45236916093524299 -0.1847481974170033 0 0.4699664508452388 -0.18034214174574531 0 0.46970777703978411 -0.20118732557093241 0 0.45311518192632749 -0.22507880393504559 0 0.45245532377937359 -0.2022315829087786 0 0.46903285614812051 -0.21826636425226431 0 0.45245532377937359 -0.2022315829087786 0 0.46903285614812051 -0.21826636425226431 0 0.46970777703978411 -0.20118732557093241 0 0.46903285614812051 -0.21826636425226431 0 0.49339479356139498 -0.2081884388192663 0 0.48244309040580807 -0.2277774841191581 0 0.46903285614812051 -0.21826636425226431 0 0.46970777703978411 -0.20118732557093241 0 0.49339479356139498 -0.2081884388192663 0 0.4699664508452388 -0.18034214174574531 0 0.48678958712279108 -0.18652226481441581 0 0.46970777703978411 -0.20118732557093241 0 0.48678958712279108 -0.18652226481441581 0 0.46970777703978411 -0.20118732557093241 0 0.49339479356139498 -0.2081884388192663 0 0.48678958712279108 -0.18652226481441581 0 0.49339479356139498 -0.2081884388192663 0 0.48678958712279108 -0.18652226481441581 0 0.5 -0.19997233671985509 0 0.49339479356139498 -0.2081884388192663 0 0.5 -0.19997233671985509 0 0.49339479356139498 -0.2081884388192663 0 0.49999999999999939 -0.22985461282411671 0 0.49339479356139498 -0.2081884388192663 0 0.49999999999999939 -0.22985461282411671 0 0.49339479356139498 -0.2081884388192663 0 0.49999999999999939 -0.22985461282411671 0 0.48244309040580807 -0.2277774841191581 0 0.46903285614812051 -0.21826636425226431 0 0.48244309040580807 -0.2277774841191581 0 0.47137242311591487 -0.2481695350995827 0 0.48244309040580807 -0.2277774841191581 0 0.47137242311591487 -0.2481695350995827 0 0.48603637735565658 -0.24951887519163851 0 0.48244309040580807 -0.2277774841191581 0 0.48603637735565658 -0.24951887519163851 0 0.49999999999999939 -0.22985461282411671 0 0.48603637735565658 -0.24951887519163851 0 0.5 -0.25711534802331137 0 0.49999999999999939 -0.22985461282411671 0 0.48244309040580807 -0.2277774841191581 0 0.48603637735565658 -0.24951887519163851 0 0.48603637735565658 -0.24951887519163851 0 0.5 -0.25711534802331137 0 0.48962966430550348 -0.27126026626411898 0 0.48603637735565658 -0.24951887519163851 0 0.48962966430550348 -0.27126026626411898 0 0.5 -0.25711534802331137 0 0.48962966430550348 -0.27126026626411898 0 0.50000000000000189 -0.28437608322250602 0 0.48962966430550348 -0.27126026626411898 0 0.50000000000000189 -0.28437608322250602 0 0.47267349332167719 -0.27262632581546042 0 0.47366020426263289 -0.28862767402305711 0 0.48701959181009219 -0.28176784162473478 0 0.48962966430550348 -0.27126026626411898 0 0.47267349332167719 -0.27262632581546042 0 0.48701959181009219 -0.28176784162473478 0 0.47137242311591487 -0.2481695350995827 0 0.48962966430550348 -0.27126026626411898 0 0.47267349332167719 -0.27262632581546042 0 0.47137242311591487 -0.2481695350995827 0 0.48603637735565658 -0.24951887519163851 0 0.48962966430550348 -0.27126026626411898 0 0.47137242311591487 -0.2481695350995827 0 0.48962966430550348 -0.27126026626411898 0 0.47137242311591487 -0.2481695350995827 0 0.47267349332167719 -0.27262632581546042 0 0.45751620168837759 -0.26365342051079288 0 0.44599599997607198 -0.24965978204602779 0 0.47137242311591487 -0.2481695350995827 0 0.45751620168837759 -0.26365342051079288 0 0.47267349332167719 -0.27262632581546042 0 0.45751620168837759 -0.26365342051079288 0 0.46087326971543258 -0.28494222639799188 0 0.45751620168837759 -0.26365342051079288 0 0.44046344452137542 -0.27078493512161528 0 0.46087326971543258 -0.28494222639799188 0 0.44599599997607198 -0.24965978204602779 0 0.45751620168837759 -0.26365342051079288 0 0.44046344452137542 -0.27078493512161528 0 0.44599599997607198 -0.24965978204602779 0 0.44046344452137542 -0.27078493512161528 0 0.4277230159403882 -0.25720133080015573 0 0.44435859768009489 -0.30732422522640379 0 0.44259806509373162 -0.28919155668608842 0 0.45524658727348738 -0.29821876846450751 0 0.44046344452137542 -0.27078493512161528 0 0.44259806509373162 -0.28919155668608842 0 0.46087326971543258 -0.28494222639799188 0 0.44259806509373162 -0.28919155668608842 0 0.46087326971543258 -0.28494222639799188 0 0.45524658727348738 -0.29821876846450751 0 0.46087326971543258 -0.28494222639799188 0 0.46683978048401348 -0.29788288712043759 0 0.45524658727348738 -0.29821876846450751 0 0.46087326971543258 -0.28494222639799188 0 0.46683978048401348 -0.29788288712043759 0 0.47366020426263289 -0.28862767402305711 0 0.44435859768009489 -0.30732422522640379 0 0.45524658727348738 -0.29821876846450751 0 0.46217375265462152 -0.30969927232241262 0 0.46683978048401348 -0.29788288712043759 0 0.45524658727348738 -0.29821876846450751 0 0.46217375265462152 -0.30969927232241262 0 0.46683978048401348 -0.29788288712043759 0 0.46217375265462152 -0.30969927232241262 0 0.47954468345000412 -0.30391168391910223 0 0.47954468345000412 -0.30391168391910223 0 0.47366020426263289 -0.28862767402305711 0 0.48701959181009219 -0.28176784162473478 0 0.47267349332167719 -0.27262632581546042 0 0.46087326971543258 -0.28494222639799188 0 0.47366020426263289 -0.28862767402305711 0 0.47954468345000412 -0.30391168391910223 0 0.48701959181009219 -0.28176784162473478 0 0.46683978048401348 -0.29788288712043759 0 0.47954468345000412 -0.30391168391910223 0 0.47366020426263289 -0.28862767402305711 0 0.48962966430550348 -0.27126026626411898 0 0.50000000000000189 -0.28437608322250602 0 0.49390973069152783 -0.29715705614298482 0 0.50000000000000189 -0.28437608322250602 0 0.5 -0.30263101493746902 0 0.49390973069152783 -0.29715705614298482 0 0.47954468345000412 -0.30391168391910223 0 0.48701959181009219 -0.28176784162473478 0 0.49390973069152783 -0.29715705614298482 0 0.48962966430550348 -0.27126026626411898 0 0.48701959181009219 -0.28176784162473478 0 0.49390973069152783 -0.29715705614298482 0 0.48962966430550348 -0.27126026626411898 0 0.49390973069152783 -0.29715705614298482 0 0.5 -0.30263101493746902 0 0.49390973069152783 -0.29715705614298482 0 0.49818979707755728 -0.32305384602184978 0 0.47954468345000412 -0.30391168391910223 0 0.49390973069152783 -0.29715705614298482 0 0.49818979707755728 -0.32305384602184978 0 0.49390973069152783 -0.29715705614298482 0 0.49818979707755728 -0.32305384602184978 0 0.5 -0.30263101493746902 0 0.49818979707755728 -0.32305384602184978 0 0.5 -0.32088594665243209 0 0.5 -0.32088594665243209 0 0.49853760294476279 -0.32515826559142791 0 0.5 -0.38617369454138312 0 0.49818979707755728 -0.32305384602184978 0 0.5 -0.32088594665243209 0 0.49853760294476279 -0.32515826559142791 0 0.49818979707755728 -0.32305384602184978 0 0.49853760294476279 -0.32515826559142791 0 0.49818979707755728 -0.32305384602184978 0 0.5 -0.32088594665243209 0 0.49818979707755728 -0.32305384602184978 0 0.47972097135831032 -0.34517211526912001 0 0.49818979707755728 -0.32305384602184978 0 0.49853760294476279 -0.32515826559142791 0 0.47972097135831032 -0.34517211526912001 0 0.47206977508991588 -0.32605552621346973 0 0.47972097135831032 -0.34517211526912001 0 0.46459486672982769 -0.34819936850783723 0 0.49818979707755728 -0.32305384602184978 0 0.47206977508991588 -0.32605552621346973 0 0.47972097135831032 -0.34517211526912001 0 0.47954468345000412 -0.30391168391910223 0 0.49818979707755728 -0.32305384602184978 0 0.47206977508991588 -0.32605552621346973 0 0.47954468345000412 -0.30391168391910223 0 0.47206977508991588 -0.32605552621346973 0 0.46217375265462152 -0.30969927232241262 0 0.47954468345000412 -0.30391168391910223 0 0.47206977508991588 -0.32605552621346973 0 0.49853760294476279 -0.32515826559142791 0 0.47972097135831032 -0.34517211526912001 0 0.48351437618107218 -0.36557166804404889 0 0.49853760294476279 -0.32515826559142791 0 0.48351437618107218 -0.36557166804404889 0 0.5 -0.38617369454138312 0 0.47972097135831032 -0.34517211526912001 0 0.48351437618107218 -0.36557166804404889 0 0.4612521456390597 -0.36729038451638729 0 0.47972097135831032 -0.34517211526912001 0 0.4612521456390597 -0.36729038451638729 0 0.45711995836973951 -0.37034321080220473 0 0.4612521456390597 -0.36729038451638729 0 0.46459486672982769 -0.34819936850783723 0 0.45711995836973951 -0.37034321080220473 0 0.46459486672982769 -0.34819936850783723 0 0.45597388700215519 -0.3510717816552657 0 0.47972097135831032 -0.34517211526912001 0 0.4612521456390597 -0.36729038451638729 0 0.46459486672982769 -0.34819936850783723 0 0.45711995836973951 -0.37034321080220473 0 0.46459486672982769 -0.34819936850783723 0 0.46459486672982769 -0.34819936850783723 0 0.45597388700215519 -0.3510717816552657 0 0.45401706607343822 -0.34173266088720411 0 0.45597388700215519 -0.3510717816552657 0 0.44184586252412961 -0.34664049667104169 0 0.43725829270087629 -0.36831673671253667 0 0.45597388700215519 -0.3510717816552657 0 0.44184586252412961 -0.34664049667104169 0 0.45401706607343822 -0.34173266088720411 0 0.45597388700215519 -0.3510717816552657 0 0.43725829270087629 -0.36831673671253667 0 0.45711995836973951 -0.37034321080220473 0 0.45597388700215519 -0.3510717816552657 0 0.43725829270087629 -0.36831673671253667 0 0.46217375265462152 -0.30969927232241262 0 0.47206977508991588 -0.32605552621346973 0 0.45452590417837962 -0.32148332845977612 0 0.47206977508991588 -0.32605552621346973 0 0.45452590417837962 -0.32148332845977612 0 0.45945350902400123 -0.3335178863721931 0 0.44435859768009489 -0.30732422522640379 0 0.46217375265462152 -0.30969927232241262 0 0.45452590417837962 -0.32148332845977612 0 0.47206977508991588 -0.32605552621346973 0 0.46459486672982769 -0.34819936850783723 0 0.47206977508991588 -0.32605552621346973 0 0.46459486672982769 -0.34819936850783723 0 0.45945350902400123 -0.3335178863721931 0 0.46459486672982769 -0.34819936850783723 0 0.45401706607343822 -0.34173266088720411 0 0.45945350902400123 -0.3335178863721931 0 0.45401706607343822 -0.34173266088720411 0 0.45945350902400123 -0.3335178863721931 0 0.44949298944090149 -0.33102238750591417 0 0.45452590417837962 -0.32148332845977612 0 0.45945350902400123 -0.3335178863721931 0 0.44949298944090149 -0.33102238750591417 0 0.44949298944090149 -0.33102238750591417 0 0.43960680118074269 -0.32128067311826308 0 0.42776826203163032 -0.34279018703838637 0 0.44184586252412961 -0.34664049667104169 0 0.44949298944090149 -0.33102238750591417 0 0.42776826203163032 -0.34279018703838637 0 0.44949298944090149 -0.33102238750591417 0 0.42776826203163032 -0.34279018703838637 0 0.44184586252412961 -0.34664049667104169 0 0.45401706607343822 -0.34173266088720411 0 0.44949298944090149 -0.33102238750591417 0 0.45452590417837962 -0.32148332845977612 0 0.44949298944090149 -0.33102238750591417 0 0.43960680118074269 -0.32128067311826308 0 0.44435859768009489 -0.30732422522640379 0 0.45452590417837962 -0.32148332845977612 0 0.43960680118074269 -0.32128067311826308 0 0.44435859768009489 -0.30732422522640379 0 0.43960680118074269 -0.32128067311826308 0 0.43355097412465998 -0.31143167266087052 0 0.43960680118074269 -0.32128067311826308 0 0.42222889226423033 -0.31377396079187009 0 0.43355097412465998 -0.31143167266087052 0 0.43960680118074269 -0.32128067311826308 0 0.41192576480661358 -0.32965438940239339 0 0.43960680118074269 -0.32128067311826308 0 0.42222889226423033 -0.31377396079187009 0 0.41192576480661358 -0.32965438940239339 0 0.43960680118074269 -0.32128067311826308 0 0.42776826203163032 -0.34279018703838637 0 0.41192576480661358 -0.32965438940239339 0 0.42776826203163032 -0.34279018703838637 0 0.41192576480661358 -0.32965438940239339 0 0.40604353462235909 -0.35455798657085841 0 0.42222889226423033 -0.31377396079187009 0 0.41192576480661358 -0.32965438940239339 0 0.39978142524983928 -0.3181172401173592 0 0.43725829270087629 -0.36831673671253667 0 0.42262383785819552 -0.35923006860183693 0 0.41854269839959751 -0.38556169176980781 0 0.44184586252412961 -0.34664049667104169 0 0.42776826203163032 -0.34279018703838637 0 0.42262383785819552 -0.35923006860183693 0 0.44184586252412961 -0.34664049667104169 0 0.43725829270087629 -0.36831673671253667 0 0.42262383785819552 -0.35923006860183693 0 0.42776826203163032 -0.34279018703838637 0 0.42262383785819552 -0.35923006860183693 0 0.40604353462235909 -0.35455798657085841 0 0.42776826203163032 -0.34279018703838637 0 0.40604353462235909 -0.35455798657085841 0 0.42262383785819552 -0.35923006860183693 0 0.4024294783452203 -0.37416683928025107 0 0.41854269839959751 -0.38556169176980781 0 0.42262383785819552 -0.35923006860183693 0 0.4024294783452203 -0.37416683928025107 0 0.40604353462235909 -0.35455798657085841 0 0.40604353462235909 -0.35455798657085841 0 0.38431880721308798 -0.36632578610333039 0 0.4024294783452203 -0.37416683928025107 0 0.40604353462235909 -0.35455798657085841 0 0.38431880721308798 -0.36632578610333039 0 0.40604353462235909 -0.35455798657085841 0 0.38431880721308798 -0.36632578610333039 0 0.38424472843248442 -0.33802810568652369 0 0.38431880721308798 -0.36632578610333039 0 0.38424472843248442 -0.33802810568652369 0 0.3689832942181 -0.35831011676533292 0 0.39978142524983928 -0.3181172401173592 0 0.38096284545511888 -0.3183985270001119 0 0.39229925927071491 -0.30565285840566969 0 0.41192576480661358 -0.32965438940239339 0 0.39978142524983928 -0.3181172401173592 0 0.38424472843248442 -0.33802810568652369 0 0.41192576480661358 -0.32965438940239339 0 0.38424472843248442 -0.33802810568652369 0 0.41192576480661358 -0.32965438940239339 0 0.40604353462235909 -0.35455798657085841 0 0.38424472843248442 -0.33802810568652369 0 0.38424472843248442 -0.33802810568652369 0 0.38096284545511888 -0.3183985270001119 0 0.36724422664717382 -0.32878838774256169 0 0.39978142524983928 -0.3181172401173592 0 0.38424472843248442 -0.33802810568652369 0 0.38096284545511888 -0.3183985270001119 0 0.38096284545511888 -0.3183985270001119 0 0.37854106749779681 -0.30128135518808591 0 0.39229925927071491 -0.30565285840566969 0 0.37854106749779681 -0.30128135518808591 0 0.39229925927071491 -0.30565285840566969 0 0.38972854216538327 -0.28988345008209349 0 0.39978142524983928 -0.3181172401173592 0 0.39229925927071491 -0.30565285840566969 0 0.40764122669833741 -0.30056188933697481 0 0.39229925927071491 -0.30565285840566969 0 0.38972854216538327 -0.28988345008209349 0 0.40764122669833741 -0.30056188933697481 0 0.38972854216538327 -0.28988345008209349 0 0.40764122669833741 -0.30056188933697481 0 0.40635778100714731 -0.2828847114728632 0 0.37854106749779681 -0.30128135518808591 0 0.37749657929070801 -0.28237435872387351 0 0.38972854216538327 -0.28988345008209349 0 0.38735737267067433 -0.27066495459609169 0 0.36739914411634528 -0.27061986373044061 0 0.37749657929070801 -0.28237435872387351 0 0.38735737267067433 -0.27066495459609169 0 0.36739914411634528 -0.27061986373044061 0 0.37749657929070801 -0.28237435872387351 0 0.38972854216538327 -0.28988345008209349 0 0.38735737267067433 -0.27066495459609169 0 0.38735737267067433 -0.27066495459609169 0 0.38383010376315763 -0.25893909989001929 0 0.36833764995767848 -0.25843277603969472 0 0.38735737267067433 -0.27066495459609169 0 0.36833764995767848 -0.25843277603969472 0 0.38239558738084822 -0.24828307997950019 0 0.38383010376315763 -0.25893909989001929 0 0.36833764995767848 -0.25843277603969472 0 0.38735737267067433 -0.27066495459609169 0 0.38383010376315763 -0.25893909989001929 0 0.39722980504343369 -0.25837558894478962 0 0.38239558738084822 -0.24828307997950019 0 0.38383010376315763 -0.25893909989001929 0 0.39722980504343369 -0.25837558894478962 0 0.40646741491459182 -0.24266775271262619 0 0.39722980504343369 -0.25837558894478962 0 0.41305436357402792 -0.25485420803451297 0 0.38735737267067433 -0.27066495459609169 0 0.39722980504343369 -0.25837558894478962 0 0.41391040859602479 -0.27072494485885268 0 0.38972854216538327 -0.28988345008209349 0 0.38735737267067433 -0.27066495459609169 0 0.40635778100714731 -0.2828847114728632 0 0.38735737267067433 -0.27066495459609169 0 0.41391040859602479 -0.27072494485885268 0 0.40635778100714731 -0.2828847114728632 0 0.38735737267067433 -0.27066495459609169 0 0.40635778100714731 -0.2828847114728632 0 0.38735737267067433 -0.27066495459609169 0 0.41391040859602479 -0.27072494485885268 0 0.41391040859602479 -0.27072494485885268 0 0.42573757771238002 -0.28173812329781062 0 0.40635778100714731 -0.2828847114728632 0 0.39722980504343369 -0.25837558894478962 0 0.41391040859602479 -0.27072494485885268 0 0.41305436357402792 -0.25485420803451297 0 0.41391040859602479 -0.27072494485885268 0 0.41305436357402792 -0.25485420803451297 0 0.4277230159403882 -0.25720133080015573 0 0.42519086303444098 -0.23998278393976971 0 0.41305436357402792 -0.25485420803451297 0 0.4277230159403882 -0.25720133080015573 0 0.44046344452137542 -0.27078493512161528 0 0.41391040859602479 -0.27072494485885268 0 0.42573757771238002 -0.28173812329781062 0 0.44046344452137542 -0.27078493512161528 0 0.41391040859602479 -0.27072494485885268 0 0.44046344452137542 -0.27078493512161528 0 0.44259806509373162 -0.28919155668608842 0 0.42573757771238002 -0.28173812329781062 0 0.44046344452137542 -0.27078493512161528 0 0.41391040859602479 -0.27072494485885268 0 0.4277230159403882 -0.25720133080015573 0 0.44259806509373162 -0.28919155668608842 0 0.42573757771238002 -0.28173812329781062 0 0.42535818934362107 -0.2951044683496335 0 0.44435859768009489 -0.30732422522640379 0 0.42535818934362107 -0.2951044683496335 0 0.43355097412465998 -0.31143167266087052 0 0.42222889226423033 -0.31377396079187009 0 0.42535818934362107 -0.2951044683496335 0 0.43355097412465998 -0.31143167266087052 0 0.44435859768009489 -0.30732422522640379 0 0.44259806509373162 -0.28919155668608842 0 0.42535818934362107 -0.2951044683496335 0 0.44435859768009489 -0.30732422522640379 0 0.42535818934362107 -0.2951044683496335 0 0.42222889226423033 -0.31377396079187009 0 0.42535818934362107 -0.2951044683496335 0 0.40764122669833741 -0.30056188933697481 0 0.42222889226423033 -0.31377396079187009 0 0.39978142524983928 -0.3181172401173592 0 0.40764122669833741 -0.30056188933697481 0 0.42535818934362107 -0.2951044683496335 0 0.40764122669833741 -0.30056188933697481 0 0.40635778100714731 -0.2828847114728632 0 0.42535818934362107 -0.2951044683496335 0 0.40635778100714731 -0.2828847114728632 0 0.42573757771238002 -0.28173812329781062 0 0.42535818934362107 -0.2951044683496335 0 0.40635778100714731 -0.2828847114728632 0 0.5 -0.5 0 0.46721269804519788 -0.45192723495752379 0 0.5 -0.43522801879982348 0 0.44519312025765961 -0.49999999999999972 0 0.4587391263075678 -0.47694837234938942 0 0.5 -0.5 0 0.44519312025765961 -0.49999999999999972 0 0.4378940562595165 -0.47415982890424652 0 0.43005833288184919 -0.48763392346593692 0 0.44519312025765961 -0.49999999999999972 0 0.4378940562595165 -0.47415982890424652 0 0.4378940562595165 -0.47415982890424652 0 0.4587391263075678 -0.47694837234938942 0 0.44487261185169857 -0.45748516867407252 0 0.44519312025765961 -0.49999999999999972 0 0.4378940562595165 -0.47415982890424652 0 0.4587391263075678 -0.47694837234938942 0 0.4587391263075678 -0.47694837234938942 0 0.5 -0.5 0 0.46721269804519788 -0.45192723495752379 0 0.46721269804519788 -0.45192723495752379 0 0.46371647835764468 -0.42589943780431838 0 0.5 -0.43522801879982348 0 0.46721269804519788 -0.45192723495752379 0 0.44487261185169857 -0.45748516867407252 0 0.45166237431785811 -0.44009700241048511 0 0.46721269804519788 -0.45192723495752379 0 0.45166237431785811 -0.44009700241048511 0 0.46371647835764468 -0.42589943780431838 0 0.4587391263075678 -0.47694837234938942 0 0.46721269804519788 -0.45192723495752379 0 0.44487261185169857 -0.45748516867407252 0 0.4378940562595165 -0.47415982890424652 0 0.44487261185169857 -0.45748516867407252 0 0.43059499226137338 -0.44831965780849342 0 0.44487261185169857 -0.45748516867407252 0 0.43994961099573371 -0.44063491301665569 0 0.43059499226137338 -0.44831965780849342 0 0.44487261185169857 -0.45748516867407252 0 0.43994961099573371 -0.44063491301665569 0 0.45166237431785811 -0.44009700241048511 0 0.43994961099573371 -0.44063491301665569 0 0.44692515118507992 -0.42410973388113521 0 0.43376158441064139 -0.4316810981773932 0 0.43994961099573371 -0.44063491301665569 0 0.45166237431785811 -0.44009700241048511 0 0.44692515118507992 -0.42410973388113521 0 0.44692515118507992 -0.42410973388113521 0 0.44069913294654772 -0.40890813090319189 0 0.45542039724449901 -0.40062048023485619 0 0.44692515118507992 -0.42410973388113521 0 0.44069913294654772 -0.40890813090319189 0 0.43376158441064139 -0.4316810981773932 0 0.46371647835764468 -0.42589943780431838 0 0.47550080658017058 -0.39885027343953561 0 0.45542039724449901 -0.40062048023485619 0 0.44692515118507992 -0.42410973388113521 0 0.46371647835764468 -0.42589943780431838 0 0.45542039724449901 -0.40062048023485619 0 0.45166237431785811 -0.44009700241048511 0 0.44692515118507992 -0.42410973388113521 0 0.46371647835764468 -0.42589943780431838 0 0.46371647835764468 -0.42589943780431838 0 0.5 -0.43522801879982348 0 0.47550080658017058 -0.39885027343953561 0 0.5 -0.43522801879982348 0 0.5 -0.38617369454138312 0 0.47550080658017058 -0.39885027343953561 0 0.48351437618107218 -0.36557166804404889 0 0.4612521456390597 -0.36729038451638729 0 0.47550080658017058 -0.39885027343953561 0 0.48351437618107218 -0.36557166804404889 0 0.5 -0.38617369454138312 0 0.47550080658017058 -0.39885027343953561 0 0.45711995836973951 -0.37034321080220473 0 0.4612521456390597 -0.36729038451638729 0 0.44278331991980913 -0.38940865376365458 0 0.4612521456390597 -0.36729038451638729 0 0.47550080658017058 -0.39885027343953561 0 0.45542039724449901 -0.40062048023485619 0 0.4612521456390597 -0.36729038451638729 0 0.45542039724449901 -0.40062048023485619 0 0.44278331991980913 -0.38940865376365458 0 0.44069913294654772 -0.40890813090319189 0 0.45542039724449901 -0.40062048023485619 0 0.44278331991980913 -0.38940865376365458 0 0.45711995836973951 -0.37034321080220473 0 0.43725829270087629 -0.36831673671253667 0 0.44278331991980913 -0.38940865376365458 0 0.4612521456390597 -0.36729038451638729 0 0.44278331991980913 -0.38940865376365458 0 0.43725829270087629 -0.36831673671253667 0 0.41854269839959751 -0.38556169176980781 0 0.43725829270087629 -0.36831673671253667 0 0.44278331991980913 -0.38940865376365458 0 0.41854269839959751 -0.38556169176980781 0 0.44278331991980913 -0.38940865376365458 0 0.41854269839959751 -0.38556169176980781 0 0.4243144942005585 -0.41152692301092192 0 0.44278331991980913 -0.38940865376365458 0 0.4243144942005585 -0.41152692301092192 0 0.44069913294654772 -0.40890813090319189 0 0.44278331991980913 -0.38940865376365458 0 0.4243144942005585 -0.41152692301092192 0 0.41854269839959751 -0.38556169176980781 0 0.39982710409831862 -0.40280664682707878 0 0.4243144942005585 -0.41152692301092192 0 0.41854269839959751 -0.38556169176980781 0 0.39982710409831862 -0.40280664682707878 0 0.4024294783452203 -0.37416683928025107 0 0.41854269839959751 -0.38556169176980781 0 0.39982710409831862 -0.40280664682707878 0 0.4024294783452203 -0.37416683928025107 0 0.38431880721308798 -0.36632578610333039 0 0.38546565537993871 -0.38710232369321662 0 0.4024294783452203 -0.37416683928025107 0 0.38546565537993871 -0.38710232369321662 0 0.39982710409831862 -0.40280664682707878 0 0.38431880721308798 -0.36632578610333039 0 0.38546565537993871 -0.38710232369321662 0 0.36259407980381692 -0.37809358563580248 0 0.38546565537993871 -0.38710232369321662 0 0.38467199553552661 -0.40206213615926722 0 0.39982710409831862 -0.40280664682707878 0 0.38546565537993871 -0.38710232369321662 0 0.38467199553552661 -0.40206213615926722 0 0.36995057727811331 -0.39786542255765572 0 0.39982710409831862 -0.40280664682707878 0 0.38344464538573553 -0.42047415155911788 0 0.40584566848130799 -0.4336451922581892 0 0.38467199553552661 -0.40206213615926722 0 0.38344464538573553 -0.42047415155911788 0 0.36995057727811331 -0.39786542255765572 0 0.38467199553552661 -0.40206213615926722 0 0.39982710409831862 -0.40280664682707878 0 0.38344464538573553 -0.42047415155911788 0 0.38344464538573553 -0.42047415155911788 0 0.37691683557173572 -0.4354002665163676 0 0.39010948581035271 -0.43414187090184708 0 0.38344464538573553 -0.42047415155911788 0 0.39010948581035271 -0.43414187090184708 0 0.40584566848130799 -0.4336451922581892 0 0.40584566848130799 -0.4336451922581892 0 0.4243144942005585 -0.41152692301092192 0 0.40584566848130799 -0.4336451922581892 0 0.42112594450211749 -0.43649324312384669 0 0.4243144942005585 -0.41152692301092192 0 0.39982710409831862 -0.40280664682707878 0 0.40584566848130799 -0.4336451922581892 0 0.4243144942005585 -0.41152692301092192 0 0.44069913294654772 -0.40890813090319189 0 0.4243144942005585 -0.41152692301092192 0 0.43376158441064139 -0.4316810981773932 0 0.44069913294654772 -0.40890813090319189 0 0.43376158441064139 -0.4316810981773932 0 0.42112594450211749 -0.43649324312384669 0 0.4243144942005585 -0.41152692301092192 0 0.43376158441064139 -0.4316810981773932 0 0.42112594450211749 -0.43649324312384669 0 0.43376158441064139 -0.4316810981773932 0 0.42682403587473522 -0.4544540654515945 0 0.43994961099573371 -0.44063491301665569 0 0.43376158441064139 -0.4316810981773932 0 0.43059499226137338 -0.44831965780849342 0 0.43376158441064139 -0.4316810981773932 0 0.43059499226137338 -0.44831965780849342 0 0.42682403587473522 -0.4544540654515945 0 0.43376158441064139 -0.4316810981773932 0 0.42682403587473522 -0.4544540654515945 0 0.42682403587473522 -0.4544540654515945 0 0.41988648733882888 -0.47722703272579559 0 0.4378940562595165 -0.47415982890424652 0 0.42682403587473522 -0.4544540654515945 0 0.41988648733882888 -0.47722703272579559 0 0.4378940562595165 -0.47415982890424652 0 0.43059499226137338 -0.44831965780849342 0 0.42682403587473522 -0.4544540654515945 0 0.4378940562595165 -0.47415982890424652 0 0.43059499226137338 -0.44831965780849342 0 0.41747542715151947 -0.46052010474250521 0 0.40729425589320151 -0.46094773010152429 0 0.41988648733882888 -0.47722703272579559 0 0.42682403587473522 -0.4544540654515945 0 0.41747542715151947 -0.46052010474250521 0 0.41988648733882888 -0.47722703272579559 0 0.42682403587473522 -0.4544540654515945 0 0.41747542715151947 -0.46052010474250521 0 0.41589692949931262 -0.44945159069110668 0 0.41747542715151947 -0.46052010474250521 0 0.40729425589320151 -0.46094773010152429 0 0.41589692949931262 -0.44945159069110668 0 0.40584566848130799 -0.4336451922581892 0 0.42112594450211749 -0.43649324312384669 0 0.41589692949931262 -0.44945159069110668 0 0.42112594450211749 -0.43649324312384669 0 0.42682403587473522 -0.4544540654515945 0 0.41589692949931262 -0.44945159069110668 0 0.40584566848130799 -0.4336451922581892 0 0.40729425589320151 -0.46094773010152429 0 0.41589692949931262 -0.44945159069110668 0 0.40584566848130799 -0.4336451922581892 0 0.40729425589320151 -0.46094773010152429 0 0.38737684276205731 -0.45576346150545649 0 0.40584566848130799 -0.4336451922581892 0 0.38737684276205731 -0.45576346150545649 0 0.40584566848130799 -0.4336451922581892 0 0.385539979935277 -0.44737487096537448 0 0.38737684276205731 -0.45576346150545649 0 0.39010948581035271 -0.43414187090184708 0 0.40584566848130799 -0.4336451922581892 0 0.385539979935277 -0.44737487096537448 0 0.37691683557173572 -0.4354002665163676 0 0.39010948581035271 -0.43414187090184708 0 0.385539979935277 -0.44737487096537448 0 0.37691683557173572 -0.4354002665163676 0 0.385539979935277 -0.44737487096537448 0 0.36534163142114201 -0.44525279965723208 0 0.385539979935277 -0.44737487096537448 0 0.38737684276205731 -0.45576346150545649 0 0.36690988061846758 -0.46491658064358338 0 0.38737684276205731 -0.45576346150545649 0 0.36890801704280668 -0.47788173075272378 0 0.385539979935277 -0.44737487096537448 0 0.36690988061846758 -0.46491658064358338 0 0.40729425589320151 -0.46094773010152429 0 0.38737684276205731 -0.45576346150545649 0 0.4005196510176634 -0.47995724848524768 0 0.38737684276205731 -0.45576346150545649 0 0.4005196510176634 -0.47995724848524768 0 0.38403852818980211 -0.48272048814868562 0 0.38737684276205731 -0.45576346150545649 0 0.38403852818980211 -0.48272048814868562 0 0.36890801704280668 -0.47788173075272378 0 0.38403852818980211 -0.48272048814868562 0 0.39211235630980212 -0.5 0 0.37127577381668081 -0.5 0 0.4005196510176634 -0.47995724848524768 0 0.38403852818980211 -0.48272048814868562 0 0.39211235630980212 -0.5 0 0.4005196510176634 -0.47995724848524768 0 0.39211235630980212 -0.5 0 0.41294893880292349 -0.499999999999997 0 0.4005196510176634 -0.47995724848524768 0 0.41294893880292349 -0.499999999999997 0 0.41988648733882888 -0.47722703272579559 0 0.41294893880292349 -0.499999999999997 0 0.41988648733882888 -0.47722703272579559 0 0.41294893880292349 -0.499999999999997 0 0.41988648733882888 -0.47722703272579559 0 0.43005833288184919 -0.48763392346593692 0 0.40729425589320151 -0.46094773010152429 0 0.4005196510176634 -0.47995724848524768 0 0.41988648733882888 -0.47722703272579559 0 0.4378940562595165 -0.47415982890424652 0 0.41988648733882888 -0.47722703272579559 0 0.43005833288184919 -0.48763392346593692 0 0.44519312025765961 -0.49999999999999972 0 0.43005833288184919 -0.48763392346593692 0 0.42907102953029153 -0.5 0 0.41294893880292349 -0.499999999999997 0 0.43005833288184919 -0.48763392346593692 0 0.42907102953029153 -0.5 0 0.32700412445262922 -0.48463201190809962 0 0.32964968198484818 -0.50000000000000089 0 0.31049857924223828 -0.49009814725053269 0 0.32964968198484818 -0.50000000000000089 0 0.30698783679753883 -0.5 0 0.31049857924223828 -0.49009814725053269 0 0.32700412445262922 -0.48463201190809962 0 0.31310731338212611 -0.47742635206927858 0 0.31049857924223828 -0.49009814725053269 0 0.32700412445262922 -0.48463201190809962 0 0.31310731338212611 -0.47742635206927858 0 0.33348526635227521 -0.47317726989889408 0 0.31310731338212611 -0.47742635206927858 0 0.33348526635227521 -0.47317726989889408 0 0.31809946673549883 -0.46578974098580478 0 0.31310731338212611 -0.47742635206927858 0 0.31809946673549883 -0.46578974098580478 0 0.30770619373922231 -0.46640933190370631 0 0.32700412445262922 -0.48463201190809962 0 0.33348526635227521 -0.47317726989889408 0 0.34827978130165821 -0.48245829032179238 0 0.32964968198484818 -0.50000000000000089 0 0.35043919132355927 -0.49999999999999373 0 0.34827978130165821 -0.48245829032179238 0 0.32964968198484818 -0.50000000000000089 0 0.34827978130165821 -0.48245829032179238 0 0.32700412445262922 -0.48463201190809962 0 0.32964968198484818 -0.50000000000000089 0 0.34827978130165821 -0.48245829032179238 0 0.35043919132355927 -0.49999999999999373 0 0.36890801704280668 -0.47788173075272378 0 0.34827978130165821 -0.48245829032179238 0 0.38403852818980211 -0.48272048814868562 0 0.37127577381668081 -0.5 0 0.36890801704280668 -0.47788173075272378 0 0.35043919132355927 -0.49999999999999373 0 0.37127577381668081 -0.5 0 0.36890801704280668 -0.47788173075272378 0 0.35043919132355927 -0.49999999999999373 0 0.36890801704280668 -0.47788173075272378 0 0.36890801704280668 -0.47788173075272378 0 0.34827978130165821 -0.48245829032179238 0 0.36690988061846758 -0.46491658064358338 0 0.34827978130165821 -0.48245829032179238 0 0.36690988061846758 -0.46491658064358338 0 0.33348526635227521 -0.47317726989889408 0 0.34827978130165821 -0.48245829032179238 0 0.35048522092265499 -0.46480699149953081 0 0.34827978130165821 -0.48245829032179238 0 0.35048522092265499 -0.46480699149953081 0 0.36690988061846758 -0.46491658064358338 0 0.35738471305555902 -0.45566158677547708 0 0.35048522092265499 -0.46480699149953081 0 0.34564036999422121 -0.44807332078514789 0 0.35738471305555902 -0.45566158677547708 0 0.35048522092265499 -0.46480699149953081 0 0.36690988061846758 -0.46491658064358338 0 0.38737684276205731 -0.45576346150545649 0 0.36890801704280668 -0.47788173075272378 0 0.36690988061846758 -0.46491658064358338 0 0.35738471305555902 -0.45566158677547708 0 0.36690988061846758 -0.46491658064358338 0 0.36534163142114201 -0.44525279965723208 0 0.385539979935277 -0.44737487096537448 0 0.36690988061846758 -0.46491658064358338 0 0.36534163142114201 -0.44525279965723208 0 0.36534163142114201 -0.44525279965723208 0 0.34564036999422121 -0.44807332078514789 0 0.35779547363616732 -0.42296937167140181 0 0.35738471305555902 -0.45566158677547708 0 0.36534163142114201 -0.44525279965723208 0 0.34564036999422121 -0.44807332078514789 0 0.34564036999422121 -0.44807332078514789 0 0.32851781256824347 -0.45464811382271969 0 0.33542369548232931 -0.43255533971038501 0 0.33348526635227521 -0.47317726989889408 0 0.35048522092265499 -0.46480699149953081 0 0.34564036999422121 -0.44807332078514789 0 0.33348526635227521 -0.47317726989889408 0 0.34564036999422121 -0.44807332078514789 0 0.33348526635227521 -0.47317726989889408 0 0.34564036999422121 -0.44807332078514789 0 0.32851781256824347 -0.45464811382271969 0 0.33348526635227521 -0.47317726989889408 0 0.32851781256824347 -0.45464811382271969 0 0.31809946673549883 -0.46578974098580478 0 0.32851781256824347 -0.45464811382271969 0 0.31809946673549883 -0.46578974098580478 0 0.31206486676565892 -0.45530613981540358 0 0.31809946673549883 -0.46578974098580478 0 0.31206486676565892 -0.45530613981540358 0 0.30770619373922231 -0.46640933190370631 0 0.32851781256824347 -0.45464811382271969 0 0.31767628736544218 -0.44318457360955538 0 0.33542369548232931 -0.43255533971038501 0 0.32851781256824347 -0.45464811382271969 0 0.31767628736544218 -0.44318457360955538 0 0.31206486676565892 -0.45530613981540358 0 0.32878945366914081 -0.41012357299672852 0 0.33542369548232931 -0.43255533971038501 0 0.31034882158485022 -0.42734244552937523 0 0.31767628736544218 -0.44318457360955538 0 0.33542369548232931 -0.43255533971038501 0 0.31034882158485022 -0.42734244552937523 0 0.32878945366914081 -0.41012357299672852 0 0.30452913602498122 -0.40862153130369772 0 0.31034882158485022 -0.42734244552937523 0 0.32878945366914081 -0.41012357299672852 0 0.33542369548232931 -0.43255533971038501 0 0.35779547363616732 -0.42296937167140181 0 0.34564036999422121 -0.44807332078514789 0 0.35779547363616732 -0.42296937167140181 0 0.34564036999422121 -0.44807332078514789 0 0.33542369548232931 -0.43255533971038501 0 0.35779547363616732 -0.42296937167140181 0 0.38344464538573553 -0.42047415155911788 0 0.37691683557173572 -0.4354002665163676 0 0.35779547363616732 -0.42296937167140181 0 0.37691683557173572 -0.4354002665163676 0 0.36534163142114201 -0.44525279965723208 0 0.35779547363616732 -0.42296937167140181 0 0.38344464538573553 -0.42047415155911788 0 0.35779547363616732 -0.42296937167140181 0 0.36995057727811331 -0.39786542255765572 0 0.35779547363616732 -0.42296937167140181 0 0.36995057727811331 -0.39786542255765572 0 0.35779547363616732 -0.42296937167140181 0 0.34868865998339188 -0.39967165766822599 0 0.36995057727811331 -0.39786542255765572 0 0.32878945366914081 -0.41012357299672852 0 0.35779547363616732 -0.42296937167140181 0 0.34868865998339188 -0.39967165766822599 0 0.34868865998339188 -0.39967165766822599 0 0.36995057727811331 -0.39786542255765572 0 0.36259407980381692 -0.37809358563580248 0 0.38546565537993871 -0.38710232369321662 0 0.36995057727811331 -0.39786542255765572 0 0.36259407980381692 -0.37809358563580248 0 0.36259407980381692 -0.37809358563580248 0 0.34668395347050518 -0.38370795539682101 0 0.34289405917448779 -0.37054664264174991 0 0.34868865998339188 -0.39967165766822599 0 0.36259407980381692 -0.37809358563580248 0 0.34668395347050518 -0.38370795539682101 0 0.34868865998339188 -0.39967165766822599 0 0.34668395347050518 -0.38370795539682101 0 0.33255901492032458 -0.38651993564150572 0 0.33255901492032458 -0.38651993564150572 0 0.34289405917448779 -0.37054664264174991 0 0.33083029988665508 -0.37096000160335357 0 0.34668395347050518 -0.38370795539682101 0 0.33255901492032458 -0.38651993564150572 0 0.34289405917448779 -0.37054664264174991 0 0.32878945366914081 -0.41012357299672852 0 0.34868865998339188 -0.39967165766822599 0 0.33255901492032458 -0.38651993564150572 0 0.32878945366914081 -0.41012357299672852 0 0.31506741213293948 -0.3929118574380378 0 0.30452913602498122 -0.40862153130369772 0 0.32878945366914081 -0.41012357299672852 0 0.33255901492032458 -0.38651993564150572 0 0.31506741213293948 -0.3929118574380378 0 0.33255901492032458 -0.38651993564150572 0 0.31506741213293948 -0.3929118574380378 0 0.31898546976758219 -0.37199788987537458 0 0.33255901492032458 -0.38651993564150572 0 0.33083029988665508 -0.37096000160335357 0 0.31898546976758219 -0.37199788987537458 0 0.31506741213293948 -0.3929118574380378 0 0.29496616738285691 -0.38713702173115261 0 0.31898546976758219 -0.37199788987537458 0 0.31506741213293948 -0.3929118574380378 0 0.29496616738285691 -0.38713702173115261 0 0.30452913602498122 -0.40862153130369772 0 0.29496616738285691 -0.38713702173115261 0 0.28352318482535022 -0.40880455050796499 0 0.30452913602498122 -0.40862153130369772 0 0.29496616738285691 -0.38713702173115261 0 0.27018185723317562 -0.3928714298101682 0 0.28352318482535022 -0.40880455050796499 0 0.29496616738285691 -0.38713702173115261 0 0.27018185723317562 -0.3928714298101682 0 0.27352058293596743 -0.37152297082304497 0 0.25958906805366788 -0.38509416330003671 0 0.27018185723317562 -0.3928714298101682 0 0.27352058293596743 -0.37152297082304497 0 0.25958906805366788 -0.38509416330003671 0 0.27352058293596743 -0.37152297082304497 0 0.24583954656183821 -0.37989668710717522 0 0.27352058293596743 -0.37152297082304497 0 0.24583954656183821 -0.37989668710717522 0 0.25958906805366788 -0.38509416330003671 0 0.2488142854836905 -0.39608556545975832 0 0.24583954656183821 -0.37989668710717522 0 0.27018185723317562 -0.3928714298101682 0 0.25902581985590339 -0.41832754609287509 0 0.2488142854836905 -0.39608556545975832 0 0.25958906805366788 -0.38509416330003671 0 0.27018185723317562 -0.3928714298101682 0 0.2488142854836905 -0.39608556545975832 0 0.27018185723317562 -0.3928714298101682 0 0.25902581985590339 -0.41832754609287509 0 0.28352318482535022 -0.40880455050796499 0 0.25902581985590339 -0.41832754609287509 0 0.27811069113329312 -0.42666491051128652 0 0.28352318482535022 -0.40880455050796499 0 0.25902581985590339 -0.41832754609287509 0 0.2488142854836905 -0.39608556545975832 0 0.25902581985590339 -0.41832754609287509 0 0.24458567755625779 -0.41149206855898302 0 0.2488142854836905 -0.39608556545975832 0 0.25902581985590339 -0.41832754609287509 0 0.26923735422811618 -0.44056952672599192 0 0.25720603490363919 -0.44626966043819438 0 0.25902581985590339 -0.41832754609287509 0 0.26923735422811618 -0.44056952672599192 0 0.25902581985590339 -0.41832754609287509 0 0.25720603490363919 -0.44626966043819438 0 0.2349631812069525 -0.42972781351727768 0 0.25902581985590339 -0.41832754609287509 0 0.27811069113329312 -0.42666491051128652 0 0.26923735422811618 -0.44056952672599192 0 0.27811069113329312 -0.42666491051128652 0 0.28060581909500543 -0.43710209597042132 0 0.26923735422811618 -0.44056952672599192 0 0.27811069113329312 -0.42666491051128652 0 0.29177294194822878 -0.43344993029353801 0 0.29425397926681751 -0.41924286390128518 0 0.27811069113329312 -0.42666491051128652 0 0.28060581909500543 -0.43710209597042132 0 0.29177294194822878 -0.43344993029353801 0 0.27811069113329312 -0.42666491051128652 0 0.29425397926681751 -0.41924286390128518 0 0.28352318482535022 -0.40880455050796499 0 0.29425397926681751 -0.41924286390128518 0 0.28352318482535022 -0.40880455050796499 0 0.30452913602498122 -0.40862153130369772 0 0.29425397926681751 -0.41924286390128518 0 0.30452913602498122 -0.40862153130369772 0 0.31034882158485022 -0.42734244552937523 0 0.29177294194822878 -0.43344993029353801 0 0.29425397926681751 -0.41924286390128518 0 0.31034882158485022 -0.42734244552937523 0 0.29177294194822878 -0.43344993029353801 0 0.31034882158485022 -0.42734244552937523 0 0.30304498679142772 -0.44396323363810902 0 0.31767628736544218 -0.44318457360955538 0 0.31034882158485022 -0.42734244552937523 0 0.30304498679142772 -0.44396323363810902 0 0.30304498679142772 -0.44396323363810902 0 0.31206486676565892 -0.45530613981540358 0 0.29734445339411869 -0.45784184493252639 0 0.31767628736544218 -0.44318457360955538 0 0.30304498679142772 -0.44396323363810902 0 0.31206486676565892 -0.45530613981540358 0 0.30770619373922231 -0.46640933190370631 0 0.29734445339411869 -0.45784184493252639 0 0.30130496852074312 -0.47536710622167622 0 0.31206486676565892 -0.45530613981540358 0 0.30770619373922231 -0.46640933190370631 0 0.29734445339411869 -0.45784184493252639 0 0.29734445339411869 -0.45784184493252639 0 0.28353905943753283 -0.47415364235229329 0 0.29734445339411869 -0.45784184493252639 0 0.28649582786442518 -0.46805226433019598 0 0.28353905943753283 -0.47415364235229329 0 0.29734445339411869 -0.45784184493252639 0 0.28795414737537561 -0.45873316546686471 0 0.28721457730676903 -0.4466160595283144 0 0.29734445339411869 -0.45784184493252639 0 0.28649582786442518 -0.46805226433019598 0 0.28795414737537561 -0.45873316546686471 0 0.28649582786442518 -0.46805226433019598 0 0.28403954506633389 -0.46213128515879498 0 0.28795414737537561 -0.45873316546686471 0 0.28403954506633389 -0.46213128515879498 0 0.28316635945729879 -0.45930191262415682 0 0.27944888860032702 -0.46281150735910959 0 0.28649582786442518 -0.46805226433019598 0 0.28403954506633389 -0.46213128515879498 0 0.27944888860032702 -0.46281150735910959 0 0.28649582786442518 -0.46805226433019598 0 0.28092738418645152 -0.46603185299905148 0 0.28230168297608071 -0.46978226038482829 0 0.28649582786442518 -0.46805226433019598 0 0.27944888860032702 -0.46281150735910959 0 0.28649582786442518 -0.46805226433019598 0 0.27944888860032702 -0.46281150735910959 0 0.28092738418645152 -0.46603185299905148 0 0.28316635945729879 -0.45930191262415682 0 0.28122285678715908 -0.4535316925118581 0 0.27944888860032702 -0.46281150735910959 0 0.28795414737537561 -0.45873316546686471 0 0.28316635945729879 -0.45930191262415682 0 0.28122285678715908 -0.4535316925118581 0 0.28403954506633389 -0.46213128515879498 0 0.28795414737537561 -0.45873316546686471 0 0.28316635945729879 -0.45930191262415682 0 0.30304498679142772 -0.44396323363810902 0 0.29734445339411869 -0.45784184493252639 0 0.28721457730676903 -0.4466160595283144 0 0.28795414737537561 -0.45873316546686471 0 0.28721457730676903 -0.4466160595283144 0 0.28122285678715908 -0.4535316925118581 0 0.29177294194822878 -0.43344993029353801 0 0.30304498679142772 -0.44396323363810902 0 0.28721457730676903 -0.4466160595283144 0 0.28060581909500543 -0.43710209597042132 0 0.29177294194822878 -0.43344993029353801 0 0.28721457730676903 -0.4466160595283144 0 0.28060581909500543 -0.43710209597042132 0 0.28721457730676903 -0.4466160595283144 0 0.26923735422811618 -0.44056952672599192 0 0.26923735422811618 -0.44056952672599192 0 0.27944888860032702 -0.46281150735910959 0 0.26923735422811618 -0.44056952672599192 0 0.28122285678715908 -0.4535316925118581 0 0.27944888860032702 -0.46281150735910959 0 0.28721457730676903 -0.4466160595283144 0 0.26923735422811618 -0.44056952672599192 0 0.28122285678715908 -0.4535316925118581 0 0.26923735422811618 -0.44056952672599192 0 0.25720603490363919 -0.44626966043819438 0 0.27944888860032702 -0.46281150735910959 0 0.25720603490363919 -0.44626966043819438 0 0.25581343166225801 -0.45598587035180721 0 0.24538897653839259 -0.45606013660258321 0 0.25503377928763937 -0.46343917210454472 0 0.25581343166225801 -0.45598587035180721 0 0.24538897653839259 -0.45606013660258321 0 0.25720603490363919 -0.44626966043819438 0 0.25581343166225801 -0.45598587035180721 0 0.26562493591936059 -0.45817451226190647 0 0.25503377928763937 -0.46343917210454472 0 0.25581343166225801 -0.45598587035180721 0 0.26562493591936059 -0.45817451226190647 0 0.25503377928763937 -0.46343917210454472 0 0.26497441494620622 -0.46548527584892352 0 0.26268738410699488 -0.47245646523083651 0 0.25503377928763937 -0.46343917210454472 0 0.26562493591936059 -0.45817451226190647 0 0.26497441494620622 -0.46548527584892352 0 0.25720603490363919 -0.44626966043819438 0 0.27944888860032702 -0.46281150735910959 0 0.26497441494620622 -0.46548527584892352 0 0.27137861480690129 -0.46445906676346038 0 0.27093586443668333 -0.46955466292280867 0 0.26562493591936059 -0.45817451226190647 0 0.27137861480690129 -0.46445906676346038 0 0.27944888860032702 -0.46281150735910959 0 0.25720603490363919 -0.44626966043819438 0 0.26562493591936059 -0.45817451226190647 0 0.27944888860032702 -0.46281150735910959 0 0.26562493591936059 -0.45817451226190647 0 0.26497441494620622 -0.46548527584892352 0 0.27137861480690129 -0.46445906676346038 0 0.27137861480690129 -0.46445906676346038 0 0.27599939488268049 -0.46634477680516567 0 0.27093586443668333 -0.46955466292280867 0 0.27137861480690129 -0.46445906676346038 0 0.27599939488268049 -0.46634477680516567 0 0.27944888860032702 -0.46281150735910959 0 0.27944888860032702 -0.46281150735910959 0 0.28092738418645152 -0.46603185299905148 0 0.27599939488268049 -0.46634477680516567 0 0.27944888860032702 -0.46281150735910959 0 0.28092738418645152 -0.46603185299905148 0 0.27599939488268049 -0.46634477680516567 0 0.28092738418645152 -0.46603185299905148 0 0.27768109505554822 -0.47061088365926362 0 0.27768109505554822 -0.47061088365926362 0 0.27203108106363227 -0.47762285761736623 0 0.27093586443668333 -0.46955466292280867 0 0.27768109505554822 -0.47061088365926362 0 0.27203108106363227 -0.47762285761736623 0 0.28353905943753283 -0.47415364235229329 0 0.26973366548094763 -0.49046543977206081 0 0.28353905943753283 -0.47415364235229329 0 0.26973366548094763 -0.49046543977206081 0 0.28289498127206508 -0.48382143684047968 0 0.28353905943753283 -0.47415364235229329 0 0.27768109505554822 -0.47061088365926362 0 0.28230168297608071 -0.46978226038482829 0 0.28353905943753283 -0.47415364235229329 0 0.27203108106363227 -0.47762285761736623 0 0.26973366548094763 -0.49046543977206081 0 0.28353905943753283 -0.47415364235229329 0 0.28092738418645152 -0.46603185299905148 0 0.27768109505554822 -0.47061088365926362 0 0.28230168297608071 -0.46978226038482829 0 0.27599939488268049 -0.46634477680516567 0 0.27768109505554822 -0.47061088365926362 0 0.27093586443668333 -0.46955466292280867 0 0.27203108106363227 -0.47762285761736623 0 0.26268738410699488 -0.47245646523083651 0 0.26389297998693612 -0.48191398840700722 0 0.27203108106363227 -0.47762285761736623 0 0.26389297998693612 -0.48191398840700722 0 0.26973366548094763 -0.49046543977206081 0 0.27203108106363227 -0.47762285761736623 0 0.27093586443668333 -0.46955466292280867 0 0.26268738410699488 -0.47245646523083651 0 0.26497441494620622 -0.46548527584892352 0 0.27093586443668333 -0.46955466292280867 0 0.26268738410699488 -0.47245646523083651 0 0.26268738410699488 -0.47245646523083651 0 0.26389297998693612 -0.48191398840700722 0 0.25407204585126059 -0.47620043434077042 0 0.25407204585126059 -0.47620043434077042 0 0.25491662500511097 -0.48445596515858608 0 0.2464824476869493 -0.48087113117199448 0 0.26389297998693612 -0.48191398840700722 0 0.25407204585126059 -0.47620043434077042 0 0.25491662500511097 -0.48445596515858608 0 0.25503377928763937 -0.46343917210454472 0 0.25407204585126059 -0.47620043434077042 0 0.24397303115376431 -0.47314498618462919 0 0.25503377928763937 -0.46343917210454472 0 0.26268738410699488 -0.47245646523083651 0 0.25407204585126059 -0.47620043434077042 0 0.25491662500511097 -0.48445596515858608 0 0.26973366548094763 -0.49046543977206081 0 0.24107657024902099 -0.4907236406560157 0 0.26973366548094763 -0.49046543977206081 0 0.24107657024902099 -0.4907236406560157 0 0.26166414642292007 -0.49999999999999911 0 0.26973366548094763 -0.49046543977206081 0 0.24107657024902099 -0.4907236406560157 0 0.26389297998693612 -0.48191398840700722 0 0.25491662500511097 -0.48445596515858608 0 0.26973366548094763 -0.49046543977206081 0 0.26973366548094763 -0.49046543977206081 0 0.2901161223615929 -0.49028179351129753 0 0.26973366548094763 -0.49046543977206081 0 0.2901161223615929 -0.49028179351129753 0 0.28289498127206508 -0.48382143684047968 0 0.26166414642292007 -0.49999999999999911 0 0.26973366548094763 -0.49046543977206081 0 0.26166414642292007 -0.49999999999999911 0 0.26973366548094763 -0.49046543977206081 0 0.28432599161022948 -0.5 0 0.28432599161022948 -0.5 0 0.2901161223615929 -0.49028179351129753 0 0.30698783679753883 -0.5 0 0.26973366548094763 -0.49046543977206081 0 0.28432599161022948 -0.5 0 0.2901161223615929 -0.49028179351129753 0 0.28289498127206508 -0.48382143684047968 0 0.28353905943753283 -0.47415364235229329 0 0.29241187532797969 -0.47758175532629188 0 0.2901161223615929 -0.49028179351129753 0 0.28289498127206508 -0.48382143684047968 0 0.29241187532797969 -0.47758175532629188 0 0.29734445339411869 -0.45784184493252639 0 0.28353905943753283 -0.47415364235229329 0 0.29241187532797969 -0.47758175532629188 0 0.28649582786442518 -0.46805226433019598 0 0.28230168297608071 -0.46978226038482829 0 0.28353905943753283 -0.47415364235229329 0 0.2901161223615929 -0.49028179351129753 0 0.29241187532797969 -0.47758175532629188 0 0.29927166698182628 -0.48402470809947862 0 0.29734445339411869 -0.45784184493252639 0 0.29241187532797969 -0.47758175532629188 0 0.30130496852074312 -0.47536710622167622 0 0.29241187532797969 -0.47758175532629188 0 0.29927166698182628 -0.48402470809947862 0 0.30130496852074312 -0.47536710622167622 0 0.29927166698182628 -0.48402470809947862 0 0.30130496852074312 -0.47536710622167622 0 0.30611301963230841 -0.48244298351364467 0 0.31310731338212611 -0.47742635206927858 0 0.30770619373922231 -0.46640933190370631 0 0.30130496852074312 -0.47536710622167622 0 0.31310731338212611 -0.47742635206927858 0 0.30130496852074312 -0.47536710622167622 0 0.30611301963230841 -0.48244298351364467 0 0.31310731338212611 -0.47742635206927858 0 0.30611301963230841 -0.48244298351364467 0 0.31049857924223828 -0.49009814725053269 0 0.2901161223615929 -0.49028179351129753 0 0.30698783679753883 -0.5 0 0.31049857924223828 -0.49009814725053269 0 0.2901161223615929 -0.49028179351129753 0 0.31049857924223828 -0.49009814725053269 0 0.29927166698182628 -0.48402470809947862 0 0.30611301963230841 -0.48244298351364467 0 0.31049857924223828 -0.49009814725053269 0 0.2901161223615929 -0.49028179351129753 0 0.29927166698182628 -0.48402470809947862 0 0.31049857924223828 -0.49009814725053269 0 0.34095827995425032 -0.29012695832502849 0 0.32491773948603098 -0.28606216958119102 0 0.33245232168688882 -0.27054090970552541 0 0.34095827995425032 -0.29012695832502849 0 0.32892328444339242 -0.29950960167713531 0 0.32491773948603098 -0.28606216958119102 0 0.34095827995425032 -0.29012695832502849 0 0.3527190839753353 -0.30299037072501589 0 0.33592363771660227 -0.31311351187357261 0 0.34095827995425032 -0.29012695832502849 0 0.32892328444339242 -0.29950960167713531 0 0.33592363771660227 -0.31311351187357261 0 0.31410372665620689 -0.30443912167880199 0 0.33592363771660227 -0.31311351187357261 0 0.32892328444339242 -0.29950960167713531 0 0.31410372665620689 -0.30443912167880199 0 0.33592363771660227 -0.31311351187357261 0 0.31410372665620689 -0.30443912167880199 0 0.32491773948603098 -0.28606216958119102 0 0.30956632487289981 -0.28415741229002878 0 0.32892328444339242 -0.29950960167713531 0 0.31410372665620689 -0.30443912167880199 0 0.32491773948603098 -0.28606216958119102 0 0.32491773948603098 -0.28606216958119102 0 0.31874593085573188 -0.26965377131483831 0 0.30956632487289981 -0.28415741229002878 0 0.32491773948603098 -0.28606216958119102 0 0.31874593085573188 -0.26965377131483831 0 0.33245232168688882 -0.27054090970552541 0 0.31874593085573188 -0.26965377131483831 0 0.31318274161812809 -0.26365317930056881 0 0.30627750564979223 -0.26893971800459993 0 0.31874593085573188 -0.26965377131483831 0 0.32891205146093527 -0.26003523287426328 0 0.33245232168688882 -0.27054090970552541 0 0.31678988285030069 -0.25058484649103441 0 0.31841056255108829 -0.25864114065415539 0 0.30846287012971518 -0.25828942325349441 0 0.31678988285030069 -0.25058484649103441 0 0.31841056255108829 -0.25864114065415539 0 0.32559372426922811 -0.25235623485284842 0 0.31841056255108829 -0.25864114065415539 0 0.31318274161812809 -0.26365317930056881 0 0.30846287012971518 -0.25828942325349441 0 0.31874593085573188 -0.26965377131483831 0 0.31841056255108829 -0.25864114065415539 0 0.31318274161812809 -0.26365317930056881 0 0.31874593085573188 -0.26965377131483831 0 0.31841056255108829 -0.25864114065415539 0 0.32891205146093527 -0.26003523287426328 0 0.31841056255108829 -0.25864114065415539 0 0.32559372426922811 -0.25235623485284842 0 0.32891205146093527 -0.26003523287426328 0 0.33400535805737203 -0.2517659625411961 0 0.32891205146093527 -0.26003523287426328 0 0.344264411345303 -0.25725337817701638 0 0.32559372426922811 -0.25235623485284842 0 0.33400535805737203 -0.2517659625411961 0 0.32891205146093527 -0.26003523287426328 0 0.32891205146093527 -0.26003523287426328 0 0.33245232168688882 -0.27054090970552541 0 0.344264411345303 -0.25725337817701638 0 0.33910009289611492 -0.24372601578183781 0 0.33400535805737203 -0.2517659625411961 0 0.344264411345303 -0.25725337817701638 0 0.33245232168688882 -0.27054090970552541 0 0.3499257329016171 -0.27058038671798762 0 0.344264411345303 -0.25725337817701638 0 0.34095827995425032 -0.29012695832502849 0 0.33245232168688882 -0.27054090970552541 0 0.3499257329016171 -0.27058038671798762 0 0.33245232168688882 -0.27054090970552541 0 0.3499257329016171 -0.27058038671798762 0 0.3499257329016171 -0.27058038671798762 0 0.35749531244398569 -0.26167621274589947 0 0.36739914411634528 -0.27061986373044061 0 0.35863868890170608 -0.28111223412796538 0 0.3499257329016171 -0.27058038671798762 0 0.36739914411634528 -0.27061986373044061 0 0.3499257329016171 -0.27058038671798762 0 0.36739914411634528 -0.27061986373044061 0 0.34095827995425032 -0.29012695832502849 0 0.35863868890170608 -0.28111223412796538 0 0.3499257329016171 -0.27058038671798762 0 0.34992682598094399 -0.2438058699606922 0 0.344264411345303 -0.25725337817701638 0 0.35754962389898892 -0.25149465906435842 0 0.3499257329016171 -0.27058038671798762 0 0.344264411345303 -0.25725337817701638 0 0.35749531244398569 -0.26167621274589947 0 0.344264411345303 -0.25725337817701638 0 0.35749531244398569 -0.26167621274589947 0 0.35754962389898892 -0.25149465906435842 0 0.35951862711982158 -0.2406260276213448 0 0.35754962389898892 -0.25149465906435842 0 0.36833764995767848 -0.25843277603969472 0 0.35749531244398569 -0.26167621274589947 0 0.35754962389898892 -0.25149465906435842 0 0.36833764995767848 -0.25843277603969472 0 0.35754962389898892 -0.25149465906435842 0 0.36833764995767848 -0.25843277603969472 0 0.35749531244398569 -0.26167621274589947 0 0.36833764995767848 -0.25843277603969472 0 0.36739914411634528 -0.27061986373044061 0 0.36833764995767848 -0.25843277603969472 0 0.36739914411634528 -0.27061986373044061 0 0.38735737267067433 -0.27066495459609169 0 0.36833764995767848 -0.25843277603969472 0 0.36739914411634528 -0.27061986373044061 0 0.37749657929070801 -0.28237435872387351 0 0.36739914411634528 -0.27061986373044061 0 0.36568938243403948 -0.29282219283154959 0 0.36739914411634528 -0.27061986373044061 0 0.36568938243403948 -0.29282219283154959 0 0.37854106749779681 -0.30128135518808591 0 0.37749657929070801 -0.28237435872387351 0 0.36568938243403948 -0.29282219283154959 0 0.35863868890170608 -0.28111223412796538 0 0.36739914411634528 -0.27061986373044061 0 0.36568938243403948 -0.29282219283154959 0 0.34095827995425032 -0.29012695832502849 0 0.35863868890170608 -0.28111223412796538 0 0.3527190839753353 -0.30299037072501589 0 0.35863868890170608 -0.28111223412796538 0 0.36568938243403948 -0.29282219283154959 0 0.3527190839753353 -0.30299037072501589 0 0.36568938243403948 -0.29282219283154959 0 0.3527190839753353 -0.30299037072501589 0 0.36397962075173451 -0.31502452193265851 0 0.36568938243403948 -0.29282219283154959 0 0.36397962075173451 -0.31502452193265851 0 0.37854106749779681 -0.30128135518808591 0 0.36568938243403948 -0.29282219283154959 0 0.36397962075173451 -0.31502452193265851 0 0.38096284545511888 -0.3183985270001119 0 0.37854106749779681 -0.30128135518808591 0 0.36397962075173451 -0.31502452193265851 0 0.36397962075173451 -0.31502452193265851 0 0.36724422664717382 -0.32878838774256169 0 0.3504702465381761 -0.32608896212286032 0 0.38096284545511888 -0.3183985270001119 0 0.36397962075173451 -0.31502452193265851 0 0.36724422664717382 -0.32878838774256169 0 0.38424472843248442 -0.33802810568652369 0 0.36724422664717382 -0.32878838774256169 0 0.35656369205835498 -0.34640182197065411 0 0.38424472843248442 -0.33802810568652369 0 0.35656369205835498 -0.34640182197065411 0 0.36724422664717382 -0.32878838774256169 0 0.3504702465381761 -0.32608896212286032 0 0.35656369205835498 -0.34640182197065411 0 0.3504702465381761 -0.32608896212286032 0 0.35656369205835498 -0.34640182197065411 0 0.33245656838307908 -0.34063460031132098 0 0.3527190839753353 -0.30299037072501589 0 0.36397962075173451 -0.31502452193265851 0 0.3504702465381761 -0.32608896212286032 0 0.3527190839753353 -0.30299037072501589 0 0.3504702465381761 -0.32608896212286032 0 0.33592363771660227 -0.31311351187357261 0 0.38431880721308798 -0.36632578610333039 0 0.36259407980381692 -0.37809358563580248 0 0.3689832942181 -0.35831011676533292 0 0.36259407980381692 -0.37809358563580248 0 0.3689832942181 -0.35831011676533292 0 0.35719516358275583 -0.36270128443035388 0 0.38431880721308798 -0.36632578610333039 0 0.36259407980381692 -0.37809358563580248 0 0.3689832942181 -0.35831011676533292 0 0.35656369205835498 -0.34640182197065411 0 0.35719516358275583 -0.36270128443035388 0 0.38424472843248442 -0.33802810568652369 0 0.3689832942181 -0.35831011676533292 0 0.35656369205835498 -0.34640182197065411 0 0.35656369205835498 -0.34640182197065411 0 0.35719516358275583 -0.36270128443035388 0 0.3288826556842257 -0.35477553825478442 0 0.36259407980381692 -0.37809358563580248 0 0.35719516358275583 -0.36270128443035388 0 0.34289405917448779 -0.37054664264174991 0 0.34289405917448779 -0.37054664264174991 0 0.33083029988665508 -0.37096000160335357 0 0.3288826556842257 -0.35477553825478442 0 0.35719516358275583 -0.36270128443035388 0 0.34289405917448779 -0.37054664264174991 0 0.3288826556842257 -0.35477553825478442 0 0.35656369205835498 -0.34640182197065411 0 0.3288826556842257 -0.35477553825478442 0 0.35656369205835498 -0.34640182197065411 0 0.3288826556842257 -0.35477553825478442 0 0.33245656838307908 -0.34063460031132098 0 0.3288826556842257 -0.35477553825478442 0 0.33245656838307908 -0.34063460031132098 0 0.30677130631061528 -0.34111148037627481 0 0.3288826556842257 -0.35477553825478442 0 0.30120161931009648 -0.36314925453891472 0 0.33083029988665508 -0.37096000160335357 0 0.3288826556842257 -0.35477553825478442 0 0.31898546976758219 -0.37199788987537458 0 0.3288826556842257 -0.35477553825478442 0 0.31898546976758219 -0.37199788987537458 0 0.30120161931009648 -0.36314925453891472 0 0.33592363771660227 -0.31311351187357261 0 0.33245656838307908 -0.34063460031132098 0 0.31799862798828821 -0.32443077202903359 0 0.3504702465381761 -0.32608896212286032 0 0.33592363771660227 -0.31311351187357261 0 0.33245656838307908 -0.34063460031132098 0 0.33245656838307908 -0.34063460031132098 0 0.30677130631061528 -0.34111148037627481 0 0.33245656838307908 -0.34063460031132098 0 0.31799862798828821 -0.32443077202903359 0 0.30677130631061528 -0.34111148037627481 0 0.31410372665620689 -0.30443912167880199 0 0.33592363771660227 -0.31311351187357261 0 0.31799862798828821 -0.32443077202903359 0 0.31410372665620689 -0.30443912167880199 0 0.31799862798828821 -0.32443077202903359 0 0.29439893518731269 -0.32011975226801498 0 0.31799862798828821 -0.32443077202903359 0 0.30677130631061528 -0.34111148037627481 0 0.29439893518731269 -0.32011975226801498 0 0.29439893518731269 -0.32011975226801498 0 0.26919843122085829 -0.32467734453298341 0 0.28108604423815148 -0.34158836044122848 0 0.30677130631061528 -0.34111148037627481 0 0.28108604423815148 -0.34158836044122848 0 0.30677130631061528 -0.34111148037627481 0 0.29439893518731269 -0.32011975226801498 0 0.28108604423815148 -0.34158836044122848 0 0.29496616738285691 -0.38713702173115261 0 0.31898546976758219 -0.37199788987537458 0 0.30120161931009648 -0.36314925453891472 0 0.3288826556842257 -0.35477553825478442 0 0.30677130631061528 -0.34111148037627481 0 0.30120161931009648 -0.36314925453891472 0 0.30120161931009648 -0.36314925453891472 0 0.27211590917613182 -0.35522612658685848 0 0.28108604423815148 -0.34158836044122848 0 0.30677130631061528 -0.34111148037627481 0 0.30120161931009648 -0.36314925453891472 0 0.28108604423815148 -0.34158836044122848 0 0.30120161931009648 -0.36314925453891472 0 0.27352058293596743 -0.37152297082304497 0 0.27211590917613182 -0.35522612658685848 0 0.29496616738285691 -0.38713702173115261 0 0.30120161931009648 -0.36314925453891472 0 0.27352058293596743 -0.37152297082304497 0 0.30120161931009648 -0.36314925453891472 0 0.27352058293596743 -0.37152297082304497 0 0.27352058293596743 -0.37152297082304497 0 0.27211590917613182 -0.35522612658685848 0 0.25669679711280169 -0.36205118638645611 0 0.27211590917613182 -0.35522612658685848 0 0.28108604423815148 -0.34158836044122848 0 0.25540078216568762 -0.34206524050618231 0 0.27211590917613182 -0.35522612658685848 0 0.25669679711280169 -0.36205118638645611 0 0.25540078216568762 -0.34206524050618231 0 0.25669679711280169 -0.36205118638645611 0 0.25540078216568762 -0.34206524050618231 0 0.24055670875288529 -0.35702118497538182 0 0.27352058293596743 -0.37152297082304497 0 0.25669679711280169 -0.36205118638645611 0 0.24583954656183821 -0.37989668710717522 0 0.29439893518731269 -0.32011975226801498 0 0.26919843122085829 -0.32467734453298341 0 0.27685803410614651 -0.30745307109841191 0 0.26919843122085829 -0.32467734453298341 0 0.259660424111052 -0.30961194238307299 0 0.27685803410614651 -0.30745307109841191 0 0.28108604423815148 -0.34158836044122848 0 0.25540078216568762 -0.34206524050618231 0 0.26919843122085829 -0.32467734453298341 0 0.28108604423815148 -0.34158836044122848 0 0.25540078216568762 -0.34206524050618231 0 0.26919843122085829 -0.32467734453298341 0 0.25540078216568762 -0.34206524050618231 0 0.24780266221312031 -0.32293856896847711 0 0.26919843122085829 -0.32467734453298341 0 0.259660424111052 -0.30961194238307299 0 0.24780266221312031 -0.32293856896847711 0 0.259660424111052 -0.30961194238307299 0 0.2546763412149694 -0.29502247761241579 0 0.24352898260121089 -0.30464655820294378 0 0.259660424111052 -0.30961194238307299 0 0.24352898260121089 -0.30464655820294378 0 0.24780266221312031 -0.32293856896847711 0 0.259660424111052 -0.30961194238307299 0 0.2546763412149694 -0.29502247761241579 0 0.26773001285928122 -0.29901970202347278 0 0.27046390453541608 -0.28709034128926098 0 0.2486439934750205 -0.27841595109449041 0 0.2546763412149694 -0.29502247761241579 0 0.27046390453541608 -0.28709034128926098 0 0.26773001285928122 -0.29901970202347278 0 0.2546763412149694 -0.29502247761241579 0 0.27046390453541608 -0.28709034128926098 0 0.2486439934750205 -0.27841595109449041 0 0.27046390453541608 -0.28709034128926098 0 0.27683394177416382 -0.29733196147379432 0 0.29228381559581151 -0.29576473148403148 0 0.27046390453541608 -0.28709034128926098 0 0.27587377797705609 -0.28804558115945578 0 0.29228381559581151 -0.29576473148403148 0 0.27046390453541608 -0.28709034128926098 0 0.26773001285928122 -0.29901970202347278 0 0.27683394177416382 -0.29733196147379432 0 0.27046390453541608 -0.28709034128926098 0 0.27587377797705609 -0.28804558115945578 0 0.27551977783460457 -0.27425374585800882 0 0.259660424111052 -0.30961194238307299 0 0.26773001285928122 -0.29901970202347278 0 0.27685803410614651 -0.30745307109841191 0 0.26773001285928122 -0.29901970202347278 0 0.27683394177416382 -0.29733196147379432 0 0.27685803410614651 -0.30745307109841191 0 0.29439893518731269 -0.32011975226801498 0 0.27685803410614651 -0.30745307109841191 0 0.29228381559581151 -0.29576473148403148 0 0.27683394177416382 -0.29733196147379432 0 0.27685803410614651 -0.30745307109841191 0 0.29228381559581151 -0.29576473148403148 0 0.27587377797705609 -0.28804558115945578 0 0.28946129011509469 -0.28398452472694807 0 0.29228381559581151 -0.29576473148403148 0 0.27046390453541608 -0.28709034128926098 0 0.29228381559581151 -0.29576473148403148 0 0.28946129011509469 -0.28398452472694807 0 0.29228381559581151 -0.29576473148403148 0 0.29813075996929572 -0.28081297894493878 0 0.29228381559581151 -0.29576473148403148 0 0.30956632487289981 -0.28415741229002878 0 0.29813075996929572 -0.28081297894493878 0 0.31410372665620689 -0.30443912167880199 0 0.29228381559581151 -0.29576473148403148 0 0.30956632487289981 -0.28415741229002878 0 0.31410372665620689 -0.30443912167880199 0 0.29439893518731269 -0.32011975226801498 0 0.29228381559581151 -0.29576473148403148 0 0.31410372665620689 -0.30443912167880199 0 0.29228381559581151 -0.29576473148403148 0 0.30422372247005153 -0.25477663167984083 0 0.29004875022355148 -0.27141110641964639 0 0.30422372247005153 -0.25477663167984083 0 0.30627750564979223 -0.26893971800459993 0 0.29004875022355148 -0.27141110641964639 0 0.31678988285030069 -0.25058484649103441 0 0.30422372247005153 -0.25477663167984083 0 0.30846287012971518 -0.25828942325349441 0 0.30422372247005153 -0.25477663167984083 0 0.30846287012971518 -0.25828942325349441 0 0.31318274161812809 -0.26365317930056881 0 0.30846287012971518 -0.25828942325349441 0 0.30627750564979223 -0.26893971800459993 0 0.30422372247005153 -0.25477663167984083 0 0.30846287012971518 -0.25828942325349441 0 0.30627750564979223 -0.26893971800459993 0 0.30627750564979223 -0.26893971800459993 0 0.29813075996929572 -0.28081297894493878 0 0.29004875022355148 -0.27141110641964639 0 0.31874593085573188 -0.26965377131483831 0 0.30956632487289981 -0.28415741229002878 0 0.30627750564979223 -0.26893971800459993 0 0.30956632487289981 -0.28415741229002878 0 0.30627750564979223 -0.26893971800459993 0 0.29813075996929572 -0.28081297894493878 0 0.27587377797705609 -0.28804558115945578 0 0.28946129011509469 -0.28398452472694807 0 0.29004875022355148 -0.27141110641964639 0 0.27587377797705609 -0.28804558115945578 0 0.29004875022355148 -0.27141110641964639 0 0.29004875022355148 -0.27141110641964639 0 0.28573134910733872 -0.25585429266773813 0 0.27551977783460457 -0.27425374585800882 0 0.28946129011509469 -0.28398452472694807 0 0.29813075996929572 -0.28081297894493878 0 0.29004875022355148 -0.27141110641964639 0 0.30422372247005153 -0.25477663167984083 0 0.29004875022355148 -0.27141110641964639 0 0.28573134910733872 -0.25585429266773813 0 0.27543402669994532 -0.24910534309240301 0 0.28573134910733872 -0.25585429266773813 0 0.26829238173963371 -0.2599684370851818 0 0.28573134910733872 -0.25585429266773813 0 0.26829238173963371 -0.2599684370851818 0 0.27551977783460457 -0.27425374585800882 0 0.27543402669994532 -0.24910534309240301 0 0.26358232833744422 -0.2424727382481226 0 0.26829238173963371 -0.2599684370851818 0 0.27587377797705609 -0.28804558115945578 0 0.29004875022355148 -0.27141110641964639 0 0.27551977783460457 -0.27425374585800882 0 0.26829238173963371 -0.2599684370851818 0 0.27551977783460457 -0.27425374585800882 0 0.26214719379346529 -0.27264107175074942 0 0.27046390453541608 -0.28709034128926098 0 0.27551977783460457 -0.27425374585800882 0 0.26214719379346529 -0.27264107175074942 0 0.27046390453541608 -0.28709034128926098 0 0.26214719379346529 -0.27264107175074942 0 0.2486439934750205 -0.27841595109449041 0 0.26214719379346529 -0.27264107175074942 0 0.249183462268279 -0.25713094297952488 0 0.2486439934750205 -0.27841595109449041 0 0.26358232833744422 -0.2424727382481226 0 0.26829238173963371 -0.2599684370851818 0 0.249183462268279 -0.25713094297952488 0 0.26829238173963371 -0.2599684370851818 0 0.26214719379346529 -0.27264107175074942 0 0.249183462268279 -0.25713094297952488 0 0.249183462268279 -0.25713094297952488 0 0.23477315424469389 -0.26842271364516729 0 0.22927533636427999 -0.2470671696831829 0 0.249183462268279 -0.25713094297952488 0 0.2486439934750205 -0.27841595109449041 0 0.23477315424469389 -0.26842271364516729 0 0.2486439934750205 -0.27841595109449041 0 0.23477315424469389 -0.26842271364516729 0 0.23356145010391549 -0.28903227635947082 0 0.23477315424469389 -0.26842271364516729 0 0.21320152901197409 -0.27046722810916762 0 0.23356145010391549 -0.28903227635947082 0 0.23477315424469389 -0.26842271364516729 0 0.21320152901197409 -0.27046722810916762 0 0.22927533636427999 -0.2470671696831829 0 0.21320152901197409 -0.27046722810916762 0 0.22927533636427999 -0.2470671696831829 0 0.21320152901197409 -0.27046722810916762 0 0.20129499954753871 -0.25133160893564049 0 0.22927533636427999 -0.2470671696831829 0 0.21320152901197409 -0.27046722810916762 0 0.1858551055233762 -0.26374402218189552 0 0.1859061777918618 -0.28095433545807169 0 0.21320152901197409 -0.27046722810916762 0 0.20129499954753871 -0.25133160893564049 0 0.1858551055233762 -0.26374402218189552 0 0.20129499954753871 -0.25133160893564049 0 0.1858551055233762 -0.26374402218189552 0 0.18363812540975549 -0.2472389054033737 0 0.1971277216596683 -0.29386728653515221 0 0.18105391430736251 -0.31726734496113679 0 0.19886462609391189 -0.31134603288761897 0 0.1971277216596683 -0.29386728653515221 0 0.18105391430736251 -0.31726734496113679 0 0.21320152901197409 -0.27046722810916762 0 0.1971277216596683 -0.29386728653515221 0 0.1859061777918618 -0.28095433545807169 0 0.21320152901197409 -0.27046722810916762 0 0.1971277216596683 -0.29386728653515221 0 0.21320152901197409 -0.27046722810916762 0 0.1971277216596683 -0.29386728653515221 0 0.2159457094943586 -0.29564097558985553 0 0.19886462609391189 -0.31134603288761897 0 0.2159457094943586 -0.29564097558985553 0 0.2265017400704484 -0.3113200335171028 0 0.19886462609391189 -0.31134603288761897 0 0.1971277216596683 -0.29386728653515221 0 0.2159457094943586 -0.29564097558985553 0 0.2159457094943586 -0.29564097558985553 0 0.2265017400704484 -0.3113200335171028 0 0.23356145010391549 -0.28903227635947082 0 0.21320152901197409 -0.27046722810916762 0 0.2159457094943586 -0.29564097558985553 0 0.23356145010391549 -0.28903227635947082 0 0.2546763412149694 -0.29502247761241579 0 0.23356145010391549 -0.28903227635947082 0 0.24352898260121089 -0.30464655820294378 0 0.2546763412149694 -0.29502247761241579 0 0.2486439934750205 -0.27841595109449041 0 0.23356145010391549 -0.28903227635947082 0 0.2265017400704484 -0.3113200335171028 0 0.23356145010391549 -0.28903227635947082 0 0.24352898260121089 -0.30464655820294378 0 0.2265017400704484 -0.3113200335171028 0 0.24352898260121089 -0.30464655820294378 0 0.24780266221312031 -0.32293856896847711 0 0.2265017400704484 -0.3113200335171028 0 0.24780266221312031 -0.32293856896847711 0 0.23256472038063389 -0.33502117899054701 0 0.25540078216568762 -0.34206524050618231 0 0.24780266221312031 -0.32293856896847711 0 0.23256472038063389 -0.33502117899054701 0 0.23256472038063389 -0.33502117899054701 0 0.2158396471567875 -0.34593663351588161 0 0.20930307662119471 -0.32655828092774392 0 0.2265017400704484 -0.3113200335171028 0 0.23256472038063389 -0.33502117899054701 0 0.20930307662119471 -0.32655828092774392 0 0.25669679711280169 -0.36205118638645611 0 0.24055670875288529 -0.35702118497538182 0 0.24583954656183821 -0.37989668710717522 0 0.24055670875288529 -0.35702118497538182 0 0.23075626102303451 -0.3728515272981055 0 0.24583954656183821 -0.37989668710717522 0 0.25540078216568762 -0.34206524050618231 0 0.23256472038063389 -0.33502117899054701 0 0.24055670875288529 -0.35702118497538182 0 0.24055670875288529 -0.35702118497538182 0 0.21847027858970561 -0.36621783371855959 0 0.2158396471567875 -0.34593663351588161 0 0.23256472038063389 -0.33502117899054701 0 0.24055670875288529 -0.35702118497538182 0 0.2158396471567875 -0.34593663351588161 0 0.24055670875288529 -0.35702118497538182 0 0.23075626102303451 -0.3728515272981055 0 0.21847027858970561 -0.36621783371855959 0 0.24055670875288529 -0.35702118497538182 0 0.21847027858970561 -0.36621783371855959 0 0.21847027858970561 -0.36621783371855959 0 0.1963838484265257 -0.37541448246173748 0 0.21847027858970561 -0.36621783371855959 0 0.2029585383000701 -0.35810186902671642 0 0.1963838484265257 -0.37541448246173748 0 0.2158396471567875 -0.34593663351588161 0 0.2029585383000701 -0.35810186902671642 0 0.19210441317194099 -0.34179652833838498 0 0.21847027858970561 -0.36621783371855959 0 0.2158396471567875 -0.34593663351588161 0 0.2029585383000701 -0.35810186902671642 0 0.2029585383000701 -0.35810186902671642 0 0.19210441317194099 -0.34179652833838498 0 0.18723650852750909 -0.36436459437949448 0 0.2029585383000701 -0.35810186902671642 0 0.18723650852750909 -0.36436459437949448 0 0.1963838484265257 -0.37541448246173748 0 0.19886462609391189 -0.31134603288761897 0 0.2265017400704484 -0.3113200335171028 0 0.20930307662119471 -0.32655828092774392 0 0.2265017400704484 -0.3113200335171028 0 0.20930307662119471 -0.32655828092774392 0 0.2158396471567875 -0.34593663351588161 0 0.20930307662119471 -0.32655828092774392 0 0.19210441317194099 -0.34179652833838498 0 0.20930307662119471 -0.32655828092774392 0 0.19210441317194099 -0.34179652833838498 0 0.20930307662119471 -0.32655828092774392 0 0.19210441317194099 -0.34179652833838498 0 0.18927473722192709 -0.32535310909185611 0 0.19886462609391189 -0.31134603288761897 0 0.20930307662119471 -0.32655828092774392 0 0.18927473722192709 -0.32535310909185611 0 0.19886462609391189 -0.31134603288761897 0 0.18927473722192709 -0.32535310909185611 0 0.18105391430736251 -0.31726734496113679 0 0.18105391430736251 -0.31726734496113679 0 0.1730720941421105 -0.31737581670331172 0 0.17749740010036899 -0.32344745315433188 0 0.18105391430736251 -0.31726734496113679 0 0.1730720941421105 -0.31737581670331172 0 0.17843700997123119 -0.30522522203657521 0 0.17749740010036899 -0.32344745315433188 0 0.17870035339199289 -0.33167858114743798 0 0.170516235210464 -0.32419908555908411 0 0.1730720941421105 -0.31737581670331172 0 0.17749740010036899 -0.32344745315433188 0 0.170516235210464 -0.32419908555908411 0 0.18927473722192709 -0.32535310909185611 0 0.18105391430736251 -0.31726734496113679 0 0.17749740010036899 -0.32344745315433188 0 0.18927473722192709 -0.32535310909185611 0 0.17749740010036899 -0.32344745315433188 0 0.17870035339199289 -0.33167858114743798 0 0.19210441317194099 -0.34179652833838498 0 0.18927473722192709 -0.32535310909185611 0 0.17870035339199289 -0.33167858114743798 0 0.19210441317194099 -0.34179652833838498 0 0.17473708792418099 -0.34206401797849229 0 0.17870035339199289 -0.33167858114743798 0 0.17870035339199289 -0.33167858114743798 0 0.17024683503005539 -0.33231108955924821 0 0.170516235210464 -0.32419908555908411 0 0.17473708792418099 -0.34206401797849229 0 0.17870035339199289 -0.33167858114743798 0 0.17024683503005539 -0.33231108955924821 0 0.17024683503005539 -0.33231108955924821 0 0.16462029456373159 -0.33763846028973138 0 0.16266020405990769 -0.32597530282149512 0 0.17473708792418099 -0.34206401797849229 0 0.17024683503005539 -0.33231108955924821 0 0.16462029456373159 -0.33763846028973138 0 0.17473708792418099 -0.34206401797849229 0 0.16462029456373159 -0.33763846028973138 0 0.16545131832889551 -0.34708741219719269 0 0.16462029456373159 -0.33763846028973138 0 0.15412876763843589 -0.3445310399698096 0 0.1543122309796007 -0.33139400358737792 0 0.16462029456373159 -0.33763846028973138 0 0.16545131832889551 -0.34708741219719269 0 0.15412876763843589 -0.3445310399698096 0 0.16462029456373159 -0.33763846028973138 0 0.16266020405990769 -0.32597530282149512 0 0.1543122309796007 -0.33139400358737792 0 0.16266020405990769 -0.32597530282149512 0 0.1632363789230859 -0.31893285398989718 0 0.15487278720864811 -0.31919320137034668 0 0.16266020405990769 -0.32597530282149512 0 0.15487278720864811 -0.31919320137034668 0 0.1543122309796007 -0.33139400358737792 0 0.1632363789230859 -0.31893285398989718 0 0.15803780292130629 -0.31348972747064008 0 0.15487278720864811 -0.31919320137034668 0 0.1730720941421105 -0.31737581670331172 0 0.1632363789230859 -0.31893285398989718 0 0.170516235210464 -0.32419908555908411 0 0.1730720941421105 -0.31737581670331172 0 0.1632363789230859 -0.31893285398989718 0 0.15803780292130629 -0.31348972747064008 0 0.17024683503005539 -0.33231108955924821 0 0.16266020405990769 -0.32597530282149512 0 0.170516235210464 -0.32419908555908411 0 0.16266020405990769 -0.32597530282149512 0 0.1632363789230859 -0.31893285398989718 0 0.170516235210464 -0.32419908555908411 0 0.18723650852750909 -0.36436459437949448 0 0.1963838484265257 -0.37541448246173748 0 0.17886155037258661 -0.37681591764212569 0 0.17426480488801979 -0.37048903382710913 0 0.18723650852750909 -0.36436459437949448 0 0.17886155037258661 -0.37681591764212569 0 0.17426480488801979 -0.37048903382710913 0 0.18723650852750909 -0.36436459437949448 0 0.17490574972268741 -0.35703477574902609 0 0.19210441317194099 -0.34179652833838498 0 0.18723650852750909 -0.36436459437949448 0 0.17490574972268741 -0.35703477574902609 0 0.19210441317194099 -0.34179652833838498 0 0.17473708792418099 -0.34206401797849229 0 0.17490574972268741 -0.35703477574902609 0 0.19210441317194099 -0.34179652833838498 0 0.17490574972268741 -0.35703477574902609 0 0.17490574972268741 -0.35703477574902609 0 0.16545131832889551 -0.34708741219719269 0 0.1582330973120058 -0.35562199083290669 0 0.17473708792418099 -0.34206401797849229 0 0.17490574972268741 -0.35703477574902609 0 0.16545131832889551 -0.34708741219719269 0 0.16545131832889551 -0.34708741219719269 0 0.1582330973120058 -0.35562199083290669 0 0.15412876763843589 -0.3445310399698096 0 0.17490574972268741 -0.35703477574902609 0 0.15770708627343691 -0.37227302315967092 0 0.17490574972268741 -0.35703477574902609 0 0.1582330973120058 -0.35562199083290669 0 0.15770708627343691 -0.37227302315967092 0 0.17426480488801979 -0.37048903382710913 0 0.17490574972268741 -0.35703477574902609 0 0.15770708627343691 -0.37227302315967092 0 0.15770708627343691 -0.37227302315967092 0 0.1376788770424183 -0.35737819106135399 0 0.1391110311350767 -0.37261691868665109 0 0.1582330973120058 -0.35562199083290669 0 0.15770708627343691 -0.37227302315967092 0 0.1376788770424183 -0.35737819106135399 0 0.15770708627343691 -0.37227302315967092 0 0.1376788770424183 -0.35737819106135399 0 0.1582330973120058 -0.35562199083290669 0 0.15412876763843589 -0.3445310399698096 0 0.1376788770424183 -0.35737819106135399 0 0.15412876763843589 -0.3445310399698096 0 0.1376788770424183 -0.35737819106135399 0 0.1444767876039634 -0.33806618185029519 0 0.1376788770424183 -0.35737819106135399 0 0.1444767876039634 -0.33806618185029519 0 0.13150140011442771 -0.33605452762183557 0 0.1376788770424183 -0.35737819106135399 0 0.11765066781140041 -0.34248335896303639 0 0.1248201907380299 -0.36363684837108118 0 0.1376788770424183 -0.35737819106135399 0 0.13150140011442771 -0.33605452762183557 0 0.11765066781140041 -0.34248335896303639 0 0.1376788770424183 -0.35737819106135399 0 0.11765066781140041 -0.34248335896303639 0 0.1376788770424183 -0.35737819106135399 0 0.1391110311350767 -0.37261691868665109 0 0.1248201907380299 -0.36363684837108118 0 0.1391110311350767 -0.37261691868665109 0 0.1276170841357129 -0.37816195344217318 0 0.1248201907380299 -0.36363684837108118 0 0.1440116870232486 -0.32409754804328578 0 0.14851445394196169 -0.31262015445959501 0 0.13952815315935799 -0.30914698732994461 0 0.15803780292130629 -0.31348972747064008 0 0.15487278720864811 -0.31919320137034668 0 0.14851445394196169 -0.31262015445959501 0 0.1440116870232486 -0.32409754804328578 0 0.15487278720864811 -0.31919320137034668 0 0.14851445394196169 -0.31262015445959501 0 0.1440116870232486 -0.32409754804328578 0 0.15487278720864811 -0.31919320137034668 0 0.1543122309796007 -0.33139400358737792 0 0.15412876763843589 -0.3445310399698096 0 0.1543122309796007 -0.33139400358737792 0 0.1444767876039634 -0.33806618185029519 0 0.1440116870232486 -0.32409754804328578 0 0.1543122309796007 -0.33139400358737792 0 0.1444767876039634 -0.33806618185029519 0 0.1440116870232486 -0.32409754804328578 0 0.1444767876039634 -0.33806618185029519 0 0.13150140011442771 -0.33605452762183557 0 0.13150140011442771 -0.33605452762183557 0 0.12537450164912489 -0.32583360346286522 0 0.1189838061657293 -0.33196696644828239 0 0.13150140011442771 -0.33605452762183557 0 0.12537450164912489 -0.32583360346286522 0 0.13355645892532561 -0.32132434924634801 0 0.12537450164912489 -0.32583360346286522 0 0.13355645892532561 -0.32132434924634801 0 0.12373562356947609 -0.31678119362931417 0 0.1440116870232486 -0.32409754804328578 0 0.13150140011442771 -0.33605452762183557 0 0.13355645892532561 -0.32132434924634801 0 0.1440116870232486 -0.32409754804328578 0 0.13355645892532561 -0.32132434924634801 0 0.13952815315935799 -0.30914698732994461 0 0.13355645892532561 -0.32132434924634801 0 0.12844577558116871 -0.30988530195065322 0 0.13952815315935799 -0.30914698732994461 0 0.13355645892532561 -0.32132434924634801 0 0.12844577558116871 -0.30988530195065322 0 0.12373562356947609 -0.31678119362931417 0 0.12844577558116871 -0.30988530195065322 0 0.13089662702219551 -0.30232917311616098 0 0.122259089804518 -0.30262204367803403 0 0.13089662702219551 -0.30232917311616098 0 0.1396088250872973 -0.29587615384039151 0 0.1246412914786356 -0.29411537878178168 0 0.13089662702219551 -0.30232917311616098 0 0.1246412914786356 -0.29411537878178168 0 0.122259089804518 -0.30262204367803403 0 0.13089662702219551 -0.30232917311616098 0 0.13952815315935799 -0.30914698732994461 0 0.1396088250872973 -0.29587615384039151 0 0.12844577558116871 -0.30988530195065322 0 0.13089662702219551 -0.30232917311616098 0 0.13952815315935799 -0.30914698732994461 0 0.14851445394196169 -0.31262015445959501 0 0.13952815315935799 -0.30914698732994461 0 0.15049330039072539 -0.29932661083004969 0 0.13952815315935799 -0.30914698732994461 0 0.15049330039072539 -0.29932661083004969 0 0.1396088250872973 -0.29587615384039151 0 0.15803780292130629 -0.31348972747064008 0 0.14851445394196169 -0.31262015445959501 0 0.15049330039072539 -0.29932661083004969 0 0.15049330039072539 -0.29932661083004969 0 0.151548357436358 -0.28747439461185348 0 0.12791450663934029 -0.28127740495678782 0 0.15049330039072539 -0.29932661083004969 0 0.151548357436358 -0.28747439461185348 0 0.16205642144906041 -0.29228981479550281 0 0.15049330039072539 -0.29932661083004969 0 0.1396088250872973 -0.29587615384039151 0 0.12791450663934029 -0.28127740495678782 0 0.151548357436358 -0.28747439461185348 0 0.12791450663934029 -0.28127740495678782 0 0.14177924048381541 -0.2765660433916648 0 0.1396088250872973 -0.29587615384039151 0 0.1224497833659107 -0.27957584667364271 0 0.1396088250872973 -0.29587615384039151 0 0.12791450663934029 -0.28127740495678782 0 0.1224497833659107 -0.27957584667364271 0 0.15049330039072539 -0.29932661083004969 0 0.12791450663934029 -0.28127740495678782 0 0.1396088250872973 -0.29587615384039151 0 0.1224497833659107 -0.27957584667364271 0 0.1246412914786356 -0.29411537878178168 0 0.12791450663934029 -0.28127740495678782 0 0.1330808699564664 -0.27008557697483032 0 0.1249604328357178 -0.27102265948516302 0 0.1330808699564664 -0.27008557697483032 0 0.1236937780082713 -0.26412796472653721 0 0.1249604328357178 -0.27102265948516302 0 0.12791450663934029 -0.28127740495678782 0 0.1330808699564664 -0.27008557697483032 0 0.14177924048381541 -0.2765660433916648 0 0.1330808699564664 -0.27008557697483032 0 0.13448309619329249 -0.25824462846157331 0 0.15004912102267259 -0.26448147272289563 0 0.13448309619329249 -0.25824462846157331 0 0.122950809996049 -0.25239340012073208 0 0.13262045681175449 -0.24449406379594699 0 0.13448309619329249 -0.25824462846157331 0 0.1236937780082713 -0.26412796472653721 0 0.122950809996049 -0.25239340012073208 0 0.1330808699564664 -0.27008557697483032 0 0.13448309619329249 -0.25824462846157331 0 0.1236937780082713 -0.26412796472653721 0 0.15004912102267259 -0.26448147272289563 0 0.1485498846089871 -0.24148855083393761 0 0.15004912102267259 -0.26448147272289563 0 0.16656330691575069 -0.25417207272616349 0 0.1485498846089871 -0.24148855083393761 0 0.13448309619329249 -0.25824462846157331 0 0.15004912102267259 -0.26448147272289563 0 0.1485498846089871 -0.24148855083393761 0 0.151548357436358 -0.28747439461185348 0 0.15004912102267259 -0.26448147272289563 0 0.14177924048381541 -0.2765660433916648 0 0.1330808699564664 -0.27008557697483032 0 0.15004912102267259 -0.26448147272289563 0 0.14177924048381541 -0.2765660433916648 0 0.151548357436358 -0.28747439461185348 0 0.15004912102267259 -0.26448147272289563 0 0.151548357436358 -0.28747439461185348 0 0.15004912102267259 -0.26448147272289563 0 0.16730912967120359 -0.27703240655233591 0 0.15004912102267259 -0.26448147272289563 0 0.16730912967120359 -0.27703240655233591 0 0.16656330691575069 -0.25417207272616349 0 0.16730912967120359 -0.27703240655233591 0 0.16656330691575069 -0.25417207272616349 0 0.1858551055233762 -0.26374402218189552 0 0.16656330691575069 -0.25417207272616349 0 0.1858551055233762 -0.26374402218189552 0 0.18363812540975549 -0.2472389054033737 0 0.16730912967120359 -0.27703240655233591 0 0.1858551055233762 -0.26374402218189552 0 0.1859061777918618 -0.28095433545807169 0 0.16730912967120359 -0.27703240655233591 0 0.1859061777918618 -0.28095433545807169 0 0.17529320178430291 -0.29304112094275958 0 0.1971277216596683 -0.29386728653515221 0 0.1859061777918618 -0.28095433545807169 0 0.17529320178430291 -0.29304112094275958 0 0.1971277216596683 -0.29386728653515221 0 0.18105391430736251 -0.31726734496113679 0 0.17843700997123119 -0.30522522203657521 0 0.1730720941421105 -0.31737581670331172 0 0.17843700997123119 -0.30522522203657521 0 0.16787040554748611 -0.30145171706163981 0 0.1971277216596683 -0.29386728653515221 0 0.17529320178430291 -0.29304112094275958 0 0.17843700997123119 -0.30522522203657521 0 0.17529320178430291 -0.29304112094275958 0 0.17843700997123119 -0.30522522203657521 0 0.16787040554748611 -0.30145171706163981 0 0.1730720941421105 -0.31737581670331172 0 0.15049330039072539 -0.29932661083004969 0 0.15049330039072539 -0.29932661083004969 0 0.16787040554748611 -0.30145171706163981 0 0.16205642144906041 -0.29228981479550281 0 0.1730720941421105 -0.31737581670331172 0 0.15803780292130629 -0.31348972747064008 0 0.15049330039072539 -0.29932661083004969 0 0.1730720941421105 -0.31737581670331172 0 0.15049330039072539 -0.29932661083004969 0 0.16787040554748611 -0.30145171706163981 0 0.16730912967120359 -0.27703240655233591 0 0.17529320178430291 -0.29304112094275958 0 0.16205642144906041 -0.29228981479550281 0 0.151548357436358 -0.28747439461185348 0 0.16730912967120359 -0.27703240655233591 0 0.16205642144906041 -0.29228981479550281 0 0.17529320178430291 -0.29304112094275958 0 0.16787040554748611 -0.30145171706163981 0 0.16205642144906041 -0.29228981479550281 0 0.19665944497451049 -0.48657824546695089 0 0.2063682028697752 -0.5 0 0.17872023109320281 -0.5 0 0.19665944497451049 -0.48657824546695089 0 0.19916240626110751 -0.47082756718197177 0 0.20833436366157229 -0.47895489250355677 0 0.19665944497451049 -0.48657824546695089 0 0.19916240626110751 -0.47082756718197177 0 0.1842242097311072 -0.48024281914927758 0 0.19916240626110751 -0.47082756718197177 0 0.18670759339650611 -0.46732136909016192 0 0.1842242097311072 -0.48024281914927758 0 0.19916240626110751 -0.47082756718197177 0 0.20833436366157229 -0.47895489250355677 0 0.21467337173610579 -0.46854845128016859 0 0.20833436366157229 -0.47895489250355677 0 0.2173756322858815 -0.47810765144475292 0 0.21467337173610579 -0.46854845128016859 0 0.20833436366157229 -0.47895489250355677 0 0.2173756322858815 -0.47810765144475292 0 0.21241947501709429 -0.49098184153996899 0 0.19665944497451049 -0.48657824546695089 0 0.21241947501709429 -0.49098184153996899 0 0.2063682028697752 -0.5 0 0.19665944497451049 -0.48657824546695089 0 0.20833436366157229 -0.47895489250355677 0 0.21241947501709429 -0.49098184153996899 0 0.21241947501709429 -0.49098184153996899 0 0.2063682028697752 -0.5 0 0.23401617464634761 -0.5 0 0.21241947501709429 -0.49098184153996899 0 0.23401617464634761 -0.5 0 0.24107657024902099 -0.4907236406560157 0 0.21241947501709429 -0.49098184153996899 0 0.24107657024902099 -0.4907236406560157 0 0.2274713191227464 -0.48125600322114143 0 0.21241947501709429 -0.49098184153996899 0 0.24107657024902099 -0.4907236406560157 0 0.26166414642292007 -0.49999999999999911 0 0.23401617464634761 -0.5 0 0.24107657024902099 -0.4907236406560157 0 0.25491662500511097 -0.48445596515858608 0 0.24107657024902099 -0.4907236406560157 0 0.2464824476869493 -0.48087113117199448 0 0.25407204585126059 -0.47620043434077042 0 0.24397303115376431 -0.47314498618462919 0 0.2464824476869493 -0.48087113117199448 0 0.24397303115376431 -0.47314498618462919 0 0.2464824476869493 -0.48087113117199448 0 0.2383739661755894 -0.47983062951997102 0 0.24107657024902099 -0.4907236406560157 0 0.2383739661755894 -0.47983062951997102 0 0.2274713191227464 -0.48125600322114143 0 0.24107657024902099 -0.4907236406560157 0 0.2464824476869493 -0.48087113117199448 0 0.2383739661755894 -0.47983062951997102 0 0.24397303115376431 -0.47314498618462919 0 0.2383739661755894 -0.47983062951997102 0 0.23343944183345089 -0.47154438910414648 0 0.24397303115376431 -0.47314498618462919 0 0.23343944183345089 -0.47154438910414648 0 0.2404995493850747 -0.46477991348397452 0 0.23343944183345089 -0.47154438910414648 0 0.2274713191227464 -0.48125600322114143 0 0.22452214931548881 -0.47217627458127998 0 0.2383739661755894 -0.47983062951997102 0 0.23343944183345089 -0.47154438910414648 0 0.2274713191227464 -0.48125600322114143 0 0.2173756322858815 -0.47810765144475292 0 0.21241947501709429 -0.49098184153996899 0 0.2274713191227464 -0.48125600322114143 0 0.2173756322858815 -0.47810765144475292 0 0.2274713191227464 -0.48125600322114143 0 0.22452214931548881 -0.47217627458127998 0 0.2173756322858815 -0.47810765144475292 0 0.22452214931548881 -0.47217627458127998 0 0.21467337173610579 -0.46854845128016859 0 0.22965098159925951 -0.46142487785619091 0 0.2178106002396325 -0.45514670206137758 0 0.21467337173610579 -0.46854845128016859 0 0.22452214931548881 -0.47217627458127998 0 0.22965098159925951 -0.46142487785619091 0 0.21467337173610579 -0.46854845128016859 0 0.22965098159925951 -0.46142487785619091 0 0.2338350789714109 -0.4468079314395117 0 0.2178106002396325 -0.45514670206137758 0 0.23343944183345089 -0.47154438910414648 0 0.22452214931548881 -0.47217627458127998 0 0.22965098159925951 -0.46142487785619091 0 0.23343944183345089 -0.47154438910414648 0 0.22965098159925951 -0.46142487785619091 0 0.2404995493850747 -0.46477991348397452 0 0.22965098159925951 -0.46142487785619091 0 0.24538897653839259 -0.45606013660258321 0 0.2338350789714109 -0.4468079314395117 0 0.22965098159925951 -0.46142487785619091 0 0.2404995493850747 -0.46477991348397452 0 0.24538897653839259 -0.45606013660258321 0 0.25503377928763937 -0.46343917210454472 0 0.24397303115376431 -0.47314498618462919 0 0.2404995493850747 -0.46477991348397452 0 0.25503377928763937 -0.46343917210454472 0 0.2404995493850747 -0.46477991348397452 0 0.24538897653839259 -0.45606013660258321 0 0.25720603490363919 -0.44626966043819438 0 0.24538897653839259 -0.45606013660258321 0 0.2338350789714109 -0.4468079314395117 0 0.25720603490363919 -0.44626966043819438 0 0.2338350789714109 -0.4468079314395117 0 0.2349631812069525 -0.42972781351727768 0 0.25720603490363919 -0.44626966043819438 0 0.2349631812069525 -0.42972781351727768 0 0.2338350789714109 -0.4468079314395117 0 0.2212005543772555 -0.44296402446083449 0 0.2178106002396325 -0.45514670206137758 0 0.2338350789714109 -0.4468079314395117 0 0.2212005543772555 -0.44296402446083449 0 0.2349631812069525 -0.42972781351727768 0 0.2073495146571675 -0.44698049227774678 0 0.19563255096235321 -0.44043816190007667 0 0.20820094609588449 -0.43088417246255012 0 0.2212005543772555 -0.44296402446083449 0 0.2073495146571675 -0.44698049227774678 0 0.20820094609588449 -0.43088417246255012 0 0.2212005543772555 -0.44296402446083449 0 0.2073495146571675 -0.44698049227774678 0 0.2178106002396325 -0.45514670206137758 0 0.2178106002396325 -0.45514670206137758 0 0.21467337173610579 -0.46854845128016859 0 0.2050666376436702 -0.45948047182569818 0 0.19916240626110751 -0.47082756718197177 0 0.21467337173610579 -0.46854845128016859 0 0.2050666376436702 -0.45948047182569818 0 0.2073495146571675 -0.44698049227774678 0 0.2178106002396325 -0.45514670206137758 0 0.2050666376436702 -0.45948047182569818 0 0.2050666376436702 -0.45948047182569818 0 0.1950514053378134 -0.46156783975666521 0 0.1965932951483754 -0.45254695265000949 0 0.19916240626110751 -0.47082756718197177 0 0.2050666376436702 -0.45948047182569818 0 0.1950514053378134 -0.46156783975666521 0 0.1950514053378134 -0.46156783975666521 0 0.1877270942394077 -0.45766283803548441 0 0.18670759339650611 -0.46732136909016192 0 0.19916240626110751 -0.47082756718197177 0 0.1950514053378134 -0.46156783975666521 0 0.18670759339650611 -0.46732136909016192 0 0.1950514053378134 -0.46156783975666521 0 0.1877270942394077 -0.45766283803548441 0 0.1965932951483754 -0.45254695265000949 0 0.1877270942394077 -0.45766283803548441 0 0.1877054933454371 -0.44926449164075088 0 0.1965932951483754 -0.45254695265000949 0 0.1877054933454371 -0.44926449164075088 0 0.19563255096235321 -0.44043816190007667 0 0.1965932951483754 -0.45254695265000949 0 0.2073495146571675 -0.44698049227774678 0 0.19563255096235321 -0.44043816190007667 0 0.1965932951483754 -0.45254695265000949 0 0.2073495146571675 -0.44698049227774678 0 0.2050666376436702 -0.45948047182569818 0 0.1965932951483754 -0.45254695265000949 0 0.18834771874503331 -0.42738382581320822 0 0.19623686992420439 -0.41648926914166889 0 0.20820094609588449 -0.43088417246255012 0 0.19563255096235321 -0.44043816190007667 0 0.18834771874503331 -0.42738382581320822 0 0.20820094609588449 -0.43088417246255012 0 0.19563255096235321 -0.44043816190007667 0 0.18834771874503331 -0.42738382581320822 0 0.1787021715675369 -0.44105606288026272 0 0.19623686992420439 -0.41648926914166889 0 0.19047747381358149 -0.39664411967544161 0 0.1814378834562568 -0.41434826116078433 0 0.19623686992420439 -0.41648926914166889 0 0.21272032751026601 -0.41318596659636098 0 0.19047747381358149 -0.39664411967544161 0 0.18834771874503331 -0.42738382581320822 0 0.19623686992420439 -0.41648926914166889 0 0.1814378834562568 -0.41434826116078433 0 0.19623686992420439 -0.41648926914166889 0 0.21272032751026601 -0.41318596659636098 0 0.20820094609588449 -0.43088417246255012 0 0.21272032751026601 -0.41318596659636098 0 0.20820094609588449 -0.43088417246255012 0 0.2349631812069525 -0.42972781351727768 0 0.2212005543772555 -0.44296402446083449 0 0.20820094609588449 -0.43088417246255012 0 0.2349631812069525 -0.42972781351727768 0 0.2349631812069525 -0.42972781351727768 0 0.24458567755625779 -0.41149206855898302 0 0.2314360397253282 -0.40377484035833983 0 0.25902581985590339 -0.41832754609287509 0 0.2349631812069525 -0.42972781351727768 0 0.24458567755625779 -0.41149206855898302 0 0.21272032751026601 -0.41318596659636098 0 0.2349631812069525 -0.42972781351727768 0 0.2314360397253282 -0.40377484035833983 0 0.21272032751026601 -0.41318596659636098 0 0.2349631812069525 -0.42972781351727768 0 0.2314360397253282 -0.40377484035833983 0 0.24583954656183821 -0.37989668710717522 0 0.21815851018770899 -0.38827040339130547 0 0.21272032751026601 -0.41318596659636098 0 0.2314360397253282 -0.40377484035833983 0 0.21815851018770899 -0.38827040339130547 0 0.24458567755625779 -0.41149206855898302 0 0.2314360397253282 -0.40377484035833983 0 0.2488142854836905 -0.39608556545975832 0 0.2314360397253282 -0.40377484035833983 0 0.2488142854836905 -0.39608556545975832 0 0.24583954656183821 -0.37989668710717522 0 0.23075626102303451 -0.3728515272981055 0 0.24583954656183821 -0.37989668710717522 0 0.21815851018770899 -0.38827040339130547 0 0.23075626102303451 -0.3728515272981055 0 0.21847027858970561 -0.36621783371855959 0 0.21815851018770899 -0.38827040339130547 0 0.24583954656183821 -0.37989668710717522 0 0.21815851018770899 -0.38827040339130547 0 0.21847027858970561 -0.36621783371855959 0 0.21815851018770899 -0.38827040339130547 0 0.1963838484265257 -0.37541448246173748 0 0.21815851018770899 -0.38827040339130547 0 0.19047747381358149 -0.39664411967544161 0 0.21272032751026601 -0.41318596659636098 0 0.21815851018770899 -0.38827040339130547 0 0.19047747381358149 -0.39664411967544161 0 0.21272032751026601 -0.41318596659636098 0 0.19047747381358149 -0.39664411967544161 0 0.21815851018770899 -0.38827040339130547 0 0.19047747381358149 -0.39664411967544161 0 0.1963838484265257 -0.37541448246173748 0 0.1963838484265257 -0.37541448246173748 0 0.17429741826334599 -0.38461113120491552 0 0.17886155037258661 -0.37681591764212569 0 0.1963838484265257 -0.37541448246173748 0 0.17429741826334599 -0.38461113120491552 0 0.19047747381358149 -0.39664411967544161 0 0.1963838484265257 -0.37541448246173748 0 0.17429741826334599 -0.38461113120491552 0 0.17429741826334599 -0.38461113120491552 0 0.17665753088647751 -0.3928753291820406 0 0.17140299159004679 -0.385816352022881 0 0.17429741826334599 -0.38461113120491552 0 0.17140299159004679 -0.385816352022881 0 0.17429741826334599 -0.38461113120491552 0 0.17195349329567991 -0.38286797142254458 0 0.17429741826334599 -0.38461113120491552 0 0.17195349329567991 -0.38286797142254458 0 0.17140299159004679 -0.385816352022881 0 0.17426480488801979 -0.37048903382710913 0 0.17195349329567991 -0.38286797142254458 0 0.17886155037258661 -0.37681591764212569 0 0.17426480488801979 -0.37048903382710913 0 0.17195349329567991 -0.38286797142254458 0 0.17429741826334599 -0.38461113120491552 0 0.17195349329567991 -0.38286797142254458 0 0.17886155037258661 -0.37681591764212569 0 0.19047747381358149 -0.39664411967544161 0 0.1736365096474802 -0.40173863470630811 0 0.19047747381358149 -0.39664411967544161 0 0.17429741826334599 -0.38461113120491552 0 0.17665753088647751 -0.3928753291820406 0 0.19047747381358149 -0.39664411967544161 0 0.1736365096474802 -0.40173863470630811 0 0.1814378834562568 -0.41434826116078433 0 0.19047747381358149 -0.39664411967544161 0 0.17429741826334599 -0.38461113120491552 0 0.1736365096474802 -0.40173863470630811 0 0.17665753088647751 -0.3928753291820406 0 0.17140299159004679 -0.385816352022881 0 0.19047747381358149 -0.39664411967544161 0 0.1736365096474802 -0.40173863470630811 0 0.17665753088647751 -0.3928753291820406 0 0.17140299159004679 -0.385816352022881 0 0.16665108553138069 -0.41126664126752749 0 0.16320029300295541 -0.39696292143703937 0 0.17140299159004679 -0.385816352022881 0 0.16665108553138069 -0.41126664126752749 0 0.1736365096474802 -0.40173863470630811 0 0.17140299159004679 -0.385816352022881 0 0.16665108553138069 -0.41126664126752749 0 0.15993736716764401 -0.40526062715401218 0 0.16320029300295541 -0.39696292143703937 0 0.16665108553138069 -0.41126664126752749 0 0.15993736716764401 -0.40526062715401218 0 0.16320029300295541 -0.39696292143703937 0 0.1548919577416156 -0.3986174319533845 0 0.16320029300295541 -0.39696292143703937 0 0.15844468015737689 -0.39034093461551922 0 0.1548919577416156 -0.3986174319533845 0 0.16320029300295541 -0.39696292143703937 0 0.15844468015737689 -0.39034093461551922 0 0.16514022688096139 -0.38842412732948778 0 0.17426480488801979 -0.37048903382710913 0 0.15770708627343691 -0.37227302315967092 0 0.17195349329567991 -0.38286797142254458 0 0.15844468015737689 -0.39034093461551922 0 0.1604319772032575 -0.38343165866750828 0 0.15524888132794229 -0.3833165514061514 0 0.1604319772032575 -0.38343165866750828 0 0.16514022688096139 -0.38842412732948778 0 0.16561901137657009 -0.38280365682671252 0 0.15844468015737689 -0.39034093461551922 0 0.1604319772032575 -0.38343165866750828 0 0.16514022688096139 -0.38842412732948778 0 0.16320029300295541 -0.39696292143703937 0 0.16514022688096139 -0.38842412732948778 0 0.17140299159004679 -0.385816352022881 0 0.16514022688096139 -0.38842412732948778 0 0.17140299159004679 -0.385816352022881 0 0.16561901137657009 -0.38280365682671252 0 0.17195349329567991 -0.38286797142254458 0 0.17140299159004679 -0.385816352022881 0 0.16561901137657009 -0.38280365682671252 0 0.17195349329567991 -0.38286797142254458 0 0.17140299159004679 -0.385816352022881 0 0.16514022688096139 -0.38842412732948778 0 0.17140299159004679 -0.385816352022881 0 0.15770708627343691 -0.37227302315967092 0 0.17195349329567991 -0.38286797142254458 0 0.15770708627343691 -0.37227302315967092 0 0.17195349329567991 -0.38286797142254458 0 0.16561901137657009 -0.38280365682671252 0 0.15770708627343691 -0.37227302315967092 0 0.1604319772032575 -0.38343165866750828 0 0.15524888132794229 -0.3833165514061514 0 0.15770708627343691 -0.37227302315967092 0 0.1604319772032575 -0.38343165866750828 0 0.16561901137657009 -0.38280365682671252 0 0.15770708627343691 -0.37227302315967092 0 0.14775449342421509 -0.38109115444418579 0 0.15770708627343691 -0.37227302315967092 0 0.1391110311350767 -0.37261691868665109 0 0.14775449342421509 -0.38109115444418579 0 0.15770708627343691 -0.37227302315967092 0 0.15524888132794229 -0.3833165514061514 0 0.14775449342421509 -0.38109115444418579 0 0.15844468015737689 -0.39034093461551922 0 0.15524888132794229 -0.3833165514061514 0 0.15206030205519541 -0.38850508229623498 0 0.15524888132794229 -0.3833165514061514 0 0.15206030205519541 -0.38850508229623498 0 0.14775449342421509 -0.38109115444418579 0 0.1439614976248268 -0.38915933906193417 0 0.14775449342421509 -0.38109115444418579 0 0.13778824669707129 -0.38174121517266141 0 0.15206030205519541 -0.38850508229623498 0 0.1439614976248268 -0.38915933906193417 0 0.14775449342421509 -0.38109115444418579 0 0.1391110311350767 -0.37261691868665109 0 0.14775449342421509 -0.38109115444418579 0 0.13778824669707129 -0.38174121517266141 0 0.1391110311350767 -0.37261691868665109 0 0.13778824669707129 -0.38174121517266141 0 0.1276170841357129 -0.37816195344217318 0 0.1439614976248268 -0.38915933906193417 0 0.13778824669707129 -0.38174121517266141 0 0.12980237072861961 -0.39074982306661488 0 0.13778824669707129 -0.38174121517266141 0 0.1276170841357129 -0.37816195344217318 0 0.12980237072861961 -0.39074982306661488 0 0.1439614976248268 -0.38915933906193417 0 0.1348537509427736 -0.40607963720001761 0 0.12980237072861961 -0.39074982306661488 0 0.1348537509427736 -0.40607963720001761 0 0.12980237072861961 -0.39074982306661488 0 0.1170467385926309 -0.40208567913311671 0 0.1439614976248268 -0.38915933906193417 0 0.1548919577416156 -0.3986174319533845 0 0.15293033854877169 -0.4129381347870541 0 0.1439614976248268 -0.38915933906193417 0 0.1348537509427736 -0.40607963720001761 0 0.15293033854877169 -0.4129381347870541 0 0.1439614976248268 -0.38915933906193417 0 0.15293033854877169 -0.4129381347870541 0 0.15206030205519541 -0.38850508229623498 0 0.1439614976248268 -0.38915933906193417 0 0.1548919577416156 -0.3986174319533845 0 0.15844468015737689 -0.39034093461551922 0 0.15206030205519541 -0.38850508229623498 0 0.1548919577416156 -0.3986174319533845 0 0.15993736716764401 -0.40526062715401218 0 0.1548919577416156 -0.3986174319533845 0 0.15293033854877169 -0.4129381347870541 0 0.1348537509427736 -0.40607963720001761 0 0.15293033854877169 -0.4129381347870541 0 0.13750258051360489 -0.42371442025800782 0 0.1348537509427736 -0.40607963720001761 0 0.12387681452055541 -0.41636652505165422 0 0.1170467385926309 -0.40208567913311671 0 0.1348537509427736 -0.40607963720001761 0 0.13750258051360489 -0.42371442025800782 0 0.12387681452055541 -0.41636652505165422 0 0.13750258051360489 -0.42371442025800782 0 0.13724103818608099 -0.44005985586381041 0 0.117826144764139 -0.43250691168741212 0 0.13750258051360489 -0.42371442025800782 0 0.117826144764139 -0.43250691168741212 0 0.12387681452055541 -0.41636652505165422 0 0.13750258051360489 -0.42371442025800782 0 0.14805778104287581 -0.43154366047239889 0 0.13724103818608099 -0.44005985586381041 0 0.15293033854877169 -0.4129381347870541 0 0.14805778104287581 -0.43154366047239889 0 0.16189917947271559 -0.43671693051217431 0 0.15293033854877169 -0.4129381347870541 0 0.13750258051360489 -0.42371442025800782 0 0.14805778104287581 -0.43154366047239889 0 0.14805778104287581 -0.43154366047239889 0 0.16189917947271559 -0.43671693051217431 0 0.15004411383675809 -0.44315578562955921 0 0.16189917947271559 -0.43671693051217431 0 0.16665108553138069 -0.41126664126752749 0 0.1754076077545845 -0.42615434432679139 0 0.15293033854877169 -0.4129381347870541 0 0.16189917947271559 -0.43671693051217431 0 0.16189917947271559 -0.43671693051217431 0 0.16665108553138069 -0.41126664126752749 0 0.15293033854877169 -0.4129381347870541 0 0.16189917947271559 -0.43671693051217431 0 0.16665108553138069 -0.41126664126752749 0 0.15993736716764401 -0.40526062715401218 0 0.15293033854877169 -0.4129381347870541 0 0.16665108553138069 -0.41126664126752749 0 0.16665108553138069 -0.41126664126752749 0 0.1814378834562568 -0.41434826116078433 0 0.1754076077545845 -0.42615434432679139 0 0.1736365096474802 -0.40173863470630811 0 0.16665108553138069 -0.41126664126752749 0 0.1814378834562568 -0.41434826116078433 0 0.16189917947271559 -0.43671693051217431 0 0.1754076077545845 -0.42615434432679139 0 0.1787021715675369 -0.44105606288026272 0 0.18834771874503331 -0.42738382581320822 0 0.1814378834562568 -0.41434826116078433 0 0.1754076077545845 -0.42615434432679139 0 0.18834771874503331 -0.42738382581320822 0 0.1754076077545845 -0.42615434432679139 0 0.1787021715675369 -0.44105606288026272 0 0.1787021715675369 -0.44105606288026272 0 0.17977846917020571 -0.45483664318930911 0 0.17059569471897609 -0.45977371804077288 0 0.1877054933454371 -0.44926449164075088 0 0.19563255096235321 -0.44043816190007667 0 0.1787021715675369 -0.44105606288026272 0 0.1877054933454371 -0.44926449164075088 0 0.1787021715675369 -0.44105606288026272 0 0.17977846917020571 -0.45483664318930911 0 0.1877270942394077 -0.45766283803548441 0 0.17977846917020571 -0.45483664318930911 0 0.17916636396037031 -0.4628951365557431 0 0.1877270942394077 -0.45766283803548441 0 0.1877054933454371 -0.44926449164075088 0 0.17977846917020571 -0.45483664318930911 0 0.1877270942394077 -0.45766283803548441 0 0.18670759339650611 -0.46732136909016192 0 0.17916636396037031 -0.4628951365557431 0 0.18670759339650611 -0.46732136909016192 0 0.17916636396037031 -0.4628951365557431 0 0.17463658375914251 -0.47048719549552998 0 0.17059569471897609 -0.45977371804077288 0 0.17463658375914251 -0.47048719549552998 0 0.17916636396037031 -0.4628951365557431 0 0.17059569471897609 -0.45977371804077288 0 0.17463658375914251 -0.47048719549552998 0 0.17977846917020571 -0.45483664318930911 0 0.17916636396037031 -0.4628951365557431 0 0.17059569471897609 -0.45977371804077288 0 0.17977846917020571 -0.45483664318930911 0 0.17059569471897609 -0.45977371804077288 0 0.17059569471897609 -0.45977371804077288 0 0.1643068682771012 -0.47582101284537948 0 0.17463658375914251 -0.47048719549552998 0 0.17059569471897609 -0.45977371804077288 0 0.1561433680745882 -0.46754394247567388 0 0.1643068682771012 -0.47582101284537948 0 0.17059569471897609 -0.45977371804077288 0 0.1561433680745882 -0.46754394247567388 0 0.15902127377365199 -0.45213043649392409 0 0.1561433680745882 -0.46754394247567388 0 0.17059569471897609 -0.45977371804077288 0 0.15902127377365199 -0.45213043649392409 0 0.1561433680745882 -0.46754394247567388 0 0.16189917947271559 -0.43671693051217431 0 0.17059569471897609 -0.45977371804077288 0 0.16189917947271559 -0.43671693051217431 0 0.17059569471897609 -0.45977371804077288 0 0.15902127377365199 -0.45213043649392409 0 0.16189917947271559 -0.43671693051217431 0 0.1787021715675369 -0.44105606288026272 0 0.17059569471897609 -0.45977371804077288 0 0.16189917947271559 -0.43671693051217431 0 0.15902127377365199 -0.45213043649392409 0 0.15004411383675809 -0.44315578562955921 0 0.16189917947271559 -0.43671693051217431 0 0.15902127377365199 -0.45213043649392409 0 0.15902127377365199 -0.45213043649392409 0 0.15004411383675809 -0.44315578562955921 0 0.1426579873955697 -0.45306169418270897 0 0.15004411383675809 -0.44315578562955921 0 0.1426579873955697 -0.45306169418270897 0 0.13724103818608099 -0.44005985586381041 0 0.14805778104287581 -0.43154366047239889 0 0.15004411383675809 -0.44315578562955921 0 0.13724103818608099 -0.44005985586381041 0 0.1426579873955697 -0.45306169418270897 0 0.12631641679992839 -0.4523370251888581 0 0.13724103818608099 -0.44005985586381041 0 0.12631641679992839 -0.4523370251888581 0 0.13724103818608099 -0.44005985586381041 0 0.117826144764139 -0.43250691168741212 0 0.1426579873955697 -0.45306169418270897 0 0.12631641679992839 -0.4523370251888581 0 0.1362301401405869 -0.46518672938287159 0 0.12631641679992839 -0.4523370251888581 0 0.1362301401405869 -0.46518672938287159 0 0.1163542145109222 -0.46972592710188488 0 0.1362301401405869 -0.46518672938287159 0 0.1163542145109222 -0.46972592710188488 0 0.15902127377365199 -0.45213043649392409 0 0.1426579873955697 -0.45306169418270897 0 0.14601475733772359 -0.4632570861704588 0 0.1426579873955697 -0.45306169418270897 0 0.1362301401405869 -0.46518672938287159 0 0.14601475733772359 -0.4632570861704588 0 0.15902127377365199 -0.45213043649392409 0 0.14601475733772359 -0.4632570861704588 0 0.1561433680745882 -0.46754394247567388 0 0.14601475733772359 -0.4632570861704588 0 0.1561433680745882 -0.46754394247567388 0 0.13602101730422009 -0.47836262831711551 0 0.1561433680745882 -0.46754394247567388 0 0.1534830993042213 -0.48179182718519881 0 0.13602101730422009 -0.47836262831711551 0 0.1561433680745882 -0.46754394247567388 0 0.1534830993042213 -0.48179182718519881 0 0.1561433680745882 -0.46754394247567388 0 0.13602101730422009 -0.47836262831711551 0 0.1534830993042213 -0.48179182718519881 0 0.13602101730422009 -0.47836262831711551 0 0.13819091986327001 -0.48993447634973541 0 0.1362301401405869 -0.46518672938287159 0 0.13602101730422009 -0.47836262831711551 0 0.1163542145109222 -0.46972592710188488 0 0.13602101730422009 -0.47836262831711551 0 0.11589866653385281 -0.48918131415855848 0 0.1362301401405869 -0.46518672938287159 0 0.14601475733772359 -0.4632570861704588 0 0.13602101730422009 -0.47836262831711551 0 0.13602101730422009 -0.47836262831711551 0 0.12838372281035021 -0.48936960470635232 0 0.11589866653385281 -0.48918131415855848 0 0.13819091986327001 -0.48993447634973541 0 0.15107225931663029 -0.5 0 0.1234242875400577 -0.5 0 0.12838372281035021 -0.48936960470635232 0 0.13819091986327001 -0.48993447634973541 0 0.1234242875400577 -0.5 0 0.13602101730422009 -0.47836262831711551 0 0.12838372281035021 -0.48936960470635232 0 0.13819091986327001 -0.48993447634973541 0 0.1534830993042213 -0.48179182718519881 0 0.13819091986327001 -0.48993447634973541 0 0.15107225931663029 -0.5 0 0.15107225931663029 -0.5 0 0.16858223513247689 -0.48546767615672098 0 0.17872023109320281 -0.5 0 0.1534830993042213 -0.48179182718519881 0 0.15107225931663029 -0.5 0 0.16858223513247689 -0.48546767615672098 0 0.1534830993042213 -0.48179182718519881 0 0.16858223513247689 -0.48546767615672098 0 0.1643068682771012 -0.47582101284537948 0 0.1561433680745882 -0.46754394247567388 0 0.1534830993042213 -0.48179182718519881 0 0.1643068682771012 -0.47582101284537948 0 0.16858223513247689 -0.48546767615672098 0 0.1643068682771012 -0.47582101284537948 0 0.17463658375914251 -0.47048719549552998 0 0.16858223513247689 -0.48546767615672098 0 0.17463658375914251 -0.47048719549552998 0 0.1842242097311072 -0.48024281914927758 0 0.18670759339650611 -0.46732136909016192 0 0.17463658375914251 -0.47048719549552998 0 0.1842242097311072 -0.48024281914927758 0 0.19665944497451049 -0.48657824546695089 0 0.1842242097311072 -0.48024281914927758 0 0.17872023109320281 -0.5 0 0.16858223513247689 -0.48546767615672098 0 0.1842242097311072 -0.48024281914927758 0 0.17872023109320281 -0.5 0 0.076863505038291285 -0.5000000000000272 0 0.063525541944137426 -0.4909774490221232 0 0.076602363251595113 -0.47880432253992222 0 0.063525541944137426 -0.4909774490221232 0 0.076602363251595113 -0.47880432253992222 0 0.049011318185575178 -0.48510547354854372 0 0.076863505038291285 -0.5000000000000272 0 0.063525541944137426 -0.4909774490221232 0 0.05162498130108617 -0.5 0 0.076863505038291285 -0.5000000000000272 0 0.076602363251595113 -0.47880432253992222 0 0.076602363251595113 -0.47880432253992222 0 0.049011318185575178 -0.48510547354854372 0 0.076602363251595113 -0.47880432253992222 0 0.088564245630065708 -0.48804711395327338 0 0.096478288881257465 -0.47426512482089822 0 0.076602363251595113 -0.47880432253992222 0 0.096478288881257465 -0.47426512482089822 0 0.076863505038291285 -0.5000000000000272 0 0.076602363251595113 -0.47880432253992222 0 0.088564245630065708 -0.48804711395327338 0 0.076863505038291285 -0.5000000000000272 0 0.088564245630065708 -0.48804711395327338 0 0.09577631576348522 -0.50000000000000089 0 0.09577631576348522 -0.50000000000000089 0 0.11589866653385281 -0.48918131415855848 0 0.09577631576348522 -0.50000000000000089 0 0.10204162515151841 -0.48650452113878212 0 0.11589866653385281 -0.48918131415855848 0 0.088564245630065708 -0.48804711395327338 0 0.09577631576348522 -0.50000000000000089 0 0.10204162515151841 -0.48650452113878212 0 0.09577631576348522 -0.50000000000000089 0 0.11589866653385281 -0.48918131415855848 0 0.1234242875400577 -0.5 0 0.12838372281035021 -0.48936960470635232 0 0.11589866653385281 -0.48918131415855848 0 0.1234242875400577 -0.5 0 0.13602101730422009 -0.47836262831711551 0 0.11589866653385281 -0.48918131415855848 0 0.1163542145109222 -0.46972592710188488 0 0.10204162515151841 -0.48650452113878212 0 0.11589866653385281 -0.48918131415855848 0 0.1163542145109222 -0.46972592710188488 0 0.10204162515151841 -0.48650452113878212 0 0.1163542145109222 -0.46972592710188488 0 0.096478288881257465 -0.47426512482089822 0 0.1163542145109222 -0.46972592710188488 0 0.096478288881257465 -0.47426512482089822 0 0.088564245630065708 -0.48804711395327338 0 0.10204162515151841 -0.48650452113878212 0 0.096478288881257465 -0.47426512482089822 0 0.1163542145109222 -0.46972592710188488 0 0.096478288881257465 -0.47426512482089822 0 0.1051590056059491 -0.45231405281677051 0 0.12631641679992839 -0.4523370251888581 0 0.1163542145109222 -0.46972592710188488 0 0.1051590056059491 -0.45231405281677051 0 0.12631641679992839 -0.4523370251888581 0 0.1051590056059491 -0.45231405281677051 0 0.117826144764139 -0.43250691168741212 0 0.1051590056059491 -0.45231405281677051 0 0.095313111812278528 -0.43550135262411099 0 0.117826144764139 -0.43250691168741212 0 0.1051590056059491 -0.45231405281677051 0 0.076275282419099727 -0.45225667608018649 0 0.095313111812278528 -0.43550135262411099 0 0.076275282419099727 -0.45225667608018649 0 0.075948201586602065 -0.42570902962045132 0 0.095313111812278528 -0.43550135262411099 0 0.076602363251595113 -0.47880432253992222 0 0.096478288881257465 -0.47426512482089822 0 0.076275282419099727 -0.45225667608018649 0 0.096478288881257465 -0.47426512482089822 0 0.1051590056059491 -0.45231405281677051 0 0.076275282419099727 -0.45225667608018649 0 0.076275282419099727 -0.45225667608018649 0 0.059068879854558873 -0.44727189934084449 0 0.060551371068239303 -0.47207880323510892 0 0.076602363251595113 -0.47880432253992222 0 0.076275282419099727 -0.45225667608018649 0 0.076602363251595113 -0.47880432253992222 0 0.076275282419099727 -0.45225667608018649 0 0.060551371068239303 -0.47207880323510892 0 0.076275282419099727 -0.45225667608018649 0 0.075948201586602065 -0.42570902962045132 0 0.059068879854558873 -0.44727189934084449 0 0.076275282419099727 -0.45225667608018649 0 0.075948201586602065 -0.42570902962045132 0 0.075948201586602065 -0.42570902962045132 0 0.055752302135903653 -0.42861104069970751 0 0.059068879854558873 -0.44727189934084449 0 0.075948201586602065 -0.42570902962045132 0 0.075621120754104376 -0.39916138316071592 0 0.075948201586602065 -0.42570902962045132 0 0.058851404526313753 -0.41041176462824852 0 0.055752302135903653 -0.42861104069970751 0 0.075948201586602065 -0.42570902962045132 0 0.075621120754104376 -0.39916138316071592 0 0.058851404526313753 -0.41041176462824852 0 0.075948201586602065 -0.42570902962045132 0 0.1013569246856028 -0.41472009291573492 0 0.075621120754104376 -0.39916138316071592 0 0.075948201586602065 -0.42570902962045132 0 0.095313111812278528 -0.43550135262411099 0 0.1013569246856028 -0.41472009291573492 0 0.095313111812278528 -0.43550135262411099 0 0.117826144764139 -0.43250691168741212 0 0.1013569246856028 -0.41472009291573492 0 0.117826144764139 -0.43250691168741212 0 0.12387681452055541 -0.41636652505165422 0 0.1013569246856028 -0.41472009291573492 0 0.12387681452055541 -0.41636652505165422 0 0.1013569246856028 -0.41472009291573492 0 0.1170467385926309 -0.40208567913311671 0 0.1013569246856028 -0.41472009291573492 0 0.098082319372188309 -0.39368337343193549 0 0.1170467385926309 -0.40208567913311671 0 0.098082319372188309 -0.39368337343193549 0 0.1170467385926309 -0.40208567913311671 0 0.1164187569499574 -0.38715045104000551 0 0.12980237072861961 -0.39074982306661488 0 0.1170467385926309 -0.40208567913311671 0 0.1164187569499574 -0.38715045104000551 0 0.1276170841357129 -0.37816195344217318 0 0.1164187569499574 -0.38715045104000551 0 0.1145965701523915 -0.37278566669197549 0 0.1276170841357129 -0.37816195344217318 0 0.12980237072861961 -0.39074982306661488 0 0.1164187569499574 -0.38715045104000551 0 0.1164187569499574 -0.38715045104000551 0 0.1145965701523915 -0.37278566669197549 0 0.094945305036997829 -0.37269970169653871 0 0.098082319372188309 -0.39368337343193549 0 0.1164187569499574 -0.38715045104000551 0 0.094945305036997829 -0.37269970169653871 0 0.085985696271224293 -0.38453954874754259 0 0.094945305036997829 -0.37269970169653871 0 0.075294039921604661 -0.37261373670098041 0 0.085985696271224293 -0.38453954874754259 0 0.075621120754104376 -0.39916138316071592 0 0.075294039921604661 -0.37261373670098041 0 0.098082319372188309 -0.39368337343193549 0 0.085985696271224293 -0.38453954874754259 0 0.094945305036997829 -0.37269970169653871 0 0.1013569246856028 -0.41472009291573492 0 0.098082319372188309 -0.39368337343193549 0 0.075621120754104376 -0.39916138316071592 0 0.098082319372188309 -0.39368337343193549 0 0.085985696271224293 -0.38453954874754259 0 0.075621120754104376 -0.39916138316071592 0 0.075621120754104376 -0.39916138316071592 0 0.059519437783538243 -0.38877242465303358 0 0.058851404526313753 -0.41041176462824852 0 0.075621120754104376 -0.39916138316071592 0 0.059519437783538243 -0.38877242465303358 0 0.075294039921604661 -0.37261373670098041 0 0.075621120754104376 -0.39916138316071592 0 0.075294039921604661 -0.37261373670098041 0 0.059519437783538243 -0.38877242465303358 0 0.075294039921604661 -0.37261373670098041 0 0.054855735139516901 -0.37252432877916841 0 0.059519437783538243 -0.38877242465303358 0 0.044182764363928477 -0.38456261285095877 0 0.054855735139516901 -0.37252432877916841 0 0.059519437783538243 -0.38877242465303358 0 0.044296505939948203 -0.39894270510113361 0 0.058851404526313753 -0.41041176462824852 0 0.059519437783538243 -0.38877242465303358 0 0.044296505939948203 -0.39894270510113361 0 0.044182764363928477 -0.38456261285095877 0 0.044296505939948203 -0.39894270510113361 0 0.044182764363928477 -0.38456261285095877 0 0.027824712599209281 -0.39013868486422348 0 0.031608173458146031 -0.40590387111443432 0 0.044296505939948203 -0.39894270510113361 0 0.027824712599209281 -0.39013868486422348 0 0.044182764363928477 -0.38456261285095877 0 0.054855735139516901 -0.37252432877916841 0 0.034417430357429737 -0.37243492085723512 0 0.044182764363928477 -0.38456261285095877 0 0.027824712599209281 -0.39013868486422348 0 0.034417430357429737 -0.37243492085723512 0 0.027824712599209281 -0.39013868486422348 0 0.01344107391546359 -0.37733410516826449 0 0.034417430357429737 -0.37243492085723512 0 0.027824712599209281 -0.39013868486422348 0 0.01344107391546359 -0.37733410516826449 0 0.0092612891580817983 -0.39124849293512559 0 -0.0067772076658356058 -0.36990237411869542 0 0.01344107391546359 -0.37733410516826449 0 0.00075797251546615531 -0.38237517200786991 0 0.01344107391546359 -0.37733410516826449 0 0.00075797251546615531 -0.38237517200786991 0 0.0092612891580817983 -0.39124849293512559 0 -0.0036743792100369151 -0.39310732864226139 0 0.00075797251546615531 -0.38237517200786991 0 0.0092612891580817983 -0.39124849293512559 0 -0.0036743792100369151 -0.39310732864226139 0 0.00023836058689544591 -0.40455715327592823 0 0.0092612891580817983 -0.39124849293512559 0 0.00023836058689544591 -0.40455715327592823 0 0.0092612891580817983 -0.39124849293512559 0 0.01499998029119568 -0.40512051615440092 0 0.031608173458146031 -0.40590387111443432 0 0.027824712599209281 -0.39013868486422348 0 0.01499998029119568 -0.40512051615440092 0 0.027824712599209281 -0.39013868486422348 0 0.0092612891580817983 -0.39124849293512559 0 0.01499998029119568 -0.40512051615440092 0 0.031608173458146031 -0.40590387111443432 0 0.01499998029119568 -0.40512051615440092 0 0.025272699777180239 -0.41728400239055741 0 0.01499998029119568 -0.40512051615440092 0 0.025272699777180239 -0.41728400239055741 0 0.0098855530659783582 -0.42263406498122003 0 0.00023836058689544591 -0.40455715327592823 0 0.01499998029119568 -0.40512051615440092 0 0.0098855530659783582 -0.42263406498122003 0 -0.0043419640350712179 -0.43578204779098217 0 0.0098855530659783582 -0.42263406498122003 0 0.017092950577533642 -0.44278769620395758 0 0.025272699777180239 -0.41728400239055741 0 0.0098855530659783582 -0.42263406498122003 0 0.028730036348681511 -0.43227293188706711 0 0.0098855530659783582 -0.42263406498122003 0 0.028730036348681511 -0.43227293188706711 0 0.017092950577533642 -0.44278769620395758 0 0.025272699777180239 -0.41728400239055741 0 0.028730036348681511 -0.43227293188706711 0 0.042543433668163572 -0.4187383249118487 0 0.028730036348681511 -0.43227293188706711 0 0.042543433668163572 -0.4187383249118487 0 0.042349591043880017 -0.44092418499714442 0 0.031608173458146031 -0.40590387111443432 0 0.044296505939948203 -0.39894270510113361 0 0.042543433668163572 -0.4187383249118487 0 0.031608173458146031 -0.40590387111443432 0 0.025272699777180239 -0.41728400239055741 0 0.042543433668163572 -0.4187383249118487 0 0.044296505939948203 -0.39894270510113361 0 0.042543433668163572 -0.4187383249118487 0 0.058851404526313753 -0.41041176462824852 0 0.042543433668163572 -0.4187383249118487 0 0.058851404526313753 -0.41041176462824852 0 0.055752302135903653 -0.42861104069970751 0 0.042543433668163572 -0.4187383249118487 0 0.055752302135903653 -0.42861104069970751 0 0.042349591043880017 -0.44092418499714442 0 0.059068879854558873 -0.44727189934084449 0 0.044109105584006131 -0.46151598178986852 0 0.042349591043880017 -0.44092418499714442 0 0.055752302135903653 -0.42861104069970751 0 0.059068879854558873 -0.44727189934084449 0 0.042349591043880017 -0.44092418499714442 0 0.059068879854558873 -0.44727189934084449 0 0.044109105584006131 -0.46151598178986852 0 0.060551371068239303 -0.47207880323510892 0 0.044109105584006131 -0.46151598178986852 0 0.032583033382470331 -0.46249342763299561 0 0.033946230781415128 -0.4724264814259046 0 0.044109105584006131 -0.46151598178986852 0 0.032583033382470331 -0.46249342763299561 0 0.030278922166909181 -0.45186572364673899 0 0.028730036348681511 -0.43227293188706711 0 0.042349591043880017 -0.44092418499714442 0 0.030278922166909181 -0.45186572364673899 0 0.044109105584006131 -0.46151598178986852 0 0.042349591043880017 -0.44092418499714442 0 0.030278922166909181 -0.45186572364673899 0 0.028730036348681511 -0.43227293188706711 0 0.030278922166909181 -0.45186572364673899 0 0.017092950577533642 -0.44278769620395758 0 0.030278922166909181 -0.45186572364673899 0 0.017092950577533642 -0.44278769620395758 0 0.02043872710117995 -0.45700295199561253 0 0.017092950577533642 -0.44278769620395758 0 0.0031868441554037852 -0.45433946608745762 0 0.02043872710117995 -0.45700295199561253 0 -0.0043419640350712179 -0.43578204779098217 0 0.017092950577533642 -0.44278769620395758 0 0.0031868441554037852 -0.45433946608745762 0 0.0031868441554037852 -0.45433946608745762 0 0.01176477214613972 -0.4644686470257684 0 0.02043872710117995 -0.45700295199561253 0 0.0021010566397200461 -0.46756239227329749 0 0.0031868441554037852 -0.45433946608745762 0 0.01176477214613972 -0.4644686470257684 0 0.01176477214613972 -0.4644686470257684 0 0.02043872710117995 -0.45700295199561253 0 0.023716879043573579 -0.46698971956201463 0 0.01176477214613972 -0.4644686470257684 0 0.023716879043573579 -0.46698971956201463 0 0.01591867147587667 -0.4720709072186754 0 0.032583033382470331 -0.46249342763299561 0 0.030278922166909181 -0.45186572364673899 0 0.02043872710117995 -0.45700295199561253 0 0.032583033382470331 -0.46249342763299561 0 0.02043872710117995 -0.45700295199561253 0 0.023716879043573579 -0.46698971956201463 0 0.032583033382470331 -0.46249342763299561 0 0.023716879043573579 -0.46698971956201463 0 0.033946230781415128 -0.4724264814259046 0 0.027540488289167751 -0.47959092676213932 0 0.023029201032023539 -0.4743971342622581 0 0.033946230781415128 -0.4724264814259046 0 0.023716879043573579 -0.46698971956201463 0 0.023029201032023539 -0.4743971342622581 0 0.033946230781415128 -0.4724264814259046 0 0.027540488289167751 -0.47959092676213932 0 0.016568572802498509 -0.48016219701767221 0 0.023029201032023539 -0.4743971342622581 0 0.027540488289167751 -0.47959092676213932 0 0.025276245437842411 -0.48385398796247792 0 0.016568572802498509 -0.48016219701767221 0 0.016568572802498509 -0.48016219701767221 0 0.023029201032023539 -0.4743971342622581 0 0.01591867147587667 -0.4720709072186754 0 0.023716879043573579 -0.46698971956201463 0 0.023029201032023539 -0.4743971342622581 0 0.01591867147587667 -0.4720709072186754 0 0.016568572802498509 -0.48016219701767221 0 0.01591867147587667 -0.4720709072186754 0 0.0069491287843030302 -0.47458936831486992 0 0.01176477214613972 -0.4644686470257684 0 0.01591867147587667 -0.4720709072186754 0 0.0069491287843030302 -0.47458936831486992 0 0.016568572802498509 -0.48016219701767221 0 0.0080389899805126657 -0.48275036947546518 0 0.0069491287843030302 -0.47458936831486992 0 -0.001243411789432144 -0.47807675656639181 0 0.0080389899805126657 -0.48275036947546518 0 0.001691648207849188 -0.4882926267913022 0 -0.001243411789432144 -0.47807675656639181 0 0.0080389899805126657 -0.48275036947546518 0 0.0069491287843030302 -0.47458936831486992 0 -0.001243411789432144 -0.47807675656639181 0 0.0021010566397200461 -0.46756239227329749 0 0.0069491287843030302 -0.47458936831486992 0 0.0021010566397200461 -0.46756239227329749 0 0.01176477214613972 -0.4644686470257684 0 0.0069491287843030302 -0.47458936831486992 0 -0.0061707719464598023 -0.49770777556580809 0 0.021420273119557721 -0.49140662455717582 0 -0.0097154785912969069 -0.49659757064225962 0 0.001691648207849188 -0.4882926267913022 0 0.015760147356135481 -0.4907534662374532 0 -0.0061707719464598023 -0.49770777556580809 0 0.021420273119557721 -0.49140662455717582 0 0.015760147356135481 -0.4907534662374532 0 -0.0097154785912969069 -0.49659757064225962 0 0.015760147356135481 -0.4907534662374532 0 -0.0061707719464598023 -0.49770777556580809 0 0.00114793382667621 -0.49999999999999989 0 0.021420273119557721 -0.49140662455717582 0 0.0080389899805126657 -0.48275036947546518 0 0.001691648207849188 -0.4882926267913022 0 0.015760147356135481 -0.4907534662374532 0 0.016568572802498509 -0.48016219701767221 0 0.0080389899805126657 -0.48275036947546518 0 0.015760147356135481 -0.4907534662374532 0 0.015760147356135481 -0.4907534662374532 0 0.041235773303567938 -0.48490936183264699 0 0.021420273119557721 -0.49140662455717582 0 0.015760147356135481 -0.4907534662374532 0 0.041235773303567938 -0.48490936183264699 0 0.025276245437842411 -0.48385398796247792 0 0.015760147356135481 -0.4907534662374532 0 0.041235773303567938 -0.48490936183264699 0 0.00114793382667621 -0.49999999999999989 0 0.026386457563881249 -0.5 0 0.021420273119557721 -0.49140662455717582 0 0.025276245437842411 -0.48385398796247792 0 0.016568572802498509 -0.48016219701767221 0 0.015760147356135481 -0.4907534662374532 0 0.026386457563881249 -0.5 0 0.021420273119557721 -0.49140662455717582 0 0.049011318185575178 -0.48510547354854372 0 0.021420273119557721 -0.49140662455717582 0 0.041235773303567938 -0.48490936183264699 0 0.049011318185575178 -0.48510547354854372 0 0.026386457563881249 -0.5 0 0.05162498130108617 -0.5 0 0.049011318185575178 -0.48510547354854372 0 0.021420273119557721 -0.49140662455717582 0 0.049011318185575178 -0.48510547354854372 0 0.027540488289167751 -0.47959092676213932 0 0.025276245437842411 -0.48385398796247792 0 0.041235773303567938 -0.48490936183264699 0 0.027540488289167751 -0.47959092676213932 0 0.041235773303567938 -0.48490936183264699 0 0.033946230781415128 -0.4724264814259046 0 0.044109105584006131 -0.46151598178986852 0 0.033946230781415128 -0.4724264814259046 0 0.045770759784560737 -0.47520722036641461 0 0.041235773303567938 -0.48490936183264699 0 0.045770759784560737 -0.47520722036641461 0 0.049011318185575178 -0.48510547354854372 0 0.041235773303567938 -0.48490936183264699 0 0.033946230781415128 -0.4724264814259046 0 0.045770759784560737 -0.47520722036641461 0 0.076602363251595113 -0.47880432253992222 0 0.060551371068239303 -0.47207880323510892 0 0.049011318185575178 -0.48510547354854372 0 0.045770759784560737 -0.47520722036641461 0 0.060551371068239303 -0.47207880323510892 0 0.049011318185575178 -0.48510547354854372 0 0.044109105584006131 -0.46151598178986852 0 0.045770759784560737 -0.47520722036641461 0 0.060551371068239303 -0.47207880323510892 0 0.063525541944137426 -0.4909774490221232 0 0.05162498130108617 -0.5 0 0.049011318185575178 -0.48510547354854372 0 0.089282800727915321 -0.28398325390393608 0 0.074471197896176178 -0.30582743492745718 0 0.095143986873736958 -0.29621252350960042 0 0.089282800727915321 -0.28398325390393608 0 0.074471197896176178 -0.30582743492745718 0 0.089282800727915321 -0.28398325390393608 0 0.074471197896176178 -0.30582743492745718 0 0.074175469235251534 -0.28182450000123771 0 0.088064920472815514 -0.30849308178977691 0 0.074471197896176178 -0.30582743492745718 0 0.095143986873736958 -0.29621252350960042 0 0.088064920472815514 -0.30849308178977691 0 0.074540998541040723 -0.31149283215745383 0 0.074471197896176178 -0.30582743492745718 0 0.074471197896176178 -0.30582743492745718 0 0.071768761165364237 -0.30981299393976203 0 0.065167962798880402 -0.29553101893330752 0 0.071768761165364237 -0.30981299393976203 0 0.065167962798880402 -0.29553101893330752 0 0.051219723187124047 -0.29736129711357362 0 0.074540998541040723 -0.31149283215745383 0 0.074471197896176178 -0.30582743492745718 0 0.074471197896176178 -0.30582743492745718 0 0.071768761165364237 -0.30981299393976203 0 0.074540998541040723 -0.31149283215745383 0 0.074471197896176178 -0.30582743492745718 0 0.071768761165364237 -0.30981299393976203 0 0.074540998541040723 -0.31149283215745383 0 0.071768761165364237 -0.30981299393976203 0 0.074175469235251534 -0.28182450000123771 0 0.065167962798880402 -0.29553101893330752 0 0.054204662510492413 -0.28282886868450691 0 0.074471197896176178 -0.30582743492745718 0 0.074175469235251534 -0.28182450000123771 0 0.065167962798880402 -0.29553101893330752 0 0.074471197896176178 -0.30582743492745718 0 0.074175469235251534 -0.28182450000123771 0 0.074175469235251534 -0.28182450000123771 0 0.073879740574333774 -0.25782156507501819 0 0.058954211922476032 -0.26766693945416897 0 0.074175469235251534 -0.28182450000123771 0 0.073879740574333774 -0.25782156507501819 0 0.074175469235251534 -0.28182450000123771 0 0.073879740574333774 -0.25782156507501819 0 0.086111555576077636 -0.26673751191116651 0 0.073879740574333774 -0.25782156507501819 0 0.058954211922476032 -0.26766693945416897 0 0.06353971008292858 -0.24694136108008011 0 0.073879740574333774 -0.25782156507501819 0 0.086111555576077636 -0.26673751191116651 0 0.089125363783243566 -0.24791916769523201 0 0.086111555576077636 -0.26673751191116651 0 0.1053357128879555 -0.26322819908352613 0 0.089125363783243566 -0.24791916769523201 0 0.089282800727915321 -0.28398325390393608 0 0.086111555576077636 -0.26673751191116651 0 0.1053357128879555 -0.26322819908352613 0 0.089282800727915321 -0.28398325390393608 0 0.074175469235251534 -0.28182450000123771 0 0.086111555576077636 -0.26673751191116651 0 0.089282800727915321 -0.28398325390393608 0 0.1053357128879555 -0.26322819908352613 0 0.089282800727915321 -0.28398325390393608 0 0.1020040465766008 -0.2782540687679157 0 0.1053357128879555 -0.26322819908352613 0 0.1020040465766008 -0.2782540687679157 0 0.1053357128879555 -0.26322819908352613 0 0.1096687131858948 -0.27582409224873528 0 0.1020040465766008 -0.2782540687679157 0 0.1096687131858948 -0.27582409224873528 0 0.10849866222445829 -0.28813727098128789 0 0.1053357128879555 -0.26322819908352613 0 0.11258481616026179 -0.24961739565754379 0 0.10216954282952841 -0.24283827424479509 0 0.1053357128879555 -0.26322819908352613 0 0.089125363783243566 -0.24791916769523201 0 0.10216954282952841 -0.24283827424479509 0 0.1053357128879555 -0.26322819908352613 0 0.089125363783243566 -0.24791916769523201 0 0.1053357128879555 -0.26322819908352613 0 0.11258481616026179 -0.24961739565754379 0 0.1053357128879555 -0.26322819908352613 0 0.1139865165490731 -0.26024487806584612 0 0.11258481616026179 -0.24961739565754379 0 0.1139865165490731 -0.26024487806584612 0 0.122950809996049 -0.25239340012073208 0 0.11258481616026179 -0.24961739565754379 0 0.1053357128879555 -0.26322819908352613 0 0.1139865165490731 -0.26024487806584612 0 0.1191781893840716 -0.26798022126357213 0 0.1139865165490731 -0.26024487806584612 0 0.1236937780082713 -0.26412796472653721 0 0.122950809996049 -0.25239340012073208 0 0.1139865165490731 -0.26024487806584612 0 0.1236937780082713 -0.26412796472653721 0 0.1191781893840716 -0.26798022126357213 0 0.12791450663934029 -0.28127740495678782 0 0.1053357128879555 -0.26322819908352613 0 0.1053357128879555 -0.26322819908352613 0 0.1224497833659107 -0.27957584667364271 0 0.12791450663934029 -0.28127740495678782 0 0.1053357128879555 -0.26322819908352613 0 0.1191781893840716 -0.26798022126357213 0 0.12791450663934029 -0.28127740495678782 0 0.1053357128879555 -0.26322819908352613 0 0.1224497833659107 -0.27957584667364271 0 0.1053357128879555 -0.26322819908352613 0 0.1096687131858948 -0.27582409224873528 0 0.1224497833659107 -0.27957584667364271 0 0.1096687131858948 -0.27582409224873528 0 0.1224497833659107 -0.27957584667364271 0 0.11446855566236511 -0.28285107773575668 0 0.12791450663934029 -0.28127740495678782 0 0.1191781893840716 -0.26798022126357213 0 0.1249604328357178 -0.27102265948516302 0 0.1236937780082713 -0.26412796472653721 0 0.1191781893840716 -0.26798022126357213 0 0.1249604328357178 -0.27102265948516302 0 0.1224497833659107 -0.27957584667364271 0 0.11725706387319659 -0.28786710103936108 0 0.11446855566236511 -0.28285107773575668 0 0.1224497833659107 -0.27957584667364271 0 0.11725706387319659 -0.28786710103936108 0 0.1246412914786356 -0.29411537878178168 0 0.11725706387319659 -0.28786710103936108 0 0.1246412914786356 -0.29411537878178168 0 0.1154840005258813 -0.29632875177336598 0 0.1154840005258813 -0.29632875177336598 0 0.10849866222445829 -0.28813727098128789 0 0.1066281490245507 -0.29989017312126759 0 0.11725706387319659 -0.28786710103936108 0 0.1154840005258813 -0.29632875177336598 0 0.10849866222445829 -0.28813727098128789 0 0.11725706387319659 -0.28786710103936108 0 0.11446855566236511 -0.28285107773575668 0 0.10849866222445829 -0.28813727098128789 0 0.1096687131858948 -0.27582409224873528 0 0.11446855566236511 -0.28285107773575668 0 0.10849866222445829 -0.28813727098128789 0 0.1020040465766008 -0.2782540687679157 0 0.10849866222445829 -0.28813727098128789 0 0.095143986873736958 -0.29621252350960042 0 0.089282800727915321 -0.28398325390393608 0 0.1020040465766008 -0.2782540687679157 0 0.095143986873736958 -0.29621252350960042 0 0.10849866222445829 -0.28813727098128789 0 0.095143986873736958 -0.29621252350960042 0 0.1066281490245507 -0.29989017312126759 0 0.088064920472815514 -0.30849308178977691 0 0.098930858003293001 -0.30561483323554028 0 0.097554260737118176 -0.314298341047136 0 0.098930858003293001 -0.30561483323554028 0 0.106742461238334 -0.31015795904200472 0 0.097554260737118176 -0.314298341047136 0 0.088064920472815514 -0.30849308178977691 0 0.095143986873736958 -0.29621252350960042 0 0.098930858003293001 -0.30561483323554028 0 0.095143986873736958 -0.29621252350960042 0 0.098930858003293001 -0.30561483323554028 0 0.1066281490245507 -0.29989017312126759 0 0.098930858003293001 -0.30561483323554028 0 0.1066281490245507 -0.29989017312126759 0 0.106742461238334 -0.31015795904200472 0 0.1066281490245507 -0.29989017312126759 0 0.106742461238334 -0.31015795904200472 0 0.11423801088809681 -0.30549257256264339 0 0.106742461238334 -0.31015795904200472 0 0.11423801088809681 -0.30549257256264339 0 0.1145518917314788 -0.31461482995023882 0 0.11423801088809681 -0.30549257256264339 0 0.1202051800888963 -0.30957617026590889 0 0.1145518917314788 -0.31461482995023882 0 0.1154840005258813 -0.29632875177336598 0 0.1066281490245507 -0.29989017312126759 0 0.11423801088809681 -0.30549257256264339 0 0.1246412914786356 -0.29411537878178168 0 0.1154840005258813 -0.29632875177336598 0 0.122259089804518 -0.30262204367803403 0 0.1154840005258813 -0.29632875177336598 0 0.11423801088809681 -0.30549257256264339 0 0.122259089804518 -0.30262204367803403 0 0.12844577558116871 -0.30988530195065322 0 0.1202051800888963 -0.30957617026590889 0 0.12373562356947609 -0.31678119362931417 0 0.12844577558116871 -0.30988530195065322 0 0.122259089804518 -0.30262204367803403 0 0.1202051800888963 -0.30957617026590889 0 0.11423801088809681 -0.30549257256264339 0 0.122259089804518 -0.30262204367803403 0 0.1202051800888963 -0.30957617026590889 0 0.12373562356947609 -0.31678119362931417 0 0.1145518917314788 -0.31461482995023882 0 0.11909521947066599 -0.32304098036854573 0 0.1202051800888963 -0.30957617026590889 0 0.12373562356947609 -0.31678119362931417 0 0.1145518917314788 -0.31461482995023882 0 0.1145518917314788 -0.31461482995023882 0 0.1123647887630814 -0.3242678263062877 0 0.10528533215447559 -0.31971842499259961 0 0.1123647887630814 -0.3242678263062877 0 0.11909521947066599 -0.32304098036854573 0 0.1189838061657293 -0.33196696644828239 0 0.1145518917314788 -0.31461482995023882 0 0.1123647887630814 -0.3242678263062877 0 0.11909521947066599 -0.32304098036854573 0 0.12537450164912489 -0.32583360346286522 0 0.12373562356947609 -0.31678119362931417 0 0.11909521947066599 -0.32304098036854573 0 0.12537450164912489 -0.32583360346286522 0 0.11909521947066599 -0.32304098036854573 0 0.1189838061657293 -0.33196696644828239 0 0.11765066781140041 -0.34248335896303639 0 0.10879035219983681 -0.33224624011277137 0 0.1020242216040001 -0.33924757462661309 0 0.13150140011442771 -0.33605452762183557 0 0.1189838061657293 -0.33196696644828239 0 0.11765066781140041 -0.34248335896303639 0 0.1189838061657293 -0.33196696644828239 0 0.11765066781140041 -0.34248335896303639 0 0.10879035219983681 -0.33224624011277137 0 0.1123647887630814 -0.3242678263062877 0 0.1189838061657293 -0.33196696644828239 0 0.10879035219983681 -0.33224624011277137 0 0.10879035219983681 -0.33224624011277137 0 0.1020242216040001 -0.33924757462661309 0 0.098626487137509197 -0.33012317827891718 0 0.1020242216040001 -0.33924757462661309 0 0.098626487137509197 -0.33012317827891718 0 0.091872309357222265 -0.34310736417052962 0 0.10879035219983681 -0.33224624011277137 0 0.10528533215447559 -0.31971842499259961 0 0.091665675370444122 -0.32186953613510372 0 0.10879035219983681 -0.33224624011277137 0 0.091665675370444122 -0.32186953613510372 0 0.10879035219983681 -0.33224624011277137 0 0.098626487137509197 -0.33012317827891718 0 0.091665675370444122 -0.32186953613510372 0 0.097554260737118176 -0.314298341047136 0 0.10528533215447559 -0.31971842499259961 0 0.091665675370444122 -0.32186953613510372 0 0.106742461238334 -0.31015795904200472 0 0.1145518917314788 -0.31461482995023882 0 0.10528533215447559 -0.31971842499259961 0 0.106742461238334 -0.31015795904200472 0 0.097554260737118176 -0.314298341047136 0 0.10528533215447559 -0.31971842499259961 0 0.1123647887630814 -0.3242678263062877 0 0.10879035219983681 -0.33224624011277137 0 0.10528533215447559 -0.31971842499259961 0 0.1276170841357129 -0.37816195344217318 0 0.1145965701523915 -0.37278566669197549 0 0.1248201907380299 -0.36363684837108118 0 0.1145965701523915 -0.37278566669197549 0 0.1248201907380299 -0.36363684837108118 0 0.1122669141511794 -0.35839500138129748 0 0.1145965701523915 -0.37278566669197549 0 0.1122669141511794 -0.35839500138129748 0 0.1018810760226955 -0.3619228680590123 0 0.11765066781140041 -0.34248335896303639 0 0.1248201907380299 -0.36363684837108118 0 0.1122669141511794 -0.35839500138129748 0 0.11765066781140041 -0.34248335896303639 0 0.1122669141511794 -0.35839500138129748 0 0.1019874270423143 -0.35016861698856849 0 0.11765066781140041 -0.34248335896303639 0 0.1020242216040001 -0.33924757462661309 0 0.1019874270423143 -0.35016861698856849 0 0.1019874270423143 -0.35016861698856849 0 0.089936697381043818 -0.35768445098932039 0 0.091872309357222265 -0.34310736417052962 0 0.1020242216040001 -0.33924757462661309 0 0.1019874270423143 -0.35016861698856849 0 0.091872309357222265 -0.34310736417052962 0 0.1019874270423143 -0.35016861698856849 0 0.1018810760226955 -0.3619228680590123 0 0.089936697381043818 -0.35768445098932039 0 0.1122669141511794 -0.35839500138129748 0 0.1019874270423143 -0.35016861698856849 0 0.1018810760226955 -0.3619228680590123 0 0.1145965701523915 -0.37278566669197549 0 0.1018810760226955 -0.3619228680590123 0 0.094945305036997829 -0.37269970169653871 0 0.1145965701523915 -0.37278566669197549 0 0.094945305036997829 -0.37269970169653871 0 0.1018810760226955 -0.3619228680590123 0 0.094945305036997829 -0.37269970169653871 0 0.089936697381043818 -0.35768445098932039 0 0.094945305036997829 -0.37269970169653871 0 0.089936697381043818 -0.35768445098932039 0 0.075294039921604661 -0.37261373670098041 0 0.094945305036997829 -0.37269970169653871 0 0.075294039921604661 -0.37261373670098041 0 0.089936697381043818 -0.35768445098932039 0 0.074980122896238788 -0.34713453590672932 0 0.075294039921604661 -0.37261373670098041 0 0.089936697381043818 -0.35768445098932039 0 0.074980122896238788 -0.34713453590672932 0 0.091872309357222265 -0.34310736417052962 0 0.074980122896238788 -0.34713453590672932 0 0.056685261065341011 -0.36272968062753203 0 0.061224838342003957 -0.34806407001790951 0 0.074980122896238788 -0.34713453590672932 0 0.062245516844513613 -0.33973167479916988 0 0.061224838342003957 -0.34806407001790951 0 0.075294039921604661 -0.37261373670098041 0 0.054855735139516901 -0.37252432877916841 0 0.074980122896238788 -0.34713453590672932 0 0.075294039921604661 -0.37261373670098041 0 0.056685261065341011 -0.36272968062753203 0 0.074980122896238788 -0.34713453590672932 0 0.075294039921604661 -0.37261373670098041 0 0.074540998541040723 -0.31149283215745383 0 0.091665675370444122 -0.32186953613510372 0 0.074666205870844465 -0.32165533511247868 0 0.098626487137509197 -0.33012317827891718 0 0.074666205870844465 -0.32165533511247868 0 0.098626487137509197 -0.33012317827891718 0 0.091665675370444122 -0.32186953613510372 0 0.074666205870844465 -0.32165533511247868 0 0.088064920472815514 -0.30849308178977691 0 0.074540998541040723 -0.31149283215745383 0 0.091665675370444122 -0.32186953613510372 0 0.074540998541040723 -0.31149283215745383 0 0.091665675370444122 -0.32186953613510372 0 0.088064920472815514 -0.30849308178977691 0 0.097554260737118176 -0.314298341047136 0 0.091665675370444122 -0.32186953613510372 0 0.098626487137509197 -0.33012317827891718 0 0.083678900082227517 -0.33428582823302883 0 0.074666205870844465 -0.32165533511247868 0 0.098626487137509197 -0.33012317827891718 0 0.091872309357222265 -0.34310736417052962 0 0.083678900082227517 -0.33428582823302883 0 0.074980122896238788 -0.34713453590672932 0 0.091872309357222265 -0.34310736417052962 0 0.083678900082227517 -0.33428582823302883 0 0.074980122896238788 -0.34713453590672932 0 0.083678900082227517 -0.33428582823302883 0 0.074666205870844465 -0.32165533511247868 0 0.074980122896238788 -0.34713453590672932 0 0.074666205870844465 -0.32165533511247868 0 0.074980122896238788 -0.34713453590672932 0 0.067919336930941765 -0.3308994160386951 0 0.062245516844513613 -0.33973167479916988 0 0.074980122896238788 -0.34713453590672932 0 0.067919336930941765 -0.3308994160386951 0 0.074666205870844465 -0.32165533511247868 0 0.067919336930941765 -0.3308994160386951 0 0.058984177278542889 -0.32866772343169037 0 0.062245516844513613 -0.33973167479916988 0 0.067919336930941765 -0.3308994160386951 0 0.06585131797746091 -0.31854005080602521 0 0.058984177278542889 -0.32866772343169037 0 0.067919336930941765 -0.3308994160386951 0 0.074666205870844465 -0.32165533511247868 0 0.06585131797746091 -0.31854005080602521 0 0.074540998541040723 -0.31149283215745383 0 0.074666205870844465 -0.32165533511247868 0 0.074666205870844465 -0.32165533511247868 0 0.071546803774496626 -0.31629040218770138 0 0.06585131797746091 -0.31854005080602521 0 0.074540998541040723 -0.31149283215745383 0 0.074666205870844465 -0.32165533511247868 0 0.071546803774496626 -0.31629040218770138 0 0.074540998541040723 -0.31149283215745383 0 0.071768761165364237 -0.30981299393976203 0 0.071546803774496626 -0.31629040218770138 0 0.071768761165364237 -0.30981299393976203 0 0.071546803774496626 -0.31629040218770138 0 0.06585131797746091 -0.31854005080602521 0 0.071768761165364237 -0.30981299393976203 0 0.06585131797746091 -0.31854005080602521 0 0.059314715853899982 -0.30952340738401979 0 0.071768761165364237 -0.30981299393976203 0 0.06585131797746091 -0.31854005080602521 0 0.074666205870844465 -0.32165533511247868 0 0.06585131797746091 -0.31854005080602521 0 0.06585131797746091 -0.31854005080602521 0 0.050000527604054497 -0.32292413279372378 0 0.048419061085650417 -0.31237928767671819 0 0.06585131797746091 -0.31854005080602521 0 0.048419061085650417 -0.31237928767671819 0 0.06585131797746091 -0.31854005080602521 0 0.059314715853899982 -0.30952340738401979 0 0.048419061085650417 -0.31237928767671819 0 0.06585131797746091 -0.31854005080602521 0 0.050000527604054497 -0.32292413279372378 0 0.058984177278542889 -0.32866772343169037 0 0.06585131797746091 -0.31854005080602521 0 0.058984177278542889 -0.32866772343169037 0 0.050000527604054497 -0.32292413279372378 0 0.058984177278542889 -0.32866772343169037 0 0.048119108774840623 -0.34389262860082498 0 0.058984177278542889 -0.32866772343169037 0 0.062245516844513613 -0.33973167479916988 0 0.048119108774840623 -0.34389262860082498 0 0.039552956484340207 -0.32505557657411799 0 0.048119108774840623 -0.34389262860082498 0 0.027716551589642549 -0.34163332715623113 0 0.050000527604054497 -0.32292413279372378 0 0.039552956484340207 -0.32505557657411799 0 0.048119108774840623 -0.34389262860082498 0 0.039552956484340207 -0.32505557657411799 0 0.048119108774840623 -0.34389262860082498 0 0.039552956484340207 -0.32505557657411799 0 0.030986804193839961 -0.30621852454741089 0 0.039552956484340207 -0.32505557657411799 0 0.030986804193839961 -0.30621852454741089 0 0.048419061085650417 -0.31237928767671819 0 0.039552956484340207 -0.32505557657411799 0 0.02473762862877717 -0.32037798517154448 0 0.030986804193839961 -0.30621852454741089 0 0.050000527604054497 -0.32292413279372378 0 0.039552956484340207 -0.32505557657411799 0 0.048419061085650417 -0.31237928767671819 0 0.075294039921604661 -0.37261373670098041 0 0.054855735139516901 -0.37252432877916841 0 0.056685261065341011 -0.36272968062753203 0 0.054855735139516901 -0.37252432877916841 0 0.056685261065341011 -0.36272968062753203 0 0.047454115232350602 -0.36607360147391971 0 0.056685261065341011 -0.36272968062753203 0 0.047454115232350602 -0.36607360147391971 0 0.041493483459436743 -0.35827188827202883 0 0.056685261065341011 -0.36272968062753203 0 0.061224838342003957 -0.34806407001790951 0 0.048119108774840623 -0.34389262860082498 0 0.056685261065341011 -0.36272968062753203 0 0.048119108774840623 -0.34389262860082498 0 0.041493483459436743 -0.35827188827202883 0 0.056685261065341011 -0.36272968062753203 0 0.048119108774840623 -0.34389262860082498 0 0.062245516844513613 -0.33973167479916988 0 0.061224838342003957 -0.34806407001790951 0 0.048119108774840623 -0.34389262860082498 0 0.048119108774840623 -0.34389262860082498 0 0.041493483459436743 -0.35827188827202883 0 0.027716551589642549 -0.34163332715623113 0 0.041493483459436743 -0.35827188827202883 0 0.034417430357429737 -0.37243492085723512 0 0.021082921273227001 -0.36269765762046702 0 0.054855735139516901 -0.37252432877916841 0 0.034417430357429737 -0.37243492085723512 0 0.054855735139516901 -0.37252432877916841 0 0.047454115232350602 -0.36607360147391971 0 0.034417430357429737 -0.37243492085723512 0 0.047454115232350602 -0.36607360147391971 0 0.041493483459436743 -0.35827188827202883 0 0.034417430357429737 -0.37243492085723512 0 0.01344107391546359 -0.37733410516826449 0 0.034417430357429737 -0.37243492085723512 0 0.021082921273227001 -0.36269765762046702 0 0.021082921273227001 -0.36269765762046702 0 0.010832911374833431 -0.34975313271834613 0 0.027716551589642549 -0.34163332715623113 0 0.041493483459436743 -0.35827188827202883 0 0.021082921273227001 -0.36269765762046702 0 0.027716551589642549 -0.34163332715623113 0 -0.0077462043469716524 -0.35128538252732211 0 0.010832911374833431 -0.34975313271834613 0 0.0081968511320427359 -0.33138442113628902 0 -0.0067772076658356058 -0.36990237411869542 0 0.01344107391546359 -0.37733410516826449 0 0.021082921273227001 -0.36269765762046702 0 -0.0067772076658356058 -0.36990237411869542 0 0.021082921273227001 -0.36269765762046702 0 0.010832911374833431 -0.34975313271834613 0 -0.0067772076658356058 -0.36990237411869542 0 0.010832911374833431 -0.34975313271834613 0 0.02473762862877717 -0.32037798517154448 0 0.0050813500114497926 -0.31072192134635379 0 0.018648248480839739 -0.30936460464561921 0 0.02473762862877717 -0.32037798517154448 0 0.027716551589642549 -0.34163332715623113 0 0.0081968511320427359 -0.33138442113628902 0 0.039552956484340207 -0.32505557657411799 0 0.02473762862877717 -0.32037798517154448 0 0.027716551589642549 -0.34163332715623113 0 0.010832911374833431 -0.34975313271834613 0 0.027716551589642549 -0.34163332715623113 0 0.0081968511320427359 -0.33138442113628902 0 -0.01057433678700309 -0.32921904890168052 0 0.0081968511320427359 -0.33138442113628902 0 0.0050813500114497926 -0.31072192134635379 0 0.02473762862877717 -0.32037798517154448 0 0.0050813500114497926 -0.31072192134635379 0 0.02473762862877717 -0.32037798517154448 0 0.0081968511320427359 -0.33138442113628902 0 0.0050813500114497926 -0.31072192134635379 0 -0.0034123820152559409 -0.29406145048692378 0 0.0050813500114497926 -0.31072192134635379 0 0.013787211089292021 -0.30013998751716742 0 -0.0034123820152559409 -0.29406145048692378 0 0.013787211089292021 -0.30013998751716742 0 0.0050813500114497926 -0.31072192134635379 0 0.013787211089292021 -0.30013998751716742 0 0.018648248480839739 -0.30936460464561921 0 -0.0034123820152559409 -0.29406145048692378 0 0.013787211089292021 -0.30013998751716742 0 0.0093977306250921447 -0.28881489018637552 0 0.0005044884639468436 -0.28428256264433588 0 0.0093977306250921447 -0.28881489018637552 0 0.0066867488031422074 -0.27900332548264861 0 -0.0034123820152559409 -0.29406145048692378 0 0.0005044884639468436 -0.28428256264433588 0 0.0093977306250921447 -0.28881489018637552 0 0.013787211089292021 -0.30013998751716742 0 0.0093977306250921447 -0.28881489018637552 0 0.0179229784341596 -0.29415244242339728 0 0.0093977306250921447 -0.28881489018637552 0 0.015353375909059211 -0.28565112352167887 0 0.0179229784341596 -0.29415244242339728 0 0.0093977306250921447 -0.28881489018637552 0 0.011660142520958681 -0.28137015988183439 0 0.0066867488031422074 -0.27900332548264861 0 0.0093977306250921447 -0.28881489018637552 0 0.015353375909059211 -0.28565112352167887 0 0.011660142520958681 -0.28137015988183439 0 0.023240762565370179 -0.28918490382619949 0 0.0179229784341596 -0.29415244242339728 0 0.030986804193839961 -0.30621852454741089 0 0.023240762565370179 -0.28918490382619949 0 0.030810482961118799 -0.29453884135447739 0 0.030986804193839961 -0.30621852454741089 0 0.023240762565370179 -0.28918490382619949 0 0.030670685208883799 -0.28490960028738532 0 0.015494720936900861 -0.27215128310498782 0 0.015353375909059211 -0.28565112352167887 0 0.023240762565370179 -0.28918490382619949 0 0.01454526539971546 -0.27473322129058808 0 0.015353375909059211 -0.28565112352167887 0 0.023240762565370179 -0.28918490382619949 0 0.0179229784341596 -0.29415244242339728 0 0.023240762565370179 -0.28918490382619949 0 0.030810482961118799 -0.29453884135447739 0 0.030670685208883799 -0.28490960028738532 0 0.013787211089292021 -0.30013998751716742 0 0.030986804193839961 -0.30621852454741089 0 0.013787211089292021 -0.30013998751716742 0 0.0179229784341596 -0.29415244242339728 0 0.030986804193839961 -0.30621852454741089 0 0.013787211089292021 -0.30013998751716742 0 0.018648248480839739 -0.30936460464561921 0 0.030986804193839961 -0.30621852454741089 0 0.023240762565370179 -0.28918490382619949 0 0.030986804193839961 -0.30621852454741089 0 0.02473762862877717 -0.32037798517154448 0 0.018648248480839739 -0.30936460464561921 0 0.030986804193839961 -0.30621852454741089 0 0.030986804193839961 -0.30621852454741089 0 0.038343679876381258 -0.29784233675691402 0 0.048419061085650417 -0.31237928767671819 0 0.030986804193839961 -0.30621852454741089 0 0.048419061085650417 -0.31237928767671819 0 0.038343679876381258 -0.29784233675691402 0 0.048419061085650417 -0.31237928767671819 0 0.051219723187124047 -0.29736129711357362 0 0.030810482961118799 -0.29453884135447739 0 0.030986804193839961 -0.30621852454741089 0 0.038343679876381258 -0.29784233675691402 0 0.030670685208883799 -0.28490960028738532 0 0.038343679876381258 -0.29784233675691402 0 0.051219723187124047 -0.29736129711357362 0 0.030670685208883799 -0.28490960028738532 0 0.051219723187124047 -0.29736129711357362 0 0.039574727112442858 -0.28000612433212541 0 0.030670685208883799 -0.28490960028738532 0 0.051219723187124047 -0.29736129711357362 0 0.030810482961118799 -0.29453884135447739 0 0.030670685208883799 -0.28490960028738532 0 0.038343679876381258 -0.29784233675691402 0 0.054204662510492413 -0.28282886868450691 0 0.051219723187124047 -0.29736129711357362 0 0.039574727112442858 -0.28000612433212541 0 0.065167962798880402 -0.29553101893330752 0 0.054204662510492413 -0.28282886868450691 0 0.051219723187124047 -0.29736129711357362 0 0.071768761165364237 -0.30981299393976203 0 0.059314715853899982 -0.30952340738401979 0 0.051219723187124047 -0.29736129711357362 0 0.071768761165364237 -0.30981299393976203 0 0.051219723187124047 -0.29736129711357362 0 0.059314715853899982 -0.30952340738401979 0 0.048419061085650417 -0.31237928767671819 0 0.051219723187124047 -0.29736129711357362 0 0.047813738821929658 -0.25677683227199732 0 0.058954211922476032 -0.26766693945416897 0 0.06353971008292858 -0.24694136108008011 0 0.047813738821929658 -0.25677683227199732 0 0.058954211922476032 -0.26766693945416897 0 0.047572659049752053 -0.2700808664820647 0 0.074175469235251534 -0.28182450000123771 0 0.054204662510492413 -0.28282886868450691 0 0.058954211922476032 -0.26766693945416897 0 0.054204662510492413 -0.28282886868450691 0 0.047572659049752053 -0.2700808664820647 0 0.039574727112442858 -0.28000612433212541 0 0.054204662510492413 -0.28282886868450691 0 0.058954211922476032 -0.26766693945416897 0 0.047572659049752053 -0.2700808664820647 0 0.039574727112442858 -0.28000612433212541 0 0.03731595488141929 -0.26312556766752482 0 0.02064183812321085 -0.25815427335718782 0 0.047572659049752053 -0.2700808664820647 0 0.039574727112442858 -0.28000612433212541 0 0.03731595488141929 -0.26312556766752482 0 0.047813738821929658 -0.25677683227199732 0 0.047572659049752053 -0.2700808664820647 0 0.03731595488141929 -0.26312556766752482 0 0.047813738821929658 -0.25677683227199732 0 0.03731595488141929 -0.26312556766752482 0 0.035768680097194347 -0.25045790292748088 0 0.03731595488141929 -0.26312556766752482 0 0.035768680097194347 -0.25045790292748088 0 0.02064183812321085 -0.25815427335718782 0 0.02064183812321085 -0.25815427335718782 0 0.015494720936900861 -0.27215128310498782 0 0.023240762565370179 -0.28918490382619949 0 0.01454526539971546 -0.27473322129058808 0 0.015494720936900861 -0.27215128310498782 0 0.039574727112442858 -0.28000612433212541 0 0.02064183812321085 -0.25815427335718782 0 0.030670685208883799 -0.28490960028738532 0 0.039574727112442858 -0.28000612433212541 0 0.015494720936900861 -0.27215128310498782 0 0.039574727112442858 -0.28000612433212541 0 0.02064183812321085 -0.25815427335718782 0 0.015494720936900861 -0.27215128310498782 0 0.023240762565370179 -0.28918490382619949 0 0.015494720936900861 -0.27215128310498782 0 0.010659661302004979 -0.27712448631473158 0 0.0073487086021330411 -0.27097751715627239 0 0.0066867488031422074 -0.27900332548264861 0 0.015353375909059211 -0.28565112352167887 0 0.011660142520958681 -0.28137015988183439 0 0.01454526539971546 -0.27473322129058808 0 0.011660142520958681 -0.28137015988183439 0 0.010659661302004979 -0.27712448631473158 0 0.0066867488031422074 -0.27900332548264861 0 0.011660142520958681 -0.28137015988183439 0 0.01454526539971546 -0.27473322129058808 0 0.010659661302004979 -0.27712448631473158 0 0.01454526539971546 -0.27473322129058808 0 0.015494720936900861 -0.27215128310498782 0 0.01454526539971546 -0.27473322129058808 0 0.010659661302004979 -0.27712448631473158 0 0.0073487086021330411 -0.27097751715627239 0 0.01454526539971546 -0.27473322129058808 0 0.015494720936900861 -0.27215128310498782 0 0.0073487086021330411 -0.27097751715627239 0 -0.00066879478938417663 -0.27607701057605472 0 -0.0014412548413753219 -0.26637053980784359 0 0.0073487086021330411 -0.27097751715627239 0 -0.00066879478938417663 -0.27607701057605472 0 0.0073487086021330411 -0.27097751715627239 0 0.0066867488031422074 -0.27900332548264861 0 -0.00066879478938417663 -0.27607701057605472 0 0.0005044884639468436 -0.28428256264433588 0 0.0066867488031422074 -0.27900332548264861 0 0.02064183812321085 -0.25815427335718782 0 0.015494720936900861 -0.27215128310498782 0 0.0059536600781536506 -0.25117039767460608 0 -0.0014412548413753219 -0.26637053980784359 0 0.0073487086021330411 -0.27097751715627239 0 0.0059536600781536506 -0.25117039767460608 0 0.015494720936900861 -0.27215128310498782 0 0.0073487086021330411 -0.27097751715627239 0 0.0059536600781536506 -0.25117039767460608 0 0.015494720936900861 -0.27215128310498782 0 0.0059536600781536506 -0.25117039767460608 0 0.02064183812321085 -0.25815427335718782 0 0.0085272186713099413 -0.2441718928007052 0 0.02064183812321085 -0.25815427335718782 0 0.0059536600781536506 -0.25117039767460608 0 0.0085272186713099413 -0.2441718928007052 0 -0.00358740078059251 -0.2301895122442239 0 0.0059536600781536506 -0.25117039767460608 0 0.0085272186713099413 -0.2441718928007052 0 -0.00358740078059251 -0.2301895122442239 0 0.0059536600781536506 -0.25117039767460608 0 -0.00358740078059251 -0.2301895122442239 0 0.0085272186713099413 -0.2441718928007052 0 -0.00358740078059251 -0.2301895122442239 0 0.0085272186713099413 -0.2441718928007052 0 0.01238423573823769 -0.22709816842259381 0 -0.00358740078059251 -0.2301895122442239 0 0.0035297938300472001 -0.21986774507615159 0 0.01238423573823769 -0.22709816842259381 0 0.0035297938300472001 -0.21986774507615159 0 0.01238423573823769 -0.22709816842259381 0 0.010429461154378931 -0.21178399523623981 0 0.01238423573823769 -0.22709816842259381 0 0.010429461154378931 -0.21178399523623981 0 0.024018968430179592 -0.21850884767214099 0 0.029058701774303659 -0.23526555365140231 0 0.024018968430179592 -0.21850884767214099 0 0.037475565425397067 -0.21237683394561699 0 0.01238423573823769 -0.22709816842259381 0 0.029058701774303659 -0.23526555365140231 0 0.024018968430179592 -0.21850884767214099 0 0.02064183812321085 -0.25815427335718782 0 0.029058701774303659 -0.23526555365140231 0 0.0085272186713099413 -0.2441718928007052 0 0.01238423573823769 -0.22709816842259381 0 0.029058701774303659 -0.23526555365140231 0 0.02064183812321085 -0.25815427335718782 0 0.0085272186713099413 -0.2441718928007052 0 0.029058701774303659 -0.23526555365140231 0 0.035768680097194347 -0.25045790292748088 0 0.02064183812321085 -0.25815427335718782 0 0.029058701774303659 -0.23526555365140231 0 -0.001394300706792132 -0.19959582481195021 0 0.015882690115080599 -0.1999314613024277 0 0.0088310485035662332 -0.18499497339519749 0 -0.001394300706792132 -0.19959582481195021 0 0.010429461154378931 -0.21178399523623981 0 0.015882690115080599 -0.1999314613024277 0 -0.0015516111982930129 -0.21027501658404171 0 -0.001394300706792132 -0.19959582481195021 0 0.010429461154378931 -0.21178399523623981 0 -0.0015516111982930129 -0.21027501658404171 0 0.0035297938300472001 -0.21986774507615159 0 0.010429461154378931 -0.21178399523623981 0 0.010429461154378931 -0.21178399523623981 0 0.024018968430179592 -0.21850884767214099 0 0.020618589153898251 -0.20783845861769071 0 0.024018968430179592 -0.21850884767214099 0 0.028243381550459742 -0.20974782789634469 0 0.037475565425397067 -0.21237683394561699 0 0.024018968430179592 -0.21850884767214099 0 0.028243381550459742 -0.20974782789634469 0 0.020618589153898251 -0.20783845861769071 0 0.028243381550459742 -0.20974782789634469 0 0.02714694274836725 -0.20215338642260761 0 0.032394899571496903 -0.2056058586153304 0 0.028243381550459742 -0.20974782789634469 0 0.020618589153898251 -0.20783845861769071 0 0.02714694274836725 -0.20215338642260761 0 0.020618589153898251 -0.20783845861769071 0 0.015882690115080599 -0.1999314613024277 0 0.02714694274836725 -0.20215338642260761 0 0.010429461154378931 -0.21178399523623981 0 0.020618589153898251 -0.20783845861769071 0 0.015882690115080599 -0.1999314613024277 0 0.024531243648390849 -0.19433408654789189 0 0.034081828313176632 -0.18644522542247419 0 0.0088310485035662332 -0.18499497339519749 0 0.015882690115080599 -0.1999314613024277 0 0.024531243648390849 -0.19433408654789189 0 0.0088310485035662332 -0.18499497339519749 0 0.015882690115080599 -0.1999314613024277 0 0.02714694274836725 -0.20215338642260761 0 0.024531243648390849 -0.19433408654789189 0 0.02714694274836725 -0.20215338642260761 0 0.024531243648390849 -0.19433408654789189 0 0.036713708561763529 -0.19814538619675229 0 0.045892429076490493 -0.18948811423983161 0 0.036713708561763529 -0.19814538619675229 0 0.037475565425397067 -0.21237683394561699 0 0.045892429076490493 -0.18948811423983161 0 0.037475565425397067 -0.21237683394561699 0 0.045892429076490493 -0.18948811423983161 0 0.042387278588356392 -0.20352011806107961 0 0.037475565425397067 -0.21237683394561699 0 0.045892429076490493 -0.18948811423983161 0 0.036713708561763529 -0.19814538619675229 0 0.034081828313176632 -0.18644522542247419 0 0.024531243648390849 -0.19433408654789189 0 0.036713708561763529 -0.19814538619675229 0 0.034081828313176632 -0.18644522542247419 0 0.02714694274836725 -0.20215338642260761 0 0.036713708561763529 -0.19814538619675229 0 0.032394899571496903 -0.2056058586153304 0 0.042387278588356392 -0.20352011806107961 0 0.037475565425397067 -0.21237683394561699 0 0.057981512393228872 -0.21833392906386431 0 0.036713708561763529 -0.19814538619675229 0 0.032394899571496903 -0.2056058586153304 0 0.037475565425397067 -0.21237683394561699 0 0.028243381550459742 -0.20974782789634469 0 0.032394899571496903 -0.2056058586153304 0 0.037475565425397067 -0.21237683394561699 0 0.042387278588356392 -0.20352011806107961 0 0.057981512393228872 -0.21833392906386431 0 0.058354622499787158 -0.19585472239058341 0 0.042387278588356392 -0.20352011806107961 0 0.057981512393228872 -0.21833392906386431 0 0.045892429076490493 -0.18948811423983161 0 0.042387278588356392 -0.20352011806107961 0 0.058354622499787158 -0.19585472239058341 0 0.045892429076490493 -0.18948811423983161 0 0.058354622499787158 -0.19585472239058341 0 0.055208242740051698 -0.17907699079005829 0 0.047813738821929658 -0.25677683227199732 0 0.035768680097194347 -0.25045790292748088 0 0.049705072387382941 -0.2381324665825163 0 0.035768680097194347 -0.25045790292748088 0 0.029058701774303659 -0.23526555365140231 0 0.049705072387382941 -0.2381324665825163 0 0.029058701774303659 -0.23526555365140231 0 0.037475565425397067 -0.21237683394561699 0 0.029058701774303659 -0.23526555365140231 0 0.043555212995078127 -0.22602719581085001 0 0.049705072387382941 -0.2381324665825163 0 0.029058701774303659 -0.23526555365140231 0 0.037475565425397067 -0.21237683394561699 0 0.043555212995078127 -0.22602719581085001 0 0.037475565425397067 -0.21237683394561699 0 0.057981512393228872 -0.21833392906386431 0 0.043555212995078127 -0.22602719581085001 0 0.057981512393228872 -0.21833392906386431 0 0.049705072387382941 -0.2381324665825163 0 0.071544300918191514 -0.2342440544721936 0 0.057981512393228872 -0.21833392906386431 0 0.043555212995078127 -0.22602719581085001 0 0.049705072387382941 -0.2381324665825163 0 0.049705072387382941 -0.2381324665825163 0 0.06353971008292858 -0.24694136108008011 0 0.071544300918191514 -0.2342440544721936 0 0.047813738821929658 -0.25677683227199732 0 0.049705072387382941 -0.2381324665825163 0 0.06353971008292858 -0.24694136108008011 0 0.073879740574333774 -0.25782156507501819 0 0.06353971008292858 -0.24694136108008011 0 0.073584011913408937 -0.23381863014879881 0 0.073879740574333774 -0.25782156507501819 0 0.073584011913408937 -0.23381863014879881 0 0.06353971008292858 -0.24694136108008011 0 0.071544300918191514 -0.2342440544721936 0 0.073584011913408937 -0.23381863014879881 0 0.073879740574333774 -0.25782156507501819 0 0.089125363783243566 -0.24791916769523201 0 0.073584011913408937 -0.23381863014879881 0 0.089125363783243566 -0.24791916769523201 0 0.073584011913408937 -0.23381863014879881 0 0.098454432069662701 -0.22863138465503011 0 0.089125363783243566 -0.24791916769523201 0 0.073584011913408937 -0.23381863014879881 0 0.084452103328721939 -0.22227973666619269 0 0.073584011913408937 -0.23381863014879881 0 0.098454432069662701 -0.22863138465503011 0 0.073584011913408937 -0.23381863014879881 0 0.098454432069662701 -0.22863138465503011 0 0.073584011913408937 -0.23381863014879881 0 0.073237455570387799 -0.20569024609511921 0 0.057981512393228872 -0.21833392906386431 0 0.073584011913408937 -0.23381863014879881 0 0.073237455570387799 -0.20569024609511921 0 0.057981512393228872 -0.21833392906386431 0 0.071544300918191514 -0.2342440544721936 0 0.073584011913408937 -0.23381863014879881 0 0.084452103328721939 -0.22227973666619269 0 0.073584011913408937 -0.23381863014879881 0 0.073237455570387799 -0.20569024609511921 0 0.071544300918191514 -0.2342440544721936 0 0.073584011913408937 -0.23381863014879881 0 0.057981512393228872 -0.21833392906386431 0 0.073584011913408937 -0.23381863014879881 0 0.057981512393228872 -0.21833392906386431 0 0.058354622499787158 -0.19585472239058341 0 0.073237455570387799 -0.20569024609511921 0 0.073237455570387799 -0.20569024609511921 0 0.072899164942624592 -0.1782327521236152 0 0.058354622499787158 -0.19585472239058341 0 0.073237455570387799 -0.20569024609511921 0 0.072899164942624592 -0.1782327521236152 0 0.073237455570387799 -0.20569024609511921 0 0.089662633033838035 -0.18670224364426319 0 0.072899164942624592 -0.1782327521236152 0 0.073237455570387799 -0.20569024609511921 0 0.097760281032013938 -0.20471962820000289 0 0.089662633033838035 -0.18670224364426319 0 0.084452103328721939 -0.22227973666619269 0 0.097760281032013938 -0.20471962820000289 0 0.098454432069662701 -0.22863138465503011 0 0.084452103328721939 -0.22227973666619269 0 0.073237455570387799 -0.20569024609511921 0 0.097760281032013938 -0.20471962820000289 0 0.097760281032013938 -0.20471962820000289 0 0.11357790737626 -0.21017515178023519 0 0.098454432069662701 -0.22863138465503011 0 0.097760281032013938 -0.20471962820000289 0 0.11997030887787009 -0.18991310481957921 0 0.089662633033838035 -0.18670224364426319 0 0.11997030887787009 -0.18991310481957921 0 0.11357790737626 -0.21017515178023519 0 0.13043208189753189 -0.2066469910259516 0 0.097760281032013938 -0.20471962820000289 0 0.11997030887787009 -0.18991310481957921 0 0.11357790737626 -0.21017515178023519 0 0.11357790737626 -0.21017515178023519 0 0.1227525401324822 -0.22356350680000489 0 0.13043208189753189 -0.2066469910259516 0 0.11357790737626 -0.21017515178023519 0 0.1227525401324822 -0.22356350680000489 0 0.098454432069662701 -0.22863138465503011 0 0.1227525401324822 -0.22356350680000489 0 0.098454432069662701 -0.22863138465503011 0 0.1227525401324822 -0.22356350680000489 0 0.118233132557587 -0.23876189541744641 0 0.098454432069662701 -0.22863138465503011 0 0.118233132557587 -0.23876189541744641 0 0.11258481616026179 -0.24961739565754379 0 0.10216954282952841 -0.24283827424479509 0 0.122950809996049 -0.25239340012073208 0 0.118233132557587 -0.23876189541744641 0 0.11258481616026179 -0.24961739565754379 0 0.122950809996049 -0.25239340012073208 0 0.118233132557587 -0.23876189541744641 0 0.13262045681175449 -0.24449406379594699 0 0.089125363783243566 -0.24791916769523201 0 0.10216954282952841 -0.24283827424479509 0 0.098454432069662701 -0.22863138465503011 0 0.118233132557587 -0.23876189541744641 0 0.10216954282952841 -0.24283827424479509 0 0.098454432069662701 -0.22863138465503011 0 0.0963590508029952 -0.13782861576134439 0 0.12049551791894809 -0.15233946734203499 0 0.099682360962073766 -0.16873427242558839 0 0.0963590508029952 -0.13782861576134439 0 0.12049551791894809 -0.15233946734203499 0 0.0963590508029952 -0.13782861576134439 0 0.12049551791894809 -0.15233946734203499 0 0.1274321486448233 -0.1276430607905818 0 0.12049551791894809 -0.15233946734203499 0 0.099682360962073766 -0.16873427242558839 0 0.12558608820142819 -0.17120111343300851 0 0.11997030887787009 -0.18991310481957921 0 0.099682360962073766 -0.16873427242558839 0 0.12558608820142819 -0.17120111343300851 0 0.11997030887787009 -0.18991310481957921 0 0.099682360962073766 -0.16873427242558839 0 0.089662633033838035 -0.18670224364426319 0 0.099682360962073766 -0.16873427242558839 0 0.072899164942624592 -0.1782327521236152 0 0.072560874314861384 -0.1507752581521111 0 0.099682360962073766 -0.16873427242558839 0 0.089662633033838035 -0.18670224364426319 0 0.072899164942624592 -0.1782327521236152 0 0.072899164942624592 -0.1782327521236152 0 0.072560874314861384 -0.1507752581521111 0 0.072899164942624592 -0.1782327521236152 0 0.072560874314861384 -0.1507752581521111 0 0.059354472593879687 -0.16526647563497701 0 0.0963590508029952 -0.13782861576134439 0 0.099682360962073766 -0.16873427242558839 0 0.072560874314861384 -0.1507752581521111 0 0.0963590508029952 -0.13782861576134439 0 0.072222583687069963 -0.1233177641806079 0 0.0963590508029952 -0.13782861576134439 0 0.072560874314861384 -0.1507752581521111 0 0.072222583687069963 -0.1233177641806079 0 0.072560874314861384 -0.1507752581521111 0 0.072222583687069963 -0.1233177641806079 0 0.072560874314861384 -0.1507752581521111 0 0.052527383879967887 -0.13485330806025539 0 0.072222583687069963 -0.1233177641806079 0 0.072560874314861384 -0.1507752581521111 0 0.052709967375438288 -0.1524107920417728 0 0.059354472593879687 -0.16526647563497701 0 0.072560874314861384 -0.1507752581521111 0 0.052527383879967887 -0.13485330806025539 0 0.052709967375438288 -0.1524107920417728 0 0.052709967375438288 -0.1524107920417728 0 0.032880200611753542 -0.1467778413205271 0 0.043394113596422527 -0.16583658506732729 0 0.052527383879967887 -0.13485330806025539 0 0.052709967375438288 -0.1524107920417728 0 0.032880200611753542 -0.1467778413205271 0 0.052527383879967887 -0.13485330806025539 0 0.032880200611753542 -0.1467778413205271 0 0.03588960581394969 -0.1245225484383756 0 0.058354622499787158 -0.19585472239058341 0 0.072899164942624592 -0.1782327521236152 0 0.055208242740051698 -0.17907699079005829 0 0.072899164942624592 -0.1782327521236152 0 0.055208242740051698 -0.17907699079005829 0 0.059354472593879687 -0.16526647563497701 0 0.045892429076490493 -0.18948811423983161 0 0.055208242740051698 -0.17907699079005829 0 0.042469897800599871 -0.17935196178251309 0 0.055208242740051698 -0.17907699079005829 0 0.043394113596422527 -0.16583658506732729 0 0.042469897800599871 -0.17935196178251309 0 0.052709967375438288 -0.1524107920417728 0 0.059354472593879687 -0.16526647563497701 0 0.043394113596422527 -0.16583658506732729 0 0.055208242740051698 -0.17907699079005829 0 0.059354472593879687 -0.16526647563497701 0 0.043394113596422527 -0.16583658506732729 0 0.043394113596422527 -0.16583658506732729 0 0.03125122358927486 -0.17512670942294201 0 0.02358635623494303 -0.16560806334502531 0 0.032880200611753542 -0.1467778413205271 0 0.043394113596422527 -0.16583658506732729 0 0.02358635623494303 -0.16560806334502531 0 0.043394113596422527 -0.16583658506732729 0 0.042469897800599871 -0.17935196178251309 0 0.03125122358927486 -0.17512670942294201 0 0.042469897800599871 -0.17935196178251309 0 0.03125122358927486 -0.17512670942294201 0 0.034081828313176632 -0.18644522542247419 0 0.045892429076490493 -0.18948811423983161 0 0.042469897800599871 -0.17935196178251309 0 0.034081828313176632 -0.18644522542247419 0 0.034081828313176632 -0.18644522542247419 0 0.0088310485035662332 -0.18499497339519749 0 0.03125122358927486 -0.17512670942294201 0 0.02358635623494303 -0.16560806334502531 0 0.0088310485035662332 -0.18499497339519749 0 0.03125122358927486 -0.17512670942294201 0 0.034081828313176632 -0.18644522542247419 0 0.0088310485035662332 -0.18499497339519749 0 0.02358635623494303 -0.16560806334502531 0 0.0073780211962345722 -0.1675384859478232 0 0.017098496912337301 -0.15233364923107151 0 -0.003004005103060921 -0.15307056508902001 0 0.0073780211962345722 -0.1675384859478232 0 0.017098496912337301 -0.15233364923107151 0 0.02358635623494303 -0.16560806334502531 0 0.0073780211962345722 -0.1675384859478232 0 0.0088310485035662332 -0.18499497339519749 0 -0.0087818727483572646 -0.16854142425400009 0 0.0073780211962345722 -0.1675384859478232 0 0.0088310485035662332 -0.18499497339519749 0 -0.01829416010236987 -0.133605792362194 0 0.013646756960559409 -0.13380361011871339 0 0.0052588520052682464 -0.11514370574485849 0 0.032880200611753542 -0.1467778413205271 0 0.013646756960559409 -0.13380361011871339 0 0.03588960581394969 -0.1245225484383756 0 0.032880200611753542 -0.1467778413205271 0 0.017098496912337301 -0.15233364923107151 0 0.013646756960559409 -0.13380361011871339 0 0.032880200611753542 -0.1467778413205271 0 0.02358635623494303 -0.16560806334502531 0 0.017098496912337301 -0.15233364923107151 0 -0.003004005103060921 -0.15307056508902001 0 0.017098496912337301 -0.15233364923107151 0 0.013646756960559409 -0.13380361011871339 0 0.013646756960559409 -0.13380361011871339 0 0.0052588520052682464 -0.11514370574485849 0 0.022470609847376189 -0.1145799291286372 0 -0.0050141511229591469 -0.083295860522754159 0 0.0052588520052682464 -0.11514370574485849 0 0.01902964537787933 -0.09636909773937849 0 0.013646756960559409 -0.13380361011871339 0 0.022470609847376189 -0.1145799291286372 0 0.03588960581394969 -0.1245225484383756 0 0.01902964537787933 -0.09636909773937849 0 0.03117513248298568 -0.088891679417870059 0 0.038528189079224298 -0.10306068360186001 0 0.022470609847376189 -0.1145799291286372 0 0.01902964537787933 -0.09636909773937849 0 0.038528189079224298 -0.10306068360186001 0 0.0052588520052682464 -0.11514370574485849 0 0.022470609847376189 -0.1145799291286372 0 0.01902964537787933 -0.09636909773937849 0 -0.0050141511229591469 -0.083295860522754159 0 0.01902964537787933 -0.09636909773937849 0 0.019312895087505472 -0.076184312901996565 0 -0.0050141511229591469 -0.083295860522754159 0 0.005219015958159736 -0.06731093962953405 0 0.019312895087505472 -0.076184312901996565 0 0.005219015958159736 -0.06731093962953405 0 0.019312895087505472 -0.076184312901996565 0 0.01467734231981324 -0.055341534468490439 0 0.030588928213701641 -0.062604387916258719 0 0.019312895087505472 -0.076184312901996565 0 0.01467734231981324 -0.055341534468490439 0 0.030588928213701641 -0.062604387916258719 0 0.019312895087505472 -0.076184312901996565 0 0.042391322206324467 -0.077144053959437478 0 0.01902964537787933 -0.09636909773937849 0 0.019312895087505472 -0.076184312901996565 0 0.03117513248298568 -0.088891679417870059 0 0.019312895087505472 -0.076184312901996565 0 0.03117513248298568 -0.088891679417870059 0 0.042391322206324467 -0.077144053959437478 0 0.03117513248298568 -0.088891679417870059 0 0.042391322206324467 -0.077144053959437478 0 0.051790732322162913 -0.092886278711381623 0 0.030588928213701641 -0.062604387916258719 0 0.042391322206324467 -0.077144053959437478 0 0.05439223323867682 -0.056098194637741128 0 0.058392915129229193 -0.077428867989544931 0 0.05439223323867682 -0.056098194637741128 0 0.071519330690288416 -0.066237953699240459 0 0.042391322206324467 -0.077144053959437478 0 0.058392915129229193 -0.077428867989544931 0 0.05439223323867682 -0.056098194637741128 0 0.058392915129229193 -0.077428867989544931 0 0.051790732322162913 -0.092886278711381623 0 0.071870957188693296 -0.094777858939923965 0 0.042391322206324467 -0.077144053959437478 0 0.058392915129229193 -0.077428867989544931 0 0.051790732322162913 -0.092886278711381623 0 0.051790732322162913 -0.092886278711381623 0 0.055375386383133267 -0.11318922389125689 0 0.038528189079224298 -0.10306068360186001 0 0.055375386383133267 -0.11318922389125689 0 0.038528189079224298 -0.10306068360186001 0 0.051790732322162913 -0.092886278711381623 0 0.055375386383133267 -0.11318922389125689 0 0.071870957188693296 -0.094777858939923965 0 0.052527383879967887 -0.13485330806025539 0 0.055375386383133267 -0.11318922389125689 0 0.072222583687069963 -0.1233177641806079 0 0.052527383879967887 -0.13485330806025539 0 0.055375386383133267 -0.11318922389125689 0 0.03588960581394969 -0.1245225484383756 0 0.022470609847376189 -0.1145799291286372 0 0.03588960581394969 -0.1245225484383756 0 0.038528189079224298 -0.10306068360186001 0 0.055375386383133267 -0.11318922389125689 0 0.03588960581394969 -0.1245225484383756 0 0.038528189079224298 -0.10306068360186001 0 0.03117513248298568 -0.088891679417870059 0 0.051790732322162913 -0.092886278711381623 0 0.038528189079224298 -0.10306068360186001 0 0.019263101964042351 -0.012654202445213369 0 0.017202183584489831 -0.00165383889496219 0 0.039156041060281373 -0.0063405088962643318 0 0.019263101964042351 -0.012654202445213369 0 0.018666845930286551 -0.02718761331871852 0 0.039156041060281373 -0.0063405088962643318 0 0.0013368076600828139 0.00064641566715705325 0 0.017202183584489831 -0.00165383889496219 0 0.0068361993923145544 -0.010550644143705471 0 -0.005601158127135077 -0.013126242894221769 0 0.0013368076600828139 0.00064641566715705325 0 0.0068361993923145544 -0.010550644143705471 0 0.019263101964042351 -0.012654202445213369 0 0.017202183584489831 -0.00165383889496219 0 0.0068361993923145544 -0.010550644143705471 0 -0.005601158127135077 -0.013126242894221769 0 0.018666845930286551 -0.02718761331871852 0 0.01205219038001208 -0.033917814973801461 0 0.019263101964042351 -0.012654202445213369 0 0.0068361993923145544 -0.010550644143705471 0 0.018666845930286551 -0.02718761331871852 0 -0.005601158127135077 -0.013126242894221769 0 0.0068361993923145544 -0.010550644143705471 0 0.018666845930286551 -0.02718761331871852 0 -0.005601158127135077 -0.013126242894221769 0 0.018666845930286551 -0.02718761331871852 0 0.018666845930286551 -0.02718761331871852 0 0.01205219038001208 -0.033917814973801461 0 0.018666845930286551 -0.02718761331871852 0 0.028566022107778938 -0.03341544190346922 0 0.039360190331369317 -0.02616088137281377 0 0.018666845930286551 -0.02718761331871852 0 0.039156041060281373 -0.0063405088962643318 0 0.028566022107778938 -0.03341544190346922 0 0.01205219038001208 -0.033917814973801461 0 0.033222211809343691 -0.045008004805772869 0 0.018666845930286551 -0.02718761331871852 0 0.028566022107778938 -0.03341544190346922 0 0.01205219038001208 -0.033917814973801461 0 0.01205219038001208 -0.033917814973801461 0 0.01467734231981324 -0.055341534468490439 0 0.033222211809343691 -0.045008004805772869 0 0.01205219038001208 -0.033917814973801461 0 0.033222211809343691 -0.045008004805772869 0 -0.0081000224517206176 -0.054422050624895073 0 0.01205219038001208 -0.033917814973801461 0 -0.0081000224517206176 -0.054422050624895073 0 0.01205219038001208 -0.033917814973801461 0 0.01467734231981324 -0.055341534468490439 0 -0.0081000224517206176 -0.054422050624895073 0 0.005219015958159736 -0.06731093962953405 0 0.01467734231981324 -0.055341534468490439 0 0.030588928213701641 -0.062604387916258719 0 0.01467734231981324 -0.055341534468490439 0 0.033222211809343691 -0.045008004805772869 0 0.030588928213701641 -0.062604387916258719 0 0.05439223323867682 -0.056098194637741128 0 0.033222211809343691 -0.045008004805772869 0 0.05439223323867682 -0.056098194637741128 0 0.033222211809343691 -0.045008004805772869 0 0.051532584457026347 -0.03732311634119078 0 0.05499965885689323 -0.022451291172250389 0 0.071167704191883535 -0.037698048458556843 0 0.05439223323867682 -0.056098194637741128 0 0.051532584457026347 -0.03732311634119078 0 0.071167704191883535 -0.037698048458556843 0 0.051532584457026347 -0.03732311634119078 0 0.033222211809343691 -0.045008004805772869 0 0.039360190331369317 -0.02616088137281377 0 0.028566022107778938 -0.03341544190346922 0 0.033222211809343691 -0.045008004805772869 0 0.039360190331369317 -0.02616088137281377 0 0.05439223323867682 -0.056098194637741128 0 0.051532584457026347 -0.03732311634119078 0 0.033222211809343691 -0.045008004805772869 0 0.059645236190275362 0.0145065955261905 0 0.039156041060281373 -0.0063405088962643318 0 0.070816077693478641 -0.009158143217873338 0 0.05499965885689323 -0.022451291172250389 0 0.039156041060281373 -0.0063405088962643318 0 0.070816077693478641 -0.009158143217873338 0 0.018666845930286551 -0.02718761331871852 0 0.039360190331369317 -0.02616088137281377 0 0.039156041060281373 -0.0063405088962643318 0 0.039360190331369317 -0.02616088137281377 0 0.05499965885689323 -0.022451291172250389 0 0.039156041060281373 -0.0063405088962643318 0 0.051532584457026347 -0.03732311634119078 0 0.039360190331369317 -0.02616088137281377 0 0.05499965885689323 -0.022451291172250389 0 0.094115934799620465 0.002956992047629543 0 0.070816077693478641 -0.009158143217873338 0 0.090849286416598285 -0.01846056750712026 0 0.05499965885689323 -0.022451291172250389 0 0.070816077693478641 -0.009158143217873338 0 0.071167704191883535 -0.037698048458556843 0 0.070816077693478641 -0.009158143217873338 0 0.090849286416598285 -0.01846056750712026 0 0.071167704191883535 -0.037698048458556843 0 0.070816077693478641 -0.009158143217873338 0 0.071167704191883535 -0.037698048458556843 0 0.090849286416598285 -0.01846056750712026 0 0.071167704191883535 -0.037698048458556843 0 0.1000221442672679 -0.036174541187982433 0 0.071167704191883535 -0.037698048458556843 0 0.081919717403794834 -0.060119985657146623 0 0.1000221442672679 -0.036174541187982433 0 0.071167704191883535 -0.037698048458556843 0 0.081919717403794834 -0.060119985657146623 0 0.071519330690288416 -0.066237953699240459 0 0.05439223323867682 -0.056098194637741128 0 0.071167704191883535 -0.037698048458556843 0 0.071519330690288416 -0.066237953699240459 0 0.071167704191883535 -0.037698048458556843 0 0.071519330690288416 -0.066237953699240459 0 0.081919717403794834 -0.060119985657146623 0 0.098937427992466284 -0.05750657342906898 0 0.1000221442672679 -0.036174541187982433 0 0.081919717403794834 -0.060119985657146623 0 0.1000221442672679 -0.036174541187982433 0 0.098937427992466284 -0.05750657342906898 0 0.1139888728713398 -0.051824845735443922 0 0.107229069515778 -0.068013165106373258 0 0.098937427992466284 -0.05750657342906898 0 0.1139888728713398 -0.051824845735443922 0 0.1000221442672679 -0.036174541187982433 0 0.1139888728713398 -0.051824845735443922 0 0.123899384167079 -0.066571737467211456 0 0.1309700066266844 -0.049888515695384217 0 0.1139888728713398 -0.051824845735443922 0 0.107229069515778 -0.068013165106373258 0 0.123899384167079 -0.066571737467211456 0 0.1139888728713398 -0.051824845735443922 0 0.1000221442672679 -0.036174541187982433 0 0.12631312962385449 -0.031395791648174402 0 0.1139888728713398 -0.051824845735443922 0 0.12631312962385449 -0.031395791648174402 0 0.1309700066266844 -0.049888515695384217 0 0.1000221442672679 -0.036174541187982433 0 0.1181245711307409 -0.01222909671881825 0 0.090849286416598285 -0.01846056750712026 0 0.1000221442672679 -0.036174541187982433 0 0.1181245711307409 -0.01222909671881825 0 0.1000221442672679 -0.036174541187982433 0 0.1181245711307409 -0.01222909671881825 0 0.12631312962385449 -0.031395791648174402 0 0.094115934799620465 0.002956992047629543 0 0.090849286416598285 -0.01846056750712026 0 0.1181245711307409 -0.01222909671881825 0 0.08688326626169432 -0.1091601490986817 0 0.08683177687151547 -0.084036650810827673 0 0.1071319627581694 -0.10583985580070469 0 0.08688326626169432 -0.1091601490986817 0 0.071870957188693296 -0.094777858939923965 0 0.08683177687151547 -0.084036650810827673 0 0.0963590508029952 -0.13782861576134439 0 0.08688326626169432 -0.1091601490986817 0 0.072222583687069963 -0.1233177641806079 0 0.055375386383133267 -0.11318922389125689 0 0.072222583687069963 -0.1233177641806079 0 0.055375386383133267 -0.11318922389125689 0 0.072222583687069963 -0.1233177641806079 0 0.071870957188693296 -0.094777858939923965 0 0.08688326626169432 -0.1091601490986817 0 0.072222583687069963 -0.1233177641806079 0 0.071870957188693296 -0.094777858939923965 0 0.072222583687069963 -0.1233177641806079 0 0.071870957188693296 -0.094777858939923965 0 0.071870957188693296 -0.094777858939923965 0 0.071519330690288416 -0.066237953699240459 0 0.058392915129229193 -0.077428867989544931 0 0.071870957188693296 -0.094777858939923965 0 0.071519330690288416 -0.066237953699240459 0 0.071870957188693296 -0.094777858939923965 0 0.071519330690288416 -0.066237953699240459 0 0.081020317358779501 -0.075197993223235074 0 0.081919717403794834 -0.060119985657146623 0 0.098937427992466284 -0.05750657342906898 0 0.092959804639605473 -0.070817517009036657 0 0.081919717403794834 -0.060119985657146623 0 0.081020317358779501 -0.075197993223235074 0 0.092959804639605473 -0.070817517009036657 0 0.081919717403794834 -0.060119985657146623 0 0.071519330690288416 -0.066237953699240459 0 0.081020317358779501 -0.075197993223235074 0 0.081020317358779501 -0.075197993223235074 0 0.092959804639605473 -0.070817517009036657 0 0.08683177687151547 -0.084036650810827673 0 0.071870957188693296 -0.094777858939923965 0 0.081020317358779501 -0.075197993223235074 0 0.08683177687151547 -0.084036650810827673 0 0.092959804639605473 -0.070817517009036657 0 0.08683177687151547 -0.084036650810827673 0 0.1058163221234063 -0.086712810112717711 0 0.08683177687151547 -0.084036650810827673 0 0.1058163221234063 -0.086712810112717711 0 0.1071319627581694 -0.10583985580070469 0 0.092959804639605473 -0.070817517009036657 0 0.1058163221234063 -0.086712810112717711 0 0.107229069515778 -0.068013165106373258 0 0.098937427992466284 -0.05750657342906898 0 0.092959804639605473 -0.070817517009036657 0 0.107229069515778 -0.068013165106373258 0 0.107229069515778 -0.068013165106373258 0 0.123899384167079 -0.066571737467211456 0 0.12609816485918399 -0.083936703101593388 0 0.1058163221234063 -0.086712810112717711 0 0.107229069515778 -0.068013165106373258 0 0.12609816485918399 -0.083936703101593388 0 0.1058163221234063 -0.086712810112717711 0 0.1071319627581694 -0.10583985580070469 0 0.12609816485918399 -0.083936703101593388 0 0.1071319627581694 -0.10583985580070469 0 0.1398333295492368 -0.106428500266016 0 0.1274321486448233 -0.1276430607905818 0 0.0963590508029952 -0.13782861576134439 0 0.08688326626169432 -0.1091601490986817 0 0.1071319627581694 -0.10583985580070469 0 0.1071319627581694 -0.10583985580070469 0 0.1398333295492368 -0.106428500266016 0 0.12609816485918399 -0.083936703101593388 0 0.0963590508029952 -0.13782861576134439 0 0.1071319627581694 -0.10583985580070469 0 0.1274321486448233 -0.1276430607905818 0 0.08683177687151547 -0.084036650810827673 0 0.1071319627581694 -0.10583985580070469 0 0.1071319627581694 -0.10583985580070469 0 0.1274321486448233 -0.1276430607905818 0 0.1398333295492368 -0.106428500266016 0 0.12609816485918399 -0.083936703101593388 0 0.15752537699319061 -0.091124157234495864 0 0.1398333295492368 -0.106428500266016 0 0.1274321486448233 -0.1276430607905818 0 0.14965432360240241 -0.12659195717646241 0 0.1398333295492368 -0.106428500266016 0 0.16523345765870509 -0.1127996030301629 0 0.14965432360240241 -0.12659195717646241 0 0.1398333295492368 -0.106428500266016 0 0.15752537699319061 -0.091124157234495864 0 0.16523345765870509 -0.1127996030301629 0 0.12609816485918399 -0.083936703101593388 0 0.14695147345159801 -0.071605669629206142 0 0.15752537699319061 -0.091124157234495864 0 0.123899384167079 -0.066571737467211456 0 0.12609816485918399 -0.083936703101593388 0 0.14695147345159801 -0.071605669629206142 0 0.12609816485918399 -0.083936703101593388 0 0.14695147345159801 -0.071605669629206142 0 0.123899384167079 -0.066571737467211456 0 0.14695147345159801 -0.071605669629206142 0 0.1309700066266844 -0.049888515695384217 0 0.15752537699319061 -0.091124157234495864 0 0.18062583218352149 -0.087587297626925492 0 0.167804782044012 -0.059274636156818938 0 0.14695147345159801 -0.071605669629206142 0 0.15752537699319061 -0.091124157234495864 0 0.167804782044012 -0.059274636156818938 0 0.14695147345159801 -0.071605669629206142 0 0.167804782044012 -0.059274636156818938 0 0.18062583218352149 -0.087587297626925492 0 0.167804782044012 -0.059274636156818938 0 0.19217803993604601 -0.067894271864980579 0 0.18062583218352149 -0.087587297626925492 0 0.18480487912463159 -0.1073857917465867 0 0.16523345765870509 -0.1127996030301629 0 0.18480487912463159 -0.1073857917465867 0 0.16523345765870509 -0.1127996030301629 0 0.1892365866787773 -0.1267328851321958 0 0.15752537699319061 -0.091124157234495864 0 0.18062583218352149 -0.087587297626925492 0 0.16523345765870509 -0.1127996030301629 0 0.1418822081713659 -0.01261971330765857 0 0.15943889897531829 -0.017158345549407709 0 0.15877106624987389 -0.00039752605429424232 0 0.13622699799421389 0.01171634775034593 0 0.1418822081713659 -0.01261971330765857 0 0.15877106624987389 -0.00039752605429424232 0 0.13622699799421389 0.01171634775034593 0 0.1181245711307409 -0.01222909671881825 0 0.13622699799421389 0.01171634775034593 0 0.1181245711307409 -0.01222909671881825 0 0.1418822081713659 -0.01261971330765857 0 0.1181245711307409 -0.01222909671881825 0 0.1418822081713659 -0.01261971330765857 0 0.12631312962385449 -0.031395791648174402 0 0.1418822081713659 -0.01261971330765857 0 0.14882149022626351 -0.029567056138362191 0 0.12631312962385449 -0.031395791648174402 0 0.1418822081713659 -0.01261971330765857 0 0.14882149022626351 -0.029567056138362191 0 0.15943889897531829 -0.017158345549407709 0 0.14882149022626351 -0.029567056138362191 0 0.1309700066266844 -0.049888515695384217 0 0.15001541587148401 -0.050637191681852461 0 0.14882149022626351 -0.029567056138362191 0 0.15001541587148401 -0.050637191681852461 0 0.16968417311819331 -0.033374711031309831 0 0.14882149022626351 -0.029567056138362191 0 0.12631312962385449 -0.031395791648174402 0 0.1309700066266844 -0.049888515695384217 0 0.14695147345159801 -0.071605669629206142 0 0.15001541587148401 -0.050637191681852461 0 0.167804782044012 -0.059274636156818938 0 0.14695147345159801 -0.071605669629206142 0 0.1309700066266844 -0.049888515695384217 0 0.15001541587148401 -0.050637191681852461 0 0.15001541587148401 -0.050637191681852461 0 0.167804782044012 -0.059274636156818938 0 0.16968417311819331 -0.033374711031309831 0 0.167804782044012 -0.059274636156818938 0 0.188658090636426 -0.046943602684431721 0 0.19217803993604601 -0.067894271864980579 0 0.167804782044012 -0.059274636156818938 0 0.188658090636426 -0.046943602684431721 0 0.167804782044012 -0.059274636156818938 0 0.16968417311819331 -0.033374711031309831 0 0.188658090636426 -0.046943602684431721 0 0.16968417311819331 -0.033374711031309831 0 0.1947066215046788 -0.020975778739027399 0 0.188658090636426 -0.046943602684431721 0 0.16968417311819331 -0.033374711031309831 0 0.15943889897531829 -0.017158345549407709 0 0.17803555711089469 -0.0098327212154136895 0 0.14882149022626351 -0.029567056138362191 0 0.16968417311819331 -0.033374711031309831 0 0.15943889897531829 -0.017158345549407709 0 0.16968417311819331 -0.033374711031309831 0 0.17803555711089469 -0.0098327212154136895 0 0.1947066215046788 -0.020975778739027399 0 0.18859511266510859 0.0076245034646380038 0 0.17803555711089469 -0.0098327212154136895 0 0.19209992203558721 -0.0051250894014892127 0 0.18859511266510859 0.0076245034646380038 0 0.17803555711089469 -0.0098327212154136895 0 0.1729201067315736 0.0058886509416483691 0 0.17803555711089469 -0.0098327212154136895 0 0.15877106624987389 -0.00039752605429424232 0 0.15943889897531829 -0.017158345549407709 0 0.17803555711089469 -0.0098327212154136895 0 0.15877106624987389 -0.00039752605429424232 0 0.20534867250976391 -0.0043642885281037769 0 0.1947066215046788 -0.020975778739027399 0 0.2127623016291928 -0.017589952776530669 0 0.20534867250976391 -0.0043642885281037769 0 0.2127623016291928 -0.017589952776530669 0 0.2211015613305348 -0.0035727011820369729 0 0.1986053995495487 0.0055804718487439519 0 0.20534867250976391 -0.0043642885281037769 0 0.19209992203558721 -0.0051250894014892127 0 0.20534867250976391 -0.0043642885281037769 0 0.19209992203558721 -0.0051250894014892127 0 0.1947066215046788 -0.020975778739027399 0 0.17803555711089469 -0.0098327212154136895 0 0.19209992203558721 -0.0051250894014892127 0 0.1947066215046788 -0.020975778739027399 0 0.1947066215046788 -0.020975778739027399 0 0.2127623016291928 -0.017589952776530669 0 0.20951139922883999 -0.034612569212044517 0 0.2127623016291928 -0.017589952776530669 0 0.20951139922883999 -0.034612569212044517 0 0.23036470782125421 -0.02228153573965768 0 0.20951139922883999 -0.034612569212044517 0 0.21376513407977729 -0.060804000930962478 0 0.22459544482032809 -0.039982432579894638 0 0.20951139922883999 -0.034612569212044517 0 0.188658090636426 -0.046943602684431721 0 0.1947066215046788 -0.020975778739027399 0 0.20951139922883999 -0.034612569212044517 0 0.188658090636426 -0.046943602684431721 0 0.188658090636426 -0.046943602684431721 0 0.21376513407977729 -0.060804000930962478 0 0.19217803993604601 -0.067894271864980579 0 0.20951139922883999 -0.034612569212044517 0 0.188658090636426 -0.046943602684431721 0 0.21376513407977729 -0.060804000930962478 0 0.21376513407977729 -0.060804000930962478 0 0.2316785883463828 -0.051549492650177831 0 0.22459544482032809 -0.039982432579894638 0 0.21376513407977729 -0.060804000930962478 0 0.2316785883463828 -0.051549492650177831 0 0.23363073776543339 -0.070879144379656853 0 0.2316785883463828 -0.051549492650177831 0 0.24438717338176699 -0.054105405518205238 0 0.23363073776543339 -0.070879144379656853 0 0.24438717338176699 -0.054105405518205238 0 0.2406275060619473 -0.044006100301045882 0 0.2480947890546242 -0.045966293254975567 0 0.2316785883463828 -0.051549492650177831 0 0.24438717338176699 -0.054105405518205238 0 0.2406275060619473 -0.044006100301045882 0 0.2316785883463828 -0.051549492650177831 0 0.2406275060619473 -0.044006100301045882 0 0.2330655339690442 -0.039519872191301951 0 0.25117533351094129 -0.037336580867862117 0 0.2406275060619473 -0.044006100301045882 0 0.2480947890546242 -0.045966293254975567 0 0.25117533351094129 -0.037336580867862117 0 0.2406275060619473 -0.044006100301045882 0 0.24063999153796811 -0.033267748821308847 0 0.25117533351094129 -0.037336580867862117 0 0.24063999153796811 -0.033267748821308847 0 0.24692454306444639 -0.027596528692534771 0 0.24063999153796811 -0.033267748821308847 0 0.2330655339690442 -0.039519872191301951 0 0.23335193287317171 -0.028314852749023438 0 0.2406275060619473 -0.044006100301045882 0 0.24063999153796811 -0.033267748821308847 0 0.2330655339690442 -0.039519872191301951 0 0.2330655339690442 -0.039519872191301951 0 0.22459544482032809 -0.039982432579894638 0 0.23335193287317171 -0.028314852749023438 0 0.20951139922883999 -0.034612569212044517 0 0.22459544482032809 -0.039982432579894638 0 0.23036470782125421 -0.02228153573965768 0 0.2316785883463828 -0.051549492650177831 0 0.2330655339690442 -0.039519872191301951 0 0.22459544482032809 -0.039982432579894638 0 0.22459544482032809 -0.039982432579894638 0 0.23036470782125421 -0.02228153573965768 0 0.23335193287317171 -0.028314852749023438 0 0.20951139922883999 -0.034612569212044517 0 0.23036470782125421 -0.02228153573965768 0 0.23036470782125421 -0.02228153573965768 0 0.23658754366383131 -0.018601832026074589 0 0.23036470782125421 -0.02228153573965768 0 0.23526357796032971 -0.023612177939488058 0 0.23658754366383131 -0.018601832026074589 0 0.23036470782125421 -0.02228153573965768 0 0.23335193287317171 -0.028314852749023438 0 0.23526357796032971 -0.023612177939488058 0 0.23036470782125421 -0.02228153573965768 0 0.23335193287317171 -0.028314852749023438 0 0.24063999153796811 -0.033267748821308847 0 0.23335193287317171 -0.028314852749023438 0 0.240096266146333 -0.025166096277225859 0 0.23335193287317171 -0.028314852749023438 0 0.23526357796032971 -0.023612177939488058 0 0.240096266146333 -0.025166096277225859 0 0.24063999153796811 -0.033267748821308847 0 0.240096266146333 -0.025166096277225859 0 0.24692454306444639 -0.027596528692534771 0 0.25496149132205381 -0.026198307184793539 0 0.24692454306444639 -0.027596528692534771 0 0.24759495222635161 -0.018769166369227801 0 0.240096266146333 -0.025166096277225859 0 0.24692454306444639 -0.027596528692534771 0 0.24759495222635161 -0.018769166369227801 0 0.240096266146333 -0.025166096277225859 0 0.24759495222635161 -0.018769166369227801 0 0.23658754366383131 -0.018601832026074589 0 0.23526357796032971 -0.023612177939488058 0 0.240096266146333 -0.025166096277225859 0 0.23658754366383131 -0.018601832026074589 0 0.24360219425436941 0.0024857581900680202 0 0.24095399325963471 -0.0089245286136864308 0 0.2211015613305348 -0.0035727011820369729 0 0.24759495222635161 -0.018769166369227801 0 0.23658754366383131 -0.018601832026074589 0 0.24095399325963471 -0.0089245286136864308 0 0.25588371482308608 -0.0061647016811608134 0 0.24759495222635161 -0.018769166369227801 0 0.24095399325963471 -0.0089245286136864308 0 0.24360219425436941 0.0024857581900680202 0 0.25588371482308608 -0.0061647016811608134 0 0.24095399325963471 -0.0089245286136864308 0 0.2127623016291928 -0.017589952776530669 0 0.23036470782125421 -0.02228153573965768 0 0.2211015613305348 -0.0035727011820369729 0 0.23036470782125421 -0.02228153573965768 0 0.23658754366383131 -0.018601832026074589 0 0.2211015613305348 -0.0035727011820369729 0 0.23036470782125421 -0.02228153573965768 0 0.2211015613305348 -0.0035727011820369729 0 0.23658754366383131 -0.018601832026074589 0 0.24095399325963471 -0.0089245286136864308 0 0.2211015613305348 -0.0035727011820369729 0 0.20447015102530511 -0.1023234827987161 0 0.2274152695340779 -0.091658842862159126 0 0.20447015102530511 -0.1023234827987161 0 0.2274152695340779 -0.091658842862159126 0 0.22301725254402721 -0.11336891578448639 0 0.20447015102530511 -0.1023234827987161 0 0.20952819884325291 -0.1244079594870756 0 0.22301725254402721 -0.11336891578448639 0 0.20447015102530511 -0.1023234827987161 0 0.20952819884325291 -0.1244079594870756 0 0.1892365866787773 -0.1267328851321958 0 0.18480487912463159 -0.1073857917465867 0 0.20447015102530511 -0.1023234827987161 0 0.1892365866787773 -0.1267328851321958 0 0.18062583218352149 -0.087587297626925492 0 0.18480487912463159 -0.1073857917465867 0 0.20447015102530511 -0.1023234827987161 0 0.18062583218352149 -0.087587297626925492 0 0.20447015102530511 -0.1023234827987161 0 0.20843950375358511 -0.080894137559536908 0 0.18062583218352149 -0.087587297626925492 0 0.19217803993604601 -0.067894271864980579 0 0.20843950375358511 -0.080894137559536908 0 0.21376513407977729 -0.060804000930962478 0 0.19217803993604601 -0.067894271864980579 0 0.20843950375358511 -0.080894137559536908 0 0.21376513407977729 -0.060804000930962478 0 0.20843950375358511 -0.080894137559536908 0 0.23363073776543339 -0.070879144379656853 0 0.20447015102530511 -0.1023234827987161 0 0.20843950375358511 -0.080894137559536908 0 0.2274152695340779 -0.091658842862159126 0 0.20843950375358511 -0.080894137559536908 0 0.2274152695340779 -0.091658842862159126 0 0.23363073776543339 -0.070879144379656853 0 0.25751068913328939 -0.063954986009077994 0 0.24438717338176699 -0.054105405518205238 0 0.23363073776543339 -0.070879144379656853 0 0.25036038804285082 -0.080994202925602082 0 0.25751068913328939 -0.063954986009077994 0 0.23363073776543339 -0.070879144379656853 0 0.25036038804285082 -0.080994202925602082 0 0.2274152695340779 -0.091658842862159126 0 0.25036038804285082 -0.080994202925602082 0 0.2274152695340779 -0.091658842862159126 0 0.23363073776543339 -0.070879144379656853 0 0.25036038804285082 -0.080994202925602082 0 0.2274152695340779 -0.091658842862159126 0 0.24773076343232489 -0.11194471229237909 0 0.2274152695340779 -0.091658842862159126 0 0.22301725254402721 -0.11336891578448639 0 0.24773076343232489 -0.11194471229237909 0 0.22301725254402721 -0.11336891578448639 0 0.24773076343232489 -0.11194471229237909 0 0.22629605965176311 -0.1344702529103475 0 0.20952819884325291 -0.1244079594870756 0 0.22301725254402721 -0.11336891578448639 0 0.22629605965176311 -0.1344702529103475 0 0.24773076343232489 -0.11194471229237909 0 0.2455508571621941 -0.14546861019775381 0 0.22629605965176311 -0.1344702529103475 0 0.2455508571621941 -0.14546861019775381 0 0.22629605965176311 -0.1344702529103475 0 0.22872108492109089 -0.16215583142112611 0 0.22629605965176311 -0.1344702529103475 0 0.2046209443163915 -0.145144260809632 0 0.22872108492109089 -0.16215583142112611 0 0.20952819884325291 -0.1244079594870756 0 0.22629605965176311 -0.1344702529103475 0 0.2046209443163915 -0.145144260809632 0 0.2046209443163915 -0.145144260809632 0 0.1892365866787773 -0.1267328851321958 0 0.18366167334193309 -0.15487226781221369 0 0.20952819884325291 -0.1244079594870756 0 0.2046209443163915 -0.145144260809632 0 0.1892365866787773 -0.1267328851321958 0 0.2037553481966195 -0.1715229951234849 0 0.18833270630478499 -0.1930526757602129 0 0.18586628659583629 -0.17499707939040099 0 0.2037553481966195 -0.1715229951234849 0 0.206846759066841 -0.19611572858455789 0 0.18833270630478499 -0.1930526757602129 0 0.2037553481966195 -0.1715229951234849 0 0.18366167334193309 -0.15487226781221369 0 0.2037553481966195 -0.1715229951234849 0 0.18366167334193309 -0.15487226781221369 0 0.18586628659583629 -0.17499707939040099 0 0.2046209443163915 -0.145144260809632 0 0.2037553481966195 -0.1715229951234849 0 0.18366167334193309 -0.15487226781221369 0 0.2046209443163915 -0.145144260809632 0 0.2037553481966195 -0.1715229951234849 0 0.22872108492109089 -0.16215583142112611 0 0.2037553481966195 -0.1715229951234849 0 0.22384902305130591 -0.18817372243475611 0 0.206846759066841 -0.19611572858455789 0 0.2037553481966195 -0.1715229951234849 0 0.22384902305130591 -0.18817372243475611 0 0.2037553481966195 -0.1715229951234849 0 0.22872108492109089 -0.16215583142112611 0 0.22384902305130591 -0.18817372243475611 0 0.22872108492109089 -0.16215583142112611 0 0.244462968919885 -0.183239804984342 0 0.22384902305130591 -0.18817372243475611 0 0.2552682400144477 -0.1653512844311528 0 0.22872108492109089 -0.16215583142112611 0 0.244462968919885 -0.183239804984342 0 0.2552682400144477 -0.1653512844311528 0 0.2455508571621941 -0.14546861019775381 0 0.22872108492109089 -0.16215583142112611 0 0.244462968919885 -0.183239804984342 0 0.2439426979059923 -0.20482444974602729 0 0.22384902305130591 -0.18817372243475611 0 0.2439426979059923 -0.20482444974602729 0 0.23991114730868279 -0.23163852260462789 0 0.21747039269303159 -0.2141802844061676 0 0.2439426979059923 -0.20482444974602729 0 0.22384902305130591 -0.18817372243475611 0 0.2439426979059923 -0.20482444974602729 0 0.22384902305130591 -0.18817372243475611 0 0.21747039269303159 -0.2141802844061676 0 0.249183462268279 -0.25713094297952488 0 0.23991114730868279 -0.23163852260462789 0 0.22927533636427999 -0.2470671696831829 0 0.26403637276067871 -0.22147517705729849 0 0.2439426979059923 -0.20482444974602729 0 0.23991114730868279 -0.23163852260462789 0 0.23991114730868279 -0.23163852260462789 0 0.21396532618098771 -0.23537031424170421 0 0.21747039269303159 -0.2141802844061676 0 0.23991114730868279 -0.23163852260462789 0 0.22927533636427999 -0.2470671696831829 0 0.21396532618098771 -0.23537031424170421 0 0.20129499954753871 -0.25133160893564049 0 0.22927533636427999 -0.2470671696831829 0 0.21396532618098771 -0.23537031424170421 0 0.21396532618098771 -0.23537031424170421 0 0.1936347879825564 -0.2315581015309231 0 0.21747039269303159 -0.2141802844061676 0 0.1936347879825564 -0.2315581015309231 0 0.21747039269303159 -0.2141802844061676 0 0.19595388692465271 -0.21129460479369769 0 0.1936347879825564 -0.2315581015309231 0 0.19595388692465271 -0.21129460479369769 0 0.18203915694400999 -0.2209904013754958 0 0.20129499954753871 -0.25133160893564049 0 0.21396532618098771 -0.23537031424170421 0 0.1936347879825564 -0.2315581015309231 0 0.20129499954753871 -0.25133160893564049 0 0.1936347879825564 -0.2315581015309231 0 0.18363812540975549 -0.2472389054033737 0 0.22384902305130591 -0.18817372243475611 0 0.206846759066841 -0.19611572858455789 0 0.21747039269303159 -0.2141802844061676 0 0.206846759066841 -0.19611572858455789 0 0.21747039269303159 -0.2141802844061676 0 0.19595388692465271 -0.21129460479369769 0 0.19595388692465271 -0.21129460479369769 0 0.18833270630478499 -0.1930526757602129 0 0.18000592726175141 -0.20785641367191149 0 0.206846759066841 -0.19611572858455789 0 0.19595388692465271 -0.21129460479369769 0 0.18833270630478499 -0.1930526757602129 0 0.18833270630478499 -0.1930526757602129 0 0.17080621374284499 -0.1958184866744942 0 0.1687684521508542 -0.18136117050341641 0 0.18833270630478499 -0.1930526757602129 0 0.18000592726175141 -0.20785641367191149 0 0.17080621374284499 -0.1958184866744942 0 0.19595388692465271 -0.21129460479369769 0 0.18000592726175141 -0.20785641367191149 0 0.18203915694400999 -0.2209904013754958 0 0.18000592726175141 -0.20785641367191149 0 0.18203915694400999 -0.2209904013754958 0 0.16975875547153391 -0.21885416523870069 0 0.18000592726175141 -0.20785641367191149 0 0.16590656326301259 -0.2069589823937838 0 0.16975875547153391 -0.21885416523870069 0 0.18000592726175141 -0.20785641367191149 0 0.16590656326301259 -0.2069589823937838 0 0.17080621374284499 -0.1958184866744942 0 0.16590656326301259 -0.2069589823937838 0 0.15791630767768711 -0.21622936875185439 0 0.16975875547153391 -0.21885416523870069 0 0.16590656326301259 -0.2069589823937838 0 0.15791630767768711 -0.21622936875185439 0 0.15554334350916141 -0.20662061146547139 0 0.16590656326301259 -0.2069589823937838 0 0.15949674462150201 -0.19807136758149091 0 0.15554334350916141 -0.20662061146547139 0 0.15949674462150201 -0.19807136758149091 0 0.16116363117767199 -0.18974731836151951 0 0.15219615884432949 -0.19290384013501219 0 0.15949674462150201 -0.19807136758149091 0 0.16116363117767199 -0.18974731836151951 0 0.17080621374284499 -0.1958184866744942 0 0.16116363117767199 -0.18974731836151951 0 0.17080621374284499 -0.1958184866744942 0 0.1687684521508542 -0.18136117050341641 0 0.16590656326301259 -0.2069589823937838 0 0.15949674462150201 -0.19807136758149091 0 0.17080621374284499 -0.1958184866744942 0 0.16656330691575069 -0.25417207272616349 0 0.18363812540975549 -0.2472389054033737 0 0.17084242707955549 -0.23538872164224589 0 0.1936347879825564 -0.2315581015309231 0 0.18363812540975549 -0.2472389054033737 0 0.17084242707955549 -0.23538872164224589 0 0.1936347879825564 -0.2315581015309231 0 0.18203915694400999 -0.2209904013754958 0 0.17084242707955549 -0.23538872164224589 0 0.18203915694400999 -0.2209904013754958 0 0.16975875547153391 -0.21885416523870069 0 0.17084242707955549 -0.23538872164224589 0 0.16975875547153391 -0.21885416523870069 0 0.15902210746724049 -0.22662248485854261 0 0.17084242707955549 -0.23538872164224589 0 0.15791630767768711 -0.21622936875185439 0 0.16975875547153391 -0.21885416523870069 0 0.15902210746724049 -0.22662248485854261 0 0.16656330691575069 -0.25417207272616349 0 0.17084242707955549 -0.23538872164224589 0 0.1485498846089871 -0.24148855083393761 0 0.15902210746724049 -0.22662248485854261 0 0.17084242707955549 -0.23538872164224589 0 0.1485498846089871 -0.24148855083393761 0 0.1485498846089871 -0.24148855083393761 0 0.14705064819530159 -0.2184956289449797 0 0.1485498846089871 -0.24148855083393761 0 0.1369188987366165 -0.23070160139537529 0 0.14705064819530159 -0.2184956289449797 0 0.15902210746724049 -0.22662248485854261 0 0.1485498846089871 -0.24148855083393761 0 0.14705064819530159 -0.2184956289449797 0 0.15791630767768711 -0.21622936875185439 0 0.15902210746724049 -0.22662248485854261 0 0.14705064819530159 -0.2184956289449797 0 0.1227525401324822 -0.22356350680000489 0 0.1369188987366165 -0.23070160139537529 0 0.14705064819530159 -0.2184956289449797 0 0.1227525401324822 -0.22356350680000489 0 0.14705064819530159 -0.2184956289449797 0 0.1227525401324822 -0.22356350680000489 0 0.118233132557587 -0.23876189541744641 0 0.1369188987366165 -0.23070160139537529 0 0.1485498846089871 -0.24148855083393761 0 0.1369188987366165 -0.23070160139537529 0 0.13262045681175449 -0.24449406379594699 0 0.13448309619329249 -0.25824462846157331 0 0.1485498846089871 -0.24148855083393761 0 0.13262045681175449 -0.24449406379594699 0 0.118233132557587 -0.23876189541744641 0 0.1369188987366165 -0.23070160139537529 0 0.13262045681175449 -0.24449406379594699 0 0.14749473319877879 -0.20015947318745339 0 0.1397846750987288 -0.20518485896519259 0 0.14048122448925759 -0.1929486193450973 0 0.14749473319877879 -0.20015947318745339 0 0.15219615884432949 -0.19290384013501219 0 0.14048122448925759 -0.1929486193450973 0 0.15219615884432949 -0.19290384013501219 0 0.14048122448925759 -0.1929486193450973 0 0.15234446073443711 -0.18359242219949981 0 0.16116363117767199 -0.18974731836151951 0 0.15219615884432949 -0.19290384013501219 0 0.15234446073443711 -0.18359242219949981 0 0.15949674462150201 -0.19807136758149091 0 0.14749473319877879 -0.20015947318745339 0 0.15219615884432949 -0.19290384013501219 0 0.15949674462150201 -0.19807136758149091 0 0.14749473319877879 -0.20015947318745339 0 0.15554334350916141 -0.20662061146547139 0 0.14749473319877879 -0.20015947318745339 0 0.15554334350916141 -0.20662061146547139 0 0.14654512062965469 -0.21074264501026951 0 0.15791630767768711 -0.21622936875185439 0 0.14705064819530159 -0.2184956289449797 0 0.15791630767768711 -0.21622936875185439 0 0.14705064819530159 -0.2184956289449797 0 0.14654512062965469 -0.21074264501026951 0 0.15791630767768711 -0.21622936875185439 0 0.15554334350916141 -0.20662061146547139 0 0.14654512062965469 -0.21074264501026951 0 0.14705064819530159 -0.2184956289449797 0 0.14654512062965469 -0.21074264501026951 0 0.1397846750987288 -0.20518485896519259 0 0.14705064819530159 -0.2184956289449797 0 0.14654512062965469 -0.21074264501026951 0 0.14749473319877879 -0.20015947318745339 0 0.14654512062965469 -0.21074264501026951 0 0.1397846750987288 -0.20518485896519259 0 0.14705064819530159 -0.2184956289449797 0 0.1397846750987288 -0.20518485896519259 0 0.13043208189753189 -0.2066469910259516 0 0.1227525401324822 -0.22356350680000489 0 0.14705064819530159 -0.2184956289449797 0 0.13043208189753189 -0.2066469910259516 0 0.11997030887787009 -0.18991310481957921 0 0.13043208189753189 -0.2066469910259516 0 0.14048122448925759 -0.1929486193450973 0 0.11997030887787009 -0.18991310481957921 0 0.14048122448925759 -0.1929486193450973 0 0.13660281346757891 -0.1809011157439821 0 0.1397846750987288 -0.20518485896519259 0 0.13043208189753189 -0.2066469910259516 0 0.14048122448925759 -0.1929486193450973 0 0.11997030887787009 -0.18991310481957921 0 0.13660281346757891 -0.1809011157439821 0 0.12558608820142819 -0.17120111343300851 0 0.13660281346757891 -0.1809011157439821 0 0.14463198503490121 -0.1668503189227257 0 0.12558608820142819 -0.17120111343300851 0 0.14048122448925759 -0.1929486193450973 0 0.13660281346757891 -0.1809011157439821 0 0.15234446073443711 -0.18359242219949981 0 0.13660281346757891 -0.1809011157439821 0 0.15234446073443711 -0.18359242219949981 0 0.14463198503490121 -0.1668503189227257 0 0.15234446073443711 -0.18359242219949981 0 0.14463198503490121 -0.1668503189227257 0 0.1687684521508542 -0.18136117050341641 0 0.14463198503490121 -0.1668503189227257 0 0.14773233453147719 -0.1494462657804588 0 0.1680325204181311 -0.17124947077033589 0 0.12049551791894809 -0.15233946734203499 0 0.14463198503490121 -0.1668503189227257 0 0.12558608820142819 -0.17120111343300851 0 0.12049551791894809 -0.15233946734203499 0 0.14463198503490121 -0.1668503189227257 0 0.12049551791894809 -0.15233946734203499 0 0.1274321486448233 -0.1276430607905818 0 0.14773233453147719 -0.1494462657804588 0 0.12049551791894809 -0.15233946734203499 0 0.14463198503490121 -0.1668503189227257 0 0.14773233453147719 -0.1494462657804588 0 0.1274321486448233 -0.1276430607905818 0 0.14773233453147719 -0.1494462657804588 0 0.1274321486448233 -0.1276430607905818 0 0.14965432360240241 -0.12659195717646241 0 0.14773233453147719 -0.1494462657804588 0 0.14965432360240241 -0.12659195717646241 0 0.14773233453147719 -0.1494462657804588 0 0.1680403476277694 -0.13664235601509259 0 0.14773233453147719 -0.1494462657804588 0 0.16726620788750279 -0.15446894756842669 0 0.1680403476277694 -0.13664235601509259 0 0.16523345765870509 -0.1127996030301629 0 0.14965432360240241 -0.12659195717646241 0 0.1680403476277694 -0.13664235601509259 0 0.1892365866787773 -0.1267328851321958 0 0.1680403476277694 -0.13664235601509259 0 0.18366167334193309 -0.15487226781221369 0 0.16523345765870509 -0.1127996030301629 0 0.1892365866787773 -0.1267328851321958 0 0.1680403476277694 -0.13664235601509259 0 0.16726620788750279 -0.15446894756842669 0 0.1680403476277694 -0.13664235601509259 0 0.18366167334193309 -0.15487226781221369 0 0.16726620788750279 -0.15446894756842669 0 0.18366167334193309 -0.15487226781221369 0 0.17620667206085081 -0.1638969413853443 0 0.18366167334193309 -0.15487226781221369 0 0.17620667206085081 -0.1638969413853443 0 0.18586628659583629 -0.17499707939040099 0 0.17620667206085081 -0.1638969413853443 0 0.18586628659583629 -0.17499707939040099 0 0.1680325204181311 -0.17124947077033589 0 0.18833270630478499 -0.1930526757602129 0 0.1680325204181311 -0.17124947077033589 0 0.18833270630478499 -0.1930526757602129 0 0.18586628659583629 -0.17499707939040099 0 0.1680325204181311 -0.17124947077033589 0 0.18833270630478499 -0.1930526757602129 0 0.1687684521508542 -0.18136117050341641 0 0.1680325204181311 -0.17124947077033589 0 0.14463198503490121 -0.1668503189227257 0 0.1687684521508542 -0.18136117050341641 0 0.14463198503490121 -0.1668503189227257 0 0.1687684521508542 -0.18136117050341641 0 0.1680325204181311 -0.17124947077033589 0 0.16116363117767199 -0.18974731836151951 0 0.15234446073443711 -0.18359242219949981 0 0.1687684521508542 -0.18136117050341641 0 0.14773233453147719 -0.1494462657804588 0 0.16726620788750279 -0.15446894756842669 0 0.1680325204181311 -0.17124947077033589 0 0.14773233453147719 -0.1494462657804588 0 0.1680325204181311 -0.17124947077033589 0 0.16726620788750279 -0.15446894756842669 0 0.17620667206085081 -0.1638969413853443 0 0.1680325204181311 -0.17124947077033589 0 
</DataArray>
</Points>
<Cells>
<DataArray type="UInt32" Name="connectivity" format="ascii">
0 1 2 3 4 5 6 7 8 9 10 11 12 13 14 15 16 17 18 19 20 21 22 23 24 25 26 27 28 29 30 31 32 33 34 35 36 37 38 39 40 41 42 43 44 45 46 47 48 49 50 51 52 53 54 55 56 57 58 59 60 61 62 63 64 65 66 67 68 69 70 71 72 73 74 75 76 77 78 79 80 81 82 83 84 85 86 87 88 89 90 91 92 93 94 95 96 97 98 99 100 101 102 103 104 105 106 107 108 109 110 111 112 113 114 115 116 117 118 119 120 121 122 123 124 125 126 127 128 129 130 131 132 133 134 135 136 137 138 139 140 141 142 143 144 145 146 147 148 149 150 151 152 153 154 155 156 157 158 159 160 161 162 163 164 165 166 167 168 169 170 171 172 173 174 175 176 177 178 179 180 181 182 183 184 185 186 187 188 189 190 191 192 193 194 195 196 197 198 199 200 201 202 203 204 205 206 207 208 209 210 211 212 213 214 215 216 217 218 219 220 221 222 223 224 225 226 227 228 229 230 231 232 233 234 235 236 237 238 239 240 241 242 243 244 245 246 247 248 249 250 251 252 253 254 255 256 257 258 259 260 261 262 263 264 265 266 267 268 269 270 271 272 273 274 275 276 277 278 279 280 281 282 283 284 285 286 287 288 289 290 291 292 293 294 295 296 297 298 299 300 301 302 303 304 305 306 307 308 309 310 311 312 313 314 315 316 317 318 319 320 321 322 323 324 325 326 327 328 329 330 331 332 333 334 335 336 337 338 339 340 341 342 343 344 345 346 347 348 349 350 351 352 353 354 355 356 357 358 359 360 361 362 363 364 365 366 367 368 369 370 371 372 373 374 375 376 377 378 379 380 381 382 383 384 385 386 387 388 389 390 391 392 393 394 395 396 397 398 399 400 401 402 403 404 405 406 407 408 409 410 411 412 413 414 415 416 417 418 419 420 421 422 423 424 425 426 427 428 429 430 431 432 433 434 435 436 437 438 439 440 441 442 443 444 445 446 447 448 449 450 451 452 453 454 455 456 457 458 459 460 461 462 463 464 465 466 467 468 469 470 471 472 473 474 475 476 477 478 479 480 481 482 483 484 485 486 487 488 489 490 491 492 493 494 495 496 497 498 499 500 501 502 503 504 505 506 507 508 509 510 511 512 513 514 515 516 517 518 519 520 521 522 523 524 525 526 527 528 529 530 531 532 533 534 535 536 537 538 539 540 541 542 543 544 545 546 547 548 549 550 551 552 553 554 555 556 557 558 559 560 561 562 563 564 565 566 567 568 569 570 571 572 573 574 575 576 577 578 579 580 581 582 583 584 585 586 587 588 589 590 591 592 593 594 595 596 597 598 599 600 601 602 603 604 605 606 607 608 609 610 611 612 613 614 615 616 617 618 619 620 621 622 623 624 625 626 627 628 629 630 631 632 633 634 635 636 637 638 639 640 641 642 643 644 645 646 647 648 649 650 651 652 653 654 655 656 657 658 659 660 661 662 663 664 665 666 667 668 669 670 671 672 673 674 675 676 677 678 679 680 681 682 683 684 685 686 687 688 689 690 691 692 693 694 695 696 697 698 699 700 701 702 703 704 705 706 707 708 709 710 711 712 713 714 715 716 717 718 719 720 721 722 723 724 725 726 727 728 729 730 731 732 733 734 735 736 737 738 739 740 741 742 743 744 745 746 747 748 749 750 751 752 753 754 755 756 757 758 759 760 761 762 763 764 765 766 767 768 769 770 771 772 773 774 775 776 777 778 779 780 781 782 783 784 785 786 787 788 789 790 791 792 793 794 795 796 797 798 799 800 801 802 803 804 805 806 807 808 809 810 811 812 813 814 815 816 817 818 819 820 821 822 823 824 825 826 827 828 829 830 831 832 833 834 835 836 837 838 839 840 841 842 843 844 845 846 847 848 849 850 851 852 853 854 855 856 857 858 859 860 861 862 863 864 865 866 867 868 869 870 871 872 873 874 875 876 877 878 879 880 881 882 883 884 885 886 887 888 889 890 891 892 893 894 895 896 897 898 899 900 901 902 903 904 905 906 907 908 909 910 911 912 913 914 915 916 917 918 919 920 921 922 923 924 925 926 927 928 929 930 931 932 933 934 935 936 937 938 939 940 941 942 943 944 945 946 947 948 949 950 951 952 953 954 955 956 957 958 959 960 961 962 963 964 965 966 967 968 969 970 971 972 973 974 975 976 977 978 979 980 981 982 983 984 985 986 987 988 989 990 991 992 993 994 995 996 997 998 999 1000 1001 1002 1003 1004 1005 1006 1007 1008 1009 1010 1011 1012 1013 1014 1015 1016 1017 1018 1019 1020 1021 1022 1023 1024 1025 1026 1027 1028 1029 1030 1031 1032 1033 1034 1035 1036 1037 1038 1039 1040 1041 1042 1043 1044 1045 1046 1047 1048 1049 1050 1051 1052 1053 1054 1055 1056 1057 1058 1059 1060 1061 1062 1063 1064 1065 1066 1067 1068 1069 1070 1071 1072 1073 1074 1075 1076 1077 1078 1079 1080 1081 1082 1083 1084 1085 1086 1087 1088 1089 1090 1091 1092 1093 1094 1095 1096 1097 1098 1099 1100 1101 1102 1103 1104 1105 1106 1107 1108 1109 1110 1111 1112 1113 1114 1115 1116 1117 1118 1119 1120 1121 1122 1123 1124 1125 1126 1127 1128 1129 1130 1131 1132 1133 1134 1135 1136 1137 1138 1139 1140 1141 1142 1143 1144 1145 1146 1147 1148 1149 1150 1151 1152 1153 1154 1155 1156 1157 1158 1159 1160 1161 1162 1163 1164 1165 1166 1167 1168 1169 1170 1171 1172 1173 1174 1175 1176 1177 1178 1179 1180 1181 1182 1183 1184 1185 1186 1187 1188 1189 1190 1191 1192 1193 1194 1195 1196 1197 1198 1199 1200 1201 1202 1203 1204 1205 1206 1207 1208 1209 1210 1211 1212 1213 1214 1215 1216 1217 1218 1219 1220 1221 1222 1223 1224 1225 1226 1227 1228 1229 1230 1231 1232 1233 1234 1235 1236 1237 1238 1239 1240 1241 1242 1243 1244 1245 1246 1247 1248 1249 1250 1251 1252 1253 1254 1255 1256 1257 1258 1259 1260 1261 1262 1263 1264 1265 1266 1267 1268 1269 1270 1271 1272 1273 1274 1275 1276 1277 1278 1279 1280 1281 1282 1283 1284 1285 1286 1287 1288 1289 1290 1291 1292 1293 1294 1295 1296 1297 1298 1299 1300 1301 1302 1303 1304 1305 1306 1307 1308 1309 1310 1311 1312 1313 1314 1315 1316 1317 1318 1319 1320 1321 1322 1323 1324 1325 1326 1327 1328 1329 1330 1331 1332 1333 1334 1335 1336 1337 1338 1339 1340 1341 1342 1343 1344 1345 1346 1347 1348 1349 1350 1351 1352 1353 1354 1355 1356 1357 1358 1359 1360 1361 1362 1363 1364 1365 1366 1367 1368 1369 1370 1371 1372 1373 1374 1375 1376 1377 1378 1379 1380 1381 1382 1383 1384 1385 1386 1387 1388 1389 1390 1391 1392 1393 1394 1395 1396 1397 1398 1399 1400 1401 1402 1403 1404 1405 1406 1407 1408 1409 1410 1411 1412 1413 1414 1415 1416 1417 1418 1419 1420 1421 1422 1423 1424 1425 1426 1427 1428 1429 1430 1431 1432 1433 1434 1435 1436 1437 1438 1439 1440 1441 1442 1443 1444 1445 1446 1447 1448 1449 1450 1451 1452 1453 1454 1455 1456 1457 1458 1459 1460 1461 1462 1463 1464 1465 1466 1467 1468 1469 1470 1471 1472 1473 1474 1475 1476 1477 1478 1479 1480 1481 1482 1483 1484 1485 1486 1487 1488 1489 1490 1491 1492 1493 1494 1495 1496 1497 1498 1499 1500 1501 1502 1503 1504 1505 1506 1507 1508 1509 1510 1511 1512 1513 1514 1515 1516 1517 1518 1519 1520 1521 1522 1523 1524 1525 1526 1527 1528 1529 1530 1531 1532 1533 1534 1535 1536 1537 1538 1539 1540 1541 1542 1543 1544 1545 1546 1547 1548 1549 1550 1551 1552 1553 1554 1555 1556 1557 1558 1559 1560 1561 1562 1563 1564 1565 1566 1567 1568 1569 1570 1571 1572 1573 1574 1575 1576 1577 1578 1579 1580 1581 1582 1583 1584 1585 1586 1587 1588 1589 1590 1591 1592 1593 1594 1595 1596 1597 1598 1599 1600 1601 1602 1603 1604 1605 1606 1607 1608 1609 1610 1611 1612 1613 1614 1615 1616 1617 1618 1619 1620 1621 1622 1623 1624 1625 1626 1627 1628 1629 1630 1631 1632 1633 1634 1635 1636 1637 1638 1639 1640 1641 1642 1643 1644 1645 1646 1647 1648 1649 1650 1651 1652 1653 1654 1655 1656 1657 1658 1659 1660 1661 1662 1663 1664 1665 1666 1667 1668 1669 1670 1671 1672 1673 1674 1675 1676 1677 1678 1679 1680 1681 1682 1683 1684 1685 1686 1687 1688 1689 1690 1691 1692 1693 1694 1695 1696 1697 1698 1699 1700 1701 1702 1703 1704 1705 1706 1707 1708 1709 1710 1711 1712 1713 1714 1715 1716 1717 1718 1719 1720 1721 1722 1723 1724 1725 1726 1727 1728 1729 1730 1731 1732 1733 1734 1735 1736 1737 1738 1739 1740 1741 1742 1743 1744 1745 1746 1747 1748 1749 1750 1751 1752 1753 1754 1755 1756 1757 1758 1759 1760 1761 1762 1763 1764 1765 1766 1767 1768 1769 1770 1771 1772 1773 1774 1775 1776 1777 1778 1779 1780 1781 1782 1783 1784 1785 1786 1787 1788 1789 1790 1791 1792 1793 1794 1795 1796 1797 1798 1799 1800 1801 1802 1803 1804 1805 1806 1807 1808 1809 1810 1811 1812 1813 1814 1815 1816 1817 1818 1819 1820 1821 1822 1823 1824 1825 1826 1827 1828 1829 1830 1831 1832 1833 1834 1835 1836 1837 1838 1839 1840 1841 1842 1843 1844 1845 1846 1847 1848 1849 1850 1851 1852 1853 1854 1855 1856 1857 1858 1859 1860 1861 1862 1863 1864 1865 1866 1867 1868 1869 1870 1871 1872 1873 1874 1875 1876 1877 1878 1879 1880 1881 1882 1883 1884 1885 1886 1887 1888 1889 1890 1891 1892 1893 1894 1895 1896 1897 1898 1899 1900 1901 1902 1903 1904 1905 1906 1907 1908 1909 1910 1911 1912 1913 1914 1915 1916 1917 1918 1919 1920 1921 1922 1923 1924 1925 1926 1927 1928 1929 1930 1931 1932 1933 1934 1935 1936 1937 1938 1939 1940 1941 1942 1943 1944 1945 1946 1947 1948 1949 1950 1951 1952 1953 1954 1955 1956 1957 1958 1959 1960 1961 1962 1963 1964 1965 1966 1967 1968 1969 1970 1971 1972 1973 1974 1975 1976 1977 1978 1979 1980 1981 1982 1983 1984 1985 1986 1987 1988 1989 1990 1991 1992 1993 1994 1995 1996 1997 1998 1999 2000 2001 2002 2003 2004 2005 2006 2007 2008 2009 2010 2011 2012 2013 2014 2015 2016 2017 2018 2019 2020 2021 2022 2023 2024 2025 2026 2027 2028 2029 2030 2031 2032 2033 2034 2035 2036 2037 2038 2039 2040 2041 2042 2043 2044 2045 2046 2047 2048 2049 2050 2051 2052 2053 2054 2055 2056 2057 2058 2059 2060 2061 2062 2063 2064 2065 2066 2067 2068 2069 2070 2071 2072 2073 2074 2075 2076 2077 2078 2079 2080 2081 2082 2083 2084 2085 2086 2087 2088 2089 2090 2091 2092 2093 2094 2095 2096 2097 2098 2099 2100 2101 2102 2103 2104 2105 2106 2107 2108 2109 2110 2111 2112 2113 2114 2115 2116 2117 2118 2119 2120 2121 2122 2123 2124 2125 2126 2127 2128 2129 2130 2131 2132 2133 2134 2135 2136 2137 2138 2139 2140 2141 2142 2143 2144 2145 2146 2147 2148 2149 2150 2151 2152 2153 2154 2155 2156 2157 2158 2159 2160 2161 2162 2163 2164 2165 2166 2167 2168 2169 2170 2171 2172 2173 2174 2175 2176 2177 2178 2179 2180 2181 2182 2183 2184 2185 2186 2187 2188 2189 2190 2191 2192 2193 2194 2195 2196 2197 2198 2199 2200 2201 2202 2203 2204 2205 2206 2207 2208 2209 2210 2211 2212 2213 2214 2215 2216 2217 2218 2219 2220 2221 2222 2223 2224 2225 2226 2227 2228 2229 2230 2231 2232 2233 2234 2235 2236 2237 2238 2239 2240 2241 2242 2243 2244 2245 2246 2247 2248 2249 2250 2251 2252 2253 2254 2255 2256 2257 2258 2259 2260 2261 2262 2263 2264 2265 2266 2267 2268 2269 2270 2271 2272 2273 2274 2275 2276 2277 2278 2279 2280 2281 2282 2283 2284 2285 2286 2287 2288 2289 2290 2291 2292 2293 2294 2295 2296 2297 2298 2299 2300 2301 2302 2303 2304 2305 2306 2307 2308 2309 2310 2311 2312 2313 2314 2315 2316 2317 2318 2319 2320 2321 2322 2323 2324 2325 2326 2327 2328 2329 2330 2331 2332 2333 2334 2335 2336 2337 2338 2339 2340 2341 2342 2343 2344 2345 2346 2347 2348 2349 2350 2351 2352 2353 2354 2355 2356 2357 2358 2359 2360 2361 2362 2363 2364 2365 2366 2367 2368 2369 2370 2371 2372 2373 2374 2375 2376 2377 2378 2379 2380 2381 2382 2383 2384 2385 2386 2387 2388 2389 2390 2391 2392 2393 2394 2395 2396 2397 2398 2399 2400 2401 2402 2403 2404 2405 2406 2407 2408 2409 2410 2411 2412 2413 2414 2415 2416 2417 2418 2419 2420 2421 2422 2423 2424 2425 2426 2427 2428 2429 2430 2431 2432 2433 2434 2435 2436 2437 2438 2439 2440 2441 2442 2443 2444 2445 2446 2447 2448 2449 2450 2451 2452 2453 2454 2455 2456 2457 2458 2459 2460 2461 2462 2463 2464 2465 2466 2467 2468 2469 2470 2471 2472 2473 2474 2475 2476 2477 2478 2479 2480 2481 2482 2483 2484 2485 2486 2487 2488 2489 2490 2491 2492 2493 2494 2495 2496 2497 2498 2499 2500 2501 2502 2503 2504 2505 2506 2507 2508 2509 2510 2511 2512 2513 2514 2515 2516 2517 2518 2519 2520 2521 2522 2523 2524 2525 2526 2527 2528 2529 2530 2531 2532 2533 2534 2535 2536 2537 2538 2539 2540 2541 2542 2543 2544 2545 2546 2547 2548 2549 2550 2551 2552 2553 2554 2555 2556 2557 2558 2559 2560 2561 2562 2563 2564 2565 2566 2567 2568 2569 2570 2571 2572 2573 2574 2575 2576 2577 2578 2579 2580 2581 2582 2583 2584 2585 2586 2587 2588 2589 2590 2591 2592 2593 2594 2595 2596 2597 2598 2599 2600 2601 2602 2603 2604 2605 2606 2607 2608 2609 2610 2611 2612 2613 2614 2615 2616 2617 2618 2619 2620 2621 2622 2623 2624 2625 2626 2627 2628 2629 2630 2631 2632 2633 2634 2635 2636 2637 2638 2639 2640 2641 2642 2643 2644 2645 2646 2647 2648 2649 2650 2651 2652 2653 2654 2655 2656 2657 2658 2659 2660 2661 2662 2663 2664 2665 2666 2667 2668 2669 2670 2671 2672 2673 2674 2675 2676 2677 2678 2679 2680 2681 2682 2683 2684 2685 2686 2687 2688 2689 2690 2691 2692 2693 2694 2695 2696 2697 2698 2699 2700 2701 2702 2703 2704 2705 2706 2707 2708 2709 2710 2711 2712 2713 2714 2715 2716 2717 2718 2719 2720 2721 2722 2723 2724 2725 2726 2727 2728 2729 2730 2731 2732 2733 2734 2735 2736 2737 2738 2739 2740 2741 2742 2743 2744 2745 2746 2747 2748 2749 2750 2751 2752 2753 2754 2755 2756 2757 2758 2759 2760 2761 2762 2763 2764 2765 2766 2767 2768 2769 2770 2771 2772 2773 2774 2775 2776 2777 2778 2779 2780 2781 2782 2783 2784 2785 2786 2787 2788 2789 2790 2791 2792 2793 2794 2795 2796 2797 2798 2799 2800 2801 2802 2803 2804 2805 2806 2807 2808 2809 2810 2811 2812 2813 2814 2815 2816 2817 2818 2819 2820 2821 2822 2823 2824 2825 2826 2827 2828 2829 2830 2831 2832 2833 2834 2835 2836 2837 2838 2839 2840 2841 2842 2843 2844 2845 2846 2847 2848 2849 2850 2851 2852 2853 2854 2855 2856 2857 2858 2859 2860 2861 2862 2863 2864 2865 2866 2867 2868 2869 2870 2871 2872 2873 2874 2875 2876 2877 2878 2879 2880 2881 2882 2883 2884 2885 2886 2887 2888 2889 2890 2891 2892 2893 2894 2895 2896 2897 2898 2899 2900 2901 2902 2903 2904 2905 2906 2907 2908 2909 2910 2911 2912 2913 2914 2915 2916 2917 2918 2919 2920 2921 2922 2923 2924 2925 2926 2927 2928 2929 2930 2931 2932 2933 2934 2935 2936 2937 2938 2939 2940 2941 2942 2943 2944 2945 2946 2947 2948 2949 2950 2951 2952 2953 2954 2955 2956 2957 2958 2959 2960 2961 2962 2963 2964 2965 2966 2967 2968 2969 2970 2971 2972 2973 2974 2975 2976 2977 2978 2979 2980 2981 2982 2983 2984 2985 2986 2987 2988 2989 2990 2991 2992 2993 2994 2995 2996 2997 2998 2999 3000 3001 3002 3003 3004 3005 3006 3007 3008 3009 3010 3011 3012 3013 3014 3015 3016 3017 3018 3019 3020 3021 3022 3023 3024 3025 3026 3027 3028 3029 3030 3031 3032 3033 3034 3035 3036 3037 3038 3039 3040 3041 3042 3043 3044 3045 3046 3047 3048 3049 3050 3051 3052 3053 3054 3055 3056 3057 3058 3059 3060 3061 3062 3063 3064 3065 3066 3067 3068 3069 3070 3071 3072 3073 3074 3075 3076 3077 3078 3079 3080 3081 3082 3083 3084 3085 3086 3087 3088 3089 3090 3091 3092 3093 3094 3095 3096 3097 3098 3099 3100 3101 3102 3103 3104 3105 3106 3107 3108 3109 3110 3111 3112 3113 3114 3115 3116 3117 3118 3119 3120 3121 3122 3123 3124 3125 3126 3127 3128 3129 3130 3131 3132 3133 3134 3135 3136 3137 3138 3139 3140 3141 3142 3143 3144 3145 3146 3147 3148 3149 3150 3151 3152 3153 3154 3155 3156 3157 3158 3159 3160 3161 3162 3163 3164 3165 3166 3167 3168 3169 3170 3171 3172 3173 3174 3175 3176 3177 3178 3179 3180 3181 3182 3183 3184 3185 3186 3187 3188 3189 3190 3191 3192 3193 3194 3195 3196 3197 3198 3199 3200 3201 3202 3203 3204 3205 3206 3207 3208 3209 3210 3211 3212 3213 3214 3215 3216 3217 3218 3219 3220 3221 3222 3223 3224 3225 3226 3227 3228 3229 3230 3231 3232 3233 3234 3235 3236 3237 3238 3239 3240 3241 3242 3243 3244 3245 3246 3247 3248 3249 3250 3251 3252 3253 3254 3255 3256 3257 3258 3259 3260 3261 3262 3263 3264 3265 3266 3267 3268 3269 3270 3271 3272 3273 3274 3275 3276 3277 3278 3279 3280 3281 3282 3283 3284 3285 3286 3287 3288 3289 3290 3291 3292 3293 3294 3295 3296 3297 3298 3299 3300 3301 3302 3303 3304 3305 3306 3307 3308 3309 3310 3311 3312 3313 3314 3315 3316 3317 3318 3319 3320 3321 3322 3323 3324 3325 3326 3327 3328 3329 3330 3331 3332 3333 3334 3335 3336 3337 3338 3339 3340 3341 3342 3343 3344 3345 3346 3347 3348 3349 3350 3351 3352 3353 3354 3355 3356 3357 3358 3359 3360 3361 3362 3363 3364 3365 3366 3367 3368 3369 3370 3371 3372 3373 3374 3375 3376 3377 3378 3379 3380 3381 3382 3383 3384 3385 3386 3387 3388 3389 3390 3391 3392 3393 3394 3395 3396 3397 3398 3399 3400 3401 3402 3403 3404 3405 3406 3407 3408 3409 3410 3411 3412 3413 3414 3415 3416 3417 3418 3419 3420 3421 3422 3423 3424 3425 3426 3427 3428 3429 3430 3431 3432 3433 3434 3435 3436 3437 3438 3439 3440 3441 3442 3443 3444 3445 3446 3447 3448 3449 3450 3451 3452 3453 3454 3455 3456 3457 3458 3459 3460 3461 3462 3463 3464 3465 3466 3467 3468 3469 3470 3471 3472 3473 3474 3475 3476 3477 3478 3479 3480 3481 3482 3483 3484 3485 3486 3487 3488 3489 3490 3491 3492 3493 3494 3495 3496 3497 3498 3499 3500 3501 3502 3503 3504 3505 3506 3507 3508 3509 3510 3511 3512 3513 3514 3515 3516 3517 3518 3519 3520 3521 3522 3523 3524 3525 3526 3527 3528 3529 3530 3531 3532 3533 3534 3535 3536 3537 3538 3539 3540 3541 3542 3543 3544 3545 3546 3547 3548 3549 3550 3551 3552 3553 3554 3555 3556 3557 3558 3559 3560 3561 3562 3563 3564 3565 3566 3567 3568 3569 3570 3571 3572 3573 3574 3575 3576 3577 3578 3579 3580 3581 3582 3583 3584 3585 3586 3587 3588 3589 3590 3591 3592 3593 3594 3595 3596 3597 3598 3599 3600 3601 3602 3603 3604 3605 3606 3607 3608 3609 3610 3611 3612 3613 3614 3615 3616 3617 3618 3619 3620 3621 3622 3623 3624 3625 3626 3627 3628 3629 3630 3631 3632 3633 3634 3635 3636 3637 3638 3639 3640 3641 3642 3643 3644 3645 3646 3647 3648 3649 3650 3651 3652 3653 3654 3655 3656 3657 3658 3659 3660 3661 3662 3663 3664 3665 3666 3667 3668 3669 3670 3671 3672 3673 3674 3675 3676 3677 3678 3679 3680 3681 3682 3683 3684 3685 3686 3687 3688 3689 3690 3691 3692 3693 3694 3695 3696 3697 3698 3699 3700 3701 3702 3703 3704 3705 3706 3707 3708 3709 3710 3711 3712 3713 3714 3715 3716 3717 3718 3719 3720 3721 3722 3723 3724 3725 3726 3727 3728 3729 3730 3731 3732 3733 3734 3735 3736 3737 3738 3739 3740 3741 3742 3743 3744 3745 3746 3747 3748 3749 3750 3751 3752 3753 3754 3755 3756 3757 3758 3759 3760 3761 3762 3763 3764 3765 3766 3767 3768 3769 3770 3771 3772 3773 3774 3775 3776 3777 3778 3779 3780 3781 3782 3783 3784 3785 3786 3787 3788 3789 3790 3791 3792 3793 3794 3795 3796 3797 3798 3799 3800 3801 3802 3803 3804 3805 3806 3807 3808 3809 3810 3811 3812 3813 3814 3815 3816 3817 3818 3819 3820 3821 3822 3823 3824 3825 3826 3827 3828 3829 3830 3831 3832 3833 3834 3835 3836 3837 3838 3839 3840 3841 3842 3843 3844 3845 3846 3847 3848 3849 3850 3851 3852 3853 3854 3855 3856 3857 3858 3859 3860 3861 3862 3863 3864 3865 3866 3867 3868 3869 3870 3871 3872 3873 3874 3875 3876 3877 3878 3879 3880 3881 3882 3883 3884 3885 3886 3887 3888 3889 3890 3891 3892 3893 3894 3895 3896 3897 3898 3899 3900 3901 3902 3903 3904 3905 3906 3907 3908 3909 3910 3911 3912 3913 3914 3915 3916 3917 3918 3919 3920 3921 3922 3923 3924 3925 3926 3927 3928 3929 3930 3931 3932 3933 3934 3935 3936 3937 3938 3939 3940 3941 3942 3943 3944 3945 3946 3947 3948 3949 3950 3951 3952 3953 3954 3955 3956 3957 3958 3959 3960 3961 3962 3963 3964 3965 3966 3967 3968 3969 3970 3971 3972 3973 3974 3975 3976 3977 3978 3979 3980 3981 3982 3983 3984 3985 3986 3987 3988 3989 3990 3991 3992 3993 3994 3995 3996 3997 3998 3999 4000 4001 4002 4003 4004 4005 4006 4007 4008 4009 4010 4011 4012 4013 4014 4015 4016 4017 4018 4019 4020 4021 4022 4023 4024 4025 4026 4027 4028 4029 4030 4031 4032 4033 4034 4035 4036 4037 4038 4039 4040 4041 4042 4043 4044 4045 4046 4047 4048 4049 4050 4051 4052 4053 4054 4055 4056 4057 4058 4059 4060 4061 4062 4063 4064 4065 4066 4067 4068 4069 4070 4071 4072 4073 4074 4075 4076 4077 4078 4079 4080 4081 4082 4083 4084 4085 4086 4087 4088 4089 4090 4091 4092 4093 4094 4095 4096 4097 4098 4099 4100 4101 4102 4103 4104 4105 4106 4107 4108 4109 4110 4111 4112 4113 4114 4115 4116 4117 4118 4119 4120 4121 4122 4123 4124 4125 4126 4127 4128 4129 4130 4131 4132 4133 4134 4135 4136 4137 4138 4139 4140 4141 4142 4143 4144 4145 4146 4147 4148 4149 4150 4151 4152 4153 4154 4155 4156 4157 4158 4159 4160 4161 4162 4163 4164 4165 4166 4167 4168 4169 4170 4171 4172 4173 4174 4175 4176 4177 4178 4179 4180 4181 4182 4183 4184 4185 4186 4187 4188 4189 4190 4191 4192 4193 4194 4195 4196 4197 4198 4199 4200 4201 4202 4203 4204 4205 4206 4207 4208 4209 4210 4211 4212 4213 4214 4215 4216 4217 4218 4219 4220 4221 4222 4223 4224 4225 4226 4227 4228 4229 4230 4231 4232 4233 4234 4235 4236 4237 4238 4239 4240 4241 4242 4243 4244 4245 4246 4247 4248 4249 4250 4251 4252 4253 4254 4255 4256 4257 4258 4259 4260 4261 4262 4263 4264 4265 4266 4267 4268 4269 4270 4271 4272 4273 4274 4275 4276 4277 4278 4279 4280 4281 4282 4283 4284 4285 4286 4287 4288 4289 4290 4291 4292 4293 4294 4295 4296 4297 4298 4299 4300 4301 4302 4303 4304 4305 4306 4307 4308 4309 4310 4311 4312 4313 4314 4315 4316 4317 4318 4319 4320 4321 4322 4323 4324 4325 4326 4327 4328 4329 4330 4331 4332 4333 4334 4335 4336 4337 4338 4339 4340 4341 4342 4343 4344 4345 4346 4347 4348 4349 4350 4351 4352 4353 4354 4355 4356 4357 4358 4359 4360 4361 4362 4363 4364 4365 4366 4367 4368 4369 4370 4371 4372 4373 4374 4375 4376 4377 4378 4379 4380 4381 4382 4383 4384 4385 4386 4387 4388 4389 4390 4391 4392 4393 4394 4395 4396 4397 4398 4399 4400 4401 4402 4403 4404 4405 4406 4407 4408 4409 4410 4411 4412 4413 4414 4415 4416 4417 4418 4419 4420 4421 4422 4423 4424 4425 4426 4427 4428 4429 4430 4431 4432 4433 4434 4435 4436 4437 4438 4439 4440 4441 4442 4443 4444 4445 4446 4447 4448 4449 4450 4451 4452 4453 4454 4455 4456 4457 4458 4459 4460 4461 4462 4463 4464 4465 4466 4467 4468 4469 4470 4471 4472 4473 4474 4475 4476 4477 4478 4479 4480 4481 4482 4483 4484 4485 4486 4487 4488 4489 4490 4491 4492 4493 4494 4495 4496 4497 4498 4499 4500 4501 4502 4503 4504 4505 4506 4507 4508 4509 4510 4511 4512 4513 4514 4515 4516 4517 4518 4519 4520 4521 4522 4523 4524 4525 4526 4527 4528 4529 4530 4531 4532 4533 4534 4535 4536 4537 4538 4539 4540 4541 4542 4543 4544 4545 4546 4547 4548 4549 4550 4551 4552 4553 4554 4555 4556 4557 4558 4559 4560 4561 4562 4563 4564 4565 4566 4567 4568 4569 4570 4571 4572 4573 4574 4575 4576 4577 4578 4579 4580 4581 4582 4583 4584 4585 4586 4587 4588 4589 4590 4591 4592 4593 4594 4595 4596 4597 4598 4599 4600 4601 4602 4603 4604 4605 4606 4607 4608 4609 4610 4611 4612 4613 4614 4615 4616 4617 4618 4619 4620 4621 4622 4623 4624 4625 4626 4627 4628 4629 4630 4631 4632 4633 4634 4635 4636 4637 4638 4639 4640 4641 4642 4643 4644 4645 4646 4647 4648 4649 4650 4651 4652 4653 4654 4655 4656 4657 4658 4659 4660 4661 4662 4663 4664 4665 4666 4667 4668 4669 4670 4671 4672 4673 4674 4675 4676 4677 4678 4679 4680 4681 4682 4683 4684 4685 4686 4687 4688 4689 4690 4691 4692 4693 4694 4695 4696 4697 4698 4699 4700 4701 4702 4703 4704 4705 4706 4707 4708 4709 4710 4711 4712 4713 4714 4715 4716 4717 4718 4719 4720 4721 4722 4723 4724 4725 4726 4727 4728 4729 4730 4731 4732 4733 4734 4735 4736 4737 4738 4739 4740 4741 4742 4743 4744 4745 4746 4747 4748 4749 4750 4751 4752 4753 4754 4755 4756 4757 4758 4759 4760 4761 4762 4763 4764 4765 4766 4767 4768 4769 4770 4771 4772 4773 4774 4775 4776 4777 4778 4779 4780 4781 4782 4783 4784 4785 4786 4787 4788 4789 4790 4791 4792 4793 4794 4795 4796 4797 4798 4799 4800 4801 4802 4803 4804 4805 4806 4807 4808 4809 4810 4811 4812 4813 4814 4815 4816 4817 4818 4819 4820 4821 4822 4823 4824 4825 4826 4827 4828 4829 4830 4831 4832 4833 4834 4835 4836 4837 4838 4839 4840 4841 4842 4843 4844 4845 4846 4847 4848 4849 4850 4851 4852 4853 4854 4855 4856 4857 4858 4859 4860 4861 4862 4863 4864 4865 4866 4867 4868 4869 4870 4871 4872 4873 4874 4875 4876 4877 4878 4879 4880 4881 4882 4883 4884 4885 4886 4887 4888 4889 4890 4891 4892 4893 4894 4895 4896 4897 4898 4899 4900 4901 4902 4903 4904 4905 4906 4907 4908 4909 4910 4911 4912 4913 4914 4915 4916 4917 4918 4919 4920 4921 4922 4923 4924 4925 4926 4927 4928 4929 4930 4931 4932 4933 4934 4935 4936 4937 4938 4939 4940 4941 4942 4943 4944 4945 4946 4947 4948 4949 4950 4951 4952 4953 4954 4955 4956 4957 4958 4959 4960 4961 4962 4963 4964 4965 4966 4967 4968 4969 4970 4971 4972 4973 4974 4975 4976 4977 4978 4979 4980 4981 4982 4983 4984 4985 4986 4987 4988 4989 4990 4991 4992 4993 4994 4995 4996 4997 4998 4999 5000 5001 5002 5003 5004 5005 5006 5007 5008 5009 5010 5011 5012 5013 5014 5015 5016 5017 5018 5019 5020 5021 5022 5023 5024 5025 5026 5027 5028 5029 5030 5031 5032 5033 5034 5035 5036 5037 5038 5039 5040 5041 5042 5043 5044 5045 5046 5047 5048 5049 5050 5051 5052 5053 5054 5055 5056 5057 5058 5059 5060 5061 5062 5063 5064 5065 5066 5067 5068 5069 5070 5071 5072 5073 5074 5075 5076 5077 5078 5079 5080 5081 5082 5083 5084 5085 5086 5087 5088 5089 5090 5091 5092 5093 5094 5095 5096 5097 5098 5099 5100 5101 5102 5103 5104 5105 5106 5107 5108 5109 5110 5111 5112 5113 5114 5115 5116 5117 5118 5119 5120 5121 5122 5123 5124 5125 5126 5127 5128 5129 5130 5131 5132 5133 5134 5135 5136 5137 5138 5139 5140 5141 5142 5143 5144 5145 5146 5147 5148 5149 5150 5151 5152 5153 5154 5155 5156 5157 5158 5159 5160 5161 5162 5163 5164 5165 5166 5167 5168 5169 5170 5171 5172 5173 5174 5175 5176 5177 5178 5179 5180 5181 5182 5183 5184 5185 5186 5187 5188 5189 5190 5191 5192 5193 5194 5195 5196 5197 5198 5199 5200 5201 5202 5203 5204 5205 5206 5207 5208 5209 5210 5211 5212 5213 5214 5215 5216 5217 5218 5219 5220 5221 5222 5223 5224 5225 5226 5227 5228 5229 5230 5231 5232 5233 5234 5235 5236 5237 5238 5239 5240 5241 5242 5243 5244 5245 5246 5247 5248 5249 5250 5251 5252 5253 5254 5255 5256 5257 5258 5259 5260 5261 5262 5263 5264 5265 5266 5267 5268 5269 5270 5271 5272 5273 5274 5275 5276 5277 5278 5279 5280 5281 5282 5283 5284 5285 5286 5287 5288 5289 5290 5291 5292 5293 5294 5295 5296 5297 5298 5299 5300 5301 5302 5303 5304 5305 5306 5307 5308 5309 5310 5311 5312 5313 5314 5315 5316 5317 5318 5319 5320 5321 5322 5323 5324 5325 5326 5327 5328 5329 5330 5331 5332 5333 5334 5335 5336 5337 5338 5339 5340 5341 5342 5343 5344 5345 5346 5347 5348 5349 5350 5351 5352 5353 5354 5355 5356 5357 5358 5359 5360 5361 5362 5363 5364 5365 5366 5367 5368 5369 5370 5371 5372 5373 5374 5375 5376 5377 5378 5379 5380 5381 5382 5383 5384 5385 5386 5387 5388 5389 5390 5391 5392 5393 5394 5395 5396 5397 5398 5399 5400 5401 5402 5403 5404 5405 5406 5407 5408 5409 5410 5411 5412 5413 5414 5415 5416 5417 5418 5419 5420 5421 5422 5423 5424 5425 5426 5427 5428 5429 5430 5431 5432 5433 5434 5435 5436 5437 5438 5439 5440 5441 5442 5443 5444 5445 5446 5447 5448 5449 5450 5451 5452 5453 5454 5455 5456 5457 5458 5459 5460 5461 5462 5463 5464 5465 5466 5467 5468 5469 5470 5471 5472 5473 5474 5475 5476 5477 5478 5479 5480 5481 5482 5483 5484 5485 5486 5487 5488 5489 5490 5491 5492 5493 5494 5495 5496 5497 5498 5499 5500 5501 5502 5503 5504 5505 5506 5507 5508 5509 5510 5511 5512 5513 5514 5515 5516 5517 5518 5519 5520 5521 5522 5523 5524 5525 5526 5527 5528 5529 5530 5531 5532 5533 5534 5535 5536 5537 5538 5539 5540 5541 5542 5543 5544 5545 5546 5547 5548 5549 5550 5551 5552 5553 5554 5555 5556 5557 5558 5559 5560 5561 5562 5563 5564 5565 5566 5567 5568 5569 5570 5571 5572 5573 5574 5575 5576 5577 5578 5579 5580 5581 5582 5583 5584 5585 5586 5587 5588 5589 5590 5591 5592 5593 5594 5595 5596 5597 5598 5599 5600 5601 5602 5603 5604 5605 5606 5607 5608 5609 5610 5611 5612 5613 5614 5615 5616 5617 5618 5619 5620 5621 5622 5623 5624 5625 5626 5627 5628 5629 5630 5631 5632 5633 5634 5635 5636 5637 5638 5639 5640 5641 5642 5643 5644 5645 5646 5647 5648 5649 5650 5651 5652 5653 5654 5655 5656 5657 5658 5659 5660 5661 5662 5663 5664 5665 5666 5667 5668 5669 5670 5671 5672 5673 5674 5675 5676 5677 5678 5679 5680 5681 5682 5683 5684 5685 5686 5687 5688 5689 5690 5691 5692 5693 5694 5695 5696 5697 5698 5699 5700 5701 5702 5703 5704 5705 5706 5707 5708 5709 5710 5711 5712 5713 5714 5715 5716 5717 5718 5719 5720 5721 5722 5723 5724 5725 5726 5727 5728 5729 5730 5731 5732 5733 5734 5735 5736 5737 5738 5739 5740 5741 5742 5743 5744 5745 5746 5747 5748 5749 5750 5751 5752 5753 5754 5755 5756 5757 5758 5759 5760 5761 5762 5763 5764 5765 5766 5767 5768 5769 5770 5771 5772 5773 5774 5775 5776 5777 5778 5779 5780 5781 5782 5783 5784 5785 5786 5787 5788 5789 5790 5791 5792 5793 5794 5795 5796 5797 5798 5799 5800 5801 5802 5803 5804 5805 5806 5807 5808 5809 5810 5811 5812 5813 5814 5815 5816 5817 5818 5819 5820 5821 5822 5823 5824 5825 5826 5827 5828 5829 5830 5831 5832 5833 5834 5835 5836 5837 5838 5839 5840 5841 5842 5843 5844 5845 5846 5847 5848 5849 5850 5851 5852 5853 5854 5855 5856 5857 5858 5859 5860 5861 5862 5863 5864 5865 5866 5867 5868 5869 5870 5871 5872 5873 5874 5875 5876 5877 5878 5879 5880 5881 5882 5883 5884 5885 5886 5887 5888 5889 5890 5891 5892 5893 5894 5895 5896 5897 5898 5899 5900 5901 5902 5903 5904 5905 5906 5907 5908 5909 5910 5911 5912 5913 5914 5915 5916 5917 5918 5919 5920 5921 5922 5923 5924 5925 5926 5927 5928 5929 5930 5931 5932 5933 5934 5935 5936 5937 5938 5939 5940 5941 5942 5943 5944 5945 5946 5947 5948 5949 5950 5951 5952 5953 5954 5955 5956 5957 5958 5959 5960 5961 5962 5963 5964 5965 5966 5967 5968 5969 5970 5971 5972 5973 5974 5975 5976 5977 5978 5979 5980 5981 5982 5983 5984 5985 5986 5987 5988 5989 5990 5991 5992 5993 5994 5995 5996 5997 5998 5999 6000 6001 6002 6003 6004 6005 6006 6007 6008 6009 6010 6011 6012 6013 6014 6015 6016 6017 6018 6019 6020 6021 6022 6023 6024 6025 6026 6027 6028 6029 6030 6031 6032 6033 6034 6035 6036 6037 6038 6039 6040 6041 6042 6043 6044 6045 6046 6047 6048 6049 6050 6051 6052 6053 6054 6055 6056 6057 6058 6059 6060 6061 6062 6063 6064 6065 6066 6067 6068 6069 6070 6071 6072 6073 6074 6075 6076 6077 6078 6079 6080 6081 6082 6083 6084 6085 6086 6087 6088 6089 6090 6091 6092 6093 6094 6095 6096 6097 6098 6099 6100 6101 6102 6103 6104 6105 6106 6107 6108 6109 6110 6111 6112 6113 6114 6115 6116 6117 6118 6119 6120 6121 6122 6123 6124 6125 6126 6127 6128 6129 6130 6131 6132 6133 6134 6135 6136 6137 6138 6139 6140 6141 6142 6143 6144 6145 6146 6147 6148 6149 6150 6151 6152 6153 6154 6155 6156 6157 6158 6159 6160 6161 6162 6163 6164 6165 6166 6167 6168 6169 6170 6171 6172 6173 6174 6175 6176 6177 6178 6179 6180 6181 6182 6183 6184 6185 6186 6187 6188 6189 6190 6191 6192 6193 6194 6195 6196 6197 6198 6199 6200 6201 6202 6203 6204 6205 6206 6207 6208 6209 6210 6211 6212 6213 6214 6215 6216 6217 6218 6219 6220 6221 6222 6223 6224 6225 6226 6227 6228 6229 6230 6231 6232 6233 6234 6235 6236 6237 6238 6239 6240 6241 6242 6243 6244 6245 6246 6247 6248 6249 6250 6251 6252 6253 6254 6255 6256 6257 6258 6259 6260 6261 6262 6263 6264 6265 6266 6267 6268 6269 6270 6271 6272 6273 6274 6275 6276 6277 6278 6279 6280 6281 6282 6283 6284 6285 6286 6287 6288 6289 6290 6291 6292 6293 6294 6295 6296 6297 6298 6299 6300 6301 6302 6303 6304 6305 6306 6307 6308 6309 6310 6311 6312 6313 6314 6315 6316 6317 6318 6319 6320 6321 6322 6323 6324 6325 6326 6327 6328 6329 6330 6331 6332 6333 6334 6335 6336 6337 6338 6339 6340 6341 6342 6343 6344 6345 6346 6347 6348 6349 6350 6351 6352 6353 6354 6355 6356 6357 6358 6359 6360 6361 6362 6363 6364 6365 6366 6367 6368 6369 6370 6371 6372 6373 6374 6375 6376 6377 6378 6379 6380 6381 6382 6383 6384 6385 6386 6387 6388 6389 6390 6391 6392 6393 6394 6395 6396 6397 6398 6399 6400 6401 6402 6403 6404 6405 6406 6407 6408 6409 6410 6411 6412 6413 6414 6415 6416 6417 6418 6419 6420 6421 6422 6423 6424 6425 6426 6427 6428 6429 6430 6431 6432 6433 6434 6435 6436 6437 6438 6439 6440 6441 6442 6443 6444 6445 6446 6447 6448 6449 6450 6451 6452 6453 6454 6455 6456 6457 6458 6459 6460 6461 6462 6463 6464 6465 6466 6467 6468 6469 6470 6471 6472 6473 6474 6475 6476 6477 6478 6479 6480 6481 6482 6483 6484 6485 6486 6487 6488 6489 6490 6491 6492 6493 6494 6495 6496 6497 6498 6499 6500 6501 6502 6503 6504 6505 6506 6507 6508 6509 6510 6511 6512 6513 6514 6515 6516 6517 6518 6519 6520 6521 6522 6523 6524 6525 6526 6527 6528 6529 6530 6531 6532 6533 6534 6535 6536 6537 6538 6539 6540 6541 6542 6543 6544 6545 6546 6547 6548 6549 6550 6551 6552 6553 6554 6555 6556 6557 6558 6559 6560 6561 6562 6563 6564 6565 6566 6567 6568 6569 6570 6571 6572 6573 6574 6575 6576 6577 6578 6579 6580 6581 6582 6583 6584 6585 6586 6587 6588 6589 6590 6591 6592 6593 6594 6595 6596 6597 6598 6599 6600 6601 6602 6603 6604 6605 6606 6607 6608 6609 6610 6611 6612 6613 6614 6615 6616 6617 6618 6619 6620 6621 6622 6623 6624 6625 6626 6627 6628 6629 6630 6631 6632 6633 6634 6635 6636 6637 6638 6639 6640 6641 6642 6643 6644 6645 6646 6647 6648 6649 6650 6651 6652 6653 6654 6655 6656 6657 6658 6659 6660 6661 6662 6663 6664 6665 6666 6667 6668 6669 6670 6671 6672 6673 6674 6675 6676 6677 6678 6679 6680 6681 6682 6683 6684 6685 6686 6687 6688 6689 6690 6691 6692 6693 6694 6695 6696 6697 6698 6699 6700 6701 6702 6703 6704 6705 6706 6707 6708 6709 6710 6711 6712 6713 6714 6715 6716 6717 6718 6719 6720 6721 6722 6723 6724 6725 6726 6727 6728 6729 6730 6731 6732 6733 6734 6735 6736 6737 6738 6739 6740 6741 6742 6743 6744 6745 6746 6747 6748 6749 6750 6751 6752 6753 6754 6755 6756 6757 6758 6759 6760 6761 6762 6763 6764 6765 6766 6767 6768 6769 6770 6771 6772 6773 6774 6775 6776 6777 6778 6779 6780 6781 6782 6783 6784 6785 6786 6787 6788 6789 6790 6791 6792 6793 6794 6795 6796 6797 6798 6799 6800 6801 6802 6803 6804 6805 6806 6807 6808 6809 6810 6811 6812 6813 6814 6815 6816 6817 6818 6819 6820 6821 6822 6823 6824 6825 6826 6827 6828 6829 6830 6831 6832 6833 6834 6835 6836 6837 6838 6839 6840 6841 6842 6843 6844 6845 6846 6847 6848 6849 6850 6851 6852 6853 6854 6855 6856 6857 6858 6859 6860 6861 6862 6863 6864 6865 6866 6867 6868 6869 6870 6871 6872 6873 6874 6875 6876 6877 6878 6879 6880 6881 6882 6883 6884 6885 6886 6887 6888 6889 6890 6891 6892 6893 6894 6895 6896 6897 6898 6899 6900 6901 6902 6903 6904 6905 6906 6907 6908 6909 6910 6911 6912 6913 6914 6915 6916 6917 6918 6919 6920 6921 6922 6923 6924 6925 6926 6927 6928 6929 6930 6931 6932 6933 6934 6935 6936 6937 6938 6939 6940 6941 6942 6943 6944 6945 6946 6947 6948 6949 6950 6951 6952 6953 6954 6955 6956 6957 6958 6959 6960 6961 6962 6963 6964 6965 6966 6967 6968 6969 6970 6971 6972 6973 6974 6975 6976 6977 6978 6979 6980 6981 6982 6983 6984 6985 6986 6987 6988 6989 6990 6991 6992 6993 6994 6995 6996 6997 6998 6999 7000 7001 7002 7003 7004 7005 7006 7007 7008 7009 7010 7011 7012 7013 7014 7015 7016 7017 7018 7019 7020 7021 7022 7023 7024 7025 7026 7027 7028 7029 7030 7031 7032 7033 7034 7035 7036 7037 7038 7039 7040 7041 7042 7043 7044 7045 7046 7047 7048 7049 7050 7051 7052 7053 7054 7055 7056 7057 7058 7059 7060 7061 7062 7063 7064 7065 7066 7067 7068 7069 7070 7071 7072 7073 7074 7075 7076 7077 7078 7079 7080 7081 7082 7083 7084 7085 7086 7087 7088 7089 7090 7091 7092 7093 7094 7095 7096 7097 7098 7099 7100 7101 7102 7103 7104 7105 7106 7107 7108 7109 7110 7111 7112 7113 7114 7115 7116 7117 7118 7119 7120 7121 7122 7123 7124 7125 7126 7127 7128 7129 7130 7131 7132 7133 7134 7135 7136 7137 7138 7139 7140 7141 7142 7143 7144 7145 7146 7147 7148 7149 7150 7151 7152 7153 7154 7155 7156 7157 7158 7159 7160 7161 7162 7163 7164 7165 7166 7167 7168 7169 7170 7171 7172 7173 7174 7175 7176 7177 7178 7179 7180 7181 7182 7183 7184 7185 7186 7187 7188 7189 7190 7191 7192 7193 7194 7195 7196 7197 7198 7199 7200 7201 7202 7203 7204 7205 7206 7207 7208 7209 7210 7211 7212 7213 7214 7215 7216 7217 7218 7219 7220 7221 7222 7223 7224 7225 7226 7227 7228 7229 7230 7231 7232 7233 7234 7235 7236 7237 7238 7239 7240 7241 7242 7243 7244 7245 7246 7247 7248 7249 7250 7251 7252 7253 7254 7255 7256 7257 7258 7259 7260 7261 7262 7263 7264 7265 7266 7267 7268 7269 7270 7271 7272 7273 7274 7275 7276 7277 7278 7279 7280 7281 7282 7283 7284 7285 7286 7287 7288 7289 7290 7291 7292 7293 7294 7295 7296 7297 7298 7299 7300 7301 7302 7303 7304 7305 7306 7307 7308 7309 7310 7311 7312 7313 7314 7315 7316 7317 7318 7319 7320 7321 7322 7323 7324 7325 7326 7327 7328 7329 7330 7331 7332 7333 7334 7335 7336 7337 7338 7339 7340 7341 7342 7343 7344 7345 7346 7347 7348 7349 7350 7351 7352 7353 7354 7355 7356 7357 7358 7359 7360 7361 7362 7363 7364 7365 7366 7367 7368 7369 7370 7371 7372 7373 7374 7375 7376 7377 7378 7379 7380 7381 7382 7383 7384 7385 7386 7387 7388 7389 7390 7391 7392 7393 7394 7395 7396 7397 7398 7399 7400 7401 7402 7403 7404 7405 7406 7407 7408 7409 7410 7411 7412 7413 7414 7415 7416 7417 7418 7419 7420 7421 7422 7423 7424 7425 7426 7427 7428 7429 7430 7431 7432 7433 7434 7435 7436 7437 7438 7439 7440 7441 7442 7443 7444 7445 7446 7447 7448 7449 7450 7451 7452 7453 7454 7455 7456 7457 7458 7459 7460 7461 7462 7463 7464 7465 7466 7467 7468 7469 7470 7471 7472 7473 7474 7475 7476 7477 7478 7479 7480 7481 7482 7483 7484 7485 7486 7487 7488 7489 7490 7491 7492 7493 7494 7495 7496 7497 7498 7499 7500 7501 7502 7503 7504 7505 7506 7507 7508 7509 7510 7511 7512 7513 7514 7515 7516 7517 7518 7519 7520 7521 7522 7523 7524 7525 7526 7527 7528 7529 7530 7531 7532 7533 7534 7535 7536 7537 7538 7539 7540 7541 7542 7543 7544 7545 7546 7547 7548 7549 7550 7551 7552 7553 7554 7555 7556 7557 7558 7559 7560 7561 7562 7563 7564 7565 7566 7567 7568 7569 7570 7571 7572 7573 7574 7575 7576 7577 7578 7579 7580 7581 7582 7583 7584 7585 7586 7587 7588 7589 7590 7591 7592 7593 7594 7595 7596 7597 7598 7599 7600 7601 7602 7603 7604 7605 7606 7607 7608 7609 7610 7611 7612 7613 7614 7615 7616 7617 7618 7619 7620 7621 7622 7623 7624 7625 7626 7627 7628 7629 7630 7631 7632 7633 7634 7635 7636 7637 7638 7639 7640 7641 7642 7643 7644 7645 7646 7647 7648 7649 7650 7651 7652 7653 7654 7655 7656 7657 7658 7659 7660 7661 7662 7663 7664 7665 7666 7667 7668 7669 7670 7671 7672 7673 7674 7675 7676 7677 7678 7679 7680 7681 7682 7683 7684 7685 7686 7687 7688 7689 7690 7691 7692 7693 7694 7695 7696 7697 7698 7699 7700 7701 7702 7703 7704 7705 7706 7707 7708 7709 7710 7711 7712 7713 7714 7715 7716 7717 7718 7719 7720 7721 7722 7723 7724 7725 7726 7727 7728 7729 7730 7731 7732 7733 7734 7735 7736 7737 7738 7739 7740 7741 7742 7743 7744 7745 7746 7747 7748 7749 7750 7751 7752 7753 7754 7755 7756 7757 7758 7759 7760 7761 7762 7763 7764 7765 7766 7767 7768 7769 7770 7771 7772 7773 7774 7775 7776 7777 7778 7779 7780 7781 7782 7783 7784 7785 7786 7787 7788 7789 7790 7791 7792 7793 7794 7795 7796 7797 7798 7799 7800 7801 7802 7803 7804 7805 7806 7807 7808 7809 7810 7811 7812 7813 7814 7815 7816 7817 7818 7819 7820 7821 7822 7823 7824 7825 7826 7827 7828 7829 7830 7831 7832 7833 7834 7835 7836 7837 7838 7839 7840 7841 7842 7843 7844 7845 7846 7847 7848 7849 7850 7851 7852 7853 7854 7855 7856 7857 7858 7859 7860 7861 7862 7863 7864 7865 7866 7867 7868 7869 7870 7871 7872 7873 7874 7875 7876 7877 7878 7879 7880 7881 7882 7883 7884 7885 7886 7887 7888 7889 7890 7891 7892 7893 7894 7895 7896 7897 7898 7899 7900 7901 7902 7903 7904 7905 7906 7907 7908 7909 7910 7911 7912 7913 7914 7915 7916 7917 7918 7919 7920 7921 7922 7923 7924 7925 7926 7927 7928 7929 7930 7931 7932 7933 7934 7935 7936 7937 7938 7939 7940 7941 7942 7943 7944 7945 7946 7947 7948 7949 7950 7951 7952 7953 7954 7955 7956 7957 7958 7959 7960 7961 7962 7963 7964 7965 7966 7967 7968 7969 7970 7971 7972 7973 7974 7975 7976 7977 7978 7979 7980 7981 7982 7983 7984 7985 7986 7987 7988 7989 7990 7991 7992 7993 7994 7995 7996 7997 7998 7999 8000 8001 8002 8003 8004 8005 8006 8007 8008 8009 8010 8011 8012 8013 8014 8015 8016 8017 8018 8019 8020 8021 8022 8023 8024 8025 8026 8027 8028 8029 8030 8031 8032 8033 8034 8035 8036 8037 8038 8039 8040 8041 8042 8043 8044 8045 8046 8047 8048 8049 8050 8051 8052 8053 8054 8055 8056 8057 8058 8059 8060 8061 8062 8063 8064 8065 8066 8067 8068 8069 8070 8071 8072 8073 8074 8075 8076 8077 8078 8079 8080 8081 8082 8083 8084 8085 8086 8087 8088 8089 8090 8091 8092 8093 8094 8095 8096 8097 8098 8099 8100 8101 8102 8103 8104 8105 8106 8107 8108 8109 8110 8111 8112 8113 8114 8115 8116 8117 8118 8119 8120 8121 8122 8123 8124 8125 8126 8127 8128 8129 8130 8131 8132 8133 8134 8135 8136 8137 8138 8139 8140 8141 8142 8143 8144 8145 8146 8147 8148 8149 8150 8151 8152 8153 8154 8155 8156 8157 8158 8159 8160 8161 8162 8163 8164 8165 8166 8167 8168 8169 8170 8171 8172 8173 8174 8175 8176 8177 8178 8179 8180 8181 8182 8183 8184 8185 8186 8187 8188 8189 8190 8191 8192 8193 8194 8195 8196 8197 8198 8199 8200 8201 8202 8203 8204 8205 8206 8207 8208 8209 8210 8211 8212 8213 8214 8215 8216 8217 8218 8219 8220 8221 8222 8223 8224 8225 8226 8227 8228 8229 8230 8231 8232 8233 8234 8235 8236 8237 8238 8239 8240 8241 8242 8243 8244 8245 8246 8247 8248 8249 8250 8251 8252 8253 8254 8255 8256 8257 8258 8259 8260 8261 8262 8263 8264 8265 8266 8267 8268 8269 8270 8271 8272 8273 8274 8275 8276 8277 8278 8279 8280 8281 8282 8283 8284 8285 8286 8287 8288 8289 8290 8291 8292 8293 8294 8295 8296 8297 8298 8299 8300 8301 8302 8303 8304 8305 8306 8307 8308 8309 8310 8311 8312 8313 8314 8315 8316 8317 8318 8319 8320 8321 8322 8323 8324 8325 8326 8327 8328 8329 8330 8331 8332 8333 8334 8335 8336 8337 8338 8339 8340 8341 8342 8343 8344 8345 8346 8347 8348 8349 8350 8351 8352 8353 8354 8355 8356 8357 8358 8359 8360 8361 8362 8363 8364 8365 8366 8367 8368 8369 8370 8371 8372 8373 8374 8375 8376 8377 8378 8379 8380 8381 8382 8383 8384 8385 8386 8387 8388 8389 8390 8391 8392 8393 8394 8395 8396 8397 8398 8399 8400 8401 8402 8403 8404 8405 8406 8407 8408 8409 8410 8411 8412 8413 8414 8415 8416 8417 8418 8419 8420 8421 8422 8423 8424 8425 8426 8427 8428 8429 8430 8431 8432 8433 8434 8435 8436 8437 8438 8439 8440 8441 8442 8443 8444 8445 8446 8447 8448 8449 8450 8451 8452 8453 8454 8455 8456 8457 8458 8459 8460 8461 8462 8463 8464 8465 8466 8467 8468 8469 8470 8471 8472 8473 8474 8475 8476 8477 8478 8479 8480 8481 8482 8483 8484 8485 8486 8487 8488 8489 8490 8491 8492 8493 8494 8495 8496 8497 8498 8499 8500 8501 8502 8503 8504 8505 8506 8507 8508 8509 8510 8511 8512 8513 8514 8515 8516 8517 8518 8519 8520 8521 8522 8523 8524 8525 8526 8527 8528 8529 8530 8531 8532 8533 8534 8535 8536 8537 8538 8539 8540 8541 8542 8543 8544 8545 8546 8547 8548 8549 8550 8551 8552 8553 8554 8555 8556 8557 8558 8559 8560 8561 8562 8563 8564 8565 8566 8567 8568 8569 8570 8571 8572 8573 8574 8575 8576 8577 8578 8579 8580 8581 8582 8583 8584 8585 8586 8587 8588 8589 8590 8591 8592 8593 8594 8595 8596 8597 8598 8599 8600 8601 8602 8603 8604 8605 8606 8607 8608 8609 8610 8611 8612 8613 8614 8615 8616 8617 8618 8619 8620 8621 8622 8623 8624 8625 8626 8627 8628 8629 8630 8631 8632 8633 8634 8635 8636 8637 8638 8639 8640 8641 8642 8643 8644 8645 8646 8647 8648 8649 8650 8651 8652 8653 8654 8655 8656 8657 8658 8659 8660 8661 8662 8663 8664 8665 8666 8667 8668 8669 8670 8671 8672 8673 8674 8675 8676 8677 8678 8679 8680 8681 8682 8683 8684 8685 8686 8687 8688 8689 8690 8691 8692 8693 8694 8695 8696 8697 8698 8699 8700 8701 8702 8703 8704 8705 8706 8707 8708 8709 8710 8711 8712 8713 8714 8715 8716 8717 8718 8719 8720 8721 8722 8723 8724 8725 8726 8727 8728 8729 8730 8731 8732 8733 8734 8735 8736 8737 8738 8739 8740 8741 8742 8743 8744 8745 8746 8747 8748 8749 8750 8751 8752 8753 8754 8755 8756 8757 8758 8759 8760 8761 8762 8763 8764 8765 8766 8767 8768 8769 8770 8771 8772 8773 8774 8775 8776 8777 8778 8779 8780 8781 8782 8783 8784 8785 8786 8787 8788 8789 8790 8791 8792 8793 8794 8795 8796 8797 8798 8799 8800 8801 8802 8803 8804 8805 8806 8807 8808 8809 8810 8811 8812 8813 8814 8815 8816 8817 8818 8819 8820 8821 8822 8823 8824 8825 8826 8827 8828 8829 8830 8831 8832 8833 8834 8835 8836 8837 8838 8839 8840 8841 8842 8843 8844 8845 8846 8847 8848 8849 8850 8851 8852 8853 8854 8855 8856 8857 8858 8859 8860 8861 8862 8863 8864 8865 8866 8867 8868 8869 8870 8871 8872 8873 8874 8875 8876 8877 8878 8879 8880 8881 8882 8883 8884 8885 8886 8887 8888 8889 8890 8891 8892 8893 8894 8895 8896 8897 8898 8899 8900 8901 8902 8903 8904 8905 8906 8907 8908 8909 8910 8911 8912 8913 8914 8915 8916 8917 8918 8919 8920 8921 8922 8923 8924 8925 8926 8927 8928 8929 8930 8931 8932 8933 8934 8935 8936 8937 8938 8939 8940 8941 8942 8943 8944 8945 8946 8947 8948 8949 8950 8951 8952 8953 8954 8955 8956 8957 8958 8959 8960 8961 8962 8963 8964 8965 8966 8967 8968 8969 8970 8971 8972 8973 8974 8975 8976 8977 8978 8979 8980 8981 8982 8983 8984 8985 8986 8987 8988 8989 8990 8991 8992 8993 8994 8995 8996 8997 8998 8999 9000 9001 9002 9003 9004 9005 9006 9007 9008 9009 9010 9011 9012 9013 9014 9015 9016 9017 9018 9019 9020 9021 9022 9023 9024 9025 9026 9027 9028 9029 9030 9031 9032 9033 9034 9035 9036 9037 9038 9039 9040 9041 9042 9043 9044 9045 9046 9047 9048 9049 9050 9051 9052 9053 9054 9055 9056 9057 9058 9059 9060 9061 9062 9063 9064 9065 9066 9067 9068 9069 9070 9071 9072 9073 9074 9075 9076 9077 9078 9079 9080 9081 9082 9083 9084 9085 9086 9087 9088 9089 9090 9091 9092 9093 9094 9095 9096 9097 9098 9099 9100 9101 9102 9103 9104 9105 9106 9107 9108 9109 9110 9111 9112 9113 9114 9115 9116 9117 9118 9119 9120 9121 9122 9123 9124 9125 9126 9127 9128 9129 9130 9131 9132 9133 9134 9135 9136 9137 9138 9139 9140 9141 9142 9143 9144 9145 9146 9147 9148 9149 9150 9151 9152 9153 9154 9155 9156 9157 9158 9159 9160 9161 9162 9163 9164 9165 9166 9167 9168 9169 9170 9171 9172 9173 9174 9175 9176 9177 9178 9179 9180 9181 9182 9183 9184 9185 9186 9187 9188 9189 9190 9191 9192 9193 9194 9195 9196 9197 9198 9199 9200 9201 9202 9203 9204 9205 9206 9207 9208 9209 9210 9211 9212 9213 9214 9215 9216 9217 9218 9219 9220 9221 9222 9223 9224 9225 9226 9227 9228 9229 9230 9231 9232 9233 9234 9235 9236 9237 9238 9239 9240 9241 9242 9243 9244 9245 9246 9247 9248 9249 9250 9251 9252 9253 9254 9255 9256 9257 9258 9259 9260 9261 9262 9263 9264 9265 9266 9267 9268 9269 9270 9271 9272 9273 9274 9275 9276 9277 9278 9279 9280 9281 9282 9283 9284 9285 9286 9287 9288 9289 9290 9291 9292 9293 9294 9295 9296 9297 9298 9299 9300 9301 9302 9303 9304 9305 9306 9307 9308 9309 9310 9311 9312 9313 9314 9315 9316 9317 9318 9319 9320 9321 9322 9323 9324 9325 9326 9327 9328 9329 9330 9331 9332 9333 9334 9335 9336 9337 9338 9339 9340 9341 9342 9343 9344 9345 9346 9347 9348 9349 9350 9351 9352 9353 9354 9355 9356 9357 9358 9359 9360 9361 9362 9363 9364 9365 9366 9367 9368 9369 9370 9371 9372 9373 9374 9375 9376 9377 9378 9379 9380 9381 9382 9383 9384 9385 9386 9387 9388 9389 9390 9391 9392 9393 9394 9395 9396 9397 9398 9399 9400 9401 9402 9403 9404 9405 9406 9407 9408 9409 9410 9411 9412 9413 9414 9415 9416 9417 9418 9419 9420 9421 9422 9423 9424 9425 9426 9427 9428 9429 9430 9431 9432 9433 9434 9435 9436 9437 9438 9439 9440 9441 9442 9443 9444 9445 9446 9447 9448 9449 9450 9451 9452 9453 9454 9455 9456 9457 9458 9459 9460 9461 9462 9463 9464 9465 9466 9467 9468 9469 9470 9471 9472 9473 9474 9475 9476 9477 9478 9479 9480 9481 9482 9483 9484 9485 9486 9487 9488 9489 9490 9491 9492 9493 9494 9495 9496 9497 9498 9499 9500 9501 9502 9503 9504 9505 9506 9507 9508 9509 9510 9511 9512 9513 9514 9515 9516 9517 9518 9519 9520 9521 9522 9523 9524 9525 9526 9527 9528 9529 9530 9531 9532 9533 9534 9535 9536 9537 9538 9539 9540 9541 9542 9543 9544 9545 9546 9547 9548 9549 9550 9551 9552 9553 9554 9555 9556 9557 9558 9559 9560 9561 9562 9563 9564 9565 9566 9567 9568 9569 9570 9571 9572 9573 9574 9575 9576 9577 9578 9579 9580 9581 9582 9583 9584 9585 9586 9587 9588 9589 9590 9591 9592 9593 9594 9595 9596 9597 9598 9599 9600 9601 9602 9603 9604 9605 9606 9607 9608 9609 9610 9611 9612 9613 9614 9615 9616 9617 9618 9619 9620 9621 9622 9623 9624 9625 9626 9627 9628 9629 9630 9631 9632 9633 9634 9635 9636 9637 9638 9639 9640 9641 9642 9643 9644 9645 9646 9647 9648 9649 9650 9651 9652 9653 9654 9655 9656 9657 9658 9659 9660 9661 9662 9663 9664 9665 9666 9667 9668 9669 9670 9671 9672 9673 9674 9675 9676 9677 9678 9679 9680 9681 9682 9683 9684 9685 9686 9687 9688 9689 9690 9691 9692 9693 9694 9695 9696 9697 9698 9699 9700 9701 9702 9703 9704 9705 9706 9707 9708 9709 9710 9711 9712 9713 9714 9715 9716 9717 9718 9719 9720 9721 9722 9723 9724 9725 9726 9727 9728 9729 9730 9731 9732 9733 9734 9735 9736 9737 9738 9739 9740 9741 9742 9743 9744 9745 9746 9747 9748 9749 9750 9751 9752 9753 9754 9755 9756 9757 9758 9759 9760 9761 9762 9763 9764 9765 9766 9767 9768 9769 9770 9771 9772 9773 9774 9775 9776 9777 9778 9779 9780 9781 9782 9783 9784 9785 9786 9787 9788 9789 9790 9791 9792 9793 9794 9795 9796 9797 9798 9799 9800 9801 9802 9803 9804 9805 9806 9807 9808 9809 9810 9811 9812 9813 9814 9815 9816 9817 9818 9819 9820 9821 9822 9823 9824 9825 9826 9827 9828 9829 9830 9831 9832 9833 9834 9835 9836 9837 9838 9839 9840 9841 9842 9843 9844 9845 9846 9847 9848 9849 9850 9851 9852 9853 9854 9855 9856 9857 9858 9859 9860 9861 9862 9863 9864 9865 9866 9867 9868 9869 9870 9871 9872 9873 9874 9875 9876 9877 9878 9879 9880 9881 9882 9883 9884 9885 9886 9887 9888 9889 9890 9891 9892 9893 9894 9895 9896 9897 9898 9899 9900 9901 9902 9903 9904 9905 9906 9907 9908 9909 9910 9911 9912 9913 9914 9915 9916 9917 9918 9919 9920 9921 9922 9923 9924 9925 9926 9927 9928 9929 9930 9931 9932 9933 9934 9935 9936 9937 9938 9939 9940 9941 9942 9943 9944 9945 9946 9947 9948 9949 9950 9951 9952 9953 9954 9955 9956 9957 9958 9959 9960 9961 9962 9963 9964 9965 9966 9967 9968 9969 9970 9971 9972 9973 9974 9975 9976 9977 9978 9979 9980 9981 9982 9983 9984 9985 9986 9987 9988 9989 9990 9991 9992 9993 9994 9995 9996 9997 9998 9999 10000 10001 10002 10003 10004 10005 10006 10007 10008 10009 10010 10011 10012 10013 10014 10015 10016 10017 10018 10019 10020 10021 10022 10023 10024 10025 10026 10027 10028 10029 10030 10031 10032 10033 10034 10035 10036 10037 10038 10039 10040 10041 10042 10043 10044 10045 10046 10047 10048 10049 10050 10051 10052 10053 10054 10055 10056 10057 10058 10059 10060 10061 10062 10063 10064 10065 10066 10067 10068 10069 10070 10071 10072 10073 10074 10075 10076 10077 10078 10079 10080 10081 10082 10083 10084 10085 10086 10087 10088 10089 10090 10091 10092 10093 10094 10095 10096 10097 10098 10099 10100 10101 10102 10103 10104 10105 10106 10107 10108 10109 10110 10111 10112 10113 10114 10115 10116 10117 10118 10119 10120 10121 10122 10123 10124 10125 10126 10127 10128 10129 10130 10131 10132 10133 10134 10135 10136 10137 10138 10139 10140 10141 10142 10143 10144 10145 10146 10147 10148 10149 10150 10151 10152 10153 10154 10155 10156 10157 10158 10159 10160 10161 10162 10163 10164 10165 10166 10167 10168 10169 10170 10171 10172 10173 10174 10175 10176 10177 10178 10179 10180 10181 10182 10183 10184 10185 10186 10187 10188 10189 10190 10191 10192 10193 10194 10195 10196 10197 10198 10199 10200 10201 10202 10203 10204 10205 10206 10207 10208 10209 10210 10211 10212 10213 10214 10215 10216 10217 10218 10219 10220 10221 10222 10223 10224 10225 10226 10227 10228 10229 10230 10231 10232 10233 10234 10235 10236 10237 10238 10239 10240 10241 10242 10243 10244 10245 10246 10247 10248 10249 10250 10251 10252 10253 10254 10255 10256 10257 10258 10259 10260 10261 10262 10263 10264 10265 10266 10267 10268 10269 10270 10271 10272 10273 10274 10275 10276 10277 10278 10279 10280 10281 10282 10283 10284 10285 10286 10287 10288 10289 10290 10291 10292 10293 10294 10295 10296 10297 10298 10299 10300 10301 10302 10303 10304 10305 10306 10307 10308 10309 10310 10311 10312 10313 10314 10315 10316 10317 10318 10319 10320 10321 10322 10323 10324 10325 10326 10327 10328 10329 10330 10331 10332 10333 10334 10335 10336 10337 10338 10339 10340 10341 10342 10343 10344 10345 10346 10347 10348 10349 10350 10351 10352 10353 10354 10355 10356 10357 10358 10359 10360 10361 10362 10363 10364 10365 10366 10367 10368 10369 10370 10371 10372 10373 10374 10375 10376 10377 10378 10379 10380 10381 10382 10383 10384 10385 10386 10387 10388 10389 10390 10391 10392 10393 10394 10395 10396 10397 10398 10399 10400 10401 10402 10403 10404 10405 10406 10407 10408 10409 10410 10411 10412 10413 10414 10415 10416 10417 10418 10419 10420 10421 10422 10423 10424 10425 10426 10427 10428 10429 10430 10431 10432 10433 10434 10435 10436 10437 10438 10439 10440 10441 10442 10443 10444 10445 10446 10447 10448 10449 10450 10451 10452 10453 10454 10455 10456 10457 10458 10459 10460 10461 10462 10463 10464 10465 10466 10467 10468 10469 10470 10471 10472 10473 10474 10475 10476 10477 10478 10479 10480 10481 10482 10483 10484 10485 10486 10487 10488 10489 10490 10491 10492 10493 10494 10495 10496 10497 10498 10499 10500 10501 10502 10503 10504 10505 10506 10507 10508 10509 10510 10511 10512 10513 10514 10515 10516 10517 10518 10519 10520 10521 10522 10523 10524 10525 10526 10527 10528 10529 10530 10531 10532 10533 10534 10535 10536 10537 10538 10539 10540 10541 10542 10543 10544 10545 10546 10547 10548 10549 10550 10551 10552 10553 10554 10555 10556 10557 10558 10559 10560 10561 10562 10563 10564 10565 10566 10567 10568 10569 10570 10571 10572 10573 10574 10575 10576 10577 10578 10579 10580 10581 10582 10583 10584 10585 10586 10587 10588 10589 10590 10591 10592 10593 10594 10595 10596 10597 10598 10599 10600 10601 10602 10603 10604 10605 10606 10607 10608 10609 10610 10611 10612 10613 10614 10615 10616 10617 10618 10619 10620 10621 10622 10623 10624 10625 10626 10627 10628 10629 10630 10631 10632 10633 10634 10635 10636 10637 10638 10639 10640 10641 10642 10643 10644 10645 10646 10647 10648 10649 10650 10651 10652 10653 10654 10655 10656 10657 10658 10659 10660 10661 10662 10663 10664 10665 10666 10667 10668 10669 10670 10671 10672 10673 10674 10675 10676 10677 10678 10679 10680 10681 10682 10683 10684 10685 10686 10687 10688 10689 10690 10691 10692 10693 10694 10695 10696 10697 10698 10699 10700 10701 10702 10703 10704 10705 10706 10707 10708 10709 10710 10711 10712 10713 10714 10715 10716 10717 10718 10719 10720 10721 10722 10723 10724 10725 10726 10727 10728 10729 10730 10731 10732 10733 10734 10735 10736 10737 10738 10739 10740 10741 10742 10743 10744 10745 10746 10747 10748 10749 10750 10751 10752 10753 10754 10755 10756 10757 10758 10759 10760 10761 10762 10763 10764 10765 10766 10767 10768 10769 10770 10771 10772 10773 10774 10775 10776 10777 10778 10779 10780 10781 10782 10783 10784 10785 10786 10787 10788 10789 10790 10791 10792 10793 10794 10795 10796 10797 10798 10799 10800 10801 10802 10803 10804 10805 10806 10807 10808 10809 10810 10811 10812 10813 10814 10815 10816 10817 10818 10819 10820 10821 10822 10823 10824 10825 10826 10827 10828 10829 10830 10831 10832 10833 10834 10835 10836 10837 10838 10839 10840 10841 10842 10843 10844 10845 10846 10847 10848 10849 10850 10851 10852 10853 10854 10855 10856 10857 10858 10859 10860 10861 10862 10863 10864 10865 10866 10867 10868 10869 10870 10871 10872 10873 10874 10875 10876 10877 10878 10879 10880 10881 10882 10883 10884 10885 10886 10887 10888 10889 10890 10891 10892 10893 10894 10895 10896 10897 10898 10899 10900 10901 10902 10903 10904 10905 10906 10907 10908 10909 10910 10911 10912 10913 10914 10915 10916 10917 10918 10919 10920 10921 10922 10923 10924 10925 10926 10927 10928 10929 10930 10931 10932 10933 10934 10935 10936 10937 10938 10939 10940 10941 10942 10943 10944 10945 10946 10947 10948 10949 10950 10951 10952 10953 10954 10955 10956 10957 10958 10959 10960 10961 10962 10963 10964 10965 10966 10967 10968 10969 10970 10971 10972 10973 10974 10975 10976 10977 10978 10979 10980 10981 10982 10983 10984 10985 10986 10987 10988 10989 10990 10991 10992 10993 10994 10995 10996 10997 10998 10999 11000 11001 11002 11003 11004 11005 11006 11007 11008 11009 11010 11011 11012 11013 11014 11015 11016 11017 11018 11019 11020 11021 11022 11023 11024 11025 11026 11027 11028 11029 11030 11031 11032 11033 11034 11035 11036 11037 11038 11039 11040 11041 11042 11043 11044 11045 11046 11047 11048 11049 11050 11051 11052 11053 11054 11055 11056 11057 11058 11059 11060 11061 11062 11063 11064 11065 11066 11067 11068 11069 11070 11071 11072 11073 11074 11075 11076 11077 11078 11079 11080 11081 11082 11083 11084 11085 11086 11087 11088 11089 11090 11091 11092 11093 11094 11095 11096 11097 11098 11099 11100 11101 11102 11103 11104 11105 11106 11107 11108 11109 11110 11111 11112 11113 11114 11115 11116 11117 11118 11119 11120 11121 11122 11123 11124 11125 11126 11127 11128 11129 11130 11131 11132 11133 11134 11135 11136 11137 11138 11139 11140 11141 11142 11143 11144 11145 11146 11147 11148 11149 11150 11151 11152 11153 11154 11155 11156 11157 11158 11159 11160 11161 11162 11163 11164 11165 11166 11167 11168 11169 11170 11171 11172 11173 11174 11175 11176 11177 11178 11179 11180 11181 11182 11183 11184 11185 11186 11187 11188 11189 11190 11191 11192 11193 11194 11195 11196 11197 11198 11199 11200 11201 11202 11203 11204 11205 11206 11207 11208 11209 11210 11211 11212 11213 11214 11215 11216 11217 11218 11219 11220 11221 11222 11223 11224 11225 11226 11227 11228 11229 11230 11231 11232 11233 11234 11235 11236 11237 11238 11239 11240 11241 11242 11243 11244 11245 11246 11247 11248 11249 11250 11251 11252 11253 11254 11255 11256 11257 11258 11259 11260 11261 11262 11263 11264 11265 11266 11267 11268 11269 11270 11271 11272 11273 11274 11275 11276 11277 11278 11279 11280 11281 11282 11283 11284 11285 11286 11287 11288 11289 11290 11291 11292 11293 11294 11295 11296 11297 11298 11299 11300 11301 11302 11303 11304 11305 11306 11307 11308 11309 11310 11311 11312 11313 11314 11315 11316 11317 11318 11319 11320 11321 11322 11323 11324 11325 11326 11327 11328 11329 11330 11331 11332 11333 11334 11335 11336 11337 11338 11339 11340 11341 11342 11343 11344 11345 11346 11347 11348 11349 11350 11351 11352 11353 11354 11355 11356 11357 11358 11359 11360 11361 11362 11363 11364 11365 11366 11367 11368 11369 11370 11371 11372 11373 11374 11375 11376 11377 11378 11379 11380 11381 11382 11383 11384 11385 11386 11387 11388 11389 11390 11391 11392 11393 11394 11395 11396 11397 11398 11399 11400 11401 11402 11403 11404 11405 11406 11407 11408 11409 11410 11411 11412 11413 11414 11415 11416 11417 11418 11419 11420 11421 11422 11423 11424 11425 11426 11427 11428 11429 11430 11431 11432 11433 11434 11435 11436 11437 11438 11439 11440 11441 11442 11443 11444 11445 11446 11447 11448 11449 11450 11451 11452 11453 11454 11455 11456 11457 11458 11459 11460 11461 11462 11463 11464 11465 11466 11467 11468 11469 11470 11471 11472 11473 11474 11475 11476 11477 11478 11479 11480 11481 11482 11483 11484 11485 11486 11487 11488 11489 11490 11491 11492 11493 11494 11495 11496 11497 11498 11499 11500 11501 11502 11503 11504 11505 11506 11507 11508 11509 11510 11511 11512 11513 11514 11515 11516 11517 11518 11519 11520 11521 11522 11523 11524 11525 11526 11527 11528 11529 11530 11531 11532 11533 11534 11535 11536 11537 11538 11539 11540 11541 11542 11543 11544 11545 11546 11547 11548 11549 11550 11551 11552 11553 11554 11555 11556 11557 11558 11559 11560 11561 11562 11563 11564 11565 11566 11567 11568 11569 11570 11571 11572 11573 11574 11575 11576 11577 11578 11579 11580 11581 11582 11583 11584 11585 11586 11587 11588 11589 11590 11591 11592 11593 11594 11595 11596 11597 11598 11599 11600 11601 11602 11603 11604 11605 11606 11607 11608 11609 11610 11611 11612 11613 11614 11615 11616 11617 11618 11619 11620 11621 11622 11623 11624 11625 11626 11627 11628 11629 11630 11631 11632 11633 11634 11635 11636 11637 11638 11639 11640 11641 11642 11643 11644 11645 11646 11647 11648 11649 11650 11651 11652 11653 11654 11655 11656 11657 11658 11659 11660 11661 11662 11663 11664 11665 11666 11667 11668 11669 11670 11671 11672 11673 11674 11675 11676 11677 11678 11679 11680 11681 11682 11683 11684 11685 11686 11687 11688 11689 11690 11691 11692 11693 11694 11695 11696 11697 11698 11699 11700 11701 11702 11703 11704 11705 11706 11707 11708 11709 11710 11711 11712 11713 11714 11715 11716 11717 11718 11719 11720 11721 11722 11723 11724 11725 11726 11727 11728 11729 11730 11731 11732 11733 11734 11735 11736 11737 11738 11739 11740 11741 11742 11743 11744 11745 11746 11747 11748 11749 11750 11751 11752 11753 11754 11755 11756 11757 11758 11759 11760 11761 11762 11763 11764 11765 11766 11767 11768 11769 11770 11771 11772 11773 11774 11775 11776 11777 11778 11779 11780 11781 11782 11783 11784 11785 11786 11787 11788 11789 11790 11791 11792 11793 11794 11795 11796 11797 11798 11799 11800 11801 11802 11803 11804 11805 11806 11807 11808 11809 11810 11811 11812 11813 11814 11815 11816 11817 11818 11819 11820 11821 11822 11823 11824 11825 11826 11827 11828 11829 11830 11831 11832 11833 11834 11835 11836 11837 11838 11839 11840 11841 11842 11843 11844 11845 11846 11847 11848 11849 11850 11851 11852 11853 11854 11855 11856 11857 11858 11859 11860 11861 11862 11863 11864 11865 11866 11867 11868 11869 11870 11871 11872 11873 11874 11875 11876 11877 11878 11879 11880 11881 11882 11883 11884 11885 11886 11887 11888 11889 11890 11891 11892 11893 11894 11895 11896 11897 11898 11899 11900 11901 11902 11903 11904 11905 11906 11907 11908 11909 11910 11911 11912 11913 11914 11915 11916 11917 11918 11919 11920 11921 11922 11923 11924 11925 11926 11927 11928 11929 11930 11931 11932 11933 11934 11935 11936 11937 11938 11939 11940 11941 11942 11943 11944 11945 11946 11947 11948 11949 11950 11951 11952 11953 11954 11955 11956 11957 11958 11959 11960 11961 11962 11963 11964 11965 11966 11967 11968 11969 11970 11971 11972 11973 11974 11975 11976 11977 11978 11979 11980 11981 11982 11983 11984 11985 11986 11987 11988 11989 11990 11991 11992 11993 11994 11995 11996 11997 11998 11999 12000 12001 12002 12003 12004 12005 12006 12007 12008 12009 12010 12011 12012 12013 12014 12015 12016 12017 12018 12019 12020 12021 12022 12023 12024 12025 12026 12027 12028 12029 12030 12031 12032 12033 12034 12035 12036 12037 12038 12039 12040 12041 12042 12043 12044 12045 12046 12047 12048 12049 12050 12051 12052 12053 12054 12055 12056 12057 12058 12059 12060 12061 12062 12063 12064 12065 12066 12067 12068 12069 12070 12071 12072 12073 12074 12075 12076 12077 12078 12079 12080 12081 12082 12083 12084 12085 12086 12087 12088 12089 12090 12091 12092 12093 12094 12095 12096 12097 12098 12099 12100 12101 12102 12103 12104 12105 12106 12107 12108 12109 12110 12111 12112 12113 12114 12115 12116 12117 12118 12119 12120 12121 12122 12123 12124 12125 12126 12127 12128 12129 12130 12131 12132 12133 12134 12135 12136 12137 12138 12139 12140 12141 12142 12143 12144 12145 12146 12147 12148 12149 12150 12151 12152 12153 12154 12155 12156 12157 12158 12159 12160 12161 12162 12163 12164 12165 12166 12167 12168 12169 12170 12171 12172 12173 12174 12175 12176 12177 12178 12179 12180 12181 12182 12183 12184 12185 12186 12187 12188 12189 12190 12191 12192 12193 12194 12195 12196 12197 12198 12199 12200 12201 12202 12203 12204 12205 12206 12207 12208 12209 12210 12211 12212 12213 12214 12215 12216 12217 12218 12219 12220 12221 12222 12223 12224 12225 12226 12227 12228 12229 12230 12231 12232 12233 12234 12235 12236 12237 12238 12239 12240 12241 12242 12243 12244 12245 12246 12247 12248 12249 12250 12251 12252 12253 12254 12255 12256 12257 12258 12259 12260 12261 12262 12263 12264 12265 12266 12267 12268 12269 12270 12271 12272 12273 12274 12275 12276 12277 12278 12279 12280 12281 12282 12283 12284 12285 12286 12287 12288 12289 12290 12291 12292 12293 12294 12295 12296 12297 12298 12299 12300 12301 12302 12303 12304 12305 12306 12307 12308 12309 12310 12311 12312 12313 12314 12315 12316 12317 12318 12319 12320 12321 12322 12323 12324 12325 12326 12327 12328 12329 12330 12331 12332 12333 12334 12335 12336 12337 12338 12339 12340 12341 12342 12343 12344 12345 12346 12347 12348 12349 12350 12351 12352 12353 12354 12355 12356 12357 12358 12359 12360 12361 12362 12363 12364 12365 12366 12367 12368 12369 12370 12371 12372 12373 12374 12375 12376 12377 12378 12379 12380 12381 12382 12383 12384 12385 12386 12387 12388 12389 12390 12391 12392 12393 12394 12395 12396 12397 12398 12399 12400 12401 12402 12403 12404 12405 12406 12407 12408 12409 12410 12411 12412 12413 12414 12415 12416 12417 12418 12419 12420 12421 12422 12423 12424 12425 12426 12427 12428 12429 12430 12431 12432 12433 12434 12435 12436 12437 12438 12439 12440 12441 12442 12443 12444 12445 12446 12447 12448 12449 12450 12451 12452 12453 12454 12455 12456 12457 12458 12459 12460 12461 12462 12463 12464 12465 12466 12467 12468 12469 12470 12471 12472 12473 12474 12475 12476 12477 12478 12479 12480 12481 12482 12483 12484 12485 12486 12487 12488 12489 12490 12491 12492 12493 12494 12495 12496 12497 12498 12499 12500 12501 12502 12503 12504 12505 12506 12507 12508 12509 12510 12511 12512 12513 12514 12515 12516 12517 12518 12519 12520 12521 12522 12523 12524 12525 12526 12527 12528 12529 12530 12531 12532 12533 12534 12535 12536 12537 12538 12539 12540 12541 12542 12543 12544 12545 12546 12547 12548 12549 12550 12551 12552 12553 12554 12555 12556 12557 12558 12559 12560 12561 12562 12563 12564 12565 12566 12567 12568 12569 12570 12571 12572 12573 12574 12575 12576 12577 12578 12579 12580 12581 12582 12583 12584 12585 12586 12587 12588 12589 12590 12591 12592 12593 12594 12595 12596 12597 12598 12599 12600 12601 12602 12603 12604 12605 12606 12607 12608 12609 12610 12611 12612 12613 12614 12615 12616 12617 12618 12619 12620 12621 12622 12623 12624 12625 12626 12627 12628 12629 12630 12631 12632 12633 12634 12635 12636 12637 12638 12639 12640 12641 12642 12643 12644 12645 12646 12647 12648 12649 12650 12651 12652 12653 12654 12655 12656 12657 12658 12659 12660 12661 12662 12663 12664 12665 12666 12667 12668 12669 12670 12671 12672 12673 12674 12675 12676 12677 12678 12679 12680 12681 12682 12683 12684 12685 12686 12687 12688 12689 12690 12691 12692 12693 12694 12695 12696 12697 12698 12699 12700 12701 12702 12703 12704 12705 12706 12707 12708 12709 12710 12711 12712 12713 12714 12715 12716 12717 12718 12719 12720 12721 12722 12723 12724 12725 12726 12727 12728 12729 12730 12731 12732 12733 12734 12735 12736 12737 12738 12739 12740 12741 12742 12743 12744 12745 12746 12747 12748 12749 12750 12751 12752 12753 12754 12755 12756 12757 12758 12759 12760 12761 12762 12763 12764 12765 12766 12767 12768 12769 12770 12771 12772 12773 12774 12775 12776 12777 12778 12779 12780 12781 12782 12783 12784 12785 12786 12787 12788 12789 12790 12791 12792 12793 12794 12795 12796 12797 12798 12799 12800 12801 12802 12803 12804 12805 12806 12807 12808 12809 12810 12811 12812 12813 12814 12815 12816 12817 12818 12819 12820 12821 12822 12823 12824 12825 12826 12827 12828 12829 12830 12831 12832 12833 12834 12835 12836 12837 12838 12839 12840 12841 12842 12843 12844 12845 12846 12847 12848 12849 12850 12851 12852 12853 12854 12855 12856 12857 12858 12859 12860 12861 12862 12863 12864 12865 12866 12867 12868 12869 12870 12871 12872 12873 12874 12875 12876 12877 12878 12879 12880 12881 12882 12883 12884 12885 12886 12887 12888 12889 12890 12891 12892 12893 12894 12895 12896 12897 12898 12899 12900 12901 12902 12903 12904 12905 12906 12907 12908 12909 12910 12911 12912 12913 12914 12915 12916 12917 12918 12919 12920 12921 12922 12923 12924 12925 12926 12927 12928 12929 12930 12931 12932 12933 12934 12935 12936 12937 12938 12939 12940 12941 12942 12943 12944 12945 12946 12947 12948 12949 12950 12951 12952 12953 12954 12955 12956 12957 12958 12959 12960 12961 12962 12963 12964 12965 12966 12967 12968 12969 12970 12971 12972 12973 12974 12975 12976 12977 12978 12979 12980 12981 12982 12983 12984 12985 12986 12987 12988 12989 12990 12991 12992 12993 12994 12995 12996 12997 12998 12999 13000 13001 13002 13003 13004 13005 13006 13007 13008 13009 13010 13011 13012 13013 13014 13015 13016 13017 13018 13019 13020 13021 13022 13023 13024 13025 13026 13027 13028 13029 13030 13031 13032 13033 13034 13035 13036 13037 13038 13039 13040 13041 13042 13043 13044 13045 13046 13047 13048 13049 13050 13051 13052 13053 13054 13055 13056 13057 13058 13059 13060 13061 13062 13063 13064 13065 13066 13067 13068 13069 13070 13071 13072 13073 13074 13075 13076 13077 13078 13079 13080 13081 13082 13083 13084 13085 13086 13087 13088 13089 13090 13091 13092 13093 13094 13095 13096 13097 13098 13099 13100 13101 13102 13103 13104 13105 13106 13107 13108 13109 13110 13111 13112 13113 13114 13115 13116 13117 13118 13119 13120 13121 13122 13123 13124 13125 13126 13127 13128 13129 13130 13131 13132 13133 13134 13135 13136 13137 13138 13139 13140 13141 13142 13143 13144 13145 13146 13147 13148 13149 13150 13151 13152 13153 13154 13155 13156 13157 13158 13159 13160 13161 13162 13163 13164 13165 13166 13167 13168 13169 13170 13171 13172 13173 13174 13175 13176 13177 13178 13179 13180 13181 13182 13183 13184 13185 13186 13187 13188 13189 13190 13191 13192 13193 13194 13195 13196 13197 13198 13199 13200 13201 13202 13203 13204 13205 13206 13207 13208 13209 13210 13211 13212 13213 13214 13215 13216 13217 13218 13219 13220 13221 13222 13223 13224 13225 13226 13227 13228 13229 13230 13231 13232 13233 13234 13235 13236 13237 13238 13239 13240 13241 13242 13243 13244 13245 13246 13247 13248 13249 13250 13251 13252 13253 13254 13255 13256 13257 13258 13259 13260 13261 13262 13263 13264 13265 13266 13267 13268 13269 13270 13271 13272 13273 13274 13275 13276 13277 13278 13279 13280 13281 13282 13283 13284 13285 13286 13287 13288 13289 13290 13291 13292 13293 13294 13295 13296 13297 13298 13299 13300 13301 13302 13303 13304 13305 13306 13307 13308 13309 13310 13311 13312 13313 13314 13315 13316 13317 13318 13319 13320 13321 13322 13323 13324 13325 13326 13327 13328 13329 13330 13331 13332 13333 13334 13335 13336 13337 13338 13339 13340 13341 13342 13343 13344 13345 13346 13347 13348 13349 13350 13351 13352 13353 13354 13355 13356 13357 13358 13359 13360 13361 13362 13363 13364 13365 13366 13367 13368 13369 13370 13371 13372 13373 13374 13375 13376 13377 13378 13379 13380 13381 13382 13383 13384 13385 13386 13387 13388 13389 13390 13391 13392 13393 13394 13395 13396 13397 13398 13399 13400 13401 13402 13403 13404 13405 13406 13407 13408 13409 13410 13411 13412 13413 13414 13415 13416 13417 13418 13419 13420 13421 13422 13423 13424 13425 13426 13427 13428 13429 13430 13431 13432 13433 13434 13435 13436 13437 13438 13439 13440 13441 13442 13443 13444 13445 13446 13447 13448 13449 13450 13451 13452 13453 13454 13455 13456 13457 13458 13459 13460 13461 13462 13463 13464 13465 13466 13467 13468 13469 13470 13471 13472 13473 13474 13475 13476 13477 13478 13479 13480 13481 13482 13483 13484 13485 13486 13487 13488 13489 13490 13491 13492 13493 13494 13495 13496 13497 13498 13499 13500 13501 13502 13503 13504 13505 13506 13507 13508 13509 13510 13511 13512 13513 13514 13515 13516 13517 13518 13519 13520 13521 13522 13523 13524 13525 13526 13527 13528 13529 13530 13531 13532 13533 13534 13535 13536 13537 13538 13539 13540 13541 13542 13543 13544 13545 13546 13547 13548 13549 13550 13551 13552 13553 13554 13555 13556 13557 13558 13559 13560 13561 13562 13563 13564 13565 13566 13567 13568 13569 13570 13571 13572 13573 13574 13575 13576 13577 13578 13579 13580 13581 13582 13583 13584 13585 13586 13587 13588 13589 13590 13591 13592 13593 13594 13595 13596 13597 13598 13599 13600 13601 13602 13603 13604 13605 13606 13607 13608 13609 13610 13611 13612 13613 13614 13615 13616 13617 13618 13619 13620 13621 13622 13623 13624 13625 13626 13627 13628 13629 13630 13631 13632 13633 13634 13635 13636 13637 13638 13639 13640 13641 13642 13643 13644 13645 13646 13647 13648 13649 13650 13651 13652 13653 13654 13655 13656 13657 13658 13659 13660 13661 13662 13663 13664 13665 13666 13667 13668 13669 13670 13671 13672 13673 13674 13675 13676 13677 13678 13679 13680 13681 13682 13683 13684 13685 13686 13687 13688 13689 13690 13691 13692 13693 13694 13695 13696 13697 13698 13699 13700 13701 13702 13703 13704 13705 13706 13707 13708 13709 13710 13711 13712 13713 13714 13715 13716 13717 13718 13719 13720 13721 13722 13723 13724 13725 13726 13727 13728 13729 13730 13731 13732 13733 13734 13735 13736 13737 13738 13739 13740 13741 13742 13743 13744 13745 13746 13747 13748 13749 13750 13751 13752 13753 13754 13755 13756 13757 13758 13759 13760 13761 13762 13763 13764 13765 13766 13767 13768 13769 13770 13771 13772 13773 13774 13775 13776 13777 13778 13779 13780 13781 13782 13783 13784 13785 13786 13787 13788 13789 13790 13791 13792 13793 13794 13795 13796 13797 13798 13799 13800 13801 13802 13803 13804 13805 13806 13807 13808 13809 13810 13811 13812 13813 13814 13815 13816 13817 13818 13819 13820 13821 13822 13823 13824 13825 13826 13827 13828 13829 13830 13831 13832 13833 13834 13835 13836 13837 13838 13839 13840 13841 13842 13843 13844 13845 13846 13847 13848 13849 13850 13851 13852 13853 13854 13855 13856 13857 13858 13859 13860 13861 13862 13863 13864 13865 13866 13867 13868 13869 13870 13871 13872 13873 13874 13875 13876 13877 13878 13879 13880 13881 13882 13883 13884 13885 13886 13887 13888 13889 13890 13891 13892 13893 13894 13895 13896 13897 13898 13899 13900 13901 13902 13903 13904 13905 13906 13907 13908 13909 13910 13911 13912 13913 13914 13915 13916 13917 13918 13919 13920 13921 13922 13923 13924 13925 13926 13927 13928 13929 13930 13931 13932 13933 13934 13935 13936 13937 13938 13939 13940 13941 13942 13943 13944 13945 13946 13947 13948 13949 13950 13951 13952 13953 13954 13955 13956 13957 13958 13959 13960 13961 13962 13963 13964 13965 13966 13967 13968 13969 13970 13971 13972 13973 13974 13975 13976 13977 13978 13979 13980 13981 13982 13983 13984 13985 13986 13987 13988 13989 13990 13991 13992 13993 13994 13995 13996 13997 13998 13999 14000 14001 14002 14003 14004 14005 14006 14007 14008 14009 14010 14011 14012 14013 14014 14015 14016 14017 14018 14019 14020 14021 14022 14023 14024 14025 14026 14027 14028 14029 14030 14031 14032 14033 14034 14035 14036 14037 14038 14039 14040 14041 14042 14043 14044 14045 14046 14047 14048 14049 14050 14051 14052 14053 14054 14055 14056 14057 14058 14059 14060 14061 14062 14063 14064 14065 14066 14067 14068 14069 14070 14071 14072 14073 14074 14075 14076 14077 14078 14079 14080 14081 14082 14083 14084 14085 14086 14087 14088 14089 14090 14091 14092 14093 14094 14095 14096 14097 14098 14099 14100 14101 14102 14103 14104 14105 14106 14107 14108 14109 14110 14111 14112 14113 14114 14115 14116 14117 14118 14119 14120 14121 14122 14123 14124 14125 14126 14127 14128 14129 14130 14131 14132 14133 14134 14135 14136 14137 14138 14139 14140 14141 14142 14143 14144 14145 14146 14147 14148 14149 14150 14151 14152 14153 14154 14155 14156 14157 14158 14159 14160 14161 14162 14163 14164 14165 14166 14167 14168 14169 14170 14171 14172 14173 14174 14175 14176 14177 14178 14179 14180 14181 14182 14183 14184 14185 14186 14187 14188 14189 14190 14191 14192 14193 14194 14195 14196 14197 14198 14199 14200 14201 14202 14203 14204 14205 14206 14207 14208 14209 14210 14211 14212 14213 14214 14215 14216 14217 14218 14219 14220 14221 14222 14223 14224 14225 14226 14227 14228 14229 14230 14231 14232 14233 14234 14235 14236 14237 14238 14239 14240 14241 14242 14243 14244 14245 14246 14247 14248 14249 14250 14251 14252 14253 14254 14255 14256 14257 14258 14259 14260 14261 14262 14263 14264 14265 14266 14267 14268 14269 14270 14271 14272 14273 14274 14275 14276 14277 14278 14279 14280 14281 14282 14283 14284 14285 14286 14287 14288 14289 14290 14291 14292 14293 14294 14295 14296 14297 14298 14299 14300 14301 14302 14303 14304 14305 14306 14307 14308 14309 14310 14311 14312 14313 14314 14315 14316 14317 14318 14319 14320 14321 14322 14323 14324 14325 14326 14327 14328 14329 14330 14331 14332 14333 14334 14335 14336 14337 14338 14339 14340 14341 14342 14343 14344 14345 14346 14347 14348 14349 14350 14351 14352 14353 14354 14355 14356 14357 14358 14359 14360 14361 14362 14363 14364 14365 14366 14367 14368 14369 14370 14371 14372 14373 14374 14375 14376 14377 14378 14379 14380 14381 14382 14383 14384 14385 14386 14387 14388 14389 14390 14391 14392 14393 14394 14395 14396 14397 14398 14399 14400 14401 14402 14403 14404 14405 14406 14407 14408 14409 14410 14411 14412 14413 14414 14415 14416 14417 14418 14419 14420 14421 14422 14423 14424 14425 14426 14427 14428 14429 14430 14431 14432 14433 14434 14435 14436 14437 14438 14439 14440 14441 14442 14443 14444 14445 14446 14447 14448 14449 14450 14451 14452 14453 14454 14455 14456 14457 14458 14459 14460 14461 14462 14463 14464 14465 14466 14467 14468 14469 14470 14471 14472 14473 14474 14475 14476 14477 14478 14479 14480 14481 14482 14483 14484 14485 14486 14487 14488 14489 14490 14491 14492 14493 14494 14495 14496 14497 14498 14499 14500 14501 14502 14503 14504 14505 14506 14507 14508 14509 14510 14511 14512 14513 14514 14515 14516 14517 14518 14519 14520 14521 14522 14523 14524 14525 14526 14527 14528 14529 14530 14531 14532 14533 14534 14535 14536 14537 14538 14539 14540 14541 14542 14543 14544 14545 14546 14547 14548 14549 14550 14551 14552 14553 14554 14555 14556 14557 14558 14559 14560 14561 14562 14563 14564 14565 14566 14567 14568 14569 14570 14571 14572 14573 14574 14575 14576 14577 14578 14579 14580 14581 14582 14583 14584 14585 14586 14587 14588 14589 14590 14591 14592 14593 14594 14595 14596 14597 14598 14599 14600 14601 14602 14603 14604 14605 14606 14607 14608 14609 14610 14611 14612 14613 14614 14615 14616 14617 14618 14619 14620 14621 14622 14623 14624 14625 14626 14627 14628 14629 14630 14631 14632 14633 14634 14635 14636 14637 14638 14639 14640 14641 14642 14643 14644 14645 14646 14647 14648 14649 14650 14651 14652 14653 14654 14655 14656 14657 14658 14659 14660 14661 14662 14663 14664 14665 14666 14667 14668 14669 14670 14671 14672 14673 14674 14675 14676 14677 14678 14679 14680 14681 14682 14683 14684 14685 14686 14687 14688 14689 14690 14691 14692 14693 14694 14695 14696 14697 14698 14699 14700 14701 14702 14703 14704 14705 14706 14707 14708 14709 14710 14711 14712 14713 14714 14715 14716 14717 14718 14719 14720 14721 14722 14723 14724 14725 14726 14727 14728 14729 14730 14731 14732 14733 14734 14735 14736 14737 14738 14739 14740 14741 14742 14743 14744 14745 14746 14747 14748 14749 14750 14751 14752 14753 14754 14755 14756 14757 14758 14759 14760 14761 14762 14763 14764 14765 14766 14767 14768 14769 14770 14771 14772 14773 14774 14775 14776 14777 14778 14779 14780 14781 14782 14783 14784 14785 14786 14787 14788 14789 14790 14791 14792 14793 14794 14795 14796 14797 14798 14799 14800 14801 14802 14803 14804 14805 14806 14807 14808 14809 14810 14811 14812 14813 14814 14815 14816 14817 14818 14819 14820 14821 14822 14823 14824 14825 14826 14827 14828 14829 14830 14831 14832 14833 14834 14835 14836 14837 14838 14839 14840 14841 14842 14843 14844 14845 14846 14847 14848 14849 14850 14851 14852 14853 14854 14855 14856 14857 14858 14859 14860 14861 14862 14863 14864 14865 14866 14867 14868 14869 14870 14871 14872 14873 14874 14875 14876 14877 14878 14879 14880 14881 14882 14883 14884 14885 14886 14887 14888 14889 14890 14891 14892 14893 14894 14895 14896 14897 14898 14899 14900 14901 14902 14903 14904 14905 14906 14907 14908 14909 14910 14911 14912 14913 14914 14915 14916 14917 14918 14919 14920 14921 14922 14923 14924 14925 14926 14927 14928 14929 14930 14931 14932 14933 14934 14935 14936 14937 14938 14939 14940 14941 14942 14943 14944 14945 14946 14947 14948 14949 14950 14951 14952 14953 14954 14955 14956 14957 14958 14959 14960 14961 14962 14963 14964 14965 14966 14967 14968 14969 14970 14971 14972 14973 14974 14975 14976 14977 14978 14979 14980 14981 14982 14983 14984 14985 14986 14987 14988 14989 14990 14991 14992 14993 14994 14995 14996 14997 14998 14999 15000 15001 15002 15003 15004 15005 15006 15007 15008 15009 15010 15011 15012 15013 15014 15015 15016 15017 15018 15019 15020 15021 15022 15023 15024 15025 15026 15027 15028 15029 15030 15031 15032 15033 15034 15035 15036 15037 15038 15039 15040 15041 15042 15043 15044 15045 15046 15047 15048 15049 15050 15051 15052 15053 15054 15055 15056 15057 15058 15059 15060 15061 15062 15063 15064 15065 15066 15067 15068 15069 15070 15071 15072 15073 15074 15075 15076 15077 15078 15079 15080 15081 15082 15083 15084 15085 15086 15087 15088 15089 15090 15091 15092 15093 15094 15095 15096 15097 15098 15099 15100 15101 15102 15103 15104 15105 15106 15107 15108 15109 15110 15111 15112 15113 15114 15115 15116 15117 15118 15119 15120 15121 15122 15123 15124 15125 15126 15127 15128 15129 15130 15131 15132 15133 15134 15135 15136 15137 15138 15139 15140 15141 15142 15143 15144 15145 15146 15147 15148 15149 15150 15151 15152 15153 15154 15155 15156 15157 15158 15159 15160 15161 15162 15163 15164 15165 15166 15167 15168 15169 15170 15171 15172 15173 15174 15175 15176 15177 15178 15179 15180 15181 15182 15183 15184 15185 15186 15187 15188 15189 15190 15191 15192 15193 15194 15195 15196 15197 15198 15199 15200 15201 15202 15203 15204 15205 15206 15207 15208 15209 15210 15211 15212 15213 15214 15215 15216 15217 15218 15219 15220 15221 15222 15223 15224 15225 15226 15227 15228 15229 15230 15231 15232 15233 15234 15235 15236 15237 15238 15239 15240 15241 15242 15243 15244 15245 15246 15247 15248 15249 15250 15251 15252 15253 15254 15255 15256 15257 15258 15259 15260 15261 15262 15263 15264 15265 15266 15267 15268 15269 15270 15271 15272 15273 15274 15275 15276 15277 15278 15279 15280 15281 15282 15283 15284 15285 15286 15287 15288 15289 15290 15291 15292 15293 15294 15295 15296 15297 15298 15299 15300 15301 15302 15303 15304 15305 15306 15307 15308 15309 15310 15311 15312 15313 15314 15315 15316 15317 15318 15319 15320 15321 15322 15323 15324 15325 15326 15327 15328 15329 15330 15331 15332 15333 15334 15335 15336 15337 15338 15339 15340 15341 15342 15343 15344 15345 15346 15347 15348 15349 15350 15351 15352 15353 15354 15355 15356 15357 15358 15359 15360 15361 15362 15363 15364 15365 15366 15367 15368 15369 15370 15371 15372 15373 15374 15375 15376 15377 15378 15379 15380 15381 15382 15383 15384 15385 15386 15387 15388 15389 15390 15391 15392 15393 15394 15395 15396 15397 15398 15399 15400 15401 15402 15403 15404 15405 15406 15407 15408 15409 15410 15411 15412 15413 15414 15415 15416 15417 15418 15419 15420 15421 15422 15423 15424 15425 15426 15427 15428 15429 15430 15431 15432 15433 15434 15435 15436 15437 15438 15439 15440 15441 15442 15443 15444 15445 15446 15447 15448 15449 15450 15451 15452 15453 15454 15455 15456 15457 15458 15459 15460 15461 15462 15463 15464 15465 15466 15467 15468 15469 15470 15471 15472 15473 15474 15475 15476 15477 15478 15479 15480 15481 15482 15483 15484 15485 15486 15487 15488 15489 15490 15491 15492 15493 15494 15495 15496 15497 15498 15499 15500 15501 15502 15503 15504 15505 15506 15507 15508 15509 15510 15511 15512 15513 15514 15515 15516 15517 15518 15519 15520 15521 15522 15523 15524 15525 15526 15527 15528 15529 15530 15531 15532 15533 15534 15535 15536 15537 15538 15539 15540 15541 15542 15543 15544 15545 15546 15547 15548 15549 15550 15551 15552 15553 15554 15555 15556 15557 15558 15559 15560 15561 15562 15563 15564 15565 15566 15567 15568 15569 15570 15571 15572 15573 15574 15575 15576 15577 15578 15579 15580 15581 15582 15583 15584 15585 15586 15587 15588 15589 15590 15591 15592 15593 15594 15595 15596 15597 15598 15599 15600 15601 15602 15603 15604 15605 15606 15607 15608 15609 15610 15611 15612 15613 15614 15615 15616 15617 15618 15619 15620 15621 15622 15623 15624 15625 15626 15627 15628 15629 15630 15631 15632 15633 15634 15635 15636 15637 15638 15639 15640 15641 15642 15643 15644 15645 15646 15647 15648 15649 15650 15651 15652 15653 15654 15655 15656 15657 15658 15659 15660 15661 15662 15663 15664 15665 15666 15667 15668 15669 15670 15671 15672 15673 15674 15675 15676 15677 15678 15679 15680 15681 15682 15683 15684 15685 15686 15687 15688 15689 15690 15691 15692 15693 15694 15695 15696 15697 15698 15699 15700 15701 15702 15703 15704 15705 15706 15707 15708 15709 15710 15711 15712 15713 15714 15715 15716 15717 15718 15719 15720 15721 15722 15723 15724 15725 15726 15727 15728 15729 15730 15731 15732 15733 15734 15735 15736 15737 15738 15739 15740 15741 15742 15743 15744 15745 15746 15747 15748 15749 15750 15751 15752 15753 15754 15755 15756 15757 15758 15759 15760 15761 15762 15763 15764 15765 15766 15767 15768 15769 15770 15771 15772 15773 15774 15775 15776 15777 15778 15779 15780 15781 15782 15783 15784 15785 15786 15787 15788 15789 15790 15791 15792 15793 15794 15795 15796 15797 15798 15799 15800 15801 15802 15803 15804 15805 15806 15807 15808 15809 15810 15811 15812 15813 15814 15815 15816 15817 15818 15819 15820 15821 15822 15823 15824 15825 15826 15827 15828 15829 15830 15831 15832 15833 15834 15835 15836 15837 15838 15839 15840 15841 15842 15843 15844 15845 15846 15847 15848 15849 15850 15851 15852 15853 15854 15855 15856 15857 15858 15859 15860 15861 15862 15863 15864 15865 15866 15867 15868 15869 15870 15871 15872 15873 15874 15875 15876 15877 15878 15879 15880 15881 15882 15883 15884 15885 15886 15887 15888 15889 15890 15891 15892 15893 15894 15895 15896 15897 15898 15899 15900 15901 15902 15903 15904 15905 15906 15907 15908 15909 15910 15911 15912 15913 15914 15915 15916 15917 15918 15919 15920 15921 15922 15923 15924 15925 15926 15927 15928 15929 15930 15931 15932 15933 15934 15935 15936 15937 15938 15939 15940 15941 15942 15943 15944 15945 15946 15947 15948 15949 15950 15951 15952 15953 15954 15955 15956 15957 15958 15959 15960 15961 15962 15963 15964 15965 15966 15967 15968 15969 15970 15971 15972 15973 15974 15975 15976 15977 15978 15979 15980 15981 15982 15983 15984 15985 15986 15987 15988 15989 15990 15991 15992 15993 15994 15995 15996 15997 15998 15999 16000 16001 16002 16003 16004 16005 16006 16007 16008 16009 16010 16011 16012 16013 16014 16015 16016 16017 16018 16019 16020 16021 16022 16023 16024 16025 16026 16027 16028 16029 16030 16031 16032 16033 16034 16035 16036 16037 16038 16039 16040 16041 16042 16043 16044 16045 16046 16047 16048 16049 16050 16051 16052 16053 16054 16055 16056 16057 16058 16059 16060 16061 16062 16063 16064 16065 16066 16067 16068 16069 16070 16071 16072 16073 16074 16075 16076 16077 16078 16079 16080 16081 16082 16083 16084 16085 16086 16087 16088 16089 16090 16091 16092 16093 16094 16095 16096 16097 16098 16099 16100 16101 16102 16103 16104 16105 16106 16107 16108 16109 16110 16111 16112 16113 16114 16115 16116 16117 16118 16119 16120 16121 16122 16123 16124 16125 16126 16127 16128 16129 16130 16131 16132 16133 16134 16135 16136 16137 16138 16139 16140 16141 16142 16143 16144 16145 16146 16147 16148 16149 16150 16151 16152 16153 16154 16155 16156 16157 16158 16159 16160 16161 16162 16163 16164 16165 16166 16167 16168 16169 16170 16171 16172 16173 16174 16175 16176 16177 16178 16179 16180 16181 16182 16183 16184 16185 16186 16187 16188 16189 16190 16191 16192 16193 16194 16195 16196 16197 16198 16199 16200 16201 16202 16203 16204 16205 16206 16207 16208 16209 16210 16211 16212 16213 16214 16215 16216 16217 16218 16219 16220 16221 16222 16223 16224 16225 16226 16227 16228 16229 16230 16231 16232 16233 16234 16235 16236 16237 16238 16239 16240 16241 16242 16243 16244 16245 16246 16247 16248 16249 16250 16251 16252 16253 16254 16255 16256 16257 16258 16259 16260 16261 16262 16263 16264 16265 16266 16267 16268 16269 16270 16271 16272 16273 16274 16275 16276 16277 16278 16279 16280 16281 16282 16283 16284 16285 16286 16287 16288 16289 16290 16291 16292 16293 16294 16295 16296 16297 16298 16299 16300 16301 16302 16303 16304 16305 16306 16307 16308 16309 16310 16311 16312 16313 16314 16315 16316 16317 16318 16319 16320 16321 16322 16323 16324 16325 16326 16327 16328 16329 16330 16331 16332 16333 16334 16335 16336 16337 16338 16339 16340 16341 16342 16343 16344 16345 16346 16347 16348 16349 16350 16351 16352 16353 16354 16355 16356 16357 16358 16359 16360 16361 16362 16363 16364 16365 16366 16367 16368 16369 16370 16371 16372 16373 16374 16375 16376 16377 16378 16379 16380 16381 16382 16383 16384 16385 16386 16387 16388 16389 16390 16391 16392 16393 16394 16395 16396 16397 16398 16399 16400 16401 16402 16403 16404 16405 16406 16407 16408 16409 16410 16411 16412 16413 16414 16415 16416 16417 16418 16419 16420 16421 16422 16423 16424 16425 16426 16427 16428 16429 16430 16431 16432 16433 16434 16435 16436 16437 16438 16439 16440 16441 16442 16443 16444 16445 16446 16447 16448 16449 16450 16451 16452 16453 16454 16455 16456 16457 16458 16459 16460 16461 16462 16463 16464 16465 16466 16467 16468 16469 16470 16471 16472 16473 16474 16475 16476 16477 16478 16479 16480 16481 16482 16483 16484 16485 16486 16487 16488 16489 16490 16491 16492 16493 16494 16495 16496 16497 16498 16499 16500 16501 16502 16503 16504 16505 16506 16507 16508 16509 16510 16511 16512 16513 16514 16515 16516 16517 16518 16519 16520 16521 16522 16523 16524 16525 16526 16527 16528 16529 16530 16531 16532 16533 16534 16535 16536 16537 16538 16539 16540 16541 16542 16543 16544 16545 16546 16547 16548 16549 16550 16551 16552 16553 16554 16555 16556 16557 16558 16559 16560 16561 16562 16563 16564 16565 16566 16567 16568 16569 16570 16571 16572 16573 16574 16575 16576 16577 16578 16579 16580 16581 16582 16583 16584 16585 16586 16587 16588 16589 16590 16591 16592 16593 16594 16595 16596 16597 16598 16599 16600 16601 16602 16603 16604 16605 16606 16607 16608 16609 16610 16611 16612 16613 16614 16615 16616 16617 16618 16619 16620 16621 16622 16623 16624 16625 16626 16627 16628 16629 16630 16631 16632 16633 16634 16635 16636 16637 16638 16639 16640 16641 16642 16643 16644 16645 16646 16647 16648 16649 16650 16651 16652 16653 16654 16655 16656 16657 16658 16659 16660 16661 16662 16663 16664 16665 16666 16667 16668 16669 16670 16671 16672 16673 16674 16675 16676 16677 16678 16679 16680 16681 16682 16683 16684 16685 16686 16687 16688 16689 16690 16691 16692 16693 16694 16695 16696 16697 16698 16699 16700 16701 16702 16703 16704 16705 16706 16707 16708 16709 16710 16711 16712 16713 16714 16715 16716 16717 16718 16719 16720 16721 16722 16723 16724 16725 16726 16727 16728 16729 16730 16731 16732 16733 16734 16735 16736 16737 16738 16739 16740 16741 16742 16743 16744 16745 16746 16747 16748 16749 16750 16751 16752 16753 16754 16755 16756 16757 16758 16759 16760 16761 16762 16763 16764 16765 16766 16767 16768 16769 16770 16771 16772 16773 16774 16775 16776 16777 16778 16779 16780 16781 16782 16783 16784 16785 16786 16787 16788 16789 16790 16791 16792 16793 16794 16795 16796 16797 16798 16799 16800 16801 16802 16803 16804 16805 16806 16807 16808 16809 16810 16811 16812 16813 16814 16815 16816 16817 16818 16819 16820 16821 16822 16823 16824 16825 16826 16827 16828 16829 16830 16831 16832 16833 16834 16835 16836 16837 16838 16839 16840 16841 16842 16843 16844 16845 16846 16847 16848 16849 16850 16851 16852 16853 16854 16855 16856 16857 16858 16859 16860 16861 16862 16863 16864 16865 16866 16867 16868 16869 16870 16871 16872 16873 16874 16875 16876 16877 16878 16879 16880 16881 16882 16883 16884 16885 16886 16887 16888 16889 16890 16891 16892 16893 16894 16895 16896 16897 16898 16899 16900 16901 16902 16903 16904 16905 16906 16907 16908 16909 16910 16911 16912 16913 16914 16915 16916 16917 16918 16919 16920 16921 16922 16923 16924 16925 16926 16927 16928 16929 16930 16931 16932 16933 16934 16935 16936 16937 16938 16939 16940 16941 16942 16943 16944 16945 16946 16947 16948 16949 16950 16951 16952 16953 16954 16955 16956 16957 16958 16959 16960 16961 16962 16963 16964 16965 16966 16967 16968 16969 16970 16971 16972 16973 16974 16975 16976 16977 16978 16979 16980 16981 16982 16983 16984 16985 16986 16987 16988 16989 16990 16991 16992 16993 16994 16995 16996 16997 16998 16999 17000 17001 17002 17003 17004 17005 17006 17007 17008 17009 17010 17011 17012 17013 17014 17015 17016 17017 17018 17019 17020 17021 17022 17023 17024 17025 17026 17027 17028 17029 17030 17031 17032 17033 17034 17035 17036 17037 17038 17039 17040 17041 17042 17043 17044 17045 17046 17047 17048 17049 17050 17051 17052 17053 17054 17055 17056 17057 17058 17059 17060 17061 17062 17063 17064 17065 17066 17067 17068 17069 17070 17071 17072 17073 17074 17075 17076 17077 17078 17079 17080 17081 17082 17083 17084 17085 17086 17087 17088 17089 17090 17091 17092 17093 17094 17095 17096 17097 17098 17099 17100 17101 17102 17103 17104 17105 17106 17107 17108 17109 17110 17111 17112 17113 17114 17115 17116 17117 17118 17119 17120 17121 17122 17123 17124 17125 17126 17127 17128 17129 17130 17131 17132 17133 17134 17135 17136 17137 17138 17139 17140 17141 17142 17143 17144 17145 17146 17147 17148 17149 17150 17151 17152 17153 17154 17155 17156 17157 17158 17159 17160 17161 17162 17163 17164 17165 17166 17167 17168 17169 17170 17171 17172 17173 17174 17175 17176 17177 17178 17179 17180 17181 17182 17183 17184 17185 17186 17187 17188 17189 17190 17191 17192 17193 17194 17195 17196 17197 17198 17199 17200 17201 17202 17203 17204 17205 17206 17207 17208 17209 17210 17211 17212 17213 17214 17215 17216 17217 17218 17219 17220 17221 17222 17223 17224 17225 17226 17227 17228 17229 17230 17231 17232 17233 17234 17235 17236 17237 17238 17239 17240 17241 17242 17243 17244 17245 17246 17247 17248 17249 17250 17251 17252 17253 17254 17255 17256 17257 17258 17259 17260 17261 17262 17263 17264 17265 17266 17267 17268 17269 17270 17271 17272 17273 17274 17275 17276 17277 17278 17279 17280 17281 17282 17283 17284 17285 17286 17287 17288 17289 17290 17291 17292 17293 17294 17295 17296 17297 17298 17299 17300 17301 17302 17303 17304 17305 17306 17307 17308 17309 17310 17311 17312 17313 17314 17315 17316 17317 17318 17319 17320 17321 17322 17323 17324 17325 17326 17327 17328 17329 17330 17331 17332 17333 17334 17335 17336 17337 17338 17339 17340 17341 17342 17343 17344 17345 17346 17347 17348 17349 17350 17351 17352 17353 17354 17355 17356 17357 17358 17359 17360 17361 17362 17363 17364 17365 17366 17367 17368 17369 17370 17371 17372 17373 17374 17375 17376 17377 17378 17379 17380 17381 17382 17383 17384 17385 17386 17387 17388 17389 17390 17391 17392 17393 17394 17395 17396 17397 17398 17399 17400 17401 17402 17403 17404 17405 17406 17407 17408 17409 17410 17411 17412 17413 17414 17415 17416 17417 17418 17419 17420 17421 17422 17423 17424 17425 17426 17427 17428 17429 17430 17431 17432 17433 17434 17435 17436 17437 17438 17439 17440 17441 17442 17443 17444 17445 17446 17447 17448 17449 17450 17451 17452 17453 17454 17455 17456 17457 17458 17459 17460 17461 17462 17463 17464 17465 17466 17467 17468 17469 17470 17471 17472 17473 17474 17475 17476 17477 17478 17479 17480 17481 17482 17483 17484 17485 17486 17487 17488 17489 17490 17491 17492 17493 17494 17495 17496 17497 17498 17499 17500 17501 17502 17503 17504 17505 17506 17507 17508 17509 17510 17511 17512 17513 17514 17515 17516 17517 17518 17519 17520 17521 17522 17523 17524 17525 17526 17527 17528 17529 17530 17531 17532 17533 17534 17535 17536 17537 17538 17539 17540 17541 17542 17543 17544 17545 17546 17547 17548 17549 17550 17551 17552 17553 17554 17555 17556 17557 17558 17559 17560 17561 17562 17563 17564 17565 17566 17567 17568 17569 17570 17571 17572 17573 17574 17575 17576 17577 17578 17579 17580 17581 17582 17583 17584 17585 17586 17587 17588 17589 17590 17591 17592 17593 17594 17595 17596 17597 17598 17599 17600 17601 17602 17603 17604 17605 17606 17607 17608 17609 17610 17611 17612 17613 17614 17615 17616 17617 17618 17619 17620 17621 17622 17623 17624 17625 17626 17627 17628 17629 17630 17631 17632 17633 17634 17635 17636 17637 17638 17639 17640 17641 17642 17643 17644 17645 17646 17647 17648 17649 17650 17651 17652 17653 17654 17655 17656 17657 17658 17659 17660 17661 17662 17663 17664 17665 17666 17667 17668 17669 17670 17671 17672 17673 17674 17675 17676 17677 17678 17679 17680 17681 17682 17683 17684 17685 17686 17687 17688 17689 17690 17691 17692 17693 17694 17695 17696 17697 17698 17699 17700 17701 17702 17703 17704 17705 17706 17707 17708 17709 17710 17711 17712 17713 17714 17715 17716 17717 17718 17719 17720 17721 17722 17723 17724 17725 17726 17727 17728 17729 17730 17731 17732 17733 17734 17735 17736 17737 17738 17739 17740 17741 17742 17743 17744 17745 17746 17747 17748 17749 17750 17751 17752 17753 17754 17755 17756 17757 17758 17759 17760 17761 17762 17763 17764 17765 17766 17767 17768 17769 17770 17771 17772 17773 17774 17775 17776 17777 17778 17779 17780 17781 17782 17783 17784 17785 17786 17787 17788 17789 17790 17791 17792 17793 17794 17795 17796 17797 17798 17799 17800 17801 17802 17803 17804 17805 17806 17807 17808 17809 17810 17811 17812 17813 17814 17815 17816 17817 17818 17819 17820 17821 17822 17823 17824 17825 17826 17827 17828 17829 17830 17831 17832 17833 17834 17835 17836 17837 17838 17839 17840 17841 17842 17843 17844 17845 17846 17847 17848 17849 17850 17851 17852 17853 17854 17855 17856 17857 17858 17859 17860 17861 17862 17863 17864 17865 17866 17867 17868 17869 17870 17871 17872 17873 17874 17875 17876 17877 17878 17879 17880 17881 17882 17883 17884 17885 17886 17887 17888 17889 17890 17891 17892 17893 17894 17895 17896 17897 17898 17899 17900 17901 17902 17903 17904 17905 17906 17907 17908 17909 17910 17911 17912 17913 17914 17915 17916 17917 17918 17919 17920 17921 17922 17923 17924 17925 17926 17927 17928 17929 17930 17931 17932 17933 17934 17935 17936 17937 17938 17939 17940 17941 17942 17943 17944 17945 17946 17947 17948 17949 17950 17951 17952 17953 17954 17955 17956 17957 17958 17959 17960 17961 17962 17963 17964 17965 17966 17967 17968 17969 17970 17971 17972 17973 17974 17975 17976 17977 17978 17979 17980 17981 17982 17983 17984 17985 17986 17987 17988 17989 17990 17991 17992 17993 17994 17995 17996 17997 17998 17999 18000 18001 18002 18003 18004 18005 18006 18007 18008 18009 18010 18011 18012 18013 18014 18015 18016 18017 18018 18019 18020 18021 18022 18023 18024 18025 18026 18027 18028 18029 18030 18031 18032 18033 18034 18035 18036 18037 18038 18039 18040 18041 18042 18043 18044 18045 18046 18047 18048 18049 18050 18051 18052 18053 18054 18055 18056 18057 18058 18059 18060 18061 18062 18063 18064 18065 18066 18067 18068 18069 18070 18071 18072 18073 18074 18075 18076 18077 18078 18079 18080 18081 18082 18083 18084 18085 18086 18087 18088 18089 18090 18091 18092 18093 18094 18095 18096 18097 18098 18099 18100 18101 18102 18103 18104 18105 18106 18107 18108 18109 18110 18111 18112 18113 18114 18115 18116 18117 18118 18119 18120 18121 18122 18123 18124 18125 18126 18127 18128 18129 18130 18131 18132 18133 18134 18135 18136 18137 18138 18139 18140 18141 18142 18143 18144 18145 18146 18147 18148 18149 18150 18151 18152 18153 18154 18155 18156 18157 18158 18159 18160 18161 18162 18163 18164 18165 18166 18167 18168 18169 18170 18171 18172 18173 18174 18175 18176 18177 18178 18179 18180 18181 18182 18183 18184 18185 18186 18187 18188 18189 18190 18191 18192 18193 18194 18195 18196 18197 18198 18199 18200 18201 18202 18203 18204 18205 18206 18207 18208 18209 18210 18211 18212 18213 18214 18215 18216 18217 18218 18219 18220 18221 18222 18223 18224 18225 18226 18227 18228 18229 18230 18231 18232 18233 18234 18235 18236 18237 18238 18239 18240 18241 18242 18243 18244 18245 18246 18247 18248 18249 18250 18251 18252 18253 18254 18255 18256 18257 18258 18259 18260 18261 18262 18263 18264 18265 18266 18267 18268 18269 18270 18271 18272 18273 18274 18275 18276 18277 18278 18279 18280 18281 18282 18283 18284 18285 18286 18287 18288 18289 18290 18291 18292 18293 18294 18295 18296 18297 18298 18299 18300 18301 18302 18303 18304 18305 18306 18307 18308 18309 18310 18311 18312 18313 18314 18315 18316 18317 18318 18319 18320 18321 18322 18323 18324 18325 18326 18327 18328 18329 18330 18331 18332 18333 18334 18335 18336 18337 18338 18339 18340 18341 18342 18343 18344 18345 18346 18347 18348 18349 18350 18351 18352 18353 18354 18355 18356 18357 18358 18359 18360 18361 18362 18363 18364 18365 18366 18367 18368 18369 18370 18371 18372 18373 18374 18375 18376 18377 18378 18379 18380 18381 18382 18383 18384 18385 18386 18387 18388 18389 18390 18391 18392 18393 18394 18395 18396 18397 18398 18399 18400 18401 18402 18403 18404 18405 18406 18407 18408 18409 18410 18411 18412 18413 18414 18415 18416 18417 18418 18419 18420 18421 18422 18423 18424 18425 18426 18427 18428 18429 18430 18431 18432 18433 18434 18435 18436 18437 18438 18439 18440 18441 18442 18443 18444 18445 18446 18447 18448 18449 18450 18451 18452 18453 18454 18455 18456 18457 18458 18459 18460 18461 18462 18463 18464 18465 18466 18467 18468 18469 18470 18471 18472 18473 18474 18475 18476 18477 18478 18479 18480 18481 18482 18483 18484 18485 18486 18487 18488 18489 18490 18491 18492 18493 18494 18495 18496 18497 18498 18499 18500 18501 18502 18503 18504 18505 18506 18507 18508 18509 18510 18511 18512 18513 18514 18515 18516 18517 18518 18519 18520 18521 18522 18523 18524 18525 18526 18527 18528 18529 18530 18531 18532 18533 18534 18535 18536 18537 18538 18539 18540 18541 18542 18543 18544 18545 18546 18547 18548 18549 18550 18551 18552 18553 18554 18555 18556 18557 18558 18559 18560 18561 18562 18563 18564 18565 18566 18567 18568 18569 18570 18571 18572 18573 18574 18575 18576 18577 18578 18579 18580 18581 18582 18583 18584 18585 18586 18587 18588 18589 18590 18591 18592 18593 18594 18595 18596 18597 18598 18599 18600 18601 18602 18603 18604 18605 18606 18607 18608 18609 18610 18611 18612 18613 18614 18615 18616 18617 18618 18619 18620 18621 18622 18623 18624 18625 18626 18627 18628 18629 18630 18631 18632 18633 18634 18635 18636 18637 18638 18639 18640 18641 18642 18643 18644 18645 18646 18647 18648 18649 18650 18651 18652 18653 18654 18655 18656 18657 18658 18659 18660 18661 18662 18663 18664 18665 18666 18667 18668 18669 18670 18671 18672 18673 18674 18675 18676 18677 18678 18679 18680 18681 18682 18683 18684 18685 18686 18687 18688 18689 18690 18691 18692 18693 18694 18695 18696 18697 18698 18699 18700 18701 18702 18703 18704 18705 18706 18707 18708 18709 18710 18711 18712 18713 18714 18715 18716 18717 18718 18719 18720 18721 18722 18723 18724 18725 18726 18727 18728 18729 18730 18731 18732 18733 18734 18735 18736 18737 18738 18739 18740 18741 18742 18743 18744 18745 18746 18747 18748 18749 18750 18751 18752 18753 18754 18755 18756 18757 18758 18759 18760 18761 18762 18763 18764 18765 18766 18767 18768 18769 18770 18771 18772 18773 18774 18775 18776 18777 18778 18779 18780 18781 18782 18783 18784 18785 18786 18787 18788 18789 18790 18791 18792 18793 18794 18795 18796 18797 18798 18799 18800 18801 18802 18803 18804 18805 18806 18807 18808 18809 18810 18811 18812 18813 18814 18815 18816 18817 18818 18819 18820 18821 18822 18823 18824 18825 18826 18827 18828 18829 18830 18831 18832 18833 18834 18835 18836 18837 18838 18839 18840 18841 18842 18843 18844 18845 18846 18847 18848 18849 18850 18851 18852 18853 18854 18855 18856 18857 18858 18859 18860 18861 18862 18863 18864 18865 18866 18867 18868 18869 18870 18871 18872 18873 18874 18875 18876 18877 18878 18879 18880 18881 18882 18883 18884 18885 18886 18887 18888 18889 18890 18891 18892 18893 18894 18895 18896 18897 18898 18899 18900 18901 18902 18903 18904 18905 18906 18907 18908 18909 18910 18911 18912 18913 18914 18915 18916 18917 18918 18919 18920 18921 18922 18923 18924 18925 18926 18927 18928 18929 18930 18931 18932 18933 18934 18935 18936 18937 18938 18939 18940 18941 18942 18943 18944 18945 18946 18947 18948 18949 18950 18951 18952 18953 18954 18955 18956 18957 18958 18959 18960 18961 18962 18963 18964 18965 18966 18967 18968 18969 18970 18971 18972 18973 18974 18975 18976 18977 18978 18979 18980 18981 18982 18983 18984 18985 18986 18987 18988 18989 18990 18991 18992 18993 18994 18995 18996 18997 18998 18999 19000 19001 19002 19003 19004 19005 19006 19007 19008 19009 19010 19011 19012 19013 19014 19015 19016 19017 19018 19019 19020 19021 19022 19023 19024 19025 19026 19027 19028 19029 19030 19031 19032 19033 19034 19035 19036 19037 19038 19039 19040 19041 19042 19043 19044 19045 19046 19047 19048 19049 19050 19051 19052 19053 19054 19055 19056 19057 19058 19059 19060 19061 19062 19063 19064 19065 19066 19067 19068 19069 19070 19071 19072 19073 19074 19075 19076 19077 19078 19079 19080 19081 19082 19083 19084 19085 19086 19087 19088 19089 19090 19091 19092 19093 19094 19095 19096 19097 19098 19099 19100 19101 19102 19103 19104 19105 19106 19107 19108 19109 19110 19111 19112 19113 19114 19115 19116 19117 19118 19119 19120 19121 19122 19123 19124 19125 19126 19127 19128 19129 19130 19131 19132 19133 19134 19135 19136 19137 19138 19139 19140 19141 19142 19143 19144 19145 19146 19147 19148 19149 19150 19151 19152 19153 19154 19155 19156 19157 19158 19159 19160 19161 19162 19163 19164 19165 19166 19167 19168 19169 19170 19171 19172 19173 19174 19175 19176 19177 19178 19179 19180 19181 19182 19183 19184 19185 19186 19187 19188 19189 19190 19191 19192 19193 19194 19195 19196 19197 19198 19199 19200 19201 19202 19203 19204 19205 19206 19207 19208 19209 19210 19211 19212 19213 19214 19215 19216 19217 19218 19219 19220 19221 19222 19223 19224 19225 19226 19227 19228 19229 19230 19231 19232 19233 19234 19235 19236 19237 19238 19239 19240 19241 19242 19243 19244 19245 19246 19247 19248 19249 19250 19251 19252 19253 19254 19255 19256 19257 19258 19259 19260 19261 19262 19263 19264 19265 19266 19267 19268 19269 19270 19271 19272 19273 19274 19275 19276 19277 19278 19279 19280 19281 19282 19283 19284 19285 19286 19287 19288 19289 19290 19291 19292 19293 19294 19295 19296 19297 19298 19299 19300 19301 19302 19303 19304 19305 19306 19307 19308 19309 19310 19311 19312 19313 19314 19315 19316 19317 19318 19319 19320 19321 19322 19323 19324 19325 19326 19327 19328 19329 19330 19331 19332 19333 19334 19335 19336 19337 19338 19339 19340 19341 19342 19343 19344 19345 19346 19347 19348 19349 19350 19351 19352 19353 19354 19355 19356 19357 19358 19359 19360 19361 19362 19363 19364 19365 19366 19367 19368 19369 19370 19371 19372 19373 19374 19375 19376 19377 19378 19379 19380 19381 19382 19383 19384 19385 19386 19387 19388 19389 19390 19391 19392 19393 19394 19395 19396 19397 19398 19399 19400 19401 19402 19403 19404 19405 19406 19407 19408 19409 19410 19411 19412 19413 19414 19415 19416 19417 19418 19419 19420 19421 19422 19423 19424 19425 19426 19427 19428 19429 19430 19431 19432 19433 19434 19435 19436 19437 19438 19439 19440 19441 19442 19443 19444 19445 19446 19447 19448 19449 19450 19451 19452 19453 19454 19455 19456 19457 19458 19459 19460 19461 19462 19463 19464 19465 19466 19467 19468 19469 19470 19471 19472 19473 19474 19475 19476 19477 19478 19479 19480 19481 19482 19483 19484 19485 19486 19487 19488 19489 19490 19491 19492 19493 19494 19495 19496 19497 19498 19499 19500 19501 19502 19503 19504 19505 19506 19507 19508 19509 19510 19511 19512 19513 19514 19515 19516 19517 19518 19519 19520 19521 19522 19523 19524 19525 19526 19527 19528 19529 19530 19531 19532 19533 19534 19535 19536 19537 19538 19539 19540 19541 19542 19543 19544 19545 19546 19547 19548 19549 19550 19551 19552 19553 19554 19555 19556 19557 19558 19559 19560 19561 19562 19563 19564 19565 19566 19567 19568 19569 19570 19571 19572 19573 19574 19575 19576 19577 19578 19579 19580 19581 19582 19583 19584 19585 19586 19587 19588 19589 19590 19591 19592 19593 19594 19595 19596 19597 19598 19599 19600 19601 19602 19603 19604 19605 19606 19607 19608 19609 19610 19611 19612 19613 19614 19615 19616 19617 19618 19619 19620 19621 19622 19623 19624 19625 19626 19627 19628 19629 19630 19631 19632 19633 19634 19635 19636 19637 19638 19639 19640 19641 19642 19643 19644 19645 19646 19647 19648 19649 19650 19651 19652 19653 19654 19655 19656 19657 19658 19659 19660 19661 19662 19663 19664 19665 19666 19667 19668 19669 19670 19671 19672 19673 19674 19675 19676 19677 19678 19679 19680 19681 19682 19683 19684 19685 19686 19687 19688 19689 19690 19691 19692 19693 19694 19695 19696 19697 19698 19699 19700 19701 19702 19703 19704 19705 19706 19707 19708 19709 19710 19711 19712 19713 19714 19715 19716 19717 19718 19719 19720 19721 19722 19723 19724 19725 19726 19727 19728 19729 19730 19731 19732 19733 19734 19735 19736 19737 19738 19739 19740 19741 19742 19743 19744 19745 19746 19747 19748 19749 19750 19751 19752 19753 19754 19755 19756 19757 19758 19759 19760 19761 19762 19763 19764 19765 19766 19767 19768 19769 19770 19771 19772 19773 19774 19775 19776 19777 19778 19779 19780 19781 19782 19783 19784 19785 19786 19787 19788 19789 19790 19791 19792 19793 19794 19795 19796 19797 19798 19799 19800 19801 19802 19803 19804 19805 19806 19807 19808 19809 19810 19811 19812 19813 19814 19815 19816 19817 19818 19819 19820 19821 19822 19823 19824 19825 19826 19827 19828 19829 19830 19831 19832 19833 19834 19835 19836 19837 19838 19839 19840 19841 19842 19843 19844 19845 19846 19847 19848 19849 19850 19851 19852 19853 19854 19855 19856 19857 19858 19859 19860 19861 19862 19863 19864 19865 19866 19867 19868 19869 19870 19871 19872 19873 19874 19875 19876 19877 19878 19879 19880 19881 19882 19883 19884 19885 19886 19887 19888 19889 19890 19891 19892 19893 19894 19895 19896 19897 19898 19899 19900 19901 19902 19903 19904 19905 19906 19907 19908 19909 19910 19911 19912 19913 19914 19915 19916 19917 19918 19919 19920 19921 19922 19923 19924 19925 19926 19927 19928 19929 19930 19931 19932 19933 19934 19935 19936 19937 19938 19939 19940 19941 19942 19943 19944 19945 19946 19947 19948 19949 19950 19951 19952 19953 19954 19955 19956 19957 19958 19959 19960 19961 19962 19963 19964 19965 19966 19967 19968 19969 19970 19971 19972 19973 19974 19975 19976 19977 19978 19979 19980 19981 19982 19983 19984 19985 19986 19987 19988 19989 19990 19991 19992 19993 19994 19995 19996 19997 19998 19999 20000 20001 20002 20003 20004 20005 20006 20007 20008 20009 20010 20011 20012 20013 20014 20015 20016 20017 20018 20019 20020 20021 20022 20023 20024 20025 20026 20027 20028 20029 20030 20031 20032 20033 20034 20035 20036 20037 20038 20039 20040 20041 20042 20043 20044 20045 20046 20047 20048 20049 20050 20051 20052 20053 20054 20055 20056 20057 20058 20059 20060 20061 20062 20063 20064 20065 20066 20067 20068 20069 20070 20071 20072 20073 20074 20075 20076 20077 20078 20079 20080 20081 20082 20083 20084 20085 20086 20087 20088 20089 20090 20091 20092 20093 20094 20095 20096 20097 20098 20099 20100 20101 20102 20103 20104 20105 20106 20107 20108 20109 20110 20111 20112 20113 20114 20115 20116 20117 20118 20119 20120 20121 20122 20123 20124 20125 20126 20127 20128 20129 20130 20131 20132 20133 20134 20135 20136 20137 20138 20139 20140 20141 20142 20143 20144 20145 20146 20147 20148 20149 20150 20151 20152 20153 20154 20155 20156 20157 20158 20159 20160 20161 20162 20163 20164 20165 20166 20167 20168 20169 20170 20171 20172 20173 20174 20175 20176 20177 20178 20179 20180 20181 20182 20183 20184 20185 20186 20187 20188 20189 20190 20191 20192 20193 20194 20195 20196 20197 20198 20199 20200 20201 20202 20203 20204 20205 20206 20207 20208 20209 20210 20211 20212 20213 20214 20215 20216 20217 20218 20219 20220 20221 20222 20223 20224 20225 20226 20227 20228 20229 20230 20231 20232 20233 20234 20235 20236 20237 20238 20239 20240 20241 20242 20243 20244 20245 20246 20247 20248 20249 20250 20251 20252 20253 20254 20255 20256 20257 20258 20259 20260 20261 20262 20263 20264 20265 20266 20267 20268 20269 20270 20271 20272 20273 20274 20275 20276 20277 20278 20279 20280 20281 20282 20283 20284 20285 20286 20287 20288 20289 20290 20291 20292 20293 20294 20295 20296 20297 20298 20299 20300 20301 20302 20303 20304 20305 20306 20307 20308 20309 20310 20311 20312 20313 20314 20315 20316 20317 20318 20319 20320 20321 20322 20323 20324 20325 20326 20327 20328 20329 20330 20331 20332 20333 20334 20335 20336 20337 20338 20339 20340 20341 20342 20343 20344 20345 20346 20347 20348 20349 20350 20351 20352 20353 20354 20355 20356 20357 20358 20359 20360 20361 20362 20363 20364 20365 20366 20367 20368 20369 20370 20371 20372 20373 20374 20375 20376 20377 20378 20379 20380 20381 20382 20383 20384 20385 20386 20387 20388 20389 20390 20391 20392 20393 20394 20395 20396 20397 20398 20399 20400 20401 20402 20403 20404 20405 20406 20407 20408 20409 20410 20411 20412 20413 20414 20415 20416 20417 20418 20419 20420 20421 20422 20423 20424 20425 20426 20427 20428 20429 20430 20431 20432 20433 20434 20435 20436 20437 20438 20439 20440 20441 20442 20443 20444 20445 20446 20447 20448 20449 20450 20451 20452 20453 20454 20455 20456 20457 20458 20459 20460 20461 20462 20463 20464 20465 20466 20467 20468 20469 20470 20471 20472 20473 20474 20475 20476 20477 20478 20479 20480 20481 20482 20483 20484 20485 20486 20487 20488 20489 20490 20491 20492 20493 20494 20495 20496 20497 20498 20499 20500 20501 20502 20503 20504 20505 20506 20507 20508 20509 20510 20511 20512 20513 20514 20515 20516 20517 20518 20519 20520 20521 20522 20523 20524 20525 20526 20527 20528 20529 20530 20531 20532 20533 20534 20535 20536 20537 20538 20539 20540 20541 20542 20543 20544 20545 20546 20547 20548 20549 20550 20551 20552 20553 20554 20555 20556 20557 20558 20559 20560 20561 20562 20563 20564 20565 20566 20567 20568 20569 20570 20571 20572 20573 20574 20575 20576 20577 20578 20579 20580 20581 20582 20583 20584 20585 20586 20587 20588 20589 20590 20591 20592 20593 20594 20595 20596 20597 20598 20599 20600 20601 20602 20603 20604 20605 20606 20607 20608 20609 20610 20611 20612 20613 20614 20615 20616 20617 20618 20619 20620 20621 20622 20623 20624 20625 20626 20627 20628 20629 20630 20631 20632 20633 20634 20635 20636 20637 20638 20639 20640 20641 20642 20643 20644 20645 20646 20647 20648 20649 20650 20651 20652 20653 20654 20655 20656 20657 20658 20659 20660 20661 20662 20663 20664 20665 20666 20667 20668 20669 20670 20671 20672 20673 20674 20675 20676 20677 20678 20679 20680 20681 20682 20683 20684 20685 20686 20687 20688 20689 20690 20691 20692 20693 20694 20695 20696 20697 20698 20699 20700 20701 20702 20703 20704 20705 20706 20707 20708 20709 20710 20711 20712 20713 20714 20715 20716 20717 20718 20719 20720 20721 20722 20723 20724 20725 20726 20727 20728 20729 20730 20731 20732 20733 20734 20735 20736 20737 20738 20739 20740 20741 20742 20743 20744 20745 20746 20747 20748 20749 20750 20751 20752 20753 20754 20755 20756 20757 20758 20759 20760 20761 20762 20763 20764 20765 20766 20767 20768 20769 20770 20771 20772 20773 20774 20775 20776 20777 20778 20779 20780 20781 20782 20783 20784 20785 20786 20787 20788 20789 20790 20791 20792 20793 20794 20795 20796 20797 20798 20799 20800 20801 20802 20803 20804 20805 20806 20807 20808 20809 20810 20811 20812 20813 20814 20815 20816 20817 20818 20819 20820 20821 20822 20823 20824 20825 20826 20827 20828 20829 20830 20831 20832 20833 20834 20835 20836 20837 20838 20839 20840 20841 20842 20843 20844 20845 20846 20847 20848 20849 20850 20851 20852 20853 20854 20855 20856 20857 20858 20859 20860 20861 20862 20863 20864 20865 20866 20867 20868 20869 20870 20871 20872 20873 20874 20875 20876 20877 20878 20879 20880 20881 20882 20883 20884 20885 20886 20887 20888 20889 20890 20891 20892 20893 20894 20895 20896 20897 20898 20899 20900 20901 20902 20903 20904 20905 20906 20907 20908 20909 20910 20911 20912 20913 20914 20915 20916 20917 20918 20919 20920 20921 20922 20923 20924 20925 20926 20927 20928 20929 20930 20931 20932 20933 20934 20935 20936 20937 20938 20939 20940 20941 20942 20943 20944 20945 20946 20947 20948 20949 20950 20951 20952 20953 20954 20955 20956 20957 20958 20959 20960 20961 20962 20963 20964 20965 20966 20967 20968 20969 20970 20971 20972 20973 20974 20975 20976 20977 20978 20979 20980 20981 20982 20983 20984 20985 20986 20987 20988 20989 20990 20991 20992 20993 20994 20995 20996 20997 20998 20999 21000 21001 21002 21003 21004 21005 21006 21007 21008 21009 21010 21011 21012 21013 21014 21015 21016 21017 21018 21019 21020 21021 21022 21023 21024 21025 21026 21027 21028 21029 21030 21031 21032 21033 21034 21035 21036 21037 21038 21039 21040 21041 21042 21043 21044 21045 21046 21047 21048 21049 21050 21051 21052 21053 21054 21055 21056 21057 21058 21059 21060 21061 21062 21063 21064 21065 21066 21067 21068 21069 21070 21071 21072 21073 21074 21075 21076 21077 21078 21079 21080 21081 21082 21083 21084 21085 21086 21087 21088 21089 21090 21091 21092 21093 21094 21095 21096 21097 21098 21099 21100 21101 21102 21103 21104 21105 21106 21107 21108 21109 21110 21111 21112 21113 21114 21115 21116 21117 21118 21119 21120 21121 21122 21123 21124 21125 21126 21127 21128 21129 21130 21131 21132 21133 21134 21135 21136 21137 21138 21139 21140 21141 21142 21143 21144 21145 21146 21147 21148 21149 21150 21151 21152 21153 21154 21155 21156 21157 21158 21159 21160 21161 21162 21163 21164 21165 21166 21167 21168 21169 21170 21171 21172 21173 21174 21175 21176 21177 21178 21179 21180 21181 21182 21183 21184 21185 21186 21187 21188 21189 21190 21191 21192 21193 21194 21195 21196 21197 21198 21199 21200 21201 21202 21203 21204 21205 21206 21207 21208 21209 21210 21211 21212 21213 21214 21215 21216 21217 21218 21219 21220 21221 21222 21223 21224 21225 21226 21227 21228 21229 21230 21231 21232 21233 21234 21235 21236 21237 21238 21239 21240 21241 21242 21243 21244 21245 21246 21247 21248 21249 21250 21251 21252 21253 21254 21255 21256 21257 21258 21259 21260 21261 21262 21263 21264 21265 21266 21267 21268 21269 21270 21271 21272 21273 21274 21275 21276 21277 21278 21279 21280 21281 21282 21283 21284 21285 21286 21287 21288 21289 21290 21291 21292 21293 21294 21295 21296 21297 21298 21299 21300 21301 21302 21303 21304 21305 21306 21307 21308 21309 21310 21311 21312 21313 21314 21315 21316 21317 21318 21319 21320 21321 21322 21323 21324 21325 21326 21327 21328 21329 21330 21331 21332 21333 21334 21335 21336 21337 21338 21339 21340 21341 21342 21343 21344 21345 21346 21347 21348 21349 21350 21351 21352 21353 21354 21355 21356 21357 21358 21359 21360 21361 21362 21363 21364 21365 21366 21367 21368 21369 21370 21371 21372 21373 21374 21375 21376 21377 21378 21379 21380 21381 21382 21383 21384 21385 21386 21387 21388 21389 21390 21391 21392 21393 21394 21395 21396 21397 21398 21399 21400 21401 21402 21403 21404 21405 21406 21407 21408 21409 21410 21411 21412 21413 21414 21415 21416 21417 21418 21419 21420 21421 21422 21423 21424 21425 21426 21427 21428 21429 21430 21431 21432 21433 21434 21435 21436 21437 21438 21439 21440 21441 21442 21443 21444 21445 21446 21447 21448 21449 21450 21451 21452 21453 21454 21455 21456 21457 21458 21459 21460 21461 21462 21463 21464 21465 21466 21467 21468 21469 21470 21471 21472 21473 21474 21475 21476 21477 21478 21479 21480 21481 21482 21483 21484 21485 21486 21487 21488 21489 21490 21491 21492 21493 21494 21495 21496 21497 21498 21499 21500 21501 21502 21503 21504 21505 21506 21507 21508 21509 21510 21511 21512 21513 21514 21515 21516 21517 21518 21519 21520 21521 21522 21523 21524 21525 21526 21527 21528 21529 21530 21531 21532 21533 21534 21535 21536 21537 21538 21539 21540 21541 21542 21543 21544 21545 21546 21547 21548 21549 21550 21551 21552 21553 21554 21555 21556 21557 21558 21559 21560 21561 21562 21563 21564 21565 21566 21567 21568 21569 21570 21571 21572 21573 21574 21575 21576 21577 21578 21579 21580 21581 21582 21583 21584 21585 21586 21587 21588 21589 21590 21591 21592 21593 21594 21595 21596 21597 21598 21599 21600 21601 21602 21603 21604 21605 21606 21607 21608 21609 21610 21611 21612 21613 21614 21615 21616 21617 21618 21619 21620 21621 21622 21623 21624 21625 21626 21627 21628 21629 21630 21631 21632 21633 21634 21635 21636 21637 21638 21639 21640 21641 21642 21643 21644 21645 21646 21647 21648 21649 21650 21651 21652 21653 21654 21655 21656 21657 21658 21659 21660 21661 21662 21663 21664 21665 21666 21667 21668 21669 21670 21671 21672 21673 21674 21675 21676 21677 21678 21679 21680 21681 21682 21683 21684 21685 21686 21687 21688 21689 21690 21691 21692 21693 21694 21695 21696 21697 21698 21699 21700 21701 21702 21703 21704 21705 21706 21707 21708 21709 21710 21711 21712 21713 21714 21715 21716 21717 21718 21719 21720 21721 21722 21723 21724 21725 21726 21727 21728 21729 21730 21731 21732 21733 21734 21735 21736 21737 21738 21739 21740 21741 21742 21743 21744 21745 21746 21747 21748 21749 21750 21751 21752 21753 21754 21755 21756 21757 21758 21759 21760 21761 21762 21763 21764 21765 21766 21767 21768 21769 21770 21771 21772 21773 21774 21775 21776 21777 21778 21779 21780 21781 21782 21783 21784 21785 21786 21787 21788 21789 21790 21791 21792 21793 21794 21795 21796 21797 21798 21799 21800 21801 21802 21803 21804 21805 21806 21807 21808 21809 21810 21811 21812 21813 21814 21815 21816 21817 21818 21819 21820 21821 21822 21823 21824 21825 21826 21827 21828 21829 21830 21831 21832 21833 21834 21835 21836 21837 21838 21839 21840 21841 21842 21843 21844 21845 21846 21847 21848 21849 21850 21851 21852 21853 21854 21855 21856 21857 21858 21859 21860 21861 21862 21863 21864 21865 21866 21867 21868 21869 21870 21871 21872 21873 21874 21875 21876 21877 21878 21879 21880 21881 21882 21883 21884 21885 21886 21887 21888 21889 21890 21891 21892 21893 21894 21895 21896 21897 21898 21899 21900 21901 21902 21903 21904 21905 21906 21907 21908 21909 21910 21911 21912 21913 21914 21915 21916 21917 21918 21919 21920 21921 21922 21923 21924 21925 21926 21927 21928 21929 21930 21931 21932 21933 21934 21935 21936 21937 21938 21939 21940 21941 21942 21943 21944 21945 21946 21947 21948 21949 21950 21951 21952 21953 21954 21955 21956 21957 21958 21959 21960 21961 21962 21963 21964 21965 21966 21967 21968 21969 21970 21971 21972 21973 21974 21975 21976 21977 21978 21979 21980 21981 21982 21983 21984 21985 21986 21987 21988 21989 21990 21991 21992 21993 21994 21995 21996 21997 21998 21999 22000 22001 22002 22003 22004 22005 22006 22007 22008 22009 22010 22011 22012 22013 22014 22015 22016 22017 22018 22019 22020 22021 22022 22023 22024 22025 22026 22027 22028 22029 22030 22031 22032 22033 22034 22035 22036 22037 22038 22039 22040 22041 22042 22043 22044 22045 22046 22047 22048 22049 22050 22051 22052 22053 22054 22055 22056 22057 22058 22059 22060 22061 22062 22063 22064 22065 22066 22067 22068 22069 22070 22071 22072 22073 22074 22075 22076 22077 22078 22079 22080 22081 22082 22083 22084 22085 22086 22087 22088 22089 22090 22091 22092 22093 22094 22095 22096 22097 22098 22099 22100 22101 22102 22103 22104 22105 22106 22107 22108 22109 22110 22111 22112 22113 22114 22115 22116 22117 22118 22119 22120 22121 22122 22123 22124 22125 22126 22127 22128 22129 22130 22131 22132 22133 22134 22135 22136 22137 22138 22139 22140 22141 22142 22143 22144 22145 22146 22147 22148 22149 22150 22151 22152 22153 22154 22155 22156 22157 22158 22159 22160 22161 22162 22163 22164 22165 22166 22167 22168 22169 22170 22171 22172 22173 22174 22175 22176 22177 22178 22179 22180 22181 22182 22183 22184 22185 22186 22187 22188 22189 22190 22191 22192 22193 22194 22195 22196 22197 22198 22199 22200 22201 22202 22203 22204 22205 22206 22207 22208 22209 22210 22211 22212 22213 22214 22215 22216 22217 22218 22219 22220 22221 22222 22223 22224 22225 22226 22227 22228 22229 22230 22231 22232 22233 22234 22235 22236 22237 22238 22239 22240 22241 22242 22243 22244 22245 22246 22247 22248 22249 22250 22251 22252 22253 22254 22255 22256 22257 22258 22259 22260 22261 22262 22263 22264 22265 22266 22267 22268 22269 22270 22271 22272 22273 22274 22275 22276 22277 22278 22279 22280 22281 22282 22283 22284 22285 22286 22287 22288 22289 22290 22291 22292 22293 22294 22295 22296 22297 22298 22299 22300 22301 22302 22303 22304 22305 22306 22307 22308 22309 22310 22311 22312 22313 22314 22315 22316 22317 22318 22319 22320 22321 22322 22323 22324 22325 22326 22327 22328 22329 22330 22331 22332 22333 22334 22335 22336 22337 22338 22339 22340 22341 22342 22343 22344 22345 22346 22347 22348 22349 22350 22351 22352 22353 22354 22355 22356 22357 22358 22359 22360 22361 22362 22363 22364 22365 22366 22367 22368 22369 22370 22371 22372 22373 22374 22375 22376 22377 22378 22379 22380 22381 22382 22383 22384 22385 22386 22387 22388 22389 22390 22391 22392 22393 22394 22395 22396 22397 22398 22399 22400 22401 22402 22403 22404 22405 22406 22407 22408 22409 22410 22411 22412 22413 22414 22415 22416 22417 22418 22419 22420 22421 22422 22423 22424 22425 22426 22427 22428 22429 22430 22431 22432 22433 22434 22435 22436 22437 22438 22439 22440 22441 22442 22443 22444 22445 22446 22447 22448 22449 22450 22451 22452 22453 22454 22455 22456 22457 22458 22459 22460 22461 22462 22463 22464 22465 22466 22467 22468 22469 22470 22471 22472 22473 22474 22475 22476 22477 22478 22479 22480 22481 22482 22483 22484 22485 22486 22487 22488 22489 22490 22491 22492 22493 22494 22495 22496 22497 22498 22499 22500 22501 22502 22503 22504 22505 22506 22507 22508 22509 22510 22511 22512 22513 22514 22515 22516 22517 22518 22519 22520 22521 22522 22523 22524 22525 22526 22527 22528 22529 22530 22531 22532 22533 22534 22535 22536 22537 22538 22539 22540 22541 22542 22543 22544 22545 22546 22547 22548 22549 22550 22551 22552 22553 22554 22555 22556 22557 22558 22559 22560 22561 22562 22563 22564 22565 22566 22567 22568 22569 22570 22571 22572 22573 22574 22575 22576 22577 22578 22579 22580 22581 22582 22583 22584 22585 22586 22587 22588 22589 22590 22591 22592 22593 22594 22595 22596 22597 22598 22599 22600 22601 22602 22603 22604 22605 22606 22607 22608 22609 22610 22611 22612 22613 22614 22615 22616 22617 22618 22619 22620 22621 22622 22623 22624 22625 22626 22627 22628 22629 22630 22631 22632 22633 22634 22635 22636 22637 22638 22639 22640 22641 22642 22643 22644 22645 22646 22647 22648 22649 22650 22651 22652 22653 22654 22655 22656 22657 22658 22659 22660 22661 22662 22663 22664 22665 22666 22667 22668 22669 22670 22671 22672 22673 22674 22675 22676 22677 22678 22679 22680 22681 22682 22683 22684 22685 22686 22687 22688 22689 22690 22691 22692 22693 22694 22695 22696 22697 22698 22699 22700 22701 22702 22703 22704 22705 22706 22707 22708 22709 22710 22711 22712 22713 22714 22715 22716 22717 22718 22719 22720 22721 22722 22723 22724 22725 22726 22727 22728 22729 22730 22731 22732 22733 22734 22735 22736 22737 22738 22739 22740 22741 22742 22743 22744 22745 22746 22747 22748 22749 22750 22751 22752 22753 22754 22755 22756 22757 22758 22759 22760 22761 22762 22763 22764 22765 22766 22767 22768 22769 22770 22771 22772 22773 22774 22775 22776 22777 22778 22779 22780 22781 22782 22783 22784 22785 22786 22787 22788 22789 22790 22791 22792 22793 22794 22795 22796 22797 22798 22799 22800 22801 22802 22803 22804 22805 22806 22807 22808 22809 22810 22811 22812 22813 22814 22815 22816 22817 22818 22819 22820 22821 22822 22823 22824 22825 22826 22827 22828 22829 22830 22831 22832 22833 22834 22835 22836 22837 22838 22839 22840 22841 22842 22843 22844 22845 22846 22847 22848 22849 22850 22851 22852 22853 22854 22855 22856 22857 22858 22859 22860 22861 22862 22863 22864 22865 22866 22867 22868 22869 22870 22871 22872 22873 22874 22875 22876 22877 22878 22879 22880 22881 22882 22883 22884 22885 22886 22887 22888 22889 22890 22891 22892 22893 22894 22895 22896 22897 22898 22899 22900 22901 22902 22903 22904 22905 22906 22907 22908 22909 22910 22911 22912 22913 22914 22915 22916 22917 22918 22919 22920 22921 22922 22923 22924 22925 22926 22927 22928 22929 22930 22931 22932 22933 22934 22935 22936 22937 22938 22939 22940 22941 22942 22943 22944 22945 22946 22947 22948 22949 22950 22951 22952 22953 22954 22955 22956 22957 22958 22959 22960 22961 22962 22963 22964 22965 22966 22967 22968 22969 22970 22971 22972 22973 22974 22975 22976 22977 22978 22979 22980 22981 22982 22983 22984 22985 22986 22987 22988 22989 22990 22991 22992 22993 22994 22995 22996 22997 22998 22999 23000 23001 23002 23003 23004 23005 23006 23007 23008 23009 23010 23011 23012 23013 23014 23015 23016 23017 23018 23019 23020 23021 23022 23023 23024 23025 23026 23027 23028 23029 23030 23031 23032 23033 23034 23035 23036 23037 23038 23039 23040 23041 23042 23043 23044 23045 23046 23047 23048 23049 23050 23051 23052 23053 23054 23055 23056 23057 23058 23059 23060 23061 23062 23063 23064 23065 23066 23067 23068 23069 23070 23071 23072 23073 23074 23075 23076 23077 23078 23079 23080 23081 23082 23083 23084 23085 23086 23087 23088 23089 23090 23091 23092 23093 23094 23095 23096 23097 23098 23099 23100 23101 23102 23103 23104 23105 23106 23107 23108 23109 23110 23111 23112 23113 23114 23115 23116 23117 23118 23119 23120 23121 23122 23123 23124 23125 23126 23127 23128 23129 23130 23131 23132 23133 23134 23135 23136 23137 23138 23139 23140 23141 23142 23143 23144 23145 23146 23147 23148 23149 23150 23151 23152 23153 23154 23155 23156 23157 23158 23159 23160 23161 23162 23163 23164 23165 23166 23167 23168 23169 23170 23171 23172 23173 23174 23175 23176 23177 23178 23179 23180 23181 23182 23183 23184 23185 23186 23187 23188 23189 23190 23191 23192 23193 23194 23195 23196 23197 23198 23199 23200 23201 23202 23203 23204 23205 23206 23207 23208 23209 23210 23211 23212 23213 23214 23215 23216 23217 23218 23219 23220 23221 23222 23223 23224 23225 23226 23227 23228 23229 23230 23231 23232 23233 23234 23235 23236 23237 23238 23239 23240 23241 23242 23243 23244 23245 23246 23247 23248 23249 23250 23251 23252 23253 23254 23255 23256 23257 23258 23259 23260 23261 23262 23263 23264 23265 23266 23267 23268 23269 23270 23271 23272 23273 23274 23275 23276 23277 23278 23279 23280 23281 23282 23283 23284 23285 23286 23287 23288 23289 23290 23291 23292 23293 23294 23295 23296 23297 23298 23299 23300 23301 23302 23303 23304 23305 23306 23307 23308 23309 23310 23311 23312 23313 23314 23315 23316 23317 23318 23319 23320 23321 23322 23323 23324 23325 23326 23327 23328 23329 23330 23331 23332 23333 23334 23335 23336 23337 23338 23339 23340 23341 23342 23343 23344 23345 23346 23347 23348 23349 23350 23351 23352 23353 23354 23355 23356 23357 23358 23359 23360 23361 23362 23363 23364 23365 23366 23367 23368 23369 23370 23371 23372 23373 23374 23375 23376 23377 23378 23379 23380 23381 23382 23383 23384 23385 23386 23387 23388 23389 23390 23391 23392 23393 23394 23395 23396 23397 23398 23399 23400 23401 23402 23403 23404 23405 23406 23407 23408 23409 23410 23411 23412 23413 23414 23415 23416 23417 23418 23419 23420 23421 23422 23423 23424 23425 23426 23427 23428 23429 23430 23431 23432 23433 23434 23435 23436 23437 23438 23439 23440 23441 23442 23443 23444 23445 23446 23447 23448 23449 23450 23451 23452 23453 23454 23455 23456 23457 23458 23459 23460 23461 23462 23463 23464 23465 23466 23467 23468 23469 23470 23471 23472 23473 23474 23475 23476 23477 23478 23479 23480 23481 23482 23483 23484 23485 23486 23487 23488 23489 23490 23491 23492 23493 23494 23495 23496 23497 23498 23499 23500 23501 23502 23503 23504 23505 23506 23507 23508 23509 23510 23511 23512 23513 23514 23515 23516 23517 23518 23519 23520 23521 23522 23523 23524 23525 23526 23527 23528 23529 23530 23531 23532 23533 23534 23535 23536 23537 23538 23539 23540 23541 23542 23543 23544 23545 23546 23547 23548 23549 23550 23551 23552 23553 23554 23555 23556 23557 23558 23559 23560 23561 23562 23563 23564 23565 23566 23567 23568 23569 23570 23571 23572 23573 23574 23575 23576 23577 23578 23579 23580 23581 23582 23583 23584 23585 23586 23587 23588 23589 23590 23591 23592 23593 23594 23595 23596 23597 23598 23599 23600 23601 23602 23603 23604 23605 23606 23607 23608 23609 23610 23611 23612 23613 23614 23615 23616 23617 23618 23619 23620 23621 23622 23623 23624 23625 23626 23627 23628 23629 23630 23631 23632 23633 23634 23635 23636 23637 23638 23639 23640 23641 23642 23643 23644 23645 23646 23647 23648 23649 23650 23651 23652 23653 23654 23655 23656 23657 23658 23659 23660 23661 23662 23663 23664 23665 23666 23667 23668 23669 23670 23671 23672 23673 23674 23675 23676 23677 23678 23679 23680 23681 23682 23683 23684 23685 23686 23687 23688 23689 23690 23691 23692 23693 23694 23695 23696 23697 23698 23699 23700 23701 23702 23703 23704 23705 23706 23707 23708 23709 23710 23711 23712 23713 23714 23715 23716 23717 23718 23719 23720 23721 23722 23723 23724 23725 23726 23727 23728 23729 23730 23731 23732 23733 23734 23735 23736 23737 23738 23739 23740 23741 23742 23743 23744 23745 23746 23747 23748 23749 23750 23751 23752 23753 23754 23755 23756 23757 23758 23759 23760 23761 23762 23763 23764 23765 23766 23767 23768 23769 23770 23771 23772 23773 23774 23775 23776 23777 23778 23779 23780 23781 23782 23783 23784 23785 23786 23787 23788 23789 23790 23791 23792 23793 23794 23795 23796 23797 23798 23799 23800 23801 23802 23803 23804 23805 23806 23807 23808 23809 23810 23811 23812 23813 23814 23815 23816 23817 23818 23819 23820 23821 23822 23823 23824 23825 23826 23827 23828 23829 23830 23831 23832 23833 23834 23835 23836 23837 23838 23839 23840 23841 23842 23843 23844 23845 23846 23847 23848 23849 23850 23851 23852 23853 23854 23855 23856 23857 23858 23859 23860 23861 23862 23863 23864 23865 23866 23867 23868 23869 23870 23871 23872 23873 23874 23875 23876 23877 23878 23879 23880 23881 23882 23883 23884 23885 23886 23887 23888 23889 23890 23891 23892 23893 23894 23895 23896 23897 23898 23899 23900 23901 23902 23903 23904 23905 23906 23907 23908 23909 23910 23911 23912 23913 23914 23915 23916 23917 23918 23919 23920 23921 23922 23923 23924 23925 23926 23927 23928 23929 23930 23931 23932 23933 23934 23935 23936 23937 23938 23939 23940 23941 23942 23943 23944 23945 23946 23947 23948 23949 23950 23951 23952 23953 23954 23955 23956 23957 23958 23959 23960 23961 23962 23963 23964 23965 23966 23967 23968 23969 23970 23971 23972 23973 23974 23975 23976 23977 23978 23979 23980 23981 23982 23983 23984 23985 23986 23987 23988 23989 23990 23991 23992 23993 23994 23995 23996 23997 23998 23999 24000 24001 24002 24003 24004 24005 24006 24007 24008 24009 24010 24011 24012 24013 24014 24015 24016 24017 24018 24019 24020 24021 24022 24023 24024 24025 24026 24027 24028 24029 24030 24031 24032 24033 24034 24035 24036 24037 24038 24039 24040 24041 24042 24043 24044 24045 24046 24047 24048 24049 24050 24051 24052 24053 24054 24055 24056 24057 24058 24059 24060 24061 24062 24063 24064 24065 24066 24067 24068 24069 24070 24071 24072 24073 24074 24075 24076 24077 24078 24079 24080 24081 24082 24083 24084 24085 24086 24087 24088 24089 24090 24091 24092 24093 24094 24095 24096 24097 24098 24099 24100 24101 24102 24103 24104 24105 24106 24107 24108 24109 24110 24111 24112 24113 24114 24115 24116 24117 24118 24119 24120 24121 24122 24123 24124 24125 24126 24127 24128 24129 24130 24131 24132 24133 24134 24135 24136 24137 24138 24139 24140 24141 24142 24143 24144 24145 24146 24147 24148 24149 24150 24151 24152 24153 24154 24155 24156 24157 24158 24159 24160 24161 24162 24163 24164 24165 24166 24167 24168 24169 24170 24171 24172 24173 24174 24175 24176 24177 24178 24179 24180 24181 24182 24183 24184 24185 24186 24187 24188 24189 24190 24191 24192 24193 24194 24195 24196 24197 24198 24199 24200 24201 24202 24203 24204 24205 24206 24207 24208 24209 24210 24211 24212 24213 24214 24215 24216 24217 24218 24219 24220 24221 24222 24223 24224 24225 24226 24227 24228 24229 24230 24231 24232 24233 24234 24235 24236 24237 24238 24239 24240 24241 24242 24243 24244 24245 24246 24247 24248 24249 24250 24251 24252 24253 24254 24255 24256 24257 24258 24259 24260 24261 24262 24263 24264 24265 24266 24267 24268 24269 24270 24271 24272 24273 24274 24275 24276 24277 24278 24279 24280 24281 24282 24283 24284 24285 24286 24287 24288 24289 24290 24291 24292 24293 24294 24295 24296 24297 24298 24299 24300 24301 24302 24303 24304 24305 24306 24307 24308 24309 24310 24311 24312 24313 24314 24315 24316 24317 24318 24319 24320 24321 24322 24323 24324 24325 24326 24327 24328 24329 24330 24331 24332 24333 24334 24335 24336 24337 24338 24339 24340 24341 24342 24343 24344 24345 24346 24347 24348 24349 24350 24351 24352 24353 24354 24355 24356 24357 24358 24359 24360 24361 24362 24363 24364 24365 24366 24367 24368 24369 24370 24371 24372 24373 24374 24375 24376 24377 24378 24379 24380 24381 24382 24383 24384 24385 24386 24387 24388 24389 24390 24391 24392 24393 24394 24395 24396 24397 24398 24399 24400 24401 24402 24403 24404 24405 24406 24407 24408 24409 24410 24411 24412 24413 24414 24415 24416 24417 24418 24419 24420 24421 24422 24423 24424 24425 24426 24427 24428 24429 24430 24431 24432 24433 24434 24435 24436 24437 24438 24439 24440 24441 24442 24443 24444 24445 24446 24447 24448 24449 24450 24451 24452 24453 24454 24455 24456 24457 24458 24459 24460 24461 24462 24463 24464 24465 24466 24467 24468 24469 24470 24471 24472 24473 24474 24475 24476 24477 24478 24479 24480 24481 24482 24483 24484 24485 24486 24487 24488 24489 24490 24491 24492 24493 24494 24495 24496 24497 24498 24499 24500 24501 24502 24503 24504 24505 24506 24507 24508 24509 24510 24511 24512 24513 24514 24515 24516 24517 24518 24519 24520 24521 24522 24523 24524 24525 24526 24527 24528 24529 24530 24531 24532 24533 24534 24535 24536 24537 24538 24539 24540 24541 24542 24543 24544 24545 24546 24547 24548 24549 24550 24551 24552 24553 24554 24555 24556 24557 24558 24559 24560 24561 24562 24563 24564 24565 24566 24567 24568 24569 24570 24571 24572 24573 24574 24575 24576 24577 24578 24579 24580 24581 24582 24583 24584 24585 24586 24587 24588 24589 24590 24591 24592 24593 24594 24595 24596 24597 24598 24599 24600 24601 24602 24603 24604 24605 24606 24607 24608 24609 24610 24611 24612 24613 24614 24615 24616 24617 24618 24619 24620 24621 24622 24623 24624 24625 24626 24627 24628 24629 24630 24631 24632 24633 24634 24635 24636 24637 24638 24639 24640 24641 24642 24643 24644 24645 24646 24647 24648 24649 24650 24651 24652 24653 24654 24655 24656 24657 24658 24659 24660 24661 24662 24663 24664 24665 24666 24667 24668 24669 24670 24671 24672 24673 24674 24675 24676 24677 24678 24679 24680 24681 24682 24683 24684 24685 24686 24687 24688 24689 24690 24691 24692 24693 24694 24695 24696 24697 24698 24699 24700 24701 24702 24703 24704 24705 24706 24707 24708 24709 24710 24711 24712 24713 24714 24715 24716 24717 24718 24719 24720 24721 24722 24723 24724 24725 24726 24727 24728 24729 24730 24731 24732 24733 24734 24735 24736 24737 24738 24739 24740 24741 24742 24743 24744 24745 24746 24747 24748 24749 24750 24751 24752 24753 24754 24755 24756 24757 24758 24759 24760 24761 24762 24763 24764 24765 24766 24767 24768 24769 24770 24771 24772 24773 24774 24775 24776 24777 24778 24779 24780 24781 24782 24783 24784 24785 24786 24787 24788 24789 24790 24791 24792 24793 24794 24795 24796 24797 24798 24799 24800 24801 24802 24803 24804 24805 24806 24807 24808 24809 24810 24811 24812 24813 24814 24815 24816 24817 24818 24819 24820 24821 24822 24823 24824 24825 24826 24827 24828 24829 24830 24831 24832 24833 24834 24835 24836 24837 24838 24839 24840 24841 24842 24843 24844 24845 24846 24847 24848 24849 24850 24851 24852 24853 24854 24855 24856 24857 24858 24859 24860 24861 24862 24863 24864 24865 24866 24867 24868 24869 24870 24871 24872 24873 24874 24875 24876 24877 24878 24879 24880 24881 24882 24883 24884 24885 24886 24887 24888 24889 24890 24891 24892 24893 24894 24895 24896 24897 24898 24899 24900 24901 24902 24903 24904 24905 24906 24907 24908 24909 24910 24911 24912 24913 24914 24915 24916 24917 24918 24919 24920 24921 24922 24923 24924 24925 24926 24927 24928 24929 24930 24931 24932 24933 24934 24935 24936 24937 24938 24939 24940 24941 24942 24943 24944 24945 24946 24947 24948 24949 24950 24951 24952 24953 24954 24955 24956 24957 24958 24959 24960 24961 24962 24963 24964 24965 24966 24967 24968 24969 24970 24971 24972 24973 24974 24975 24976 24977 24978 24979 24980 24981 24982 24983 24984 24985 24986 24987 24988 24989 24990 24991 24992 24993 24994 24995 24996 24997 24998 24999 25000 25001 25002 25003 25004 25005 25006 25007 25008 25009 25010 25011 25012 25013 25014 25015 25016 25017 25018 25019 25020 25021 25022 25023 25024 25025 25026 25027 25028 25029 25030 25031 25032 25033 25034 25035 25036 25037 25038 25039 25040 25041 25042 25043 25044 25045 25046 25047 25048 25049 25050 25051 25052 25053 25054 25055 25056 25057 25058 25059 25060 25061 25062 25063 25064 25065 25066 25067 25068 25069 25070 25071 25072 25073 25074 25075 25076 25077 25078 25079 25080 25081 25082 25083 25084 25085 25086 25087 25088 25089 25090 25091 25092 25093 25094 25095 25096 25097 25098 25099 25100 25101 25102 25103 25104 25105 25106 25107 25108 25109 25110 25111 25112 25113 25114 25115 25116 25117 25118 25119 25120 25121 25122 25123 25124 25125 25126 25127 25128 25129 25130 25131 25132 25133 25134 25135 25136 25137 25138 25139 25140 25141 25142 25143 25144 25145 25146 25147 25148 25149 25150 25151 25152 25153 25154 25155 25156 25157 25158 25159 25160 25161 25162 25163 25164 25165 25166 25167 25168 25169 25170 25171 25172 25173 25174 25175 25176 25177 25178 25179 25180 25181 25182 25183 25184 25185 25186 25187 25188 25189 25190 25191 25192 25193 25194 25195 25196 25197 25198 25199 25200 25201 25202 25203 25204 25205 25206 25207 25208 25209 25210 25211 25212 25213 25214 25215 25216 25217 25218 25219 25220 25221 25222 25223 25224 25225 25226 25227 25228 25229 25230 25231 25232 25233 25234 25235 25236 25237 25238 25239 25240 25241 25242 25243 25244 25245 25246 25247 25248 25249 25250 25251 25252 25253 25254 25255 25256 25257 25258 25259 25260 25261 25262 25263 25264 25265 25266 25267 25268 25269 25270 25271 25272 25273 25274 25275 25276 25277 25278 25279 25280 25281 25282 25283 25284 25285 25286 25287 25288 25289 25290 25291 25292 25293 25294 25295 25296 25297 25298 25299 25300 25301 25302 25303 25304 25305 25306 25307 25308 25309 25310 25311 25312 25313 25314 25315 25316 25317 25318 25319 25320 25321 25322 25323 25324 25325 25326 25327 25328 25329 25330 25331 25332 25333 25334 25335 25336 25337 25338 25339 25340 25341 25342 25343 25344 25345 25346 25347 25348 25349 25350 25351 25352 25353 25354 25355 25356 25357 25358 25359 25360 25361 25362 25363 25364 25365 25366 25367 25368 25369 25370 25371 25372 25373 25374 25375 25376 25377 25378 25379 25380 25381 25382 25383 25384 25385 25386 25387 25388 25389 25390 25391 25392 25393 25394 25395 25396 25397 25398 25399 25400 25401 25402 25403 25404 25405 25406 25407 25408 25409 25410 25411 25412 25413 25414 25415 25416 25417 25418 25419 25420 25421 25422 25423 25424 25425 25426 25427 25428 25429 25430 25431 25432 25433 25434 25435 25436 25437 25438 25439 25440 25441 25442 25443 25444 25445 25446 25447 25448 25449 25450 25451 25452 25453 25454 25455 25456 25457 25458 25459 25460 25461 25462 25463 25464 25465 25466 25467 25468 25469 25470 25471 25472 25473 25474 25475 25476 25477 25478 25479 25480 25481 25482 25483 25484 25485 25486 25487 25488 25489 25490 25491 25492 25493 25494 25495 25496 25497 25498 25499 25500 25501 25502 25503 25504 25505 25506 25507 25508 25509 25510 25511 25512 25513 25514 25515 25516 25517 25518 25519 25520 25521 25522 25523 25524 25525 25526 25527 25528 25529 25530 25531 25532 25533 25534 25535 25536 25537 25538 25539 25540 25541 25542 25543 25544 25545 25546 25547 25548 25549 25550 25551 25552 25553 25554 25555 25556 25557 25558 25559 25560 25561 25562 25563 25564 25565 25566 25567 25568 25569 25570 25571 25572 25573 25574 25575 25576 25577 25578 25579 25580 25581 25582 25583 25584 25585 25586 25587 25588 25589 25590 25591 25592 25593 25594 25595 25596 25597 25598 25599 25600 25601 25602 25603 25604 25605 25606 25607 25608 25609 25610 25611 25612 25613 25614 25615 25616 25617 25618 25619 25620 25621 25622 25623 25624 25625 25626 25627 25628 25629 25630 25631 25632 25633 25634 25635 25636 25637 25638 25639 25640 25641 25642 25643 25644 25645 25646 25647 25648 25649 25650 25651 25652 25653 25654 25655 25656 25657 25658 25659 25660 25661 25662 25663 25664 25665 25666 25667 25668 25669 25670 25671 25672 25673 25674 25675 25676 25677 25678 25679 25680 25681 25682 25683 25684 25685 25686 25687 25688 25689 25690 25691 25692 25693 25694 25695 25696 25697 25698 25699 25700 25701 25702 25703 25704 25705 25706 25707 25708 25709 25710 25711 25712 25713 25714 25715 25716 25717 25718 25719 25720 25721 25722 25723 25724 25725 25726 25727 25728 25729 25730 25731 25732 25733 25734 25735 25736 25737 25738 25739 25740 25741 25742 25743 25744 25745 25746 25747 25748 25749 25750 25751 25752 25753 25754 25755 25756 25757 25758 25759 25760 25761 25762 25763 25764 25765 25766 25767 25768 25769 25770 25771 25772 25773 25774 25775 25776 25777 25778 25779 25780 25781 25782 25783 25784 25785 25786 25787 25788 25789 25790 25791 25792 25793 25794 25795 25796 25797 25798 25799 25800 25801 25802 25803 25804 25805 25806 25807 25808 25809 25810 25811 25812 25813 25814 25815 25816 25817 25818 25819 25820 25821 25822 25823 25824 25825 25826 25827 25828 25829 25830 25831 25832 25833 25834 25835 25836 25837 25838 25839 25840 25841 25842 25843 25844 25845 25846 25847 25848 25849 25850 25851 25852 25853 25854 25855 25856 25857 25858 25859 25860 25861 25862 25863 25864 25865 25866 25867 25868 25869 25870 25871 25872 25873 25874 25875 25876 25877 25878 25879 25880 25881 25882 25883 25884 25885 25886 25887 25888 25889 25890 25891 25892 25893 25894 25895 25896 25897 25898 25899 25900 25901 25902 25903 25904 25905 25906 25907 25908 25909 25910 25911 25912 25913 25914 25915 25916 25917 25918 25919 25920 25921 25922 25923 25924 25925 25926 25927 25928 25929 25930 25931 25932 25933 25934 25935 25936 25937 25938 25939 25940 25941 25942 25943 25944 25945 25946 25947 25948 25949 25950 25951 25952 25953 25954 25955 25956 25957 25958 25959 25960 25961 25962 25963 25964 25965 25966 25967 25968 25969 25970 25971 25972 25973 25974 25975 25976 25977 25978 25979 25980 25981 25982 25983 25984 25985 25986 25987 25988 25989 25990 25991 25992 25993 25994 25995 25996 25997 25998 25999 26000 26001 26002 26003 26004 26005 26006 26007 26008 26009 26010 26011 26012 26013 26014 26015 26016 26017 26018 26019 26020 26021 26022 26023 26024 26025 26026 26027 26028 26029 26030 26031 26032 26033 26034 26035 26036 26037 26038 26039 26040 26041 26042 26043 26044 26045 26046 26047 26048 26049 26050 26051 26052 26053 26054 26055 26056 26057 26058 26059 26060 26061 26062 26063 26064 26065 26066 26067 26068 26069 26070 26071 26072 26073 26074 26075 26076 26077 26078 26079 26080 26081 26082 26083 26084 26085 26086 26087 26088 26089 26090 26091 26092 26093 26094 26095 26096 26097 26098 26099 26100 26101 26102 26103 26104 26105 26106 26107 26108 26109 26110 26111 26112 26113 26114 26115 26116 26117 26118 26119 26120 26121 26122 26123 26124 26125 26126 26127 26128 26129 26130 26131 26132 26133 26134 26135 26136 26137 26138 26139 26140 26141 26142 26143 26144 26145 26146 26147 26148 26149 26150 26151 26152 26153 26154 26155 26156 26157 26158 26159 26160 26161 26162 26163 26164 26165 26166 26167 26168 26169 26170 26171 26172 26173 26174 26175 26176 26177 26178 26179 26180 26181 26182 26183 26184 26185 26186 26187 26188 26189 26190 26191 26192 26193 26194 26195 26196 26197 26198 26199 26200 26201 26202 26203 26204 26205 26206 26207 26208 26209 26210 26211 26212 26213 26214 26215 26216 26217 26218 26219 26220 26221 26222 26223 26224 26225 26226 26227 26228 26229 26230 26231 26232 26233 26234 26235 26236 26237 26238 26239 26240 26241 26242 26243 26244 26245 26246 26247 26248 26249 26250 26251 26252 26253 26254 26255 26256 26257 26258 26259 26260 26261 26262 26263 26264 26265 26266 26267 26268 26269 26270 26271 26272 26273 26274 26275 26276 26277 26278 26279 26280 26281 26282 26283 26284 26285 26286 26287 26288 26289 26290 26291 26292 26293 26294 26295 26296 26297 26298 26299 26300 26301 26302 26303 26304 26305 26306 26307 26308 26309 26310 26311 26312 26313 26314 26315 26316 26317 26318 26319 26320 26321 26322 26323 26324 26325 26326 26327 26328 26329 26330 26331 26332 26333 26334 26335 26336 26337 26338 26339 26340 26341 26342 26343 26344 26345 26346 26347 26348 26349 26350 26351 26352 26353 26354 26355 26356 26357 26358 26359 26360 26361 26362 26363 26364 26365 26366 26367 26368 26369 26370 26371 26372 26373 26374 26375 26376 26377 26378 26379 26380 26381 26382 26383 26384 26385 26386 26387 26388 26389 26390 26391 26392 26393 26394 26395 26396 26397 26398 26399 26400 26401 26402 26403 26404 26405 26406 26407 26408 26409 26410 26411 26412 26413 26414 26415 26416 26417 26418 26419 26420 26421 26422 26423 26424 26425 26426 26427 26428 26429 26430 26431 26432 26433 26434 26435 26436 26437 26438 26439 26440 26441 26442 26443 26444 26445 26446 26447 26448 26449 26450 26451 26452 26453 26454 26455 26456 26457 26458 26459 26460 26461 26462 26463 26464 26465 26466 26467 26468 26469 26470 26471 26472 26473 26474 26475 26476 26477 26478 26479 26480 26481 26482 26483 26484 26485 26486 26487 26488 26489 26490 26491 26492 26493 26494 26495 26496 26497 26498 26499 26500 26501 26502 26503 26504 26505 26506 26507 26508 26509 26510 26511 26512 26513 26514 26515 26516 26517 26518 26519 26520 26521 26522 26523 26524 26525 26526 26527 26528 26529 26530 26531 26532 26533 26534 26535 26536 26537 26538 26539 26540 26541 26542 26543 26544 26545 26546 26547 26548 26549 26550 26551 26552 26553 26554 26555 26556 26557 26558 26559 26560 26561 26562 26563 26564 26565 26566 26567 26568 26569 26570 26571 26572 26573 26574 26575 26576 26577 26578 26579 26580 26581 26582 26583 26584 26585 26586 26587 26588 26589 26590 26591 26592 26593 26594 26595 26596 26597 26598 26599 26600 26601 26602 26603 26604 26605 26606 26607 26608 26609 26610 26611 26612 26613 26614 26615 26616 26617 26618 26619 26620 26621 26622 26623 26624 26625 26626 26627 26628 26629 26630 26631 26632 26633 26634 26635 26636 26637 26638 26639 26640 26641 26642 26643 26644 26645 26646 26647 26648 26649 26650 26651 26652 26653 26654 26655 26656 26657 26658 26659 26660 26661 26662 26663 26664 26665 26666 26667 26668 26669 26670 26671 26672 26673 26674 26675 26676 26677 26678 26679 26680 26681 26682 26683 26684 26685 26686 26687 26688 26689 26690 26691 26692 26693 26694 26695 26696 26697 26698 26699 26700 26701 26702 26703 26704 26705 26706 26707 26708 26709 26710 26711 26712 26713 26714 26715 26716 26717 26718 26719 26720 26721 26722 26723 26724 26725 26726 26727 26728 26729 26730 26731 26732 26733 26734 26735 26736 26737 26738 26739 26740 26741 26742 26743 26744 26745 26746 26747 26748 26749 26750 26751 26752 26753 26754 26755 26756 26757 26758 26759 26760 26761 26762 26763 26764 26765 26766 26767 26768 26769 26770 26771 26772 26773 26774 26775 26776 26777 26778 26779 26780 26781 26782 26783 26784 26785 26786 26787 26788 26789 26790 26791 26792 26793 26794 26795 26796 26797 26798 26799 26800 26801 26802 26803 26804 26805 26806 26807 26808 26809 26810 26811 26812 26813 26814 26815 26816 26817 26818 26819 26820 26821 26822 26823 26824 26825 26826 26827 26828 26829 26830 26831 26832 26833 26834 26835 26836 26837 26838 26839 26840 26841 26842 26843 26844 26845 26846 26847 26848 26849 26850 26851 26852 26853 26854 26855 26856 26857 26858 26859 26860 26861 26862 26863 26864 26865 26866 26867 26868 26869 26870 26871 26872 26873 26874 26875 26876 26877 26878 26879 26880 26881 26882 26883 26884 26885 26886 26887 26888 26889 26890 26891 26892 26893 26894 26895 26896 26897 26898 26899 26900 26901 26902 26903 26904 26905 26906 26907 26908 26909 26910 26911 26912 26913 26914 26915 26916 26917 26918 26919 26920 26921 26922 26923 26924 26925 26926 26927 26928 26929 26930 26931 26932 26933 26934 26935 26936 26937 26938 26939 26940 26941 26942 26943 26944 26945 26946 26947 26948 26949 26950 26951 26952 26953 26954 26955 26956 26957 26958 26959 26960 26961 26962 26963 26964 26965 26966 26967 26968 26969 26970 26971 26972 26973 26974 26975 26976 26977 26978 26979 26980 26981 26982 26983 26984 26985 26986 26987 26988 26989 26990 26991 26992 26993 26994 26995 26996 26997 26998 26999 27000 27001 27002 27003 27004 27005 27006 27007 27008 27009 27010 27011 27012 27013 27014 27015 27016 27017 27018 27019 27020 27021 27022 27023 27024 27025 27026 27027 27028 27029 27030 27031 27032 27033 27034 27035 27036 27037 27038 27039 27040 27041 27042 27043 27044 27045 27046 27047 27048 27049 27050 27051 27052 27053 27054 27055 27056 27057 27058 27059 27060 27061 27062 27063 27064 27065 27066 27067 27068 27069 27070 27071 27072 27073 27074 27075 27076 27077 27078 27079 27080 27081 27082 27083 27084 27085 27086 27087 27088 27089 27090 27091 27092 27093 27094 27095 27096 27097 27098 27099 27100 27101 27102 27103 27104 27105 27106 27107 27108 27109 27110 27111 27112 27113 27114 27115 27116 27117 27118 27119 27120 27121 27122 27123 27124 27125 27126 27127 27128 27129 27130 27131 27132 27133 27134 27135 27136 27137 27138 27139 27140 27141 27142 27143 27144 27145 27146 27147 27148 27149 27150 27151 27152 27153 27154 27155 27156 27157 27158 27159 27160 27161 27162 27163 27164 27165 27166 27167 27168 27169 27170 27171 27172 27173 27174 27175 27176 27177 27178 27179 27180 27181 27182 27183 27184 27185 27186 27187 27188 27189 27190 27191 27192 27193 27194 27195 27196 27197 27198 27199 27200 27201 27202 27203 27204 27205 27206 27207 27208 27209 27210 27211 27212 27213 27214 27215 27216 27217 27218 27219 27220 27221 27222 27223 27224 27225 27226 27227 27228 27229 27230 27231 27232 27233 27234 27235 27236 27237 27238 27239 27240 27241 27242 27243 27244 27245 27246 27247 27248 27249 27250 27251 27252 27253 27254 27255 27256 27257 27258 27259 27260 27261 27262 27263 27264 27265 27266 27267 27268 27269 27270 27271 27272 27273 27274 27275 27276 27277 27278 27279 27280 27281 27282 27283 27284 27285 27286 27287 27288 27289 27290 27291 27292 27293 27294 27295 27296 27297 27298 27299 27300 27301 27302 27303 27304 27305 27306 27307 27308 27309 27310 27311 27312 27313 27314 27315 27316 27317 27318 27319 27320 27321 27322 27323 27324 27325 27326 27327 27328 27329 27330 27331 27332 27333 27334 27335 27336 27337 27338 27339 27340 27341 27342 27343 27344 27345 27346 27347 27348 27349 27350 27351 27352 27353 27354 27355 27356 27357 27358 27359 27360 27361 27362 27363 27364 27365 27366 27367 27368 27369 27370 27371 27372 27373 27374 27375 27376 27377 27378 27379 27380 27381 27382 27383 27384 27385 27386 27387 27388 27389 27390 27391 27392 27393 27394 27395 27396 27397 27398 27399 27400 27401 27402 27403 27404 27405 27406 27407 27408 27409 27410 27411 27412 27413 27414 27415 27416 27417 27418 27419 27420 27421 27422 27423 27424 27425 27426 27427 27428 27429 27430 27431 27432 27433 27434 27435 27436 27437 27438 27439 27440 27441 27442 27443 27444 27445 27446 27447 27448 27449 27450 27451 27452 27453 27454 27455 27456 27457 27458 27459 27460 27461 27462 27463 27464 27465 27466 27467 27468 27469 27470 27471 27472 27473 27474 27475 27476 27477 27478 27479 27480 27481 27482 27483 27484 27485 27486 27487 27488 27489 27490 27491 27492 27493 27494 27495 27496 27497 27498 27499 27500 27501 27502 27503 27504 27505 27506 27507 27508 27509 27510 27511 27512 27513 27514 27515 27516 27517 27518 27519 27520 27521 27522 27523 27524 27525 27526 27527 27528 27529 27530 27531 27532 27533 27534 27535 27536 27537 27538 27539 27540 27541 27542 27543 27544 27545 27546 27547 27548 27549 27550 27551 27552 27553 27554 27555 27556 27557 27558 27559 27560 27561 27562 27563 27564 27565 27566 27567 27568 27569 27570 27571 27572 27573 27574 27575 27576 27577 27578 27579 27580 27581 27582 27583 27584 27585 27586 27587 27588 27589 27590 27591 27592 27593 27594 27595 27596 27597 27598 27599 27600 27601 27602 27603 27604 27605 27606 27607 27608 27609 27610 27611 27612 27613 27614 27615 27616 27617 27618 27619 27620 27621 27622 27623 27624 27625 27626 27627 27628 27629 27630 27631 27632 27633 27634 27635 27636 27637 27638 27639 27640 27641 27642 27643 27644 27645 27646 27647 27648 27649 27650 27651 27652 27653 27654 27655 27656 27657 27658 27659 27660 27661 27662 27663 27664 27665 27666 27667 27668 27669 27670 27671 27672 27673 27674 27675 27676 27677 27678 27679 27680 27681 27682 27683 27684 27685 27686 27687 27688 27689 27690 27691 27692 27693 27694 27695 27696 27697 27698 27699 27700 27701 27702 27703 27704 27705 27706 27707 27708 27709 27710 27711 27712 27713 27714 27715 27716 27717 27718 27719 27720 27721 27722 27723 27724 27725 27726 27727 27728 27729 27730 27731 27732 27733 27734 27735 27736 27737 27738 27739 27740 27741 27742 27743 27744 27745 27746 27747 27748 27749 27750 27751 27752 27753 27754 27755 27756 27757 27758 27759 27760 27761 27762 27763 27764 27765 27766 27767 27768 27769 27770 27771 27772 27773 27774 27775 27776 27777 27778 27779 27780 27781 27782 27783 27784 27785 27786 27787 27788 27789 27790 27791 27792 27793 27794 27795 27796 27797 27798 27799 27800 27801 27802 27803 27804 27805 27806 27807 27808 27809 27810 27811 27812 27813 27814 27815 27816 27817 27818 27819 27820 27821 27822 27823 27824 27825 27826 27827 27828 27829 27830 27831 27832 27833 27834 27835 27836 27837 27838 27839 27840 27841 27842 27843 27844 27845 27846 27847 27848 27849 27850 27851 27852 27853 27854 27855 27856 27857 27858 27859 27860 27861 27862 27863 27864 27865 27866 27867 27868 27869 27870 27871 27872 27873 27874 27875 27876 27877 27878 27879 27880 27881 27882 27883 27884 27885 27886 27887 27888 27889 27890 27891 27892 27893 27894 27895 27896 27897 27898 27899 27900 27901 27902 27903 27904 27905 27906 27907 27908 27909 27910 27911 27912 27913 27914 27915 27916 27917 27918 27919 27920 27921 27922 27923 27924 27925 27926 27927 27928 27929 27930 27931 27932 27933 27934 27935 27936 27937 27938 27939 27940 27941 27942 27943 27944 27945 27946 27947 27948 27949 27950 27951 27952 27953 27954 27955 27956 27957 27958 27959 27960 27961 27962 27963 27964 27965 27966 27967 27968 27969 27970 27971 27972 27973 27974 27975 27976 27977 27978 27979 27980 27981 27982 27983 27984 27985 27986 27987 27988 27989 27990 27991 27992 27993 27994 27995 27996 27997 27998 27999 28000 28001 28002 28003 28004 28005 28006 28007 28008 28009 28010 28011 28012 28013 28014 28015 28016 28017 28018 28019 28020 28021 28022 28023 28024 28025 28026 28027 28028 28029 28030 28031 28032 28033 28034 28035 28036 28037 28038 28039 28040 28041 28042 28043 28044 28045 28046 28047 28048 28049 28050 28051 28052 28053 28054 28055 28056 28057 28058 28059 28060 28061 28062 28063 28064 28065 28066 28067 28068 28069 28070 28071 28072 28073 28074 28075 28076 28077 28078 28079 28080 28081 28082 28083 28084 28085 28086 28087 28088 28089 28090 28091 28092 28093 28094 28095 28096 28097 28098 28099 28100 28101 28102 28103 28104 28105 28106 28107 28108 28109 28110 28111 28112 28113 28114 28115 28116 28117 28118 28119 28120 28121 28122 28123 28124 28125 28126 28127 28128 28129 28130 28131 28132 28133 28134 28135 28136 28137 28138 28139 28140 28141 28142 28143 28144 28145 28146 28147 28148 28149 28150 28151 28152 28153 28154 28155 28156 28157 28158 28159 28160 28161 28162 28163 28164 28165 28166 28167 28168 28169 28170 28171 28172 28173 28174 28175 28176 28177 28178 28179 28180 28181 28182 28183 28184 28185 28186 28187 28188 28189 28190 28191 28192 28193 28194 28195 28196 28197 28198 28199 28200 28201 28202 28203 28204 28205 28206 28207 28208 28209 28210 28211 28212 28213 28214 28215 28216 28217 28218 28219 28220 28221 28222 28223 28224 28225 28226 28227 28228 28229 28230 28231 28232 28233 28234 28235 28236 28237 28238 28239 28240 28241 28242 28243 28244 28245 28246 28247 28248 28249 28250 28251 28252 28253 28254 28255 28256 28257 28258 28259 28260 28261 28262 28263 28264 28265 28266 28267 28268 28269 28270 28271 28272 28273 28274 28275 28276 28277 28278 28279 28280 28281 28282 28283 28284 28285 28286 28287 28288 28289 28290 28291 28292 28293 28294 28295 28296 28297 28298 28299 28300 28301 28302 28303 28304 28305 28306 28307 28308 28309 28310 28311 28312 28313 28314 28315 28316 28317 28318 28319 28320 28321 28322 28323 28324 28325 28326 28327 28328 28329 28330 28331 28332 28333 28334 28335 28336 28337 28338 28339 28340 28341 28342 28343 28344 28345 28346 28347 28348 28349 28350 28351 28352 28353 28354 28355 28356 28357 28358 28359 28360 28361 28362 28363 28364 28365 28366 28367 28368 28369 28370 28371 28372 28373 28374 28375 28376 28377 28378 28379 28380 28381 28382 28383 28384 28385 28386 28387 28388 28389 28390 28391 28392 28393 28394 28395 28396 28397 28398 28399 28400 28401 28402 28403 28404 28405 28406 28407 28408 28409 28410 28411 28412 28413 28414 28415 28416 28417 28418 28419 28420 28421 28422 28423 28424 28425 28426 28427 28428 28429 28430 28431 28432 28433 28434 28435 28436 28437 28438 28439 28440 28441 28442 28443 28444 28445 28446 28447 28448 28449 28450 28451 28452 28453 28454 28455 28456 28457 28458 28459 28460 28461 28462 28463 28464 28465 28466 28467 28468 28469 28470 28471 28472 28473 28474 28475 28476 28477 28478 28479 28480 28481 28482 28483 28484 28485 28486 28487 28488 28489 28490 28491 28492 28493 28494 28495 28496 28497 28498 28499 28500 28501 28502 28503 28504 28505 28506 28507 28508 28509 28510 28511 28512 28513 28514 28515 28516 28517 28518 28519 28520 28521 28522 28523 28524 28525 28526 28527 28528 28529 28530 28531 28532 28533 28534 28535 28536 28537 28538 28539 28540 28541 28542 28543 28544 28545 28546 28547 28548 28549 28550 28551 28552 28553 28554 28555 28556 28557 28558 28559 28560 28561 28562 28563 28564 28565 28566 28567 28568 28569 28570 28571 28572 28573 28574 28575 28576 28577 28578 28579 28580 28581 28582 28583 28584 28585 28586 28587 28588 28589 28590 28591 28592 28593 28594 28595 28596 28597 28598 28599 28600 28601 28602 28603 28604 28605 28606 28607 28608 28609 28610 28611 28612 28613 28614 28615 28616 28617 28618 28619 28620 28621 28622 28623 28624 28625 28626 28627 28628 28629 28630 28631 28632 28633 28634 28635 28636 28637 28638 28639 28640 28641 28642 28643 28644 28645 28646 28647 28648 28649 28650 28651 28652 28653 28654 28655 28656 28657 28658 28659 28660 28661 28662 28663 28664 28665 28666 28667 28668 28669 28670 28671 28672 28673 28674 28675 28676 28677 28678 28679 28680 28681 28682 28683 28684 28685 28686 28687 28688 28689 28690 28691 28692 28693 28694 28695 28696 28697 28698 28699 28700 28701 28702 28703 28704 28705 28706 28707 28708 28709 28710 28711 28712 28713 28714 28715 28716 28717 28718 28719 28720 28721 28722 28723 28724 28725 28726 28727 28728 28729 28730 28731 28732 28733 28734 28735 28736 28737 28738 28739 28740 28741 28742 28743 28744 28745 28746 28747 28748 28749 28750 28751 28752 28753 28754 28755 28756 28757 28758 28759 28760 28761 28762 28763 28764 28765 28766 28767 28768 28769 28770 28771 28772 28773 28774 28775 28776 28777 28778 28779 28780 28781 28782 28783 28784 28785 28786 28787 28788 28789 28790 28791 28792 28793 28794 28795 28796 28797 28798 28799 28800 28801 28802 28803 28804 28805 28806 28807 28808 28809 28810 28811 28812 28813 28814 28815 28816 28817 28818 28819 28820 28821 28822 28823 28824 28825 28826 28827 28828 28829 28830 28831 28832 28833 28834 28835 28836 28837 28838 28839 28840 28841 28842 28843 28844 28845 28846 28847 28848 28849 28850 28851 28852 28853 28854 28855 28856 28857 28858 28859 28860 28861 28862 28863 28864 28865 28866 28867 28868 28869 28870 28871 28872 28873 28874 28875 28876 28877 28878 28879 28880 28881 28882 28883 28884 28885 28886 28887 28888 28889 28890 28891 28892 28893 28894 28895 28896 28897 28898 28899 28900 28901 28902 28903 28904 28905 28906 28907 28908 28909 28910 28911 28912 28913 28914 28915 28916 28917 28918 28919 28920 28921 28922 28923 28924 28925 28926 28927 28928 28929 28930 28931 28932 28933 28934 28935 28936 28937 28938 28939 28940 28941 28942 28943 28944 28945 28946 28947 28948 28949 28950 28951 28952 28953 28954 28955 28956 28957 28958 28959 28960 28961 28962 28963 28964 28965 28966 28967 28968 28969 28970 28971 28972 28973 28974 28975 28976 28977 28978 28979 28980 28981 28982 28983 28984 28985 28986 28987 28988 28989 28990 28991 28992 28993 28994 28995 28996 28997 28998 28999 29000 29001 29002 29003 29004 29005 29006 29007 29008 29009 29010 29011 29012 29013 29014 29015 29016 29017 29018 29019 29020 29021 29022 29023 29024 29025 29026 29027 29028 29029 29030 29031 29032 29033 29034 29035 29036 29037 29038 29039 29040 29041 29042 29043 29044 29045 29046 29047 29048 29049 29050 29051 29052 29053 29054 29055 29056 29057 29058 29059 29060 29061 29062 29063 29064 29065 29066 29067 29068 29069 29070 29071 29072 29073 29074 29075 29076 29077 29078 29079 29080 29081 29082 29083 29084 29085 29086 29087 29088 29089 29090 29091 29092 29093 29094 29095 29096 29097 29098 29099 29100 29101 29102 29103 29104 29105 29106 29107 29108 29109 29110 29111 29112 29113 29114 29115 29116 29117 29118 29119 29120 29121 29122 29123 29124 29125 29126 29127 29128 29129 29130 29131 29132 29133 29134 29135 29136 29137 29138 29139 29140 29141 29142 29143 29144 29145 29146 29147 29148 29149 29150 29151 29152 29153 29154 29155 29156 29157 29158 29159 29160 29161 29162 29163 29164 29165 29166 29167 29168 29169 29170 29171 29172 29173 29174 29175 29176 29177 29178 29179 29180 29181 29182 29183 29184 29185 29186 29187 29188 29189 29190 29191 29192 29193 29194 29195 29196 29197 29198 29199 29200 29201 29202 29203 29204 29205 29206 29207 29208 29209 29210 29211 29212 29213 29214 29215 29216 29217 29218 29219 29220 29221 29222 29223 29224 29225 29226 29227 29228 29229 29230 29231 29232 29233 29234 29235 29236 29237 29238 29239 29240 29241 29242 29243 29244 29245 29246 29247 29248 29249 29250 29251 29252 29253 29254 29255 29256 29257 29258 29259 29260 29261 29262 29263 29264 29265 29266 29267 29268 29269 29270 29271 29272 29273 29274 29275 29276 29277 29278 29279 29280 29281 29282 29283 29284 29285 29286 29287 29288 29289 29290 29291 29292 29293 29294 29295 29296 29297 29298 29299 29300 29301 29302 29303 29304 29305 29306 29307 29308 29309 29310 29311 29312 29313 29314 29315 29316 29317 29318 29319 29320 29321 29322 29323 29324 29325 29326 29327 29328 29329 29330 29331 29332 29333 29334 29335 29336 29337 29338 29339 29340 29341 29342 29343 29344 29345 29346 29347 29348 29349 29350 29351 29352 29353 29354 29355 29356 29357 29358 29359 29360 29361 29362 29363 29364 29365 29366 29367 29368 29369 29370 29371 29372 29373 29374 29375 29376 29377 29378 29379 29380 29381 29382 29383 29384 29385 29386 29387 29388 29389 29390 29391 29392 29393 29394 29395 29396 29397 29398 29399 29400 29401 29402 29403 29404 29405 29406 29407 29408 29409 29410 29411 29412 29413 29414 29415 29416 29417 29418 29419 29420 29421 29422 29423 29424 29425 29426 29427 29428 29429 29430 29431 29432 29433 29434 29435 29436 29437 29438 29439 29440 29441 29442 29443 29444 29445 29446 29447 29448 29449 29450 29451 29452 29453 29454 29455 29456 29457 29458 29459 29460 29461 29462 29463 29464 29465 29466 29467 29468 29469 29470 29471 29472 29473 29474 29475 29476 29477 29478 29479 29480 29481 29482 29483 29484 29485 29486 29487 29488 29489 29490 29491 29492 29493 29494 29495 29496 29497 29498 29499 29500 29501 29502 29503 29504 29505 29506 29507 29508 29509 29510 29511 29512 29513 29514 29515 29516 29517 29518 29519 29520 29521 29522 29523 29524 29525 29526 29527 29528 29529 29530 29531 29532 29533 29534 29535 29536 29537 29538 29539 29540 29541 29542 29543 29544 29545 29546 29547 29548 29549 29550 29551 29552 29553 29554 29555 29556 29557 29558 29559 29560 29561 29562 29563 29564 29565 29566 29567 29568 29569 29570 29571 29572 29573 29574 29575 29576 29577 29578 29579 29580 29581 29582 29583 29584 29585 29586 29587 29588 29589 29590 29591 29592 29593 29594 29595 29596 29597 29598 29599 29600 29601 29602 29603 29604 29605 29606 29607 29608 29609 29610 29611 29612 29613 29614 29615 29616 29617 29618 29619 29620 29621 29622 29623 29624 29625 29626 29627 29628 29629 29630 29631 29632 29633 29634 29635 29636 29637 29638 29639 29640 29641 29642 29643 29644 29645 29646 29647 29648 29649 29650 29651 29652 29653 29654 29655 29656 29657 29658 29659 29660 29661 29662 29663 29664 29665 29666 29667 29668 29669 29670 29671 29672 29673 29674 29675 29676 29677 29678 29679 29680 29681 29682 29683 29684 29685 29686 29687 29688 29689 29690 29691 29692 29693 29694 29695 29696 29697 29698 29699 29700 29701 29702 29703 29704 29705 29706 29707 29708 29709 29710 29711 29712 29713 29714 29715 29716 29717 29718 29719 29720 29721 29722 29723 29724 29725 29726 29727 29728 29729 29730 29731 29732 29733 29734 29735 29736 29737 29738 29739 29740 29741 29742 29743 29744 29745 29746 29747 29748 29749 29750 29751 29752 29753 29754 29755 29756 29757 29758 29759 29760 29761 29762 29763 29764 29765 29766 29767 29768 29769 29770 29771 29772 29773 29774 29775 29776 29777 29778 29779 29780 29781 29782 29783 29784 29785 29786 29787 29788 29789 29790 29791 29792 29793 29794 29795 29796 29797 29798 29799 29800 29801 29802 29803 29804 29805 29806 29807 29808 29809 29810 29811 29812 29813 29814 29815 29816 29817 29818 29819 29820 29821 29822 29823 29824 29825 29826 29827 29828 29829 29830 29831 29832 29833 29834 29835 29836 29837 29838 29839 29840 29841 29842 29843 29844 29845 29846 29847 29848 29849 29850 29851 29852 29853 29854 29855 29856 29857 29858 29859 29860 29861 29862 29863 29864 29865 29866 29867 29868 29869 29870 29871 29872 29873 29874 29875 29876 29877 29878 29879 29880 29881 29882 29883 29884 29885 29886 29887 29888 29889 29890 29891 29892 29893 29894 29895 29896 29897 29898 29899 29900 29901 29902 29903 29904 29905 29906 29907 29908 29909 29910 29911 29912 29913 29914 29915 29916 29917 29918 29919 29920 29921 29922 29923 29924 29925 29926 29927 29928 29929 29930 29931 29932 29933 29934 29935 29936 29937 29938 29939 29940 29941 29942 29943 29944 29945 29946 29947 29948 29949 29950 29951 29952 29953 29954 29955 29956 29957 29958 29959 29960 29961 29962 29963 29964 29965 29966 29967 29968 29969 29970 29971 29972 29973 29974 29975 29976 29977 29978 29979 29980 29981 29982 29983 29984 29985 29986 29987 29988 29989 29990 29991 29992 29993 29994 29995 29996 29997 29998 29999 30000 30001 30002 30003 30004 30005 30006 30007 30008 30009 30010 30011 30012 30013 30014 30015 30016 30017 30018 30019 30020 30021 30022 30023 30024 30025 30026 30027 30028 30029 30030 30031 30032 30033 30034 30035 30036 30037 30038 30039 30040 30041 30042 30043 30044 30045 30046 30047 30048 30049 30050 30051 30052 30053 30054 30055 30056 30057 30058 30059 30060 30061 30062 30063 30064 30065 30066 30067 30068 30069 30070 30071 30072 30073 30074 30075 30076 30077 30078 30079 30080 30081 30082 30083 30084 30085 30086 30087 30088 30089 30090 30091 30092 30093 30094 30095 30096 30097 30098 30099 30100 30101 30102 30103 30104 30105 30106 30107 30108 30109 30110 30111 30112 30113 30114 30115 30116 30117 30118 30119 30120 30121 30122 30123 30124 30125 30126 30127 30128 30129 30130 30131 30132 30133 30134 30135 30136 30137 30138 30139 30140 30141 30142 30143 30144 30145 30146 30147 30148 30149 30150 30151 30152 30153 30154 30155 30156 30157 30158 30159 30160 30161 30162 30163 30164 30165 30166 30167 30168 30169 30170 30171 30172 30173 30174 30175 30176 30177 30178 30179 30180 30181 30182 30183 30184 30185 30186 30187 30188 30189 30190 30191 30192 30193 30194 30195 30196 30197 30198 30199 30200 30201 30202 30203 30204 30205 30206 30207 30208 30209 30210 30211 30212 30213 30214 30215 30216 30217 30218 30219 30220 30221 30222 30223 30224 30225 30226 30227 30228 30229 30230 30231 30232 30233 30234 30235 30236 30237 30238 30239 30240 30241 30242 30243 30244 30245 30246 30247 30248 30249 30250 30251 30252 30253 30254 30255 30256 30257 30258 30259 30260 30261 30262 30263 30264 30265 30266 30267 30268 30269 30270 30271 30272 30273 30274 30275 30276 30277 30278 30279 30280 30281 30282 30283 30284 30285 30286 30287 30288 30289 30290 30291 30292 30293 30294 30295 30296 30297 30298 30299 30300 30301 30302 30303 30304 30305 30306 30307 30308 30309 30310 30311 30312 30313 30314 30315 30316 30317 30318 30319 30320 30321 30322 30323 30324 30325 30326 30327 30328 30329 30330 30331 30332 30333 30334 30335 30336 30337 30338 30339 30340 30341 30342 30343 30344 30345 30346 30347 30348 30349 30350 30351 30352 30353 30354 30355 30356 30357 30358 30359 30360 30361 30362 30363 30364 30365 30366 30367 30368 30369 30370 30371 30372 30373 30374 30375 30376 30377 30378 30379 30380 30381 30382 30383 30384 30385 30386 30387 30388 30389 30390 30391 30392 30393 30394 30395 30396 30397 30398 30399 30400 30401 30402 30403 30404 30405 30406 30407 30408 30409 30410 30411 30412 30413 30414 30415 30416 30417 30418 30419 30420 30421 30422 30423 30424 30425 30426 30427 30428 30429 30430 30431 30432 30433 30434 30435 30436 30437 30438 30439 30440 30441 30442 30443 30444 30445 30446 30447 30448 30449 30450 30451 30452 30453 30454 30455 30456 30457 30458 30459 30460 30461 30462 30463 30464 30465 30466 30467 30468 30469 30470 30471 30472 30473 30474 30475 30476 30477 30478 30479 30480 30481 30482 30483 30484 30485 30486 30487 30488 30489 30490 30491 30492 30493 30494 30495 30496 30497 30498 30499 30500 30501 30502 30503 30504 30505 30506 30507 30508 30509 30510 30511 30512 30513 30514 30515 30516 30517 30518 30519 30520 30521 30522 30523 30524 30525 30526 30527 30528 30529 30530 30531 30532 30533 30534 30535 30536 30537 30538 30539 30540 30541 30542 30543 30544 30545 30546 30547 30548 30549 30550 30551 30552 30553 30554 30555 30556 30557 30558 30559 30560 30561 30562 30563 30564 30565 30566 30567 30568 30569 30570 30571 30572 30573 30574 30575 30576 30577 30578 30579 30580 30581 30582 30583 30584 30585 30586 30587 30588 30589 30590 30591 30592 30593 30594 30595 30596 30597 30598 30599 30600 30601 30602 30603 30604 30605 30606 30607 30608 30609 30610 30611 30612 30613 30614 30615 30616 30617 30618 30619 30620 30621 30622 30623 30624 30625 30626 30627 30628 30629 30630 30631 30632 30633 30634 30635 30636 30637 30638 30639 30640 30641 30642 30643 30644 30645 30646 30647 30648 30649 30650 30651 30652 30653 30654 30655 30656 30657 30658 30659 30660 30661 30662 30663 30664 30665 30666 30667 30668 30669 30670 30671 30672 30673 30674 30675 30676 30677 30678 30679 30680 30681 30682 30683 30684 30685 30686 30687 30688 30689 30690 30691 30692 30693 30694 30695 30696 30697 30698 30699 30700 30701 30702 30703 30704 30705 30706 30707 30708 30709 30710 30711 30712 30713 30714 30715 30716 30717 30718 30719 30720 30721 30722 30723 30724 30725 30726 30727 30728 30729 30730 30731 30732 30733 30734 30735 30736 30737 30738 30739 30740 30741 30742 30743 30744 30745 30746 30747 30748 30749 30750 30751 30752 30753 30754 30755 30756 30757 30758 30759 30760 30761 30762 30763 30764 30765 30766 30767 30768 30769 30770 30771 30772 30773 30774 30775 30776 30777 30778 30779 30780 30781 30782 30783 30784 30785 30786 30787 30788 30789 30790 30791 30792 30793 30794 30795 30796 30797 30798 30799 30800 30801 30802 30803 30804 30805 30806 30807 30808 30809 30810 30811 30812 30813 30814 30815 30816 30817 30818 30819 30820 30821 30822 30823 30824 30825 30826 30827 30828 30829 30830 30831 30832 30833 30834 30835 30836 30837 30838 30839 30840 30841 30842 30843 30844 30845 30846 30847 30848 30849 30850 30851 30852 30853 30854 30855 30856 30857 30858 30859 30860 30861 30862 30863 30864 30865 30866 30867 30868 30869 30870 30871 30872 30873 30874 30875 30876 30877 30878 30879 30880 30881 30882 30883 30884 30885 30886 30887 30888 30889 30890 30891 30892 30893 30894 30895 30896 30897 30898 30899 30900 30901 30902 30903 30904 30905 30906 30907 30908 30909 30910 30911 30912 30913 30914 30915 30916 30917 30918 30919 30920 30921 30922 30923 30924 30925 30926 30927 30928 30929 30930 30931 30932 30933 30934 30935 30936 30937 30938 30939 30940 30941 30942 30943 30944 30945 30946 30947 30948 30949 30950 30951 30952 30953 30954 30955 30956 30957 30958 30959 30960 30961 30962 30963 30964 30965 30966 30967 30968 30969 30970 30971 30972 30973 30974 30975 30976 30977 30978 30979 30980 30981 30982 30983 30984 30985 30986 30987 30988 30989 30990 30991 30992 30993 30994 30995 30996 30997 30998 30999 31000 31001 31002 31003 31004 31005 31006 31007 31008 31009 31010 31011 31012 31013 31014 31015 31016 31017 31018 31019 31020 31021 31022 31023 31024 31025 31026 31027 31028 31029 31030 31031 31032 31033 31034 31035 31036 31037 31038 31039 31040 31041 31042 31043 31044 31045 31046 31047 31048 31049 31050 31051 31052 31053 31054 31055 31056 31057 31058 31059 31060 31061 31062 31063 31064 31065 31066 31067 31068 31069 31070 31071 31072 31073 31074 31075 31076 31077 31078 31079 31080 31081 31082 31083 31084 31085 31086 31087 31088 31089 31090 31091 31092 31093 31094 31095 31096 31097 31098 31099 31100 31101 31102 31103 31104 31105 31106 31107 31108 31109 31110 31111 31112 31113 31114 31115 31116 31117 31118 31119 31120 31121 31122 31123 31124 31125 31126 31127 31128 31129 31130 31131 31132 31133 31134 31135 31136 31137 31138 31139 31140 31141 31142 31143 31144 31145 31146 31147 31148 31149 31150 31151 31152 31153 31154 31155 31156 31157 31158 31159 31160 31161 31162 31163 31164 31165 31166 31167 31168 31169 31170 31171 31172 31173 31174 31175 31176 31177 31178 31179 31180 31181 31182 31183 31184 31185 31186 31187 31188 31189 31190 31191 31192 31193 31194 31195 31196 31197 31198 31199 31200 31201 31202 31203 31204 31205 31206 31207 31208 31209 31210 31211 31212 31213 31214 31215 31216 31217 31218 31219 31220 31221 31222 31223 31224 31225 31226 31227 31228 31229 31230 31231 31232 31233 31234 31235 31236 31237 31238 31239 31240 31241 31242 31243 31244 31245 31246 31247 31248 31249 31250 31251 31252 31253 31254 31255 31256 31257 31258 31259 31260 31261 31262 31263 31264 31265 31266 31267 31268 31269 31270 31271 31272 31273 31274 31275 31276 31277 31278 31279 31280 31281 31282 31283 31284 31285 31286 31287 31288 31289 31290 31291 31292 31293 31294 31295 31296 31297 31298 31299 31300 31301 31302 31303 31304 31305 31306 31307 31308 31309 31310 31311 31312 31313 31314 31315 31316 31317 31318 31319 31320 31321 31322 31323 31324 31325 31326 31327 31328 31329 31330 31331 31332 31333 31334 31335 31336 31337 31338 31339 31340 31341 31342 31343 31344 31345 31346 31347 31348 31349 31350 31351 31352 31353 31354 31355 31356 31357 31358 31359 31360 31361 31362 31363 31364 31365 31366 31367 31368 31369 31370 31371 31372 31373 31374 31375 31376 31377 31378 31379 31380 31381 31382 31383 31384 31385 31386 31387 31388 31389 31390 31391 31392 31393 31394 31395 31396 31397 31398 31399 31400 31401 31402 31403 31404 31405 31406 31407 31408 31409 31410 31411 31412 31413 31414 31415 31416 31417 31418 31419 31420 31421 31422 31423 31424 31425 31426 31427 31428 31429 31430 31431 31432 31433 31434 31435 31436 31437 31438 31439 31440 31441 31442 31443 31444 31445 31446 31447 31448 31449 31450 31451 31452 31453 31454 31455 31456 31457 31458 31459 31460 31461 31462 31463 31464 31465 31466 31467 31468 31469 31470 31471 31472 31473 31474 31475 31476 31477 31478 31479 31480 31481 31482 31483 31484 31485 31486 31487 31488 31489 31490 31491 31492 31493 31494 31495 31496 31497 31498 31499 31500 31501 31502 31503 31504 31505 31506 31507 31508 31509 31510 31511 31512 31513 31514 31515 31516 31517 31518 31519 31520 31521 31522 31523 31524 31525 31526 31527 31528 31529 31530 31531 31532 31533 31534 31535 31536 31537 31538 31539 31540 31541 31542 31543 31544 31545 31546 31547 31548 31549 31550 31551 31552 31553 31554 31555 31556 31557 31558 31559 31560 31561 31562 31563 31564 31565 31566 31567 31568 31569 31570 31571 31572 31573 31574 31575 31576 31577 31578 31579 31580 31581 31582 31583 31584 31585 31586 31587 31588 31589 31590 31591 31592 31593 31594 31595 31596 31597 31598 31599 31600 31601 31602 31603 31604 31605 31606 31607 31608 31609 31610 31611 31612 31613 31614 31615 31616 31617 31618 31619 31620 31621 31622 31623 31624 31625 31626 31627 31628 31629 31630 31631 31632 31633 31634 31635 31636 31637 31638 31639 31640 31641 31642 31643 31644 31645 31646 31647 31648 31649 31650 31651 31652 31653 31654 31655 31656 31657 31658 31659 31660 31661 31662 31663 31664 31665 31666 31667 31668 31669 31670 31671 31672 31673 31674 31675 31676 31677 31678 31679 31680 31681 31682 31683 31684 31685 31686 31687 31688 31689 31690 31691 31692 31693 31694 31695 31696 31697 31698 31699 31700 31701 31702 31703 31704 31705 31706 31707 31708 31709 31710 31711 31712 31713 31714 31715 31716 31717 31718 31719 31720 31721 31722 31723 31724 31725 31726 31727 31728 31729 31730 31731 31732 31733 31734 31735 31736 31737 31738 31739 31740 31741 31742 31743 31744 31745 31746 31747 31748 31749 31750 31751 31752 31753 31754 31755 31756 31757 31758 31759 31760 31761 31762 31763 31764 31765 31766 31767 31768 31769 31770 31771 31772 31773 31774 31775 31776 31777 31778 31779 31780 31781 31782 31783 31784 31785 31786 31787 31788 31789 31790 31791 31792 31793 31794 31795 31796 31797 31798 31799 31800 31801 31802 31803 31804 31805 31806 31807 31808 31809 31810 31811 31812 31813 31814 31815 31816 31817 31818 31819 31820 31821 31822 31823 31824 31825 31826 31827 31828 31829 31830 31831 31832 31833 31834 31835 31836 31837 31838 31839 31840 31841 31842 31843 31844 31845 31846 31847 31848 31849 31850 31851 31852 31853 31854 31855 31856 31857 31858 31859 31860 31861 31862 31863 31864 31865 31866 31867 31868 31869 31870 31871 31872 31873 31874 31875 31876 31877 31878 31879 31880 31881 31882 31883 31884 31885 31886 31887 31888 31889 31890 31891 31892 31893 31894 31895 31896 31897 31898 31899 31900 31901 31902 31903 31904 31905 31906 31907 31908 31909 31910 31911 31912 31913 31914 31915 31916 31917 31918 31919 31920 31921 31922 31923 31924 31925 31926 31927 31928 31929 31930 31931 31932 31933 31934 31935 31936 31937 
</DataArray>
<DataArray type="UInt32" Name="offsets" format="ascii">
3 6 9 11 14 17 20 23 25 28 31 33 36 39 42 45 48 51 54 57 60 63 66 69 72 75 78 81 84 87 90 93 96 99 102 104 107 110 113 116 119 122 125 128 131 134 137 140 143 146 149 152 155 158 161 164 167 170 172 175 178 181 184 187 190 193 196 199 201 204 207 210 212 214 217 220 222 225 228 230 233 236 239 241 244 246 248 251 254 257 260 262 265 268 271 274 277 280 283 286 288 291 294 297 300 303 306 309 311 314 317 320 322 325 328 330 333 336 338 341 344 347 350 353 356 359 362 365 367 370 373 376 379 382 385 388 391 394 397 400 403 406 409 411 414 417 420 423 426 429 432 435 438 441 444 447 450 453 456 459 462 465 468 471 474 477 480 482 485 488 490 493 496 499 502 505 508 511 514 517 520 523 526 529 532 535 538 541 544 547 550 553 556 559 562 565 568 571 574 577 580 583 586 589 592 595 598 601 604 607 610 613 616 619 622 625 627 630 633 636 639 642 645 648 651 654 657 659 662 665 667 670 673 675 678 681 683 686 689 692 694 696 699 702 704 707 709 712 715 718 721 723 726 728 731 734 736 739 741 744 747 750 753 756 759 762 764 767 770 773 776 778 780 783 786 789 791 794 797 800 803 806 808 810 813 816 818 821 824 827 830 832 835 838 841 844 846 849 852 855 858 861 863 866 869 871 874 877 880 882 885 888 891 894 897 900 903 906 909 912 915 918 921 924 927 930 933 936 939 942 945 948 951 954 957 960 963 966 969 972 975 978 981 984 987 990 993 996 999 1002 1005 1008 1011 1014 1017 1020 1023 1026 1029 1032 1035 1038 1041 1044 1047 1050 1053 1056 1059 1062 1065 1068 1071 1073 1076 1079 1082 1084 1087 1090 1093 1096 1099 1102 1105 1108 1111 1114 1116 1119 1122 1125 1128 1131 1134 1137 1140 1143 1146 1149 1152 1155 1158 1161 1164 1167 1169 1172 1175 1178 1181 1184 1187 1190 1193 1196 1199 1202 1205 1208 1211 1213 1216 1219 1222 1224 1227 1230 1233 1236 1239 1242 1245 1248 1251 1254 1257 1260 1263 1266 1269 1272 1274 1277 1280 1283 1285 1288 1291 1293 1296 1299 1302 1305 1308 1311 1314 1317 1320 1323 1326 1328 1331 1334 1337 1340 1342 1345 1348 1351 1354 1357 1359 1362 1365 1368 1371 1373 1376 1379 1382 1385 1388 1391 1394 1397 1400 1403 1406 1409 1412 1415 1418 1421 1424 1427 1430 1433 1436 1439 1442 1445 1448 1451 1454 1457 1460 1463 1466 1469 1472 1475 1478 1481 1484 1487 1489 1492 1494 1497 1500 1503 1506 1509 1512 1515 1518 1521 1524 1527 1530 1533 1536 1538 1541 1544 1547 1550 1553 1556 1558 1561 1564 1567 1570 1573 1576 1579 1581 1584 1587 1590 1593 1596 1599 1602 1605 1608 1611 1614 1617 1620 1623 1626 1629 1631 1634 1637 1640 1643 1646 1649 1651 1654 1657 1660 1663 1666 1669 1672 1675 1678 1681 1684 1687 1690 1693 1696 1699 1702 1704 1707 1710 1713 1715 1718 1721 1724 1727 1730 1733 1736 1739 1742 1745 1748 1751 1754 1757 1760 1763 1766 1769 1772 1775 1778 1781 1784 1787 1790 1793 1796 1799 1802 1805 1808 1811 1814 1817 1820 1823 1826 1829 1832 1835 1838 1841 1844 1847 1850 1853 1856 1859 1862 1865 1868 1871 1874 1877 1880 1883 1886 1888 1891 1893 1896 1898 1900 1903 1906 1909 1912 1915 1918 1921 1924 1927 1930 1932 1935 1938 1940 1942 1945 1948 1951 1954 1956 1959 1962 1964 1967 1970 1973 1976 1979 1982 1985 1988 1991 1994 1996 1998 2001 2003 2006 2008 2011 2014 2017 2020 2023 2026 2029 2032 2034 2036 2038 2041 2044 2047 2050 2053 2056 2059 2062 2065 2068 2071 2074 2077 2080 2083 2086 2089 2092 2095 2098 2101 2104 2107 2110 2113 2116 2119 2122 2125 2128 2131 2134 2137 2140 2143 2146 2149 2152 2155 2158 2160 2163 2166 2169 2172 2175 2178 2181 2184 2187 2189 2192 2195 2198 2200 2203 2205 2208 2211 2214 2217 2219 2222 2225 2228 2231 2233 2236 2239 2242 2245 2248 2251 2254 2256 2258 2261 2264 2267 2269 2272 2275 2278 2281 2283 2286 2289 2292 2295 2298 2301 2303 2306 2309 2312 2315 2318 2320 2323 2326 2329 2332 2335 2338 2341 2344 2347 2350 2353 2356 2358 2361 2364 2367 2370 2372 2375 2378 2381 2384 2387 2390 2393 2396 2399 2402 2404 2407 2410 2413 2416 2419 2422 2425 2428 2431 2434 2437 2440 2443 2446 2449 2452 2455 2458 2461 2463 2466 2469 2472 2474 2477 2480 2483 2486 2489 2492 2494 2497 2500 2502 2505 2508 2511 2514 2517 2520 2523 2526 2529 2532 2535 2538 2540 2542 2545 2548 2551 2554 2557 2560 2562 2565 2568 2571 2574 2577 2580 2583 2586 2589 2592 2595 2598 2601 2604 2607 2610 2612 2615 2618 2621 2624 2627 2630 2633 2636 2639 2642 2645 2648 2651 2653 2656 2659 2661 2664 2667 2670 2672 2675 2678 2681 2684 2687 2690 2692 2695 2698 2701 2704 2707 2710 2713 2716 2718 2721 2724 2727 2730 2733 2736 2738 2741 2744 2747 2750 2753 2756 2759 2762 2765 2768 2771 2774 2777 2780 2783 2785 2788 2791 2794 2797 2800 2803 2806 2809 2812 2815 2818 2821 2824 2827 2830 2833 2836 2839 2842 2845 2848 2851 2854 2857 2860 2863 2866 2868 2871 2873 2876 2878 2880 2883 2886 2889 2892 2895 2898 2901 2904 2907 2910 2913 2916 2918 2921 2923 2926 2928 2930 2933 2935 2937 2940 2943 2946 2949 2951 2953 2956 2958 2960 2963 2966 2968 2971 2974 2976 2979 2982 2985 2988 2991 2994 2997 3000 3002 3005 3008 3010 3013 3016 3019 3022 3024 3027 3030 3033 3036 3038 3041 3043 3046 3049 3052 3055 3058 3060 3063 3066 3069 3072 3075 3078 3080 3083 3086 3088 3091 3094 3097 3100 3103 3106 3109 3112 3115 3117 3120 3123 3125 3128 3131 3134 3137 3139 3142 3145 3147 3150 3153 3156 3159 3162 3165 3168 3171 3174 3177 3180 3183 3186 3189 3192 3195 3198 3200 3203 3206 3209 3211 3214 3217 3220 3223 3226 3229 3231 3234 3237 3240 3242 3245 3248 3251 3254 3257 3260 3263 3266 3269 3272 3275 3278 3281 3284 3287 3290 3293 3295 3298 3301 3304 3307 3309 3312 3315 3317 3320 3323 3326 3329 3332 3334 3337 3340 3343 3346 3349 3351 3354 3357 3359 3361 3364 3367 3370 3373 3376 3379 3382 3384 3387 3390 3393 3396 3399 3402 3405 3407 3410 3413 3416 3419 3422 3425 3428 3431 3434 3437 3440 3443 3446 3449 3452 3455 3458 3461 3464 3467 3470 3473 3475 3477 3480 3483 3486 3489 3491 3494 3497 3500 3503 3506 3509 3512 3515 3518 3521 3524 3527 3529 3532 3534 3537 3540 3543 3546 3549 3552 3555 3558 3560 3563 3566 3569 3572 3574 3577 3580 3583 3586 3589 3592 3594 3597 3600 3603 3606 3608 3611 3613 3616 3619 3622 3625 3627 3630 3633 3636 3638 3641 3644 3647 3650 3653 3656 3659 3662 3665 3667 3670 3673 3676 3679 3681 3684 3687 3690 3692 3695 3698 3701 3703 3706 3708 3711 3714 3717 3720 3723 3726 3729 3732 3735 3738 3741 3743 3745 3748 3751 3754 3757 3760 3762 3765 3768 3771 3774 3777 3780 3783 3786 3789 3792 3795 3798 3801 3804 3807 3810 3812 3815 3818 3821 3824 3826 3829 3832 3835 3838 3841 3844 3847 3850 3853 3855 3858 3861 3864 3867 3870 3873 3876 3878 3881 3884 3887 3890 3893 3896 3899 3902 3904 3907 3909 3911 3914 3917 3920 3923 3926 3929 3932 3935 3938 3941 3944 3947 3950 3953 3956 3959 3962 3965 3968 3971 3974 3976 3979 3982 3985 3988 3991 3994 3997 4000 4003 4006 4008 4011 4014 4016 4019 4022 4025 4027 4030 4033 4036 4039 4042 4044 4046 4049 4052 4054 4057 4060 4063 4066 4069 4071 4074 4077 4080 4082 4084 4087 4090 4093 4095 4098 4101 4103 4105 4108 4111 4114 4117 4120 4123 4126 4129 4132 4135 4138 4141 4144 4147 4150 4152 4155 4158 4161 4164 4167 4169 4172 4175 4178 4181 4183 4186 4189 4192 4195 4198 4201 4203 4206 4209 4212 4214 4217 4220 4222 4224 4227 4230 4233 4236 4239 4242 4245 4248 4250 4253 4256 4259 4262 4265 4268 4270 4273 4276 4279 4282 4285 4288 4291 4294 4297 4300 4303 4306 4309 4312 4315 4318 4321 4324 4327 4330 4333 4336 4339 4342 4345 4348 4351 4354 4357 4360 4363 4366 4369 4372 4374 4377 4380 4382 4385 4388 4391 4394 4397 4400 4403 4406 4409 4412 4415 4418 4421 4424 4427 4430 4432 4435 4438 4441 4444 4447 4450 4453 4456 4459 4462 4464 4467 4470 4473 4476 4479 4481 4484 4487 4490 4493 4496 4498 4501 4504 4506 4509 4512 4514 4517 4520 4522 4525 4528 4530 4533 4536 4539 4542 4545 4548 4551 4554 4557 4560 4563 4566 4569 4572 4575 4578 4581 4584 4586 4589 4592 4595 4598 4601 4604 4607 4610 4613 4615 4618 4621 4624 4627 4630 4632 4634 4637 4640 4643 4646 4649 4652 4655 4658 4661 4664 4667 4670 4673 4676 4679 4681 4684 4687 4690 4693 4696 4699 4702 4705 4708 4711 4714 4717 4720 4722 4725 4728 4731 4734 4737 4740 4742 4745 4748 4751 4754 4756 4759 4762 4765 4767 4770 4773 4776 4779 4782 4784 4787 4790 4793 4796 4799 4802 4805 4808 4811 4814 4817 4820 4823 4826 4829 4832 4835 4838 4841 4844 4847 4850 4852 4855 4858 4861 4864 4866 4869 4872 4875 4878 4881 4884 4887 4890 4893 4895 4898 4901 4904 4907 4910 4913 4916 4919 4922 4925 4927 4930 4933 4936 4939 4942 4944 4947 4950 4953 4956 4959 4962 4965 4968 4970 4973 4976 4978 4981 4984 4987 4990 4993 4996 4998 5001 5004 5007 5010 5013 5016 5019 5022 5025 5028 5030 5032 5035 5038 5041 5043 5046 5048 5051 5054 5056 5059 5062 5065 5068 5071 5073 5076 5078 5081 5084 5086 5088 5090 5093 5095 5098 5101 5104 5106 5109 5112 5114 5117 5119 5122 5125 5128 5130 5133 5135 5138 5141 5144 5147 5149 5152 5155 5158 5160 5163 5166 5168 5170 5172 5175 5177 5180 5182 5184 5187 5190 5193 5196 5198 5201 5204 5207 5210 5213 5216 5219 5222 5224 5227 5229 5232 5235 5238 5241 5244 5247 5250 5253 5256 5259 5262 5265 5268 5271 5273 5276 5278 5281 5284 5287 5290 5293 5296 5299 5302 5305 5307 5310 5313 5315 5318 5321 5324 5327 5330 5333 5336 5338 5341 5344 5346 5349 5351 5354 5356 5359 5361 5364 5367 5370 5373 5375 5378 5380 5383 5386 5389 5392 5395 5398 5401 5404 5407 5410 5413 5416 5419 5422 5425 5428 5431 5434 5437 5440 5443 5446 5449 5452 5455 5458 5461 5464 5467 5469 5472 5475 5478 5481 5484 5487 5490 5493 5496 5499 5502 5504 5507 5510 5512 5515 5518 5521 5523 5526 5529 5532 5535 5537 5539 5542 5545 5547 5550 5553 5556 5559 5562 5565 5567 5570 5573 5576 5579 5582 5585 5588 5590 5593 5596 5599 5602 5605 5608 5611 5613 5616 5619 5622 5624 5627 5630 5633 5636 5639 5642 5644 5647 5650 5653 5656 5658 5661 5664 5667 5669 5672 5675 5678 5681 5684 5687 5690 5693 5696 5699 5702 5705 5708 5711 5714 5717 5720 5723 5726 5729 5732 5735 5738 5740 5743 5746 5749 5752 5755 5757 5760 5763 5766 5769 5772 5775 5778 5781 5784 5787 5790 5793 5796 5799 5802 5805 5808 5811 5814 5817 5820 5823 5826 5829 5832 5835 5838 5841 5844 5847 5850 5853 5856 5859 5862 5865 5868 5871 5874 5877 5880 5883 5886 5889 5892 5895 5898 5901 5903 5906 5909 5912 5914 5917 5920 5923 5926 5928 5931 5934 5937 5940 5942 5945 5948 5951 5954 5957 5960 5963 5966 5969 5972 5974 5977 5980 5983 5985 5988 5990 5993 5996 5999 6002 6005 6008 6011 6014 6017 6020 6023 6026 6029 6032 6035 6037 6040 6043 6045 6047 6050 6053 6056 6059 6062 6064 6067 6070 6072 6075 6078 6081 6084 6087 6090 6093 6096 6099 6102 6105 6108 6111 6114 6117 6120 6123 6126 6129 6132 6135 6138 6141 6144 6147 6150 6153 6156 6159 6162 6165 6168 6171 6174 6177 6180 6183 6186 6189 6192 6195 6197 6200 6203 6206 6209 6212 6215 6218 6221 6224 6227 6230 6233 6236 6239 6242 6245 6248 6251 6254 6257 6260 6263 6266 6269 6272 6275 6278 6281 6284 6287 6290 6293 6296 6299 6302 6304 6307 6310 6313 6316 6319 6322 6325 6328 6331 6334 6337 6339 6342 6345 6348 6350 6353 6355 6357 6359 6361 6364 6367 6370 6373 6376 6379 6382 6385 6388 6391 6393 6396 6399 6402 6404 6407 6410 6413 6416 6419 6422 6425 6428 6431 6434 6437 6440 6443 6446 6449 6451 6454 6456 6459 6462 6464 6467 6470 6472 6475 6477 6479 6482 6485 6487 6490 6493 6496 6499 6502 6505 6508 6511 6514 6517 6520 6523 6526 6529 6532 6534 6537 6540 6543 6546 6549 6552 6555 6557 6560 6563 6566 6569 6572 6575 6578 6580 6583 6586 6589 6592 6594 6596 6599 6602 6605 6608 6611 6614 6617 6620 6623 6626 6629 6632 6635 6638 6641 6644 6647 6650 6653 6655 6658 6661 6664 6667 6670 6673 6676 6679 6682 6684 6687 6690 6693 6696 6699 6702 6704 6707 6710 6713 6716 6719 6722 6725 6728 6731 6734 6737 6740 6743 6746 6749 6752 6755 6758 6761 6764 6767 6770 6773 6776 6779 6782 6785 6788 6791 6794 6797 6800 6802 6805 6808 6811 6814 6816 6819 6822 6825 6828 6831 6834 6837 6840 6843 6846 6849 6852 6855 6858 6861 6864 6867 6870 6873 6876 6879 6882 6885 6888 6891 6894 6897 6900 6903 6906 6909 6912 6915 6918 6921 6923 6926 6929 6932 6935 6937 6940 6943 6946 6949 6952 6955 6958 6960 6963 6966 6969 6972 6975 6978 6981 6984 6987 6990 6993 6996 6999 7002 7005 7008 7011 7013 7016 7019 7022 7025 7028 7031 7034 7037 7040 7043 7046 7049 7052 7055 7058 7061 7064 7067 7070 7073 7076 7079 7082 7084 7087 7089 7092 7095 7098 7101 7104 7107 7110 7113 7115 7118 7120 7123 7126 7129 7131 7134 7137 7140 7143 7146 7149 7152 7154 7157 7160 7162 7165 7168 7171 7173 7176 7179 7182 7185 7188 7191 7194 7197 7200 7203 7206 7209 7212 7215 7218 7221 7224 7227 7229 7232 7235 7238 7241 7244 7247 7250 7253 7256 7259 7262 7265 7268 7270 7273 7276 7279 7282 7285 7288 7291 7294 7297 7300 7303 7306 7309 7312 7315 7318 7321 7324 7327 7330 7333 7335 7338 7341 7343 7346 7349 7352 7355 7358 7361 7364 7367 7369 7372 7374 7376 7379 7382 7385 7388 7391 7394 7397 7400 7402 7405 7408 7411 7414 7417 7420 7423 7426 7429 7432 7434 7437 7440 7442 7445 7447 7450 7452 7455 7457 7459 7462 7465 7467 7469 7472 7475 7478 7481 7484 7487 7490 7493 7496 7498 7501 7504 7507 7510 7512 7515 7518 7521 7524 7527 7530 7532 7535 7538 7540 7543 7545 7548 7551 7553 7556 7558 7561 7563 7566 7569 7571 7574 7576 7579 7582 7585 7588 7591 7593 7595 7598 7600 7603 7606 7609 7612 7614 7617 7620 7623 7626 7629 7632 7635 7637 7640 7643 7646 7648 7651 7654 7657 7659 7662 7665 7668 7671 7674 7677 7680 7683 7686 7688 7691 7694 7696 7698 7701 7704 7707 7710 7713 7716 7719 7721 7724 7727 7730 7733 7736 7739 7742 7745 7748 7751 7754 7757 7760 7763 7766 7769 7772 7775 7778 7781 7784 7787 7790 7793 7796 7799 7802 7805 7808 7811 7814 7817 7820 7823 7826 7829 7832 7835 7838 7841 7844 7847 7850 7853 7856 7859 7862 7865 7868 7871 7874 7877 7880 7883 7886 7889 7892 7895 7898 7901 7904 7907 7910 7913 7916 7919 7922 7925 7928 7931 7933 7936 7939 7941 7944 7947 7950 7953 7956 7958 7961 7964 7967 7970 7973 7976 7979 7982 7985 7988 7991 7994 7997 8000 8003 8006 8009 8012 8015 8018 8021 8024 8027 8030 8033 8036 8039 8042 8045 8048 8051 8054 8057 8060 8063 8066 8069 8072 8075 8078 8081 8083 8086 8088 8091 8094 8097 8099 8102 8105 8108 8111 8114 8117 8119 8122 8124 8127 8130 8133 8136 8139 8142 8145 8148 8151 8154 8157 8159 8162 8165 8168 8171 8174 8177 8180 8183 8186 8189 8192 8195 8198 8201 8204 8207 8210 8212 8215 8218 8221 8224 8227 8230 8233 8236 8239 8242 8244 8247 8249 8252 8255 8258 8261 8264 8267 8270 8273 8276 8279 8282 8285 8288 8291 8294 8297 8299 8302 8305 8308 8311 8314 8317 8320 8323 8326 8329 8332 8335 8338 8341 8344 8347 8350 8353 8356 8359 8362 8364 8367 8370 8373 8376 8379 8381 8384 8387 8390 8392 8395 8398 8400 8403 8406 8409 8412 8415 8417 8420 8423 8426 8429 8432 8435 8437 8440 8443 8446 8449 8452 8455 8458 8460 8462 8465 8468 8471 8474 8477 8480 8483 8486 8488 8491 8494 8497 8500 8503 8506 8509 8512 8515 8518 8521 8523 8526 8529 8532 8535 8538 8540 8543 8545 8548 8551 8554 8556 8559 8562 8565 8567 8569 8572 8575 8578 8581 8583 8586 8588 8591 8594 8597 8600 8602 8605 8608 8611 8614 8617 8620 8623 8625 8628 8631 8634 8636 8639 8642 8645 8648 8651 8654 8657 8660 8663 8666 8669 8672 8675 8678 8681 8684 8687 8690 8693 8696 8699 8702 8704 8707 8710 8713 8715 8718 8721 8723 8726 8729 8732 8735 8738 8741 8744 8747 8750 8753 8756 8759 8762 8765 8768 8771 8774 8777 8780 8783 8785 8788 8791 8794 8796 8799 8802 8805 8808 8811 8814 8817 8820 8823 8826 8829 8832 8835 8838 8841 8844 8847 8850 8853 8856 8859 8862 8865 8867 8870 8872 8875 8878 8881 8884 8887 8890 8892 8895 8898 8901 8904 8907 8910 8913 8916 8919 8922 8925 8928 8931 8934 8937 8940 8943 8946 8949 8952 8955 8958 8961 8964 8967 8970 8973 8976 8979 8981 8984 8987 8990 8993 8996 8999 9002 9005 9008 9011 9014 9016 9019 9022 9025 9028 9030 9033 9035 9038 9040 9042 9045 9048 9051 9054 9057 9060 9063 9066 9069 9072 9075 9078 9081 9084 9087 9090 9093 9096 9099 9102 9105 9108 9111 9114 9117 9120 9123 9126 9129 9132 9135 9138 9141 9143 9146 9149 9151 9154 9157 9159 9162 9165 9167 9169 9171 9174 9177 9179 9182 9185 9187 9190 9192 9195 9198 9201 9204 9206 9209 9212 9215 9218 9220 9223 9226 9229 9232 9235 9237 9240 9243 9246 9249 9252 9255 9258 9260 9262 9265 9268 9271 9274 9277 9280 9283 9286 9289 9292 9295 9297 9300 9303 9306 9309 9312 9314 9317 9320 9323 9326 9329 9332 9334 9337 9340 9343 9346 9349 9352 9354 9357 9360 9363 9366 9369 9372 9375 9378 9381 9384 9387 9390 9392 9395 9398 9401 9404 9407 9410 9412 9415 9418 9420 9423 9425 9428 9431 9434 9436 9439 9442 9444 9447 9450 9453 9456 9459 9461 9464 9467 9470 9473 9476 9479 9482 9485 9488 9491 9493 9496 9499 9502 9505 9508 9511 9513 9516 9519 9522 9525 9528 9531 9534 9537 9540 9543 9546 9549 9552 9555 9558 9561 9564 9567 9569 9572 9575 9578 9581 9584 9587 9590 9593 9595 9598 9601 9604 9607 9610 9613 9616 9619 9621 9624 9627 9630 9633 9635 9637 9640 9643 9646 9649 9652 9655 9658 9660 9663 9665 9668 9671 9674 9677 9680 9682 9685 9687 9689 9692 9695 9698 9700 9703 9705 9707 9710 9713 9716 9718 9721 9723 9726 9729 9732 9735 9738 9741 9744 9747 9749 9752 9755 9757 9760 9763 9765 9767 9770 9773 9775 9778 9780 9782 9785 9787 9790 9792 9795 9798 9800 9802 9804 9807 9810 9813 9815 9818 9821 9823 9826 9829 9832 9835 9838 9841 9844 9846 9849 9852 9855 9857 9859 9862 9864 9867 9870 9873 9876 9879 9882 9885 9888 9891 9894 9896 9899 9902 9904 9907 9910 9912 9915 9918 9921 9923 9925 9927 9930 9933 9935 9938 9940 9943 9946 9949 9952 9955 9958 9961 9964 9966 9969 9972 9975 9978 9981 9984 9987 9990 9993 9996 9999 10002 10005 10008 10011 10014 10016 10019 10022 10025 10028 10031 10034 10037 10039 10042 10045 10048 10051 10053 10056 10059 10061 10064 10067 10069 10071 10074 10077 10080 10083 10086 10089 10092 10095 10098 10100 10103 10105 10108 10110 10113 10115 10117 10120 10122 10125 10128 10131 10133 10136 10139 10142 10145 10148 10151 10153 10156 10159 10162 10165 10168 10171 10174 10177 10180 10183 10185 10187 10190 10193 10196 10199 10202 10205 10208 10211 10214 10217 10219 10222 10225 10228 10231 10234 10237 10240 10243 10246 10249 10252 10255 10258 10261 10264 10267 10270 10273 10276 10279 10281 10284 10287 10290 10293 10296 10298 10301 10304 10307 10310 10313 10316 10319 10322 10325 10328 10331 10334 10337 10340 10343 10346 10349 10352 10355 10358 10360 10363 10366 10369 10372 10374 10377 10380 10382 10385 10388 10390 10392 10395 10397 10400 10403 10405 10408 10411 10414 10417 10420 10423 10426 10429 10432 10435 10438 10441 10444 10447 10450 10453 10456 10459 10462 10465 10468 10471 10474 10477 10480 10483 10486 10489 10492 10495 10498 10501 10504 10507 10510 10512 10515 10518 10521 10524 10526 10529 10532 10535 10538 10541 10544 10546 10548 10551 10554 10557 10559 10562 10564 10567 10569 10572 10575 10578 10581 10584 10587 10590 10593 10596 10599 10602 10605 10608 10611 10613 10616 10619 10622 10625 10627 10630 10633 10635 10637 10640 10643 10646 10648 10651 10654 10657 10660 10663 10665 10668 10671 10673 10676 10679 10681 10684 10687 10690 10692 10695 10698 10700 10703 10706 10709 10712 10715 10718 10721 10724 10726 10729 10732 10734 10736 10739 10742 10744 10747 10750 10753 10756 10758 10761 10764 10767 10770 10773 10776 10779 10782 10785 10788 10791 10794 10797 10800 10803 10806 10808 10811 10814 10817 10820 10822 10825 10828 10831 10834 10837 10839 10841 10844 10846 10849 10851 10854 10857 10859 10862 10865 10868 10871 10874 10876 10879 10882 10884 10887 10890 10893 10896 10899 10902 10905 10908 10911 10914 10916 10919 10922 10925 10927 10930 10933 10936 10939 10941 10944 10946 10949 10952 10955 10958 10961 10964 10967 10969 10972 10975 10978 10981 10984 10987 10990 10993 10996 10999 11002 11005 11007 11010 11013 11016 11019 11022 11025 11028 11031 11034 11037 11039 11042 11044 11047 11050 11052 11055 11058 11061 11064 11066 11069 11071 11074 11076 11079 11082 11085 11087 11090 11092 11095 11098 11100 11102 11105 11108 11111 11113 11115 11118 11120 11123 11126 11129 11132 11135 11137 11140 11143 11146 11149 11152 11155 11157 11160 11163 11166 11169 11171 11174 11177 11179 11182 11184 11187 11190 11193 11196 11199 11202 11205 11208 11211 11214 11217 11220 11223 11226 11229 11232 11235 11238 11241 11244 11247 11250 11253 11256 11259 11262 11265 11268 11271 11274 11277 11280 11283 11286 11289 11292 11295 11298 11301 11303 11306 11309 11312 11315 11318 11321 11324 11327 11330 11332 11335 11338 11341 11343 11346 11349 11352 11355 11358 11361 11364 11367 11370 11373 11376 11379 11382 11385 11388 11391 11394 11397 11400 11403 11406 11409 11412 11415 11418 11421 11424 11427 11430 11433 11436 11438 11441 11443 11446 11449 11452 11455 11458 11461 11464 11467 11470 11473 11476 11479 11482 11485 11488 11491 11494 11497 11500 11503 11506 11509 11512 11515 11518 11521 11524 11527 11530 11533 11536 11539 11542 11545 11547 11550 11553 11555 11558 11561 11563 11566 11568 11571 11574 11576 11579 11582 11584 11586 11589 11592 11595 11598 11601 11603 11606 11609 11612 11615 11618 11620 11623 11626 11629 11632 11635 11638 11641 11644 11647 11650 11653 11656 11659 11662 11665 11668 11671 11674 11677 11680 11683 11686 11689 11692 11695 11698 11701 11704 11707 11710 11712 11715 11718 11721 11724 11727 11729 11732 11735 11738 11741 11744 11747 11750 11752 11755 11758 11760 11763 11766 11769 11771 11773 11775 11778 11781 11784 11787 11789 11791 11794 11797 11799 11801 11804 11807 11809 11812 11815 11818 11820 11823 11826 11828 11831 11833 11836 11839 11842 11845 11848 11851 11854 11857 11859 11861 11864 11866 11869 11872 11875 11878 11881 11883 11886 11888 11891 11893 11896 11899 11902 11904 11906 11909 11911 11913 11916 11919 11922 11925 11927 11929 11932 11934 11937 11939 11942 11945 11948 11951 11954 11957 11960 11963 11966 11968 11970 11973 11976 11979 11982 11985 11988 11991 11993 11996 11999 12002 12005 12007 12010 12013 12016 12019 12022 12025 12028 12031 12034 12037 12040 12043 12046 12049 12051 12054 12056 12058 12061 12064 12067 12070 12072 12075 12078 12081 12083 12086 12089 12092 12095 12097 12099 12102 12105 12107 12110 12113 12115 12118 12121 12124 12127 12130 12132 12135 12138 12141 12144 12147 12150 12152 12155 12157 12160 12163 12166 12168 12171 12174 12177 12180 12183 12186 12189 12192 12195 12198 12201 12204 12207 12210 12213 12216 12219 12222 12225 12228 12231 12234 12237 12240 12243 12246 12249 12252 12255 12258 12261 12264 12267 12270 12273 12276 12278 12280 12283 12286 12289 12292 12295 12298 12301 12304 12307 12310 12313 12316 12319 12321 12324 12327 12329 12332 12335 12337 12340 12343 12345 12348 12351 12354 12357 12360 12362 12365 12367 12370 12373 12376 12379 12382 12385 12388 12391 12394 12397 12400 12403 12406 12409 12411 12414 12417 12420 12422 12425 12427 12430 12433 12436 12439 12442 12445 12448 12451 12454 12457 12460 12463 12466 12469 12472 12475 12478 12481 12484 12487 12490 12493 12496 12498 12501 12504 12507 12510 12513 12516 12519 12522 12525 12528 12531 12534 12537 12540 12543 12546 12549 12552 12555 12558 12561 12564 12566 12568 12571 12574 12577 12580 12583 12586 12589 12592 12595 12598 12601 12604 12606 12609 12612 12615 12618 12621 12624 12627 12630 12633 12635 12638 12641 12644 12647 12649 12652 12655 12657 12660 12663 12666 12669 12672 12675 12678 12681 12683 12686 12688 12691 12694 12697 12700 12703 12706 12709 12712 12715 12718 12721 12724 12727 12729 12732 12735 12738 12741 12744 12747 12750 12753 12756 12759 12762 12765 12768 12771 12774 12777 12780 12783 12786 12789 12791 12794 12797 12800 12803 12806 12809 12811 12814 12817 12820 12823 12826 12829 12832 12835 12838 12841 12844 12847 12850 12853 12856 12859 12862 12865 12868 12871 12874 12877 12880 12883 12886 12889 12892 12895 12897 12900 12902 12905 12908 12911 12914 12917 12920 12923 12925 12928 12931 12934 12937 12939 12941 12944 12946 12949 12952 12955 12958 12960 12963 12966 12969 12972 12975 12978 12981 12984 12987 12989 12992 12994 12996 12999 13002 13005 13008 13011 13014 13017 13020 13023 13026 13028 13031 13034 13037 13040 13043 13046 13049 13052 13055 13058 13061 13063 13066 13068 13071 13074 13077 13080 13083 13086 13088 13091 13093 13096 13099 13102 13105 13108 13111 13114 13117 13120 13123 13126 13128 13131 13134 13136 13138 13141 13144 13147 13150 13152 13155 13157 13159 13162 13165 13168 13171 13173 13176 13178 13181 13184 13187 13190 13193 13196 13199 13202 13205 13208 13211 13214 13217 13220 13223 13226 13229 13232 13235 13238 13241 13243 13246 13248 13251 13253 13256 13258 13261 13264 13267 13270 13273 13276 13279 13282 13285 13288 13291 13294 13297 13300 13303 13306 13309 13312 13315 13318 13321 13324 13327 13330 13333 13336 13339 13342 13345 13348 13351 13354 13357 13360 13363 13366 13369 13372 13375 13378 13381 13384 13387 13390 13393 13396 13399 13402 13405 13408 13411 13414 13417 13420 13423 13426 13429 13432 13434 13437 13440 13443 13446 13449 13452 13455 13458 13460 13463 13466 13469 13472 13475 13478 13480 13483 13486 13489 13492 13495 13498 13501 13504 13507 13510 13513 13515 13518 13521 13524 13527 13530 13533 13536 13538 13540 13543 13546 13548 13551 13554 13557 13559 13561 13563 13565 13568 13571 13574 13577 13580 13583 13585 13588 13591 13594 13597 13599 13602 13605 13608 13610 13613 13616 13618 13620 13623 13626 13629 13632 13635 13638 13641 13643 13646 13649 13652 13655 13658 13661 13664 13667 13670 13673 13676 13679 13682 13684 13687 13690 13693 13696 13699 13702 13704 13707 13710 13713 13716 13719 13722 13725 13727 13730 13733 13736 13739 13742 13745 13748 13751 13753 13756 13759 13762 13764 13767 13770 13772 13775 13777 13780 13783 13786 13789 13792 13795 13798 13801 13804 13807 13809 13812 13814 13817 13819 13822 13825 13828 13831 13834 13837 13839 13842 13845 13848 13851 13854 13857 13859 13862 13865 13868 13871 13874 13877 13880 13883 13886 13889 13892 13895 13898 13900 13902 13905 13908 13911 13914 13916 13919 13922 13925 13927 13930 13933 13935 13938 13941 13943 13946 13949 13952 13955 13958 13960 13963 13966 13969 13972 13975 13977 13980 13983 13986 13989 13992 13994 13997 13999 14002 14004 14007 14010 14013 14016 14019 14022 14025 14028 14031 14034 14036 14039 14042 14045 14048 14051 14054 14057 14060 14063 14066 14069 14072 14075 14078 14080 14083 14086 14089 14092 14095 14097 14100 14103 14105 14108 14111 14114 14116 14119 14122 14125 14127 14130 14133 14136 14139 14142 14145 14148 14151 14154 14157 14160 14163 14166 14169 14171 14174 14177 14180 14183 14186 14189 14192 14195 14198 14201 14204 14207 14210 14213 14216 14219 14222 14225 14228 14231 14234 14237 14240 14242 14244 14246 14249 14252 14255 14258 14260 14263 14266 14269 14272 14275 14278 14281 14284 14287 14290 14293 14296 14299 14302 14305 14308 14311 14314 14317 14320 14323 14326 14329 14332 14335 14338 14341 14344 14347 14350 14353 14356 14359 14362 14365 14368 14371 14374 14376 14378 14381 14384 14386 14389 14392 14395 14398 14401 14403 14406 14409 14412 14415 14417 14420 14423 14426 14429 14432 14434 14437 14439 14442 14445 14448 14450 14453 14455 14458 14461 14463 14465 14468 14471 14474 14477 14480 14483 14486 14488 14491 14494 14497 14500 14502 14505 14508 14511 14514 14517 14520 14522 14525 14528 14531 14534 14537 14540 14543 14546 14549 14551 14554 14557 14560 14563 14566 14569 14572 14575 14578 14581 14584 14587 14590 14593 14596 14599 14602 14604 14607 14610 14613 14616 14619 14622 14624 14627 14630 14633 14636 14639 14642 14645 14647 14650 14653 14656 14659 14661 14664 14667 14670 14673 14676 14678 14681 14684 14687 14690 14693 14696 14698 14701 14704 14706 14709 14712 14715 14718 14720 14723 14726 14729 14732 14734 14737 14740 14743 14746 14749 14752 14755 14758 14761 14764 14767 14770 14773 14776 14779 14782 14785 14788 14791 14794 14797 14800 14803 14806 14809 14812 14814 14817 14820 14823 14826 14828 14831 14834 14837 14840 14843 14846 14848 14850 14853 14856 14859 14862 14865 14868 14871 14874 14877 14879 14881 14884 14887 14890 14893 14896 14898 14901 14904 14907 14910 14913 14916 14918 14921 14924 14927 14929 14932 14935 14937 14940 14943 14945 14947 14950 14953 14956 14958 14960 14963 14966 14969 14971 14974 14977 14980 14983 14986 14989 14992 14995 14998 15001 15004 15007 15010 15013 15016 15019 15022 15025 15028 15031 15034 15036 15039 15042 15045 15048 15051 15053 15055 15058 15060 15063 15066 15069 15071 15074 15077 15080 15083 15086 15089 15092 15095 15098 15101 15104 15107 15110 15113 15116 15119 15122 15125 15128 15131 15134 15137 15140 15143 15146 15149 15152 15155 15158 15161 15164 15166 15169 15172 15174 15177 15180 15183 15186 15189 15192 15195 15198 15201 15204 15207 15210 15213 15216 15219 15222 15225 15228 15231 15233 15235 15238 15240 15243 15246 15249 15252 15255 15258 15261 15264 15267 15270 15273 15276 15279 15282 15285 15287 15290 15292 15294 15297 15300 15302 15305 15307 15310 15312 15315 15318 15321 15323 15326 15329 15332 15334 15336 15338 15341 15344 15347 15349 15352 15355 15357 15360 15363 15366 15368 15371 15374 15377 15380 15382 15385 15388 15391 15394 15396 15399 15402 15405 15407 15409 15411 15414 15417 15420 15423 15426 15429 15432 15435 15438 15440 15443 15446 15449 15452 15455 15458 15461 15464 15467 15470 15473 15476 15479 15482 15485 15488 15491 15494 15496 15499 15502 15505 15508 15510 15513 15516 15519 15522 15525 15528 15531 15534 15537 15539 15542 15545 15548 15551 15554 15557 15560 15563 15566 15569 15572 15575 15578 15581 15584 15587 15590 15593 15596 15599 15601 15604 15607 15610 15613 15615 15618 15620 15623 15626 15629 15632 15635 15638 15641 15644 15646 15649 15652 15655 15658 15661 15664 15667 15670 15673 15676 15679 15682 15685 15688 15691 15694 15697 15700 15703 15706 15709 15711 15714 15717 15719 15722 15725 15728 15731 15734 15737 15740 15743 15746 15749 15752 15755 15758 15761 15764 15767 15770 15773 15776 15779 15781 15784 15787 15790 15793 15795 15797 15800 15803 15806 15809 15812 15815 15818 15821 15823 15826 15829 15831 15834 15836 15839 15842 15845 15847 15849 15852 15855 15857 15859 15862 15865 15868 15871 15873 15876 15878 15881 15884 15887 15890 15893 15896 15899 15902 15905 15908 15911 15914 15917 15920 15923 15926 15929 15931 15934 15937 15940 15942 15945 15948 15951 15954 15957 15959 15962 15965 15968 15971 15974 15977 15980 15983 15985 15988 15991 15994 15996 15999 16002 16005 16008 16011 16013 16016 16018 16020 16022 16025 16028 16031 16034 16036 16039 16042 16045 16047 16050 16053 16056 16059 16061 16063 16066 16069 16071 16074 16076 16079 16081 16084 16087 16090 16093 16096 16099 16102 16105 16108 16111 16114 16116 16119 16122 16124 16127 16129 16131 16134 16136 16138 16141 16144 16146 16149 16152 16155 16157 16160 16162 16165 16168 16171 16173 16176 16179 16181 16184 16186 16189 16192 16195 16198 16201 16204 16207 16210 16213 16216 16219 16222 16225 16228 16231 16234 16237 16240 16243 16246 16249 16252 16255 16258 16261 16264 16267 16270 16273 16275 16278 16281 16284 16287 16290 16292 16294 16296 16299 16302 16305 16308 16310 16313 16316 16319 16322 16325 16328 16331 16334 16337 16340 16343 16346 16349 16352 16355 16358 16361 16364 16367 16370 16373 16376 16379 16382 16385 16388 16391 16394 16397 16400 16403 16406 16409 16412 16415 16418 16421 16424 16427 16430 16432 16435 16438 16441 16444 16446 16449 16452 16455 16458 16461 16464 16467 16470 16473 16476 16479 16481 16483 16486 16489 16492 16495 16498 16501 16503 16506 16508 16511 16514 16517 16520 16523 16526 16529 16532 16535 16538 16541 16544 16547 16550 16553 16556 16559 16562 16565 16568 16570 16573 16576 16579 16582 16584 16586 16589 16591 16594 16597 16600 16603 16606 16609 16612 16615 16618 16621 16624 16627 16630 16633 16636 16639 16642 16645 16648 16651 16654 16657 16660 16663 16665 16668 16671 16674 16677 16680 16683 16686 16689 16692 16695 16698 16701 16704 16707 16710 16713 16716 16719 16722 16725 16728 16731 16734 16737 16740 16743 16746 16749 16751 16754 16757 16760 16763 16766 16769 16772 16775 16778 16781 16784 16787 16789 16792 16795 16798 16801 16804 16807 16809 16812 16815 16818 16821 16823 16825 16827 16830 16833 16836 16839 16842 16845 16848 16851 16854 16857 16859 16862 16865 16868 16871 16874 16877 16880 16883 16886 16889 16892 16895 16898 16901 16904 16906 16909 16912 16915 16918 16920 16923 16926 16929 16931 16934 16937 16940 16943 16946 16949 16952 16954 16957 16960 16963 16965 16968 16971 16974 16977 16980 16982 16984 16987 16990 16993 16995 16997 17000 17003 17006 17009 17011 17014 17016 17019 17021 17024 17026 17029 17032 17034 17036 17039 17041 17044 17047 17049 17052 17055 17057 17060 17063 17065 17068 17070 17073 17075 17078 17081 17083 17086 17089 17091 17094 17096 17098 17101 17103 17106 17109 17112 17114 17117 17120 17123 17126 17129 17132 17135 17138 17141 17144 17147 17149 17152 17155 17158 17161 17164 17167 17170 17173 17176 17179 17182 17185 17188 17191 17194 17197 17200 17203 17205 17208 17211 17214 17216 17219 17222 17224 17227 17229 17232 17235 17238 17240 17243 17245 17248 17250 17253 17256 17258 17261 17264 17267 17270 17273 17275 17278 17280 17283 17286 17289 17292 17295 17298 17301 17304 17307 17310 17312 17315 17317 17320 17323 17326 17329 17331 17334 17337 17339 17342 17344 17346 17349 17352 17355 17358 17361 17364 17366 17369 17372 17374 17377 17380 17383 17386 17388 17391 17394 17397 17399 17401 17404 17407 17410 17412 17415 17417 17420 17423 17426 17429 17432 17435 17438 17441 17444 17446 17449 17452 17454 17457 17460 17463 17466 17469 17472 17475 17478 17481 17484 17487 17490 17493 17496 17499 17502 17505 17508 17511 17514 17517 17520 17523 17526 17529 17532 17535 17538 17541 17544 17547 17550 17553 17556 17559 17562 17565 17568 17571 17574 17577 17580 17583 17586 17589 17592 17595 17598 17601 17604 17607 17610 17613 17616 17619 17622 17625 17628 17631 17634 17637 17640 17643 17646 17649 17652 17655 17658 17661 17664 17667 17670 17673 17676 17679 17682 17685 17688 17691 17694 17697 17700 17703 17706 17709 17712 17715 17717 17720 17723 17726 17729 17732 17735 17738 17741 17744 17746 17749 17751 17754 17757 17760 17763 17766 17769 17772 17775 17778 17781 17784 17787 17790 17793 17796 17799 17802 17805 17808 17811 17814 17817 17820 17823 17826 17829 17832 17835 17838 17841 17844 17847 17850 17853 17856 17859 17862 17865 17868 17871 17874 17877 17880 17883 17886 17889 17892 17895 17897 17900 17903 17906 17908 17911 17913 17916 17918 17921 17924 17927 17930 17933 17936 17939 17942 17945 17948 17951 17954 17957 17960 17962 17964 17966 17969 17972 17974 17977 17980 17983 17986 17989 17992 17995 17998 18000 18003 18005 18008 18010 18013 18016 18019 18021 18024 18027 18030 18033 18035 18038 18041 18044 18047 18050 18053 18056 18059 18062 18065 18068 18071 18074 18077 18080 18083 18086 18089 18092 18095 18097 18100 18103 18105 18108 18111 18114 18117 18120 18123 18126 18129 18132 18135 18137 18139 18142 18145 18148 18151 18154 18157 18160 18163 18166 18169 18172 18175 18178 18181 18183 18186 18189 18192 18195 18197 18200 18203 18206 18209 18212 18215 18218 18221 18224 18227 18230 18232 18235 18238 18241 18244 18247 18250 18253 18256 18259 18262 18265 18268 18271 18274 18277 18280 18283 18286 18289 18292 18294 18297 18300 18303 18306 18309 18311 18313 18316 18319 18322 18325 18328 18331 18334 18337 18340 18343 18346 18349 18352 18355 18358 18361 18364 18366 18368 18371 18373 18376 18379 18382 18385 18388 18391 18394 18397 18400 18402 18405 18407 18410 18412 18415 18418 18420 18422 18424 18427 18430 18432 18435 18438 18440 18443 18445 18448 18451 18454 18457 18460 18463 18465 18468 18471 18474 18477 18479 18482 18485 18488 18491 18494 18497 18500 18503 18506 18509 18512 18515 18518 18521 18524 18527 18530 18533 18536 18539 18542 18545 18548 18551 18554 18557 18560 18563 18566 18569 18572 18575 18578 18581 18584 18587 18590 18593 18596 18599 18602 18605 18608 18611 18613 18616 18619 18622 18624 18627 18630 18633 18636 18639 18642 18645 18648 18651 18654 18657 18660 18663 18666 18669 18672 18675 18678 18681 18683 18686 18689 18692 18695 18697 18700 18703 18706 18709 18712 18715 18718 18721 18724 18727 18729 18732 18735 18738 18741 18743 18745 18747 18750 18753 18755 18758 18761 18763 18766 18769 18772 18775 18778 18781 18784 18787 18790 18792 18795 18798 18801 18804 18807 18809 18812 18815 18818 18821 18824 18826 18829 18832 18835 18838 18841 18844 18846 18848 18851 18854 18856 18859 18862 18864 18867 18870 18873 18875 18878 18881 18884 18887 18890 18893 18895 18898 18900 18902 18905 18908 18911 18914 18917 18920 18923 18925 18927 18930 18933 18936 18939 18942 18945 18947 18950 18953 18955 18958 18961 18964 18967 18970 18973 18976 18979 18982 18985 18987 18990 18992 18995 18998 19001 19004 19006 19009 19012 19015 19018 19021 19024 19027 19030 19033 19036 19039 19042 19044 19047 19050 19053 19056 19059 19061 19064 19067 19070 19073 19075 19078 19081 19084 19086 19089 19091 19094 19097 19099 19102 19104 19107 19110 19113 19115 19117 19119 19122 19124 19127 19129 19131 19134 19136 19139 19141 19144 19146 19149 19151 19154 19157 19160 19162 19165 19168 19170 19172 19175 19178 19181 19183 19185 19187 19189 19192 19195 19198 19200 19203 19205 19207 19210 19212 19215 19218 19221 19223 19226 19229 19232 19235 19237 19240 19243 19246 19248 19250 19253 19256 19259 19262 19265 19268 19270 19273 19276 19279 19282 19285 19288 19291 19294 19297 19300 19303 19306 19309 19312 19315 19318 19321 19324 19327 19330 19333 19336 19339 19342 19344 19346 19349 19352 19355 19358 19361 19364 19367 19369 19371 19374 19376 19379 19382 19385 19387 19390 19393 19396 19399 19402 19405 19408 19411 19414 19416 19418 19421 19424 19426 19429 19432 19435 19437 19440 19443 19446 19449 19451 19454 19457 19460 19463 19466 19468 19470 19473 19476 19478 19481 19484 19486 19489 19492 19494 19497 19500 19503 19506 19509 19512 19514 19517 19519 19522 19525 19527 19530 19532 19535 19537 19540 19543 19546 19548 19551 19553 19556 19558 19561 19564 19566 19569 19572 19574 19577 19579 19581 19584 19587 19589 19591 19594 19596 19599 19602 19605 19608 19611 19614 19616 19618 19621 19624 19627 19630 19633 19635 19638 19641 19644 19647 19649 19652 19655 19657 19660 19663 19666 19669 19672 19674 19677 19680 19683 19686 19689 19692 19695 19698 19701 19704 19707 19710 19713 19716 19719 19721 19724 19727 19730 19733 19736 19739 19742 19745 19747 19750 19752 19755 19758 19761 19764 19767 19769 19772 19774 19777 19780 19782 19785 19788 19790 19793 19796 19798 19801 19804 19807 19810 19813 19816 19819 19822 19824 19827 19830 19833 19836 19839 19842 19845 19848 19851 19854 19857 19860 19863 19866 19869 19871 19874 19877 19880 19883 19886 19889 19892 19894 19897 19900 19902 19905 19908 19911 19914 19916 19919 19922 19925 19928 19931 19934 19937 19940 19943 19946 19949 19952 19955 19957 19960 19963 19966 19969 19971 19974 19977 19980 19983 19986 19989 19991 19993 19996 19999 20002 20005 20008 20010 20013 20015 20018 20021 20024 20027 20030 20033 20035 20038 20041 20043 20046 20049 20052 20055 20058 20061 20064 20067 20070 20072 20075 20078 20081 20084 20086 20089 20092 20095 20098 20101 20104 20107 20110 20112 20115 20117 20120 20123 20125 20128 20131 20133 20136 20139 20142 20145 20148 20151 20154 20157 20160 20163 20165 20168 20171 20174 20177 20180 20183 20186 20189 20192 20195 20198 20201 20204 20207 20210 20213 20216 20219 20222 20225 20228 20231 20234 20237 20240 20243 20246 20249 20252 20255 20258 20261 20264 20267 20270 20273 20276 20279 20282 20285 20288 20291 20294 20297 20300 20303 20306 20309 20312 20315 20317 20320 20323 20325 20327 20330 20332 20335 20338 20341 20343 20346 20349 20352 20355 20358 20361 20364 20367 20370 20373 20376 20379 20381 20384 20386 20389 20392 20395 20398 20401 20404 20407 20410 20413 20416 20419 20422 20425 20428 20431 20434 20437 20440 20443 20446 20449 20452 20455 20458 20461 20464 20467 20470 20473 20476 20478 20481 20484 20487 20490 20493 20496 20498 20501 20504 20506 20509 20512 20515 20517 20520 20523 20525 20528 20531 20534 20536 20538 20540 20543 20546 20548 20551 20553 20555 20558 20561 20563 20566 20569 20571 20574 20577 20579 20582 20584 20587 20589 20591 20594 20597 20599 20601 20603 20606 20609 20612 20615 20618 20621 20624 20627 20630 20632 20635 20638 20641 20644 20647 20650 20653 20656 20659 20662 20665 20668 20670 20672 20674 20677 20679 20682 20684 20686 20689 20692 20695 20697 20699 20701 20704 20707 20710 20713 20715 20717 20719 20722 20725 20728 20731 20734 20737 20740 20742 20745 20747 20750 20753 20755 20758 20760 20763 20766 20769 20772 20775 20778 20781 20784 20787 20789 20792 20795 20798 20801 20804 20807 20810 20813 20816 20819 20822 20825 20828 20831 20834 20837 20840 20843 20846 20849 20852 20855 20858 20861 20864 20867 20869 20872 20875 20878 20881 20884 20887 20890 20893 20896 20899 20902 20905 20908 20911 20914 20917 20920 20923 20926 20929 20932 20934 20937 20940 20943 20946 20949 20952 20954 20957 20960 20962 20965 20968 20970 20973 20976 20979 20982 20985 20988 20990 20993 20996 20999 21002 21005 21008 21011 21014 21016 21019 21022 21025 21028 21030 21033 21036 21039 21042 21045 21048 21051 21054 21057 21060 21063 21066 21069 21072 21075 21078 21081 21084 21087 21090 21093 21096 21099 21102 21105 21108 21111 21114 21117 21120 21123 21126 21129 21132 21135 21138 21141 21144 21147 21150 21153 21156 21159 21162 21165 21168 21171 21174 21177 21180 21183 21186 21189 21192 21194 21197 21200 21203 21205 21208 21211 21214 21217 21220 21223 21226 21229 21232 21235 21238 21240 21243 21246 21249 21251 21254 21257 21260 21263 21266 21269 21272 21275 21278 21281 21284 21286 21289 21292 21295 21298 21301 21303 21305 21308 21311 21314 21317 21320 21322 21325 21328 21331 21334 21337 21340 21343 21346 21349 21352 21355 21358 21361 21364 21367 21370 21373 21376 21379 21381 21384 21387 21390 21393 21395 21397 21400 21403 21406 21409 21412 21415 21417 21420 21423 21426 21429 21432 21435 21438 21440 21443 21446 21449 21452 21455 21458 21460 21462 21465 21468 21471 21473 21476 21478 21481 21484 21487 21490 21493 21496 21499 21502 21505 21507 21510 21513 21516 21519 21522 21525 21528 21531 21534 21537 21539 21542 21545 21548 21551 21554 21557 21560 21563 21566 21569 21572 21575 21578 21581 21584 21586 21588 21591 21594 21597 21600 21602 21605 21608 21610 21613 21616 21619 21622 21625 21628 21631 21634 21637 21640 21643 21646 21649 21652 21654 21657 21660 21663 21666 21669 21672 21674 21677 21680 21683 21686 21689 21692 21695 21698 21701 21704 21707 21710 21713 21716 21719 21722 21725 21727 21730 21733 21736 21739 21742 21745 21748 21751 21753 21756 21759 21762 21765 21768 21771 21774 21777 21780 21783 21786 21788 21791 21794 21797 21800 21802 21805 21808 21811 21814 21817 21820 21823 21826 21828 21831 21834 21837 21840 21842 21845 21847 21849 21852 21854 21857 21860 21862 21865 21868 21871 21874 21877 21880 21883 21886 21889 21892 21895 21898 21901 21904 21907 21910 21912 21914 21917 21920 21923 21926 21929 21932 21935 21937 21940 21943 21945 21947 21950 21953 21956 21959 21961 21963 21966 21969 21971 21974 21977 21979 21982 21985 21988 21991 21994 21997 21999 22001 22004 22007 22010 22013 22016 22019 22021 22024 22027 22029 22032 22035 22038 22041 22044 22047 22049 22052 22055 22058 22060 22062 22064 22066 22068 22071 22074 22077 22079 22082 22085 22088 22091 22093 22096 22099 22102 22105 22108 22111 22114 22117 22120 22123 22126 22129 22132 22135 22138 22141 22144 22147 22150 22153 22156 22159 22161 22164 22167 22170 22173 22176 22179 22182 22185 22188 22190 22193 22196 22199 22201 22204 22207 22209 22212 22215 22218 22221 22224 22227 22230 22233 22236 22239 22242 22245 22248 22251 22254 22256 22259 22261 22264 22267 22270 22273 22276 22278 22281 22284 22287 22290 22292 22295 22297 22300 22303 22306 22309 22312 22315 22318 22321 22324 22327 22330 22333 22336 22338 22341 22344 22347 22350 22353 22356 22359 22362 22365 22368 22371 22374 22377 22380 22383 22386 22389 22392 22395 22398 22401 22404 22407 22410 22412 22415 22417 22420 22422 22425 22428 22431 22434 22437 22440 22443 22446 22449 22452 22454 22457 22459 22462 22465 22468 22471 22473 22476 22479 22482 22485 22487 22490 22493 22496 22499 22502 22504 22507 22510 22512 22515 22518 22521 22524 22527 22530 22533 22536 22539 22542 22544 22547 22549 22552 22555 22558 22561 22564 22567 22570 22573 22576 22579 22582 22585 22588 22591 22594 22597 22600 22603 22606 22609 22612 22615 22618 22621 22624 22627 22630 22633 22636 22639 22642 22645 22648 22651 22653 22656 22658 22661 22664 22666 22669 22672 22675 22678 22680 22683 22686 22689 22692 22695 22698 22701 22704 22707 22710 22713 22716 22719 22722 22725 22728 22731 22734 22737 22740 22742 22745 22748 22751 22754 22757 22760 22763 22766 22769 22772 22775 22778 22781 22784 22787 22790 22793 22796 22798 22800 22803 22805 22808 22811 22814 22817 22820 22823 22826 22829 22832 22835 22838 22841 22844 22847 22850 22853 22856 22859 22862 22865 22868 22871 22874 22877 22880 22883 22886 22889 22891 22894 22897 22900 22903 22906 22909 22911 22914 22917 22919 22922 22924 22927 22930 22932 22935 22938 22941 22944 22947 22950 22953 22956 22958 22961 22964 22967 22970 22972 22975 22978 22981 22984 22986 22989 22991 22994 22997 23000 23003 23006 23008 23011 23014 23017 23020 23023 23026 23028 23030 23033 23036 23039 23042 23045 23047 23050 23052 23055 23058 23061 23064 23067 23070 23073 23076 23079 23082 23085 23088 23091 23094 23097 23100 23103 23106 23109 23112 23114 23117 23120 23123 23126 23129 23132 23134 23137 23140 23143 23145 23147 23150 23153 23156 23159 23162 23165 23168 23171 23174 23177 23180 23183 23186 23189 23192 23195 23198 23201 23204 23207 23210 23213 23216 23219 23222 23225 23227 23230 23233 23236 23239 23241 23244 23247 23249 23252 23255 23258 23261 23264 23267 23270 23273 23276 23279 23282 23284 23287 23290 23293 23296 23299 23302 23305 23308 23311 23314 23317 23320 23323 23326 23329 23332 23335 23338 23341 23343 23346 23348 23351 23354 23357 23359 23362 23365 23368 23370 23373 23376 23379 23381 23383 23386 23389 23392 23394 23397 23400 23403 23405 23408 23411 23413 23416 23418 23421 23424 23427 23429 23432 23434 23437 23440 23442 23444 23446 23448 23451 23454 23457 23459 23461 23463 23465 23468 23471 23474 23477 23480 23482 23485 23488 23490 23493 23496 23499 23502 23504 23507 23510 23512 23515 23518 23520 23523 23526 23529 23532 23535 23537 23540 23543 23546 23549 23551 23554 23557 23560 23563 23566 23569 23572 23575 23578 23581 23584 23587 23590 23592 23595 23598 23601 23604 23607 23610 23612 23615 23617 23620 23622 23625 23628 23631 23634 23637 23640 23643 23646 23649 23652 23655 23658 23661 23663 23666 23669 23672 23675 23678 23681 23684 23687 23690 23693 23696 23699 23702 23705 23708 23711 23714 23717 23720 23723 23726 23729 23732 23734 23737 23740 23743 23746 23749 23752 23755 23758 23761 23764 23767 23769 23772 23775 23778 23781 23784 23787 23790 23793 23795 23798 23801 23804 23807 23810 23813 23816 23819 23822 23825 23828 23831 23834 23837 23840 23842 23845 23848 23851 23854 23857 23859 23862 23864 23867 23870 23873 23875 23877 23880 23882 23885 23888 23890 23893 23896 23899 23902 23905 23908 23910 23913 23916 23919 23921 23924 23927 23930 23933 23936 23939 23942 23944 23946 23949 23952 23954 23957 23959 23962 23965 23968 23970 23973 23976 23978 23981 23984 23986 23988 23990 23993 23996 23998 24001 24004 24007 24010 24013 24016 24019 24021 24024 24027 24030 24033 24035 24038 24041 24044 24047 24050 24053 24056 24058 24061 24064 24067 24070 24073 24075 24078 24081 24084 24086 24089 24092 24095 24098 24100 24102 24104 24107 24110 24112 24114 24117 24119 24122 24125 24128 24131 24133 24136 24139 24142 24145 24148 24151 24153 24155 24158 24161 24164 24167 24170 24173 24175 24178 24181 24184 24187 24190 24193 24195 24198 24200 24203 24206 24209 24211 24214 24217 24220 24222 24225 24228 24231 24234 24236 24239 24241 24244 24247 24250 24253 24255 24258 24261 24263 24266 24269 24271 24274 24277 24280 24283 24285 24288 24291 24294 24297 24300 24303 24306 24309 24311 24314 24317 24320 24323 24326 24329 24332 24335 24338 24341 24344 24347 24350 24353 24356 24359 24362 24365 24368 24371 24373 24376 24379 24382 24385 24388 24391 24394 24396 24399 24401 24404 24407 24410 24413 24416 24419 24422 24425 24428 24430 24433 24435 24438 24440 24443 24446 24449 24451 24454 24457 24460 24463 24466 24469 24472 24475 24477 24480 24483 24486 24489 24492 24495 24497 24500 24503 24506 24509 24511 24514 24517 24520 24523 24526 24529 24532 24535 24538 24541 24543 24545 24548 24551 24554 24557 24560 24563 24566 24569 24572 24575 24578 24581 24584 24587 24590 24593 24596 24599 24602 24605 24608 24611 24614 24617 24620 24623 24626 24628 24631 24634 24637 24640 24643 24646 24649 24652 24655 24658 24661 24663 24666 24669 24672 24675 24678 24680 24682 24685 24688 24691 24694 24697 24700 24703 24706 24709 24712 24715 24718 24721 24723 24726 24729 24732 24735 24738 24741 24744 24747 24750 24752 24755 24758 24760 24763 24765 24768 24771 24774 24777 24780 24783 24785 24788 24790 24793 24795 24798 24801 24803 24806 24809 24812 24815 24817 24820 24823 24826 24829 24832 24835 24838 24841 24844 24847 24850 24853 24855 24858 24861 24864 24866 24869 24872 24875 24878 24881 24884 24887 24890 24893 24895 24898 24901 24904 24907 24909 24912 24915 24918 24921 24924 24927 24929 24932 24935 24938 24941 24944 24947 24950 24953 24956 24959 24962 24965 24968 24971 24974 24977 24980 24983 24986 24989 24992 24995 24997 25000 25003 25006 25009 25012 25014 25017 25020 25022 25025 25028 25031 25034 25037 25039 25041 25044 25047 25050 25053 25056 25059 25062 25064 25067 25070 25073 25076 25078 25081 25084 25087 25090 25093 25096 25099 25101 25104 25107 25110 25112 25115 25117 25120 25123 25125 25128 25131 25133 25135 25138 25140 25143 25146 25149 25151 25154 25156 25159 25161 25164 25167 25170 25173 25176 25179 25181 25183 25186 25189 25192 25195 25198 25201 25204 25207 25210 25213 25215 25217 25220 25223 25226 25229 25232 25235 25238 25241 25243 25245 25248 25251 25253 25256 25258 25261 25264 25267 25270 25273 25276 25279 25281 25284 25286 25289 25292 25295 25298 25301 25304 25306 25309 25312 25315 25317 25320 25323 25326 25329 25332 25334 25337 25340 25343 25346 25349 25352 25355 25358 25361 25364 25366 25368 25371 25374 25376 25379 25382 25385 25387 25390 25393 25395 25398 25401 25404 25407 25410 25413 25416 25419 25421 25424 25427 25430 25433 25436 25439 25442 25445 25448 25451 25454 25457 25460 25463 25466 25469 25472 25475 25478 25481 25483 25486 25488 25490 25493 25496 25499 25501 25504 25506 25509 25512 25515 25518 25521 25524 25527 25529 25532 25535 25538 25541 25543 25546 25549 25552 25555 25558 25560 25563 25566 25569 25572 25574 25577 25579 25582 25585 25588 25591 25593 25596 25599 25602 25605 25607 25610 25613 25616 25619 25622 25625 25628 25631 25634 25637 25639 25642 25645 25648 25651 25654 25657 25660 25663 25666 25669 25672 25675 25678 25681 25684 25687 25690 25693 25696 25699 25702 25705 25708 25711 25714 25717 25720 25723 25726 25729 25732 25735 25738 25740 25743 25746 25748 25751 25754 25757 25759 25761 25763 25766 25768 25770 25772 25775 25778 25781 25783 25785 25788 25791 25794 25797 25800 25803 25805 25808 25811 25813 25816 25818 25821 25824 25827 25830 25833 25835 25838 25841 25844 25847 25850 25853 25856 25859 25862 25865 25868 25871 25874 25877 25880 25883 25886 25889 25892 25895 25898 25901 25903 25906 25909 25911 25914 25917 25919 25922 25925 25928 25931 25933 25936 25938 25941 25944 25946 25949 25952 25955 25958 25961 25963 25966 25969 25972 25975 25978 25981 25984 25986 25989 25992 25995 25998 26001 26003 26006 26009 26011 26014 26016 26019 26022 26025 26028 26031 26034 26037 26040 26043 26045 26047 26049 26052 26055 26057 26060 26063 26066 26069 26072 26075 26078 26081 26084 26087 26089 26092 26095 26098 26101 26104 26107 26110 26113 26116 26118 26121 26124 26127 26130 26133 26135 26138 26140 26143 26146 26149 26152 26155 26158 26160 26162 26165 26168 26171 26174 26177 26180 26182 26185 26188 26191 26194 26197 26200 26203 26206 26208 26211 26214 26216 26218 26221 26224 26227 26230 26233 26236 26239 26242 26245 26248 26251 26253 26256 26259 26262 26265 26268 26271 26274 26277 26280 26283 26286 26289 26292 26295 26298 26301 26304 26307 26309 26312 26315 26318 26321 26324 26327 26330 26333 26336 26338 26341 26344 26347 26349 26351 26354 26357 26359 26362 26365 26368 26371 26374 26377 26380 26383 26386 26389 26392 26395 26398 26401 26404 26407 26410 26413 26416 26418 26421 26424 26427 26429 26432 26435 26438 26441 26444 26447 26449 26452 26455 26458 26461 26463 26466 26469 26472 26475 26477 26480 26483 26486 26489 26492 26495 26498 26501 26504 26507 26510 26513 26516 26518 26521 26524 26527 26530 26533 26536 26539 26541 26543 26546 26549 26552 26554 26556 26559 26562 26564 26566 26568 26571 26574 26577 26579 26582 26585 26588 26591 26594 26597 26599 26602 26605 26607 26610 26613 26615 26618 26621 26623 26626 26628 26630 26633 26636 26639 26642 26645 26647 26650 26652 26655 26658 26660 26663 26666 26669 26671 26674 26677 26680 26683 26686 26689 26692 26695 26698 26701 26704 26707 26709 26712 26714 26717 26720 26723 26726 26728 26730 26733 26735 26738 26741 26744 26746 26749 26752 26755 26757 26760 26763 26766 26768 26771 26773 26776 26779 26781 26783 26786 26789 26791 26794 26797 26800 26803 26805 26808 26811 26814 26817 26820 26822 26825 26827 26829 26832 26835 26838 26841 26844 26846 26849 26852 26854 26856 26858 26861 26863 26866 26868 26871 26874 26877 26879 26882 26885 26888 26891 26893 26896 26899 26902 26904 26907 26910 26913 26916 26919 26922 26925 26927 26930 26933 26935 26938 26941 26944 26946 26949 26952 26955 26957 26960 26962 26965 26968 26971 26974 26976 26979 26982 26985 26988 26991 26994 26997 27000 27003 27006 27009 27012 27015 27018 27021 27024 27026 27029 27032 27035 27038 27041 27043 27046 27049 27051 27054 27057 27060 27062 27064 27066 27069 27072 27075 27078 27080 27083 27086 27089 27092 27094 27097 27100 27103 27105 27108 27111 27114 27116 27119 27122 27125 27128 27130 27133 27136 27139 27142 27145 27148 27150 27153 27156 27159 27162 27165 27167 27170 27173 27176 27179 27182 27185 27188 27191 27193 27196 27199 27201 27204 27207 27210 27213 27216 27218 27221 27224 27227 27230 27233 27236 27239 27242 27245 27247 27250 27253 27256 27258 27261 27264 27267 27270 27273 27276 27279 27281 27283 27286 27289 27292 27295 27298 27300 27303 27306 27309 27312 27315 27318 27320 27323 27326 27329 27331 27334 27337 27340 27343 27345 27348 27351 27354 27357 27360 27363 27366 27369 27372 27375 27378 27381 27384 27387 27390 27393 27396 27399 27402 27405 27408 27411 27414 27417 27420 27423 27425 27427 27430 27433 27435 27438 27441 27443 27446 27449 27452 27455 27458 27461 27464 27467 27470 27473 27476 27478 27481 27484 27487 27489 27492 27495 27498 27501 27503 27505 27508 27511 27513 27516 27519 27522 27525 27528 27531 27534 27537 27539 27542 27545 27548 27551 27554 27556 27558 27561 27564 27567 27570 27573 27576 27579 27581 27584 27587 27590 27593 27596 27599 27602 27605 27608 27611 27614 27617 27620 27622 27625 27628 27631 27634 27636 27639 27641 27644 27647 27650 27653 27656 27659 27662 27665 27668 27671 27674 27676 27679 27682 27685 27688 27691 27694 27697 27700 27703 27706 27708 27711 27714 27717 27720 27722 27725 27728 27731 27734 27737 27740 27743 27746 27749 27752 27755 27758 27761 27764 27767 27770 27773 27776 27779 27782 27785 27787 27790 27793 27796 27799 27802 27804 27807 27810 27812 27815 27818 27821 27824 27827 27830 27833 27836 27839 27842 27845 27848 27851 27854 27857 27859 27862 27865 27868 27871 27874 27877 27880 27882 27885 27888 27891 27894 27897 27900 27903 27906 27909 27911 27914 27917 27920 27923 27926 27929 27932 27935 27938 27940 27943 27946 27949 27952 27955 27958 27960 27963 27966 27969 27972 27974 27977 27980 27983 27986 27989 27992 27995 27998 28001 28004 28007 28010 28013 28016 28019 28021 28024 28027 28029 28032 28034 28037 28040 28043 28046 28049 28052 28055 28058 28061 28064 28067 28070 28073 28076 28079 28081 28084 28087 28090 28093 28096 28099 28101 28104 28107 28110 28113 28116 28119 28122 28125 28128 28131 28134 28137 28140 28143 28146 28149 28152 28155 28158 28160 28163 28166 28168 28171 28174 28177 28180 28183 28186 28188 28191 28193 28196 28199 28201 28204 28207 28210 28213 28216 28218 28221 28224 28227 28230 28233 28235 28238 28241 28244 28247 28250 28253 28255 28258 28261 28264 28267 28270 28273 28275 28278 28281 28283 28286 28289 28292 28295 28297 28300 28303 28306 28309 28312 28314 28317 28320 28323 28326 28329 28332 28335 28337 28340 28343 28346 28349 28352 28355 28358 28360 28363 28366 28369 28372 28375 28378 28380 28383 28386 28389 28392 28395 28398 28401 28404 28407 28410 28413 28415 28418 28421 28424 28427 28429 28431 28434 28437 28439 28442 28445 28448 28451 28454 28457 28459 28462 28465 28468 28471 28474 28477 28480 28483 28486 28489 28492 28495 28498 28501 28504 28507 28510 28513 28515 28518 28521 28524 28527 28529 28532 28535 28537 28540 28543 28546 28549 28552 28555 28558 28561 28564 28567 28570 28573 28576 28579 28582 28585 28588 28591 28594 28596 28598 28601 28604 28607 28610 28613 28616 28618 28621 28623 28626 28629 28632 28635 28638 28641 28644 28647 28650 28653 28656 28659 28662 28665 28668 28671 28674 28677 28680 28683 28686 28689 28692 28695 28698 28701 28704 28707 28710 28713 28716 28718 28721 28724 28727 28729 28732 28735 28738 28741 28743 28746 28749 28752 28755 28758 28760 28763 28766 28769 28772 28775 28778 28781 28784 28787 28790 28793 28796 28799 28802 28805 28808 28811 28814 28817 28820 28823 28826 28829 28832 28835 28838 28841 28844 28846 28849 28851 28854 28857 28860 28863 28866 28869 28872 28875 28877 28880 28883 28886 28889 28891 28894 28897 28900 28903 28906 28909 28912 28915 28918 28921 28924 28926 28929 28932 28935 28938 28941 28944 28947 28950 28953 28956 28959 28962 28965 28968 28971 28974 28977 28980 28982 28985 28988 28991 28994 28997 29000 29003 29006 29009 29012 29015 29018 29021 29024 29027 29030 29033 29036 29039 29042 29045 29048 29051 29054 29056 29059 29062 29065 29068 29071 29074 29077 29080 29083 29086 29089 29092 29095 29098 29101 29104 29107 29110 29113 29116 29119 29122 29125 29128 29131 29134 29137 29140 29143 29145 29148 29151 29154 29157 29160 29163 29165 29168 29170 29173 29175 29178 29181 29183 29186 29189 29191 29193 29196 29199 29201 29204 29206 29209 29212 29214 29217 29220 29222 29225 29228 29231 29234 29237 29240 29243 29246 29249 29252 29255 29258 29261 29263 29265 29267 29270 29273 29276 29278 29281 29284 29287 29290 29293 29296 29299 29302 29305 29308 29311 29314 29317 29320 29322 29325 29328 29331 29334 29337 29340 29343 29346 29349 29352 29355 29358 29361 29363 29365 29368 29371 29374 29377 29380 29383 29386 29389 29392 29395 29398 29401 29404 29407 29409 29412 29415 29417 29420 29423 29425 29427 29430 29432 29435 29438 29441 29443 29446 29449 29452 29455 29458 29461 29464 29466 29469 29472 29475 29478 29481 29483 29485 29488 29491 29493 29496 29499 29502 29505 29508 29511 29514 29517 29520 29523 29526 29529 29532 29535 29538 29541 29544 29547 29549 29551 29554 29556 29559 29562 29564 29567 29570 29573 29576 29579 29582 29585 29587 29590 29593 29596 29599 29602 29605 29608 29611 29614 29617 29619 29622 29625 29627 29630 29632 29635 29638 29641 29644 29647 29650 29653 29656 29659 29662 29665 29668 29671 29674 29677 29680 29683 29686 29689 29692 29695 29697 29700 29703 29706 29709 29712 29715 29718 29721 29724 29727 29730 29733 29736 29739 29742 29745 29748 29751 29754 29757 29760 29763 29766 29769 29772 29775 29778 29781 29784 29787 29790 29793 29796 29799 29802 29805 29808 29811 29814 29817 29820 29823 29826 29829 29832 29835 29838 29841 29844 29847 29850 29853 29856 29859 29862 29865 29868 29871 29874 29877 29880 29882 29885 29888 29890 29893 29896 29899 29901 29904 29907 29910 29913 29916 29919 29922 29924 29927 29930 29933 29936 29939 29942 29945 29948 29951 29954 29956 29959 29962 29965 29968 29971 29973 29975 29978 29980 29983 29986 29988 29991 29993 29996 29999 30002 30005 30008 30011 30013 30016 30019 30022 30025 30028 30030 30032 30035 30038 30041 30044 30047 30049 30051 30054 30057 30060 30063 30066 30069 30072 30075 30078 30081 30084 30087 30090 30093 30096 30099 30102 30105 30108 30111 30114 30117 30120 30123 30126 30129 30132 30135 30138 30141 30144 30147 30150 30153 30156 30159 30162 30165 30168 30171 30174 30177 30180 30183 30185 30188 30191 30194 30197 30200 30203 30206 30209 30212 30215 30218 30221 30224 30227 30230 30233 30235 30238 30241 30243 30246 30249 30252 30255 30257 30260 30262 30265 30267 30270 30273 30275 30278 30281 30284 30287 30290 30292 30295 30298 30301 30304 30307 30309 30312 30315 30318 30321 30324 30326 30328 30331 30333 30336 30339 30341 30344 30347 30350 30353 30355 30357 30360 30363 30366 30369 30372 30375 30378 30381 30383 30386 30389 30392 30394 30397 30400 30403 30406 30409 30412 30415 30418 30420 30423 30426 30429 30432 30435 30437 30440 30443 30445 30448 30451 30454 30457 30460 30463 30466 30469 30472 30475 30478 30481 30484 30487 30489 30492 30495 30497 30500 30503 30505 30508 30511 30514 30517 30519 30522 30525 30528 30531 30533 30536 30539 30542 30545 30548 30551 30554 30557 30560 30563 30566 30568 30571 30573 30576 30579 30581 30584 30587 30590 30593 30595 30598 30601 30604 30607 30610 30613 30616 30619 30621 30623 30626 30629 30631 30633 30636 30639 30642 30645 30648 30651 30653 30656 30659 30662 30665 30668 30671 30674 30677 30680 30683 30686 30689 30692 30695 30698 30701 30704 30707 30710 30712 30715 30718 30721 30724 30727 30730 30733 30736 30738 30741 30744 30747 30750 30752 30755 30758 30761 30764 30767 30770 30773 30776 30778 30781 30784 30787 30789 30792 30794 30796 30799 30802 30805 30807 30809 30812 30814 30817 30820 30823 30826 30829 30832 30835 30838 30841 30844 30847 30849 30852 30855 30858 30861 30864 30867 30870 30872 30875 30878 30881 30884 30887 30890 30892 30895 30898 30900 30903 30905 30908 30911 30914 30917 30920 30923 30926 30929 30932 30935 30938 30941 30944 30947 30950 30953 30956 30958 30961 30964 30967 30970 30973 30976 30979 30982 30985 30988 30991 30994 30997 31000 31003 31006 31009 31012 31015 31018 31021 31024 31027 31030 31033 31036 31039 31042 31045 31048 31051 31053 31056 31059 31062 31065 31068 31071 31074 31077 31080 31083 31086 31089 31092 31095 31097 31099 31102 31104 31107 31110 31113 31115 31117 31120 31123 31126 31129 31131 31134 31137 31140 31143 31146 31149 31152 31155 31158 31161 31164 31167 31170 31172 31175 31178 31181 31184 31186 31189 31191 31194 31197 31200 31203 31206 31209 31211 31214 31217 31220 31223 31226 31229 31231 31234 31237 31239 31241 31244 31247 31250 31253 31256 31259 31262 31265 31268 31271 31274 31277 31280 31283 31286 31289 31292 31295 31297 31299 31302 31305 31308 31311 31314 31317 31319 31322 31325 31328 31330 31333 31336 31339 31342 31345 31348 31350 31353 31356 31359 31362 31365 31368 31371 31374 31377 31380 31383 31385 31388 31391 31394 31397 31400 31403 31405 31408 31411 31414 31417 31420 31423 31426 31429 31432 31435 31437 31440 31443 31446 31449 31452 31455 31458 31461 31464 31467 31470 31473 31476 31479 31482 31485 31488 31491 31493 31495 31498 31501 31503 31506 31509 31512 31515 31518 31521 31524 31527 31530 31533 31536 31539 31542 31544 31547 31549 31552 31555 31558 31561 31564 31567 31570 31573 31576 31579 31582 31585 31588 31590 31593 31596 31599 31602 31605 31608 31611 31614 31617 31620 31623 31626 31629 31631 31634 31637 31640 31643 31645 31648 31651 31654 31657 31660 31663 31665 31668 31671 31674 31677 31680 31683 31686 31689 31692 31695 31698 31701 31704 31707 31710 31713 31716 31719 31722 31725 31728 31731 31734 31737 31740 31743 31746 31749 31752 31755 31758 31761 31764 31767 31770 31773 31775 31778 31781 31784 31787 31789 31792 31795 31798 31801 31804 31807 31810 31813 31816 31819 31822 31824 31827 31830 31833 31835 31838 31841 31844 31847 31850 31853 31856 31859 31862 31865 31868 31871 31874 31876 31879 31882 31884 31887 31890 31893 31896 31899 31902 31905 31908 31911 31914 31916 31919 31922 31924 31927 31930 31933 31935 31938 
</DataArray>
<DataArray type="UInt32" Name="types" format="ascii">
5 5 5 3 5 5 5 5 3 5 5 3 5 5 5 5 5 5 5 5 5 5 5 5 5 5 5 5 5 5 5 5 5 5 5 3 5 5 5 5 5 5 5 5 5 5 5 5 5 5 5 5 5 5 5 5 5 5 3 5 5 5 5 5 5 5 5 5 3 5 5 5 3 3 5 5 3 5 5 3 5 5 5 3 5 3 3 5 5 5 5 3 5 5 5 5 5 5 5 5 3 5 5 5 5 5 5 5 3 5 5 5 3 5 5 3 5 5 3 5 5 5 5 5 5 5 5 5 3 5 5 5 5 5 5 5 5 5 5 5 5 5 5 3 5 5 5 5 5 5 5 5 5 5 5 5 5 5 5 5 5 5 5 5 5 5 5 3 5 5 3 5 5 5 5 5 5 5 5 5 5 5 5 5 5 5 5 5 5 5 5 5 5 5 5 5 5 5 5 5 5 5 5 5 5 5 5 5 5 5 5 5 5 5 5 5 3 5 5 5 5 5 5 5 5 5 5 3 5 5 3 5 5 3 5 5 3 5 5 5 3 3 5 5 3 5 3 5 5 5 5 3 5 3 5 5 3 5 3 5 5 5 5 5 5 5 3 5 5 5 5 3 3 5 5 5 3 5 5 5 5 5 3 3 5 5 3 5 5 5 5 3 5 5 5 5 3 5 5 5 5 5 3 5 5 3 5 5 5 3 5 5 5 5 5 5 5 5 5 5 5 5 5 5 5 5 5 5 5 5 5 5 5 5 5 5 5 5 5 5 5 5 5 5 5 5 5 5 5 5 5 5 5 5 5 5 5 5 5 5 5 5 5 5 5 5 5 5 5 5 5 5 5 3 5 5 5 3 5 5 5 5 5 5 5 5 5 5 3 5 5 5 5 5 5 5 5 5 5 5 5 5 5 5 5 5 3 5 5 5 5 5 5 5 5 5 5 5 5 5 5 3 5 5 5 3 5 5 5 5 5 5 5 5 5 5 5 5 5 5 5 5 3 5 5 5 3 5 5 3 5 5 5 5 5 5 5 5 5 5 5 3 5 5 5 5 3 5 5 5 5 5 3 5 5 5 5 3 5 5 5 5 5 5 5 5 5 5 5 5 5 5 5 5 5 5 5 5 5 5 5 5 5 5 5 5 5 5 5 5 5 5 5 5 5 5 3 5 3 5 5 5 5 5 5 5 5 5 5 5 5 5 5 3 5 5 5 5 5 5 3 5 5 5 5 5 5 5 3 5 5 5 5 5 5 5 5 5 5 5 5 5 5 5 5 3 5 5 5 5 5 5 3 5 5 5 5 5 5 5 5 5 5 5 5 5 5 5 5 5 3 5 5 5 3 5 5 5 5 5 5 5 5 5 5 5 5 5 5 5 5 5 5 5 5 5 5 5 5 5 5 5 5 5 5 5 5 5 5 5 5 5 5 5 5 5 5 5 5 5 5 5 5 5 5 5 5 5 5 5 5 5 3 5 3 5 3 3 5 5 5 5 5 5 5 5 5 5 3 5 5 3 3 5 5 5 5 3 5 5 3 5 5 5 5 5 5 5 5 5 5 3 3 5 3 5 3 5 5 5 5 5 5 5 5 3 3 3 5 5 5 5 5 5 5 5 5 5 5 5 5 5 5 5 5 5 5 5 5 5 5 5 5 5 5 5 5 5 5 5 5 5 5 5 5 5 5 5 3 5 5 5 5 5 5 5 5 5 3 5 5 5 3 5 3 5 5 5 5 3 5 5 5 5 3 5 5 5 5 5 5 5 3 3 5 5 5 3 5 5 5 5 3 5 5 5 5 5 5 3 5 5 5 5 5 3 5 5 5 5 5 5 5 5 5 5 5 5 3 5 5 5 5 3 5 5 5 5 5 5 5 5 5 5 3 5 5 5 5 5 5 5 5 5 5 5 5 5 5 5 5 5 5 5 3 5 5 5 3 5 5 5 5 5 5 3 5 5 3 5 5 5 5 5 5 5 5 5 5 5 5 3 3 5 5 5 5 5 5 3 5 5 5 5 5 5 5 5 5 5 5 5 5 5 5 5 3 5 5 5 5 5 5 5 5 5 5 5 5 5 3 5 5 3 5 5 5 3 5 5 5 5 5 5 3 5 5 5 5 5 5 5 5 3 5 5 5 5 5 5 3 5 5 5 5 5 5 5 5 5 5 5 5 5 5 5 3 5 5 5 5 5 5 5 5 5 5 5 5 5 5 5 5 5 5 5 5 5 5 5 5 5 5 5 3 5 3 5 3 3 5 5 5 5 5 5 5 5 5 5 5 5 3 5 3 5 3 3 5 3 3 5 5 5 5 3 3 5 3 3 5 5 3 5 5 3 5 5 5 5 5 5 5 5 3 5 5 3 5 5 5 5 3 5 5 5 5 3 5 3 5 5 5 5 5 3 5 5 5 5 5 5 3 5 5 3 5 5 5 5 5 5 5 5 5 3 5 5 3 5 5 5 5 3 5 5 3 5 5 5 5 5 5 5 5 5 5 5 5 5 5 5 5 5 3 5 5 5 3 5 5 5 5 5 5 3 5 5 5 3 5 5 5 5 5 5 5 5 5 5 5 5 5 5 5 5 5 3 5 5 5 5 3 5 5 3 5 5 5 5 5 3 5 5 5 5 5 3 5 5 3 3 5 5 5 5 5 5 5 3 5 5 5 5 5 5 5 3 5 5 5 5 5 5 5 5 5 5 5 5 5 5 5 5 5 5 5 5 5 5 3 3 5 5 5 5 3 5 5 5 5 5 5 5 5 5 5 5 5 3 5 3 5 5 5 5 5 5 5 5 3 5 5 5 5 3 5 5 5 5 5 5 3 5 5 5 5 3 5 3 5 5 5 5 3 5 5 5 3 5 5 5 5 5 5 5 5 5 3 5 5 5 5 3 5 5 5 3 5 5 5 3 5 3 5 5 5 5 5 5 5 5 5 5 5 3 3 5 5 5 5 5 3 5 5 5 5 5 5 5 5 5 5 5 5 5 5 5 5 3 5 5 5 5 3 5 5 5 5 5 5 5 5 5 3 5 5 5 5 5 5 5 3 5 5 5 5 5 5 5 5 3 5 3 3 5 5 5 5 5 5 5 5 5 5 5 5 5 5 5 5 5 5 5 5 5 3 5 5 5 5 5 5 5 5 5 5 3 5 5 3 5 5 5 3 5 5 5 5 5 3 3 5 5 3 5 5 5 5 5 3 5 5 5 3 3 5 5 5 3 5 5 3 3 5 5 5 5 5 5 5 5 5 5 5 5 5 5 5 3 5 5 5 5 5 3 5 5 5 5 3 5 5 5 5 5 5 3 5 5 5 3 5 5 3 3 5 5 5 5 5 5 5 5 3 5 5 5 5 5 5 3 5 5 5 5 5 5 5 5 5 5 5 5 5 5 5 5 5 5 5 5 5 5 5 5 5 5 5 5 5 5 5 5 5 5 3 5 5 3 5 5 5 5 5 5 5 5 5 5 5 5 5 5 5 5 3 5 5 5 5 5 5 5 5 5 5 3 5 5 5 5 5 3 5 5 5 5 5 3 5 5 3 5 5 3 5 5 3 5 5 3 5 5 5 5 5 5 5 5 5 5 5 5 5 5 5 5 5 5 3 5 5 5 5 5 5 5 5 5 3 5 5 5 5 5 3 3 5 5 5 5 5 5 5 5 5 5 5 5 5 5 5 3 5 5 5 5 5 5 5 5 5 5 5 5 5 3 5 5 5 5 5 5 3 5 5 5 5 3 5 5 5 3 5 5 5 5 5 3 5 5 5 5 5 5 5 5 5 5 5 5 5 5 5 5 5 5 5 5 5 5 3 5 5 5 5 3 5 5 5 5 5 5 5 5 5 3 5 5 5 5 5 5 5 5 5 5 3 5 5 5 5 5 3 5 5 5 5 5 5 5 5 3 5 5 3 5 5 5 5 5 5 3 5 5 5 5 5 5 5 5 5 5 3 3 5 5 5 3 5 3 5 5 3 5 5 5 5 5 3 5 3 5 5 3 3 3 5 3 5 5 5 3 5 5 3 5 3 5 5 5 3 5 3 5 5 5 5 3 5 5 5 3 5 5 3 3 3 5 3 5 3 3 5 5 5 5 3 5 5 5 5 5 5 5 5 3 5 3 5 5 5 5 5 5 5 5 5 5 5 5 5 5 3 5 3 5 5 5 5 5 5 5 5 5 3 5 5 3 5 5 5 5 5 5 5 3 5 5 3 5 3 5 3 5 3 5 5 5 5 3 5 3 5 5 5 5 5 5 5 5 5 5 5 5 5 5 5 5 5 5 5 5 5 5 5 5 5 5 5 5 5 3 5 5 5 5 5 5 5 5 5 5 5 3 5 5 3 5 5 5 3 5 5 5 5 3 3 5 5 3 5 5 5 5 5 5 3 5 5 5 5 5 5 5 3 5 5 5 5 5 5 5 3 5 5 5 3 5 5 5 5 5 5 3 5 5 5 5 3 5 5 5 3 5 5 5 5 5 5 5 5 5 5 5 5 5 5 5 5 5 5 5 5 5 5 5 3 5 5 5 5 5 3 5 5 5 5 5 5 5 5 5 5 5 5 5 5 5 5 5 5 5 5 5 5 5 5 5 5 5 5 5 5 5 5 5 5 5 5 5 5 5 5 5 5 5 5 5 5 5 5 3 5 5 5 3 5 5 5 5 3 5 5 5 5 3 5 5 5 5 5 5 5 5 5 5 3 5 5 5 3 5 3 5 5 5 5 5 5 5 5 5 5 5 5 5 5 5 3 5 5 3 3 5 5 5 5 5 3 5 5 3 5 5 5 5 5 5 5 5 5 5 5 5 5 5 5 5 5 5 5 5 5 5 5 5 5 5 5 5 5 5 5 5 5 5 5 5 5 5 5 5 5 3 5 5 5 5 5 5 5 5 5 5 5 5 5 5 5 5 5 5 5 5 5 5 5 5 5 5 5 5 5 5 5 5 5 5 5 3 5 5 5 5 5 5 5 5 5 5 5 3 5 5 5 3 5 3 3 3 3 5 5 5 5 5 5 5 5 5 5 3 5 5 5 3 5 5 5 5 5 5 5 5 5 5 5 5 5 5 5 3 5 3 5 5 3 5 5 3 5 3 3 5 5 3 5 5 5 5 5 5 5 5 5 5 5 5 5 5 5 3 5 5 5 5 5 5 5 3 5 5 5 5 5 5 5 3 5 5 5 5 3 3 5 5 5 5 5 5 5 5 5 5 5 5 5 5 5 5 5 5 5 3 5 5 5 5 5 5 5 5 5 3 5 5 5 5 5 5 3 5 5 5 5 5 5 5 5 5 5 5 5 5 5 5 5 5 5 5 5 5 5 5 5 5 5 5 5 5 5 5 5 3 5 5 5 5 3 5 5 5 5 5 5 5 5 5 5 5 5 5 5 5 5 5 5 5 5 5 5 5 5 5 5 5 5 5 5 5 5 5 5 5 3 5 5 5 5 3 5 5 5 5 5 5 5 3 5 5 5 5 5 5 5 5 5 5 5 5 5 5 5 5 5 3 5 5 5 5 5 5 5 5 5 5 5 5 5 5 5 5 5 5 5 5 5 5 5 3 5 3 5 5 5 5 5 5 5 5 3 5 3 5 5 5 3 5 5 5 5 5 5 5 3 5 5 3 5 5 5 3 5 5 5 5 5 5 5 5 5 5 5 5 5 5 5 5 5 5 3 5 5 5 5 5 5 5 5 5 5 5 5 5 3 5 5 5 5 5 5 5 5 5 5 5 5 5 5 5 5 5 5 5 5 5 3 5 5 3 5 5 5 5 5 5 5 5 3 5 3 3 5 5 5 5 5 5 5 5 3 5 5 5 5 5 5 5 5 5 5 3 5 5 3 5 3 5 3 5 3 3 5 5 3 3 5 5 5 5 5 5 5 5 5 3 5 5 5 5 3 5 5 5 5 5 5 3 5 5 3 5 3 5 5 3 5 3 5 3 5 5 3 5 3 5 5 5 5 5 3 3 5 3 5 5 5 5 3 5 5 5 5 5 5 5 3 5 5 5 3 5 5 5 3 5 5 5 5 5 5 5 5 5 3 5 5 3 3 5 5 5 5 5 5 5 3 5 5 5 5 5 5 5 5 5 5 5 5 5 5 5 5 5 5 5 5 5 5 5 5 5 5 5 5 5 5 5 5 5 5 5 5 5 5 5 5 5 5 5 5 5 5 5 5 5 5 5 5 5 5 5 5 5 5 5 5 5 5 5 5 5 5 5 5 5 5 3 5 5 3 5 5 5 5 5 3 5 5 5 5 5 5 5 5 5 5 5 5 5 5 5 5 5 5 5 5 5 5 5 5 5 5 5 5 5 5 5 5 5 5 5 5 5 5 5 5 5 3 5 3 5 5 5 3 5 5 5 5 5 5 3 5 3 5 5 5 5 5 5 5 5 5 5 5 3 5 5 5 5 5 5 5 5 5 5 5 5 5 5 5 5 5 3 5 5 5 5 5 5 5 5 5 5 3 5 3 5 5 5 5 5 5 5 5 5 5 5 5 5 5 5 5 3 5 5 5 5 5 5 5 5 5 5 5 5 5 5 5 5 5 5 5 5 5 3 5 5 5 5 5 3 5 5 5 3 5 5 3 5 5 5 5 5 3 5 5 5 5 5 5 3 5 5 5 5 5 5 5 3 3 5 5 5 5 5 5 5 5 3 5 5 5 5 5 5 5 5 5 5 5 3 5 5 5 5 5 3 5 3 5 5 5 3 5 5 5 3 3 5 5 5 5 3 5 3 5 5 5 5 3 5 5 5 5 5 5 5 3 5 5 5 3 5 5 5 5 5 5 5 5 5 5 5 5 5 5 5 5 5 5 5 5 5 5 3 5 5 5 3 5 5 3 5 5 5 5 5 5 5 5 5 5 5 5 5 5 5 5 5 5 5 5 3 5 5 5 3 5 5 5 5 5 5 5 5 5 5 5 5 5 5 5 5 5 5 5 5 5 5 5 3 5 3 5 5 5 5 5 5 3 5 5 5 5 5 5 5 5 5 5 5 5 5 5 5 5 5 5 5 5 5 5 5 5 5 5 5 5 5 3 5 5 5 5 5 5 5 5 5 5 5 3 5 5 5 5 3 5 3 5 3 3 5 5 5 5 5 5 5 5 5 5 5 5 5 5 5 5 5 5 5 5 5 5 5 5 5 5 5 5 5 5 5 5 5 3 5 5 3 5 5 3 5 5 3 3 3 5 5 3 5 5 3 5 3 5 5 5 5 3 5 5 5 5 3 5 5 5 5 5 3 5 5 5 5 5 5 5 3 3 5 5 5 5 5 5 5 5 5 5 5 3 5 5 5 5 5 3 5 5 5 5 5 5 3 5 5 5 5 5 5 3 5 5 5 5 5 5 5 5 5 5 5 5 3 5 5 5 5 5 5 3 5 5 3 5 3 5 5 5 3 5 5 3 5 5 5 5 5 3 5 5 5 5 5 5 5 5 5 5 3 5 5 5 5 5 5 3 5 5 5 5 5 5 5 5 5 5 5 5 5 5 5 5 5 5 3 5 5 5 5 5 5 5 5 3 5 5 5 5 5 5 5 5 3 5 5 5 5 3 3 5 5 5 5 5 5 5 3 5 3 5 5 5 5 5 3 5 3 3 5 5 5 3 5 3 3 5 5 5 3 5 3 5 5 5 5 5 5 5 5 3 5 5 3 5 5 3 3 5 5 3 5 3 3 5 3 5 3 5 5 3 3 3 5 5 5 3 5 5 3 5 5 5 5 5 5 5 3 5 5 5 3 3 5 3 5 5 5 5 5 5 5 5 5 5 3 5 5 3 5 5 3 5 5 5 3 3 3 5 5 3 5 3 5 5 5 5 5 5 5 5 3 5 5 5 5 5 5 5 5 5 5 5 5 5 5 5 5 3 5 5 5 5 5 5 5 3 5 5 5 5 3 5 5 3 5 5 3 3 5 5 5 5 5 5 5 5 5 3 5 3 5 3 5 3 3 5 3 5 5 5 3 5 5 5 5 5 5 3 5 5 5 5 5 5 5 5 5 5 3 3 5 5 5 5 5 5 5 5 5 5 3 5 5 5 5 5 5 5 5 5 5 5 5 5 5 5 5 5 5 5 5 3 5 5 5 5 5 3 5 5 5 5 5 5 5 5 5 5 5 5 5 5 5 5 5 5 5 5 3 5 5 5 5 3 5 5 3 5 5 3 3 5 3 5 5 3 5 5 5 5 5 5 5 5 5 5 5 5 5 5 5 5 5 5 5 5 5 5 5 5 5 5 5 5 5 5 5 5 5 5 5 3 5 5 5 5 3 5 5 5 5 5 5 3 3 5 5 5 3 5 3 5 3 5 5 5 5 5 5 5 5 5 5 5 5 5 5 3 5 5 5 5 3 5 5 3 3 5 5 5 3 5 5 5 5 5 3 5 5 3 5 5 3 5 5 5 3 5 5 3 5 5 5 5 5 5 5 5 3 5 5 3 3 5 5 3 5 5 5 5 3 5 5 5 5 5 5 5 5 5 5 5 5 5 5 5 5 3 5 5 5 5 3 5 5 5 5 5 3 3 5 3 5 3 5 5 3 5 5 5 5 5 3 5 5 3 5 5 5 5 5 5 5 5 5 5 3 5 5 5 3 5 5 5 5 3 5 3 5 5 5 5 5 5 5 3 5 5 5 5 5 5 5 5 5 5 5 5 3 5 5 5 5 5 5 5 5 5 5 3 5 3 5 5 3 5 5 5 5 3 5 3 5 3 5 5 5 3 5 3 5 5 3 3 5 5 5 3 3 5 3 5 5 5 5 5 3 5 5 5 5 5 5 3 5 5 5 5 3 5 5 3 5 3 5 5 5 5 5 5 5 5 5 5 5 5 5 5 5 5 5 5 5 5 5 5 5 5 5 5 5 5 5 5 5 5 5 5 5 5 5 5 5 3 5 5 5 5 5 5 5 5 5 3 5 5 5 3 5 5 5 5 5 5 5 5 5 5 5 5 5 5 5 5 5 5 5 5 5 5 5 5 5 5 5 5 5 5 5 3 5 3 5 5 5 5 5 5 5 5 5 5 5 5 5 5 5 5 5 5 5 5 5 5 5 5 5 5 5 5 5 5 5 5 5 5 3 5 5 3 5 5 3 5 3 5 5 3 5 5 3 3 5 5 5 5 5 3 5 5 5 5 5 3 5 5 5 5 5 5 5 5 5 5 5 5 5 5 5 5 5 5 5 5 5 5 5 5 5 5 5 5 5 5 3 5 5 5 5 5 3 5 5 5 5 5 5 5 3 5 5 3 5 5 5 3 3 3 5 5 5 5 3 3 5 5 3 3 5 5 3 5 5 5 3 5 5 3 5 3 5 5 5 5 5 5 5 5 3 3 5 3 5 5 5 5 5 3 5 3 5 3 5 5 5 3 3 5 3 3 5 5 5 5 3 3 5 3 5 3 5 5 5 5 5 5 5 5 5 3 3 5 5 5 5 5 5 5 3 5 5 5 5 3 5 5 5 5 5 5 5 5 5 5 5 5 5 5 3 5 3 3 5 5 5 5 3 5 5 5 3 5 5 5 5 3 3 5 5 3 5 5 3 5 5 5 5 5 3 5 5 5 5 5 5 3 5 3 5 5 5 3 5 5 5 5 5 5 5 5 5 5 5 5 5 5 5 5 5 5 5 5 5 5 5 5 5 5 5 5 5 5 5 5 5 5 5 5 3 3 5 5 5 5 5 5 5 5 5 5 5 5 5 3 5 5 3 5 5 3 5 5 3 5 5 5 5 5 3 5 3 5 5 5 5 5 5 5 5 5 5 5 5 5 5 3 5 5 5 3 5 3 5 5 5 5 5 5 5 5 5 5 5 5 5 5 5 5 5 5 5 5 5 5 5 3 5 5 5 5 5 5 5 5 5 5 5 5 5 5 5 5 5 5 5 5 5 5 3 3 5 5 5 5 5 5 5 5 5 5 5 5 3 5 5 5 5 5 5 5 5 5 3 5 5 5 5 3 5 5 3 5 5 5 5 5 5 5 5 3 5 3 5 5 5 5 5 5 5 5 5 5 5 5 5 3 5 5 5 5 5 5 5 5 5 5 5 5 5 5 5 5 5 5 5 5 3 5 5 5 5 5 5 3 5 5 5 5 5 5 5 5 5 5 5 5 5 5 5 5 5 5 5 5 5 5 5 5 5 5 5 5 3 5 3 5 5 5 5 5 5 5 3 5 5 5 5 3 3 5 3 5 5 5 5 3 5 5 5 5 5 5 5 5 5 3 5 3 3 5 5 5 5 5 5 5 5 5 5 3 5 5 5 5 5 5 5 5 5 5 5 3 5 3 5 5 5 5 5 5 3 5 3 5 5 5 5 5 5 5 5 5 5 5 3 5 5 3 3 5 5 5 5 3 5 3 3 5 5 5 5 3 5 3 5 5 5 5 5 5 5 5 5 5 5 5 5 5 5 5 5 5 5 5 5 3 5 3 5 3 5 3 5 5 5 5 5 5 5 5 5 5 5 5 5 5 5 5 5 5 5 5 5 5 5 5 5 5 5 5 5 5 5 5 5 5 5 5 5 5 5 5 5 5 5 5 5 5 5 5 5 5 5 5 5 5 5 5 5 5 3 5 5 5 5 5 5 5 5 3 5 5 5 5 5 5 3 5 5 5 5 5 5 5 5 5 5 5 3 5 5 5 5 5 5 5 3 3 5 5 3 5 5 5 3 3 3 3 5 5 5 5 5 5 3 5 5 5 5 3 5 5 5 3 5 5 3 3 5 5 5 5 5 5 5 3 5 5 5 5 5 5 5 5 5 5 5 5 5 3 5 5 5 5 5 5 3 5 5 5 5 5 5 5 3 5 5 5 5 5 5 5 5 3 5 5 5 3 5 5 3 5 3 5 5 5 5 5 5 5 5 5 5 3 5 3 5 3 5 5 5 5 5 5 3 5 5 5 5 5 5 3 5 5 5 5 5 5 5 5 5 5 5 5 5 3 3 5 5 5 5 3 5 5 5 3 5 5 3 5 5 3 5 5 5 5 5 3 5 5 5 5 5 3 5 5 5 5 5 3 5 3 5 3 5 5 5 5 5 5 5 5 5 5 3 5 5 5 5 5 5 5 5 5 5 5 5 5 5 3 5 5 5 5 5 3 5 5 3 5 5 5 3 5 5 5 3 5 5 5 5 5 5 5 5 5 5 5 5 5 5 3 5 5 5 5 5 5 5 5 5 5 5 5 5 5 5 5 5 5 5 5 5 5 5 3 3 3 5 5 5 5 3 5 5 5 5 5 5 5 5 5 5 5 5 5 5 5 5 5 5 5 5 5 5 5 5 5 5 5 5 5 5 5 5 5 5 5 5 5 5 3 3 5 5 3 5 5 5 5 5 3 5 5 5 5 3 5 5 5 5 5 3 5 3 5 5 5 3 5 3 5 5 3 3 5 5 5 5 5 5 5 3 5 5 5 5 3 5 5 5 5 5 5 3 5 5 5 5 5 5 5 5 5 3 5 5 5 5 5 5 5 5 5 5 5 5 5 5 5 5 5 3 5 5 5 5 5 5 3 5 5 5 5 5 5 5 3 5 5 5 5 3 5 5 5 5 5 3 5 5 5 5 5 5 3 5 5 3 5 5 5 5 3 5 5 5 5 3 5 5 5 5 5 5 5 5 5 5 5 5 5 5 5 5 5 5 5 5 5 5 5 5 5 5 3 5 5 5 5 3 5 5 5 5 5 5 3 3 5 5 5 5 5 5 5 5 5 3 3 5 5 5 5 5 3 5 5 5 5 5 5 3 5 5 5 3 5 5 3 5 5 3 3 5 5 5 3 3 5 5 5 3 5 5 5 5 5 5 5 5 5 5 5 5 5 5 5 5 5 5 5 5 5 3 5 5 5 5 5 3 3 5 3 5 5 5 3 5 5 5 5 5 5 5 5 5 5 5 5 5 5 5 5 5 5 5 5 5 5 5 5 5 5 5 5 5 5 5 3 5 5 3 5 5 5 5 5 5 5 5 5 5 5 5 5 5 5 5 5 5 5 3 3 5 3 5 5 5 5 5 5 5 5 5 5 5 5 5 5 5 3 5 3 3 5 5 3 5 3 5 3 5 5 5 3 5 5 5 3 3 3 5 5 5 3 5 5 3 5 5 5 3 5 5 5 5 3 5 5 5 5 3 5 5 5 3 3 3 5 5 5 5 5 5 5 5 5 3 5 5 5 5 5 5 5 5 5 5 5 5 5 5 5 5 5 5 3 5 5 5 5 3 5 5 5 5 5 5 5 5 5 3 5 5 5 5 5 5 5 5 5 5 5 5 5 5 5 5 5 5 5 5 3 5 5 5 5 3 5 3 5 5 5 5 5 5 5 5 3 5 5 5 5 5 5 5 5 5 5 5 5 5 5 5 5 5 5 5 5 5 3 5 5 3 5 5 5 5 5 5 5 5 5 5 5 5 5 5 5 5 5 5 5 5 3 5 5 5 5 3 3 5 5 5 5 5 5 5 5 3 5 5 3 5 3 5 5 5 3 3 5 5 3 3 5 5 5 5 3 5 3 5 5 5 5 5 5 5 5 5 5 5 5 5 5 5 5 5 3 5 5 5 3 5 5 5 5 5 3 5 5 5 5 5 5 5 5 3 5 5 5 3 5 5 5 5 5 3 5 3 3 3 5 5 5 5 3 5 5 5 3 5 5 5 5 3 3 5 5 3 5 3 5 3 5 5 5 5 5 5 5 5 5 5 5 3 5 5 3 5 3 3 5 3 3 5 5 3 5 5 5 3 5 3 5 5 5 3 5 5 3 5 3 5 5 5 5 5 5 5 5 5 5 5 5 5 5 5 5 5 5 5 5 5 5 5 5 5 5 5 5 5 3 5 5 5 5 5 3 3 3 5 5 5 5 3 5 5 5 5 5 5 5 5 5 5 5 5 5 5 5 5 5 5 5 5 5 5 5 5 5 5 5 5 5 5 5 5 5 5 5 5 5 5 5 5 3 5 5 5 5 3 5 5 5 5 5 5 5 5 5 5 5 3 3 5 5 5 5 5 5 3 5 3 5 5 5 5 5 5 5 5 5 5 5 5 5 5 5 5 5 5 5 5 3 5 5 5 5 3 3 5 3 5 5 5 5 5 5 5 5 5 5 5 5 5 5 5 5 5 5 5 5 5 5 5 5 3 5 5 5 5 5 5 5 5 5 5 5 5 5 5 5 5 5 5 5 5 5 5 5 5 5 5 5 5 3 5 5 5 5 5 5 5 5 5 5 5 5 3 5 5 5 5 5 5 3 5 5 5 5 3 3 3 5 5 5 5 5 5 5 5 5 5 3 5 5 5 5 5 5 5 5 5 5 5 5 5 5 5 3 5 5 5 5 3 5 5 5 3 5 5 5 5 5 5 5 3 5 5 5 3 5 5 5 5 5 3 3 5 5 5 3 3 5 5 5 5 3 5 3 5 3 5 3 5 5 3 3 5 3 5 5 3 5 5 3 5 5 3 5 3 5 3 5 5 3 5 5 3 5 3 3 5 3 5 5 5 3 5 5 5 5 5 5 5 5 5 5 5 3 5 5 5 5 5 5 5 5 5 5 5 5 5 5 5 5 5 5 3 5 5 5 3 5 5 3 5 3 5 5 5 3 5 3 5 3 5 5 3 5 5 5 5 5 3 5 3 5 5 5 5 5 5 5 5 5 5 3 5 3 5 5 5 5 3 5 5 3 5 3 3 5 5 5 5 5 5 3 5 5 3 5 5 5 5 3 5 5 5 3 3 5 5 5 3 5 3 5 5 5 5 5 5 5 5 5 3 5 5 3 5 5 5 5 5 5 5 5 5 5 5 5 5 5 5 5 5 5 5 5 5 5 5 5 5 5 5 5 5 5 5 5 5 5 5 5 5 5 5 5 5 5 5 5 5 5 5 5 5 5 5 5 5 5 5 5 5 5 5 5 5 5 5 5 5 5 5 5 5 5 5 5 5 5 5 5 5 5 5 5 5 5 5 5 5 5 5 3 5 5 5 5 5 5 5 5 5 3 5 3 5 5 5 5 5 5 5 5 5 5 5 5 5 5 5 5 5 5 5 5 5 5 5 5 5 5 5 5 5 5 5 5 5 5 5 5 5 5 5 5 5 5 5 5 5 5 5 5 3 5 5 5 3 5 3 5 3 5 5 5 5 5 5 5 5 5 5 5 5 5 5 3 3 3 5 5 3 5 5 5 5 5 5 5 5 3 5 3 5 3 5 5 5 3 5 5 5 5 3 5 5 5 5 5 5 5 5 5 5 5 5 5 5 5 5 5 5 5 5 3 5 5 3 5 5 5 5 5 5 5 5 5 5 3 3 5 5 5 5 5 5 5 5 5 5 5 5 5 5 3 5 5 5 5 3 5 5 5 5 5 5 5 5 5 5 5 3 5 5 5 5 5 5 5 5 5 5 5 5 5 5 5 5 5 5 5 5 3 5 5 5 5 5 3 3 5 5 5 5 5 5 5 5 5 5 5 5 5 5 5 5 5 3 3 5 3 5 5 5 5 5 5 5 5 5 3 5 3 5 3 5 5 3 3 3 5 5 3 5 5 3 5 3 5 5 5 5 5 5 3 5 5 5 5 3 5 5 5 5 5 5 5 5 5 5 5 5 5 5 5 5 5 5 5 5 5 5 5 5 5 5 5 5 5 5 5 5 5 5 5 5 5 5 5 5 5 5 5 5 3 5 5 5 3 5 5 5 5 5 5 5 5 5 5 5 5 5 5 5 5 5 5 5 3 5 5 5 5 3 5 5 5 5 5 5 5 5 5 5 3 5 5 5 5 3 3 3 5 5 3 5 5 3 5 5 5 5 5 5 5 5 5 3 5 5 5 5 5 3 5 5 5 5 5 3 5 5 5 5 5 5 3 3 5 5 3 5 5 3 5 5 5 3 5 5 5 5 5 5 3 5 3 3 5 5 5 5 5 5 5 3 3 5 5 5 5 5 5 3 5 5 3 5 5 5 5 5 5 5 5 5 5 3 5 3 5 5 5 5 3 5 5 5 5 5 5 5 5 5 5 5 5 3 5 5 5 5 5 3 5 5 5 5 3 5 5 5 3 5 3 5 5 3 5 3 5 5 5 3 3 3 5 3 5 3 3 5 3 5 3 5 3 5 3 5 5 5 3 5 5 3 3 5 5 5 3 3 3 3 5 5 5 3 5 3 3 5 3 5 5 5 3 5 5 5 5 3 5 5 5 3 3 5 5 5 5 5 5 3 5 5 5 5 5 5 5 5 5 5 5 5 5 5 5 5 5 5 5 5 5 5 5 5 3 3 5 5 5 5 5 5 5 3 3 5 3 5 5 5 3 5 5 5 5 5 5 5 5 5 3 3 5 5 3 5 5 5 3 5 5 5 5 3 5 5 5 5 5 3 3 5 5 3 5 5 3 5 5 3 5 5 5 5 5 5 3 5 3 5 5 3 5 3 5 3 5 5 5 3 5 3 5 3 5 5 3 5 5 3 5 3 3 5 5 3 3 5 3 5 5 5 5 5 5 3 3 5 5 5 5 5 3 5 5 5 5 3 5 5 3 5 5 5 5 5 3 5 5 5 5 5 5 5 5 5 5 5 5 5 5 5 3 5 5 5 5 5 5 5 5 3 5 3 5 5 5 5 5 3 5 3 5 5 3 5 5 3 5 5 3 5 5 5 5 5 5 5 5 3 5 5 5 5 5 5 5 5 5 5 5 5 5 5 5 3 5 5 5 5 5 5 5 3 5 5 3 5 5 5 5 3 5 5 5 5 5 5 5 5 5 5 5 5 5 3 5 5 5 5 3 5 5 5 5 5 5 3 3 5 5 5 5 5 3 5 3 5 5 5 5 5 5 3 5 5 3 5 5 5 5 5 5 5 5 5 3 5 5 5 5 3 5 5 5 5 5 5 5 5 3 5 3 5 5 3 5 5 3 5 5 5 5 5 5 5 5 5 5 3 5 5 5 5 5 5 5 5 5 5 5 5 5 5 5 5 5 5 5 5 5 5 5 5 5 5 5 5 5 5 5 5 5 5 5 5 5 5 5 5 5 5 5 5 5 5 5 5 5 5 3 5 5 3 3 5 3 5 5 5 3 5 5 5 5 5 5 5 5 5 5 5 5 3 5 3 5 5 5 5 5 5 5 5 5 5 5 5 5 5 5 5 5 5 5 5 5 5 5 5 5 5 5 5 5 5 3 5 5 5 5 5 5 3 5 5 3 5 5 5 3 5 5 3 5 5 5 3 3 3 5 5 3 5 3 3 5 5 3 5 5 3 5 5 3 5 3 5 3 3 5 5 3 3 3 5 5 5 5 5 5 5 5 5 3 5 5 5 5 5 5 5 5 5 5 5 5 3 3 3 5 3 5 3 3 5 5 5 3 3 3 5 5 5 5 3 3 3 5 5 5 5 5 5 5 3 5 3 5 5 3 5 3 5 5 5 5 5 5 5 5 5 3 5 5 5 5 5 5 5 5 5 5 5 5 5 5 5 5 5 5 5 5 5 5 5 5 5 5 3 5 5 5 5 5 5 5 5 5 5 5 5 5 5 5 5 5 5 5 5 5 3 5 5 5 5 5 5 3 5 5 3 5 5 3 5 5 5 5 5 5 3 5 5 5 5 5 5 5 5 3 5 5 5 5 3 5 5 5 5 5 5 5 5 5 5 5 5 5 5 5 5 5 5 5 5 5 5 5 5 5 5 5 5 5 5 5 5 5 5 5 5 5 5 5 5 5 5 5 5 5 5 5 5 5 5 5 5 5 5 3 5 5 5 3 5 5 5 5 5 5 5 5 5 5 5 3 5 5 5 3 5 5 5 5 5 5 5 5 5 5 5 3 5 5 5 5 5 3 3 5 5 5 5 5 3 5 5 5 5 5 5 5 5 5 5 5 5 5 5 5 5 5 5 5 3 5 5 5 5 3 3 5 5 5 5 5 5 3 5 5 5 5 5 5 5 3 5 5 5 5 5 5 3 3 5 5 5 3 5 3 5 5 5 5 5 5 5 5 5 3 5 5 5 5 5 5 5 5 5 5 3 5 5 5 5 5 5 5 5 5 5 5 5 5 5 5 3 3 5 5 5 5 3 5 5 3 5 5 5 5 5 5 5 5 5 5 5 5 5 5 3 5 5 5 5 5 5 3 5 5 5 5 5 5 5 5 5 5 5 5 5 5 5 5 5 3 5 5 5 5 5 5 5 5 3 5 5 5 5 5 5 5 5 5 5 5 3 5 5 5 5 3 5 5 5 5 5 5 5 5 3 5 5 5 5 3 5 3 3 5 3 5 5 3 5 5 5 5 5 5 5 5 5 5 5 5 5 5 5 5 3 3 5 5 5 5 5 5 5 3 5 5 3 3 5 5 5 5 3 3 5 5 3 5 5 3 5 5 5 5 5 5 3 3 5 5 5 5 5 5 3 5 5 3 5 5 5 5 5 5 3 5 5 5 3 3 3 3 3 5 5 5 3 5 5 5 5 3 5 5 5 5 5 5 5 5 5 5 5 5 5 5 5 5 5 5 5 5 5 5 3 5 5 5 5 5 5 5 5 5 3 5 5 5 3 5 5 3 5 5 5 5 5 5 5 5 5 5 5 5 5 5 5 3 5 3 5 5 5 5 5 3 5 5 5 5 3 5 3 5 5 5 5 5 5 5 5 5 5 5 5 5 3 5 5 5 5 5 5 5 5 5 5 5 5 5 5 5 5 5 5 5 5 5 5 5 5 3 5 3 5 3 5 5 5 5 5 5 5 5 5 5 3 5 3 5 5 5 5 3 5 5 5 5 3 5 5 5 5 5 3 5 5 3 5 5 5 5 5 5 5 5 5 5 3 5 3 5 5 5 5 5 5 5 5 5 5 5 5 5 5 5 5 5 5 5 5 5 5 5 5 5 5 5 5 5 5 5 5 5 5 3 5 3 5 5 3 5 5 5 5 3 5 5 5 5 5 5 5 5 5 5 5 5 5 5 5 5 5 5 5 5 3 5 5 5 5 5 5 5 5 5 5 5 5 5 5 5 5 5 5 3 3 5 3 5 5 5 5 5 5 5 5 5 5 5 5 5 5 5 5 5 5 5 5 5 5 5 5 5 5 5 5 3 5 5 5 5 5 5 3 5 5 3 5 3 5 5 3 5 5 5 5 5 5 5 5 3 5 5 5 5 3 5 5 5 5 3 5 3 5 5 5 5 5 3 5 5 5 5 5 5 3 3 5 5 5 5 5 3 5 3 5 5 5 5 5 5 5 5 5 5 5 5 5 5 5 5 5 5 5 5 3 5 5 5 5 5 5 3 5 5 5 3 3 5 5 5 5 5 5 5 5 5 5 5 5 5 5 5 5 5 5 5 5 5 5 5 5 5 5 3 5 5 5 5 3 5 5 3 5 5 5 5 5 5 5 5 5 5 5 3 5 5 5 5 5 5 5 5 5 5 5 5 5 5 5 5 5 5 5 3 5 3 5 5 5 3 5 5 5 3 5 5 5 3 3 5 5 5 3 5 5 5 3 5 5 3 5 3 5 5 5 3 5 3 5 5 3 3 3 3 5 5 5 3 3 3 3 5 5 5 5 5 3 5 5 3 5 5 5 5 3 5 5 3 5 5 3 5 5 5 5 5 3 5 5 5 5 3 5 5 5 5 5 5 5 5 5 5 5 5 5 3 5 5 5 5 5 5 3 5 3 5 3 5 5 5 5 5 5 5 5 5 5 5 5 5 3 5 5 5 5 5 5 5 5 5 5 5 5 5 5 5 5 5 5 5 5 5 5 5 3 5 5 5 5 5 5 5 5 5 5 5 3 5 5 5 5 5 5 5 5 3 5 5 5 5 5 5 5 5 5 5 5 5 5 5 5 3 5 5 5 5 5 3 5 3 5 5 5 3 3 5 3 5 5 3 5 5 5 5 5 5 3 5 5 5 3 5 5 5 5 5 5 5 3 3 5 5 3 5 3 5 5 5 3 5 5 3 5 5 3 3 3 5 5 3 5 5 5 5 5 5 5 3 5 5 5 5 3 5 5 5 5 5 5 5 3 5 5 5 5 5 3 5 5 5 3 5 5 5 5 3 3 3 5 5 3 3 5 3 5 5 5 5 3 5 5 5 5 5 5 3 3 5 5 5 5 5 5 3 5 5 5 5 5 5 3 5 3 5 5 5 3 5 5 5 3 5 5 5 5 3 5 3 5 5 5 5 3 5 5 3 5 5 3 5 5 5 5 3 5 5 5 5 5 5 5 5 3 5 5 5 5 5 5 5 5 5 5 5 5 5 5 5 5 5 5 5 5 3 5 5 5 5 5 5 5 3 5 3 5 5 5 5 5 5 5 5 5 3 5 3 5 3 5 5 5 3 5 5 5 5 5 5 5 5 3 5 5 5 5 5 5 3 5 5 5 5 3 5 5 5 5 5 5 5 5 5 5 3 3 5 5 5 5 5 5 5 5 5 5 5 5 5 5 5 5 5 5 5 5 5 5 5 5 5 5 5 3 5 5 5 5 5 5 5 5 5 5 5 3 5 5 5 5 5 3 3 5 5 5 5 5 5 5 5 5 5 5 5 5 3 5 5 5 5 5 5 5 5 5 3 5 5 3 5 3 5 5 5 5 5 5 3 5 3 5 3 5 5 3 5 5 5 5 3 5 5 5 5 5 5 5 5 5 5 5 5 3 5 5 5 3 5 5 5 5 5 5 5 5 5 3 5 5 5 5 3 5 5 5 5 5 5 3 5 5 5 5 5 5 5 5 5 5 5 5 5 5 5 5 5 5 5 5 5 5 3 5 5 5 5 5 3 5 5 3 5 5 5 5 5 3 3 5 5 5 5 5 5 5 3 5 5 5 5 3 5 5 5 5 5 5 5 3 5 5 5 3 5 3 5 5 3 5 5 3 3 5 3 5 5 5 3 5 3 5 3 5 5 5 5 5 5 3 3 5 5 5 5 5 5 5 5 5 5 3 3 5 5 5 5 5 5 5 5 3 3 5 5 3 5 3 5 5 5 5 5 5 5 3 5 3 5 5 5 5 5 5 3 5 5 5 3 5 5 5 5 5 3 5 5 5 5 5 5 5 5 5 5 3 3 5 5 3 5 5 5 3 5 5 3 5 5 5 5 5 5 5 5 3 5 5 5 5 5 5 5 5 5 5 5 5 5 5 5 5 5 5 5 5 3 5 3 3 5 5 5 3 5 3 5 5 5 5 5 5 5 3 5 5 5 5 3 5 5 5 5 5 3 5 5 5 5 3 5 3 5 5 5 5 3 5 5 5 5 3 5 5 5 5 5 5 5 5 5 5 3 5 5 5 5 5 5 5 5 5 5 5 5 5 5 5 5 5 5 5 5 5 5 5 5 5 5 5 5 5 5 5 5 5 3 5 5 3 5 5 5 3 3 3 5 3 3 3 5 5 5 3 3 5 5 5 5 5 5 3 5 5 3 5 3 5 5 5 5 5 3 5 5 5 5 5 5 5 5 5 5 5 5 5 5 5 5 5 5 5 5 5 5 3 5 5 3 5 5 3 5 5 5 5 3 5 3 5 5 3 5 5 5 5 5 3 5 5 5 5 5 5 5 3 5 5 5 5 5 3 5 5 3 5 3 5 5 5 5 5 5 5 5 5 3 3 3 5 5 3 5 5 5 5 5 5 5 5 5 5 3 5 5 5 5 5 5 5 5 5 3 5 5 5 5 5 3 5 3 5 5 5 5 5 5 3 3 5 5 5 5 5 5 3 5 5 5 5 5 5 5 5 3 5 5 3 3 5 5 5 5 5 5 5 5 5 5 5 3 5 5 5 5 5 5 5 5 5 5 5 5 5 5 5 5 5 5 3 5 5 5 5 5 5 5 5 5 3 5 5 5 3 3 5 5 3 5 5 5 5 5 5 5 5 5 5 5 5 5 5 5 5 5 5 5 3 5 5 5 3 5 5 5 5 5 5 3 5 5 5 5 3 5 5 5 5 3 5 5 5 5 5 5 5 5 5 5 5 5 5 3 5 5 5 5 5 5 5 3 3 5 5 5 3 3 5 5 3 3 3 5 5 5 3 5 5 5 5 5 5 3 5 5 3 5 5 3 5 5 3 5 3 3 5 5 5 5 5 3 5 3 5 5 3 5 5 5 3 5 5 5 5 5 5 5 5 5 5 5 5 3 5 3 5 5 5 5 3 3 5 3 5 5 5 3 5 5 5 3 5 5 5 3 5 3 5 5 3 3 5 5 3 5 5 5 5 3 5 5 5 5 5 3 5 3 3 5 5 5 5 5 3 5 5 3 3 3 5 3 5 3 5 5 5 3 5 5 5 5 3 5 5 5 3 5 5 5 5 5 5 5 3 5 5 3 5 5 5 3 5 5 5 3 5 3 5 5 5 5 3 5 5 5 5 5 5 5 5 5 5 5 5 5 5 5 5 3 5 5 5 5 5 3 5 5 3 5 5 5 3 3 3 5 5 5 5 3 5 5 5 5 3 5 5 5 3 5 5 5 3 5 5 5 5 3 5 5 5 5 5 5 3 5 5 5 5 5 3 5 5 5 5 5 5 5 5 3 5 5 3 5 5 5 5 5 3 5 5 5 5 5 5 5 5 5 3 5 5 5 3 5 5 5 5 5 5 5 3 3 5 5 5 5 5 3 5 5 5 5 5 5 3 5 5 5 3 5 5 5 5 3 5 5 5 5 5 5 5 5 5 5 5 5 5 5 5 5 5 5 5 5 5 5 5 5 5 5 3 3 5 5 3 5 5 3 5 5 5 5 5 5 5 5 5 5 5 3 5 5 5 3 5 5 5 5 3 3 5 5 3 5 5 5 5 5 5 5 5 3 5 5 5 5 5 3 3 5 5 5 5 5 5 5 3 5 5 5 5 5 5 5 5 5 5 5 5 5 3 5 5 5 5 3 5 3 5 5 5 5 5 5 5 5 5 5 5 3 5 5 5 5 5 5 5 5 5 5 3 5 5 5 5 3 5 5 5 5 5 5 5 5 5 5 5 5 5 5 5 5 5 5 5 5 5 3 5 5 5 5 5 3 5 5 3 5 5 5 5 5 5 5 5 5 5 5 5 5 5 5 3 5 5 5 5 5 5 5 3 5 5 5 5 5 5 5 5 5 3 5 5 5 5 5 5 5 5 5 3 5 5 5 5 5 5 3 5 5 5 5 3 5 5 5 5 5 5 5 5 5 5 5 5 5 5 5 3 5 5 3 5 3 5 5 5 5 5 5 5 5 5 5 5 5 5 5 5 3 5 5 5 5 5 5 3 5 5 5 5 5 5 5 5 5 5 5 5 5 5 5 5 5 5 5 3 5 5 3 5 5 5 5 5 5 3 5 3 5 5 3 5 5 5 5 5 3 5 5 5 5 5 3 5 5 5 5 5 5 3 5 5 5 5 5 5 3 5 5 3 5 5 5 5 3 5 5 5 5 5 3 5 5 5 5 5 5 5 3 5 5 5 5 5 5 5 3 5 5 5 5 5 5 3 5 5 5 5 5 5 5 5 5 5 5 3 5 5 5 5 3 3 5 5 3 5 5 5 5 5 5 3 5 5 5 5 5 5 5 5 5 5 5 5 5 5 5 5 5 5 3 5 5 5 5 3 5 5 3 5 5 5 5 5 5 5 5 5 5 5 5 5 5 5 5 5 5 5 3 3 5 5 5 5 5 5 3 5 3 5 5 5 5 5 5 5 5 5 5 5 5 5 5 5 5 5 5 5 5 5 5 5 5 5 5 5 5 5 5 5 3 5 5 5 3 5 5 5 5 3 5 5 5 5 5 3 5 5 5 5 5 5 5 5 5 5 5 5 5 5 5 5 5 5 5 5 5 5 5 5 5 5 5 5 3 5 3 5 5 5 5 5 5 5 5 3 5 5 5 5 3 5 5 5 5 5 5 5 5 5 5 5 3 5 5 5 5 5 5 5 5 5 5 5 5 5 5 5 5 5 5 3 5 5 5 5 5 5 5 5 5 5 5 5 5 5 5 5 5 5 5 5 5 5 5 5 3 5 5 5 5 5 5 5 5 5 5 5 5 5 5 5 5 5 5 5 5 5 5 5 5 5 5 5 5 5 3 5 5 5 5 5 5 3 5 3 5 3 5 5 3 5 5 3 3 5 5 3 5 3 5 5 3 5 5 3 5 5 5 5 5 5 5 5 5 5 5 5 5 3 3 3 5 5 5 3 5 5 5 5 5 5 5 5 5 5 5 5 5 5 3 5 5 5 5 5 5 5 5 5 5 5 5 5 3 3 5 5 5 5 5 5 5 5 5 5 5 5 5 5 3 5 5 3 5 5 3 3 5 3 5 5 5 3 5 5 5 5 5 5 5 3 5 5 5 5 5 3 3 5 5 3 5 5 5 5 5 5 5 5 5 5 5 5 5 5 5 5 5 5 3 3 5 3 5 5 3 5 5 5 5 5 5 5 3 5 5 5 5 5 5 5 5 5 5 3 5 5 3 5 3 5 5 5 5 5 5 5 5 5 5 5 5 5 5 5 5 5 5 5 5 5 3 5 5 5 5 5 5 5 5 5 5 5 5 5 5 5 5 5 5 5 5 5 5 5 5 5 5 5 5 5 5 5 5 5 5 5 5 5 5 5 5 5 5 5 5 5 5 5 5 5 5 5 5 5 5 5 5 5 5 5 5 5 3 5 5 3 5 5 5 3 5 5 5 5 5 5 5 3 5 5 5 5 5 5 5 5 5 5 3 5 5 5 5 5 3 3 5 3 5 5 3 5 3 5 5 5 5 5 5 3 5 5 5 5 5 3 3 5 5 5 5 5 3 3 5 5 5 5 5 5 5 5 5 5 5 5 5 5 5 5 5 5 5 5 5 5 5 5 5 5 5 5 5 5 5 5 5 5 5 5 5 5 5 5 5 5 5 5 3 5 5 5 5 5 5 5 5 5 5 5 5 5 5 5 5 3 5 5 3 5 5 5 5 3 5 3 5 3 5 5 3 5 5 5 5 5 3 5 5 5 5 5 3 5 5 5 5 5 3 3 5 3 5 5 3 5 5 5 5 3 3 5 5 5 5 5 5 5 5 3 5 5 5 3 5 5 5 5 5 5 5 5 3 5 5 5 5 5 3 5 5 3 5 5 5 5 5 5 5 5 5 5 5 5 5 5 3 5 5 3 5 5 3 5 5 5 5 3 5 5 5 5 3 5 5 5 5 5 5 5 5 5 5 5 3 5 3 5 5 3 5 5 5 5 3 5 5 5 5 5 5 5 5 3 3 5 5 3 3 5 5 5 5 5 5 3 5 5 5 5 5 5 5 5 5 5 5 5 5 5 5 5 5 5 5 3 5 5 5 5 5 5 5 5 3 5 5 5 5 3 5 5 5 5 5 5 5 5 3 5 5 5 3 5 3 3 5 5 5 3 3 5 3 5 5 5 5 5 5 5 5 5 5 5 3 5 5 5 5 5 5 5 3 5 5 5 5 5 5 3 5 5 3 5 3 5 5 5 5 5 5 5 5 5 5 5 5 5 5 5 5 5 3 5 5 5 5 5 5 5 5 5 5 5 5 5 5 5 5 5 5 5 5 5 5 5 5 5 5 5 5 5 5 5 3 5 5 5 5 5 5 5 5 5 5 5 5 5 5 3 3 5 3 5 5 5 3 3 5 5 5 5 3 5 5 5 5 5 5 5 5 5 5 5 5 5 3 5 5 5 5 3 5 3 5 5 5 5 5 5 3 5 5 5 5 5 5 3 5 5 3 3 5 5 5 5 5 5 5 5 5 5 5 5 5 5 5 5 5 5 3 3 5 5 5 5 5 5 3 5 5 5 3 5 5 5 5 5 5 3 5 5 5 5 5 5 5 5 5 5 5 3 5 5 5 5 5 5 3 5 5 5 5 5 5 5 5 5 5 3 5 5 5 5 5 5 5 5 5 5 5 5 5 5 5 5 5 5 3 3 5 5 3 5 5 5 5 5 5 5 5 5 5 5 5 5 3 5 3 5 5 5 5 5 5 5 5 5 5 5 5 5 3 5 5 5 5 5 5 5 5 5 5 5 5 5 3 5 5 5 5 3 5 5 5 5 5 5 3 5 5 5 5 5 5 5 5 5 5 5 5 5 5 5 5 5 5 5 5 5 5 5 5 5 5 5 5 5 5 5 5 5 5 5 5 3 5 5 5 5 3 5 5 5 5 5 5 5 5 5 5 5 3 5 5 5 3 5 5 5 5 5 5 5 5 5 5 5 5 5 3 5 5 3 5 5 5 5 5 5 5 5 5 5 3 5 5 3 5 5 5 3 5 
</DataArray>
</Cells>
<PointData Scalars="" Vectors="displacement," Tensors="">
<DataArray type="Float64" Name="displacement" NumberOfComponents="3" format="ascii">
-8.1867869701879228e-07 -0.034996822249504331 0 -8.3021892893934429e-06 -0.034465504286452342 0 -1.8948621118552439e-07 -0.034998112573573381 0 -8.1867869701879228e-07 -0.034996822249504331 0 -8.5713327346947763e-05 -0.034568592134916046 0 -8.3021892893934429e-06 -0.034465504286452342 0 -8.1867869701879228e-07 -0.034996822249504331 0 1.3753976067218946e-06 -0.033660755790975994 0 -8.5713327346947763e-05 -0.034568592134916046 0 3.5228894784901019e-08 -0.03365488307953983 0 6.1190688515895951e-05 -0.032667055180527413 0 -8.5713327346947763e-05 -0.034568592134916046 0 -8.3021892893934429e-06 -0.034465504286452342 0 -0.0003059871595002951 -0.034434394846255399 0 0.00048164007579326064 -0.030454635521793384 0 0.00040858474950680013 -0.029670955847868479 0 0.0012176754718782985 -0.029961419201900007 0 0.00048164007579326064 -0.030454635521793384 0 -0.00020300689962630475 -0.029867726852853344 0 0.00040858474950680013 -0.029670955847868479 0 0.00048164007579326064 -0.030454635521793384 0 -0.00020300689962630475 -0.029867726852853344 0 -0.00029699747420939274 -0.032626563027889362 0 -0.00022092660919390713 -0.032242087153244753 0 -0.00024068666778173211 -0.032663678463410971 0 -8.3021892893934429e-06 -0.034465504286452342 0 -0.0003059871595002951 -0.034434394846255399 0 -0.00029699747420939274 -0.032626563027889362 0 0.00037748816368390772 -0.03086176400617607 0 -0.00020300689962630475 -0.029867726852853344 0 6.273025840302141e-05 -0.030180006591319909 0 6.1190688515895951e-05 -0.032667055180527413 0 -0.00022092660919390713 -0.032242087153244753 0 -0.00020300689962630475 -0.029867726852853344 0 0.00040858474950680013 -0.029670955847868479 0 6.273025840302141e-05 -0.030180006591319909 0 0.00040858474950680013 -0.029670955847868479 0 1.9998100407221438e-05 -0.029928294088855802 0 6.273025840302141e-05 -0.030180006591319909 0 0.00037748816368390772 -0.03086176400617607 0 6.273025840302141e-05 -0.030180006591319909 0 -9.7782109951664009e-07 -0.031577225392046465 0 2.6453677530418916e-06 -0.033651458986516759 0 0.00037748816368390772 -0.03086176400617607 0 -9.7782109951664009e-07 -0.031577225392046465 0 1.9998100407221438e-05 -0.029928294088855802 0 6.273025840302141e-05 -0.030180006591319909 0 -9.7782109951664009e-07 -0.031577225392046465 0 1.9998100407221438e-05 -0.029928294088855802 0 7.119760770879372e-08 -0.029498317071039705 0 0.0001401476138811399 -0.028886144192847216 0 7.119760770879372e-08 -0.029498317071039705 0 -0.00010398967177788032 -0.027764870127045507 0 0.0001401476138811399 -0.028886144192847216 0 1.9998100407221438e-05 -0.029928294088855802 0 -9.7782109951664009e-07 -0.031577225392046465 0 7.119760770879372e-08 -0.029498317071039705 0 -0.0001569868107409458 -0.026681528140872612 0 -2.6779598928196584e-07 -0.02742091711077764 0 -0.00010398967177788032 -0.027764870127045507 0 -0.0001569868107409458 -0.026681528140872612 0 -2.6779598928196584e-07 -0.02742091711077764 0 -4.7495503927808077e-07 -0.025343013394106884 0 7.119760770879372e-08 -0.029498317071039705 0 -2.6779598928196584e-07 -0.02742091711077764 0 -0.00010398967177788032 -0.027764870127045507 0 -0.0001569868107409458 -0.026681528140872612 0 -0.00010398967177788032 -0.027764870127045507 0 -0.00033207175202732569 -0.026316859147690417 0 -0.00021088494271423992 -0.027289165873014588 0 -0.00033207175202732569 -0.026316859147690417 0 -0.0003994256749364479 -0.026612245692675798 0 -0.00010398967177788032 -0.027764870127045507 0 -0.00021088494271423992 -0.027289165873014588 0 -0.00033207175202732569 -0.026316859147690417 0 -0.00010398967177788032 -0.027764870127045507 0 -0.00021088494271423992 -0.027289165873014588 0 4.8683865428382679e-05 -0.028126987482132545 0 -0.00010398967177788032 -0.027764870127045507 0 4.8683865428382679e-05 -0.028126987482132545 0 0.0001401476138811399 -0.028886144192847216 0 4.8683865428382679e-05 -0.028126987482132545 0 0.00041656153169279903 -0.028785387533666475 0 -0.00015009188805335742 -0.027470367318884397 0 -0.00021088494271423992 -0.027289165873014588 0 4.8683865428382679e-05 -0.028126987482132545 0 -0.00015009188805335742 -0.027470367318884397 0 -0.00021088494271423992 -0.027289165873014588 0 -0.00015009188805335742 -0.027470367318884397 0 -0.0003994256749364479 -0.026612245692675798 0 0.00040858474950680013 -0.029670955847868479 0 0.0001401476138811399 -0.028886144192847216 0 0.00041656153169279903 -0.028785387533666475 0 0.00040858474950680013 -0.029670955847868479 0 1.9998100407221438e-05 -0.029928294088855802 0 0.0001401476138811399 -0.028886144192847216 0 4.8683865428382679e-05 -0.028126987482132545 0 0.0001401476138811399 -0.028886144192847216 0 0.00041656153169279903 -0.028785387533666475 0 0.00040858474950680013 -0.029670955847868479 0 0.00041656153169279903 -0.028785387533666475 0 0.0012176754718782985 -0.029961419201900007 0 0.001320139258094751 -0.030126399471971196 0 0.0014195429622929079 -0.030420018216190323 0 0.00041656153169279903 -0.028785387533666475 0 0.0012176754718782985 -0.029961419201900007 0 0.0005416137164524883 -0.028717356492538999 0 0.0012176754718782985 -0.029961419201900007 0 0.00064165065851914504 -0.027834080954543566 0 0.0019816274486620443 -0.027941837949785588 0 0.0012176754718782985 -0.029961419201900007 0 0.0005416137164524883 -0.028717356492538999 0 0.00064165065851914504 -0.027834080954543566 0 0.00041656153169279903 -0.028785387533666475 0 0.0005416137164524883 -0.028717356492538999 0 0.00012012849152968407 -0.027809328234609507 0 0.00041656153169279903 -0.028785387533666475 0 0.00012012849152968407 -0.027809328234609507 0 -0.00015009188805335742 -0.027470367318884397 0 0.0005416137164524883 -0.028717356492538999 0 0.00012012849152968407 -0.027809328234609507 0 0.00064165065851914504 -0.027834080954543566 0 0.0001253326030412891 -0.027193308487293958 0 0.00064165065851914504 -0.027834080954543566 0 0.0005573118962092237 -0.026795393703397206 0 0.0001253326030412891 -0.027193308487293958 0 -0.00020228422631907316 -0.026653509815807348 0 0.0005573118962092237 -0.026795393703397206 0 0.00012012849152968407 -0.027809328234609507 0 0.0001253326030412891 -0.027193308487293958 0 0.00064165065851914504 -0.027834080954543566 0 0.0013514066627100089 -0.027313526160339822 0 0.00064165065851914504 -0.027834080954543566 0 0.0019816274486620443 -0.027941837949785588 0 0.0013514066627100089 -0.027313526160339822 0 0.00064165065851914504 -0.027834080954543566 0 0.0005573118962092237 -0.026795393703397206 0 -0.0003184943825229557 -0.026792577862695285 0 -0.00015009188805335742 -0.027470367318884397 0 -0.0003994256749364479 -0.026612245692675798 0 -0.0003184943825229557 -0.026792577862695285 0 -0.0003994256749364479 -0.026612245692675798 0 -0.00043157026950996484 -0.026293386363008913 0 0.00012012849152968407 -0.027809328234609507 0 -0.00015009188805335742 -0.027470367318884397 0 -0.00016911790193352362 -0.027074887587498195 0 -0.0003184943825229557 -0.026792577862695285 0 -0.00015009188805335742 -0.027470367318884397 0 -0.00016911790193352362 -0.027074887587498195 0 -0.00016911790193352362 -0.027074887587498195 0 -0.00032284223835444799 -0.026548770313987297 0 -0.00020228422631907316 -0.026653509815807348 0 0.0001253326030412891 -0.027193308487293958 0 -0.00016911790193352362 -0.027074887587498195 0 -0.00020228422631907316 -0.026653509815807348 0 0.00012012849152968407 -0.027809328234609507 0 0.0001253326030412891 -0.027193308487293958 0 -0.00016911790193352362 -0.027074887587498195 0 -0.00032284223835444799 -0.026548770313987297 0 -0.00020228422631907316 -0.026653509815807348 0 -0.00040834478296323493 -0.026054784816414947 0 -0.0003184943825229557 -0.026792577862695285 0 -0.00016911790193352362 -0.027074887587498195 0 -0.00032284223835444799 -0.026548770313987297 0 -0.00032284223835444799 -0.026548770313987297 0 -0.00043157026950996484 -0.026293386363008913 0 -0.00040834478296323493 -0.026054784816414947 0 -0.0003184943825229557 -0.026792577862695285 0 -0.00032284223835444799 -0.026548770313987297 0 -0.00043157026950996484 -0.026293386363008913 0 -0.00043197426706426893 -0.026382763606148305 0 -0.00044244417206797164 -0.026117482843390626 0 -0.00053531725094802451 -0.026107939666061727 0 -0.00062704011566520998 -0.026090767342218834 0 -0.00040834478296323493 -0.026054784816414947 0 -0.00053531725094802451 -0.026107939666061727 0 -0.00051479372722252671 -0.02622591145789635 0 -0.00043991173617587994 -0.026039857441509408 0 -0.00053531725094802451 -0.026107939666061727 0 -0.00040834478296323493 -0.026054784816414947 0 -0.00043991173617587994 -0.026039857441509408 0 -0.00062704011566520998 -0.026090767342218834 0 -0.00065225535477530247 -0.026189155260180574 0 -0.00072757242293634437 -0.026172395490774578 0 -0.00053531725094802451 -0.026107939666061727 0 -0.00062704011566520998 -0.026090767342218834 0 -0.00065225535477530247 -0.026189155260180574 0 -0.0012580048578466115 -0.026412404479349439 0 -0.0015569113673728002 -0.026763833597840871 0 -0.0012052666567125931 -0.026774461111404257 0 -0.0012580048578466115 -0.026412404479349439 0 -0.00093967758932047326 -0.026583226720059104 0 -0.0012052666567125931 -0.026774461111404257 0 -0.00053531725094802451 -0.026107939666061727 0 -0.00065225535477530247 -0.026189155260180574 0 -0.00051479372722252671 -0.02622591145789635 0 -0.0012580048578466115 -0.026412404479349439 0 -0.00093967758932047326 -0.026583226720059104 0 -0.00051479372722252671 -0.02622591145789635 0 -0.00088962970935181369 -0.026341852740331406 0 -0.00055060667237369365 -0.026236213784473442 0 -0.00093967758932047326 -0.026583226720059104 0 -0.00051479372722252671 -0.02622591145789635 0 -0.00070537075807807197 -0.026892884626885452 0 0.0013514066627100089 -0.027313526160339822 0 0.0005573118962092237 -0.026795393703397206 0 0.0022735230412683819 -0.026739299206200894 0 -0.00072757242293634437 -0.026172395490774578 0 -0.00074437530983503754 -0.026234155240423867 0 -0.0007979289054844262 -0.026238841256471961 0 -3.0736092185727481e-05 -0.026100652856096106 0 0.00058206079523461993 -0.030300783016100417 0 -0.00043197426706426893 -0.026382763606148305 0 -3.0736092185727481e-05 -0.026100652856096106 0 -0.00065225535477530247 -0.026189155260180574 0 -0.00072757242293634437 -0.026172395490774578 0 -0.00074437530983503754 -0.026234155240423867 0 -0.0015569113673728002 -0.026763833597840871 0 -0.0019154131191593889 -0.026482049783886928 0 -0.0018931731819055693 -0.026954454176065862 0 -0.00088962970935181369 -0.026341852740331406 0 -0.0015383298440155555 -0.025932989358106864 0 -0.0012580048578466115 -0.026412404479349439 0 -0.0015569113673728002 -0.026763833597840871 0 -0.0019154131191593889 -0.026482049783886928 0 -0.0019154131191593889 -0.026482049783886928 0 -0.0026093773647683982 -0.026498125108933936 0 -0.0022823226534544978 -0.026911554511410921 0 -0.0015383298440155555 -0.025932989358106864 0 -0.00086550918448626089 -0.030564066150992972 0 -0.0019154131191593889 -0.026482049783886928 0 -0.0022823226534544978 -0.026911554511410921 0 -0.0018931731819055693 -0.026954454176065862 0 -0.0026093773647683982 -0.026498125108933936 0 -0.0028243280005709639 -0.027097904916245627 0 -0.0022823226534544978 -0.026911554511410921 0 -1.8948621118552439e-07 -0.034998112573573381 0 -8.8643510818872654e-08 -0.035000145826750186 0 -8.5964258705045171e-05 -0.034856816029673415 0 -0.00086550918448626089 -0.030564066150992972 0 -0.0013966774403608106 -0.030726788666823664 0 -0.00074437530983503754 -0.026234155240423867 0 -0.00081391536148132156 -0.026289307854545526 0 -0.0007979289054844262 -0.026238841256471961 0 -0.00086550918448626089 -0.030564066150992972 0 0.00058206079523461993 -0.030300783016100417 0 0.00058206079523461993 -0.030300783016100417 0 0.00012478657498892439 -0.033547131405804294 0 0.00028808992443238258 -0.034524517797737846 0 0.00039983081074586985 -0.034190967671062375 0 6.1716869347571568e-05 -0.034223177789668366 0 0.00028808992443238258 -0.034524517797737846 0 6.1716869347571568e-05 -0.034223177789668366 0 -0.0001203517326864525 -0.034649618924361143 0 6.1716869347571568e-05 -0.034223177789668366 0 -0.0001203517326864525 -0.034649618924361143 0 -0.00020974935773573455 -0.034043130439399764 0 8.4073620397999595e-05 -0.034626629454585528 0 -1.4930552888557348e-05 -0.034714327902728735 0 -0.0001203517326864525 -0.034649618924361143 0 -0.00086550918448626089 -0.030564066150992972 0 0.00035404683256594181 -0.035193144889923027 0 8.4073620397999595e-05 -0.034626629454585528 0 -1.4930552888557348e-05 -0.034714327902728735 0 1.9495577370909375e-05 -0.034805866294712072 0 -1.4930552888557348e-05 -0.034714327902728735 0 -0.0001203517326864525 -0.034649618924361143 0 -8.5964258705045171e-05 -0.034856816029673415 0 -0.0001203517326864525 -0.034649618924361143 0 -1.8948621118552439e-07 -0.034998112573573381 0 -8.5964258705045171e-05 -0.034856816029673415 0 -0.0001203517326864525 -0.034649618924361143 0 -0.00020974935773573455 -0.034043130439399764 0 -1.8948621118552439e-07 -0.034998112573573381 0 -8.3021892893934429e-06 -0.034465504286452342 0 -0.00020974935773573455 -0.034043130439399764 0 -1.8948621118552439e-07 -0.034998112573573381 0 -8.3021892893934429e-06 -0.034465504286452342 0 -0.00020974935773573455 -0.034043130439399764 0 -0.00029699747420939274 -0.032626563027889362 0 0.0012176754718782985 -0.029961419201900007 0 -0.00029699747420939274 -0.032626563027889362 0 0.0010199021831854335 -0.032993531099756994 0 0.00048164007579326064 -0.030454635521793384 0 0.0012176754718782985 -0.029961419201900007 0 -0.00029699747420939274 -0.032626563027889362 0 0.00058206079523461993 -0.030300783016100417 0 0.0014195429622929079 -0.030420018216190323 0 0.0013514066627100089 -0.027313526160339822 0 0.0022735230412683819 -0.026739299206200894 0 0.0019816274486620443 -0.027941837949785588 0 -0.00029699747420939274 -0.032626563027889362 0 0.00011581908647352057 -0.033535130853515956 0 0.0010199021831854335 -0.032993531099756994 0 0.00068984169527303647 -0.034197333580504773 0 0.00011581908647352057 -0.033535130853515956 0 0.0010199021831854335 -0.032993531099756994 0 0.00068984169527303647 -0.034197333580504773 0 6.1716869347571568e-05 -0.034223177789668366 0 0.00011581908647352057 -0.033535130853515956 0 -0.00020974935773573455 -0.034043130439399764 0 -0.00029699747420939274 -0.032626563027889362 0 0.00011581908647352057 -0.033535130853515956 0 6.1716869347571568e-05 -0.034223177789668366 0 -0.00020974935773573455 -0.034043130439399764 0 0.00011581908647352057 -0.033535130853515956 0 0.0011917510844099309 -0.024503722697387102 0 0.0020102666220861904 -0.023230521669539591 0 0.0022208434150506593 -0.024743095272717123 0 0.0012605426034302304 -0.018623704105135225 0 5.2014690898342057e-05 -0.02197585788240539 0 0.00047594374440533137 -0.014935158741990808 0 0.00023981962631898355 -0.014292403700134119 0 4.0070192626118189e-05 -0.014474346123309698 0 0.0011917510844099309 -0.024503722697387102 0 0.00071883382534347216 -0.023048476674293609 0 0.00016758015639801215 -0.024279592575005341 0 0.0011917510844099309 -0.024503722697387102 0 0.00071883382534347216 -0.023048476674293609 0 0.0020102666220861904 -0.023230521669539591 0 0.00084504293458646741 -0.024441797599766134 0 0.00013312424548975551 -0.024300381646514182 0 0.00071883382534347216 -0.023048476674293609 0 0.0020102666220861904 -0.023230521669539591 0 0.0016297824703027967 -0.021383381399098352 0 0.00047594374440533137 -0.014935158741990808 0 0.00048951531254071341 -0.01621042925123202 0 0.00011068947052118629 -0.01535098671044776 0 0.0012605426034302304 -0.018623704105135225 0 0.00096629737486312781 -0.018902561982949588 0 0.00048951531254071341 -0.01621042925123202 0 -1.8891120758390716e-05 -0.015722621964054648 0 0.00011068947052118629 -0.01535098671044776 0 0.00048951531254071341 -0.01621042925123202 0 2.6940571201530623e-06 -0.018476251315443983 0 -1.0364126406862039e-06 -0.01688144060624687 0 0.00096629737486312781 -0.018902561982949588 0 4.9569292545532641e-07 -0.018479804456451369 0 0.0016297824703027967 -0.021383381399098352 0 3.5862323378264377e-06 -0.018482705569612103 0 0.00022650353387799945 -0.021128913596081777 0 3.5862323378264377e-06 -0.018482705569612103 0 0.00022650353387799945 -0.021128913596081777 0 -5.8021148560586966e-07 -0.019833589213043613 0 0.00071883382534347216 -0.023048476674293609 0 0.0016297824703027967 -0.021383381399098352 0 0.00022650353387799945 -0.021128913596081777 0 0.00071883382534347216 -0.023048476674293609 0 0.00022650353387799945 -0.021128913596081777 0 -2.0206552109574462e-05 -0.022455607123816005 0 0.00022650353387799945 -0.021128913596081777 0 -2.0206552109574462e-05 -0.022455607123816005 0 -0.00018407976495274028 -0.021714933265210987 0 -2.0206552109574462e-05 -0.022455607123816005 0 -0.00018407976495274028 -0.021714933265210987 0 -0.00031387021110134317 -0.022860831008050791 0 0.00022650353387799945 -0.021128913596081777 0 -0.00018407976495274028 -0.021714933265210987 0 -5.8021148560586966e-07 -0.019833589213043613 0 -0.00018407976495274028 -0.021714933265210987 0 -5.8021148560586966e-07 -0.019833589213043613 0 -1.4881572500501858e-06 -0.021184313525134318 0 -0.00018407976495274028 -0.021714933265210987 0 -1.4881572500501858e-06 -0.021184313525134318 0 -0.00097808598321263464 -0.022816599659413909 0 -1.63013230523808e-07 -0.021186806607650287 0 -0.00041271333506719994 -0.02360976277198789 0 -0.00018407976495274028 -0.021714933265210987 0 -0.00031387021110134317 -0.022860831008050791 0 -0.00097808598321263464 -0.022816599659413909 0 -0.00038466396471095461 -0.023844671761274448 0 -0.00031387021110134317 -0.022860831008050791 0 -0.00097808598321263464 -0.022816599659413909 0 -0.00038466396471095461 -0.023844671761274448 0 -0.00031387021110134317 -0.022860831008050791 0 -1.2170534127902417e-06 -0.023483598103438419 0 0.00071883382534347216 -0.023048476674293609 0 -1.2170534127902417e-06 -0.023483598103438419 0 0.00016758015639801215 -0.024279592575005341 0 -2.0206552109574462e-05 -0.022455607123816005 0 -0.00031387021110134317 -0.022860831008050791 0 -1.2170534127902417e-06 -0.023483598103438419 0 0.00071883382534347216 -0.023048476674293609 0 -2.0206552109574462e-05 -0.022455607123816005 0 -1.2170534127902417e-06 -0.023483598103438419 0 -1.2170534127902417e-06 -0.023483598103438419 0 0.00016758015639801215 -0.024279592575005341 0 -0.00021733605314135413 -0.024424318850689887 0 -0.00038466396471095461 -0.023844671761274448 0 -0.00021733605314135413 -0.024424318850689887 0 -0.00057102008997495922 -0.024726377104263182 0 -0.00021733605314135413 -0.024424318850689887 0 -0.00057102008997495922 -0.024726377104263182 0 -0.00041599534748929873 -0.024832834105751614 0 -0.00038466396471095461 -0.023844671761274448 0 -1.2170534127902417e-06 -0.023483598103438419 0 -0.00021733605314135413 -0.024424318850689887 0 -0.00057102008997495922 -0.024726377104263182 0 -0.00064323205292729719 -0.025231117059476147 0 -0.00097808598321263464 -0.022816599659413909 0 -0.00038466396471095461 -0.023844671761274448 0 -0.00057102008997495922 -0.024726377104263182 0 -0.00097808598321263464 -0.022816599659413909 0 -0.00064323205292729719 -0.025231117059476147 0 -0.00053381936777270318 -0.025868580951575605 0 -0.00058572270311652258 -0.025351579915742019 0 -0.00057102008997495922 -0.024726377104263182 0 -0.00064323205292729719 -0.025231117059476147 0 -0.00058572270311652258 -0.025351579915742019 0 -0.00061983238366354913 -0.025017466077639678 0 -0.00041271333506719994 -0.02360976277198789 0 1.9776715853462792e-06 -0.021189003292051537 0 0.0002009050931456546 -0.024374216351970176 0 -8.0021295766655211e-07 -0.023264423909132522 0 0.0002009050931456546 -0.024374216351970176 0 -8.0021295766655211e-07 -0.023264423909132522 0 -0.00027953133404271771 -0.024986706660630957 0 -0.00064323205292729719 -0.025231117059476147 0 0.0002009050931456546 -0.024374216351970176 0 -0.00027953133404271771 -0.024986706660630957 0 -0.0001569868107409458 -0.026681528140872612 0 -4.7495503927808077e-07 -0.025343013394106884 0 -0.00033207175202732569 -0.026316859147690417 0 -0.00027953133404271771 -0.024986706660630957 0 -4.7495503927808077e-07 -0.025343013394106884 0 -0.00033207175202732569 -0.026316859147690417 0 -8.0021295766655211e-07 -0.023264423909132522 0 -0.00027953133404271771 -0.024986706660630957 0 -4.7495503927808077e-07 -0.025343013394106884 0 -0.00064323205292729719 -0.025231117059476147 0 -0.00033207175202732569 -0.026316859147690417 0 -0.00053381936777270318 -0.025868580951575605 0 -0.00064323205292729719 -0.025231117059476147 0 -0.00027953133404271771 -0.024986706660630957 0 -0.00033207175202732569 -0.026316859147690417 0 -0.00033207175202732569 -0.026316859147690417 0 -0.00053381936777270318 -0.025868580951575605 0 -0.0003994256749364479 -0.026612245692675798 0 -0.00053381936777270318 -0.025868580951575605 0 -0.0003994256749364479 -0.026612245692675798 0 -0.00051205539625435678 -0.025994171808273691 0 -0.0003994256749364479 -0.026612245692675798 0 -0.00051205539625435678 -0.025994171808273691 0 -0.00043157026950996484 -0.026293386363008913 0 -0.00053381936777270318 -0.025868580951575605 0 -0.00051205539625435678 -0.025994171808273691 0 -0.00058572270311652258 -0.025351579915742019 0 -0.00051205539625435678 -0.025994171808273691 0 -0.00053105390783057664 -0.025643222318902391 0 -0.00058572270311652258 -0.025351579915742019 0 -0.00053105390783057664 -0.025643222318902391 0 -0.00045656462635359818 -0.02582526990187595 0 -0.00049595165730477464 -0.02549529639572189 0 -0.00051205539625435678 -0.025994171808273691 0 -0.00053105390783057664 -0.025643222318902391 0 -0.00045656462635359818 -0.02582526990187595 0 -0.00051205539625435678 -0.025994171808273691 0 -0.00043157026950996484 -0.026293386363008913 0 -0.00045656462635359818 -0.02582526990187595 0 -0.00043157026950996484 -0.026293386363008913 0 -0.00040834478296323493 -0.026054784816414947 0 -0.00045656462635359818 -0.02582526990187595 0 -0.00040834478296323493 -0.026054784816414947 0 -0.00029920489665808742 -0.025866896190193042 0 -0.00045656462635359818 -0.02582526990187595 0 -0.00051479372722252671 -0.02622591145789635 0 -0.00029920489665808742 -0.025866896190193042 0 -0.00043991173617587994 -0.026039857441509408 0 -0.00040834478296323493 -0.026054784816414947 0 -0.00029920489665808742 -0.025866896190193042 0 -0.00043991173617587994 -0.026039857441509408 0 -0.00029920489665808742 -0.025866896190193042 0 -0.00028610732492696084 -0.026389336779184147 0 0.00022551201124538985 -0.026618138996858231 0 -0.00051479372722252671 -0.02622591145789635 0 -0.00029920489665808742 -0.025866896190193042 0 -0.00028610732492696084 -0.026389336779184147 0 -0.00051479372722252671 -0.02622591145789635 0 -0.00028610732492696084 -0.026389336779184147 0 -0.00070537075807807197 -0.026892884626885452 0 -0.00044667142388534289 -0.025288927887529143 0 -0.00013205043021792954 -0.027685259287361656 0 -0.00029920489665808742 -0.025866896190193042 0 -0.00042584169946285059 -0.025558728404473884 0 -0.00035905051300293665 -0.025270986229708369 0 -0.00042584169946285059 -0.025558728404473884 0 -0.00049595165730477464 -0.02549529639572189 0 -0.00049378494941114946 -0.025232985590413072 0 -0.00033314477345122663 -0.025519748485695552 0 -0.00013205043021792954 -0.027685259287361656 0 -0.00042584169946285059 -0.025558728404473884 0 -0.00049378494941114946 -0.025232985590413072 0 -0.00035905051300293665 -0.025270986229708369 0 -0.00029920489665808742 -0.025866896190193042 0 -0.00042584169946285059 -0.025558728404473884 0 -0.00045656462635359818 -0.02582526990187595 0 -0.00042584169946285059 -0.025558728404473884 0 -0.00045656462635359818 -0.02582526990187595 0 -0.00049595165730477464 -0.02549529639572189 0 -0.00049595165730477464 -0.02549529639572189 0 -0.00049697798242113577 -0.025218081921906787 0 -0.00052129982759175101 -0.025371811581056936 0 -0.00049595165730477464 -0.02549529639572189 0 -0.00049378494941114946 -0.025232985590413072 0 -0.00049697798242113577 -0.025218081921906787 0 -0.00049378494941114946 -0.025232985590413072 0 -0.00048494791581048057 -0.025111738049649859 0 -0.00049697798242113577 -0.025218081921906787 0 -0.00048494791581048057 -0.025111738049649859 0 -0.00049697798242113577 -0.025218081921906787 0 -0.00041043459550196929 -0.024967984290940916 0 -0.00048494791581048057 -0.025111738049649859 0 -0.00041043459550196929 -0.024967984290940916 0 -0.00043804221212447107 -0.024968673692663517 0 -0.00049697798242113577 -0.025218081921906787 0 -0.00044206911094748591 -0.025068545266654248 0 -0.00041043459550196929 -0.024967984290940916 0 -0.00049697798242113577 -0.025218081921906787 0 -0.00044206911094748591 -0.025068545266654248 0 -0.00052129982759175101 -0.025371811581056936 0 -0.00044206911094748591 -0.025068545266654248 0 -0.00052129982759175101 -0.025371811581056936 0 -0.00058572270311652258 -0.025351579915742019 0 -0.00053105390783057664 -0.025643222318902391 0 -0.00052129982759175101 -0.025371811581056936 0 -0.00058572270311652258 -0.025351579915742019 0 -0.00053105390783057664 -0.025643222318902391 0 -0.00049595165730477464 -0.02549529639572189 0 -0.00052129982759175101 -0.025371811581056936 0 -0.00057102008997495922 -0.024726377104263182 0 -0.00058572270311652258 -0.025351579915742019 0 -0.00041599534748929873 -0.024832834105751614 0 -0.00044206911094748591 -0.025068545266654248 0 -0.00058572270311652258 -0.025351579915742019 0 -0.00041599534748929873 -0.024832834105751614 0 -0.00021733605314135413 -0.024424318850689887 0 -0.00041599534748929873 -0.024832834105751614 0 -0.00012701472165183844 -0.024631063721609489 0 -0.00041599534748929873 -0.024832834105751614 0 -0.00012701472165183844 -0.024631063721609489 0 -0.00030612385885671556 -0.024837717847714637 0 0.00016758015639801215 -0.024279592575005341 0 -0.00021733605314135413 -0.024424318850689887 0 -0.00012701472165183844 -0.024631063721609489 0 0.00016758015639801215 -0.024279592575005341 0 -0.00012701472165183844 -0.024631063721609489 0 3.3938241022889702e-05 -0.024477396891684745 0 -0.00012701472165183844 -0.024631063721609489 0 -6.0768237072144391e-05 -0.024510917394333098 0 3.3938241022889702e-05 -0.024477396891684745 0 -0.00012701472165183844 -0.024631063721609489 0 -0.00018864811951282791 -0.024687751664631205 0 -0.00030612385885671556 -0.024837717847714637 0 -0.00012701472165183844 -0.024631063721609489 0 -0.00018864811951282791 -0.024687751664631205 0 -6.0768237072144391e-05 -0.024510917394333098 0 -0.00018864811951282791 -0.024687751664631205 0 -0.00017156916762029335 -0.024574823429916296 0 -6.0768237072144391e-05 -0.024510917394333098 0 -0.00044206911094748591 -0.025068545266654248 0 -0.00030612385885671556 -0.024837717847714637 0 -0.00030357948284552572 -0.024818751022235224 0 -0.00018864811951282791 -0.024687751664631205 0 -0.00030612385885671556 -0.024837717847714637 0 -0.00030357948284552572 -0.024818751022235224 0 -0.00044206911094748591 -0.025068545266654248 0 -0.00041599534748929873 -0.024832834105751614 0 -0.00030612385885671556 -0.024837717847714637 0 -0.00044206911094748591 -0.025068545266654248 0 -0.00030357948284552572 -0.024818751022235224 0 -0.00041043459550196929 -0.024967984290940916 0 -0.00030357948284552572 -0.024818751022235224 0 -0.00041043459550196929 -0.024967984290940916 0 -0.00029953883440672402 -0.024722001811533452 0 -0.00043804221212447107 -0.024968673692663517 0 -0.00029953883440672402 -0.024722001811533452 0 -0.00035644573696278257 -0.024867307377236192 0 -0.00041043459550196929 -0.024967984290940916 0 -0.00043804221212447107 -0.024968673692663517 0 -0.00029953883440672402 -0.024722001811533452 0 -0.00029953883440672402 -0.024722001811533452 0 -0.00015975317575868571 -0.02440338223146751 0 -0.00020973539310583251 -0.024505592991685608 0 -0.00029953883440672402 -0.024722001811533452 0 -0.00020973539310583251 -0.024505592991685608 0 -0.00035644573696278257 -0.024867307377236192 0 -0.00029953883440672402 -0.024722001811533452 0 -0.00017156916762029335 -0.024574823429916296 0 -0.00015975317575868571 -0.02440338223146751 0 -0.00030357948284552572 -0.024818751022235224 0 -0.00029953883440672402 -0.024722001811533452 0 -0.00017156916762029335 -0.024574823429916296 0 -0.00018864811951282791 -0.024687751664631205 0 -0.00030357948284552572 -0.024818751022235224 0 -0.00017156916762029335 -0.024574823429916296 0 -0.00017156916762029335 -0.024574823429916296 0 -0.00010154284977191829 -0.024351638625703255 0 -6.0768237072144391e-05 -0.024510917394333098 0 -0.00010154284977191829 -0.024351638625703255 0 -0.00012192359306673666 -0.024234694770405983 0 -0.00015975317575868571 -0.02440338223146751 0 -0.00010154284977191829 -0.024351638625703255 0 -0.00012192359306673666 -0.024234694770405983 0 -0.0001140540736075067 -0.024062804961962628 0 -0.00017156916762029335 -0.024574823429916296 0 -0.00010154284977191829 -0.024351638625703255 0 -0.00015975317575868571 -0.02440338223146751 0 -0.00020973539310583251 -0.024505592991685608 0 -0.00012303498788697708 -0.024132385840079051 0 -5.5799410327284017e-05 -0.024166644068242635 0 -0.00012192359306673666 -0.024234694770405983 0 -0.00015975317575868571 -0.02440338223146751 0 -0.00012303498788697708 -0.024132385840079051 0 -0.00015975317575868571 -0.02440338223146751 0 -0.00020973539310583251 -0.024505592991685608 0 -0.00012303498788697708 -0.024132385840079051 0 -9.4426105921000154e-05 -0.02364076166111535 0 -0.0001140540736075067 -0.024062804961962628 0 -0.00045538547741721307 -0.023578140264898576 0 -9.4426105921000154e-05 -0.02364076166111535 0 0.00040827584631822854 -0.022673387697478571 0 -9.4458494406415055e-05 -0.022879494488866819 0 -9.4426105921000154e-05 -0.02364076166111535 0 -0.00012303498788697708 -0.024132385840079051 0 -5.5799410327284017e-05 -0.024166644068242635 0 0.00029050359188108262 -0.023726382384534887 0 0.00065558615734264151 -0.024253965525554068 0 -0.00012192359306673666 -0.024234694770405983 0 -0.00012303498788697708 -0.024132385840079051 0 -0.0001140540736075067 -0.024062804961962628 0 -9.4426105921000154e-05 -0.02364076166111535 0 -0.00012303498788697708 -0.024132385840079051 0 -0.0001140540736075067 -0.024062804961962628 0 -0.0001140540736075067 -0.024062804961962628 0 -9.2746982302253667e-05 -0.024336662099469268 0 -0.00027661429947042589 -0.024197099593672108 0 -0.00010154284977191829 -0.024351638625703255 0 -0.0001140540736075067 -0.024062804961962628 0 -9.2746982302253667e-05 -0.024336662099469268 0 -9.2746982302253667e-05 -0.024336662099469268 0 -5.4073550675039363e-05 -0.024424721394567035 0 -0.00027661429947042589 -0.024197099593672108 0 -0.00010154284977191829 -0.024351638625703255 0 -9.2746982302253667e-05 -0.024336662099469268 0 -6.0768237072144391e-05 -0.024510917394333098 0 -9.2746982302253667e-05 -0.024336662099469268 0 -6.0768237072144391e-05 -0.024510917394333098 0 -5.4073550675039363e-05 -0.024424721394567035 0 -6.0768237072144391e-05 -0.024510917394333098 0 3.3938241022889702e-05 -0.024477396891684745 0 -5.4073550675039363e-05 -0.024424721394567035 0 1.7022662228382666e-05 -0.024486960311947938 0 0.00016758015639801215 -0.024279592575005341 0 3.3938241022889702e-05 -0.024477396891684745 0 1.7022662228382666e-05 -0.024486960311947938 0 3.3938241022889702e-05 -0.024477396891684745 0 -5.4073550675039363e-05 -0.024424721394567035 0 0.00084504293458646741 -0.024441797599766134 0 5.2014690898342057e-05 -0.02197585788240539 0 1.7022662228382666e-05 -0.024486960311947938 0 -0.0001548990276905432 -0.024518375420133486 0 -5.4073550675039363e-05 -0.024424721394567035 0 -0.0001548990276905432 -0.024518375420133486 0 -5.4073550675039363e-05 -0.024424721394567035 0 -0.00027661429947042589 -0.024197099593672108 0 5.2014690898342057e-05 -0.02197585788240539 0 -0.00024726358475700731 -0.025305716601227612 0 -0.0030138937202630403 -0.02262983559163859 0 -0.0031984355250575052 -0.022645962922693174 0 -0.0028845346372767763 -0.022372669675853475 0 -0.0015453469488252544 -0.031587655109063251 0 -0.0015284544410071462 -0.031615166449711178 0 -0.0015802387422758357 -0.031539440964580612 0 -0.0025686578405216217 -0.02400920237112179 0 -0.0013413189203532151 -0.023435477743396577 0 -0.0018839037143523999 -0.025442737991026285 0 -0.0018917015965787777 -0.025404819901564308 0 -0.001641546031757138 -0.025481746309031657 0 -0.0015453469488252544 -0.031587655109063251 0 -0.0015146272983376458 -0.031587185919228801 0 -0.0015284544410071462 -0.031615166449711178 0 -0.0016843540329229449 -0.028680736196804973 0 -0.0010604163505771791 -0.027397216398502986 0 -0.0018917015965787777 -0.025404819901564308 0 -0.0014769217446200407 -0.025497507378598534 0 -0.001641546031757138 -0.025481746309031657 0 -0.0015146272983376458 -0.031587185919228801 0 -0.0015115810435324436 -0.031603567975062474 0 -0.0015284544410071462 -0.031615166449711178 0 -0.0015146272983376458 -0.031587185919228801 0 -0.0015144215995722579 -0.031583142486145202 0 -0.0015115810435324436 -0.031603567975062474 0 -0.0010604163505771791 -0.027397216398502986 0 -0.0013413189203532151 -0.023435477743396577 0 -0.0010604163505771791 -0.027397216398502986 0 -0.00089395593797034234 -0.02885450831741565 0 0.00030080854952853261 -0.021593202258033486 0 0.00013880328963960728 -0.021561557582453227 0 0.00018390522921618411 -0.021991352374437931 0 0.00030080854952853261 -0.021593202258033486 0 0.00018390522921618411 -0.021991352374437931 0 0.00034354058605688426 -0.021599122521194326 0 0.0011289291757309774 -0.023575067688324545 0 -0.00089395593797034234 -0.02885450831741565 0 0.0012832363350579387 -0.026863691761382525 0 -5.1077930386942556e-05 -0.027247403110950127 0 0.00049192606371721939 -0.02838569640660479 0 -0.0013413189203532151 -0.023435477743396577 0 -0.0016397334194303095 -0.021845823688066101 0 0.00013880328963960728 -0.021561557582453227 0 0.00018390522921618411 -0.021991352374437931 0 -0.00041042398198491188 -0.021751762941296635 0 -0.0002606149291260131 -0.022053062721892513 0 0.00018390522921618411 -0.021991352374437931 0 -0.00041042398198491188 -0.021751762941296635 0 -0.0002606149291260131 -0.022053062721892513 0 0.00018390522921618411 -0.021991352374437931 0 -0.00023134446993287403 -0.022422148928946953 0 1.7766341121631795e-05 -0.022750648039276334 0 0.00018390522921618411 -0.021991352374437931 0 -0.00023134446993287403 -0.022422148928946953 0 0.00065558615734264151 -0.024253965525554068 0 0.0011289291757309774 -0.023575067688324545 0 1.7766341121631795e-05 -0.022750648039276334 0 -9.4458494406415055e-05 -0.022879494488866819 0 -0.00023134446993287403 -0.022422148928946953 0 0.00065558615734264151 -0.024253965525554068 0 0.00047919159094002241 -0.023940069554522502 0 0.0020451186559308858 -0.025365775725078681 0 0.0012832363350579387 -0.026863691761382525 0 0.00053996147900949986 -0.026026204759147274 0 -0.00020973539310583251 -0.024505592991685608 0 -5.5799410327284017e-05 -0.024166644068242635 0 -0.00022511804902571866 -0.024777673330528154 0 0.00065558615734264151 -0.024253965525554068 0 0.00016391830831729437 -0.025524334475212268 0 0.0012832363350579387 -0.026863691761382525 0 0.00053996147900949986 -0.026026204759147274 0 -5.1077930386942556e-05 -0.027247403110950127 0 0.00016391830831729437 -0.025524334475212268 0 -0.00064729984856997064 -0.025406639228301522 0 0.00053996147900949986 -0.026026204759147274 0 -0.00095319676944672835 -0.026698428804638404 0 -5.1077930386942556e-05 -0.027247403110950127 0 -0.00020973539310583251 -0.024505592991685608 0 -0.00022511804902571866 -0.024777673330528154 0 -0.00035644573696278257 -0.024867307377236192 0 -0.00022511804902571866 -0.024777673330528154 0 -0.00035644573696278257 -0.024867307377236192 0 -0.00042724279790341764 -0.025061523525344367 0 -0.00043804221212447107 -0.024968673692663517 0 -0.00035644573696278257 -0.024867307377236192 0 -0.00042724279790341764 -0.025061523525344367 0 -5.1077930386942556e-05 -0.027247403110950127 0 -0.0007600928443636147 -0.028202969494020846 0 -0.0013046597108782843 -0.027521506029032493 0 -0.00095319676944672835 -0.026698428804638404 0 -5.1077930386942556e-05 -0.027247403110950127 0 -0.0013046597108782843 -0.027521506029032493 0 -5.1077930386942556e-05 -0.027247403110950127 0 0.00049192606371721939 -0.02838569640660479 0 -0.0007600928443636147 -0.028202969494020846 0 -0.00089395593797034234 -0.02885450831741565 0 -0.0020357791849577073 -0.033499408739340431 0 -0.0019448544917445526 -0.03419814545785279 0 -0.0017606125417097603 -0.034125251304835479 0 -0.001695519598353426 -0.034307907134712344 0 -0.0019448544917445526 -0.03419814545785279 0 -0.0017606125417097603 -0.034125251304835479 0 -0.0019047921344428091 -0.03397204618007138 0 -0.0019448544917445526 -0.03419814545785279 0 -0.0020114913066918579 -0.034180494348012236 0 -0.001695519598353426 -0.034307907134712344 0 -0.0019448544917445526 -0.03419814545785279 0 -0.001998045101851486 -0.034190447153170593 0 -0.0019047921344428091 -0.03397204618007138 0 -0.00089395593797034234 -0.02885450831741565 0 -0.0011642482251130698 -0.031334632937665523 0 -0.0014594027003010553 -0.029805934709679342 0 -0.00089395593797034234 -0.02885450831741565 0 -0.0017606125417097603 -0.034125251304835479 0 -0.0014986961668313631 -0.034212392567222819 0 -0.0014511199949801179 -0.034029209422737725 0 -0.0017606125417097603 -0.034125251304835479 0 -0.001695519598353426 -0.034307907134712344 0 -0.0014986961668313631 -0.034212392567222819 0 -0.001695519598353426 -0.034307907134712344 0 -0.0014986961668313631 -0.034212392567222819 0 -0.0013198585210200749 -0.034396140305997941 0 -0.0011642482251130698 -0.031334632937665523 0 -0.0016641471004747519 -0.032270650475404894 0 -0.0014986961668313631 -0.034212392567222819 0 -0.0012766970785153483 -0.034200235933058085 0 -0.0013198585210200749 -0.034396140305997941 0 -0.0014986961668313631 -0.034212392567222819 0 -0.0012766970785153483 -0.034200235933058085 0 -0.0014511199949801179 -0.034029209422737725 0 -0.0011446268732281291 -0.034334044479788307 0 -0.0013198585210200749 -0.034396140305997941 0 -0.00093041836211449217 -0.034487524262430624 0 -0.0012766970785153483 -0.034200235933058085 0 -0.0010590686536698282 -0.034244328045589495 0 -0.0011446268732281291 -0.034334044479788307 0 -0.0012766970785153483 -0.034200235933058085 0 -0.0011446268732281291 -0.034334044479788307 0 -0.0013198585210200749 -0.034396140305997941 0 -0.0016641471004747519 -0.032270650475404894 0 -0.00070317442264899391 -0.034465264494741098 0 -0.0011481470308454421 -0.029612466395562968 0 -0.0016641471004747519 -0.032270650475404894 0 -0.00089652448986215941 -0.033960701536177959 0 -0.0010486469482812266 -0.03382235003256856 0 -0.00073074116330193017 -0.033937907926252717 0 -0.00089652448986215941 -0.033960701536177959 0 -0.00096482692839227095 -0.033977665423838462 0 -0.0010486469482812266 -0.03382235003256856 0 -0.0016783104021143129 -0.031115568832587332 0 -0.0011481470308454421 -0.029612466395562968 0 -0.0007600928443636147 -0.028202969494020846 0 -0.0013046597108782843 -0.027521506029032493 0 -0.0020036962750389379 -0.028055827220521422 0 -0.0024208137283460015 -0.0273648715787949 0 -0.0013046597108782843 -0.027521506029032493 0 -0.0020036962750389379 -0.028055827220521422 0 -0.00095319676944672835 -0.026698428804638404 0 -0.0024208137283460015 -0.0273648715787949 0 -0.0013046597108782843 -0.027521506029032493 0 -0.00042724279790341764 -0.025061523525344367 0 -0.00048992490824597721 -0.025159966583588683 0 -0.00049169813549545605 -0.025098728972865088 0 -0.00064729984856997064 -0.025406639228301522 0 -0.0011481470308454421 -0.029612466395562968 0 -0.00043804221212447107 -0.024968673692663517 0 -0.00042724279790341764 -0.025061523525344367 0 -0.00049169813549545605 -0.025098728972865088 0 -0.00048494791581048057 -0.025111738049649859 0 -0.00043804221212447107 -0.024968673692663517 0 -0.00049169813549545605 -0.025098728972865088 0 -0.00049378494941114946 -0.025232985590413072 0 -0.00049169813549545605 -0.025098728972865088 0 -0.00047481875034721682 -0.02513749018664832 0 -0.00049378494941114946 -0.025232985590413072 0 -0.00048494791581048057 -0.025111738049649859 0 -0.00049169813549545605 -0.025098728972865088 0 -0.0011481470308454421 -0.029612466395562968 0 -0.00052649248749687939 -0.02995201583427673 0 -0.00089652448986215941 -0.033960701536177959 0 -0.00082209116072932671 -0.034153467653801416 0 -0.00076828803697693996 -0.034058248631493718 0 -0.00089652448986215941 -0.033960701536177959 0 -0.00095262865833892587 -0.033972734899559723 0 -0.00082209116072932671 -0.034153467653801416 0 -0.00048992490824597721 -0.025159966583588683 0 -0.00049169813549545605 -0.025098728972865088 0 -0.00047481875034721682 -0.02513749018664832 0 -0.00082209116072932671 -0.034153467653801416 0 -0.00076828803697693996 -0.034058248631493718 0 -0.00062743761996438691 -0.034156776098398456 0 -0.00049378494941114946 -0.025232985590413072 0 -0.00047481875034721682 -0.02513749018664832 0 -0.00041374174377111964 -0.025236993656617499 0 -0.00052649248749687939 -0.02995201583427673 0 -0.00013205043021792954 -0.027685259287361656 0 -0.00082209116072932671 -0.034153467653801416 0 -0.00071879276695956487 -0.034279830205793525 0 -0.00062743761996438691 -0.034156776098398456 0 -0.00028610732492696084 -0.026389336779184147 0 0.00022551201124538985 -0.026618138996858231 0 -0.00070537075807807197 -0.026892884626885452 0 -0.00013205043021792954 -0.027685259287361656 0 -0.00068333921333380801 -0.030973481306432463 0 -0.00071879276695956487 -0.034279830205793525 0 -0.00062743761996438691 -0.034156776098398456 0 -0.0004963287226905015 -0.034296823150354129 0 -0.00093041836211449217 -0.034487524262430624 0 -0.00074650803429372053 -0.034383266162012455 0 -0.00064536937743990476 -0.034580441952718491 0 -0.00062743761996438691 -0.034156776098398456 0 -0.00073074116330193017 -0.033937907926252717 0 -0.00049386656149331693 -0.034077448523731985 0 -0.00070317442264899391 -0.034465264494741098 0 -0.00060567875660327559 -0.034294541724876983 0 -0.00076828803697693996 -0.034058248631493718 0 -0.00062743761996438691 -0.034156776098398456 0 -0.00073074116330193017 -0.033937907926252717 0 -0.00089652448986215941 -0.033960701536177959 0 -0.00076828803697693996 -0.034058248631493718 0 -0.00073074116330193017 -0.033937907926252717 0 -0.0010590686536698282 -0.034244328045589495 0 -0.00093041836211449217 -0.034487524262430624 0 -0.0008896882068957331 -0.034277791132141293 0 -0.0010590686536698282 -0.034244328045589495 0 -0.0011446268732281291 -0.034334044479788307 0 -0.00093041836211449217 -0.034487524262430624 0 -0.00093041836211449217 -0.034487524262430624 0 -0.0008896882068957331 -0.034277791132141293 0 -0.00074650803429372053 -0.034383266162012455 0 -0.0008896882068957331 -0.034277791132141293 0 -0.00074650803429372053 -0.034383266162012455 0 -0.00079677912052704262 -0.034192143354912913 0 -0.00074650803429372053 -0.034383266162012455 0 -0.00079677912052704262 -0.034192143354912913 0 -0.00061399856964623289 -0.034357464180364401 0 -0.0008896882068957331 -0.034277791132141293 0 -0.00079677912052704262 -0.034192143354912913 0 -0.0009698795625760774 -0.034078319441692692 0 -0.0010590686536698282 -0.034244328045589495 0 -0.0008896882068957331 -0.034277791132141293 0 -0.0009698795625760774 -0.034078319441692692 0 -0.00079677912052704262 -0.034192143354912913 0 -0.0009698795625760774 -0.034078319441692692 0 -0.00093892379320145692 -0.033862320471173622 0 -0.0009698795625760774 -0.034078319441692692 0 -0.00093892379320145692 -0.033862320471173622 0 -0.0011048593440982758 -0.033856180201745086 0 -0.00079677912052704262 -0.034192143354912913 0 -0.00093892379320145692 -0.033862320471173622 0 -0.00068727077729819936 -0.034168644696605563 0 -0.00093892379320145692 -0.033862320471173622 0 -0.00079450345637393919 -0.03396974958954211 0 -0.00068727077729819936 -0.034168644696605563 0 -0.00093892379320145692 -0.033862320471173622 0 -0.00079450345637393919 -0.03396974958954211 0 -0.00097566087508944865 -0.033737985954918628 0 -0.00079450345637393919 -0.03396974958954211 0 -0.00096638199636581894 -0.033758280812146817 0 -0.00097566087508944865 -0.033737985954918628 0 -0.00079450345637393919 -0.03396974958954211 0 -0.00096638199636581894 -0.033758280812146817 0 -0.00082844141366969178 -0.033903307897054626 0 -0.00096638199636581894 -0.033758280812146817 0 -0.0011223697320391615 -0.03354402501370711 0 -0.00097566087508944865 -0.033737985954918628 0 -0.0011223697320391615 -0.03354402501370711 0 -0.00097566087508944865 -0.033737985954918628 0 -0.0010983942024805431 -0.033538165616592362 0 -0.00093892379320145692 -0.033862320471173622 0 -0.00097566087508944865 -0.033737985954918628 0 -0.0010983942024805431 -0.033538165616592362 0 -0.00093892379320145692 -0.033862320471173622 0 -0.0010901796717651267 -0.033651611212175941 0 -0.0010983942024805431 -0.033538165616592362 0 -0.0010901796717651267 -0.033651611212175941 0 -0.0011895042829042682 -0.033356516629158783 0 -0.0012099973964857578 -0.033564745900620495 0 -0.0010901796717651267 -0.033651611212175941 0 -0.0011895042829042682 -0.033356516629158783 0 -0.0010983942024805431 -0.033538165616592362 0 -0.0011223697320391615 -0.03354402501370711 0 -0.0010983942024805431 -0.033538165616592362 0 -0.0011923868690166609 -0.033354377533684899 0 -0.0011895042829042682 -0.033356516629158783 0 -0.0010983942024805431 -0.033538165616592362 0 -0.0011923868690166609 -0.033354377533684899 0 -0.0011895042829042682 -0.033356516629158783 0 -0.0011923868690166609 -0.033354377533684899 0 -0.0012457351919656092 -0.033161981449251657 0 -0.0011923868690166609 -0.033354377533684899 0 -0.0012351975323835103 -0.033274947494457002 0 -0.0012060102849103288 -0.03341130016894537 0 -0.0011223697320391615 -0.03354402501370711 0 -0.0011923868690166609 -0.033354377533684899 0 -0.0012060102849103288 -0.03341130016894537 0 -0.0012631515800656519 -0.033115337646129069 0 -0.0012380874581816824 -0.033108439693084434 0 -0.0012313830908806936 -0.03331618757537496 0 -0.0012380874581816824 -0.033108439693084434 0 -0.0012548896013971202 -0.032927930005482269 0 -0.0011751997534119485 -0.033239854478293897 0 -0.0012631515800656519 -0.033115337646129069 0 -0.0012380874581816824 -0.033108439693084434 0 -0.0012548896013971202 -0.032927930005482269 0 -0.0012631515800656519 -0.033115337646129069 0 -0.0012351975323835103 -0.033274947494457002 0 -0.0012457351919656092 -0.033161981449251657 0 -0.0012631515800656519 -0.033115337646129069 0 -0.0012351975323835103 -0.033274947494457002 0 -0.0012313830908806936 -0.03331618757537496 0 -0.0011923868690166609 -0.033354377533684899 0 -0.0012351975323835103 -0.033274947494457002 0 -0.0012457351919656092 -0.033161981449251657 0 -0.0012631515800656519 -0.033115337646129069 0 -0.0012457351919656092 -0.033161981449251657 0 -0.0013174050182531854 -0.032921185728251104 0 -0.0013174050182531854 -0.032921185728251104 0 -0.0013338927197233152 -0.032750915226474657 0 -0.0012548896013971202 -0.032927930005482269 0 -0.0012631515800656519 -0.033115337646129069 0 -0.0013174050182531854 -0.032921185728251104 0 -0.0012548896013971202 -0.032927930005482269 0 -0.0013174050182531854 -0.032921185728251104 0 -0.0014636492462289487 -0.032721618880957988 0 -0.0013338927197233152 -0.032750915226474657 0 -0.00128370434102449 -0.033168071162268414 0 -0.0014703793662595606 -0.033246000305818604 0 -0.0014636492462289487 -0.032721618880957988 0 -0.0012457351919656092 -0.033161981449251657 0 -0.0013174050182531854 -0.032921185728251104 0 -0.00128370434102449 -0.033168071162268414 0 -0.0013174050182531854 -0.032921185728251104 0 -0.00128370434102449 -0.033168071162268414 0 -0.0014636492462289487 -0.032721618880957988 0 -0.0011895042829042682 -0.033356516629158783 0 -0.0012457351919656092 -0.033161981449251657 0 -0.00128370434102449 -0.033168071162268414 0 -0.0011895042829042682 -0.033356516629158783 0 -0.00128370434102449 -0.033168071162268414 0 -0.0012099973964857578 -0.033564745900620495 0 -0.00128370434102449 -0.033168071162268414 0 -0.0014156025066190819 -0.033526882728234807 0 -0.0012099973964857578 -0.033564745900620495 0 -0.00128370434102449 -0.033168071162268414 0 -0.0014156025066190819 -0.033526882728234807 0 -0.0014703793662595606 -0.033246000305818604 0 -0.0014156025066190819 -0.033526882728234807 0 -0.0013143089749907877 -0.033819909347451299 0 -0.001672305669144474 -0.033889689112367331 0 -0.0014156025066190819 -0.033526882728234807 0 -0.0013143089749907877 -0.033819909347451299 0 -0.0012099973964857578 -0.033564745900620495 0 -0.0010901796717651267 -0.033651611212175941 0 -0.0012099973964857578 -0.033564745900620495 0 -0.0011048593440982758 -0.033856180201745086 0 -0.00093892379320145692 -0.033862320471173622 0 -0.0010901796717651267 -0.033651611212175941 0 -0.0011048593440982758 -0.033856180201745086 0 -0.0013143089749907877 -0.033819909347451299 0 -0.0012099973964857578 -0.033564745900620495 0 -0.0011048593440982758 -0.033856180201745086 0 -0.0009698795625760774 -0.034078319441692692 0 -0.0011048593440982758 -0.033856180201745086 0 -0.0011717957564438422 -0.034043625160393852 0 -0.0010590686536698282 -0.034244328045589495 0 -0.0009698795625760774 -0.034078319441692692 0 -0.0011717957564438422 -0.034043625160393852 0 -0.0013143089749907877 -0.033819909347451299 0 -0.0011048593440982758 -0.033856180201745086 0 -0.0011717957564438422 -0.034043625160393852 0 -0.0012766970785153483 -0.034200235933058085 0 -0.0010590686536698282 -0.034244328045589495 0 -0.0011717957564438422 -0.034043625160393852 0 -0.0013143089749907877 -0.033819909347451299 0 -0.0011717957564438422 -0.034043625160393852 0 -0.0014511199949801179 -0.034029209422737725 0 -0.0012766970785153483 -0.034200235933058085 0 -0.0011717957564438422 -0.034043625160393852 0 -0.0014511199949801179 -0.034029209422737725 0 -0.0013143089749907877 -0.033819909347451299 0 -0.0014511199949801179 -0.034029209422737725 0 -0.001672305669144474 -0.033889689112367331 0 -0.0017606125417097603 -0.034125251304835479 0 -0.0014511199949801179 -0.034029209422737725 0 -0.001672305669144474 -0.033889689112367331 0 -0.0017606125417097603 -0.034125251304835479 0 -0.001672305669144474 -0.033889689112367331 0 -0.0019047921344428091 -0.03397204618007138 0 -0.0015144215995722579 -0.031583142486145202 0 -0.0015393265103210915 -0.031623748220183032 0 -0.0015115810435324436 -0.031603567975062474 0 -0.0015393265103210915 -0.031623748220183032 0 -0.001490576307211063 -0.031666229886081768 0 -0.0015115810435324436 -0.031603567975062474 0 -0.001490576307211063 -0.031666229886081768 0 -0.001476724516845752 -0.031870114244136813 0 -0.0015383339763406134 -0.031649593417641557 0 -0.001490576307211063 -0.031666229886081768 0 -0.0015795721698344406 -0.031805987814885035 0 -0.001476724516845752 -0.031870114244136813 0 -0.0015393265103210915 -0.031623748220183032 0 -0.001490576307211063 -0.031666229886081768 0 -0.0015795721698344406 -0.031805987814885035 0 -0.0020357791849577073 -0.033499408739340431 0 -0.0015898439080385676 -0.032561822215312439 0 -0.001672305669144474 -0.033889689112367331 0 -0.0019047921344428091 -0.03397204618007138 0 -0.0018283669733408507 -0.033605305227276956 0 -0.0014156025066190819 -0.033526882728234807 0 -0.001672305669144474 -0.033889689112367331 0 -0.0018283669733408507 -0.033605305227276956 0 -0.0014156025066190819 -0.033526882728234807 0 -0.0018283669733408507 -0.033605305227276956 0 -0.0014703793662595606 -0.033246000305818604 0 -0.0015898439080385676 -0.032561822215312439 0 -0.0015297981751234424 -0.032712691810293619 0 -0.0018283669733408507 -0.033605305227276956 0 -0.0014703793662595606 -0.033246000305818604 0 -0.0014636492462289487 -0.032721618880957988 0 -0.0015795721698344406 -0.031805987814885035 0 -0.0014493003293852657 -0.032224743053716039 0 -0.0014636492462289487 -0.032721618880957988 0 -0.0015795721698344406 -0.031805987814885035 0 -0.0014493003293852657 -0.032224743053716039 0 -0.001476724516845752 -0.031870114244136813 0 -0.0014493003293852657 -0.032224743053716039 0 -0.0013985160981001368 -0.032462673423422933 0 -0.0014298309856250768 -0.032300751505603673 0 -0.0014493003293852657 -0.032224743053716039 0 -0.0014298309856250768 -0.032300751505603673 0 -0.0015007709314247978 -0.031986902225123959 0 -0.0014493003293852657 -0.032224743053716039 0 -0.0013985160981001368 -0.032462673423422933 0 -0.0014636492462289487 -0.032721618880957988 0 -0.0013985160981001368 -0.032462673423422933 0 -0.0014636492462289487 -0.032721618880957988 0 -0.0012807146243308965 -0.032527092366344726 0 -0.0014636492462289487 -0.032721618880957988 0 -0.0013338927197233152 -0.032750915226474657 0 -0.0012807146243308965 -0.032527092366344726 0 -0.0012807146243308965 -0.032527092366344726 0 -0.0012548896013971202 -0.032927930005482269 0 -0.00099386477278526125 -0.033598240571295034 0 -0.0012807146243308965 -0.032527092366344726 0 -0.0013494781876809065 -0.032109832476808653 0 -0.00097205248319021901 -0.031446034967899487 0 -0.0011663842230504543 -0.032551059720652968 0 -0.0012742186525962797 -0.032533900094658737 0 -0.0013338927197233152 -0.032750915226474657 0 -0.0012807146243308965 -0.032527092366344726 0 -0.0012548896013971202 -0.032927930005482269 0 -0.0013985160981001368 -0.032462673423422933 0 -0.0012807146243308965 -0.032527092366344726 0 -0.0014298309856250768 -0.032300751505603673 0 -0.0012807146243308965 -0.032527092366344726 0 -0.0014298309856250768 -0.032300751505603673 0 -0.0013494781876809065 -0.032109832476808653 0 -0.0014298309856250768 -0.032300751505603673 0 -0.0013494781876809065 -0.032109832476808653 0 -0.0014739881403182994 -0.032064612143758699 0 -0.0014023345756867841 -0.031872686054756766 0 -0.0013494781876809065 -0.032109832476808653 0 -0.0014739881403182994 -0.032064612143758699 0 -0.0015550266257159922 -0.031816231720687704 0 -0.0015007709314247978 -0.031986902225123959 0 -0.0016393715050148916 -0.031583560914916473 0 -0.0014023345756867841 -0.031872686054756766 0 -0.0015550266257159922 -0.031816231720687704 0 -0.0014739881403182994 -0.032064612143758699 0 -0.0015550266257159922 -0.031816231720687704 0 -0.0014739881403182994 -0.032064612143758699 0 -0.0015007709314247978 -0.031986902225123959 0 -0.0014298309856250768 -0.032300751505603673 0 -0.0014739881403182994 -0.032064612143758699 0 -0.0015007709314247978 -0.031986902225123959 0 -0.0014493003293852657 -0.032224743053716039 0 -0.0015007709314247978 -0.031986902225123959 0 -0.001476724516845752 -0.031870114244136813 0 -0.0015007709314247978 -0.031986902225123959 0 -0.001476724516845752 -0.031870114244136813 0 -0.0015383339763406134 -0.031649593417641557 0 -0.0015383339763406134 -0.031649593417641557 0 -0.0016393715050148916 -0.031583560914916473 0 -0.0016790646751271951 -0.031308332175816626 0 -0.0015007709314247978 -0.031986902225123959 0 -0.0015383339763406134 -0.031649593417641557 0 -0.0016393715050148916 -0.031583560914916473 0 -0.0015383339763406134 -0.031649593417641557 0 -0.0016790646751271951 -0.031308332175816626 0 -0.001606178992396108 -0.031429102535045175 0 -0.0016393715050148916 -0.031583560914916473 0 -0.0016940552744642132 -0.031461784190226175 0 -0.0016447579457973124 -0.031586704248558438 0 -0.0015550266257159922 -0.031816231720687704 0 -0.0016393715050148916 -0.031583560914916473 0 -0.0016447579457973124 -0.031586704248558438 0 -0.0016790646751271951 -0.031308332175816626 0 -0.0016940552744642132 -0.031461784190226175 0 -0.0017526115127093783 -0.031008415707074442 0 -0.0011270377044413802 -0.029200056255679091 0 -0.00148693650258943 -0.029387828931507542 0 -0.0016393715050148916 -0.031583560914916473 0 -0.0016790646751271951 -0.031308332175816626 0 -0.0016940552744642132 -0.031461784190226175 0 -0.0016790646751271951 -0.031308332175816626 0 -0.0017539753002040422 -0.031102673441597527 0 -0.0017526115127093783 -0.031008415707074442 0 -0.001606178992396108 -0.031429102535045175 0 -0.0017009612963241822 -0.031256483797992986 0 -0.0017539753002040422 -0.031102673441597527 0 -0.0016790646751271951 -0.031308332175816626 0 -0.001606178992396108 -0.031429102535045175 0 -0.0017539753002040422 -0.031102673441597527 0 -0.0017009612963241822 -0.031256483797992986 0 -0.0016555403234631665 -0.031507995262009196 0 -0.0018043198499007353 -0.031324322096036882 0 -0.0017009612963241822 -0.031256483797992986 0 -0.0015422943880983478 -0.031516894896522492 0 -0.0016555403234631665 -0.031507995262009196 0 -0.001606178992396108 -0.031429102535045175 0 -0.0017009612963241822 -0.031256483797992986 0 -0.0015422943880983478 -0.031516894896522492 0 -0.0015383339763406134 -0.031649593417641557 0 -0.001606178992396108 -0.031429102535045175 0 -0.0015422943880983478 -0.031516894896522492 0 -0.001490576307211063 -0.031666229886081768 0 -0.0015422943880983478 -0.031516894896522492 0 -0.0015068561360840949 -0.031601487663825478 0 -0.001490576307211063 -0.031666229886081768 0 -0.0015383339763406134 -0.031649593417641557 0 -0.0015422943880983478 -0.031516894896522492 0 -0.0015422943880983478 -0.031516894896522492 0 -0.0015068561360840949 -0.031601487663825478 0 -0.0015284544410071462 -0.031615166449711178 0 -0.001490576307211063 -0.031666229886081768 0 -0.0015068561360840949 -0.031601487663825478 0 -0.0015115810435324436 -0.031603567975062474 0 -0.0015068561360840949 -0.031601487663825478 0 -0.0015115810435324436 -0.031603567975062474 0 -0.0015284544410071462 -0.031615166449711178 0 -0.0015284544410071462 -0.031615166449711178 0 -0.0016555403234631665 -0.031507995262009196 0 -0.0017877531158659269 -0.031788575757605159 0 -0.0015420179003054315 -0.031623072193340616 0 -0.0017365526478941213 -0.031737880916989022 0 -0.0015422943880983478 -0.031516894896522492 0 -0.0015284544410071462 -0.031615166449711178 0 -0.0016555403234631665 -0.031507995262009196 0 -0.0001978391718900221 -0.034704970267783339 0 -0.00020895538072767875 -0.034688442258826162 0 -0.00014273135958068256 -0.034816010731326889 0 -0.0001978391718900221 -0.034704970267783339 0 -0.00014273135958068256 -0.034816010731326889 0 -0.00024503175226208378 -0.0346274225516831 0 -0.00011023639370630445 -0.035496059044957999 0 -0.0012247811888504918 -0.032749691394036662 0 -0.0001978391718900221 -0.034704970267783339 0 -0.00021791610463818732 -0.034632232512824976 0 -0.00024503175226208378 -0.0346274225516831 0 -0.00020895538072767875 -0.034688442258826162 0 -0.00022377566211250648 -0.034580549314423781 0 -0.00025960839433085317 -0.034620541162771849 0 -0.00021791610463818732 -0.034632232512824976 0 -0.00020895538072767875 -0.034688442258826162 0 -0.00022377566211250648 -0.034580549314423781 0 -0.0001978391718900221 -0.034704970267783339 0 -0.00021791610463818732 -0.034632232512824976 0 -0.00020895538072767875 -0.034688442258826162 0 -0.00022979606829130427 -0.034645239497697947 0 -0.00020895538072767875 -0.034688442258826162 0 -0.00025960839433085317 -0.034620541162771849 0 -0.00022979606829130427 -0.034645239497697947 0 -0.00020895538072767875 -0.034688442258826162 0 -0.00014030752796618664 -0.034747277490810261 0 -0.00020895538072767875 -0.034688442258826162 0 -0.00014273135958068256 -0.034816010731326889 0 -0.00014030752796618664 -0.034747277490810261 0 -4.2942527764172923e-05 -0.034919238919126037 0 -8.8643510818872654e-08 -0.035000145826750186 0 -8.3038614756286796e-08 -0.034999660058083998 0 -4.2942527764172923e-05 -0.034919238919126037 0 -0.00014273135958068256 -0.034816010731326889 0 -6.5559322009697404e-05 -0.0348773302115713 0 -0.00014273135958068256 -0.034816010731326889 0 -0.00014030752796618664 -0.034747277490810261 0 -6.5559322009697404e-05 -0.0348773302115713 0 -4.2942527764172923e-05 -0.034919238919126037 0 -8.3038614756286796e-08 -0.034999660058083998 0 -6.5559322009697404e-05 -0.0348773302115713 0 -4.2942527764172923e-05 -0.034919238919126037 0 -6.4470893009195804e-05 -0.034947158323969683 0 -8.8643510818872654e-08 -0.035000145826750186 0 -4.2942527764172923e-05 -0.034919238919126037 0 -0.00014273135958068256 -0.034816010731326889 0 -6.4470893009195804e-05 -0.034947158323969683 0 -0.00014273135958068256 -0.034816010731326889 0 -6.4470893009195804e-05 -0.034947158323969683 0 -0.00019164803376494813 -0.034962965461488721 0 -4.6827802734118859e-05 -0.034889220808012607 0 -6.4470893009195804e-05 -0.034947158323969683 0 -1.4153593326149112e-05 -0.034916578389036841 0 -4.6827802734118859e-05 -0.034889220808012607 0 -6.4470893009195804e-05 -0.034947158323969683 0 -8.5964258705045171e-05 -0.034856816029673415 0 8.3140191117780978e-05 -0.034781951951114193 0 -0.0012247811888504918 -0.032749691394036662 0 -6.4470893009195804e-05 -0.034947158323969683 0 -8.8643510818872654e-08 -0.035000145826750186 0 -8.5964258705045171e-05 -0.034856816029673415 0 -1.4930552888557348e-05 -0.034714327902728735 0 -8.5964258705045171e-05 -0.034856816029673415 0 1.9495577370909375e-05 -0.034805866294712072 0 -0.0028243280005709639 -0.027097904916245627 0 -0.0030262540923311648 -0.027765203950725778 0 -0.0025834761773600476 -0.027311591316913679 0 -0.0013966774403608106 -0.030726788666823664 0 -0.0012247811888504918 -0.032749691394036662 0 -4.6827802734118859e-05 -0.034889220808012607 0 -8.5964258705045171e-05 -0.034856816029673415 0 1.9495577370909375e-05 -0.034805866294712072 0 -4.6827802734118859e-05 -0.034889220808012607 0 1.9495577370909375e-05 -0.034805866294712072 0 -1.4153593326149112e-05 -0.034916578389036841 0 -0.0012247811888504918 -0.032749691394036662 0 -0.0012821318000295623 -0.030796320470565762 0 -0.00021791610463818732 -0.034632232512824976 0 -0.00024503175226208378 -0.0346274225516831 0 -0.00022284325099823678 -0.034503749164096924 0 -0.0030262540923311648 -0.027765203950725778 0 -0.0025834761773600476 -0.027311591316913679 0 -0.0022107030647288218 -0.027485043805147564 0 -0.00021791610463818732 -0.034632232512824976 0 -0.00022284325099823678 -0.034503749164096924 0 -0.00022377566211250648 -0.034580549314423781 0 -0.0028243280005709639 -0.027097904916245627 0 -0.0025834761773600476 -0.027311591316913679 0 -0.0022823226534544978 -0.026911554511410921 0 -0.0025834761773600476 -0.027311591316913679 0 -0.0022823226534544978 -0.026911554511410921 0 -0.0022107030647288218 -0.027485043805147564 0 -0.0022823226534544978 -0.026911554511410921 0 -0.0018931731819055693 -0.026954454176065862 0 -0.0022107030647288218 -0.027485043805147564 0 -0.0018931731819055693 -0.026954454176065862 0 -0.0014623967597951672 -0.027194900128577566 0 -0.0022107030647288218 -0.027485043805147564 0 -0.0015569113673728002 -0.026763833597840871 0 -0.0018931731819055693 -0.026954454176065862 0 -0.0014623967597951672 -0.027194900128577566 0 -0.00030827040678640049 -0.034361499014028005 0 -0.00025420858032755979 -0.034422616863970155 0 -0.00030154384597924177 -0.034268621116712909 0 -0.00030827040678640049 -0.034361499014028005 0 -0.00025420858032755979 -0.034422616863970155 0 -0.00022284325099823678 -0.034503749164096924 0 -0.00025420858032755979 -0.034422616863970155 0 -0.00022377566211250648 -0.034580549314423781 0 -0.00030154384597924177 -0.034268621116712909 0 -0.00085070886119522954 -0.030753097149285469 0 -0.0012821318000295623 -0.030796320470565762 0 -0.00025420858032755979 -0.034422616863970155 0 -0.00022284325099823678 -0.034503749164096924 0 -0.00022377566211250648 -0.034580549314423781 0 -0.00093967758932047326 -0.026583226720059104 0 -0.00070537075807807197 -0.026892884626885452 0 -0.0012052666567125931 -0.026774461111404257 0 -0.00030827040678640049 -0.034361499014028005 0 -0.0004963287226905015 -0.034296823150354129 0 -0.00041612338632618866 -0.034245975094587114 0 -0.0014623967597951672 -0.027194900128577566 0 -0.00070537075807807197 -0.026892884626885452 0 -0.0012052666567125931 -0.026774461111404257 0 -0.00085070886119522954 -0.030753097149285469 0 -0.00068333921333380801 -0.030973481306432463 0 -0.0015569113673728002 -0.026763833597840871 0 -0.0014623967597951672 -0.027194900128577566 0 -0.0012052666567125931 -0.026774461111404257 0 -0.00030827040678640049 -0.034361499014028005 0 -0.00041612338632618866 -0.034245975094587114 0 -0.00030154384597924177 -0.034268621116712909 0 -0.00062743761996438691 -0.034156776098398456 0 -0.00041612338632618866 -0.034245975094587114 0 -0.00049386656149331693 -0.034077448523731985 0 -0.00062743761996438691 -0.034156776098398456 0 -0.0004963287226905015 -0.034296823150354129 0 -0.00041612338632618866 -0.034245975094587114 0 -0.00064536937743990476 -0.034580441952718491 0 -0.00044958362356214423 -0.03449165691390893 0 -0.00039831226229161042 -0.034652850364645819 0 -0.00060567875660327559 -0.034294541724876983 0 -0.00035428068095686701 -0.034466361956645326 0 -0.00041612338632618866 -0.034245975094587114 0 -0.00049386656149331693 -0.034077448523731985 0 -0.00030154384597924177 -0.034268621116712909 0 -0.00064536937743990476 -0.034580441952718491 0 -0.00044958362356214423 -0.03449165691390893 0 -0.00061399856964623289 -0.034357464180364401 0 -0.00074650803429372053 -0.034383266162012455 0 -0.00064536937743990476 -0.034580441952718491 0 -0.00061399856964623289 -0.034357464180364401 0 -0.00022377566211250648 -0.034580549314423781 0 -0.00033258650128520909 -0.034587218232049514 0 -0.00025960839433085317 -0.034620541162771849 0 -0.00025120676809865984 -0.034558687346135104 0 -0.00035428068095686701 -0.034466361956645326 0 -0.00022377566211250648 -0.034580549314423781 0 -0.00039831226229161042 -0.034652850364645819 0 -0.00033258650128520909 -0.034587218232049514 0 -0.00044958362356214423 -0.03449165691390893 0 -0.00033258650128520909 -0.034587218232049514 0 -0.00031417780203980838 -0.034540465240795792 0 -0.00044958362356214423 -0.03449165691390893 0 -0.00039831226229161042 -0.034652850364645819 0 -0.00033258650128520909 -0.034587218232049514 0 -0.00022979606829130427 -0.034645239497697947 0 -0.00025960839433085317 -0.034620541162771849 0 -0.00031417780203980838 -0.034540465240795792 0 -0.00033258650128520909 -0.034587218232049514 0 -0.00025960839433085317 -0.034620541162771849 0 -0.00031417780203980838 -0.034540465240795792 0 -0.00022979606829130427 -0.034645239497697947 0 -0.00031417780203980838 -0.034540465240795792 0 -0.00021837986604153028 -0.03462103110479979 0 -0.00031417780203980838 -0.034540465240795792 0 -0.00026553469239284504 -0.034525997806508495 0 -0.00021837986604153028 -0.03462103110479979 0 -0.00031417780203980838 -0.034540465240795792 0 -0.00037535441506316 -0.034421375643966724 0 -0.00048169511471384842 -0.034372959948638038 0 -0.00044958362356214423 -0.03449165691390893 0 -0.00031417780203980838 -0.034540465240795792 0 -0.00048169511471384842 -0.034372959948638038 0 -0.00037535441506316 -0.034421375643966724 0 -0.00048169511471384842 -0.034372959948638038 0 -0.00053919683507541944 -0.034243004581689787 0 -0.00031417780203980838 -0.034540465240795792 0 -0.00037535441506316 -0.034421375643966724 0 -0.00026553469239284504 -0.034525997806508495 0 -0.00061399856964623289 -0.034357464180364401 0 -0.00048169511471384842 -0.034372959948638038 0 -0.00068727077729819936 -0.034168644696605563 0 -0.00079677912052704262 -0.034192143354912913 0 -0.00061399856964623289 -0.034357464180364401 0 -0.00068727077729819936 -0.034168644696605563 0 -0.00044958362356214423 -0.03449165691390893 0 -0.00061399856964623289 -0.034357464180364401 0 -0.00048169511471384842 -0.034372959948638038 0 -0.00048169511471384842 -0.034372959948638038 0 -0.00068727077729819936 -0.034168644696605563 0 -0.00053919683507541944 -0.034243004581689787 0 -0.00079450345637393919 -0.03396974958954211 0 -0.00068727077729819936 -0.034168644696605563 0 -0.00053919683507541944 -0.034243004581689787 0 -0.00079450345637393919 -0.03396974958954211 0 -0.00053919683507541944 -0.034243004581689787 0 -0.00059752403167450893 -0.034131787247179537 0 -0.00079450345637393919 -0.03396974958954211 0 -0.00059752403167450893 -0.034131787247179537 0 -0.00082844141366969178 -0.033903307897054626 0 -0.00037535441506316 -0.034421375643966724 0 -0.00026553469239284504 -0.034525997806508495 0 -0.00032964276018173109 -0.034405143781990603 0 -0.00026553469239284504 -0.034525997806508495 0 -0.00032964276018173109 -0.034405143781990603 0 -0.00019769278964933021 -0.034555265109723482 0 -0.00053919683507541944 -0.034243004581689787 0 -0.00059752403167450893 -0.034131787247179537 0 -0.00032964276018173109 -0.034405143781990603 0 -0.00037535441506316 -0.034421375643966724 0 -0.00053919683507541944 -0.034243004581689787 0 -0.00032964276018173109 -0.034405143781990603 0 -0.00059752403167450893 -0.034131787247179537 0 -0.00032964276018173109 -0.034405143781990603 0 -0.00044737655713901085 -0.034217515883347316 0 -0.00032964276018173109 -0.034405143781990603 0 -0.0002509062034090541 -0.034433033719229907 0 -0.00044737655713901085 -0.034217515883347316 0 -0.00032964276018173109 -0.034405143781990603 0 -0.00019769278964933021 -0.034555265109723482 0 -0.0002509062034090541 -0.034433033719229907 0 -0.00019769278964933021 -0.034555265109723482 0 -0.0002509062034090541 -0.034433033719229907 0 -0.00011754023727868631 -0.034633406326448762 0 -0.00019769278964933021 -0.034555265109723482 0 -9.366156146496386e-05 -0.034726758125032474 0 -0.00011754023727868631 -0.034633406326448762 0 -0.00019769278964933021 -0.034555265109723482 0 -0.00017934004156246113 -0.034611537311364959 0 -9.366156146496386e-05 -0.034726758125032474 0 -0.00026553469239284504 -0.034525997806508495 0 -0.00019769278964933021 -0.034555265109723482 0 -0.00017934004156246113 -0.034611537311364959 0 -0.00026553469239284504 -0.034525997806508495 0 -0.00017934004156246113 -0.034611537311364959 0 -0.00021837986604153028 -0.03462103110479979 0 -0.00017934004156246113 -0.034611537311364959 0 -0.00013505693877465249 -0.034676825339982544 0 -9.366156146496386e-05 -0.034726758125032474 0 -0.00017934004156246113 -0.034611537311364959 0 -0.00013505693877465249 -0.034676825339982544 0 -0.00021837986604153028 -0.03462103110479979 0 -0.00013505693877465249 -0.034676825339982544 0 -0.00014030752796618664 -0.034747277490810261 0 -0.00021837986604153028 -0.03462103110479979 0 -0.00013505693877465249 -0.034676825339982544 0 -0.00014030752796618664 -0.034747277490810261 0 -8.6341155252914276e-05 -0.034720487523097553 0 -0.00022979606829130427 -0.034645239497697947 0 -0.00014030752796618664 -0.034747277490810261 0 -0.00021837986604153028 -0.03462103110479979 0 -8.3038614756286796e-08 -0.034999660058083998 0 -3.0263437132146505e-05 -0.03495360975632366 0 2.8063871428641646e-08 -0.035000106139095127 0 -8.3038614756286796e-08 -0.034999660058083998 0 -6.5559322009697404e-05 -0.0348773302115713 0 -3.0263437132146505e-05 -0.03495360975632366 0 -0.00014030752796618664 -0.034747277490810261 0 -6.5559322009697404e-05 -0.0348773302115713 0 -3.0263437132146505e-05 -0.03495360975632366 0 -0.00013547355484144465 -0.034768828750631545 0 -5.7620161779140405e-05 -0.03483578100248981 0 -0.00013505693877465249 -0.034676825339982544 0 -8.6341155252914276e-05 -0.034720487523097553 0 -9.366156146496386e-05 -0.034726758125032474 0 -5.7620161779140405e-05 -0.03483578100248981 0 1.4591092099025771e-09 -0.034999920363484566 0 -8.6341155252914276e-05 -0.034720487523097553 0 -2.0317660856157157e-07 -0.034999429155558724 0 -9.366156146496386e-05 -0.034726758125032474 0 -2.0317660856157157e-07 -0.034999429155558724 0 -9.366156146496386e-05 -0.034726758125032474 0 -5.4638880085423505e-05 -0.034819882371266618 0 -9.366156146496386e-05 -0.034726758125032474 0 -5.4638880085423505e-05 -0.034819882371266618 0 -0.00011754023727868631 -0.034633406326448762 0 -2.0317660856157157e-07 -0.034999429155558724 0 1.0294240421852284e-08 -0.034999776392437537 0 -5.4638880085423505e-05 -0.034819882371266618 0 1.0294240421852284e-08 -0.034999776392437537 0 -5.4638880085423505e-05 -0.034819882371266618 0 -4.2292383851533466e-05 -0.034836983333857589 0 -5.4638880085423505e-05 -0.034819882371266618 0 -4.2292383851533466e-05 -0.034836983333857589 0 -0.00011754023727868631 -0.034633406326448762 0 -4.2292383851533466e-05 -0.034836983333857589 0 -0.00011754023727868631 -0.034633406326448762 0 -0.00010234343729543194 -0.034621274460774148 0 1.0294240421852284e-08 -0.034999776392437537 0 -4.2292383851533466e-05 -0.034836983333857589 0 -5.2038895914479564e-08 -0.0349997812363591 0 -0.0002509062034090541 -0.034433033719229907 0 -0.00011754023727868631 -0.034633406326448762 0 -0.00019172662367735602 -0.03439294037830256 0 -0.0002509062034090541 -0.034433033719229907 0 -0.00019172662367735602 -0.03439294037830256 0 -0.0003074703739986296 -0.034313355238400831 0 -0.00011754023727868631 -0.034633406326448762 0 -0.00019172662367735602 -0.03439294037830256 0 -0.00010234343729543194 -0.034621274460774148 0 -0.00019172662367735602 -0.03439294037830256 0 -0.00010234343729543194 -0.034621274460774148 0 -0.00010582536294279773 -0.034365266176107259 0 -0.00010234343729543194 -0.034621274460774148 0 -0.00014091243208195204 -0.034572310556154666 0 -0.00010582536294279773 -0.034365266176107259 0 -0.00014091243208195204 -0.034572310556154666 0 -0.00010582536294279773 -0.034365266176107259 0 -0.00013181840242892354 -0.034653758927655619 0 -0.00011986673604097633 -0.034312456642051306 0 -0.00017957993623705839 -0.034135850968558042 0 -4.2292383851533466e-05 -0.034836983333857589 0 -5.2038895914479564e-08 -0.0349997812363591 0 -5.6465921349275318e-05 -0.034817278928757828 0 -4.2292383851533466e-05 -0.034836983333857589 0 -0.00010234343729543194 -0.034621274460774148 0 -5.6465921349275318e-05 -0.034817278928757828 0 -0.00010234343729543194 -0.034621274460774148 0 -0.00014091243208195204 -0.034572310556154666 0 -5.6465921349275318e-05 -0.034817278928757828 0 -0.00014091243208195204 -0.034572310556154666 0 -5.6465921349275318e-05 -0.034817278928757828 0 -0.00012630108047986054 -0.034631244440763473 0 -5.2038895914479564e-08 -0.0349997812363591 0 -5.6465921349275318e-05 -0.034817278928757828 0 -1.2007853879221887e-08 -0.034999504372696597 0 -5.6465921349275318e-05 -0.034817278928757828 0 -1.2007853879221887e-08 -0.034999504372696597 0 -0.00012630108047986054 -0.034631244440763473 0 -8.9377025391545716e-06 -0.034958941291700227 0 -5.1975537612679888e-05 -0.034800691824627271 0 1.7911464664589889e-08 -0.034999947314518151 0 3.003775031153129e-05 -0.034935194643430069 0 3.2812683503686284e-05 -0.034934631493737593 0 -1.0354332448204557e-08 -0.035000004193766976 0 1.7911464664589889e-08 -0.034999947314518151 0 3.2812683503686284e-05 -0.034934631493737593 0 1.7911464664589889e-08 -0.034999947314518151 0 5.571255945679021e-08 -0.034999878677556127 0 3.003775031153129e-05 -0.034935194643430069 0 3.003775031153129e-05 -0.034935194643430069 0 3.2812683503686284e-05 -0.034934631493737593 0 3.5446483070465166e-05 -0.034852450671318161 0 5.571255945679021e-08 -0.034999878677556127 0 3.003775031153129e-05 -0.034935194643430069 0 4.6284058122802733e-05 -0.03483478743439155 0 3.003775031153129e-05 -0.034935194643430069 0 3.5446483070465166e-05 -0.034852450671318161 0 4.6284058122802733e-05 -0.03483478743439155 0 -0.00014091243208195204 -0.034572310556154666 0 -0.00012630108047986054 -0.034631244440763473 0 -0.00013181840242892354 -0.034653758927655619 0 -5.1975537612679888e-05 -0.034800691824627271 0 -6.2003652584020617e-05 -0.034770816849815998 0 3.2812683503686284e-05 -0.034934631493737593 0 4.7435242073195404e-06 -0.034874178562093315 0 3.5446483070465166e-05 -0.034852450671318161 0 -0.00010582536294279773 -0.034365266176107259 0 -0.00013181840242892354 -0.034653758927655619 0 -7.4678611301375505e-05 -0.034662603907573059 0 4.7435242073195404e-06 -0.034874178562093315 0 -8.2937886633387574e-06 -0.034768576851486169 0 3.5446483070465166e-05 -0.034852450671318161 0 4.7435242073195404e-06 -0.034874178562093315 0 -8.2937886633387574e-06 -0.034768576851486169 0 -8.9334604307859079e-05 -0.034760620508164704 0 3.5446483070465166e-05 -0.034852450671318161 0 2.8053146705821804e-05 -0.034682882080858693 0 4.6284058122802733e-05 -0.03483478743439155 0 -8.2937886633387574e-06 -0.034768576851486169 0 3.5446483070465166e-05 -0.034852450671318161 0 2.8053146705821804e-05 -0.034682882080858693 0 -8.2937886633387574e-06 -0.034768576851486169 0 2.8053146705821804e-05 -0.034682882080858693 0 -3.1681611037819725e-05 -0.034636214597534187 0 2.8053146705821804e-05 -0.034682882080858693 0 -6.6986016746709005e-06 -0.034534833770367437 0 -3.1681611037819725e-05 -0.034636214597534187 0 2.8053146705821804e-05 -0.034682882080858693 0 -6.6986016746709005e-06 -0.034534833770367437 0 2.2319648395577068e-05 -0.034539201637109544 0 2.8053146705821804e-05 -0.034682882080858693 0 2.2319648395577068e-05 -0.034539201637109544 0 4.4347032267918718e-05 -0.03465452896909036 0 -6.6986016746709005e-06 -0.034534833770367437 0 2.2319648395577068e-05 -0.034539201637109544 0 -1.380571264662145e-05 -0.034333914867485132 0 2.8053146705821804e-05 -0.034682882080858693 0 4.4347032267918718e-05 -0.03465452896909036 0 4.6284058122802733e-05 -0.03483478743439155 0 4.4347032267918718e-05 -0.03465452896909036 0 3.8747156572875691e-05 -0.034850240063720977 0 4.6284058122802733e-05 -0.03483478743439155 0 5.571255945679021e-08 -0.034999878677556127 0 3.8747156572875691e-05 -0.034850240063720977 0 2.0824329167198958e-08 -0.03499975038231553 0 3.8747156572875691e-05 -0.034850240063720977 0 2.0824329167198958e-08 -0.03499975038231553 0 2.256646961957138e-05 -0.034900909559207147 0 5.571255945679021e-08 -0.034999878677556127 0 3.8747156572875691e-05 -0.034850240063720977 0 4.6284058122802733e-05 -0.03483478743439155 0 -0.00097860085508617595 -0.033884427778684278 0 -0.00043811419600787538 -0.0339121526264878 0 -0.0011463733553987296 -0.034671578682795835 0 -0.0003790581733441912 -0.034660369228615547 0 -0.00027818834752001733 -0.034901557834060293 0 -0.00084874890964962491 -0.032579368084210122 0 -0.00049755104666204689 -0.033060293408020421 0 -0.00084666174783783914 -0.032949153259629889 0 -0.0011463733553987296 -0.034671578682795835 0 -0.00035957500233460207 -0.034276641099558851 0 -0.0003790581733441912 -0.034660369228615547 0 -0.0011151367555099435 -0.032707654308414866 0 -0.00084874890964962491 -0.032579368084210122 0 -0.00084666174783783914 -0.032949153259629889 0 -0.0011151367555099435 -0.032707654308414866 0 -0.00084874890964962491 -0.032579368084210122 0 -0.0012327278315590283 -0.032171766783090187 0 -0.0011463733553987296 -0.034671578682795835 0 -0.0025664427953405295 -0.033698281968355941 0 -0.0014126616858476148 -0.033525957118965562 0 -0.00097860085508617595 -0.033884427778684278 0 -0.0016381573633942304 -0.031227281251426091 0 -0.0011463733553987296 -0.034671578682795835 0 -0.00035957500233460207 -0.034276641099558851 0 -0.0014126616858476148 -0.033525957118965562 0 -0.00035957500233460207 -0.034276641099558851 0 -6.2448432929262314e-05 -0.034433392271289269 0 -0.00016799972420045861 -0.034625144947743838 0 -0.00010349169774719114 -0.034180331769257055 0 -0.00035957500233460207 -0.034276641099558851 0 -0.00040600000181975876 -0.033303939329952098 0 -0.00010349169774719114 -0.034180331769257055 0 -0.00035957500233460207 -0.034276641099558851 0 -6.2448432929262314e-05 -0.034433392271289269 0 -0.00010349169774719114 -0.034180331769257055 0 -6.2448432929262314e-05 -0.034433392271289269 0 -1.380571264662145e-05 -0.034333914867485132 0 -6.6986016746709005e-06 -0.034534833770367437 0 -6.2448432929262314e-05 -0.034433392271289269 0 -1.380571264662145e-05 -0.034333914867485132 0 -6.6986016746709005e-06 -0.034534833770367437 0 -6.2448432929262314e-05 -0.034433392271289269 0 -3.1681611037819725e-05 -0.034636214597534187 0 -6.2448432929262314e-05 -0.034433392271289269 0 -3.1681611037819725e-05 -0.034636214597534187 0 -0.00016799972420045861 -0.034625144947743838 0 -0.00016799972420045861 -0.034625144947743838 0 -0.00019891994530203086 -0.034771695695942191 0 -8.9334604307859079e-05 -0.034760620508164704 0 -3.1681611037819725e-05 -0.034636214597534187 0 -0.00016799972420045861 -0.034625144947743838 0 -8.9334604307859079e-05 -0.034760620508164704 0 -8.2937886633387574e-06 -0.034768576851486169 0 -3.1681611037819725e-05 -0.034636214597534187 0 -8.9334604307859079e-05 -0.034760620508164704 0 -0.00035957500233460207 -0.034276641099558851 0 -0.00016799972420045861 -0.034625144947743838 0 -0.0003790581733441912 -0.034660369228615547 0 -0.00016799972420045861 -0.034625144947743838 0 -0.0003790581733441912 -0.034660369228615547 0 -0.00019891994530203086 -0.034771695695942191 0 -0.00027818834752001733 -0.034901557834060293 0 -0.00015921776780185111 -0.034805162224119224 0 -7.4678611301375505e-05 -0.034662603907573059 0 -0.0003790581733441912 -0.034660369228615547 0 -0.00027818834752001733 -0.034901557834060293 0 -0.00019891994530203086 -0.034771695695942191 0 -0.00027818834752001733 -0.034901557834060293 0 -0.00019891994530203086 -0.034771695695942191 0 -0.00015921776780185111 -0.034805162224119224 0 4.7435242073195404e-06 -0.034874178562093315 0 -0.00015921776780185111 -0.034805162224119224 0 -8.9334604307859079e-05 -0.034760620508164704 0 -6.2003652584020617e-05 -0.034770816849815998 0 -0.00014277782201614622 -0.034796911188984564 0 -0.00019891994530203086 -0.034771695695942191 0 -0.00015921776780185111 -0.034805162224119224 0 -8.9334604307859079e-05 -0.034760620508164704 0 -0.00013181840242892354 -0.034653758927655619 0 -0.00015921776780185111 -0.034805162224119224 0 -7.4678611301375505e-05 -0.034662603907573059 0 -0.00049755104666204689 -0.033060293408020421 0 -0.00023843811716839526 -0.033595269616267409 0 -0.00050548955842670789 -0.033469937170864071 0 -0.00043811419600787538 -0.0339121526264878 0 -0.00017957993623705839 -0.034135850968558042 0 -0.00023843811716839526 -0.033595269616267409 0 -0.00050548955842670789 -0.033469937170864071 0 -0.00040912270475766899 -0.033751058200391253 0 -0.00074202220255211869 -0.033293453285060018 0 -0.00096610782021504813 -0.033430100485149591 0 -0.00065922412360808582 -0.033655503786357503 0 -0.00049755104666204689 -0.033060293408020421 0 -0.00050548955842670789 -0.033469937170864071 0 -0.00074202220255211869 -0.033293453285060018 0 -0.00050548955842670789 -0.033469937170864071 0 -0.00074202220255211869 -0.033293453285060018 0 -0.00065922412360808582 -0.033655503786357503 0 -0.00049755104666204689 -0.033060293408020421 0 -0.00074202220255211869 -0.033293453285060018 0 -0.00084666174783783914 -0.032949153259629889 0 -0.00074202220255211869 -0.033293453285060018 0 -0.00084666174783783914 -0.032949153259629889 0 -0.0010266332919910027 -0.033096670358469908 0 -0.0011151367555099435 -0.032707654308414866 0 -0.00084666174783783914 -0.032949153259629889 0 -0.0010266332919910027 -0.033096670358469908 0 -0.0011151367555099435 -0.032707654308414866 0 -0.0010266332919910027 -0.033096670358469908 0 -0.0012854625269577962 -0.03291280747629121 0 -0.00074202220255211869 -0.033293453285060018 0 -0.0010266332919910027 -0.033096670358469908 0 -0.00096610782021504813 -0.033430100485149591 0 -0.0010266332919910027 -0.033096670358469908 0 -0.00096610782021504813 -0.033430100485149591 0 -0.0013126984082045812 -0.033194232999537193 0 -0.00096610782021504813 -0.033430100485149591 0 -0.00092294119858639823 -0.033713772627365822 0 -0.0012008259022282192 -0.033498092356469431 0 -0.00096610782021504813 -0.033430100485149591 0 -0.00065922412360808582 -0.033655503786357503 0 -0.00092294119858639823 -0.033713772627365822 0 -0.00065922412360808582 -0.033655503786357503 0 -0.00069412112816190439 -0.03383630149829725 0 -0.00092294119858639823 -0.033713772627365822 0 -0.00069412112816190439 -0.03383630149829725 0 -0.00080830326574338174 -0.033873464729418344 0 -0.00060542089038257698 -0.034009458070754228 0 -0.00069412112816190439 -0.03383630149829725 0 -0.00092294119858639823 -0.033713772627365822 0 -0.00080830326574338174 -0.033873464729418344 0 -0.00092294119858639823 -0.033713772627365822 0 -0.00080830326574338174 -0.033873464729418344 0 -0.0009810018020364865 -0.033766350345989155 0 -0.00010582536294279773 -0.034365266176107259 0 -0.00040912270475766899 -0.033751058200391253 0 -0.00039993969024609849 -0.034009058470820787 0 -0.00010582536294279773 -0.034365266176107259 0 -0.00023843811716839526 -0.033595269616267409 0 -0.00040912270475766899 -0.033751058200391253 0 -0.00065922412360808582 -0.033655503786357503 0 -0.00040912270475766899 -0.033751058200391253 0 -0.00039993969024609849 -0.034009058470820787 0 -0.00065922412360808582 -0.033655503786357503 0 -0.00069412112816190439 -0.03383630149829725 0 -0.00039993969024609849 -0.034009058470820787 0 -0.00050548955842670789 -0.033469937170864071 0 -0.00065922412360808582 -0.033655503786357503 0 -0.00040912270475766899 -0.033751058200391253 0 -0.00069412112816190439 -0.03383630149829725 0 -0.00039993969024609849 -0.034009058470820787 0 -0.00060542089038257698 -0.034009458070754228 0 -0.00039993969024609849 -0.034009058470820787 0 -0.00040142134695831251 -0.034163638206109993 0 -0.00060542089038257698 -0.034009458070754228 0 -0.00019172662367735602 -0.03439294037830256 0 -0.00039993969024609849 -0.034009058470820787 0 -0.00040142134695831251 -0.034163638206109993 0 -0.00019172662367735602 -0.03439294037830256 0 -0.00010582536294279773 -0.034365266176107259 0 -0.00039993969024609849 -0.034009058470820787 0 -0.00019172662367735602 -0.03439294037830256 0 -0.0003074703739986296 -0.034313355238400831 0 -0.00040142134695831251 -0.034163638206109993 0 -0.0003074703739986296 -0.034313355238400831 0 -0.00040142134695831251 -0.034163638206109993 0 -0.00044737655713901085 -0.034217515883347316 0 -0.00040142134695831251 -0.034163638206109993 0 -0.00044737655713901085 -0.034217515883347316 0 -0.00060542089038257698 -0.034009458070754228 0 -0.0002509062034090541 -0.034433033719229907 0 -0.0003074703739986296 -0.034313355238400831 0 -0.00044737655713901085 -0.034217515883347316 0 -0.00080830326574338174 -0.033873464729418344 0 -0.00082844141366969178 -0.033903307897054626 0 -0.0009810018020364865 -0.033766350345989155 0 -0.00080830326574338174 -0.033873464729418344 0 -0.00060542089038257698 -0.034009458070754228 0 -0.00068715625787955307 -0.034005208151518349 0 -0.00044737655713901085 -0.034217515883347316 0 -0.00060542089038257698 -0.034009458070754228 0 -0.00068715625787955307 -0.034005208151518349 0 -0.00059752403167450893 -0.034131787247179537 0 -0.00044737655713901085 -0.034217515883347316 0 -0.00068715625787955307 -0.034005208151518349 0 -0.00059752403167450893 -0.034131787247179537 0 -0.00068715625787955307 -0.034005208151518349 0 -0.00082844141366969178 -0.033903307897054626 0 -0.00080830326574338174 -0.033873464729418344 0 -0.00068715625787955307 -0.034005208151518349 0 -0.00082844141366969178 -0.033903307897054626 0 -0.00082844141366969178 -0.033903307897054626 0 -0.0009810018020364865 -0.033766350345989155 0 -0.0010507654584829534 -0.033691071209356278 0 -0.00096638199636581894 -0.033758280812146817 0 -0.00082844141366969178 -0.033903307897054626 0 -0.0010507654584829534 -0.033691071209356278 0 -0.0009810018020364865 -0.033766350345989155 0 -0.0011392127100183734 -0.033629492353299331 0 -0.0010905627027218154 -0.033665503854403124 0 -0.0009810018020364865 -0.033766350345989155 0 -0.0011392127100183734 -0.033629492353299331 0 -0.0010507654584829534 -0.033691071209356278 0 -0.0011392127100183734 -0.033629492353299331 0 -0.0010507654584829534 -0.033691071209356278 0 -0.0011574686772066014 -0.033562871001787918 0 -0.00096638199636581894 -0.033758280812146817 0 -0.0011223697320391615 -0.03354402501370711 0 -0.0010507654584829534 -0.033691071209356278 0 -0.0011223697320391615 -0.03354402501370711 0 -0.0010507654584829534 -0.033691071209356278 0 -0.0011574686772066014 -0.033562871001787918 0 -0.0011223697320391615 -0.03354402501370711 0 -0.0012060102849103288 -0.03341130016894537 0 -0.0011574686772066014 -0.033562871001787918 0 -0.0011985907586801652 -0.033488847656238246 0 -0.0011574686772066014 -0.033562871001787918 0 -0.0011727951954864282 -0.033562939955673235 0 -0.0012060102849103288 -0.03341130016894537 0 -0.0011985907586801652 -0.033488847656238246 0 -0.0011574686772066014 -0.033562871001787918 0 -0.0012548896013971202 -0.032927930005482269 0 -0.0011751997534119485 -0.033239854478293897 0 -0.00099386477278526125 -0.033598240571295034 0 -0.0011751997534119485 -0.033239854478293897 0 -0.0011684610359883611 -0.033389147742647646 0 -0.00099386477278526125 -0.033598240571295034 0 -0.0012380874581816824 -0.033108439693084434 0 -0.0011751997534119485 -0.033239854478293897 0 -0.0012313830908806936 -0.03331618757537496 0 -0.0011751997534119485 -0.033239854478293897 0 -0.0011684610359883611 -0.033389147742647646 0 -0.0012313830908806936 -0.03331618757537496 0 -0.0011684610359883611 -0.033389147742647646 0 -0.0012313830908806936 -0.03331618757537496 0 -0.0011864240496954719 -0.033464644839655146 0 -0.0012060102849103288 -0.03341130016894537 0 -0.0011985907586801652 -0.033488847656238246 0 -0.0012313830908806936 -0.03331618757537496 0 -0.0012351975323835103 -0.033274947494457002 0 -0.0012060102849103288 -0.03341130016894537 0 -0.0012313830908806936 -0.03331618757537496 0 -0.0011985907586801652 -0.033488847656238246 0 -0.0011799485990511354 -0.033498982440459089 0 -0.0011764850655474918 -0.033536699057645745 0 -0.0011985907586801652 -0.033488847656238246 0 -0.0011799485990511354 -0.033498982440459089 0 -0.0011864240496954719 -0.033464644839655146 0 -0.0011985907586801652 -0.033488847656238246 0 -0.0012313830908806936 -0.03331618757537496 0 -0.0011864240496954719 -0.033464644839655146 0 -0.0011684610359883611 -0.033389147742647646 0 -0.0011864240496954719 -0.033464644839655146 0 -0.00099386477278526125 -0.033598240571295034 0 -0.0011799485990511354 -0.033498982440459089 0 -0.0011864240496954719 -0.033464644839655146 0 -0.0011531310196140714 -0.033508348377369435 0 -0.0012742186525962797 -0.032533900094658737 0 -0.001551841908900196 -0.032590808631773646 0 -0.0011864240496954719 -0.033464644839655146 0 -0.0011445204565694702 -0.033472450270147093 0 -0.0011531310196140714 -0.033508348377369435 0 -0.0010503808629896475 -0.032915035381885088 0 -0.0012742186525962797 -0.032533900094658737 0 -0.0020535538266903373 -0.033827439264104413 0 -0.0019220660200133018 -0.033760222940879804 0 -0.002031004325002497 -0.033715140759812724 0 -0.001551841908900196 -0.032590808631773646 0 -0.0019772716305965451 -0.032401789786020027 0 -0.001551841908900196 -0.032590808631773646 0 -0.0016219149384670117 -0.033814351214803327 0 -0.0017877721148609267 -0.030595894383024819 0 -0.0018613825626758119 -0.030856342185685705 0 -0.0016378094892930432 -0.030691768041647246 0 -0.0011531310196140714 -0.033508348377369435 0 -0.0011764850655474918 -0.033536699057645745 0 -0.0011742126114094714 -0.033588389310324727 0 -0.0011799485990511354 -0.033498982440459089 0 -0.0011531310196140714 -0.033508348377369435 0 -0.0011764850655474918 -0.033536699057645745 0 -0.0011392127100183734 -0.033629492353299331 0 -0.0011727951954864282 -0.033562939955673235 0 -0.0011742126114094714 -0.033588389310324727 0 -0.0011392127100183734 -0.033629492353299331 0 -0.0011574686772066014 -0.033562871001787918 0 -0.0011727951954864282 -0.033562939955673235 0 -0.0011985907586801652 -0.033488847656238246 0 -0.0011764850655474918 -0.033536699057645745 0 -0.0011727951954864282 -0.033562939955673235 0 -0.0011764850655474918 -0.033536699057645745 0 -0.0011727951954864282 -0.033562939955673235 0 -0.0011742126114094714 -0.033588389310324727 0 -0.0019220660200133018 -0.033760222940879804 0 -0.0019594025199314042 -0.033649583616133995 0 -0.001858152308159068 -0.033582168579593272 0 -0.0019220660200133018 -0.033760222940879804 0 -0.001858152308159068 -0.033582168579593272 0 -0.0016689744507515281 -0.033669385017698575 0 -0.0011392127100183734 -0.033629492353299331 0 -0.0011742126114094714 -0.033588389310324727 0 -0.0011570569500207279 -0.033617892265890431 0 -0.0016219149384670117 -0.033814351214803327 0 -0.0013804358664590947 -0.033605796108328256 0 -0.0018613825626758119 -0.030856342185685705 0 -0.0019351893673748618 -0.031125059702291 0 -0.0016036433391151341 -0.030869134862825838 0 -0.002031004325002497 -0.033715140759812724 0 -0.0019594025199314042 -0.033649583616133995 0 -0.0020227167084882784 -0.033525551757849305 0 -0.0022538079759613907 -0.031234114567970987 0 -0.0017327376444899731 -0.028884933055544466 0 -0.0019772716305965451 -0.032401789786020027 0 -0.0022538079759613907 -0.031234114567970987 0 -0.0019220660200133018 -0.033760222940879804 0 -0.002031004325002497 -0.033715140759812724 0 -0.0019594025199314042 -0.033649583616133995 0 -0.0021496665513167307 -0.027544173899798702 0 -0.002057379042564601 -0.027547763753701705 0 -0.0021115624862287933 -0.027602478637481741 0 -0.0019594025199314042 -0.033649583616133995 0 -0.0020227167084882784 -0.033525551757849305 0 -0.001858152308159068 -0.033582168579593272 0 -0.0020227167084882784 -0.033525551757849305 0 -0.001858152308159068 -0.033582168579593272 0 -0.001871329525886764 -0.033360058827466094 0 -0.0022538079759613907 -0.031234114567970987 0 -0.0024293159063859967 -0.033410427682589963 0 -0.0036881544364844401 -0.033864545376997977 0 -0.0026735947086530833 -0.032988957954706556 0 -0.0025043002299987519 -0.032992439721809208 0 -0.001858152308159068 -0.033582168579593272 0 -0.0016287786398609437 -0.033410062875346973 0 -0.001871329525886764 -0.033360058827466094 0 -0.0012147215667572199 -0.033506079253648999 0 -0.0013804358664590947 -0.033605796108328256 0 -0.0016287786398609437 -0.033410062875346973 0 -0.0012008259022282192 -0.033498092356469431 0 -0.0016689744507515281 -0.033669385017698575 0 -0.001858152308159068 -0.033582168579593272 0 -0.0016287786398609437 -0.033410062875346973 0 -0.0016689744507515281 -0.033669385017698575 0 -0.00092294119858639823 -0.033713772627365822 0 -0.0012008259022282192 -0.033498092356469431 0 -0.0010905627027218154 -0.033665503854403124 0 -0.0012008259022282192 -0.033498092356469431 0 -0.0010905627027218154 -0.033665503854403124 0 -0.0011570569500207279 -0.033617892265890431 0 -0.00092294119858639823 -0.033713772627365822 0 -0.0009810018020364865 -0.033766350345989155 0 -0.0010905627027218154 -0.033665503854403124 0 -0.0011392127100183734 -0.033629492353299331 0 -0.0010905627027218154 -0.033665503854403124 0 -0.0011570569500207279 -0.033617892265890431 0 -0.00097004162406862722 -0.026383845491423728 0 -0.00072750819399732187 -0.026995484069548568 0 -0.00023008433910976777 -0.026616598126665725 0 -0.00072750819399732187 -0.026995484069548568 0 -0.0010749287779466912 -0.027028491251596086 0 -0.00098385326994152185 -0.027579174679330423 0 -0.00097004162406862722 -0.026383845491423728 0 -0.00072750819399732187 -0.026995484069548568 0 -0.0010749287779466912 -0.027028491251596086 0 -0.0016940552744642132 -0.031461784190226175 0 -0.0016447579457973124 -0.031586704248558438 0 -0.0016536085753201023 -0.031446392393588513 0 -0.0011270377044413802 -0.029200056255679091 0 -0.0014309794434530624 -0.028986558181703835 0 -0.0014005397683492316 -0.026659323758969788 0 -0.0014309794434530624 -0.028986558181703835 0 -0.0018994787296390812 -0.027443758100765943 0 -0.0019559047455759045 -0.027429070405857632 0 -0.0019237698117819779 -0.027473680617713991 0 -0.0014309794434530624 -0.028986558181703835 0 -0.0013167304940426554 -0.032019067464124439 0 -0.0012847099590637115 -0.03061358861965937 0 -0.0016378094892930432 -0.030691768041647246 0 -0.0016036433391151341 -0.030869134862825838 0 -0.0014309794434530624 -0.028986558181703835 0 -0.0017327376444899731 -0.028884933055544466 0 -0.0016536085753201023 -0.031446392393588513 0 -0.0014700931604288573 -0.031603812665355765 0 -0.0011775986174033073 -0.031468231943710241 0 -0.0016447579457973124 -0.031586704248558438 0 -0.0016536085753201023 -0.031446392393588513 0 -0.0014700931604288573 -0.031603812665355765 0 -0.0015550266257159922 -0.031816231720687704 0 -0.0016447579457973124 -0.031586704248558438 0 -0.0014700931604288573 -0.031603812665355765 0 -0.0014023345756867841 -0.031872686054756766 0 -0.0015550266257159922 -0.031816231720687704 0 -0.0014700931604288573 -0.031603812665355765 0 -0.0014700931604288573 -0.031603812665355765 0 -0.0012214540164574145 -0.031511436281421092 0 -0.0011775986174033073 -0.031468231943710241 0 -0.0014023345756867841 -0.031872686054756766 0 -0.0013494781876809065 -0.032109832476808653 0 -0.00097205248319021901 -0.031446034967899487 0 -0.0014023345756867841 -0.031872686054756766 0 -0.0014700931604288573 -0.031603812665355765 0 -0.0012214540164574145 -0.031511436281421092 0 -0.0014023345756867841 -0.031872686054756766 0 -0.00097205248319021901 -0.031446034967899487 0 -0.0012214540164574145 -0.031511436281421092 0 -0.001229472489619106 -0.031908353594472916 0 -0.0013167304940426554 -0.032019067464124439 0 -0.001551841908900196 -0.032590808631773646 0 -0.0013167304940426554 -0.032019067464124439 0 -0.0012742186525962797 -0.032533900094658737 0 -0.0013167304940426554 -0.032019067464124439 0 -0.0014653357793319088 -0.03221152588766827 0 -0.0015166958911358634 -0.032409907191707922 0 -0.0013139554335421986 -0.032250660150692965 0 -0.00097205248319021901 -0.031446034967899487 0 -0.0012214540164574145 -0.031511436281421092 0 -0.0011278967748640869 -0.031424216602644314 0 -0.0012847099590637115 -0.03061358861965937 0 -0.0017027984881399295 -0.03052839614881811 0 -0.0016378094892930432 -0.030691768041647246 0 -0.0017877721148609267 -0.030595894383024819 0 -0.0017027984881399295 -0.03052839614881811 0 -0.0016378094892930432 -0.030691768041647246 0 -0.0019559047455759045 -0.027429070405857632 0 -0.0020329585767302999 -0.027471908288713039 0 -0.0019734640176115354 -0.027511908632781221 0 -0.0018613825626758119 -0.030856342185685705 0 -0.0016378094892930432 -0.030691768041647246 0 -0.0016036433391151341 -0.030869134862825838 0 -0.0021496665513167307 -0.027544173899798702 0 -0.0020329585767302999 -0.027471908288713039 0 -0.002057379042564601 -0.027547763753701705 0 -0.0020329585767302999 -0.027471908288713039 0 -0.002057379042564601 -0.027547763753701705 0 -0.0019734640176115354 -0.027511908632781221 0 -0.002057379042564601 -0.027547763753701705 0 -0.0019734640176115354 -0.027511908632781221 0 -0.0020328326886172293 -0.027618129899095685 0 -0.0019559047455759045 -0.027429070405857632 0 -0.0019734640176115354 -0.027511908632781221 0 -0.0019237698117819779 -0.027473680617713991 0 -0.0019734640176115354 -0.027511908632781221 0 -0.0019237698117819779 -0.027473680617713991 0 -0.0019123773388628959 -0.027511422872910703 0 -0.0019237698117819779 -0.027473680617713991 0 -0.0019123773388628959 -0.027511422872910703 0 -0.0019007508174025754 -0.027469426122037285 0 -0.0019123773388628959 -0.027511422872910703 0 -0.0019060849161247194 -0.027474428150227166 0 -0.0019007508174025754 -0.027469426122037285 0 -0.0018994787296390812 -0.027443758100765943 0 -0.0019237698117819779 -0.027473680617713991 0 -0.0019007508174025754 -0.027469426122037285 0 -0.0019123773388628959 -0.027511422872910703 0 -0.0019426850706637884 -0.02757828212628028 0 -0.0018993639762444423 -0.027411258032135441 0 -0.0019123773388628959 -0.027511422872910703 0 -0.0018993639762444423 -0.027411258032135441 0 -0.0019060849161247194 -0.027474428150227166 0 -0.0019734640176115354 -0.027511908632781221 0 -0.0019123773388628959 -0.027511422872910703 0 -0.0019426850706637884 -0.02757828212628028 0 -0.0019426850706637884 -0.02757828212628028 0 -0.0019459582830753739 -0.027611207911933031 0 -0.0018993639762444423 -0.027411258032135441 0 -0.0019426850706637884 -0.02757828212628028 0 -0.0019880301791190516 -0.027736464923890772 0 -0.0019459582830753739 -0.027611207911933031 0 -0.0019426850706637884 -0.02757828212628028 0 -0.0020328326886172293 -0.027618129899095685 0 -0.0019880301791190516 -0.027736464923890772 0 -0.0019734640176115354 -0.027511908632781221 0 -0.0019426850706637884 -0.02757828212628028 0 -0.0020328326886172293 -0.027618129899095685 0 -0.002057379042564601 -0.027547763753701705 0 -0.0020328326886172293 -0.027618129899095685 0 -0.0021115624862287933 -0.027602478637481741 0 -0.0020328326886172293 -0.027618129899095685 0 -0.0021115624862287933 -0.027602478637481741 0 -0.0021131077374089845 -0.027668034836050407 0 -0.0020328326886172293 -0.027618129899095685 0 -0.0021131077374089845 -0.027668034836050407 0 -0.0020968175659725448 -0.027789618070016432 0 -0.0020328326886172293 -0.027618129899095685 0 -0.0019880301791190516 -0.027736464923890772 0 -0.0020968175659725448 -0.027789618070016432 0 -0.0020284669456219974 -0.028005734474733441 0 -0.0020022133796425861 -0.027878119524221409 0 -0.0019880301791190516 -0.027736464923890772 0 -0.0020284669456219974 -0.028005734474733441 0 -0.0019880301791190516 -0.027736464923890772 0 -0.0020968175659725448 -0.027789618070016432 0 -0.0020284669456219974 -0.028005734474733441 0 -0.0020022133796425861 -0.027878119524221409 0 -0.0020148922644328128 -0.027968045877621212 0 -0.0020022133796425861 -0.027878119524221409 0 -0.0019702539691571173 -0.027751430209138925 0 -0.0019938396093467097 -0.027852981406036297 0 -0.0020022133796425861 -0.027878119524221409 0 -0.0019938396093467097 -0.027852981406036297 0 -0.0020148922644328128 -0.027968045877621212 0 -0.0020022133796425861 -0.027878119524221409 0 -0.0019880301791190516 -0.027736464923890772 0 -0.0019702539691571173 -0.027751430209138925 0 -0.0019880301791190516 -0.027736464923890772 0 -0.0019459582830753739 -0.027611207911933031 0 -0.0019702539691571173 -0.027751430209138925 0 -0.0019459582830753739 -0.027611207911933031 0 -0.0019702539691571173 -0.027751430209138925 0 -0.0019246769352593267 -0.027618949605797419 0 -0.0019702539691571173 -0.027751430209138925 0 -0.0019363856907533513 -0.027739695174240558 0 -0.0019938396093467097 -0.027852981406036297 0 -0.0019702539691571173 -0.027751430209138925 0 -0.0019363856907533513 -0.027739695174240558 0 -0.0019246769352593267 -0.027618949605797419 0 -0.0019363856907533513 -0.027739695174240558 0 -0.0019246769352593267 -0.027618949605797419 0 -0.0018483015780507335 -0.027597379037512103 0 -0.0019363856907533513 -0.027739695174240558 0 -0.0018561131642977128 -0.027750681025817986 0 -0.0018483015780507335 -0.027597379037512103 0 -0.0018993639762444423 -0.027411258032135441 0 -0.0019246769352593267 -0.027618949605797419 0 -0.0018483015780507335 -0.027597379037512103 0 -0.0019459582830753739 -0.027611207911933031 0 -0.0018993639762444423 -0.027411258032135441 0 -0.0019246769352593267 -0.027618949605797419 0 -0.0014926944642199699 -0.032912682605797106 0 -0.0017167459180523286 -0.032871613930752823 0 -0.0014607081838269669 -0.03257607221273582 0 -0.0019371747924233794 -0.031939416643788063 0 -0.0014947758368556872 -0.03079106864869563 0 -0.0014926944642199699 -0.032912682605797106 0 -0.0017167459180523286 -0.032871613930752823 0 -0.0016751198549944998 -0.033086386184823131 0 -0.0014926944642199699 -0.032912682605797106 0 -0.0012854625269577962 -0.03291280747629121 0 -0.0014607081838269669 -0.03257607221273582 0 -0.0010266332919910027 -0.033096670358469908 0 -0.0012854625269577962 -0.03291280747629121 0 -0.0013126984082045812 -0.033194232999537193 0 -0.0014926944642199699 -0.032912682605797106 0 -0.0012854625269577962 -0.03291280747629121 0 -0.0013126984082045812 -0.033194232999537193 0 -0.00096610782021504813 -0.033430100485149591 0 -0.0012008259022282192 -0.033498092356469431 0 -0.0013126984082045812 -0.033194232999537193 0 -0.0016287786398609437 -0.033410062875346973 0 -0.0012008259022282192 -0.033498092356469431 0 -0.0013126984082045812 -0.033194232999537193 0 -0.0016287786398609437 -0.033410062875346973 0 -0.0013126984082045812 -0.033194232999537193 0 -0.0016751198549944998 -0.033086386184823131 0 -0.0017167459180523286 -0.032871613930752823 0 -0.0016751198549944998 -0.033086386184823131 0 -0.0025043002299987519 -0.032992439721809208 0 -0.0014926944642199699 -0.032912682605797106 0 -0.0013126984082045812 -0.033194232999537193 0 -0.0016751198549944998 -0.033086386184823131 0 -0.001623391077860945 -0.032948024371211408 0 -0.0024293159063859967 -0.033410427682589963 0 -0.0016287786398609437 -0.033410062875346973 0 -0.0016751198549944998 -0.033086386184823131 0 -0.001871329525886764 -0.033360058827466094 0 -0.0036881544364844401 -0.033864545376997977 0 -0.0026735947086530833 -0.032988957954706556 0 -0.0033192976027302912 -0.031662257859227223 0 -0.0026735947086530833 -0.032988957954706556 0 -0.0017167459180523286 -0.032871613930752823 0 -0.0025043002299987519 -0.032992439721809208 0 -0.0026186998422016807 -0.032971626754055343 0 -0.0019371747924233794 -0.031939416643788063 0 -0.0026735947086530833 -0.032988957954706556 0 -0.0019713703781121085 -0.030842667654294793 0 -0.0033192976027302912 -0.031662257859227223 0 -0.0022538079759613907 -0.031234114567970987 0 -0.0028095899895761904 -0.029567790104104735 0 -0.0021496665513167307 -0.027544173899798702 0 -0.0022142577487327471 -0.027655652130649955 0 -0.0021115624862287933 -0.027602478637481741 0 -0.0022142577487327471 -0.027655652130649955 0 -0.0021115624862287933 -0.027602478637481741 0 -0.0021131077374089845 -0.027668034836050407 0 -0.0022142577487327471 -0.027655652130649955 0 -0.0021131077374089845 -0.027668034836050407 0 -0.0020968175659725448 -0.027789618070016432 0 -0.0022142577487327471 -0.027655652130649955 0 -0.0020968175659725448 -0.027789618070016432 0 -0.0023005508827768843 -0.027865975996887414 0 -0.0028095899895761904 -0.029567790104104735 0 -0.0025579469315753136 -0.02881911069826475 0 -0.0019713703781121085 -0.030842667654294793 0 -0.0033192976027302912 -0.031662257859227223 0 -0.0028421236309040324 -0.029701026198133511 0 -0.0020968175659725448 -0.027789618070016432 0 -0.0023005508827768843 -0.027865975996887414 0 -0.0021365766395110863 -0.028100883058874766 0 -0.0020284669456219974 -0.028005734474733441 0 -0.0020968175659725448 -0.027789618070016432 0 -0.0021365766395110863 -0.028100883058874766 0 -0.0020284669456219974 -0.028005734474733441 0 -0.0021365766395110863 -0.028100883058874766 0 -0.0019887192460520597 -0.028279082711865026 0 -0.0025579469315753136 -0.02881911069826475 0 -0.0024067723088512516 -0.028445766970289846 0 -0.0023005508827768843 -0.027865975996887414 0 -0.0021365766395110863 -0.028100883058874766 0 -0.0023782338610200213 -0.028436074113650719 0 -0.0021365766395110863 -0.028100883058874766 0 -0.0023782338610200213 -0.028436074113650719 0 -0.0019887192460520597 -0.028279082711865026 0 -0.0023782338610200213 -0.028436074113650719 0 -0.0016441157815543501 -0.029275089701975319 0 -0.0016651051305516535 -0.028605140191448324 0 -0.0019713703781121085 -0.030842667654294793 0 -0.0028421236309040324 -0.029701026198133511 0 -0.0016441157815543501 -0.029275089701975319 0 -0.0028421236309040324 -0.029701026198133511 0 -0.0023782338610200213 -0.028436074113650719 0 -0.0016441157815543501 -0.029275089701975319 0 -0.0011151367555099435 -0.032707654308414866 0 -0.0014607081838269669 -0.03257607221273582 0 -0.0012327278315590283 -0.032171766783090187 0 -0.0011151367555099435 -0.032707654308414866 0 -0.0012854625269577962 -0.03291280747629121 0 -0.0014607081838269669 -0.03257607221273582 0 -0.0014947758368556872 -0.03079106864869563 0 -0.0016381573633942304 -0.031227281251426091 0 -0.0016381573633942304 -0.031227281251426091 0 -0.0021661281659609518 -0.029055129401509283 0 -0.0015208526643112957 -0.030533157371279263 0 -0.0019209893150362951 -0.030081425034788584 0 -0.0012664430675901654 -0.030126345333337495 0 -0.0019209893150362951 -0.030081425034788584 0 -0.0014803091899372109 -0.029796664082762825 0 -0.0012664430675901654 -0.030126345333337495 0 -0.0019209893150362951 -0.030081425034788584 0 -0.0014803091899372109 -0.029796664082762825 0 -0.0019389737926721949 -0.029508641380232674 0 -0.0021661281659609518 -0.029055129401509283 0 -0.002198190312961978 -0.029350307802583749 0 -0.0019209893150362951 -0.030081425034788584 0 -0.0023178699158971322 -0.029243922689395793 0 -0.0019389737926721949 -0.029508641380232674 0 -0.0023782338610200213 -0.028436074113650719 0 -0.0022776343917563376 -0.028468253763076393 0 -0.0022672778450598921 -0.028645331643436103 0 -0.0023782338610200213 -0.028436074113650719 0 -0.0016651051305516535 -0.028605140191448324 0 -0.0022776343917563376 -0.028468253763076393 0 -0.0023782338610200213 -0.028436074113650719 0 -0.0019887192460520597 -0.028279082711865026 0 -0.0022672778450598921 -0.028645331643436103 0 -0.0020401772347155185 -0.02861533871280756 0 -0.0019241684745756812 -0.027863187788573853 0 -0.0019887192460520597 -0.028279082711865026 0 -0.0020171138477523835 -0.028092076986543108 0 -0.0019835019251178512 -0.02797447596667416 0 -0.0019887192460520597 -0.028279082711865026 0 -0.0017984874955933598 -0.02791746668773569 0 -0.0019835019251178512 -0.02797447596667416 0 -0.0022776343917563376 -0.028468253763076393 0 -0.0022672778450598921 -0.028645331643436103 0 -0.0023178699158971322 -0.029243922689395793 0 -0.0022672778450598921 -0.028645331643436103 0 -0.0023178699158971322 -0.029243922689395793 0 -0.0022165981490880151 -0.029301048659616111 0 -0.0019887192460520597 -0.028279082711865026 0 -0.0022672778450598921 -0.028645331643436103 0 -0.0022165981490880151 -0.029301048659616111 0 -0.0023178699158971322 -0.029243922689395793 0 -0.0022165981490880151 -0.029301048659616111 0 -0.0021876515479896962 -0.029222475841098196 0 -0.0019241684745756812 -0.027863187788573853 0 -0.001661249323783921 -0.026871407084631337 0 -0.0017984874955933598 -0.02791746668773569 0 -0.0019835019251178512 -0.02797447596667416 0 -0.0019388842271712713 -0.027796287531769132 0 -0.0017098890483274449 -0.025921847897809845 0 -0.0015797663423419747 -0.026364857788630233 0 -0.0012823050055149976 -0.026274864277204501 0 -0.0015797663423419747 -0.026364857788630233 0 -0.0012823050055149976 -0.026274864277204501 0 -0.0014080741862491412 -0.026702014408085058 0 -0.0022165981490880151 -0.029301048659616111 0 -0.0021876515479896962 -0.029222475841098196 0 -0.0024295809992327358 -0.028776014550090802 0 -0.0017098890483274449 -0.025921847897809845 0 -0.0015797663423419747 -0.026364857788630233 0 -0.0019295891935343559 -0.026543055622427481 0 -0.0019241684745756812 -0.027863187788573853 0 -0.0021536086513137967 -0.027583334912778121 0 -0.0016881910656874586 -0.029298484852275496 0 -0.0021876515479896962 -0.029222475841098196 0 -0.0017545191732391396 -0.02878307140542341 0 -0.0021876515479896962 -0.029222475841098196 0 -0.0017545191732391396 -0.02878307140542341 0 -0.0024295809992327358 -0.028776014550090802 0 -0.0014243774454842076 -0.029099332081316324 0 -0.0016881910656874586 -0.029298484852275496 0 -0.0017545191732391396 -0.02878307140542341 0 -0.0014243774454842076 -0.029099332081316324 0 -0.0017545191732391396 -0.02878307140542341 0 -0.00127100314726928 -0.028740979998273714 0 -0.0014243774454842076 -0.029099332081316324 0 -0.0016881910656874586 -0.029298484852275496 0 -0.0013342873989932993 -0.029568125752323947 0 -0.0016881910656874586 -0.029298484852275496 0 -0.0014803091899372109 -0.029796664082762825 0 -0.0019389737926721949 -0.029508641380232674 0 -0.0016881910656874586 -0.029298484852275496 0 -0.0014803091899372109 -0.029796664082762825 0 -0.0013342873989932993 -0.029568125752323947 0 -0.0016881910656874586 -0.029298484852275496 0 -0.0019389737926721949 -0.029508641380232674 0 -0.0021876515479896962 -0.029222475841098196 0 -0.0023178699158971322 -0.029243922689395793 0 -0.0019389737926721949 -0.029508641380232674 0 -0.0021876515479896962 -0.029222475841098196 0 -0.002151144940070166 -0.027911675425041492 0 -0.0020504935593689448 -0.027908362279247034 0 -0.0021437334538026926 -0.027820544551150433 0 -0.0019108699868727499 -0.027903276678882101 0 -0.0018561131642977128 -0.027750681025817986 0 -0.0019661777452826016 -0.027850820970706243 0 -0.0019363856907533513 -0.027739695174240558 0 -0.0018561131642977128 -0.027750681025817986 0 -0.0019661777452826016 -0.027850820970706243 0 -0.0019654503453479803 -0.025481942393678906 0 -0.0014077200151565549 -0.027803081778992052 0 -0.0019363856907533513 -0.027739695174240558 0 -0.0019661777452826016 -0.027850820970706243 0 -0.0019938396093467097 -0.027852981406036297 0 -0.0019661777452826016 -0.027850820970706243 0 -0.0019938396093467097 -0.027852981406036297 0 -0.0020220865886001966 -0.027911858206583616 0 -0.0019430578754445712 -0.027877121647510855 0 -0.0019661777452826016 -0.027850820970706243 0 -0.0020504935593689448 -0.027908362279247034 0 -0.0019661777452826016 -0.027850820970706243 0 -0.0020220865886001966 -0.027911858206583616 0 -0.0020504935593689448 -0.027908362279247034 0 -0.0019654503453479803 -0.025481942393678906 0 -0.0023599915080505778 -0.028192960995988833 0 -0.0020220865886001966 -0.027911858206583616 0 -0.0020504935593689448 -0.027908362279247034 0 -0.0020341903159752516 -0.027953846210642026 0 -0.0020220865886001966 -0.027911858206583616 0 -0.0020341903159752516 -0.027953846210642026 0 -0.0020148922644328128 -0.027968045877621212 0 -0.0019938396093467097 -0.027852981406036297 0 -0.0020220865886001966 -0.027911858206583616 0 -0.0020148922644328128 -0.027968045877621212 0 -0.0020341903159752516 -0.027953846210642026 0 -0.0020148922644328128 -0.027968045877621212 0 -0.0020171138477523835 -0.028092076986543108 0 -0.0020284669456219974 -0.028005734474733441 0 -0.0019887192460520597 -0.028279082711865026 0 -0.0020171138477523835 -0.028092076986543108 0 -0.0020284669456219974 -0.028005734474733441 0 -0.0020148922644328128 -0.027968045877621212 0 -0.0020171138477523835 -0.028092076986543108 0 -0.0020341903159752516 -0.027953846210642026 0 -0.0020171138477523835 -0.028092076986543108 0 -0.0019835019251178512 -0.02797447596667416 0 -0.0020341903159752516 -0.027953846210642026 0 -0.0019835019251178512 -0.02797447596667416 0 -0.0020038487915389307 -0.027872791597731216 0 -0.0019835019251178512 -0.02797447596667416 0 -0.0020038487915389307 -0.027872791597731216 0 -0.0019388842271712713 -0.027796287531769132 0 -0.0020038487915389307 -0.027872791597731216 0 -0.0019388842271712713 -0.027796287531769132 0 -0.0020285014206207468 -0.027787085948593398 0 -0.001661249323783921 -0.026871407084631337 0 -0.0013390260210297828 -0.027341799312527563 0 -0.0019388842271712713 -0.027796287531769132 0 -0.0020285014206207468 -0.027787085948593398 0 -0.0020034783766939802 -0.027700182288493611 0 -0.0020285014206207468 -0.027787085948593398 0 -0.0020461303935840848 -0.027855327952665258 0 -0.0020945442404914538 -0.027786538063933976 0 -0.0020504935593689448 -0.027908362279247034 0 -0.0020341903159752516 -0.027953846210642026 0 -0.0020461303935840848 -0.027855327952665258 0 -0.0020341903159752516 -0.027953846210642026 0 -0.0020038487915389307 -0.027872791597731216 0 -0.0020461303935840848 -0.027855327952665258 0 -0.0020038487915389307 -0.027872791597731216 0 -0.0020285014206207468 -0.027787085948593398 0 -0.0020461303935840848 -0.027855327952665258 0 -0.0020504935593689448 -0.027908362279247034 0 -0.0020945442404914538 -0.027786538063933976 0 -0.0021437334538026926 -0.027820544551150433 0 -0.0020504935593689448 -0.027908362279247034 0 -0.0020461303935840848 -0.027855327952665258 0 -0.0020945442404914538 -0.027786538063933976 0 -0.0020285014206207468 -0.027787085948593398 0 -0.0020945442404914538 -0.027786538063933976 0 -0.0020825335384851342 -0.027701889702761683 0 -0.0020945442404914538 -0.027786538063933976 0 -0.0021587432554015097 -0.027708291152043856 0 -0.0020825335384851342 -0.027701889702761683 0 -0.0020945442404914538 -0.027786538063933976 0 -0.0021587432554015097 -0.027708291152043856 0 -0.0021437334538026926 -0.027820544551150433 0 -0.0021587432554015097 -0.027708291152043856 0 -0.0021437334538026926 -0.027820544551150433 0 -0.0022279225738537833 -0.027787486651640769 0 -0.002151144940070166 -0.027911675425041492 0 -0.0021437334538026926 -0.027820544551150433 0 -0.0022279225738537833 -0.027787486651640769 0 -0.0019267886670870909 -0.024182790024181416 0 -0.0026957696356287629 -0.023858538777176988 0 -0.0016479787109355774 -0.024870895911208384 0 -0.0019267886670870909 -0.024182790024181416 0 -0.0017486071038285277 -0.023774094828064623 0 -0.0026957696356287629 -0.023858538777176988 0 -0.0016355446760590374 -0.024263047052829133 0 -0.0017486071038285277 -0.023774094828064623 0 -0.00099370775333568434 -0.02386649038063314 0 -0.0016355446760590374 -0.024263047052829133 0 -0.0019267886670870909 -0.024182790024181416 0 -0.0017486071038285277 -0.023774094828064623 0 -0.0016355446760590374 -0.024263047052829133 0 -0.0019267886670870909 -0.024182790024181416 0 -0.0016479787109355774 -0.024870895911208384 0 -0.0017270719009219249 -0.022745990101891753 0 -0.0017486071038285277 -0.023774094828064623 0 -0.0026957696356287629 -0.023858538777176988 0 -0.0017270719009219249 -0.022745990101891753 0 -0.0017486071038285277 -0.023774094828064623 0 -0.0012838608357830963 -0.02339919264853059 0 -0.0020829773557782196 -0.025510076515032988 0 -0.0019096500600003417 -0.02562777075096587 0 -0.0021587432554015097 -0.027708291152043856 0 -0.0020825335384851342 -0.027701889702761683 0 -0.0020868812857100876 -0.027596619450455939 0 -0.0020825335384851342 -0.027701889702761683 0 -0.0020868812857100876 -0.027596619450455939 0 -0.0020034783766939802 -0.027700182288493611 0 -0.0012336985992032626 -0.026062426419479458 0 -0.0013470290078915021 -0.02529702469354984 0 -0.0016479787109355774 -0.024870895911208384 0 -0.0019096500600003417 -0.02562777075096587 0 -0.0017440737558209584 -0.024749690063274314 0 -0.0012336985992032626 -0.026062426419479458 0 -0.0010510545819434134 -0.025884572256771893 0 -0.00094045926323225158 -0.026317926135101997 0 -0.0012336985992032626 -0.026062426419479458 0 -0.0011886277752006121 -0.025713202223772599 0 -0.0013470290078915021 -0.02529702469354984 0 -0.0011886277752006121 -0.025713202223772599 0 -0.0010510545819434134 -0.025884572256771893 0 -0.0010788312382213608 -0.025467245509843632 0 -0.0012336985992032626 -0.026062426419479458 0 -0.0011886277752006121 -0.025713202223772599 0 -0.0010510545819434134 -0.025884572256771893 0 -0.0010510545819434134 -0.025884572256771893 0 -0.00045439791178501641 -0.025513932681793357 0 -0.0010788312382213608 -0.025467245509843632 0 -0.0010510545819434134 -0.025884572256771893 0 -0.00094045926323225158 -0.026317926135101997 0 -0.00045439791178501641 -0.025513932681793357 0 -0.00088191070572470704 -0.026297610615979058 0 -0.00078364447705204208 -0.026216601789577246 0 -0.00094045926323225158 -0.026317926135101997 0 -0.0010603893878078727 -0.026721547795619867 0 -0.00099257204361359336 -0.026808618742103572 0 -0.00094045926323225158 -0.026317926135101997 0 -0.00098282154242143333 -0.026555295843904654 0 -0.0010603893878078727 -0.026721547795619867 0 -0.0019096500600003417 -0.02562777075096587 0 -0.0013390260210297828 -0.027341799312527563 0 -0.0012336985992032626 -0.026062426419479458 0 -0.00094045926323225158 -0.026317926135101997 0 -0.00090824854548263168 -0.026583399621601254 0 -0.0020285014206207468 -0.027787085948593398 0 -0.0020825335384851342 -0.027701889702761683 0 -0.0020034783766939802 -0.027700182288493611 0 -0.00094045926323225158 -0.026317926135101997 0 -0.00090824854548263168 -0.026583399621601254 0 -0.00098282154242143333 -0.026555295843904654 0 -0.00090824854548263168 -0.026583399621601254 0 -0.00098282154242143333 -0.026555295843904654 0 -0.0011339563682524528 -0.026625648010614827 0 -0.0012823050055149976 -0.026274864277204501 0 -0.00090824854548263168 -0.026583399621601254 0 -0.0011339563682524528 -0.026625648010614827 0 -0.0011339563682524528 -0.026625648010614827 0 -0.0010603893878078727 -0.026721547795619867 0 -0.0014080741862491412 -0.026702014408085058 0 -0.0012823050055149976 -0.026274864277204501 0 -0.0011339563682524528 -0.026625648010614827 0 -0.0014080741862491412 -0.026702014408085058 0 -0.0010603893878078727 -0.026721547795619867 0 -0.0011458915699138173 -0.026833986572124588 0 -0.001310460724054843 -0.026837207541411504 0 -0.00098282154242143333 -0.026555295843904654 0 -0.0011339563682524528 -0.026625648010614827 0 -0.0010603893878078727 -0.026721547795619867 0 -0.0010603893878078727 -0.026721547795619867 0 -0.0011458915699138173 -0.026833986572124588 0 -0.00099257204361359336 -0.026808618742103572 0 -0.0011458915699138173 -0.026833986572124588 0 -0.0010937385812628576 -0.026942585985358692 0 -0.0012667928786040052 -0.026871249555190498 0 -0.0011458915699138173 -0.026833986572124588 0 -0.0010937385812628576 -0.026942585985358692 0 -0.00099257204361359336 -0.026808618742103572 0 -0.00071793355070108285 -0.025383635899029772 0 -0.00078364447705204208 -0.026216601789577246 0 -0.00071793355070108285 -0.025383635899029772 0 -0.0013366261636861387 -0.02538284436150854 0 -0.0001586294933747974 -0.022682084996198261 0 0.0002860199030421384 -0.0233740393604309 0 -0.0010776453306809957 -0.024291162052799454 0 -0.0001586294933747974 -0.022682084996198261 0 0.0006589005771042366 -0.023097275748272125 0 0.00091939286775404158 -0.022670541064247055 0 -0.0001586294933747974 -0.022682084996198261 0 0.0002860199030421384 -0.0233740393604309 0 0.0006589005771042366 -0.023097275748272125 0 0.0002860199030421384 -0.0233740393604309 0 0.0006589005771042366 -0.023097275748272125 0 0.0006175198123154151 -0.023351795749690377 0 0.0006589005771042366 -0.023097275748272125 0 0.0008863367249295033 -0.023243672718528681 0 0.0006175198123154151 -0.023351795749690377 0 -0.00045439791178501641 -0.025513932681793357 0 -0.0010788312382213608 -0.025467245509843632 0 -0.0011822369898068161 -0.025018847953408016 0 -0.00071793355070108285 -0.025383635899029772 0 -9.262972940231068e-07 -0.023655384613867163 0 -0.00014389415055115291 -0.024877370958245205 0 -0.00045439791178501641 -0.025513932681793357 0 -0.0011822369898068161 -0.025018847953408016 0 -0.0013470290078915021 -0.02529702469354984 0 -0.0011822369898068161 -0.025018847953408016 0 -0.0016479787109355774 -0.024870895911208384 0 -0.0011886277752006121 -0.025713202223772599 0 -0.0010788312382213608 -0.025467245509843632 0 -0.0013470290078915021 -0.02529702469354984 0 -0.0010788312382213608 -0.025467245509843632 0 -0.0013470290078915021 -0.02529702469354984 0 -0.0011822369898068161 -0.025018847953408016 0 0.00091939286775404158 -0.022670541064247055 0 0.0012380827180938025 -0.02291783644963169 0 0.0014523304725356282 -0.022804706722169176 0 0.0006589005771042366 -0.023097275748272125 0 0.00091939286775404158 -0.022670541064247055 0 0.00098213659815936166 -0.023021805183668132 0 0.0006589005771042366 -0.023097275748272125 0 0.0008863367249295033 -0.023243672718528681 0 0.00098213659815936166 -0.023021805183668132 0 0.0008863367249295033 -0.023243672718528681 0 0.00098213659815936166 -0.023021805183668132 0 0.0011822289646044363 -0.023152830105836339 0 0.00098213659815936166 -0.023021805183668132 0 0.0011822289646044363 -0.023152830105836339 0 0.0012380827180938025 -0.02291783644963169 0 0.00091939286775404158 -0.022670541064247055 0 0.00098213659815936166 -0.023021805183668132 0 0.0012380827180938025 -0.02291783644963169 0 0.0012380827180938025 -0.02291783644963169 0 0.0014390053383717852 -0.022993573850317129 0 0.0014523304725356282 -0.022804706722169176 0 0.0011822289646044363 -0.023152830105836339 0 0.0012380827180938025 -0.02291783644963169 0 0.0014390053383717852 -0.022993573850317129 0 0.0011822289646044363 -0.023152830105836339 0 0.0014390053383717852 -0.022993573850317129 0 0.0016091393062360926 -0.023245596528161085 0 0.0014390053383717852 -0.022993573850317129 0 0.0016744466475963461 -0.022870895009831253 0 0.0016091393062360926 -0.023245596528161085 0 0.0014523304725356282 -0.022804706722169176 0 0.001635836665459985 -0.02274918751649057 0 0.0016744466475963461 -0.022870895009831253 0 0.0014390053383717852 -0.022993573850317129 0 0.0014523304725356282 -0.022804706722169176 0 0.0016744466475963461 -0.022870895009831253 0 -9.262972940231068e-07 -0.023655384613867163 0 -3.6384260484233144e-05 -0.023756887032305926 0 0.00091939286775404158 -0.022670541064247055 0 0.0014523304725356282 -0.022804706722169176 0 0.0015889375526996587 -0.022608395146409485 0 0.0014523304725356282 -0.022804706722169176 0 0.0015889375526996587 -0.022608395146409485 0 0.001635836665459985 -0.02274918751649057 0 -0.0011822369898068161 -0.025018847953408016 0 -0.0016193460806621957 -0.024850722790440101 0 -0.0016479787109355774 -0.024870895911208384 0 -0.0016355446760590374 -0.024263047052829133 0 -0.0016479787109355774 -0.024870895911208384 0 -0.0013270771268448216 -0.024386782423453053 0 -0.0016193460806621957 -0.024850722790440101 0 -0.0016479787109355774 -0.024870895911208384 0 -0.0013270771268448216 -0.024386782423453053 0 -0.0021040584000980608 -0.027461300924232167 0 -0.0019041414250294062 -0.027650922381221976 0 -0.0020987607484063016 -0.027473588458810608 0 -0.0018161819837412233 -0.028051448086073474 0 -0.0021040584000980608 -0.027461300924232167 0 -0.0019041414250294062 -0.027650922381221976 0 -0.0018161819837412233 -0.028051448086073474 0 -0.0019041414250294062 -0.027650922381221976 0 -0.0014520379140624512 -0.027646235452857316 0 -0.0018161819837412233 -0.028051448086073474 0 -0.0014520379140624512 -0.027646235452857316 0 -0.0013477117566829508 -0.028231273713042442 0 -0.0018161819837412233 -0.028051448086073474 0 -0.0013477117566829508 -0.028231273713042442 0 -0.0017545191732391396 -0.02878307140542341 0 -0.0013477117566829508 -0.028231273713042442 0 -0.0017545191732391396 -0.02878307140542341 0 -0.00127100314726928 -0.028740979998273714 0 -0.0018161819837412233 -0.028051448086073474 0 -0.0017545191732391396 -0.02878307140542341 0 -0.0024295809992327358 -0.028776014550090802 0 -0.0018161819837412233 -0.028051448086073474 0 -0.0021040584000980608 -0.027461300924232167 0 -0.0024295809992327358 -0.028776014550090802 0 -0.0021160472785990707 -0.027491100960964427 0 -0.0021536086513137967 -0.027583334912778121 0 -0.0015797663423419747 -0.026364857788630233 0 -0.0019295891935343559 -0.026543055622427481 0 -0.0014080741862491412 -0.026702014408085058 0 -0.0019295891935343559 -0.026543055622427481 0 -0.0014080741862491412 -0.026702014408085058 0 -0.0016921347102411305 -0.027338529324800565 0 -0.0010974767616767586 -0.02677830594496616 0 -0.0015065453564607537 -0.027068377893812758 0 -0.0010603893878078727 -0.026721547795619867 0 -0.0014080741862491412 -0.026702014408085058 0 -0.0016921347102411305 -0.027338529324800565 0 -0.0021040584000980608 -0.027461300924232167 0 -0.0019295891935343559 -0.026543055622427481 0 -0.0016921347102411305 -0.027338529324800565 0 -0.0021040584000980608 -0.027461300924232167 0 -0.0016921347102411305 -0.027338529324800565 0 -0.0020987607484063016 -0.027473588458810608 0 -0.0015065453564607537 -0.027068377893812758 0 -0.0016333238390932878 -0.02721444588095849 0 -0.001310460724054843 -0.026837207541411504 0 -0.001306957694773401 -0.026896458703061663 0 -0.0012667928786040052 -0.026871249555190498 0 -0.001306957694773401 -0.026896458703061663 0 -0.0012667928786040052 -0.026871249555190498 0 -0.0013487655582870481 -0.026878193428228645 0 -0.001310460724054843 -0.026837207541411504 0 -0.001306957694773401 -0.026896458703061663 0 -0.0012520291756007709 -0.026963727794621382 0 -0.0011458915699138173 -0.026833986572124588 0 -0.001310460724054843 -0.026837207541411504 0 -0.0012667928786040052 -0.026871249555190498 0 -0.0010937385812628576 -0.026942585985358692 0 -0.0012667928786040052 -0.026871249555190498 0 -0.0013487655582870481 -0.026878193428228645 0 -0.0018046501153697115 -0.026925427930116271 0 -0.0013487655582870481 -0.026878193428228645 0 -0.0016704205097852738 -0.026628767963268619 0 -0.00071793355070108285 -0.025383635899029772 0 -0.0016961784608376966 -0.027317784358508013 0 -0.0013487655582870481 -0.026878193428228645 0 -0.0012130745907114116 -0.02684747483367643 0 -0.001346352035398603 -0.026618249625561613 0 -0.001306957694773401 -0.026896458703061663 0 -0.0013487655582870481 -0.026878193428228645 0 -0.0012130745907114116 -0.02684747483367643 0 -0.0012130745907114116 -0.02684747483367643 0 -0.0011240713856294231 -0.026833030411670223 0 -0.0011832158002033576 -0.026701295146993095 0 -0.001306957694773401 -0.026896458703061663 0 -0.0012130745907114116 -0.02684747483367643 0 -0.0012520291756007709 -0.026963727794621382 0 -0.0012130745907114116 -0.02684747483367643 0 -0.0012520291756007709 -0.026963727794621382 0 -0.0011742941734020909 -0.026916307954044327 0 -0.0012520291756007709 -0.026963727794621382 0 -0.0011248054963485501 -0.026971886563983347 0 -0.0009414747572865208 -0.027140563427096091 0 -0.0014520379140624512 -0.027646235452857316 0 -0.0020987607484063016 -0.027473588458810608 0 -0.0009414747572865208 -0.027140563427096091 0 -0.0019041414250294062 -0.027650922381221976 0 -0.0014520379140624512 -0.027646235452857316 0 -0.0020987607484063016 -0.027473588458810608 0 -0.0016333238390932878 -0.02721444588095849 0 -0.00097803435061260082 -0.027131210847851354 0 -0.0012520291756007709 -0.026963727794621382 0 -0.0011248054963485501 -0.026971886563983347 0 -0.0011742941734020909 -0.026916307954044327 0 -0.0011248054963485501 -0.026971886563983347 0 -0.0011240713856294231 -0.026833030411670223 0 -0.0009414747572865208 -0.027140563427096091 0 -0.0012130745907114116 -0.02684747483367643 0 -0.0011742941734020909 -0.026916307954044327 0 -0.0011240713856294231 -0.026833030411670223 0 -0.0011248054963485501 -0.026971886563983347 0 -0.0011742941734020909 -0.026916307954044327 0 -0.0011240713856294231 -0.026833030411670223 0 -0.00073844888917197525 -0.027271158293112892 0 -0.0003377157822469019 -0.027374913822676945 0 -0.00043818791641201836 -0.027114096655472934 0 -0.00073844888917197525 -0.027271158293112892 0 -0.0003377157822469019 -0.027374913822676945 0 -0.00026276951879393445 -0.027749759723093112 0 -0.0009301200103901101 -0.027046311863046898 0 -0.00048978580740572492 -0.027527169515001514 0 -0.0003377157822469019 -0.027374913822676945 0 -0.00018775212495516832 -0.027245366648633078 0 -0.00043818791641201836 -0.027114096655472934 0 -0.00018775212495516832 -0.027245366648633078 0 6.7983494428352391e-06 -0.027514307273337785 0 8.2389907603264679e-05 -0.027175172087749853 0 -0.0003377157822469019 -0.027374913822676945 0 -0.00018775212495516832 -0.027245366648633078 0 6.7983494428352391e-06 -0.027514307273337785 0 6.7983494428352391e-06 -0.027514307273337785 0 -0.00026276951879393445 -0.027749759723093112 0 0.0001872968772053212 -0.027754243058113227 0 -0.00026276951879393445 -0.027749759723093112 0 0.00014800503895841287 -0.028158943222128054 0 0.0001872968772053212 -0.027754243058113227 0 -0.0003377157822469019 -0.027374913822676945 0 6.7983494428352391e-06 -0.027514307273337785 0 -0.00026276951879393445 -0.027749759723093112 0 -0.0011240713856294231 -0.026833030411670223 0 -0.0009414747572865208 -0.027140563427096091 0 -0.0007409055491180461 -0.027280753326706712 0 -0.0007409055491180461 -0.027280753326706712 0 -0.0010015761039191314 -0.027495268348050387 0 -0.00095819957740881658 -0.027884367386128019 0 -0.0009414747572865208 -0.027140563427096091 0 -0.0007409055491180461 -0.027280753326706712 0 -0.0010015761039191314 -0.027495268348050387 0 -0.0014520379140624512 -0.027646235452857316 0 -0.0009414747572865208 -0.027140563427096091 0 -0.0010015761039191314 -0.027495268348050387 0 -0.0014520379140624512 -0.027646235452857316 0 -0.0010015761039191314 -0.027495268348050387 0 -0.00095819957740881658 -0.027884367386128019 0 -0.0014520379140624512 -0.027646235452857316 0 -0.0013477117566829508 -0.028231273713042442 0 -0.00095819957740881658 -0.027884367386128019 0 -0.0013477117566829508 -0.028231273713042442 0 -0.00095819957740881658 -0.027884367386128019 0 -0.00083307213317744609 -0.028505835521986381 0 -0.0007409055491180461 -0.027280753326706712 0 -0.00095819957740881658 -0.027884367386128019 0 0.00014800503895841287 -0.028158943222128054 0 -0.00095819957740881658 -0.027884367386128019 0 -0.00083307213317744609 -0.028505835521986381 0 0.00014800503895841287 -0.028158943222128054 0 -0.00048978580740572492 -0.027527169515001514 0 0.00011311762548763339 -0.028115004327134895 0 -0.00083307213317744609 -0.028505835521986381 0 0.00014800503895841287 -0.028158943222128054 0 -0.00046286779666851777 -0.029006020362864361 0 -0.00127100314726928 -0.028740979998273714 0 -0.00083307213317744609 -0.028505835521986381 0 -0.0010702538559562778 -0.029125890776770622 0 -0.00083307213317744609 -0.028505835521986381 0 -0.0010702538559562778 -0.029125890776770622 0 -0.00046286779666851777 -0.029006020362864361 0 -0.0013477117566829508 -0.028231273713042442 0 -0.00127100314726928 -0.028740979998273714 0 -0.00083307213317744609 -0.028505835521986381 0 0.00078604834915848047 -0.028635966175030936 0 0.00014800503895841287 -0.028158943222128054 0 0.00024386561273010812 -0.029066810357580533 0 0.00014800503895841287 -0.028158943222128054 0 -0.00046286779666851777 -0.029006020362864361 0 0.00024386561273010812 -0.029066810357580533 0 0.00014800503895841287 -0.028158943222128054 0 0.00072113508886051132 -0.027873309096005192 0 0.0001872968772053212 -0.027754243058113227 0 0.00078604834915848047 -0.028635966175030936 0 0.00072113508886051132 -0.027873309096005192 0 0.0012150912661132223 -0.028243885476596845 0 0.00078604834915848047 -0.028635966175030936 0 0.00014800503895841287 -0.028158943222128054 0 0.00072113508886051132 -0.027873309096005192 0 0.00072113508886051132 -0.027873309096005192 0 0.0001872968772053212 -0.027754243058113227 0 0.00040023985110048803 -0.027479893485808825 0 6.7983494428352391e-06 -0.027514307273337785 0 0.0001872968772053212 -0.027754243058113227 0 0.00040023985110048803 -0.027479893485808825 0 0.00040023985110048803 -0.027479893485808825 0 8.2389907603264679e-05 -0.027175172087749853 0 0.00050902116560006168 -0.026991496869809454 0 6.7983494428352391e-06 -0.027514307273337785 0 0.00040023985110048803 -0.027479893485808825 0 8.2389907603264679e-05 -0.027175172087749853 0 0.00040023985110048803 -0.027479893485808825 0 0.00084164166376897605 -0.027342363821893374 0 0.00050902116560006168 -0.026991496869809454 0 0.00072113508886051132 -0.027873309096005192 0 0.00040023985110048803 -0.027479893485808825 0 0.00084164166376897605 -0.027342363821893374 0 0.00084164166376897605 -0.027342363821893374 0 0.0011458416368391709 -0.027650338517418948 0 0.0012736864778652042 -0.027212158886379553 0 0.0015723248366342933 -0.027539263836564784 0 0.0011458416368391709 -0.027650338517418948 0 0.0012736864778652042 -0.027212158886379553 0 0.0015723248366342933 -0.027539263836564784 0 0.0015780376315642692 -0.027261092502630559 0 0.0012736864778652042 -0.027212158886379553 0 0.0015723248366342933 -0.027539263836564784 0 0.0014506561517534002 -0.027767659026852402 0 0.0011458416368391709 -0.027650338517418948 0 0.0014506561517534002 -0.027767659026852402 0 0.0011458416368391709 -0.027650338517418948 0 0.0014615047146718078 -0.028039901544719328 0 0.0015723248366342933 -0.027539263836564784 0 0.0014506561517534002 -0.027767659026852402 0 0.0016951164215290397 -0.027904933281726635 0 0.0014506561517534002 -0.027767659026852402 0 0.0016951164215290397 -0.027904933281726635 0 0.0014615047146718078 -0.028039901544719328 0 0.0011458416368391709 -0.027650338517418948 0 0.0012150912661132223 -0.028243885476596845 0 0.0014615047146718078 -0.028039901544719328 0 0.00072113508886051132 -0.027873309096005192 0 0.0011458416368391709 -0.027650338517418948 0 0.0012150912661132223 -0.028243885476596845 0 0.00072113508886051132 -0.027873309096005192 0 0.00084164166376897605 -0.027342363821893374 0 0.0011458416368391709 -0.027650338517418948 0 3.733388760329683e-07 -0.034997073538516117 0 3.8729326529655833e-09 -0.03499768023393094 0 -4.1818884897469506e-09 -0.03499999109191225 0 0.0025641102443014212 -0.029887167476141913 0 0.0026454806788986079 -0.02964800211422745 0 0.0022341826175590741 -0.028164538273730541 0 0.00083100060690960637 -0.032542941093934755 0 0.00068121338316355835 -0.033048890257363135 0 0.00070428285301384552 -0.031758872894202629 0 0.00081914660056737272 -0.031384724803783119 0 0.0010644272552326845 -0.032431896666458675 0 0.0015409624500623573 -0.029971818274178445 0 0.00061001430157365828 -0.033064951458238005 0 0.00070428285301384552 -0.031758872894202629 0 0.0010644272552326845 -0.032431896666458675 0 0.00089783653346733839 -0.032583990246068097 0 0.0015409624500623573 -0.029971818274178445 0 0.00083100060690960637 -0.032542941093934755 0 0.00083100060690960637 -0.032542941093934755 0 1.6810932069396653e-07 -0.034999669013116116 0 0.0020256345319449157 -0.02749583152385407 0 0.0018111013888525375 -0.027353165061583817 0 0.0020365737780704855 -0.027293933706711015 0 0.002264339193551785 -0.027577286444537281 0 0.0020256345319449157 -0.02749583152385407 0 0.0020365737780704855 -0.027293933706711015 0 0.002264339193551785 -0.027577286444537281 0 0.0020256345319449157 -0.02749583152385407 0 0.0020925174397419758 -0.027718240511859334 0 0.0020256345319449157 -0.02749583152385407 0 0.0020925174397419758 -0.027718240511859334 0 0.0019014696527834235 -0.027565580001906197 0 0.0020256345319449157 -0.02749583152385407 0 0.0019014696527834235 -0.027565580001906197 0 0.0018111013888525375 -0.027353165061583817 0 0.0015723248366342933 -0.027539263836564784 0 0.0018111013888525375 -0.027353165061583817 0 0.0015780376315642692 -0.027261092502630559 0 0.0015723248366342933 -0.027539263836564784 0 0.0019014696527834235 -0.027565580001906197 0 0.0018111013888525375 -0.027353165061583817 0 0.0015723248366342933 -0.027539263836564784 0 0.0019014696527834235 -0.027565580001906197 0 0.0018162286887160053 -0.027733787969624061 0 0.0019014696527834235 -0.027565580001906197 0 0.0018162286887160053 -0.027733787969624061 0 0.0020854907225143983 -0.027917592165565035 0 0.0016951164215290397 -0.027904933281726635 0 0.0018162286887160053 -0.027733787969624061 0 0.0020854907225143983 -0.027917592165565035 0 0.0015723248366342933 -0.027539263836564784 0 0.0016951164215290397 -0.027904933281726635 0 0.0018162286887160053 -0.027733787969624061 0 0.0020925174397419758 -0.027718240511859334 0 0.0019014696527834235 -0.027565580001906197 0 0.0020626935675949936 -0.028035624914980909 0 0.0017009916177891779 -0.027111624392272559 0 0.0015496618837555424 -0.030015245796890758 0 0.0020925174397419758 -0.027718240511859334 0 0.0020626935675949936 -0.028035624914980909 0 0.0021625073605282502 -0.027947697093456972 0 0.0011045554775795325 -0.032873069624552581 0 0.0015496618837555424 -0.030015245796890758 0 0.0012376924104664446 -0.031114830424343713 0 0.001224994111406662 -0.031087299961605936 0 0.0012489810609805448 -0.031061752089655767 0 0.0011045554775795325 -0.032873069624552581 0 0.0011826702725626506 -0.031260113678607759 0 0.0015496618837555424 -0.030015245796890758 0 0.0011826702725626506 -0.031260113678607759 0 1.0974778771257825e-06 -0.034992430749001276 0 2.6776225829309593e-08 -0.034999924579632941 0 -2.1865434475958855e-06 -0.034986296254771863 0 1.0592152763890874e-06 -0.034999371364988735 0 0.00061001430157365828 -0.033064951458238005 0 0.0015409624500623573 -0.029971818274178445 0 0.0011826702725626506 -0.031260113678607759 0 0.002264339193551785 -0.027577286444537281 0 0.0020925174397419758 -0.027718240511859334 0 0.0021625073605282502 -0.027947697093456972 0 1.3547416024738012e-09 -0.034999997992806023 0 4.1395194929150806e-09 -0.034997690776334099 0 6.2069991950991475e-07 -0.034997108919591034 0 2.6776225829309593e-08 -0.034999924579632941 0 -2.1865434475958855e-06 -0.034986296254771863 0 3.2268396303464625e-06 -0.034972190401910241 0 0.0011999627149754683 -0.030958059627133796 0 0.00092561644429683661 -0.031856348207554529 0 0.0013233265352217203 -0.031491184838936433 0 0.0011826702725626506 -0.031260113678607759 0 0.00061001430157365828 -0.033064951458238005 0 0.00068121338316355835 -0.033048890257363135 0 0.00061001430157365828 -0.033064951458238005 0 2.0100261473571707e-05 -0.034946992611372872 0 2.2208212662418127e-05 -0.034985200603034665 0 9.6687730341291344e-08 -0.034999984176794036 0 0.0011045554775795325 -0.032873069624552581 0 2.4474131553243439e-07 -0.035001932031273865 0 0.0011045554775795325 -0.032873069624552581 0 0.00097561673091572845 -0.032748854417069533 0 1.0974778771257825e-06 -0.034992430749001276 0 2.6776225829309593e-08 -0.034999924579632941 0 -9.8313792722482946e-09 -0.035000022708938608 0 0.0016951164215290397 -0.027904933281726635 0 0.0020854907225143983 -0.027917592165565035 0 0.0017121678071285653 -0.028336665136933212 0 0.0015496618837555424 -0.030015245796890758 0 0.0018793613273253864 -0.029433235868706907 0 0.0018313786568062897 -0.030811678463379066 0 0.0018502011909734802 -0.030773587930599873 0 0.0018523625112193314 -0.030791004321192028 0 0.0018313786568062897 -0.030811678463379066 0 0.00183300677454784 -0.03081503702397554 0 0.0018502011909734802 -0.030773587930599873 0 0.00097561673091572845 -0.032748854417069533 0 0.00064200448626870136 -0.033605272777388763 0 0.0018523625112193314 -0.030791004321192028 0 0.0018406813520915714 -0.030799658062267848 0 0.0018755642297878044 -0.030856753919745898 0 0.0018502011909734802 -0.030773587930599873 0 0.0018523625112193314 -0.030791004321192028 0 0.0018406813520915714 -0.030799658062267848 0 2.2208212662418127e-05 -0.034985200603034665 0 -5.7094817987434641e-08 -0.034999919476719071 0 5.4758751468147481e-05 -0.03492167634673618 0 2.2208212662418127e-05 -0.034985200603034665 0 -5.7094817987434641e-08 -0.034999919476719071 0 9.6687730341291344e-08 -0.034999984176794036 0 0.0016951164215290397 -0.027904933281726635 0 0.0017121678071285653 -0.028336665136933212 0 0.0014615047146718078 -0.028039901544719328 0 0.0017121678071285653 -0.028336665136933212 0 0.0012150912661132223 -0.028243885476596845 0 0.0014615047146718078 -0.028039901544719328 0 0.0017121678071285653 -0.028336665136933212 0 0.0012150912661132223 -0.028243885476596845 0 0.0013716984409553193 -0.028875927112136955 0 0.0018502011909734802 -0.030773587930599873 0 0.0018406813520915714 -0.030799658062267848 0 0.0017411567399748563 -0.030741535834266382 0 0.0018793613273253864 -0.029433235868706907 0 0.0015244525068576536 -0.029847037771462928 0 0.00078604834915848047 -0.028635966175030936 0 0.0012150912661132223 -0.028243885476596845 0 0.0013716984409553193 -0.028875927112136955 0 0.0017411567399748563 -0.030741535834266382 0 0.0018015354128918988 -0.031003358481960508 0 0.0014093912349578918 -0.030811877853768564 0 0.0015244525068576536 -0.029847037771462928 0 0.0011550816253394522 -0.030295584712380471 0 0.0018406813520915714 -0.030799658062267848 0 0.0017411567399748563 -0.030741535834266382 0 0.0018225961989070173 -0.030848241546358915 0 0.0017411567399748563 -0.030741535834266382 0 0.0018225961989070173 -0.030848241546358915 0 0.0018015354128918988 -0.031003358481960508 0 0.0018225961989070173 -0.030848241546358915 0 0.0018015354128918988 -0.031003358481960508 0 0.0018755642297878044 -0.030856753919745898 0 0.0018406813520915714 -0.030799658062267848 0 0.0018225961989070173 -0.030848241546358915 0 0.0018755642297878044 -0.030856753919745898 0 0.0010108542237361332 -0.032750919134505931 0 0.00064200448626870136 -0.033605272777388763 0 6.5940586983799995e-05 -0.034737213277298534 0 1.8009541430381516e-05 -0.034942347582778616 0 1.6857567705401878e-05 -0.034923808431337695 0 2.4946780712615803e-05 -0.034814682835357005 0 6.5940586983799995e-05 -0.034737213277298534 0 1.6857567705401878e-05 -0.034923808431337695 0 -2.9789269238326335e-09 -0.035000012419380715 0 3.0442300094637979e-06 -0.034960688576337919 0 1.5415976367538584e-05 -0.034939780471920569 0 -2.9789269238326335e-09 -0.035000012419380715 0 3.0442300094637979e-06 -0.034960688576337919 0 -3.7508397979103335e-09 -0.034999908063652926 0 -1.4341908751228143e-06 -0.035001333283816591 0 0.00064200448626870136 -0.033605272777388763 0 3.0442300094637979e-06 -0.034960688576337919 0 1.5415976367538584e-05 -0.034939780471920569 0 1.6857567705401878e-05 -0.034923808431337695 0 0.00064200448626870136 -0.033605272777388763 0 0.00053356518334289062 -0.033909416165094616 0 2.4946780712615803e-05 -0.034814682835357005 0 1.6857567705401878e-05 -0.034923808431337695 0 -2.1720362712327007e-07 -0.034920209729027936 0 3.0442300094637979e-06 -0.034960688576337919 0 1.6857567705401878e-05 -0.034923808431337695 0 -2.1720362712327007e-07 -0.034920209729027936 0 -2.1720362712327007e-07 -0.034920209729027936 0 -3.7508397979103335e-09 -0.034999908063652926 0 -1.8518333266624794e-08 -0.034999847229507254 0 3.0442300094637979e-06 -0.034960688576337919 0 -2.1720362712327007e-07 -0.034920209729027936 0 -3.7508397979103335e-09 -0.034999908063652926 0 -2.1720362712327007e-07 -0.034920209729027936 0 -1.8518333266624794e-08 -0.034999847229507254 0 9.817836591991838e-06 -0.034825480419484994 0 -2.9475682903567994e-09 -0.034999923832880898 0 1.9536973367679735e-05 -0.034798359079608425 0 3.3772229730175352e-08 -0.03499983064723685 0 3.8632175979680039e-05 -0.03477482792976383 0 2.256646961957138e-05 -0.034900909559207147 0 2.4946780712615803e-05 -0.034814682835357005 0 -2.1720362712327007e-07 -0.034920209729027936 0 9.817836591991838e-06 -0.034825480419484994 0 3.8747156572875691e-05 -0.034850240063720977 0 3.8632175979680039e-05 -0.03477482792976383 0 2.256646961957138e-05 -0.034900909559207147 0 4.4347032267918718e-05 -0.03465452896909036 0 3.8747156572875691e-05 -0.034850240063720977 0 3.8632175979680039e-05 -0.03477482792976383 0 2.0824329167198958e-08 -0.03499975038231553 0 3.3772229730175352e-08 -0.03499983064723685 0 2.256646961957138e-05 -0.034900909559207147 0 6.5940586983799995e-05 -0.034737213277298534 0 4.4386259645672413e-05 -0.034618026317647876 0 -5.3522357238475965e-06 -0.034305937971072571 0 0.0010108542237361332 -0.032750919134505931 0 0.00056924752161166222 -0.032981731538387168 0 2.4946780712615803e-05 -0.034814682835357005 0 9.817836591991838e-06 -0.034825480419484994 0 4.4386259645672413e-05 -0.034618026317647876 0 2.4946780712615803e-05 -0.034814682835357005 0 6.5940586983799995e-05 -0.034737213277298534 0 4.4386259645672413e-05 -0.034618026317647876 0 1.9536973367679735e-05 -0.034798359079608425 0 2.6949464231959605e-05 -0.034525307271978646 0 4.4347032267918718e-05 -0.03465452896909036 0 3.8632175979680039e-05 -0.03477482792976383 0 1.8307454760583766e-05 -0.034481158740893934 0 2.2319648395577068e-05 -0.034539201637109544 0 4.4347032267918718e-05 -0.03465452896909036 0 2.2721750380315977e-05 -0.034498210105214644 0 4.4347032267918718e-05 -0.03465452896909036 0 1.8307454760583766e-05 -0.034481158740893934 0 2.2721750380315977e-05 -0.034498210105214644 0 1.8307454760583766e-05 -0.034481158740893934 0 2.2721750380315977e-05 -0.034498210105214644 0 -1.380571264662145e-05 -0.034333914867485132 0 2.2319648395577068e-05 -0.034539201637109544 0 2.2721750380315977e-05 -0.034498210105214644 0 -1.380571264662145e-05 -0.034333914867485132 0 -0.00010349169774719114 -0.034180331769257055 0 -1.380571264662145e-05 -0.034333914867485132 0 -0.00010458864430455397 -0.034017777386935011 0 -1.380571264662145e-05 -0.034333914867485132 0 -6.248266129268713e-05 -0.03413744676095614 0 -0.00010458864430455397 -0.034017777386935011 0 1.8307454760583766e-05 -0.034481158740893934 0 -1.380571264662145e-05 -0.034333914867485132 0 -6.248266129268713e-05 -0.03413744676095614 0 4.4386259645672413e-05 -0.034618026317647876 0 -5.3522357238475965e-06 -0.034305937971072571 0 -6.248266129268713e-05 -0.03413744676095614 0 2.6949464231959605e-05 -0.034525307271978646 0 -4.2748715329690892e-05 -0.034219167571164597 0 -5.3522357238475965e-06 -0.034305937971072571 0 -6.248266129268713e-05 -0.03413744676095614 0 -0.00040600000181975876 -0.033303939329952098 0 0.0013557579368791313 -0.031549783675625158 0 0.00024102368859416079 -0.031269260524520025 0 -0.00040600000181975876 -0.033303939329952098 0 0.00056924752161166222 -0.032981731538387168 0 -0.00039284644442107473 -0.033337376668353048 0 -0.00010349169774719114 -0.034180331769257055 0 -0.00010458864430455397 -0.034017777386935011 0 -0.00040600000181975876 -0.033303939329952098 0 -6.248266129268713e-05 -0.03413744676095614 0 -0.00010458864430455397 -0.034017777386935011 0 -0.00040600000181975876 -0.033303939329952098 0 -0.00040600000181975876 -0.033303939329952098 0 -0.0014126616858476148 -0.033525957118965562 0 -0.00084083334277435765 -0.0318579528346664 0 -0.00035957500233460207 -0.034276641099558851 0 -0.00040600000181975876 -0.033303939329952098 0 -0.0014126616858476148 -0.033525957118965562 0 -0.0016381573633942304 -0.031227281251426091 0 -0.0017070012717264678 -0.031311001306531493 0 -0.0014126616858476148 -0.033525957118965562 0 -0.0020488117176698404 -0.032208389135376506 0 -0.00084083334277435765 -0.0318579528346664 0 -0.0025664427953405295 -0.033698281968355941 0 -0.0014126616858476148 -0.033525957118965562 0 -0.0020488117176698404 -0.032208389135376506 0 -0.0017070012717264678 -0.031311001306531493 0 -0.0010385787146165878 -0.030146220796260965 0 -0.0014803091899372109 -0.029796664082762825 0 -0.0012664430675901654 -0.030126345333337495 0 -0.0010232310235198012 -0.030146394494066361 0 -0.0020488117176698404 -0.032208389135376506 0 -0.00084083334277435765 -0.0318579528346664 0 -0.0010232310235198012 -0.030146394494066361 0 0.00024102368859416079 -0.031269260524520025 0 -0.00084083334277435765 -0.0318579528346664 0 -0.0010232310235198012 -0.030146394494066361 0 0.00024102368859416079 -0.031269260524520025 0 -0.00040600000181975876 -0.033303939329952098 0 -0.00084083334277435765 -0.0318579528346664 0 -0.0010232310235198012 -0.030146394494066361 0 -0.00046286779666851777 -0.029006020362864361 0 -3.5244837339000759e-05 -0.029824846283837438 0 0.00024102368859416079 -0.031269260524520025 0 -0.0010232310235198012 -0.030146394494066361 0 -3.5244837339000759e-05 -0.029824846283837438 0 -0.0010232310235198012 -0.030146394494066361 0 -0.0013342873989932993 -0.029568125752323947 0 -0.0010702538559562778 -0.029125890776770622 0 -0.0014803091899372109 -0.029796664082762825 0 -0.0010232310235198012 -0.030146394494066361 0 -0.0013342873989932993 -0.029568125752323947 0 -0.0014243774454842076 -0.029099332081316324 0 -0.0013342873989932993 -0.029568125752323947 0 -0.0010702538559562778 -0.029125890776770622 0 -0.0014243774454842076 -0.029099332081316324 0 -0.00127100314726928 -0.028740979998273714 0 -0.0010702538559562778 -0.029125890776770622 0 -0.0010232310235198012 -0.030146394494066361 0 -0.0010702538559562778 -0.029125890776770622 0 -0.00046286779666851777 -0.029006020362864361 0 0.00024386561273010812 -0.029066810357580533 0 0.00099936923897464124 -0.029680312021227707 0 -3.5244837339000759e-05 -0.029824846283837438 0 -0.00046286779666851777 -0.029006020362864361 0 0.00024386561273010812 -0.029066810357580533 0 -3.5244837339000759e-05 -0.029824846283837438 0 0.00078604834915848047 -0.028635966175030936 0 0.00024386561273010812 -0.029066810357580533 0 0.00099936923897464124 -0.029680312021227707 0 0.00078604834915848047 -0.028635966175030936 0 0.0013716984409553193 -0.028875927112136955 0 0.00099936923897464124 -0.029680312021227707 0 0.0018015354128918988 -0.031003358481960508 0 0.0013557579368791313 -0.031549783675625158 0 0.0014093912349578918 -0.030811877853768564 0 0.0013557579368791313 -0.031549783675625158 0 0.00024102368859416079 -0.031269260524520025 0 0.0014093912349578918 -0.030811877853768564 0 0.00024639705790068233 -0.031237890548583756 0 0.0011550816253394522 -0.030295584712380471 0 0.00024102368859416079 -0.031269260524520025 0 0.00099936923897464124 -0.029680312021227707 0 -3.5244837339000759e-05 -0.029824846283837438 0 -0.0013299569223440908 -0.018101782856703535 0 -0.0021974035590896853 -0.017733263947613771 0 -0.0021078771754724562 -0.018265181536206883 0 -0.0014110744096195583 -0.017848850104424729 0 -0.0021974035590896853 -0.017733263947613771 0 -0.0017353944400587229 -0.017312726206546534 0 -0.0013998244690045134 -0.017975460421178285 0 -0.0021524556051896993 -0.017764354636857424 0 -0.0021974035590896853 -0.017733263947613771 0 -0.0017353944400587229 -0.017312726206546534 0 -0.0021548641126744364 -0.016689381764930074 0 -0.0017353944400587229 -0.017312726206546534 0 -0.0011468529798541089 -0.017240739608644851 0 -0.0011392728712691634 -0.016449732011078747 0 -0.0014110744096195583 -0.017848850104424729 0 -0.0017353944400587229 -0.017312726206546534 0 -0.0011468529798541089 -0.017240739608644851 0 -0.0011468529798541089 -0.017240739608644851 0 -0.00046758300264856229 -0.017245421213746961 0 -0.00095540189592655325 -0.017620936677080853 0 -0.00066176611140322339 -0.017988730324066404 0 -0.00031329375467212196 -0.017797094222724418 0 -0.00015546927990455159 -0.017957969652250019 0 -0.00066176611140322339 -0.017988730324066404 0 -0.00015546927990455159 -0.017957969652250019 0 -4.5385529112883532e-05 -0.018093482663287183 0 -0.00065481077960706524 -0.018181731652276326 0 -6.8540250464689669e-05 -0.018812697718725058 0 -0.00046758300264856229 -0.017245421213746961 0 -0.00066176611140322339 -0.017988730324066404 0 -0.00031329375467212196 -0.017797094222724418 0 -0.0013299569223440908 -0.018101782856703535 0 -0.0006415404213639856 -0.018465309535866562 0 -0.0010033733582870356 -0.018572218568489521 0 -0.0014110744096195583 -0.017848850104424729 0 -0.00066176611140322339 -0.017988730324066404 0 -0.00095540189592655325 -0.017620936677080853 0 -0.0013998244690045134 -0.017975460421178285 0 -0.00065481077960706524 -0.018181731652276326 0 -0.0014110744096195583 -0.017848850104424729 0 -0.0011468529798541089 -0.017240739608644851 0 -0.00095540189592655325 -0.017620936677080853 0 -0.00046758300264856229 -0.017245421213746961 0 -0.00066176611140322339 -0.017988730324066404 0 -0.00095540189592655325 -0.017620936677080853 0 -0.0010033733582870356 -0.018572218568489521 0 -0.00070632290841912747 -0.018944492159694338 0 -0.0011989140406357681 -0.018878113391936225 0 -0.0006415404213639856 -0.018465309535866562 0 -0.0010033733582870356 -0.018572218568489521 0 -0.00070632290841912747 -0.018944492159694338 0 -0.0006415404213639856 -0.018465309535866562 0 -0.00031575340142732985 -0.01888720099238304 0 3.7229509627958519e-05 -0.018703991779108697 0 -0.0006415404213639856 -0.018465309535866562 0 -0.00070632290841912747 -0.018944492159694338 0 -0.00031575340142732985 -0.01888720099238304 0 -0.00070632290841912747 -0.018944492159694338 0 -0.00031575340142732985 -0.01888720099238304 0 -0.00045174194893136136 -0.019120166790537647 0 -0.00031575340142732985 -0.01888720099238304 0 -0.00045174194893136136 -0.019120166790537647 0 -0.00029699525480685204 -0.019104978148812193 0 -0.00045174194893136136 -0.019120166790537647 0 -0.00032561758700055943 -0.01928750864024812 0 -0.00029699525480685204 -0.019104978148812193 0 -0.00070632290841912747 -0.018944492159694338 0 -0.00045174194893136136 -0.019120166790537647 0 -0.00052787500872233961 -0.019333286983823826 0 -0.00045174194893136136 -0.019120166790537647 0 -0.00052787500872233961 -0.019333286983823826 0 -0.00032561758700055943 -0.01928750864024812 0 -0.0008494539264977544 -0.019226393573115851 0 -0.0012855795988110886 -0.019358022950911258 0 -0.0011989140406357681 -0.018878113391936225 0 -0.00070632290841912747 -0.018944492159694338 0 -0.0008494539264977544 -0.019226393573115851 0 -0.0011989140406357681 -0.018878113391936225 0 -0.00070632290841912747 -0.018944492159694338 0 -0.00052787500872233961 -0.019333286983823826 0 -0.0008494539264977544 -0.019226393573115851 0 -0.0012855795988110886 -0.019358022950911258 0 -0.0011989140406357681 -0.018878113391936225 0 -0.0016041138379648456 -0.019047404131451642 0 -0.0013299569223440908 -0.018101782856703535 0 -0.0010033733582870356 -0.018572218568489521 0 -0.0016701480931645752 -0.018494520945444376 0 -0.0011989140406357681 -0.018878113391936225 0 -0.0016701480931645752 -0.018494520945444376 0 -0.0021561741009113655 -0.018730483990898116 0 -0.001216636097376696 -0.018831402828321221 0 -0.002104594567444646 -0.018917441561701501 0 -0.0010033733582870356 -0.018572218568489521 0 -0.0011989140406357681 -0.018878113391936225 0 -0.0016701480931645752 -0.018494520945444376 0 -0.0013299569223440908 -0.018101782856703535 0 -0.0016701480931645752 -0.018494520945444376 0 -0.0021078771754724562 -0.018265181536206883 0 -0.0016701480931645752 -0.018494520945444376 0 -0.0021078771754724562 -0.018265181536206883 0 -0.0021561741009113655 -0.018730483990898116 0 -0.0012855795988110886 -0.019358022950911258 0 -0.0020076284234657512 -0.019076994099300484 0 -0.0016041138379648456 -0.019047404131451642 0 -0.0011984586395116608 -0.016841201092301861 0 -0.0013238267051427308 -0.016684899144669054 0 -0.0011989140406357681 -0.018878113391936225 0 -0.001959382709513379 -0.018841403093778727 0 -0.0016041138379648456 -0.019047404131451642 0 -0.001959382709513379 -0.018841403093778727 0 -0.0020076284234657512 -0.019076994099300484 0 -0.0016041138379648456 -0.019047404131451642 0 -0.0013238267051427308 -0.016684899144669054 0 -0.0026643190356826036 -0.017609815845865864 0 -0.001959382709513379 -0.018841403093778727 0 -0.0020076284234657512 -0.019076994099300484 0 -0.0027194688508472386 -0.018800077436935805 0 -0.00095674229182119786 -0.014456005051073376 0 -0.0013594272957086291 -0.014324777375258807 0 -0.0011792717513192494 -0.014718977574129734 0 -0.0013594272957086291 -0.014324777375258807 0 -0.0015161309864496174 -0.014602701446866085 0 -0.0011792717513192494 -0.014718977574129734 0 -0.0031460757843025399 -0.018611567219222469 0 -0.0026872523750015864 -0.018125275494803833 0 -0.0036524695029645088 -0.017701490391773118 0 -0.0021561741009113655 -0.018730483990898116 0 -0.0031460757843025399 -0.018611567219222469 0 -0.0026872523750015864 -0.018125275494803833 0 -0.002104594567444646 -0.018917441561701501 0 -0.0026643190356826036 -0.017609815845865864 0 -0.0021078771754724562 -0.018265181536206883 0 -0.0021561741009113655 -0.018730483990898116 0 -0.0026872523750015864 -0.018125275494803833 0 -0.0018845896708716975 -0.014450072820699267 0 -0.0017481439839318314 -0.014316033296457005 0 -0.0017360456891048206 -0.014555113416304197 0 -0.0018845896708716975 -0.014450072820699267 0 -0.0017481439839318314 -0.014316033296457005 0 -0.0021117259116311105 -0.014303600440160017 0 -0.0013594272957086291 -0.014324777375258807 0 -0.0017481439839318314 -0.014316033296457005 0 -0.0015161309864496174 -0.014602701446866085 0 -0.0017481439839318314 -0.014316033296457005 0 -0.0017360456891048206 -0.014555113416304197 0 -0.0015161309864496174 -0.014602701446866085 0 -0.0026643190356826036 -0.017609815845865864 0 -0.0027246075886176975 -0.016236984131022914 0 -0.0031460757843025399 -0.018611567219222469 0 -0.0039829065715677328 -0.018210896165870051 0 -0.0036524695029645088 -0.017701490391773118 0 -0.0033747951173553159 -0.018368507240890519 0 -0.0039872397517268674 -0.018388916661111199 0 -0.0039829065715677328 -0.018210896165870051 0 -0.0026643190356826036 -0.017609815845865864 0 -0.004130980824993506 -0.018425584190703694 0 -0.0027246075886176975 -0.016236984131022914 0 -0.0036939450738243161 -0.016078370217426894 0 -0.0039872397517268674 -0.018388916661111199 0 -0.0041564712267515109 -0.018116286544075582 0 -0.0045195276398050498 -0.018337439052955783 0 -0.0039872397517268674 -0.018388916661111199 0 -0.0039829065715677328 -0.018210896165870051 0 -0.0041564712267515109 -0.018116286544075582 0 -0.0039829065715677328 -0.018210896165870051 0 -0.0041564712267515109 -0.018116286544075582 0 -0.0036524695029645088 -0.017701490391773118 0 -0.0040308879386330978 -0.017494906220715877 0 -0.0039276460622814958 -0.017235252697897076 0 -0.0035224729349061568 -0.017295176234904185 0 -0.0041234703493809033 -0.017060154309069882 0 -0.0039276460622814958 -0.017235252697897076 0 -0.0042170937052127344 -0.017297331774821758 0 -0.0040308879386330978 -0.017494906220715877 0 -0.0039276460622814958 -0.017235252697897076 0 -0.0042170937052127344 -0.017297331774821758 0 -0.0041234703493809033 -0.017060154309069882 0 -0.0039276460622814958 -0.017235252697897076 0 -0.0038109156272497055 -0.016954232561731942 0 -0.0043381164593620167 -0.018071743208942115 0 -0.0035002481126274799 -0.017439970033042332 0 -0.0039276460622814958 -0.017235252697897076 0 -0.0035224729349061568 -0.017295176234904185 0 -0.0038109156272497055 -0.016954232561731942 0 -0.0035224729349061568 -0.017295176234904185 0 -0.0038109156272497055 -0.016954232561731942 0 -0.0034004591716988481 -0.016739224195436535 0 -0.0038109156272497055 -0.016954232561731942 0 -0.0038296290114658402 -0.016603579000673569 0 -0.0034004591716988481 -0.016739224195436535 0 -0.0038109156272497055 -0.016954232561731942 0 -0.0040602130907090445 -0.016772471161627948 0 -0.0038296290114658402 -0.016603579000673569 0 -0.0041234703493809033 -0.017060154309069882 0 -0.0038109156272497055 -0.016954232561731942 0 -0.0040602130907090445 -0.016772471161627948 0 -0.0021974035590896853 -0.017733263947613771 0 -0.0026872523750015864 -0.018125275494803833 0 -0.0029573600490882365 -0.017158010100708145 0 -0.0021974035590896853 -0.017733263947613771 0 -0.0021078771754724562 -0.018265181536206883 0 -0.0026872523750015864 -0.018125275494803833 0 -0.0035002481126274799 -0.017439970033042332 0 -0.0030242439650056733 -0.017184926940171319 0 -0.0026872523750015864 -0.018125275494803833 0 -0.0036524695029645088 -0.017701490391773118 0 -0.0029573600490882365 -0.017158010100708145 0 -0.0035224729349061568 -0.017295176234904185 0 -0.0029573600490882365 -0.017158010100708145 0 -0.0034004591716988481 -0.016739224195436535 0 -0.0029573600490882365 -0.017158010100708145 0 -0.0028511238633504073 -0.016565416210073021 0 -0.0034004591716988481 -0.016739224195436535 0 -0.0021974035590896853 -0.017733263947613771 0 -0.0029573600490882365 -0.017158010100708145 0 -0.0021548641126744364 -0.016689381764930074 0 -0.0029573600490882365 -0.017158010100708145 0 -0.0028511238633504073 -0.016565416210073021 0 -0.0021548641126744364 -0.016689381764930074 0 -0.0028511238633504073 -0.016565416210073021 0 -0.0025442205202854421 -0.016146789961660243 0 -0.0021548641126744364 -0.016689381764930074 0 -0.0028511238633504073 -0.016565416210073021 0 -0.0031312217515173601 -0.016092172227752614 0 -0.0034004591716988481 -0.016739224195436535 0 -0.0028511238633504073 -0.016565416210073021 0 -0.0031312217515173601 -0.016092172227752614 0 -0.0025442205202854421 -0.016146789961660243 0 -0.0031312217515173601 -0.016092172227752614 0 -0.003533774656124308 -0.01581339916665974 0 -0.0031168059219138411 -0.015479204020984471 0 -0.0031312217515173601 -0.016092172227752614 0 -0.0025442205202854421 -0.016146789961660243 0 -0.0026588600632908876 -0.015647516481549776 0 -0.0025442205202854421 -0.016146789961660243 0 -0.0026588600632908876 -0.015647516481549776 0 -0.0018730180402298465 -0.015707781814117149 0 -0.004181384563242299 -0.016314890321633781 0 -0.0039238624862005609 -0.016285547931611622 0 -0.0040302898247137368 -0.015988896732166261 0 -0.0040602130907090445 -0.016772471161627948 0 -0.004181384563242299 -0.016314890321633781 0 -0.0038296290114658402 -0.016603579000673569 0 -0.004181384563242299 -0.016314890321633781 0 -0.0038296290114658402 -0.016603579000673569 0 -0.0039238624862005609 -0.016285547931611622 0 -0.0038296290114658402 -0.016603579000673569 0 -0.0039238624862005609 -0.016285547931611622 0 -0.0036442328700833975 -0.016250989568287029 0 -0.0031312217515173601 -0.016092172227752614 0 -0.0036442328700833975 -0.016250989568287029 0 -0.0034004591716988481 -0.016739224195436535 0 -0.0038296290114658402 -0.016603579000673569 0 -0.0036442328700833975 -0.016250989568287029 0 -0.0034004591716988481 -0.016739224195436535 0 -0.0031312217515173601 -0.016092172227752614 0 -0.0036442328700833975 -0.016250989568287029 0 -0.003533774656124308 -0.01581339916665974 0 -0.0036442328700833975 -0.016250989568287029 0 -0.003533774656124308 -0.01581339916665974 0 -0.0040302898247137368 -0.015988896732166261 0 -0.004181384563242299 -0.016314890321633781 0 -0.0040302898247137368 -0.015988896732166261 0 -0.0042406714250432277 -0.015710887180845661 0 -0.0039238624862005609 -0.016285547931611622 0 -0.0036442328700833975 -0.016250989568287029 0 -0.0040302898247137368 -0.015988896732166261 0 -0.0037973143832396761 -0.01420903815516087 0 -0.0041831985719552444 -0.015103713317625361 0 -0.0042714424772713269 -0.01448187970074916 0 -0.0040150186780745804 -0.015998160669748539 0 -0.0036431561591989538 -0.015148660239900549 0 -0.003812500991754334 -0.014574275293501242 0 -0.0042255898711412877 -0.015431432953983887 0 -0.0036267636305031738 -0.015246016195721537 0 -0.0038348654691527273 -0.015006530361929029 0 -0.0042406714250432277 -0.015710887180845661 0 -0.0040302898247137368 -0.015988896732166261 0 -0.0036267636305031738 -0.015246016195721537 0 -0.0042406714250432277 -0.015710887180845661 0 -0.003533774656124308 -0.01581339916665974 0 -0.0036338198836246764 -0.015253915498433602 0 -0.0031168059219138411 -0.015479204020984471 0 -0.003533774656124308 -0.01581339916665974 0 -0.0040302898247137368 -0.015988896732166261 0 -0.0036338198836246764 -0.015253915498433602 0 -0.0036431561591989538 -0.015148660239900549 0 -0.0030443007219401121 -0.014998527424136987 0 -0.0036338198836246764 -0.015253915498433602 0 -0.0031364061085120587 -0.01500298789462149 0 -0.0032158337083200094 -0.01445748473877294 0 -0.0036267636305031738 -0.015246016195721537 0 -0.0038348654691527273 -0.015006530361929029 0 -0.0032308310774143358 -0.014497640892741071 0 -0.0037973143832396761 -0.01420903815516087 0 -0.0042714424772713269 -0.01448187970074916 0 -0.0042704936063903227 -0.013965997389773202 0 -0.0026588600632908876 -0.015647516481549776 0 -0.0031168059219138411 -0.015479204020984471 0 -0.0025744310008874978 -0.015065575738439578 0 -0.0026588600632908876 -0.015647516481549776 0 -0.0025744310008874978 -0.015065575738439578 0 -0.0018730180402298465 -0.015707781814117149 0 -0.0031312217515173601 -0.016092172227752614 0 -0.0026588600632908876 -0.015647516481549776 0 -0.0031168059219138411 -0.015479204020984471 0 -0.0031168059219138411 -0.015479204020984471 0 -0.0031364061085120587 -0.01500298789462149 0 -0.0025744310008874978 -0.015065575738439578 0 -0.0036338198836246764 -0.015253915498433602 0 -0.0031168059219138411 -0.015479204020984471 0 -0.0031364061085120587 -0.01500298789462149 0 -0.0031364061085120587 -0.01500298789462149 0 -0.0025744310008874978 -0.015065575738439578 0 -0.0032158337083200094 -0.01445748473877294 0 -0.0021898594298755008 -0.016743764469564909 0 -0.0011919520631620971 -0.016601359920419567 0 -0.0017441893209304686 -0.016294617370065843 0 -0.0021898594298755008 -0.016743764469564909 0 -0.0011919520631620971 -0.016601359920419567 0 -0.0014419008754896364 -0.017255282017645517 0 -0.0011919520631620971 -0.016601359920419567 0 -0.0014419008754896364 -0.017255282017645517 0 -0.00074006397152298446 -0.017060414846507672 0 -0.0023952805634737577 -0.015937084128009902 0 -0.0016637618442238167 -0.016474480651987502 0 -0.0025442205202854421 -0.016146789961660243 0 -0.0018730180402298465 -0.015707781814117149 0 -0.0021548641126744364 -0.016689381764930074 0 -0.0016637618442238167 -0.016474480651987502 0 -0.0009929390145381183 -0.017067138837789257 0 -0.0018730180402298465 -0.015707781814117149 0 -0.0021548641126744364 -0.016689381764930074 0 -0.0011392728712691634 -0.016449732011078747 0 -0.0014419008754896364 -0.017255282017645517 0 -0.0008342034008771437 -0.017697105929287336 0 -0.00074006397152298446 -0.017060414846507672 0 -0.0017353944400587229 -0.017312726206546534 0 -0.0021548641126744364 -0.016689381764930074 0 -0.0011392728712691634 -0.016449732011078747 0 -0.00029559222225427869 -0.017769358129990861 0 -0.0008342034008771437 -0.017697105929287336 0 -0.00030630631030296139 -0.017540646861141051 0 -0.00029558348238181806 -0.017978478754054221 0 -0.00029559222225427869 -0.017769358129990861 0 -0.0008342034008771437 -0.017697105929287336 0 -0.00029559222225427869 -0.017769358129990861 0 -0.00030630631030296139 -0.017540646861141051 0 -8.7898383240653911e-05 -0.017721653109323179 0 -0.00029558348238181806 -0.017978478754054221 0 -0.00029559222225427869 -0.017769358129990861 0 -0.00010485728850533001 -0.017870133864468993 0 -0.0011468529798541089 -0.017240739608644851 0 -0.00046758300264856229 -0.017245421213746961 0 -0.0011392728712691634 -0.016449732011078747 0 -0.00039701990775206593 -0.017605328797954616 0 -0.0009929390145381183 -0.017067138837789257 0 -0.0008342034008771437 -0.017697105929287336 0 -0.00030630631030296139 -0.017540646861141051 0 -0.00074006397152298446 -0.017060414846507672 0 -0.0011919520631620971 -0.016601359920419567 0 -0.00074006397152298446 -0.017060414846507672 0 -0.00037596342025528239 -0.016279931857167522 0 -0.00030630631030296139 -0.017540646861141051 0 -0.00031542930937433848 -0.016941681416564078 0 -0.00074006397152298446 -0.017060414846507672 0 -0.00030630631030296139 -0.017540646861141051 0 -0.00031542930937433848 -0.016941681416564078 0 -8.2944136271133033e-05 -0.017250200591201238 0 -0.00022422407788328364 -0.016289602961284219 0 -0.00031930474624480094 -0.016439935862327545 0 -0.00031542930937433848 -0.016941681416564078 0 -0.00074006397152298446 -0.017060414846507672 0 -0.00037596342025528239 -0.016279931857167522 0 -0.00031542930937433848 -0.016941681416564078 0 0.00010296619067739568 -0.016932972766410932 0 -0.00037596342025528239 -0.016279931857167522 0 -0.000414692962714104 -0.016353521390603375 0 -0.00040731983177104067 -0.01634001291974738 0 -0.00036546651859074213 -0.016246902825020264 0 -8.2944136271133033e-05 -0.017250200591201238 0 0.00010296619067739568 -0.016932972766410932 0 0.00013517363196117568 -0.017544197536821765 0 -0.00031542930937433848 -0.016941681416564078 0 -8.2944136271133033e-05 -0.017250200591201238 0 0.00010296619067739568 -0.016932972766410932 0 -0.000414692962714104 -0.016353521390603375 0 -0.00041970788934926487 -0.016376229499825201 0 -0.00043029354025134816 -0.016423333041996453 0 -0.00022422407788328364 -0.016289602961284219 0 1.2241362328807159e-05 -0.018688671145485627 0 -0.000414692962714104 -0.016353521390603375 0 -0.00041970788934926487 -0.016376229499825201 0 -0.00040731983177104067 -0.01634001291974738 0 -0.00041970788934926487 -0.016376229499825201 0 -0.00040731983177104067 -0.01634001291974738 0 -0.00043657546407880189 -0.016364935656613986 0 -0.00040731983177104067 -0.01634001291974738 0 -0.00043657546407880189 -0.016364935656613986 0 -0.00045204654778466382 -0.016382448529813756 0 -0.00043657546407880189 -0.016364935656613986 0 -0.00043702891471931343 -0.01638952257185761 0 -0.00054986639933242041 -0.016400197492278643 0 -0.00082352649142142676 -0.019157026630737217 0 -0.00082428869826853561 -0.018182976647472059 0 -0.00043702891471931343 -0.01638952257185761 0 -0.00042339922212603374 -0.016400427600757782 0 -0.00039982526481651624 -0.016457328100590113 0 -0.00082352649142142676 -0.019157026630737217 0 0.00032435527847040913 -0.021242151855451752 0 -0.00043657546407880189 -0.016364935656613986 0 -0.00043702891471931343 -0.01638952257185761 0 -0.00042339922212603374 -0.016400427600757782 0 -0.0010470619758424934 -0.02244341610452108 0 -0.00064303498255952702 -0.023926242638656964 0 -0.00037810390122320432 -0.023253074086771762 0 -0.00041970788934926487 -0.016376229499825201 0 -0.00043657546407880189 -0.016364935656613986 0 -0.00042339922212603374 -0.016400427600757782 0 -0.00041970788934926487 -0.016376229499825201 0 -0.00042339922212603374 -0.016400427600757782 0 -0.00043029354025134816 -0.016423333041996453 0 0.00032435527847040913 -0.021242151855451752 0 1.2241362328807159e-05 -0.018688671145485627 0 -0.00042339922212603374 -0.016400427600757782 0 -0.00039982526481651624 -0.016457328100590113 0 -0.00043029354025134816 -0.016423333041996453 0 0.00047957122950408981 -0.023324430232762476 0 0.00055359479088371326 -0.023241049527303419 0 0.00070079870328991641 -0.023225276839607647 0 0.00047957122950408981 -0.023324430232762476 0 0.0004810227589584839 -0.023315161202450786 0 0.00055359479088371326 -0.023241049527303419 0 0.00032435527847040913 -0.021242151855451752 0 0.00031726849066601856 -0.021577247854273746 0 0.00048537965868312229 -0.023353142996564522 0 0.0004810227589584839 -0.023315161202450786 0 0.0003945295665067854 -0.023310883643940974 0 0.0004810227589584839 -0.023315161202450786 0 0.00043018632431582343 -0.023234865635326042 0 0.00049479602718174452 -0.023239391000114989 0 0.0004810227589584839 -0.023315161202450786 0 0.00043018632431582343 -0.023234865635326042 0 0.0003945295665067854 -0.023310883643940974 0 0.00043018632431582343 -0.023234865635326042 0 0.00049479602718174452 -0.023239391000114989 0 0.00050860452551679855 -0.023162859310099558 0 0.0004810227589584839 -0.023315161202450786 0 0.00055359479088371326 -0.023241049527303419 0 0.00049479602718174452 -0.023239391000114989 0 0.00055359479088371326 -0.023241049527303419 0 0.00049479602718174452 -0.023239391000114989 0 0.00050860452551679855 -0.023162859310099558 0 0.00050860452551679855 -0.023162859310099558 0 0.00062760234874688879 -0.023156558334933897 0 0.00053531869017265504 -0.023001020144553873 0 0.00043018632431582343 -0.023234865635326042 0 0.00050860452551679855 -0.023162859310099558 0 0.00035558128594694179 -0.023100234870808128 0 0.00055359479088371326 -0.023241049527303419 0 0.00062760234874688879 -0.023156558334933897 0 0.00070079870328991641 -0.023225276839607647 0 0.001035889127506708 -0.020823552835224218 0 1.2241362328807159e-05 -0.018688671145485627 0 0.00055359479088371326 -0.023241049527303419 0 0.00050860452551679855 -0.023162859310099558 0 0.00062760234874688879 -0.023156558334933897 0 0.00041381350769826149 -0.01784727284182977 0 -8.7898383240653911e-05 -0.017721653109323179 0 0.00049255846122305219 -0.018373461110479886 0 0.0011714954408066644 -0.018102125218758671 0 0.00041381350769826149 -0.01784727284182977 0 0.00068707610443810498 -0.017498326603826969 0 0.0011714954408066644 -0.018102125218758671 0 0.00041381350769826149 -0.01784727284182977 0 0.00049255846122305219 -0.018373461110479886 0 -1.0537854721855002e-05 -0.017820734326923406 0 0.0001641815602031334 -0.017952490462604619 0 -0.00010485728850533001 -0.017870133864468993 0 -8.7898383240653911e-05 -0.017721653109323179 0 5.7399146960008233e-05 -0.017876721105770255 0 -0.00029559222225427869 -0.017769358129990861 0 -0.00010485728850533001 -0.017870133864468993 0 -8.7898383240653911e-05 -0.017721653109323179 0 0.00041381350769826149 -0.01784727284182977 0 -8.7898383240653911e-05 -0.017721653109323179 0 3.7216443096222058e-05 -0.017518805314594432 0 -0.00029401197864507725 -0.017538380338686276 0 0.00019599806602982594 -0.017540585875395226 0 -0.00030630631030296139 -0.017540646861141051 0 -8.2944136271133033e-05 -0.017250200591201238 0 0.00013517363196117568 -0.017544197536821765 0 0.00010296619067739568 -0.016932972766410932 0 0.00013517363196117568 -0.017544197536821765 0 0.00056197058728336827 -0.017547617711610133 0 -0.00030630631030296139 -0.017540646861141051 0 -8.7898383240653911e-05 -0.017721653109323179 0 3.7216443096222058e-05 -0.017518805314594432 0 0.00019599806602982594 -0.017540585875395226 0 1.2241362328807159e-05 -0.018688671145485627 0 0.00041381350769826149 -0.01784727284182977 0 3.7216443096222058e-05 -0.017518805314594432 0 0.00068707610443810498 -0.017498326603826969 0 -3.6384260484233144e-05 -0.023756887032305926 0 0.00073521761031255812 -0.023554342522132128 0 -0.0016193460806621957 -0.024850722790440101 0 -0.0013270771268448216 -0.024386782423453053 0 -0.00027139680374003029 -0.024289953748409327 0 0.0015889375526996587 -0.022608395146409485 0 0.0017907477242809762 -0.022722242179981977 0 0.0019236256456032555 -0.022835984004492934 0 -0.0013270771268448216 -0.024386782423453053 0 -0.00027139680374003029 -0.024289953748409327 0 -0.00099370775333568434 -0.02386649038063314 0 0.0015889375526996587 -0.022608395146409485 0 0.001635836665459985 -0.02274918751649057 0 0.0017907477242809762 -0.022722242179981977 0 0.0016744466475963461 -0.022870895009831253 0 0.0017907477242809762 -0.022722242179981977 0 0.0018767186763468762 -0.022739132302821388 0 0.0016744466475963461 -0.022870895009831253 0 0.0018767186763468762 -0.022739132302821388 0 0.0016091393062360926 -0.023245596528161085 0 0.001635836665459985 -0.02274918751649057 0 0.0016744466475963461 -0.022870895009831253 0 0.0017907477242809762 -0.022722242179981977 0 0.0021274964496475002 -0.022235165068408912 0 0.0016662551205123169 -0.022404217627565299 0 0.0011403794375948358 -0.022221614903671125 0 0.0018443803821349917 -0.022635891026988299 0 0.0018767186763468762 -0.022739132302821388 0 0.0016662551205123169 -0.022404217627565299 0 0.0033181927811551807 -0.021145483884872508 0 0.0011403794375948358 -0.022221614903671125 0 0.0022352779523728155 -0.020397516038618016 0 0.0017907477242809762 -0.022722242179981977 0 0.0018443803821349917 -0.022635891026988299 0 0.0018767186763468762 -0.022739132302821388 0 0.0023023446310422415 -0.021605332271461272 0 0.0013718044740781705 -0.022198219341006083 0 0.0023023446310422415 -0.021605332271461272 0 0.001575506834013367 -0.022507058042744187 0 0.0016662551205123169 -0.022404217627565299 0 0.0019236256456032555 -0.022835984004492934 0 0.00097091617936564186 -0.02271864516156169 0 0.0018443803821349917 -0.022635891026988299 0 0.0016662551205123169 -0.022404217627565299 0 0.0019236256456032555 -0.022835984004492934 0 0.0017907477242809762 -0.022722242179981977 0 0.0018443803821349917 -0.022635891026988299 0 0.0019236256456032555 -0.022835984004492934 0 0.0019236256456032555 -0.022835984004492934 0 0.00046478275004681546 -0.023419643884671576 0 0.00097091617936564186 -0.02271864516156169 0 -0.00027139680374003029 -0.024289953748409327 0 0.00046478275004681546 -0.023419643884671576 0 0.00027408042267482678 -0.023493141466574764 0 0.00073521761031255812 -0.023554342522132128 0 0.00044593126487480893 -0.023465662480530836 0 0.00046478275004681546 -0.023419643884671576 0 0.00097091617936564186 -0.02271864516156169 0 -2.9099080154332096e-05 -0.023066831259263041 0 0.00097091617936564186 -0.02271864516156169 0 0.0011403794375948358 -0.022221614903671125 0 0.00016203769036955706 -0.022337135340897148 0 0.0016662551205123169 -0.022404217627565299 0 0.00097091617936564186 -0.02271864516156169 0 0.0011403794375948358 -0.022221614903671125 0 0.0012146662998572784 -0.020990776721734453 0 0.0011403794375948358 -0.022221614903671125 0 0.0022352779523728155 -0.020397516038618016 0 0.0012146662998572784 -0.020990776721734453 0 0.0011403794375948358 -0.022221614903671125 0 0.00023532649384880148 -0.020977658961915686 0 -0.0010470619758424934 -0.02244341610452108 0 0.00023532649384880148 -0.020977658961915686 0 -0.0011875973418178079 -0.01986620848489298 0 -0.0010470619758424934 -0.02244341610452108 0 0.00016203769036955706 -0.022337135340897148 0 0.00023532649384880148 -0.020977658961915686 0 0.0011403794375948358 -0.022221614903671125 0 0.00016203769036955706 -0.022337135340897148 0 0.00023532649384880148 -0.020977658961915686 0 -0.0010470619758424934 -0.02244341610452108 0 0.00016203769036955706 -0.022337135340897148 0 -2.9099080154332096e-05 -0.023066831259263041 0 0.00097091617936564186 -0.02271864516156169 0 0.00016203769036955706 -0.022337135340897148 0 -2.9099080154332096e-05 -0.023066831259263041 0 0.00046478275004681546 -0.023419643884671576 0 -2.9099080154332096e-05 -0.023066831259263041 0 0.00016163913764560329 -0.023523821891833208 0 -2.9099080154332096e-05 -0.023066831259263041 0 -0.00037810390122320432 -0.023253074086771762 0 0.00016163913764560329 -0.023523821891833208 0 -0.0010470619758424934 -0.02244341610452108 0 -2.9099080154332096e-05 -0.023066831259263041 0 -0.00037810390122320432 -0.023253074086771762 0 0.00048537965868312229 -0.023353142996564522 0 0.00013594963011965311 -0.023492323106171276 0 0.0003945295665067854 -0.023310883643940974 0 -0.00064303498255952702 -0.023926242638656964 0 0.00016163913764560329 -0.023523821891833208 0 0.00013594963011965311 -0.023492323106171276 0 -0.00064303498255952702 -0.023926242638656964 0 -0.00037810390122320432 -0.023253074086771762 0 0.00016163913764560329 -0.023523821891833208 0 0.00032435527847040913 -0.021242151855451752 0 -8.4550059375106037e-05 -0.023750552433368571 0 0.00013594963011965311 -0.023492323106171276 0 0.0003945295665067854 -0.023310883643940974 0 0.00029600357828088713 -0.023271452903280969 0 0.00043018632431582343 -0.023234865635326042 0 0.0003945295665067854 -0.023310883643940974 0 0.00029600357828088713 -0.023271452903280969 0 0.00043018632431582343 -0.023234865635326042 0 0.00029600357828088713 -0.023271452903280969 0 0.00035558128594694179 -0.023100234870808128 0 0.00014916444234065835 -0.023226771611323138 0 0.0003954070022592443 -0.022623769062680345 0 0.0010208240763604139 -0.022751117653840237 0 0.00025929572688883893 -0.023165321926559131 0 0.00054276841525886408 -0.023015536928846156 0 0.00029600357828088713 -0.023271452903280969 0 0.00014916444234065835 -0.023226771611323138 0 0.00035558128594694179 -0.023100234870808128 0 0.00013594963011965311 -0.023492323106171276 0 0.00029600357828088713 -0.023271452903280969 0 0.00019204980243613251 -0.023331636425291742 0 0.00029600357828088713 -0.023271452903280969 0 0.00019204980243613251 -0.023331636425291742 0 0.00014916444234065835 -0.023226771611323138 0 0.00013594963011965311 -0.023492323106171276 0 0.00019204980243613251 -0.023331636425291742 0 -5.7798361512379241e-05 -0.023386616927445394 0 0.00019204980243613251 -0.023331636425291742 0 0.00014916444234065835 -0.023226771611323138 0 -5.7798361512379241e-05 -0.023386616927445394 0 -5.7798361512379241e-05 -0.023386616927445394 0 -0.00087969203291788462 -0.022488145634902961 0 -0.00014279861869426625 -0.022698605399294941 0 0.00014916444234065835 -0.023226771611323138 0 -5.7798361512379241e-05 -0.023386616927445394 0 -0.00014279861869426625 -0.022698605399294941 0 0.00014916444234065835 -0.023226771611323138 0 -0.00014279861869426625 -0.022698605399294941 0 0.0003954070022592443 -0.022623769062680345 0 0.00016163913764560329 -0.023523821891833208 0 0.00013594963011965311 -0.023492323106171276 0 -5.7798361512379241e-05 -0.023386616927445394 0 0.0001515659987958494 -0.023484725124026572 0 9.5378191328851614e-05 -0.023370228630785722 0 0.00016163913764560329 -0.023523821891833208 0 0.00026637517175395986 -0.023323187955665556 0 0.00027408042267482678 -0.023493141466574764 0 0.00026637517175395986 -0.023323187955665556 0 0.00027408042267482678 -0.023493141466574764 0 -0.00017093562522410016 -0.023613041395408804 0 0.00046478275004681546 -0.023419643884671576 0 0.00016163913764560329 -0.023523821891833208 0 0.00027408042267482678 -0.023493141466574764 0 -0.00027139680374003029 -0.024289953748409327 0 0.00027408042267482678 -0.023493141466574764 0 -0.00017093562522410016 -0.023613041395408804 0 -0.00027139680374003029 -0.024289953748409327 0 -0.00017093562522410016 -0.023613041395408804 0 -0.00099370775333568434 -0.02386649038063314 0 0.00026637517175395986 -0.023323187955665556 0 -0.00017093562522410016 -0.023613041395408804 0 -0.00021754373504905244 -0.023185417829388145 0 0.00026637517175395986 -0.023323187955665556 0 -0.00021754373504905244 -0.023185417829388145 0 -0.0002918977954599078 -0.022540741183035357 0 9.5378191328851614e-05 -0.023370228630785722 0 -0.00065348214013626407 -0.022261766072557612 0 -0.00021754373504905244 -0.023185417829388145 0 -0.0006885023504327268 -0.023200357678250835 0 -0.0002918977954599078 -0.022540741183035357 0 -0.00017093562522410016 -0.023613041395408804 0 -0.00021754373504905244 -0.023185417829388145 0 -0.0006885023504327268 -0.023200357678250835 0 -0.0017270719009219249 -0.022745990101891753 0 -0.0006885023504327268 -0.023200357678250835 0 -0.0002918977954599078 -0.022540741183035357 0 -0.0017270719009219249 -0.022745990101891753 0 -0.0006885023504327268 -0.023200357678250835 0 -0.0012838608357830963 -0.02339919264853059 0 -0.0006885023504327268 -0.023200357678250835 0 -0.0012838608357830963 -0.02339919264853059 0 -0.00099370775333568434 -0.02386649038063314 0 -0.00017093562522410016 -0.023613041395408804 0 -0.0006885023504327268 -0.023200357678250835 0 -0.00099370775333568434 -0.02386649038063314 0 -0.0017486071038285277 -0.023774094828064623 0 -0.0012838608357830963 -0.02339919264853059 0 -0.00099370775333568434 -0.02386649038063314 0 -0.0016355446760590374 -0.024263047052829133 0 -0.0013270771268448216 -0.024386782423453053 0 -0.00099370775333568434 -0.02386649038063314 0 -0.0016117783283638759 -0.023461317675316933 0 -0.00075989492050401372 -0.020260810166468825 0 -0.0017270719009219249 -0.022745990101891753 0 -0.00095823448642706516 -0.021763808497455704 0 -0.0002918977954599078 -0.022540741183035357 0 -0.0020829773557782196 -0.025510076515032988 0 -0.0016117783283638759 -0.023461317675316933 0 -0.0016117783283638759 -0.023461317675316933 0 -0.00065348214013626407 -0.022261766072557612 0 -0.00087969203291788462 -0.022488145634902961 0 -0.00073449374090422482 -0.021554033918889635 0 -0.00016960094427783434 -0.021891383698879684 0 -0.001617491807583213 -0.021575957356117406 0 -0.00087969203291788462 -0.022488145634902961 0 -0.00073449374090422482 -0.021554033918889635 0 -0.001617491807583213 -0.021575957356117406 0 -0.00073449374090422482 -0.021554033918889635 0 -0.00094983100635814626 -0.020708375662805392 0 -0.00073449374090422482 -0.021554033918889635 0 4.3116725522545774e-05 -0.021307482253452144 0 -0.00024520506718884343 -0.020692233909251023 0 4.3116725522545774e-05 -0.021307482253452144 0 -0.00016960094427783434 -0.021891383698879684 0 0.00059402431011986443 -0.021709562070673101 0 -0.00073449374090422482 -0.021554033918889635 0 4.3116725522545774e-05 -0.021307482253452144 0 -0.00016960094427783434 -0.021891383698879684 0 -0.00087969203291788462 -0.022488145634902961 0 -0.00016960094427783434 -0.021891383698879684 0 -0.00014279861869426625 -0.022698605399294941 0 -0.00014279861869426625 -0.022698605399294941 0 0.00024798342300154868 -0.022230875434615542 0 0.0003954070022592443 -0.022623769062680345 0 -0.00016960094427783434 -0.021891383698879684 0 -0.00014279861869426625 -0.022698605399294941 0 0.00024798342300154868 -0.022230875434615542 0 -0.00016960094427783434 -0.021891383698879684 0 0.00024798342300154868 -0.022230875434615542 0 0.00059402431011986443 -0.021709562070673101 0 0.00024798342300154868 -0.022230875434615542 0 0.00070989021262656362 -0.022282253321693903 0 0.00059402431011986443 -0.021709562070673101 0 0.00024798342300154868 -0.022230875434615542 0 0.00070989021262656362 -0.022282253321693903 0 0.0003954070022592443 -0.022623769062680345 0 0.00070989021262656362 -0.022282253321693903 0 0.0003954070022592443 -0.022623769062680345 0 0.0010208240763604139 -0.022751117653840237 0 0.00070989021262656362 -0.022282253321693903 0 0.0010208240763604139 -0.022751117653840237 0 0.0010869927753385026 -0.022106475594016402 0 0.00070989021262656362 -0.022282253321693903 0 0.0010869927753385026 -0.022106475594016402 0 0.00059402431011986443 -0.021709562070673101 0 0.0010869927753385026 -0.022106475594016402 0 0.00059402431011986443 -0.021709562070673101 0 0.0012716999204477903 -0.021527965803897268 0 4.3116725522545774e-05 -0.021307482253452144 0 0.00059402431011986443 -0.021709562070673101 0 0.00050664879332776682 -0.021017956369051089 0 0.00050664879332776682 -0.021017956369051089 0 0.0012716999204477903 -0.021527965803897268 0 0.001274228960844125 -0.020931787585515508 0 0.00059402431011986443 -0.021709562070673101 0 0.00050664879332776682 -0.021017956369051089 0 0.0012716999204477903 -0.021527965803897268 0 0.00050664879332776682 -0.021017956369051089 0 8.1320054931864966e-05 -0.019839465375495045 0 0.001274228960844125 -0.020931787585515508 0 0.00017983930411728932 -0.01960778116635508 0 8.1320054931864966e-05 -0.019839465375495045 0 0.00021014265526976715 -0.019430009612548 0 5.9639979323723247e-05 -0.019753977949337639 0 0.00081575014744367528 -0.020360838143836615 0 0.00017983930411728932 -0.01960778116635508 0 8.1320054931864966e-05 -0.019839465375495045 0 0.00016979113471992009 -0.019612351047247453 0 0.00017983930411728932 -0.01960778116635508 0 0.00018705004270332064 -0.019593545129153893 0 0.00016979113471992009 -0.019612351047247453 0 8.1320054931864966e-05 -0.019839465375495045 0 -0.00044785111501627491 -0.020077404460147743 0 9.1390237776868017e-06 -0.019499343767761159 0 8.1320054931864966e-05 -0.019839465375495045 0 9.1390237776868017e-06 -0.019499343767761159 0 0.00016979113471992009 -0.019612351047247453 0 8.1320054931864966e-05 -0.019839465375495045 0 -0.00024520506718884343 -0.020692233909251023 0 -0.00044785111501627491 -0.020077404460147743 0 0.00050664879332776682 -0.021017956369051089 0 8.1320054931864966e-05 -0.019839465375495045 0 -0.00024520506718884343 -0.020692233909251023 0 4.3116725522545774e-05 -0.021307482253452144 0 0.00050664879332776682 -0.021017956369051089 0 -0.00024520506718884343 -0.020692233909251023 0 -0.00073449374090422482 -0.021554033918889635 0 -0.00024520506718884343 -0.020692233909251023 0 -0.00094983100635814626 -0.020708375662805392 0 -0.00024520506718884343 -0.020692233909251023 0 -0.00094983100635814626 -0.020708375662805392 0 -0.00044785111501627491 -0.020077404460147743 0 -0.00044785111501627491 -0.020077404460147743 0 -0.0011781754800818996 -0.01990928483698836 0 9.1390237776868017e-06 -0.019499343767761159 0 -0.0014187167008905348 -0.023681411814916488 0 -0.00065304838544556385 -0.023557854196424519 0 -0.00094983100635814626 -0.020708375662805392 0 -0.00044785111501627491 -0.020077404460147743 0 -0.0011781754800818996 -0.01990928483698836 0 -0.0018561131642977128 -0.027750681025817986 0 -0.0016763922264446112 -0.027772340820134047 0 -0.0017232274733088918 -0.027622173774937343 0 -0.0019654503453479803 -0.025481942393678906 0 -0.0014187167008905348 -0.023681411814916488 0 -0.0019108699868727499 -0.027903276678882101 0 -0.0018561131642977128 -0.027750681025817986 0 -0.0016763922264446112 -0.027772340820134047 0 -0.00094983100635814626 -0.020708375662805392 0 -0.0011781754800818996 -0.01990928483698836 0 -0.0015388079455857001 -0.020704407393038547 0 -0.0015738463687200539 -0.021631200408412019 0 -0.00094983100635814626 -0.020708375662805392 0 -0.0015388079455857001 -0.020704407393038547 0 -0.0019654503453479803 -0.025481942393678906 0 -0.0016117783283638759 -0.023461317675316933 0 -0.0024661810772809985 -0.020577321535156744 0 -0.0011781754800818996 -0.01990928483698836 0 -0.0015388079455857001 -0.020704407393038547 0 -0.0024661810772809985 -0.020577321535156744 0 -0.0015738463687200539 -0.021631200408412019 0 -0.0015388079455857001 -0.020704407393038547 0 6.9598116023866425e-05 -0.018015930753878247 0 7.3716848147257051e-06 -0.01795559009584782 0 0.00017110859670984359 -0.01798047618669163 0 3.3431815824453531e-05 -0.019280901171358694 0 6.0613274711460506e-05 -0.019306949503859125 0 -1.7656917425839271e-06 -0.019296035090048281 0 6.9598116023866425e-05 -0.018015930753878247 0 -1.0082441913495537e-05 -0.018017026351902776 0 7.3716848147257051e-06 -0.01795559009584782 0 4.1697868099434213e-05 -0.018653254634949878 0 0.00089293499689499284 -0.019631078739613589 0 4.1697868099434213e-05 -0.018653254634949878 0 -6.8540250464689669e-05 -0.018812697718725058 0 6.9598116023866425e-05 -0.018015930753878247 0 -1.0082441913495537e-05 -0.018017026351902776 0 -4.5385529112883532e-05 -0.018093482663287183 0 -0.00046758300264856229 -0.017245421213746961 0 -0.00031329375467212196 -0.017797094222724418 0 -1.0082441913495537e-05 -0.018017026351902776 0 -0.00039701990775206593 -0.017605328797954616 0 -3.5896378720365571e-05 -0.01798321340363385 0 -1.0082441913495537e-05 -0.018017026351902776 0 -0.00015546927990455159 -0.017957969652250019 0 -4.5385529112883532e-05 -0.018093482663287183 0 -0.00031329375467212196 -0.017797094222724418 0 -1.0082441913495537e-05 -0.018017026351902776 0 -0.00015546927990455159 -0.017957969652250019 0 -0.00029558348238181806 -0.017978478754054221 0 -1.0082441913495537e-05 -0.018017026351902776 0 7.3716848147257051e-06 -0.01795559009584782 0 -0.00010485728850533001 -0.017870133864468993 0 5.7399146960008233e-05 -0.017876721105770255 0 7.3716848147257051e-06 -0.01795559009584782 0 -0.00029558348238181806 -0.017978478754054221 0 -0.00010485728850533001 -0.017870133864468993 0 7.3716848147257051e-06 -0.01795559009584782 0 0.0001641815602031334 -0.017952490462604619 0 0.00089293499689499284 -0.019631078739613589 0 5.7399146960008233e-05 -0.017876721105770255 0 7.3716848147257051e-06 -0.01795559009584782 0 0.00017110859670984359 -0.01798047618669163 0 0.0011714954408066644 -0.018102125218758671 0 0.00049255846122305219 -0.018373461110479886 0 0.0011776561971037539 -0.019008589724447217 0 0.0011714954408066644 -0.018102125218758671 0 0.0011776561971037539 -0.019008589724447217 0 0.0016666023875134459 -0.018745681172518121 0 0.001035889127506708 -0.020823552835224218 0 0.0013738578741622383 -0.021167688905777075 0 0.00089293499689499284 -0.019631078739613589 0 0.0013738578741622383 -0.021167688905777075 0 0.0022678589132238826 -0.021835420673320637 0 0.0017495441479713897 -0.022124471185348511 0 0.0012716999204477903 -0.021527965803897268 0 0.0010208240763604139 -0.022751117653840237 0 0.0010869927753385026 -0.022106475594016402 0 0.0018574231481637523 -0.022270383544286492 0 0.00050860452551679855 -0.023162859310099558 0 0.00035558128594694179 -0.023100234870808128 0 0.00053531869017265504 -0.023001020144553873 0 0.00054276841525886408 -0.023015536928846156 0 0.0013738578741622383 -0.021167688905777075 0 0.0010869927753385026 -0.022106475594016402 0 0.0018574231481637523 -0.022270383544286492 0 0.0012716999204477903 -0.021527965803897268 0 0.0022678589132238826 -0.021835420673320637 0 0.0012716999204477903 -0.021527965803897268 0 0.001274228960844125 -0.020931787585515508 0 0.00089293499689499284 -0.019631078739613589 0 0.00081575014744367528 -0.020360838143836615 0 0.0013738578741622383 -0.021167688905777075 0 0.0015531339193421789 -0.021881391981010072 0 3.3431815824453531e-05 -0.019280901171358694 0 9.2721227167658594e-05 -0.019328290823602698 0 6.0613274711460506e-05 -0.019306949503859125 0 9.0797849745994155e-05 -0.019240945126501981 0 9.2721227167658594e-05 -0.019328290823602698 0 0.00021014265526976715 -0.019430009612548 0 3.3431815824453531e-05 -0.019280901171358694 0 9.0797849745994155e-05 -0.019240945126501981 0 9.2721227167658594e-05 -0.019328290823602698 0 9.2721227167658594e-05 -0.019328290823602698 0 6.0613274711460506e-05 -0.019306949503859125 0 0.00012357328279612219 -0.019416818693914328 0 6.0613274711460506e-05 -0.019306949503859125 0 0.00012357328279612219 -0.019416818693914328 0 6.482131961879063e-05 -0.019413710219432126 0 0.00017983930411728932 -0.01960778116635508 0 0.00021014265526976715 -0.019430009612548 0 0.000162826145387442 -0.019499331651161255 0 9.2721227167658594e-05 -0.019328290823602698 0 0.00012357328279612219 -0.019416818693914328 0 0.00021014265526976715 -0.019430009612548 0 0.00012357328279612219 -0.019416818693914328 0 0.00021014265526976715 -0.019430009612548 0 0.000162826145387442 -0.019499331651161255 0 0.00017983930411728932 -0.01960778116635508 0 0.00014716150107202581 -0.019515246477388629 0 0.00018705004270332064 -0.019593545129153893 0 0.00017983930411728932 -0.01960778116635508 0 0.000162826145387442 -0.019499331651161255 0 0.00014716150107202581 -0.019515246477388629 0 0.00012357328279612219 -0.019416818693914328 0 0.000162826145387442 -0.019499331651161255 0 0.00014716150107202581 -0.019515246477388629 0 0.00014716150107202581 -0.019515246477388629 0 6.482131961879063e-05 -0.019413710219432126 0 6.0007085919103134e-06 -0.019528395238791591 0 0.00012357328279612219 -0.019416818693914328 0 0.00014716150107202581 -0.019515246477388629 0 6.482131961879063e-05 -0.019413710219432126 0 6.482131961879063e-05 -0.019413710219432126 0 -4.0209918199909884e-05 -0.019343681854340756 0 6.0007085919103134e-06 -0.019528395238791591 0 -4.0209918199909884e-05 -0.019343681854340756 0 -0.00013776639387955435 -0.019505241780792826 0 6.0007085919103134e-06 -0.019528395238791591 0 3.9025604102101052e-05 -0.019350364785791961 0 -6.8540250464689669e-05 -0.018812697718725058 0 6.0613274711460506e-05 -0.019306949503859125 0 -4.0209918199909884e-05 -0.019343681854340756 0 -0.0001040739462384941 -0.019180615005614049 0 6.0613274711460506e-05 -0.019306949503859125 0 6.482131961879063e-05 -0.019413710219432126 0 -4.0209918199909884e-05 -0.019343681854340756 0 6.0613274711460506e-05 -0.019306949503859125 0 -0.0001040739462384941 -0.019180615005614049 0 -0.00017698846478009125 -0.019012791848752562 0 -4.0209918199909884e-05 -0.019343681854340756 0 -0.0001040739462384941 -0.019180615005614049 0 -0.00016685745568086857 -0.019200958308327767 0 -0.00031575340142732985 -0.01888720099238304 0 -0.00017698846478009125 -0.019012791848752562 0 -0.00020631578945236193 -0.019062964729011953 0 -0.00028200280575148257 -0.018910745046183969 0 -6.8540250464689669e-05 -0.018812697718725058 0 -0.0001040739462384941 -0.019180615005614049 0 -0.00017698846478009125 -0.019012791848752562 0 -0.00020631578945236193 -0.019062964729011953 0 -0.0001040739462384941 -0.019180615005614049 0 -0.00020631578945236193 -0.019062964729011953 0 -0.00016685745568086857 -0.019200958308327767 0 -0.00031575340142732985 -0.01888720099238304 0 -0.00020631578945236193 -0.019062964729011953 0 -0.00029699525480685204 -0.019104978148812193 0 -0.00020631578945236193 -0.019062964729011953 0 -0.00029699525480685204 -0.019104978148812193 0 -0.00016685745568086857 -0.019200958308327767 0 -0.0005379094706850744 -0.019580721472971286 0 -0.00011241580276517183 -0.019140691912951532 0 -0.00031708955913653628 -0.019418436263093874 0 -0.00016685745568086857 -0.019200958308327767 0 -0.00018907186125261897 -0.019383483562833925 0 -0.00032561758700055943 -0.01928750864024812 0 -0.00029699525480685204 -0.019104978148812193 0 -0.00016685745568086857 -0.019200958308327767 0 -4.0209918199909884e-05 -0.019343681854340756 0 -0.00016685745568086857 -0.019200958308327767 0 -0.00018907186125261897 -0.019383483562833925 0 -4.0209918199909884e-05 -0.019343681854340756 0 -0.00018907186125261897 -0.019383483562833925 0 -0.00013776639387955435 -0.019505241780792826 0 -0.00031708955913653628 -0.019418436263093874 0 -0.00018907186125261897 -0.019383483562833925 0 -0.00013776639387955435 -0.019505241780792826 0 -0.00031708955913653628 -0.019418436263093874 0 -0.00013776639387955435 -0.019505241780792826 0 -0.00026705300547378885 -0.019608436653200265 0 0.00055710215903004767 -0.019590911967996102 0 0.00015216105476217672 -0.019723180294175694 0 -0.00013776639387955435 -0.019505241780792826 0 -0.00026705300547378885 -0.019608436653200265 0 -0.00010571950479272744 -0.01965952371586872 0 0.0012261576792564374 -0.019654168817246728 0 0.0012256962708632228 -0.019650236296079045 0 0.0012340451511924603 -0.019651179040812199 0 0.0012261576792564374 -0.019654168817246728 0 0.0012256962708632228 -0.019650236296079045 0 0.0012098677898280464 -0.0196555020585624 0 0.00055266848851542947 -0.019928807384824099 0 0.00015216105476217672 -0.019723180294175694 0 -0.00016459751006395946 -0.019842456724016837 0 -0.00023127190405920504 -0.019904104681763981 0 -0.00012990566885838975 -0.019775508387965518 0 -0.00016459751006395946 -0.019842456724016837 0 -0.00025070746205092706 -0.019933745234991865 0 -0.00010572363481738409 -0.019915104837451583 0 -3.7749569635549919e-05 -0.020065411466663755 0 0.00055266848851542947 -0.019928807384824099 0 0.00015216105476217672 -0.019723180294175694 0 -5.4426188232743822e-05 -0.019766649651659945 0 -4.1029213580667302e-05 -0.019831271079252377 0 -0.00010572363481738409 -0.019915104837451583 0 8.7510999683128223e-05 -0.019836241469277083 0 -4.1029213580667302e-05 -0.019831271079252377 0 -0.00012990566885838975 -0.019775508387965518 0 5.560840770592251e-05 -0.019790951443599512 0 -0.00015370027813982562 -0.019710734307104336 0 4.0224257638490565e-05 -0.019651888466038454 0 5.560840770592251e-05 -0.019790951443599512 0 -0.00016459751006395946 -0.019842456724016837 0 -0.00010572363481738409 -0.019915104837451583 0 -0.00011015619656413184 -0.019838259565181249 0 -4.1029213580667302e-05 -0.019831271079252377 0 -0.00010572363481738409 -0.019915104837451583 0 -0.00011015619656413184 -0.019838259565181249 0 -4.1029213580667302e-05 -0.019831271079252377 0 -0.00011015619656413184 -0.019838259565181249 0 -0.00012990566885838975 -0.019775508387965518 0 -0.00016459751006395946 -0.019842456724016837 0 -0.00011015619656413184 -0.019838259565181249 0 -0.00012990566885838975 -0.019775508387965518 0 -0.00015370027813982562 -0.019710734307104336 0 6.0007085919103134e-06 -0.019528395238791591 0 4.0224257638490565e-05 -0.019651888466038454 0 0.00015216105476217672 -0.019723180294175694 0 -5.3146629024921671e-05 -0.01957322136415985 0 -0.00013776639387955435 -0.019505241780792826 0 -0.00010571950479272744 -0.01965952371586872 0 6.0007085919103134e-06 -0.019528395238791591 0 0.00014716150107202581 -0.019515246477388629 0 6.0007085919103134e-06 -0.019528395238791591 0 0.00012183218813671414 -0.019635545010218292 0 6.0007085919103134e-06 -0.019528395238791591 0 0.00012183218813671414 -0.019635545010218292 0 4.0224257638490565e-05 -0.019651888466038454 0 0.00012183218813671414 -0.019635545010218292 0 0.00018705004270332064 -0.019593545129153893 0 0.00021848704407509048 -0.01963683643262339 0 0.00014716150107202581 -0.019515246477388629 0 0.00012183218813671414 -0.019635545010218292 0 0.00018705004270332064 -0.019593545129153893 0 -0.00071604731623007613 -0.027169470361407697 0 -0.00064107635463253837 -0.026767888619844308 0 -0.00010114681951835426 -0.026803187455702916 0 -0.00026387225443290737 -0.023406643629646857 0 9.2544265659705138e-06 -0.023308643430640971 0 0.00012183218813671414 -0.019635545010218292 0 0.00021848704407509048 -0.01963683643262339 0 8.7510999683128223e-05 -0.019836241469277083 0 0.00012183218813671414 -0.019635545010218292 0 8.7510999683128223e-05 -0.019836241469277083 0 5.560840770592251e-05 -0.019790951443599512 0 0.00012183218813671414 -0.019635545010218292 0 4.0224257638490565e-05 -0.019651888466038454 0 5.560840770592251e-05 -0.019790951443599512 0 -4.1029213580667302e-05 -0.019831271079252377 0 8.7510999683128223e-05 -0.019836241469277083 0 5.560840770592251e-05 -0.019790951443599512 0 -0.00010114681951835426 -0.026803187455702916 0 -0.00017572404607106462 -0.026432280588392174 0 0.0001648171559189146 -0.026333342427746237 0 -0.00010114681951835426 -0.026803187455702916 0 -0.00017572404607106462 -0.026432280588392174 0 -0.00040174331982275718 -0.026562490642422207 0 -0.00017572404607106462 -0.026432280588392174 0 -0.00037982298739136006 -0.026265812367277666 0 -0.00012431587043537588 -0.026176405267826778 0 -0.00017572404607106462 -0.026432280588392174 0 -0.00037982298739136006 -0.026265812367277666 0 -0.00040174331982275718 -0.026562490642422207 0 -0.00017572404607106462 -0.026432280588392174 0 -0.00012431587043537588 -0.026176405267826778 0 0.0001648171559189146 -0.026333342427746237 0 -0.00012431587043537588 -0.026176405267826778 0 0.00013090124366903856 -0.026001862578225447 0 0.0001648171559189146 -0.026333342427746237 0 -0.00064107635463253837 -0.026767888619844308 0 -0.00010114681951835426 -0.026803187455702916 0 -0.00040174331982275718 -0.026562490642422207 0 -0.00064107635463253837 -0.026767888619844308 0 -0.00040174331982275718 -0.026562490642422207 0 -0.00068500076377390551 -0.026425189938955693 0 -0.00064107635463253837 -0.026767888619844308 0 -0.00068500076377390551 -0.026425189938955693 0 -0.00088639067913494764 -0.026801791892134406 0 -0.00037982298739136006 -0.026265812367277666 0 -0.00040174331982275718 -0.026562490642422207 0 -0.00068500076377390551 -0.026425189938955693 0 -0.00037982298739136006 -0.026265812367277666 0 -0.00068500076377390551 -0.026425189938955693 0 -0.00052831492809551103 -0.026052937160716019 0 -0.00052831492809551103 -0.026052937160716019 0 -0.00067062221365488713 -0.025886599765376248 0 -0.00037871794124608318 -0.025625632684114906 0 -0.00068500076377390551 -0.026425189938955693 0 -0.00052831492809551103 -0.026052937160716019 0 -0.00083899142928148978 -0.02619011935864253 0 -0.00037982298739136006 -0.026265812367277666 0 -0.00052831492809551103 -0.026052937160716019 0 -0.00030605899781503812 -0.025985196210257536 0 -0.00052831492809551103 -0.026052937160716019 0 -0.00067062221365488713 -0.025886599765376248 0 -0.00083899142928148978 -0.02619011935864253 0 -6.5682258096211896e-05 -0.025829094725100823 0 -0.00037871794124608318 -0.025625632684114906 0 0.00033619096327647052 -0.025530146941301231 0 -0.00012431587043537588 -0.026176405267826778 0 -6.5682258096211896e-05 -0.025829094725100823 0 -0.00030605899781503812 -0.025985196210257536 0 -0.00012431587043537588 -0.026176405267826778 0 -6.5682258096211896e-05 -0.025829094725100823 0 0.00013090124366903856 -0.026001862578225447 0 -0.00037982298739136006 -0.026265812367277666 0 -0.00012431587043537588 -0.026176405267826778 0 -0.00030605899781503812 -0.025985196210257536 0 -0.00052831492809551103 -0.026052937160716019 0 -0.00030605899781503812 -0.025985196210257536 0 -0.00037871794124608318 -0.025625632684114906 0 -6.5682258096211896e-05 -0.025829094725100823 0 -0.00030605899781503812 -0.025985196210257536 0 -0.00037871794124608318 -0.025625632684114906 0 0.00033619096327647052 -0.025530146941301231 0 0.00013090124366903856 -0.026001862578225447 0 0.00043612797884357078 -0.026075655427371711 0 -6.5682258096211896e-05 -0.025829094725100823 0 0.00033619096327647052 -0.025530146941301231 0 0.00013090124366903856 -0.026001862578225447 0 0.00033619096327647052 -0.025530146941301231 0 0.00079832613318307766 -0.025686574968578759 0 0.00043612797884357078 -0.026075655427371711 0 0.00033619096327647052 -0.025530146941301231 0 0.00079832613318307766 -0.025686574968578759 0 0.00093030981703778523 -0.025079720533828554 0 0.0014448966826871839 -0.025337310940165943 0 0.00094881507574862123 -0.0263769079536663 0 0.0025872748555000706 -0.025579222941730109 0 0.00079832613318307766 -0.025686574968578759 0 0.00093030981703778523 -0.025079720533828554 0 0.0014448966826871839 -0.025337310940165943 0 0.00079832613318307766 -0.025686574968578759 0 0.0014448966826871839 -0.025337310940165943 0 0.00094881507574862123 -0.0263769079536663 0 0.00093030981703778523 -0.025079720533828554 0 0.0014448966826871839 -0.025337310940165943 0 0.0014390729264723173 -0.024738177198815464 0 0.0014448966826871839 -0.025337310940165943 0 0.0014390729264723173 -0.024738177198815464 0 0.0021183590092810848 -0.024725554522565599 0 0.00035102339722808523 -0.02332073947133792 0 0.0011717070275589249 -0.022196283436333546 0 -0.00025070746205092706 -0.019933745234991865 0 -0.00015234590864349583 -0.020063931473716257 0 -0.0004505645982214423 -0.020278566133238061 0 -0.00025070746205092706 -0.019933745234991865 0 -0.00010572363481738409 -0.019915104837451583 0 -0.00015234590864349583 -0.020063931473716257 0 9.2544265659705138e-06 -0.023308643430640971 0 0.00035102339722808523 -0.02332073947133792 0 -0.00010114681951835426 -0.026803187455702916 0 0.00094881507574862123 -0.0263769079536663 0 0.0001648171559189146 -0.026333342427746237 0 -0.00010572363481738409 -0.019915104837451583 0 8.7510999683128223e-05 -0.019836241469277083 0 -0.00015234590864349583 -0.020063931473716257 0 0.00094881507574862123 -0.0263769079536663 0 0.00043612797884357078 -0.026075655427371711 0 0.0001648171559189146 -0.026333342427746237 0 0.00013090124366903856 -0.026001862578225447 0 0.00043612797884357078 -0.026075655427371711 0 0.0001648171559189146 -0.026333342427746237 0 0.00079832613318307766 -0.025686574968578759 0 0.00094881507574862123 -0.0263769079536663 0 0.00043612797884357078 -0.026075655427371711 0 -0.0018993639762444423 -0.027411258032135441 0 -0.0018483015780507335 -0.027597379037512103 0 -0.0016513506989098614 -0.027401675680530688 0 -0.0018483015780507335 -0.027597379037512103 0 -0.0017232274733088918 -0.027622173774937343 0 -0.0016513506989098614 -0.027401675680530688 0 -0.0018561131642977128 -0.027750681025817986 0 -0.0018483015780507335 -0.027597379037512103 0 -0.0017232274733088918 -0.027622173774937343 0 -0.0017232274733088918 -0.027622173774937343 0 -0.0015520752018942029 -0.027538599100067795 0 -0.0016513506989098614 -0.027401675680530688 0 -0.0016763922264446112 -0.027772340820134047 0 -0.0015520752018942029 -0.027538599100067795 0 -0.0012545010580329102 -0.027551661129495867 0 -0.0016763922264446112 -0.027772340820134047 0 -0.0017232274733088918 -0.027622173774937343 0 -0.0015520752018942029 -0.027538599100067795 0 -0.0015520752018942029 -0.027538599100067795 0 -0.0016513506989098614 -0.027401675680530688 0 -0.0014080477582473318 -0.027336812144385953 0 -0.0016513506989098614 -0.027401675680530688 0 -0.0012602975664418618 -0.027014262746482321 0 -0.0014080477582473318 -0.027336812144385953 0 -0.0016513506989098614 -0.027401675680530688 0 -0.0012602975664418618 -0.027014262746482321 0 -0.0016083525016113824 -0.026660931166882545 0 -0.0012602975664418618 -0.027014262746482321 0 -0.0014080477582473318 -0.027336812144385953 0 -0.0012545010580329102 -0.027551661129495867 0 -0.0015520752018942029 -0.027538599100067795 0 -0.0014080477582473318 -0.027336812144385953 0 -0.0012545010580329102 -0.027551661129495867 0 -0.00026387225443290737 -0.023406643629646857 0 -0.00065304838544556385 -0.023557854196424519 0 0.00021848704407509048 -0.01963683643262339 0 9.1390237776868017e-06 -0.019499343767761159 0 0.00016979113471992009 -0.019612351047247453 0 0.00018705004270332064 -0.019593545129153893 0 0.00021848704407509048 -0.01963683643262339 0 0.00016979113471992009 -0.019612351047247453 0 -0.00071604731623007613 -0.027169470361407697 0 -0.0012602975664418618 -0.027014262746482321 0 -0.0012545010580329102 -0.027551661129495867 0 -0.00071604731623007613 -0.027169470361407697 0 -0.0012602975664418618 -0.027014262746482321 0 -0.00088639067913494764 -0.026801791892134406 0 -0.00071604731623007613 -0.027169470361407697 0 -0.00064107635463253837 -0.026767888619844308 0 -0.00088639067913494764 -0.026801791892134406 0 -0.00068500076377390551 -0.026425189938955693 0 -0.001068262149118536 -0.026524888648694706 0 -0.00088639067913494764 -0.026801791892134406 0 -0.00068500076377390551 -0.026425189938955693 0 -0.001068262149118536 -0.026524888648694706 0 -0.00083899142928148978 -0.02619011935864253 0 -0.0012602975664418618 -0.027014262746482321 0 -0.001068262149118536 -0.026524888648694706 0 -0.00088639067913494764 -0.026801791892134406 0 -0.001068262149118536 -0.026524888648694706 0 -0.0010697049072800613 -0.025962137383789718 0 -0.00083899142928148978 -0.02619011935864253 0 -0.00067062221365488713 -0.025886599765376248 0 -0.0010697049072800613 -0.025962137383789718 0 -0.00083899142928148978 -0.02619011935864253 0 -0.0014672060868407555 -0.02673591354032142 0 -0.00171575493438902 -0.027059393058134998 0 -0.001068262149118536 -0.026524888648694706 0 -0.0010697049072800613 -0.025962137383789718 0 -0.0016083525016113824 -0.026660931166882545 0 -0.0012602975664418618 -0.027014262746482321 0 -0.001068262149118536 -0.026524888648694706 0 -0.0016083525016113824 -0.026660931166882545 0 -0.0018901379737241632 -0.027477635448286339 0 -0.0019060849161247194 -0.027474428150227166 0 -0.0018912606949923803 -0.027442100521396146 0 -0.0017907768369857912 -0.027451335607824808 0 -0.0018901379737241632 -0.027477635448286339 0 -0.0018912606949923803 -0.027442100521396146 0 -0.0018993639762444423 -0.027411258032135441 0 -0.0016513506989098614 -0.027401675680530688 0 -0.0016083525016113824 -0.026660931166882545 0 -0.0018905660896171791 -0.027364987358746932 0 -0.00171575493438902 -0.027059393058134998 0 -0.0018993639762444423 -0.027411258032135441 0 -0.0018901379737241632 -0.027477635448286339 0 -0.0019060849161247194 -0.027474428150227166 0 -0.0018994787296390812 -0.027443758100765943 0 -0.0018932178668448084 -0.027452104640842426 0 -0.0018895620212238484 -0.027444572428342473 0 -0.0018994787296390812 -0.027443758100765943 0 -0.0018932178668448084 -0.027452104640842426 0 -0.0019007508174025754 -0.027469426122037285 0 -0.0018932178668448084 -0.027452104640842426 0 -0.0019007508174025754 -0.027469426122037285 0 -0.0018912606949923803 -0.027442100521396146 0 -0.0019060849161247194 -0.027474428150227166 0 -0.0019007508174025754 -0.027469426122037285 0 -0.0018912606949923803 -0.027442100521396146 0 -0.0018776820716128321 -0.027430674680066096 0 -0.0019018272779568017 -0.02741493604741433 0 -0.0018932178668448084 -0.027452104640842426 0 -0.0018912606949923803 -0.027442100521396146 0 -0.0018895620212238484 -0.027444572428342473 0 -0.0018912606949923803 -0.027442100521396146 0 -0.0018895620212238484 -0.027444572428342473 0 -0.0018907215098418039 -0.027439762844497347 0 -0.0019079083713489106 -0.026921109931947178 0 -0.0018129210477034192 -0.026834449327494774 0 -0.0018591397016477478 -0.026289900985407552 0 -0.0022331554965742463 -0.026472170210072622 0 -0.0021679391436348634 -0.026531821330555681 0 -0.0018895620212238484 -0.027444572428342473 0 -0.0018907215098418039 -0.027439762844497347 0 -0.0018912239277326774 -0.027434189784645655 0 -0.0019018272779568017 -0.02741493604741433 0 -0.0018129210477034192 -0.026834449327494774 0 -0.0017907768369857912 -0.027451335607824808 0 -0.0018912606949923803 -0.027442100521396146 0 -0.0018392721891301051 -0.027396609798172298 0 -0.0017907768369857912 -0.027451335607824808 0 -0.0018392721891301051 -0.027396609798172298 0 -0.0017766559638713489 -0.027351038339447825 0 -0.0014672060868407555 -0.02673591354032142 0 -0.00086603095142286622 -0.026370194488555796 0 -0.00067062221365488713 -0.025886599765376248 0 -0.0010697049072800613 -0.025962137383789718 0 -0.00050287313454576703 -0.02557521502983404 0 -0.0017907768369857912 -0.027451335607824808 0 -0.0017766559638713489 -0.027351038339447825 0 -0.0016451993882874499 -0.027367161844226273 0 -0.0018129210477034192 -0.026834449327494774 0 -0.00086603095142286622 -0.026370194488555796 0 -0.0022331554965742463 -0.026472170210072622 0 -0.0021978546372877932 -0.026552014951608485 0 -0.0021617280090361962 -0.026526672826116808 0 -0.0021978546372877932 -0.026552014951608485 0 -0.0022150785990976024 -0.026660388165584352 0 -0.0021679391436348634 -0.026531821330555681 0 -0.0022331554965742463 -0.026472170210072622 0 -0.0021978546372877932 -0.026552014951608485 0 -0.0021679391436348634 -0.026531821330555681 0 -0.0021978546372877932 -0.026552014951608485 0 -0.0021617280090361962 -0.026526672826116808 0 -0.0021410266231422256 -0.026521045089788059 0 -0.0021978546372877932 -0.026552014951608485 0 -0.0022150785990976024 -0.026660388165584352 0 -0.0021410266231422256 -0.026521045089788059 0 -0.0022150785990976024 -0.026660388165584352 0 -0.0021410266231422256 -0.026521045089788059 0 -0.0022601503963481473 -0.026805582982978214 0 -0.0022150785990976024 -0.026660388165584352 0 -0.0021246525123766319 -0.026661730868982967 0 -0.0021142103743456561 -0.026891218873535926 0 -0.0022150785990976024 -0.026660388165584352 0 -0.0021142103743456561 -0.026891218873535926 0 -0.0022601503963481473 -0.026805582982978214 0 -0.0022150785990976024 -0.026660388165584352 0 -0.0021679391436348634 -0.026531821330555681 0 -0.0021246525123766319 -0.026661730868982967 0 -0.0021679391436348634 -0.026531821330555681 0 -0.0021246525123766319 -0.026661730868982967 0 -0.0018694358099618519 -0.026567752166177294 0 -0.0018591397016477478 -0.026289900985407552 0 -0.0021679391436348634 -0.026531821330555681 0 -0.0018694358099618519 -0.026567752166177294 0 -0.0021246525123766319 -0.026661730868982967 0 -0.0018694358099618519 -0.026567752166177294 0 -0.0021142103743456561 -0.026891218873535926 0 -0.0021142103743456561 -0.026891218873535926 0 -0.0016149808912448622 -0.027106887279386146 0 -0.0015219467061418799 -0.026784558104484345 0 -0.0018694358099618519 -0.026567752166177294 0 -0.0021142103743456561 -0.026891218873535926 0 -0.0015219467061418799 -0.026784558104484345 0 -0.00097004162406862722 -0.026383845491423728 0 -0.0015219467061418799 -0.026784558104484345 0 -0.0010749287779466912 -0.027028491251596086 0 -0.0016149808912448622 -0.027106887279386146 0 -0.0015219467061418799 -0.026784558104484345 0 -0.0010749287779466912 -0.027028491251596086 0 -0.00097004162406862722 -0.026383845491423728 0 -0.0018694358099618519 -0.026567752166177294 0 -0.0015219467061418799 -0.026784558104484345 0 -0.00097004162406862722 -0.026383845491423728 0 -0.0018591397016477478 -0.026289900985407552 0 -0.0018694358099618519 -0.026567752166177294 0 -0.0014005397683492316 -0.026659323758969788 0 -0.0019079083713489106 -0.026921109931947178 0 -0.00064675789797935827 -0.025926643852099952 0 -0.00066314359129421611 -0.025854062374393673 0 -0.00060328431795028453 -0.025917527112651665 0 -0.00066314359129421611 -0.025854062374393673 0 -0.00063113181425892716 -0.02582934133213834 0 -0.00070260668942637736 -0.025788274990657441 0 -0.00064675789797935827 -0.025926643852099952 0 -0.00066314359129421611 -0.025854062374393673 0 -0.00066150219146799305 -0.025865706355737351 0 -0.00064675789797935827 -0.025926643852099952 0 -0.00066150219146799305 -0.025865706355737351 0 -0.00061301246247312806 -0.025872431438659999 0 -0.00061301246247312806 -0.025872431438659999 0 -0.00061029329910886802 -0.025947825295431139 0 -0.00052788688405078655 -0.025857928192924547 0 -0.00064675789797935827 -0.025926643852099952 0 -0.00061301246247312806 -0.025872431438659999 0 -0.00061029329910886802 -0.025947825295431139 0 -0.00064675789797935827 -0.025926643852099952 0 -0.00061029329910886802 -0.025947825295431139 0 -0.00065522030218624324 -0.025995230557631768 0 -0.00061029329910886802 -0.025947825295431139 0 -0.00065522030218624324 -0.025995230557631768 0 -0.00071354002848456966 -0.026073864144957503 0 -0.00061029329910886802 -0.025947825295431139 0 -0.00047981577896247978 -0.025960268184574701 0 -0.00071354002848456966 -0.026073864144957503 0 -0.00060007827672076412 -0.026011493972441298 0 -0.00072298430382879109 -0.026083503641360209 0 -0.00065522030218624324 -0.025995230557631768 0 -0.00061043698930336786 -0.026016040129319951 0 -0.00071354002848456966 -0.026073864144957503 0 -0.00064675789797935827 -0.025926643852099952 0 -0.00065522030218624324 -0.025995230557631768 0 -0.00061043698930336786 -0.026016040129319951 0 -0.00064675789797935827 -0.025926643852099952 0 -0.00061043698930336786 -0.026016040129319951 0 -0.00060328431795028453 -0.025917527112651665 0 -0.00061043698930336786 -0.026016040129319951 0 -0.00050085262733739111 -0.025988340853833423 0 -0.00040827254589253159 -0.026049812059756938 0 -0.0005377198371262484 -0.025904617264457443 0 -0.00067406082817714067 -0.025686761588883569 0 -0.00022774066472791769 -0.026158539129140904 0 1.1927396107037513e-05 -0.025044295066168842 0 0.0015443096739104639 -0.023762806299421731 0 -0.00059962021733678023 -0.025583075671142968 0 -9.6682578003322675e-05 -0.024960353709641649 0 -0.00061043698930336786 -0.026016040129319951 0 -0.00050085262733739111 -0.025988340853833423 0 -0.00060328431795028453 -0.025917527112651665 0 -0.00050085262733739111 -0.025988340853833423 0 -0.00040827254589253159 -0.026049812059756938 0 -0.00022774066472791769 -0.026158539129140904 0 -0.00050085262733739111 -0.025988340853833423 0 -0.0005377198371262484 -0.025904617264457443 0 -0.00022774066472791769 -0.026158539129140904 0 -0.0005377198371262484 -0.025904617264457443 0 -0.00063113181425892716 -0.02582934133213834 0 -0.00067406082817714067 -0.025686761588883569 0 -0.00060328431795028453 -0.025917527112651665 0 -0.0005377198371262484 -0.025904617264457443 0 -0.00063113181425892716 -0.02582934133213834 0 -0.00050085262733739111 -0.025988340853833423 0 -0.00060328431795028453 -0.025917527112651665 0 -0.0005377198371262484 -0.025904617264457443 0 -0.00066314359129421611 -0.025854062374393673 0 -0.00060328431795028453 -0.025917527112651665 0 -0.00063113181425892716 -0.02582934133213834 0 -0.00063113181425892716 -0.02582934133213834 0 -0.00067406082817714067 -0.025686761588883569 0 -0.00070260668942637736 -0.025788274990657441 0 -0.00067406082817714067 -0.025686761588883569 0 -0.00079852058953125632 -0.025869761122510024 0 0.00045607466409251671 -0.024520493319767321 0 0.0018539756757110714 -0.024193848467708404 0 0.00075305682258000497 -0.024299708856697889 0 0.0019801702938421193 -0.023814061501049706 0 0.0018539756757110714 -0.024193848467708404 0 0.0014390729264723173 -0.024738177198815464 0 0.00075305682258000497 -0.024299708856697889 0 0.00075305682258000497 -0.024299708856697889 0 0.0026531026431046707 -0.0228870995678476 0 0.0019801702938421193 -0.023814061501049706 0 -0.00067406082817714067 -0.025686761588883569 0 -0.00079852058953125632 -0.025869761122510024 0 -0.00070260668942637736 -0.025788274990657441 0 0.0018539756757110714 -0.024193848467708404 0 0.0014390729264723173 -0.024738177198815464 0 0.0021183590092810848 -0.024725554522565599 0 0.00093030981703778523 -0.025079720533828554 0 0.0014390729264723173 -0.024738177198815464 0 0.00075305682258000497 -0.024299708856697889 0 -0.00034532431530977258 -0.025557780756883152 0 1.1927396107037513e-05 -0.025044295066168842 0 -0.00037871794124608318 -0.025625632684114906 0 -0.00079852058953125632 -0.025869761122510024 0 -0.00064583284795475865 -0.025827969271862265 0 -0.00037871794124608318 -0.025625632684114906 0 0.00033619096327647052 -0.025530146941301231 0 0.00075305682258000497 -0.024299708856697889 0 0.00033619096327647052 -0.025530146941301231 0 0.00093030981703778523 -0.025079720533828554 0 0.00075305682258000497 -0.024299708856697889 0 -0.00079852058953125632 -0.025869761122510024 0 -0.00070881714312859192 -0.025844707235742895 0 -0.00064583284795475865 -0.025827969271862265 0 -0.00066150219146799305 -0.025865706355737351 0 -0.00070881714312859192 -0.025844707235742895 0 -0.00064583284795475865 -0.025827969271862265 0 -0.00066314359129421611 -0.025854062374393673 0 -0.00066150219146799305 -0.025865706355737351 0 -0.00070881714312859192 -0.025844707235742895 0 -0.00066314359129421611 -0.025854062374393673 0 -0.00070260668942637736 -0.025788274990657441 0 -0.00070881714312859192 -0.025844707235742895 0 -0.00079852058953125632 -0.025869761122510024 0 -0.00070260668942637736 -0.025788274990657441 0 -0.00070881714312859192 -0.025844707235742895 0 -0.00061301246247312806 -0.025872431438659999 0 -0.00064583284795475865 -0.025827969271862265 0 -0.00052962790770446635 -0.025792075500007255 0 -0.00066150219146799305 -0.025865706355737351 0 -0.00061301246247312806 -0.025872431438659999 0 -0.00064583284795475865 -0.025827969271862265 0 -0.00037871794124608318 -0.025625632684114906 0 -0.00064583284795475865 -0.025827969271862265 0 -0.00052962790770446635 -0.025792075500007255 0 -0.00037871794124608318 -0.025625632684114906 0 -0.00042239602958738036 -0.025748318961440843 0 -0.00052962790770446635 -0.025792075500007255 0 -0.00037871794124608318 -0.025625632684114906 0 -0.00042239602958738036 -0.025748318961440843 0 -0.00045638026728399452 -0.025700542517549267 0 -0.00045663691142279326 -0.025980918282338523 0 -0.00086603095142286622 -0.026370194488555796 0 -0.00042239602958738036 -0.025748318961440843 0 -0.00052962790770446635 -0.025792075500007255 0 -0.00052788688405078655 -0.025857928192924547 0 -0.00061301246247312806 -0.025872431438659999 0 -0.00052962790770446635 -0.025792075500007255 0 -0.00052788688405078655 -0.025857928192924547 0 -0.00067062221365488713 -0.025886599765376248 0 -0.00037871794124608318 -0.025625632684114906 0 -0.00045638026728399452 -0.025700542517549267 0 -0.00067062221365488713 -0.025886599765376248 0 -0.00045638026728399452 -0.025700542517549267 0 -0.00050287313454576703 -0.02557521502983404 0 -0.00042239602958738036 -0.025748318961440843 0 -0.00045638026728399452 -0.025700542517549267 0 -0.00050287313454576703 -0.02557521502983404 0 -0.0022331554965742463 -0.026472170210072622 0 -0.0020531740618025028 -0.026677760495739146 0 -0.0021617280090361962 -0.026526672826116808 0 -0.0018129210477034192 -0.026834449327494774 0 -0.0014319838915768681 -0.026280990116240268 0 -0.0012201197555252845 -0.026196181402811533 0 -0.00096293707432407063 -0.026250833122230911 0 -0.00092524965425532164 -0.026090973815075212 0 -0.00096293707432407063 -0.026250833122230911 0 -0.00092524965425532164 -0.026090973815075212 0 -0.00083656808679910728 -0.026139501347983703 0 -0.00042239602958738036 -0.025748318961440843 0 -0.00052788688405078655 -0.025857928192924547 0 -0.00047981577896247978 -0.025960268184574701 0 -0.00061029329910886802 -0.025947825295431139 0 -0.00052788688405078655 -0.025857928192924547 0 -0.00047981577896247978 -0.025960268184574701 0 -0.00086603095142286622 -0.026370194488555796 0 -0.00060007827672076412 -0.026011493972441298 0 -0.00042239602958738036 -0.025748318961440843 0 -0.00025343589914360911 -0.025796066660365737 0 -0.00047981577896247978 -0.025960268184574701 0 -0.0020531740618025028 -0.026677760495739146 0 -0.0013382356086872116 -0.025933320006141659 0 -0.00077378641409409196 -0.026049910970476823 0 -0.0020531740618025028 -0.026677760495739146 0 -0.0019670920778622394 -0.026271939914922222 0 -0.0013382356086872116 -0.025933320006141659 0 -0.0014319838915768681 -0.026280990116240268 0 -0.00084175215201428557 -0.026107254042967525 0 -0.00092524965425532164 -0.026090973815075212 0 -0.00083656808679910728 -0.026139501347983703 0 -0.00077378641409409196 -0.026049910970476823 0 -0.0019670920778622394 -0.026271939914922222 0 -0.0021617280090361962 -0.026526672826116808 0 -0.0021410266231422256 -0.026521045089788059 0 -0.0020531740618025028 -0.026677760495739146 0 -0.0019670920778622394 -0.026271939914922222 0 -0.0021617280090361962 -0.026526672826116808 0 -0.0019670920778622394 -0.026271939914922222 0 -0.0020280622292865483 -0.026432621964050829 0 -0.0021410266231422256 -0.026521045089788059 0 -0.0019670920778622394 -0.026271939914922222 0 -0.0020280622292865483 -0.026432621964050829 0 -0.0019841654107251236 -0.026441024466722668 0 -0.0019404125329337402 -0.026230827371635006 0 -0.0016229501878528806 -0.025837259023881214 0 -0.0019670920778622394 -0.026271939914922222 0 -0.0013382356086872116 -0.025933320006141659 0 -0.0013077142022275491 -0.025263026024458575 0 -0.0013077142022275491 -0.025263026024458575 0 -0.00090237885871627713 -0.025659018159906136 0 -0.00067420081349314049 -0.025216912296213253 0 -0.00090237885871627713 -0.025659018159906136 0 -0.00054821120286822271 -0.025764832910123825 0 -0.00067420081349314049 -0.025216912296213253 0 -0.00090237885871627713 -0.025659018159906136 0 -0.00077378641409409196 -0.026049910970476823 0 -0.00054821120286822271 -0.025764832910123825 0 -0.0013382356086872116 -0.025933320006141659 0 -0.00090237885871627713 -0.025659018159906136 0 -0.00077378641409409196 -0.026049910970476823 0 -0.0013382356086872116 -0.025933320006141659 0 -0.0013077142022275491 -0.025263026024458575 0 -0.00090237885871627713 -0.025659018159906136 0 -0.00083656808679910728 -0.026139501347983703 0 -0.00077378641409409196 -0.026049910970476823 0 -0.00071354002848456966 -0.026073864144957503 0 -0.00077378641409409196 -0.026049910970476823 0 -0.00063819543129614727 -0.026031755069711084 0 -0.00054821120286822271 -0.025764832910123825 0 -0.00077378641409409196 -0.026049910970476823 0 -0.00063819543129614727 -0.026031755069711084 0 -0.00071354002848456966 -0.026073864144957503 0 -0.00061043698930336786 -0.026016040129319951 0 -0.00063819543129614727 -0.026031755069711084 0 -0.00071354002848456966 -0.026073864144957503 0 -0.00040827254589253159 -0.026049812059756938 0 -0.00022774066472791769 -0.026158539129140904 0 -0.00013652306129720301 -0.025800260309164623 0 -0.00040827254589253159 -0.026049812059756938 0 -0.00048429990195224991 -0.025979992068825557 0 -0.00013652306129720301 -0.025800260309164623 0 -0.00061043698930336786 -0.026016040129319951 0 -0.00063819543129614727 -0.026031755069711084 0 -0.00048429990195224991 -0.025979992068825557 0 -0.00061043698930336786 -0.026016040129319951 0 -0.00040827254589253159 -0.026049812059756938 0 -0.00048429990195224991 -0.025979992068825557 0 -0.00063819543129614727 -0.026031755069711084 0 -0.00048429990195224991 -0.025979992068825557 0 -0.00054821120286822271 -0.025764832910123825 0 -0.00048429990195224991 -0.025979992068825557 0 -0.00054821120286822271 -0.025764832910123825 0 -0.00013652306129720301 -0.025800260309164623 0 -0.00054821120286822271 -0.025764832910123825 0 -0.00025529450740091462 -0.025324464347263161 0 -0.00013652306129720301 -0.025800260309164623 0 -0.00054821120286822271 -0.025764832910123825 0 -0.00025529450740091462 -0.025324464347263161 0 -0.00067420081349314049 -0.025216912296213253 0 0.00015593292642562332 -0.025260535287812181 0 0.00070299689061780238 -0.025640141593406947 0 0.00061479421583530481 -0.024762239571836746 0 0.00015593292642562332 -0.025260535287812181 0 0.00070299689061780238 -0.025640141593406947 0 -0.00013652306129720301 -0.025800260309164623 0 -0.00025529450740091462 -0.025324464347263161 0 0.00015593292642562332 -0.025260535287812181 0 -0.00013652306129720301 -0.025800260309164623 0 0.00097268356190953291 -0.022179284359866339 0 0.0020127801237375584 -0.022264529944604389 0 0.0021063030278053955 -0.020675781822148253 0 0.00087160493192453429 -0.023843215195566508 0 0.0017263884156792754 -0.023027386139812991 0 0.00106441722923264 -0.023333838262376835 0 0.0020127801237375584 -0.022264529944604389 0 0.0022174598073958695 -0.023469333792429572 0 0.00097268356190953291 -0.022179284359866339 0 0.00106441722923264 -0.023333838262376835 0 0.0020127801237375584 -0.022264529944604389 0 0.00097268356190953291 -0.022179284359866339 0 0.00106441722923264 -0.023333838262376835 0 -4.260852469368639e-05 -0.023818548815340193 0 0.00070299689061780238 -0.025640141593406947 0 -0.00022774066472791769 -0.026158539129140904 0 -0.00013652306129720301 -0.025800260309164623 0 0.00087160493192453429 -0.023843215195566508 0 -9.6682578003322675e-05 -0.024960353709641649 0 0.0037420686325587414 -0.021504543344014311 0 0.0028771006836805259 -0.022414484976982941 0 0.0040354395127687129 -0.022553879100966141 0 0.0037420686325587414 -0.021504543344014311 0 0.0028241361546903071 -0.021529383144364311 0 0.0031613721292976719 -0.020629574383371641 0 0.0037420686325587414 -0.021504543344014311 0 0.0028241361546903071 -0.021529383144364311 0 0.0028771006836805259 -0.022414484976982941 0 0.0028241361546903071 -0.021529383144364311 0 0.0020127801237375584 -0.022264529944604389 0 0.0021063030278053955 -0.020675781822148253 0 0.0028241361546903071 -0.021529383144364311 0 0.0020127801237375584 -0.022264529944604389 0 0.0028771006836805259 -0.022414484976982941 0 0.0020127801237375584 -0.022264529944604389 0 0.0022174598073958695 -0.023469333792429572 0 0.0028771006836805259 -0.022414484976982941 0 0.0036045716916686941 -0.021989143637597523 0 0.0036054795261483323 -0.021914175870933025 0 0.0035807218873035018 -0.021778800560485458 0 0.0022174598073958695 -0.023469333792429572 0 0.0028771006836805259 -0.022414484976982941 0 0.0040354395127687129 -0.022553879100966141 0 0.0036054795261483323 -0.021914175870933025 0 0.0035863800993329842 -0.021853826469578432 0 0.0035807218873035018 -0.021778800560485458 0 0.0028964270431220212 -0.02253457551352887 0 0.0041088108429271908 -0.023616473393616041 0 0.0036054795261483323 -0.021914175870933025 0 0.0036319150838945661 -0.022035417437216688 0 0.0035863800993329842 -0.021853826469578432 0 0.0036045716916686941 -0.021989143637597523 0 0.0036054795261483323 -0.021914175870933025 0 0.0036319150838945661 -0.022035417437216688 0 0.0036045716916686941 -0.021989143637597523 0 0.0036319150838945661 -0.022035417437216688 0 0.0034393514174110001 -0.02231728245625807 0 0.0036045716916686941 -0.021989143637597523 0 0.0034393514174110001 -0.02231728245625807 0 0.0032364907981715335 -0.022587619371344816 0 0.0034332873217274755 -0.022476631782164282 0 0.0033260312301968309 -0.022467459281302154 0 0.0033633514584526583 -0.022471350242750335 0 0.0034393514174110001 -0.02231728245625807 0 0.0034332873217274755 -0.022476631782164282 0 0.0033260312301968309 -0.022467459281302154 0 0.0037630082909515623 -0.021810623028358171 0 0.0037851938398508296 -0.021698629646117028 0 0.0037184185089563469 -0.021689190303234896 0 0.0037630082909515623 -0.021810623028358171 0 0.0038315453355135176 -0.021641610563432039 0 0.0037851938398508296 -0.021698629646117028 0 0.0037630082909515623 -0.021810623028358171 0 0.003619939471601539 -0.021762677491572617 0 0.0037184185089563469 -0.021689190303234896 0 0.0036319150838945661 -0.022035417437216688 0 0.0037630082909515623 -0.021810623028358171 0 0.003619939471601539 -0.021762677491572617 0 0.0036161423315433597 -0.022074256798717783 0 0.0035528952785342854 -0.022118135852234454 0 0.0036319150838945661 -0.022035417437216688 0 0.0034393514174110001 -0.02231728245625807 0 0.0034332873217274755 -0.022476631782164282 0 0.0036319150838945661 -0.022035417437216688 0 0.003619939471601539 -0.021762677491572617 0 0.0035323042722573963 -0.02178184144510778 0 0.0036319150838945661 -0.022035417437216688 0 0.0035323042722573963 -0.02178184144510778 0 0.0035863800993329842 -0.021853826469578432 0 -0.00067406082817714067 -0.025686761588883569 0 -4.260852469368639e-05 -0.023818548815340193 0 0.00045607466409251671 -0.024520493319767321 0 0.00106441722923264 -0.023333838262376835 0 -4.260852469368639e-05 -0.023818548815340193 0 0.00045607466409251671 -0.024520493319767321 0 0.0028964270431220212 -0.02253457551352887 0 0.0015443096739104639 -0.023762806299421731 0 0.00106441722923264 -0.023333838262376835 0 0.0022174598073958695 -0.023469333792429572 0 0.00045607466409251671 -0.024520493319767321 0 0.0036045716916686941 -0.021989143637597523 0 0.0026531026431046707 -0.0228870995678476 0 0.0032364907981715335 -0.022587619371344816 0 0.0034393514174110001 -0.02231728245625807 0 0.0032364907981715335 -0.022587619371344816 0 0.0033260312301968309 -0.022467459281302154 0 0.0026531026431046707 -0.0228870995678476 0 0.0032364907981715335 -0.022587619371344816 0 0.0029793515291935699 -0.023421843423670128 0 0.0032364907981715335 -0.022587619371344816 0 0.0029793515291935699 -0.023421843423670128 0 0.0034544535019336311 -0.024445069146637886 0 0.0032364907981715335 -0.022587619371344816 0 0.0033439182153386922 -0.022457720059497123 0 0.0033677477266068376 -0.022443219305115461 0 0.0032364907981715335 -0.022587619371344816 0 0.0033260312301968309 -0.022467459281302154 0 0.0033439182153386922 -0.022457720059497123 0 0.0029793515291935699 -0.023421843423670128 0 0.0034544535019336311 -0.024445069146637886 0 0.002644547688190029 -0.02388744486298356 0 0.0033488012828012479 -0.022796752811381767 0 0.0027629725443096879 -0.023112312996933965 0 0.0033260312301968309 -0.022467459281302154 0 0.0033452353686101617 -0.022466746844474375 0 0.0033439182153386922 -0.022457720059497123 0 0.0033260312301968309 -0.022467459281302154 0 0.0033633514584526583 -0.022471350242750335 0 0.0033452353686101617 -0.022466746844474375 0 0.0035528952785342854 -0.022118135852234454 0 0.003262916341502148 -0.021562714275306739 0 0.0034332873217274755 -0.022476631782164282 0 0.0033633514584526583 -0.022471350242750335 0 0.0033493763696820201 -0.022479450110924074 0 0.0034332873217274755 -0.022476631782164282 0 0.0033493763696820201 -0.022479450110924074 0 0.0033387216190164373 -0.022503982382623085 0 0.0033633514584526583 -0.022471350242750335 0 0.0033452353686101617 -0.022466746844474375 0 0.0033493763696820201 -0.022479450110924074 0 0.0033452353686101617 -0.022466746844474375 0 0.0033493763696820201 -0.022479450110924074 0 0.0033439182153386922 -0.022457720059497123 0 0.0033493763696820201 -0.022479450110924074 0 0.0033439182153386922 -0.022457720059497123 0 0.0033289082213973247 -0.022474805939287832 0 0.0033493763696820201 -0.022479450110924074 0 0.0033289082213973247 -0.022474805939287832 0 0.0033387216190164373 -0.022503982382623085 0 0.0028863948383948024 -0.022960726786182318 0 0.0027629725443096879 -0.023112312996933965 0 0.002697240709050289 -0.024671649168686215 0 0.002644547688190029 -0.02388744486298356 0 0.0021183590092810848 -0.024725554522565599 0 0.0034544535019336311 -0.024445069146637886 0 0.002697240709050289 -0.024671649168686215 0 0.002644547688190029 -0.02388744486298356 0 0.0026531026431046707 -0.0228870995678476 0 0.0029793515291935699 -0.023421843423670128 0 0.002644547688190029 -0.02388744486298356 0 0.0026531026431046707 -0.0228870995678476 0 0.002644547688190029 -0.02388744486298356 0 0.0019801702938421193 -0.023814061501049706 0 0.0018539756757110714 -0.024193848467708404 0 0.002644547688190029 -0.02388744486298356 0 0.0019801702938421193 -0.023814061501049706 0 0.0018539756757110714 -0.024193848467708404 0 0.002644547688190029 -0.02388744486298356 0 0.0021183590092810848 -0.024725554522565599 0 0.0014448966826871839 -0.025337310940165943 0 0.0021183590092810848 -0.024725554522565599 0 0.0025872748555000706 -0.025579222941730109 0 0.002697240709050289 -0.024671649168686215 0 0.0021183590092810848 -0.024725554522565599 0 0.0025872748555000706 -0.025579222941730109 0 0.0034544535019336311 -0.024445069146637886 0 0.002697240709050289 -0.024671649168686215 0 0.0025872748555000706 -0.025579222941730109 0 0.0013208705519040739 -0.020847737548353489 0 0.0013002641823880671 -0.020858529764403139 0 0.0013524304604530827 -0.020849179843447318 0 0.0012559135379355149 -0.020272901292616503 0 0.0024013430792576458 -0.020839319189861687 0 0.0011717070275589249 -0.022196283436333546 0 0.0024204156337425957 -0.021678659586263447 0 0.0012426307327970663 -0.019656324654341178 0 0.0012340451511924603 -0.019651179040812199 0 0.0012416538460464463 -0.019651638376975186 0 0.0012256962708632228 -0.019650236296079045 0 0.0012426307327970663 -0.019656324654341178 0 0.0012340451511924603 -0.019651179040812199 0 0.0012426307327970663 -0.019656324654341178 0 0.0012526442201686758 -0.019669626646989347 0 0.0012416538460464463 -0.019651638376975186 0 0.00055266848851542947 -0.019928807384824099 0 0.0011717070275589249 -0.022196283436333546 0 0.0012490056359906391 -0.0208645972365533 0 0.0013208705519040739 -0.020847737548353489 0 0.0013002641823880671 -0.020858529764403139 0 0.00055266848851542947 -0.019928807384824099 0 0.0012559135379355149 -0.020272901292616503 0 0.0038042017390643688 -0.020066526854213514 0 0.0043543243690464485 -0.021216469295747695 0 0.0045587996229378919 -0.019221474133649941 0 0.0038042017390643688 -0.020066526854213514 0 0.0031382216817324089 -0.019115846487114153 0 0.0045587996229378919 -0.019221474133649941 0 0.0024013430792576458 -0.020839319189861687 0 0.0031272525333128453 -0.019401602197306942 0 0.0038042017390643688 -0.020066526854213514 0 0.0031208517471376907 -0.019899751578878508 0 0.0031382216817324089 -0.019115846487114153 0 0.0038042017390643688 -0.020066526854213514 0 0.0033378301036619705 -0.020695536502448045 0 0.0031208517471376907 -0.019899751578878508 0 0.0033378301036619705 -0.020695536502448045 0 0.0043543243690464485 -0.021216469295747695 0 0.0038256646264074119 -0.021588388194143434 0 0.0038042017390643688 -0.020066526854213514 0 0.0033378301036619705 -0.020695536502448045 0 0.0043543243690464485 -0.021216469295747695 0 0.0013208705519040739 -0.020847737548353489 0 0.0013524304604530827 -0.020849179843447318 0 0.0013552897801278497 -0.02084306838766609 0 0.0027629725443096879 -0.023112312996933965 0 0.0011717070275589249 -0.022196283436333546 0 0.0021858612239500775 -0.022267829427747642 0 0.0020023807062447933 -0.022479074440810345 0 0.0021596086485389642 -0.022407659979322946 0 0.0027629725443096879 -0.023112312996933965 0 0.0024204156337425957 -0.021678659586263447 0 0.0033289082213973247 -0.022474805939287832 0 0.0033127483640268572 -0.022512564032323781 0 0.0033387216190164373 -0.022503982382623085 0 0.0025181410615266291 -0.021586182355358897 0 0.0025444181545477753 -0.021418420156205202 0 0.0029071499194954697 -0.021243013470380427 0 0.0024204156337425957 -0.021678659586263447 0 0.003262916341502148 -0.021562714275306739 0 0.0024013430792576458 -0.020839319189861687 0 0.003262916341502148 -0.021562714275306739 0 0.0024013430792576458 -0.020839319189861687 0 0.0024204156337425957 -0.021678659586263447 0 0.0043543243690464485 -0.021216469295747695 0 0.0038256646264074119 -0.021588388194143434 0 0.003838488867970666 -0.021666350253098286 0 0.003262916341502148 -0.021562714275306739 0 0.0036504326738886054 -0.021514094804358112 0 0.0038256646264074119 -0.021588388194143434 0 0.003838488867970666 -0.021666350253098286 0 0.0037851938398508296 -0.021698629646117028 0 0.0038256646264074119 -0.021588388194143434 0 0.0037851938398508296 -0.021698629646117028 0 0.0037184185089563469 -0.021689190303234896 0 0.0038256646264074119 -0.021588388194143434 0 0.0037184185089563469 -0.021689190303234896 0 0.0036124695777544702 -0.021592976316381868 0 0.0044201317053895314 -0.02329630811386699 0 0.001870293955236018 -0.014810308463152113 0 0.0033378301036619705 -0.020695536502448045 0 0.0038256646264074119 -0.021588388194143434 0 0.0015417508942593479 -0.020712497838577835 0 0.003619939471601539 -0.021762677491572617 0 0.0037184185089563469 -0.021689190303234896 0 0.0036124695777544702 -0.021592976316381868 0 0.001870293955236018 -0.014810308463152113 0 0.0030108271227519117 -0.013303137600132749 0 0.003619939471601539 -0.021762677491572617 0 0.0036124695777544702 -0.021592976316381868 0 0.0035323042722573963 -0.02178184144510778 0 0.001870293955236018 -0.014810308463152113 0 0.00056638095726373031 -0.008139397971897706 0 0.00033297999076328111 -0.012605337203043979 0 0.00063895104785184923 -0.01231331612703495 0 0.00017043481025343451 -0.01224642439980304 0 0.00033297999076328111 -0.012605337203043979 0 0.00017043481025343451 -0.01224642439980304 0 -4.0750057891539443e-05 -0.01244045361320301 0 0.0015417508942593479 -0.020712497838577835 0 0.0031208517471376907 -0.019899751578878508 0 0.0031382216817324089 -0.019115846487114153 0 0.001870293955236018 -0.014810308463152113 0 0.00084902425200836804 -0.015421980350847549 0 0.0033378301036619705 -0.020695536502448045 0 0.0015417508942593479 -0.020712497838577835 0 0.0031208517471376907 -0.019899751578878508 0 0.00084902425200836804 -0.015421980350847549 0 -0.00052949970761592224 -0.013374128297614878 0 -0.00046544824896996463 -0.015102280685985759 0 -0.00093286107851502922 -0.015047579587107484 0 -0.00082047049406139445 -0.014770187386085595 0 -0.00053470233372786052 -0.014605376776859217 0 -0.00095674229182119786 -0.014456005051073376 0 -0.00082047049406139445 -0.014770187386085595 0 -0.00053470233372786052 -0.014605376776859217 0 -0.00046544824896996463 -0.015102280685985759 0 -0.00082047049406139445 -0.014770187386085595 0 -0.0008494539264977544 -0.019226393573115851 0 -0.0012855795988110886 -0.019358022950911258 0 -0.00056094200022053164 -0.019608347778165083 0 -0.0011984586395116608 -0.016841201092301861 0 0.00082523118733611835 -0.018109377985215093 0 -0.00053470233372786052 -0.014605376776859217 0 -0.00046544824896996463 -0.015102280685985759 0 -0.00011109681735547137 -0.014771208764193279 0 -0.00052787500872233961 -0.019333286983823826 0 -0.00032561758700055943 -0.01928750864024812 0 -0.00055147303879599997 -0.019526253438934604 0 -0.00052787500872233961 -0.019333286983823826 0 -0.0008494539264977544 -0.019226393573115851 0 -0.00056094200022053164 -0.019608347778165083 0 -9.5769910505798887e-05 -0.019610539464675367 0 0.00082523118733611835 -0.018109377985215093 0 -0.00031708955913653628 -0.019418436263093874 0 -0.00026705300547378885 -0.019608436653200265 0 -0.00042530967655391328 -0.019544966421799981 0 0.0012261576792564374 -0.019654168817246728 0 0.001231852094642175 -0.019645195524980931 0 0.0012340451511924603 -0.019651179040812199 0 -0.0005379094706850744 -0.019580721472971286 0 0.00082523118733611835 -0.018109377985215093 0 0.00055710215903004767 -0.019590911967996102 0 0.00082523118733611835 -0.018109377985215093 0 0.00082523118733611835 -0.018109377985215093 0 0.0031272525333128453 -0.019401602197306942 0 0.001231852094642175 -0.019645195524980931 0 0.0012340451511924603 -0.019651179040812199 0 0.0012416538460464463 -0.019651638376975186 0 0.00084902425200836804 -0.015421980350847549 0 0.00082523118733611835 -0.018109377985215093 0 0.0031382216817324089 -0.019115846487114153 0 0.0047789086422410886 -0.017375611393252294 0 0.0045587996229378919 -0.019221474133649941 0 -0.00058240961326589693 -0.010059551368602409 0 0.00056704642879347087 -0.0083768859821655092 0 -0.00058240961326589693 -0.010059551368602409 0 -0.00095304572034800598 -0.014030166065880258 0 -0.0017846593540491577 -0.014906644878374458 0 -0.0016745903848922419 -0.014739782740292843 0 -0.0013783939111592393 -0.014979671145234196 0 -0.00079846119578443184 -0.0120753417692763 0 -0.00031313715631862179 -0.012166727783896816 0 -0.00042028030260923328 -0.012264126453993008 0 -0.0017846593540491577 -0.014906644878374458 0 -0.001852424653493185 -0.014666902872976917 0 -0.0016745903848922419 -0.014739782740292843 0 -0.0017846593540491577 -0.014906644878374458 0 -0.001852424653493185 -0.014666902872976917 0 -0.0020345082269054072 -0.014797393854658751 0 -0.00058240961326589693 -0.010059551368602409 0 -0.000599521194358907 -0.010340918429291725 0 -0.001852424653493185 -0.014666902872976917 0 -0.0017360456891048206 -0.014555113416304197 0 -0.0016745903848922419 -0.014739782740292843 0 -0.0018845896708716975 -0.014450072820699267 0 -0.001852424653493185 -0.014666902872976917 0 -0.0019930757839617874 -0.014584813098834642 0 -0.0018845896708716975 -0.014450072820699267 0 -0.001852424653493185 -0.014666902872976917 0 -0.0017360456891048206 -0.014555113416304197 0 -0.0017360456891048206 -0.014555113416304197 0 -0.0016745903848922419 -0.014739782740292843 0 -0.0015161309864496174 -0.014602701446866085 0 -0.0016745903848922419 -0.014739782740292843 0 -0.0015161309864496174 -0.014602701446866085 0 -0.0013783939111592393 -0.014979671145234196 0 -0.0015161309864496174 -0.014602701446866085 0 -0.0011792717513192494 -0.014718977574129734 0 -0.0013783939111592393 -0.014979671145234196 0 -0.00095674229182119786 -0.014456005051073376 0 -0.00082047049406139445 -0.014770187386085595 0 -0.0011792717513192494 -0.014718977574129734 0 -0.00093286107851502922 -0.015047579587107484 0 -0.0011792717513192494 -0.014718977574129734 0 -0.0013783939111592393 -0.014979671145234196 0 -0.00052949970761592224 -0.013374128297614878 0 -0.00095304572034800598 -0.014030166065880258 0 -0.00093286107851502922 -0.015047579587107484 0 -0.00082047049406139445 -0.014770187386085595 0 -0.0011792717513192494 -0.014718977574129734 0 0.00056638095726373031 -0.008139397971897706 0 0.00056704642879347087 -0.0083768859821655092 0 0.0018550279246389841 -0.0049464783060445515 0 0.0014333608375491072 -0.0053508665723865419 0 0.0013197609703117742 -0.0046539774632117408 0 -0.00031313715631862179 -0.012166727783896816 0 -4.0750057891539443e-05 -0.01244045361320301 0 -0.00042028030260923328 -0.012264126453993008 0 0.00017043481025343451 -0.01224642439980304 0 -0.00031313715631862179 -0.012166727783896816 0 -4.0750057891539443e-05 -0.01244045361320301 0 0.0018550279246389841 -0.0049464783060445515 0 0.0014333608375491072 -0.0053508665723865419 0 0.0019458073066890805 -0.0056128474319835876 0 0.002362655704838082 -0.0052261281352494783 0 0.0018550279246389841 -0.0049464783060445515 0 0.0019458073066890805 -0.0056128474319835876 0 0.0014333608375491072 -0.0053508665723865419 0 0.0013197609703117742 -0.0046539774632117408 0 0.00088255970578382981 -0.0052486620285802522 0 0.0013197609703117742 -0.0046539774632117408 0 0.00071807816507781527 -0.0047472411980253983 0 0.00088255970578382981 -0.0052486620285802522 0 0.00077306109824307114 -0.0043834647110952973 0 0.0013197609703117742 -0.0046539774632117408 0 0.00071807816507781527 -0.0047472411980253983 0 0.00077306109824307114 -0.0043834647110952973 0 0.00071807816507781527 -0.0047472411980253983 0 0.000342092491176537 -0.0044876491942839125 0 0.00071807816507781527 -0.0047472411980253983 0 0.00088255970578382981 -0.0052486620285802522 0 0.0003812025893209509 -0.0050472378229533899 0 0.00088255970578382981 -0.0052486620285802522 0 0.0010713199356675366 -0.0058029376610628765 0 0.00046414616518636656 -0.0059185958625470889 0 0.00088255970578382981 -0.0052486620285802522 0 0.0003812025893209509 -0.0050472378229533899 0 0.00046414616518636656 -0.0059185958625470889 0 0.0014333608375491072 -0.0053508665723865419 0 0.00088255970578382981 -0.0052486620285802522 0 0.0010713199356675366 -0.0058029376610628765 0 0.0010713199356675366 -0.0058029376610628765 0 0.0015149082276745727 -0.0060582654564602934 0 0.0010404858338972879 -0.0065486575805422196 0 -0.00016775921115097926 -0.0093467032107862908 0 -0.0011973062746522677 -0.0022849437374664206 0 0.0010713199356675366 -0.0058029376610628765 0 0.0010404858338972879 -0.0065486575805422196 0 0.00046414616518636656 -0.0059185958625470889 0 0.0030108271227519117 -0.013303137600132749 0 0.002660463450310009 -0.014607961582541976 0 0.0014333608375491072 -0.0053508665723865419 0 0.0010713199356675366 -0.0058029376610628765 0 0.0015149082276745727 -0.0060582654564602934 0 0.0014333608375491072 -0.0053508665723865419 0 0.0019458073066890805 -0.0056128474319835876 0 0.0015149082276745727 -0.0060582654564602934 0 0.0036221060286072051 -0.021759206157274977 0 0.0035863800993329842 -0.021853826469578432 0 0.0036025300120457568 -0.021741029490483621 0 0.0035323042722573963 -0.02178184144510778 0 0.0036221060286072051 -0.021759206157274977 0 0.0035863800993329842 -0.021853826469578432 0 0.0035863800993329842 -0.021853826469578432 0 0.0035807218873035018 -0.021778800560485458 0 0.0036025300120457568 -0.021741029490483621 0 0.0035807218873035018 -0.021778800560485458 0 0.0036025300120457568 -0.021741029490483621 0 0.0036276740505569449 -0.021529220928385155 0 0.0036025300120457568 -0.021741029490483621 0 0.0036359859493492173 -0.021653902526979605 0 0.0036276740505569449 -0.021529220928385155 0 0.0036221060286072051 -0.021759206157274977 0 0.0036359859493492173 -0.021653902526979605 0 0.0037039563675952403 -0.02156128435147547 0 0.0036221060286072051 -0.021759206157274977 0 0.0036025300120457568 -0.021741029490483621 0 0.0036359859493492173 -0.021653902526979605 0 0.0020151783885484133 -0.0111230934721505 0 0.0023389035457123297 -0.0092718541156778887 0 0.0040354395127687129 -0.022553879100966141 0 0.0062611286214578205 -0.021452234144339246 0 0.0050028719694003498 -0.020297116057821831 0 0.0037420686325587414 -0.021504543344014311 0 0.0040354395127687129 -0.022553879100966141 0 0.0050028719694003498 -0.020297116057821831 0 0.0041088108429271908 -0.023616473393616041 0 0.0020151783885484133 -0.0111230934721505 0 -0.0022163603185211063 -0.00063621407081784797 0 -0.0022870482054678383 -0.00062577380068955756 0 -0.0021926478235007795 -0.00079153209654812112 0 -0.0022163603185211063 -0.00063621407081784797 0 -0.0021926478235007795 -0.00079153209654812112 0 -0.0021241381834900055 -0.00053045396866826958 0 -0.0022461107296690803 -0.00060397570248056198 0 -0.0022163603185211063 -0.00063621407081784797 0 -0.0022870482054678383 -0.00062577380068955756 0 -0.0022461107296690803 -0.00060397570248056198 0 -0.0022163603185211063 -0.00063621407081784797 0 -0.0022173687529384641 -0.00053387453484834654 0 -0.0022461107296690803 -0.00060397570248056198 0 -0.0022770478079150946 -0.00060955988047405019 0 -0.0022605913920679742 -0.0005788481730086382 0 -0.0022163603185211063 -0.00063621407081784797 0 -0.0022173687529384641 -0.00053387453484834654 0 -0.0021241381834900055 -0.00053045396866826958 0 0.0036359859493492173 -0.021653902526979605 0 0.0036276740505569449 -0.021529220928385155 0 0.0037039563675952403 -0.02156128435147547 0 0.002660463450310009 -0.014607961582541976 0 -0.00016775921115097926 -0.0093467032107862908 0 -0.0022770478079150946 -0.00060955988047405019 0 -0.0022672778512734999 -0.00059459120656595228 0 -0.0022472097739294986 -0.00065389570894949464 0 -0.0022461107296690803 -0.00060397570248056198 0 -0.0022770478079150946 -0.00060955988047405019 0 -0.0022870482054678383 -0.00062577380068955756 0 0.00017824031833892017 -0.0084212736689322134 0 -0.00016775921115097926 -0.0093467032107862908 0 -0.0022770478079150946 -0.00060955988047405019 0 -0.0022472097739294986 -0.00065389570894949464 0 -0.0022605913920679742 -0.0005788481730086382 0 0.0020151783885484133 -0.0111230934721505 0 -0.0018035842691982479 0.00055780274659576767 0 -0.0020573288518634424 -0.00073315529601362625 0 -0.0022472097739294986 -0.00065389570894949464 0 -0.0023976946543343312 -0.00085357185096684659 0 0.0020151783885484133 -0.0111230934721505 0 -0.00016775921115097926 -0.0093467032107862908 0 -0.0020573288518634424 -0.00073315529601362625 0 -0.0022672778512734999 -0.00059459120656595228 0 -0.0022472097739294986 -0.00065389570894949464 0 -0.0025246115742970682 -0.00091596652468375786 0 -0.0018035842691982479 0.00055780274659576767 0 -0.0022472097739294986 -0.00065389570894949464 0 -0.0022605913920679742 -0.0005788481730086382 0 -0.0022789821544274081 -0.00040924069752663878 0 -0.0022173687529384641 -0.00053387453484834654 0 -0.0022789821544274081 -0.00040924069752663878 0 -0.0021389130479002511 -0.00039290613078056346 0 -0.0022461107296690803 -0.00060397570248056198 0 -0.0022605913920679742 -0.0005788481730086382 0 -0.0022173687529384641 -0.00053387453484834654 0 -0.0022605913920679742 -0.0005788481730086382 0 -0.0022173687529384641 -0.00053387453484834654 0 -0.0022789821544274081 -0.00040924069752663878 0 -0.0018035842691982479 0.00055780274659576767 0 -0.0020485874162463249 -0.0001639388714428467 0 -0.00059578068562192422 0.00094752917726189062 0 -0.00062698217047557473 0.0007871731403139954 0 -0.00094681304176846132 0.00076744323432748193 0 -0.0018035842691982479 0.00055780274659576767 0 -0.0013396305086218303 0.00044463433779866975 0 -0.00059578068562192422 0.00094752917726189062 0 -0.00039942527400474849 0.00079913948955624302 0 -0.00062698217047557473 0.0007871731403139954 0 -0.00024331351692722769 0.0009781092819668455 0 -0.00059578068562192422 0.00094752917726189062 0 -0.00039942527400474849 0.00079913948955624302 0 -0.00039942527400474849 0.00079913948955624302 0 -0.00051266811662380272 0.00066600381879209714 0 -0.00029561351014833939 0.00062785575458320514 0 -0.00039942527400474849 0.00079913948955624302 0 -0.00051266811662380272 0.00066600381879209714 0 -0.00062698217047557473 0.0007871731403139954 0 -0.00051266811662380272 0.00066600381879209714 0 -0.00046777794568848559 0.00051284443024872438 0 -0.00029561351014833939 0.00062785575458320514 0 -0.00062698217047557473 0.0007871731403139954 0 -0.00073386526644131345 0.00070967992281113421 0 -0.00094681304176846132 0.00076744323432748193 0 -0.00051266811662380272 0.00066600381879209714 0 -0.00062698217047557473 0.0007871731403139954 0 -0.00073386526644131345 0.00070967992281113421 0 -0.00051266811662380272 0.00066600381879209714 0 -0.00073386526644131345 0.00070967992281113421 0 -0.00079683230061422723 0.00058273823529365822 0 -0.00073386526644131345 0.00070967992281113421 0 -0.00079683230061422723 0.00058273823529365822 0 -0.00094681304176846132 0.00076744323432748193 0 -0.00079683230061422723 0.00058273823529365822 0 -0.00087355105529094128 0.00044785536048540952 0 -0.0010407194349678079 0.00055190393101853404 0 -0.00079683230061422723 0.00058273823529365822 0 -0.00046777794568848559 0.00051284443024872438 0 -0.00057457489954409807 0.00039167667181487048 0 -0.00046777794568848559 0.00051284443024872438 0 -0.00020355502979769668 0.00043677824753017656 0 -0.00029561351014833939 0.00062785575458320514 0 -0.00051266811662380272 0.00066600381879209714 0 -0.00079683230061422723 0.00058273823529365822 0 -0.00046777794568848559 0.00051284443024872438 0 -0.00046777794568848559 0.00051284443024872438 0 -0.00030310527123402631 0.00029693577052882896 0 -0.00020355502979769668 0.00043677824753017656 0 -0.00057457489954409807 0.00039167667181487048 0 -0.00030310527123402631 0.00029693577052882896 0 -0.00044207530913056365 0.0001568111209624389 0 -0.00046777794568848559 0.00051284443024872438 0 -0.00057457489954409807 0.00039167667181487048 0 -0.00030310527123402631 0.00029693577052882896 0 -0.00057457489954409807 0.00039167667181487048 0 -0.00087355105529094128 0.00044785536048540952 0 -0.00083789056509484894 0.00026914288819895356 0 -0.00087355105529094128 0.00044785536048540952 0 -0.00083789056509484894 0.00026914288819895356 0 -0.0011452415537962851 0.00039458069489098276 0 -0.00079683230061422723 0.00058273823529365822 0 -0.00057457489954409807 0.00039167667181487048 0 -0.00087355105529094128 0.00044785536048540952 0 -1.754847301955201e-05 0.00025738752784889863 0 0.00036739897322291622 8.9397475694859966e-05 0 -5.8151168040335125e-05 9.4051645102923701e-05 0 -1.754847301955201e-05 0.00025738752784889863 0 0.00013736985814763618 0.00029276737545741568 0 0.00036739897322291622 8.9397475694859966e-05 0 -0.00030310527123402631 0.00029693577052882896 0 -1.754847301955201e-05 0.00025738752784889863 0 -5.8151168040335125e-05 9.4051645102923701e-05 0 -0.00030310527123402631 0.00029693577052882896 0 -1.754847301955201e-05 0.00025738752784889863 0 -0.00020355502979769668 0.00043677824753017656 0 -0.00020355502979769668 0.00043677824753017656 0 -0.00029561351014833939 0.00062785575458320514 0 -6.343451359587792e-05 0.00054864393502538689 0 -1.754847301955201e-05 0.00025738752784889863 0 -0.00020355502979769668 0.00043677824753017656 0 -6.9509797572429479e-06 0.0003889043536635658 0 -0.00020355502979769668 0.00043677824753017656 0 -6.9509797572429479e-06 0.0003889043536635658 0 -6.343451359587792e-05 0.00054864393502538689 0 -6.9509797572429479e-06 0.0003889043536635658 0 0.0001017240666285895 0.00041141429421025021 0 -6.343451359587792e-05 0.00054864393502538689 0 -1.754847301955201e-05 0.00025738752784889863 0 -6.9509797572429479e-06 0.0003889043536635658 0 0.00013736985814763618 0.00029276737545741568 0 -6.9509797572429479e-06 0.0003889043536635658 0 0.00013736985814763618 0.00029276737545741568 0 0.0001017240666285895 0.00041141429421025021 0 0.0019115152092571879 0.0011354585755069307 0 0.0015123697219197822 -0.0091254536712262486 0 0.0001017240666285895 0.00041141429421025021 0 0.00010422525822001533 0.00050287266090958077 0 0.00021553898814229039 0.00038940913885887325 0 0.00013736985814763618 0.00029276737545741568 0 0.0001017240666285895 0.00041141429421025021 0 0.00021553898814229039 0.00038940913885887325 0 0.00010422525822001533 0.00050287266090958077 0 1.9033102613239573e-05 0.00062212939273383007 0 -6.343451359587792e-05 0.00054864393502538689 0 0.0001017240666285895 0.00041141429421025021 0 0.00010422525822001533 0.00050287266090958077 0 -6.343451359587792e-05 0.00054864393502538689 0 0.00010422525822001533 0.00050287266090958077 0 1.9033102613239573e-05 0.00062212939273383007 0 0.00022000777035416957 0.00054657704501195924 0 1.9033102613239573e-05 0.00062212939273383007 0 -6.343451359587792e-05 0.00054864393502538689 0 -0.00016823944782787877 0.00073243791051769939 0 -0.00029561351014833939 0.00062785575458320514 0 -6.343451359587792e-05 0.00054864393502538689 0 -0.00016823944782787877 0.00073243791051769939 0 -0.00039942527400474849 0.00079913948955624302 0 -0.00029561351014833939 0.00062785575458320514 0 -0.00016823944782787877 0.00073243791051769939 0 -0.00024331351692722769 0.0009781092819668455 0 -0.00039942527400474849 0.00079913948955624302 0 -0.00016823944782787877 0.00073243791051769939 0 -0.00024331351692722769 0.0009781092819668455 0 -0.00016823944782787877 0.00073243791051769939 0 -6.2751982702289669e-06 0.00078488779036842973 0 0.0037420686325587414 -0.021504543344014311 0 0.0050028719694003498 -0.020297116057821831 0 0.0035433861303141257 -0.018867745735918155 0 0.0023389035457123297 -0.0092718541156778887 0 0.0015626070359874948 -0.013089280942983332 0 1.9033102613239573e-05 0.00062212939273383007 0 -6.2751982702289669e-06 0.00078488779036842973 0 0.00022000777035416957 0.00054657704501195924 0 1.9033102613239573e-05 0.00062212939273383007 0 -0.00016823944782787877 0.00073243791051769939 0 -6.2751982702289669e-06 0.00078488779036842973 0 0.0042225038778787288 -0.024025833694139017 0 0.0015626070359874948 -0.013089280942983332 0 0.0037420686325587414 -0.021504543344014311 0 0.0031613721292976719 -0.020629574383371641 0 0.003687433960393666 -0.019794681786281142 0 0.0028241361546903071 -0.021529383144364311 0 0.0031613721292976719 -0.020629574383371641 0 0.0021063030278053955 -0.020675781822148253 0 0.0031613721292976719 -0.020629574383371641 0 0.0021063030278053955 -0.020675781822148253 0 0.0032152491473368436 -0.019350040236392335 0 0.0017263884156792754 -0.023027386139812991 0 0.0026123611588931045 -0.020212905903826277 0 0.0014911546633831602 -0.02486714617344683 0 0.0015736901018103041 -0.024139093769895155 0 0.0010680303626820541 -0.024068670855624235 0 0.0014911546633831602 -0.02486714617344683 0 0.0015736901018103041 -0.024139093769895155 0 0.0021365907153656051 -0.024106060720693073 0 0.0015736901018103041 -0.024139093769895155 0 0.0021365907153656051 -0.024106060720693073 0 0.001545570282219956 -0.023607639897827069 0 0.0031613721292976719 -0.020629574383371641 0 0.0032152491473368436 -0.019350040236392335 0 0.003687433960393666 -0.019794681786281142 0 0.0015626070359874948 -0.013089280942983332 0 0.0015123697219197822 -0.0091254536712262486 0 0.0026123611588931045 -0.020212905903826277 0 0.0015123697219197822 -0.0091254536712262486 0 0.00010422525822001533 0.00050287266090958077 0 0.00022000777035416957 0.00054657704501195924 0 0.00021553898814229039 0.00038940913885887325 0 0.00092840386620785019 -0.014293773969245846 0 0.0021590329242924871 -0.015430813975274371 0 0.002116893922164765 -0.012889548724915025 0 0.0026123611588931045 -0.020212905903826277 0 0.0015626070359874948 -0.013089280942983332 0 0.00015593292642562332 -0.025260535287812181 0 0.00061479421583530481 -0.024762239571836746 0 -0.00010681630892621137 -0.024732877640582015 0 0.0014911546633831602 -0.02486714617344683 0 0.00061479421583530481 -0.024762239571836746 0 0.0010680303626820541 -0.024068670855624235 0 0.00070299689061780238 -0.025640141593406947 0 0.0014911546633831602 -0.02486714617344683 0 0.00061479421583530481 -0.024762239571836746 0 0.00061479421583530481 -0.024762239571836746 0 0.0010680303626820541 -0.024068670855624235 0 0.00043280831028565103 -0.024237191216980414 0 0.00061479421583530481 -0.024762239571836746 0 0.00043280831028565103 -0.024237191216980414 0 -0.00010681630892621137 -0.024732877640582015 0 0.0010680303626820541 -0.024068670855624235 0 0.00043280831028565103 -0.024237191216980414 0 0.00072798858241360362 -0.023672232960845599 0 0.00080507328990231223 -0.0235638193507871 0 -0.00028521172337251093 -0.024650891968732692 0 0.00047328569492964073 -0.023487794005360243 0 0.00072798858241360362 -0.023672232960845599 0 0.00012054058341110744 -0.023921247550691683 0 0.00043280831028565103 -0.024237191216980414 0 0.00072798858241360362 -0.023672232960845599 0 -0.00019974285422284539 -0.023934966653478006 0 0.00047328569492964073 -0.023487794005360243 0 0.00072798858241360362 -0.023672232960845599 0 0.00085181998052169896 -0.023347242776252049 0 0.0010683966908051116 -0.023514534440189833 0 0.0011701859715209251 -0.023193513158840228 0 0.001545570282219956 -0.023607639897827069 0 0.0010680303626820541 -0.024068670855624235 0 0.0010683966908051116 -0.023514534440189833 0 0.001545570282219956 -0.023607639897827069 0 0.0010680303626820541 -0.024068670855624235 0 0.00072798858241360362 -0.023672232960845599 0 0.0010683966908051116 -0.023514534440189833 0 0.00072798858241360362 -0.023672232960845599 0 0.0010683966908051116 -0.023514534440189833 0 0.00085181998052169896 -0.023347242776252049 0 0.0014108986271234741 -0.022818264746218758 0 0.0025526583434358333 -0.023989548725593106 0 0.0018953711583551266 -0.022685166183118971 0 0.0029373485324916786 -0.023354518972330734 0 0.0027393516073109104 -0.022701054555044026 0 0.0018953711583551266 -0.022685166183118971 0 0.0027393516073109104 -0.022701054555044026 0 0.0023260121145731076 -0.022230339872435396 0 0.0018953711583551266 -0.022685166183118971 0 0.0016170379198367098 -0.022233231385849535 0 0.0023260121145731076 -0.022230339872435396 0 0.0011701859715209251 -0.023193513158840228 0 0.0010330482316475906 -0.02299611652172551 0 0.0010180434884888149 -0.023241289118977177 0 0.0010683966908051116 -0.023514534440189833 0 0.0010180434884888149 -0.023241289118977177 0 0.00085181998052169896 -0.023347242776252049 0 0.0010683966908051116 -0.023514534440189833 0 0.0011701859715209251 -0.023193513158840228 0 0.0010180434884888149 -0.023241289118977177 0 0.00088591224274710278 -0.023798561540188602 0 0.0010330482316475906 -0.02299611652172551 0 0.00073280092602004605 -0.023142326871021277 0 0.00074216424775863123 -0.023561582649212532 0 0.00096426057940262992 -0.023151492819192872 0 0.00047328569492964073 -0.023487794005360243 0 0.0010330482316475906 -0.02299611652172551 0 0.00085181998052169896 -0.023347242776252049 0 0.0010330482316475906 -0.02299611652172551 0 0.0010180434884888149 -0.023241289118977177 0 0.00085181998052169896 -0.023347242776252049 0 0.0010330482316475906 -0.02299611652172551 0 0.00083743964907523035 -0.022861019566199115 0 0.00073280092602004605 -0.023142326871021277 0 0.0014108986271234741 -0.022818264746218758 0 0.00083693820175657408 -0.022401401163590795 0 0.0011701859715209251 -0.023193513158840228 0 0.0010330482316475906 -0.02299611652172551 0 0.00076993850928033087 -0.022373518601487667 0 0.00083743964907523035 -0.022861019566199115 0 0.00073280092602004605 -0.023142326871021277 0 0.00069695368487719732 -0.022795170259042104 0 0.00073280092602004605 -0.023142326871021277 0 0.00069695368487719732 -0.022795170259042104 0 0.00048188146448289017 -0.022807531401259833 0 0.00088591224274710278 -0.023798561540188602 0 0.00073280092602004605 -0.023142326871021277 0 0.00051762666834092382 -0.023471137137437578 0 0.003808144078116501 -0.024016250181046694 0 0.0041747096770187687 -0.023594501452695253 0 0.0035112155426750753 -0.02301500994567068 0 0.003808144078116501 -0.024016250181046694 0 0.0029373485324916786 -0.023354518972330734 0 0.0035112155426750753 -0.02301500994567068 0 0.0026123611588931045 -0.020212905903826277 0 0.0025526583434358333 -0.023989548725593106 0 0.0015736901018103041 -0.024139093769895155 0 0.0010680303626820541 -0.024068670855624235 0 0.001545570282219956 -0.023607639897827069 0 0.0029373485324916786 -0.023354518972330734 0 0.0035112155426750753 -0.02301500994567068 0 0.0027393516073109104 -0.022701054555044026 0 0.0035112155426750753 -0.02301500994567068 0 0.0027393516073109104 -0.022701054555044026 0 0.0030395247225233333 -0.022092976790713304 0 0.0027393516073109104 -0.022701054555044026 0 0.0030395247225233333 -0.022092976790713304 0 0.0023260121145731076 -0.022230339872435396 0 0.0015123697219197822 -0.0091254536712262486 0 0.0024481567056999433 -0.011563029505430776 0 0.0035112155426750753 -0.02301500994567068 0 0.0043279381458107878 -0.022097114443774855 0 0.0030395247225233333 -0.022092976790713304 0 0.0041747096770187687 -0.023594501452695253 0 0.0035112155426750753 -0.02301500994567068 0 0.0043279381458107878 -0.022097114443774855 0 0.00013736985814763618 0.00029276737545741568 0 0.0002230894571246905 0.00032947335483284192 0 0.00036739897322291622 8.9397475694859966e-05 0 0.0024481567056999433 -0.011563029505430776 0 0.0025628800161518217 -0.010078754705140549 0 0.0043279381458107878 -0.022097114443774855 0 0.0030462312873416643 -0.020800124601441147 0 0.0045196878283037438 -0.020041563856364058 0 0.0043279381458107878 -0.022097114443774855 0 0.0030395247225233333 -0.022092976790713304 0 0.0030462312873416643 -0.020800124601441147 0 0.0030395247225233333 -0.022092976790713304 0 0.0030462312873416643 -0.020800124601441147 0 0.0024639778283745057 -0.021545933799435577 0 0.0030395247225233333 -0.022092976790713304 0 0.0023260121145731076 -0.022230339872435396 0 0.0024639778283745057 -0.021545933799435577 0 0.0030462312873416643 -0.020800124601441147 0 0.0019209122693788195 -0.019270640303134152 0 0.0032880818571274064 -0.019194233237470111 0 0.0030462312873416643 -0.020800124601441147 0 0.0045196878283037438 -0.020041563856364058 0 0.0032880818571274064 -0.019194233237470111 0 0.00068130357456944234 -0.021897975273597995 0 0.00076993850928033087 -0.022373518601487667 0 0.00051273736691139014 -0.022249658076808621 0 0.00076993850928033087 -0.022373518601487667 0 0.00051273736691139014 -0.022249658076808621 0 0.00048188146448289017 -0.022807531401259833 0 0.00076993850928033087 -0.022373518601487667 0 0.00069695368487719732 -0.022795170259042104 0 0.00048188146448289017 -0.022807531401259833 0 0.00083743964907523035 -0.022861019566199115 0 0.00076993850928033087 -0.022373518601487667 0 0.00069695368487719732 -0.022795170259042104 0 0.0010330482316475906 -0.02299611652172551 0 0.00083743964907523035 -0.022861019566199115 0 0.00076993850928033087 -0.022373518601487667 0 0.00076993850928033087 -0.022373518601487667 0 0.001290209553862624 -0.021953673254548299 0 0.0016170379198367098 -0.022233231385849535 0 0.0018953711583551266 -0.022685166183118971 0 0.00076993850928033087 -0.022373518601487667 0 0.0016170379198367098 -0.022233231385849535 0 0.00068130357456944234 -0.021897975273597995 0 0.001290209553862624 -0.021953673254548299 0 0.0015471353809485241 -0.020785365646836661 0 0.00068130357456944234 -0.021897975273597995 0 0.00076993850928033087 -0.022373518601487667 0 0.001290209553862624 -0.021953673254548299 0 0.001290209553862624 -0.021953673254548299 0 0.0018162332077576375 -0.021904860714385885 0 0.0015471353809485241 -0.020785365646836661 0 0.0018162332077576375 -0.021904860714385885 0 0.0024639778283745057 -0.021545933799435577 0 0.0015471353809485241 -0.020785365646836661 0 0.0016170379198367098 -0.022233231385849535 0 0.0018162332077576375 -0.021904860714385885 0 0.0023260121145731076 -0.022230339872435396 0 0.001290209553862624 -0.021953673254548299 0 0.0016170379198367098 -0.022233231385849535 0 0.0018162332077576375 -0.021904860714385885 0 0.0018162332077576375 -0.021904860714385885 0 0.0023260121145731076 -0.022230339872435396 0 0.0024639778283745057 -0.021545933799435577 0 0.0030462312873416643 -0.020800124601441147 0 0.0015471353809485241 -0.020785365646836661 0 0.0019209122693788195 -0.019270640303134152 0 0.0030462312873416643 -0.020800124601441147 0 0.0024639778283745057 -0.021545933799435577 0 0.0015471353809485241 -0.020785365646836661 0 0.00068130357456944234 -0.021897975273597995 0 0.0015471353809485241 -0.020785365646836661 0 -0.00025105276017378957 -0.018826998209630123 0 0.00065538111370557102 -0.021822223978776457 0 0.00025870526470109581 -0.020307097780221023 0 0.0015471353809485241 -0.020785365646836661 0 0.0019209122693788195 -0.019270640303134152 0 -0.00025105276017378957 -0.018826998209630123 0 0.0019209122693788195 -0.019270640303134152 0 0.001188087428769012 -0.016956956915582782 0 -0.00025105276017378957 -0.018826998209630123 0 0.0019209122693788195 -0.019270640303134152 0 0.001188087428769012 -0.016956956915582782 0 0.0025604171512661781 -0.01786987207706027 0 0.001188087428769012 -0.016956956915582782 0 0.0025604171512661781 -0.01786987207706027 0 0.0029854988819552112 -0.016440834123714079 0 0.001188087428769012 -0.016956956915582782 0 -0.00025105276017378957 -0.018826998209630123 0 -0.00053137897708046276 -0.016451121621269115 0 0.0025628800161518217 -0.010078754705140549 0 0.0027304814099334625 -0.0094210015592708571 0 0.0045196878283037438 -0.020041563856364058 0 0.0032880818571274064 -0.019194233237470111 0 0.0044153507145691393 -0.017634456999397648 0 0.0019209122693788195 -0.019270640303134152 0 0.0032880818571274064 -0.019194233237470111 0 0.0025604171512661781 -0.01786987207706027 0 0.0025604171512661781 -0.01786987207706027 0 0.0044153507145691393 -0.017634456999397648 0 0.0029854988819552112 -0.016440834123714079 0 0.0032880818571274064 -0.019194233237470111 0 0.0025604171512661781 -0.01786987207706027 0 0.0044153507145691393 -0.017634456999397648 0 0.0010437962285896208 -0.0010725244409237188 0 0.00031319609294203673 -0.0010680316950736747 0 0.00072463924112604221 -0.0015731632212767192 0 0.0010437962285896208 -0.0010725244409237188 0 0.00035093587423605478 -0.0006144119025160603 0 0.00031319609294203673 -0.0010680316950736747 0 0.00064803137204128805 -0.00035538865840224531 0 0.0010437962285896208 -0.0010725244409237188 0 0.00035093587423605478 -0.0006144119025160603 0 0.00035093587423605478 -0.0006144119025160603 0 -0.00013012810594187777 -0.00079332920521235628 0 -0.00017281193053069374 -0.00021893807143133284 0 0.00035093587423605478 -0.0006144119025160603 0 -0.00013012810594187777 -0.00079332920521235628 0 0.00031319609294203673 -0.0010680316950736747 0 -0.00013012810594187777 -0.00079332920521235628 0 0.00031319609294203673 -0.0010680316950736747 0 -1.2300943497095358e-05 -0.0013907738920897591 0 -0.00013012810594187777 -0.00079332920521235628 0 -0.00057428322745690398 -0.001207648998784918 0 -1.2300943497095358e-05 -0.0013907738920897591 0 -0.00013012810594187777 -0.00079332920521235628 0 -0.00068637400444650459 -0.00049304894296458267 0 -0.00057428322745690398 -0.001207648998784918 0 -0.00095699317901003027 -0.00075325272210242857 0 -0.00068637400444650459 -0.00049304894296458267 0 -0.00057428322745690398 -0.001207648998784918 0 -0.00095699317901003027 -0.00075325272210242857 0 -0.00068637400444650459 -0.00049304894296458267 0 -0.001193319740458811 -0.00022139754548716384 0 -0.00068637400444650459 -0.00049304894296458267 0 -0.00076285534021814099 -3.1699226923960026e-05 0 -0.001193319740458811 -0.00022139754548716384 0 -0.00068637400444650459 -0.00049304894296458267 0 -0.00076285534021814099 -3.1699226923960026e-05 0 -0.00017281193053069374 -0.00021893807143133284 0 -0.00013012810594187777 -0.00079332920521235628 0 -0.00068637400444650459 -0.00049304894296458267 0 -0.00017281193053069374 -0.00021893807143133284 0 -0.00076285534021814099 -3.1699226923960026e-05 0 -0.00044207530913056365 0.0001568111209624389 0 -0.00017281193053069374 -0.00021893807143133284 0 -0.00076285534021814099 -3.1699226923960026e-05 0 -0.0011824252032583955 0.00017726838720828482 0 -0.001193319740458811 -0.00022139754548716384 0 -0.00076285534021814099 -3.1699226923960026e-05 0 -0.00083789056509484894 0.00026914288819895356 0 -0.0011824252032583955 0.00017726838720828482 0 -0.00076285534021814099 -3.1699226923960026e-05 0 -0.00083789056509484894 0.00026914288819895356 0 -0.00044207530913056365 0.0001568111209624389 0 -0.00057457489954409807 0.00039167667181487048 0 -0.00083789056509484894 0.00026914288819895356 0 -0.00044207530913056365 0.0001568111209624389 0 -0.00044207530913056365 0.0001568111209624389 0 -5.8151168040335125e-05 9.4051645102923701e-05 0 -0.00017281193053069374 -0.00021893807143133284 0 -0.00030310527123402631 0.00029693577052882896 0 -0.00044207530913056365 0.0001568111209624389 0 -5.8151168040335125e-05 9.4051645102923701e-05 0 0.00036739897322291622 8.9397475694859966e-05 0 -5.8151168040335125e-05 9.4051645102923701e-05 0 0.00022384270814325104 -0.00016132665239516206 0 0.00036739897322291622 8.9397475694859966e-05 0 0.00064803137204128805 -0.00035538865840224531 0 0.00022384270814325104 -0.00016132665239516206 0 0.00064803137204128805 -0.00035538865840224531 0 0.00035093587423605478 -0.0006144119025160603 0 0.00022384270814325104 -0.00016132665239516206 0 -5.8151168040335125e-05 9.4051645102923701e-05 0 0.00022384270814325104 -0.00016132665239516206 0 -0.00017281193053069374 -0.00021893807143133284 0 0.00035093587423605478 -0.0006144119025160603 0 0.00022384270814325104 -0.00016132665239516206 0 -0.00017281193053069374 -0.00021893807143133284 0 -0.0019647903943360362 -0.031554797601312759 0 -0.0023746098082653537 -0.032001891483694873 0 -0.0017877531158659269 -0.031788575757605159 0 -0.0016555403234631665 -0.031507995262009196 0 -0.0019647903943360362 -0.031554797601312759 0 -0.0018043198499007353 -0.031324322096036882 0 -0.0016555403234631665 -0.031507995262009196 0 -0.0019647903943360362 -0.031554797601312759 0 -0.0017877531158659269 -0.031788575757605159 0 -0.0019647903943360362 -0.031554797601312759 0 -0.0024366624721775241 -0.031444736423122975 0 -0.0023746098082653537 -0.032001891483694873 0 -0.0024366624721775241 -0.031444736423122975 0 -0.0029329059000323117 -0.031624280361042256 0 -0.0023746098082653537 -0.032001891483694873 0 -0.0024366624721775241 -0.031444736423122975 0 -0.0029077658916333514 -0.031279227918582612 0 -0.0029329059000323117 -0.031624280361042256 0 -0.0019647903943360362 -0.031554797601312759 0 -0.0024366624721775241 -0.031444736423122975 0 -0.0020543489688940766 -0.031251617736581756 0 -0.0024366624721775241 -0.031444736423122975 0 -0.0025048161851814574 -0.030913741660775009 0 -0.0020543489688940766 -0.031251617736581756 0 -0.0024366624721775241 -0.031444736423122975 0 -0.0025048161851814574 -0.030913741660775009 0 -0.0029077658916333514 -0.031279227918582612 0 -0.0025048161851814574 -0.030913741660775009 0 -0.0020543489688940766 -0.031251617736581756 0 -0.001936055743935803 -0.030825652165810472 0 -0.0020543489688940766 -0.031251617736581756 0 -0.0018043198499007353 -0.031324322096036882 0 -0.001936055743935803 -0.030825652165810472 0 -0.0019647903943360362 -0.031554797601312759 0 -0.0020543489688940766 -0.031251617736581756 0 -0.0018043198499007353 -0.031324322096036882 0 -0.0017009612963241822 -0.031256483797992986 0 -0.0018043198499007353 -0.031324322096036882 0 -0.001936055743935803 -0.030825652165810472 0 -0.0017539753002040422 -0.031102673441597527 0 -0.001936055743935803 -0.030825652165810472 0 -0.0017526115127093783 -0.031008415707074442 0 -0.0017009612963241822 -0.031256483797992986 0 -0.0017539753002040422 -0.031102673441597527 0 -0.001936055743935803 -0.030825652165810472 0 -0.0016149808912448622 -0.027106887279386146 0 -0.0010749287779466912 -0.027028491251596086 0 -0.00098385326994152185 -0.027579174679330423 0 -0.0016149808912448622 -0.027106887279386146 0 -0.00098385326994152185 -0.027579174679330423 0 -0.0023245997418819301 -0.027474522429368261 0 -0.00098385326994152185 -0.027579174679330423 0 -0.0023245997418819301 -0.027474522429368261 0 -0.0023284872821618279 -0.030036576124391916 0 -0.0021142103743456561 -0.026891218873535926 0 -0.0016149808912448622 -0.027106887279386146 0 -0.0023245997418819301 -0.027474522429368261 0 -0.00148693650258943 -0.029387828931507542 0 -0.002354850640965881 -0.030052189600969524 0 -0.001936055743935803 -0.030825652165810472 0 -0.0017526115127093783 -0.031008415707074442 0 -0.0023284872821618279 -0.030036576124391916 0 -0.0023245997418819301 -0.027474522429368261 0 -0.0023284872821618279 -0.030036576124391916 0 -0.0035619824978797799 -0.030228770001644693 0 -0.0025048161851814574 -0.030913741660775009 0 -0.001936055743935803 -0.030825652165810472 0 -0.0023284872821618279 -0.030036576124391916 0 -0.00232710065795529 -0.027465951512132606 0 -0.0028670478994214954 -0.027964174475947498 0 -0.0025048161851814574 -0.030913741660775009 0 -0.0023284872821618279 -0.030036576124391916 0 -0.0035619824978797799 -0.030228770001644693 0 -0.0021142103743456561 -0.026891218873535926 0 -0.0023245997418819301 -0.027474522429368261 0 -0.0022601503963481473 -0.026805582982978214 0 -0.0023245997418819301 -0.027474522429368261 0 -0.0024618908416060448 -0.02604386201197155 0 -0.0022601503963481473 -0.026805582982978214 0 -0.0022601503963481473 -0.026805582982978214 0 -0.0019908586000971719 -0.025818314623202922 0 -0.0015071114874194867 -0.026131809362510128 0 -0.0022598840106134326 -0.026738298579248615 0 -0.0017857158654444132 -0.026267556866185843 0 -0.0021410266231422256 -0.026521045089788059 0 -0.0022601503963481473 -0.026805582982978214 0 -0.0020943313002627062 -0.026392994509457052 0 -0.0024618908416060448 -0.02604386201197155 0 -0.0019908586000971719 -0.025818314623202922 0 -0.0021028106439151171 -0.024804946170997683 0 -0.0024618908416060448 -0.02604386201197155 0 -0.0022601503963481473 -0.026805582982978214 0 -0.0019908586000971719 -0.025818314623202922 0 -0.0039249474827963288 -0.031058837708873903 0 -0.0033283849923541869 -0.030984642623757625 0 -0.0034559474744163508 -0.03137346218938146 0 -0.0028670478994214954 -0.027964174475947498 0 -0.003251572154207951 -0.028233793127004296 0 -0.0019908586000971719 -0.025818314623202922 0 -0.0021028106439151171 -0.024804946170997683 0 -0.0014501305101386841 -0.02531713301188027 0 -0.0035619824978797799 -0.030228770001644693 0 -0.0039249474827963288 -0.031058837708873903 0 -0.0033283849923541869 -0.030984642623757625 0 -0.0025048161851814574 -0.030913741660775009 0 -0.0035619824978797799 -0.030228770001644693 0 -0.0033283849923541869 -0.030984642623757625 0 -0.0025048161851814574 -0.030913741660775009 0 -0.0029077658916333514 -0.031279227918582612 0 -0.0033283849923541869 -0.030984642623757625 0 -0.0029077658916333514 -0.031279227918582612 0 -0.0033283849923541869 -0.030984642623757625 0 -0.0034559474744163508 -0.03137346218938146 0 -0.0029329059000323117 -0.031624280361042256 0 -0.0035235265602890768 -0.031864589336356414 0 -0.0023746098082653537 -0.032001891483694873 0 -0.0029077658916333514 -0.031279227918582612 0 -0.0034559474744163508 -0.03137346218938146 0 -0.0029329059000323117 -0.031624280361042256 0 -0.0034559474744163508 -0.03137346218938146 0 -0.0029329059000323117 -0.031624280361042256 0 -0.0035235265602890768 -0.031864589336356414 0 -0.0035235265602890768 -0.031864589336356414 0 -0.0038476352684130876 -0.031483503396405078 0 -0.0044664623538327626 -0.031633251321155208 0 -0.0039249474827963288 -0.031058837708873903 0 -0.0038476352684130876 -0.031483503396405078 0 -0.0044664623538327626 -0.031633251321155208 0 -0.0033514320346333241 -0.02785723486444933 0 -0.0019421555447193413 -0.026018104818531444 0 -0.0034559474744163508 -0.03137346218938146 0 -0.0035235265602890768 -0.031864589336356414 0 -0.0038476352684130876 -0.031483503396405078 0 -0.0039249474827963288 -0.031058837708873903 0 -0.0034559474744163508 -0.03137346218938146 0 -0.0038476352684130876 -0.031483503396405078 0 -0.0021028106439151171 -0.024804946170997683 0 -0.0014780244905967109 -0.023726393136301267 0 -0.0012697598170107174 -0.024420772621905184 0 -0.003251572154207951 -0.028233793127004296 0 -0.0019421555447193413 -0.026018104818531444 0 -0.0015448764004573753 -0.023560085522355997 0 -0.00089309898589060737 -0.023664887163156241 0 -0.00067937660936702102 -0.023211695333830457 0 -0.0019421555447193413 -0.026018104818531444 0 -0.0010261594063247523 -0.024152750220243383 0 -0.00089309898589060737 -0.023664887163156241 0 -0.00047723069984998199 -0.023625223079246891 0 -0.00067937660936702102 -0.023211695333830457 0 -0.00089309898589060737 -0.023664887163156241 0 -0.00071299369367265782 -0.024201004919682825 0 -0.00047723069984998199 -0.023625223079246891 0 -0.00089309898589060737 -0.023664887163156241 0 -0.00071299369367265782 -0.024201004919682825 0 -0.0012697598170107174 -0.024420772621905184 0 -0.0014780244905967109 -0.023726393136301267 0 -0.00089309898589060737 -0.023664887163156241 0 -0.0012697598170107174 -0.024420772621905184 0 -0.00071299369367265782 -0.024201004919682825 0 -0.0009445223863689666 -0.024793700715709042 0 -0.0012697598170107174 -0.024420772621905184 0 -0.00071299369367265782 -0.024201004919682825 0 -0.0009445223863689666 -0.024793700715709042 0 -0.00048110892979250704 -0.024597284964278838 0 -0.0009445223863689666 -0.024793700715709042 0 -0.00051596557560480781 -0.025368780132646384 0 -0.00048110892979250704 -0.024597284964278838 0 -0.0021028106439151171 -0.024804946170997683 0 -0.0012697598170107174 -0.024420772621905184 0 -0.0014501305101386841 -0.02531713301188027 0 -0.0009445223863689666 -0.024793700715709042 0 -0.0012697598170107174 -0.024420772621905184 0 -0.0014501305101386841 -0.02531713301188027 0 -0.0019908586000971719 -0.025818314623202922 0 -0.0014501305101386841 -0.02531713301188027 0 -0.0015071114874194867 -0.026131809362510128 0 -0.0020280622292865483 -0.026432621964050829 0 -0.0021410266231422256 -0.026521045089788059 0 -0.0020943313002627062 -0.026392994509457052 0 -0.0020280622292865483 -0.026432621964050829 0 -0.0019841654107251236 -0.026441024466722668 0 -0.0020943313002627062 -0.026392994509457052 0 -0.0019841654107251236 -0.026441024466722668 0 -0.0020943313002627062 -0.026392994509457052 0 -0.0019337509572362422 -0.026238589308242403 0 -0.0014501305101386841 -0.02531713301188027 0 -0.0015071114874194867 -0.026131809362510128 0 -0.00051596557560480781 -0.025368780132646384 0 -0.0009445223863689666 -0.024793700715709042 0 -0.0014501305101386841 -0.02531713301188027 0 -0.00051596557560480781 -0.025368780132646384 0 -0.0017857158654444132 -0.026267556866185843 0 -0.0013129293072444218 -0.025909026025431145 0 -0.00051596557560480781 -0.025368780132646384 0 0.00049684346966727996 -0.024635533679555829 0 -8.2972654714064299e-05 -0.02452675275102582 0 -0.0019337509572362422 -0.026238589308242403 0 -0.0017890463769092732 -0.026306194321729912 0 -0.0015712676781425158 -0.026041587031186048 0 -0.0013129293072444218 -0.025909026025431145 0 -0.00028521172337251093 -0.024650891968732692 0 -0.0016229501878528806 -0.025837259023881214 0 -0.0013718587319320309 -0.025543791107826737 0 -0.0013077142022275491 -0.025263026024458575 0 -0.00076696883331995344 -0.02461637896764424 0 -0.00067420081349314049 -0.025216912296213253 0 -0.0019841654107251236 -0.026441024466722668 0 -0.0019337509572362422 -0.026238589308242403 0 -0.0017890463769092732 -0.026306194321729912 0 -0.00076696883331995344 -0.02461637896764424 0 -0.00067420081349314049 -0.025216912296213253 0 -0.00010681630892621137 -0.024732877640582015 0 -0.00025529450740091462 -0.025324464347263161 0 0.00015593292642562332 -0.025260535287812181 0 -0.00010681630892621137 -0.024732877640582015 0 -0.00025529450740091462 -0.025324464347263161 0 -0.00067420081349314049 -0.025216912296213253 0 -0.00010681630892621137 -0.024732877640582015 0 -0.0013718587319320309 -0.025543791107826737 0 -0.00028521172337251093 -0.024650891968732692 0 0.00043280831028565103 -0.024237191216980414 0 -0.00010681630892621137 -0.024732877640582015 0 -0.00019974285422284539 -0.023934966653478006 0 -0.00076696883331995344 -0.02461637896764424 0 -0.00010681630892621137 -0.024732877640582015 0 -0.00019974285422284539 -0.023934966653478006 0 0.00074216424775863123 -0.023561582649212532 0 -0.00028521172337251093 -0.024650891968732692 0 0.00088591224274710278 -0.023798561540188602 0 0.00049684346966727996 -0.024635533679555829 0 0.0003266382133756259 -0.023937835294243766 0 0.00049684346966727996 -0.024635533679555829 0 0.0003266382133756259 -0.023937835294243766 0 -8.2972654714064299e-05 -0.02452675275102582 0 -0.00051596557560480781 -0.025368780132646384 0 -8.2972654714064299e-05 -0.02452675275102582 0 -0.00048110892979250704 -0.024597284964278838 0 -8.2972654714064299e-05 -0.02452675275102582 0 -0.00048110892979250704 -0.024597284964278838 0 -0.00023729981971252006 -0.024089874615029674 0 -0.00071299369367265782 -0.024201004919682825 0 -0.00048110892979250704 -0.024597284964278838 0 -0.00023729981971252006 -0.024089874615029674 0 0.0003266382133756259 -0.023937835294243766 0 -8.2972654714064299e-05 -0.02452675275102582 0 -0.00023729981971252006 -0.024089874615029674 0 0.0003266382133756259 -0.023937835294243766 0 -0.00023729981971252006 -0.024089874615029674 0 -9.8381380090528e-05 -0.023524634620071688 0 -0.00023729981971252006 -0.024089874615029674 0 -0.00047723069984998199 -0.023625223079246891 0 -9.8381380090528e-05 -0.023524634620071688 0 -0.00071299369367265782 -0.024201004919682825 0 -0.00023729981971252006 -0.024089874615029674 0 -0.00047723069984998199 -0.023625223079246891 0 -0.00047723069984998199 -0.023625223079246891 0 -9.8381380090528e-05 -0.023524634620071688 0 -0.00027494839479039613 -0.023125232209165583 0 -0.00047723069984998199 -0.023625223079246891 0 -0.00027494839479039613 -0.023125232209165583 0 -0.00067937660936702102 -0.023211695333830457 0 -9.8381380090528e-05 -0.023524634620071688 0 0.00010447517127138186 -0.02290031436443565 0 -0.00027494839479039613 -0.023125232209165583 0 -9.8381380090528e-05 -0.023524634620071688 0 0.00024928127591124016 -0.023266037249677452 0 0.00010447517127138186 -0.02290031436443565 0 0.00024928127591124016 -0.023266037249677452 0 0.00051762666834092382 -0.023471137137437578 0 0.00048188146448289017 -0.022807531401259833 0 0.00073280092602004605 -0.023142326871021277 0 0.00051762666834092382 -0.023471137137437578 0 0.00048188146448289017 -0.022807531401259833 0 0.00088591224274710278 -0.023798561540188602 0 0.0003266382133756259 -0.023937835294243766 0 0.00051762666834092382 -0.023471137137437578 0 0.0003266382133756259 -0.023937835294243766 0 0.00024928127591124016 -0.023266037249677452 0 0.00051762666834092382 -0.023471137137437578 0 0.0003266382133756259 -0.023937835294243766 0 -9.8381380090528e-05 -0.023524634620071688 0 0.00024928127591124016 -0.023266037249677452 0 0.00011216567201073713 -0.022457290183642738 0 0.00034768848001171307 -0.022394234944498107 0 0.00010447517127138186 -0.02290031436443565 0 0.00034768848001171307 -0.022394234944498107 0 0.00051273736691139014 -0.022249658076808621 0 0.0004169013716769188 -0.022085270995335235 0 0.00034768848001171307 -0.022394234944498107 0 0.00051273736691139014 -0.022249658076808621 0 0.00048188146448289017 -0.022807531401259833 0 0.00034768848001171307 -0.022394234944498107 0 0.00048188146448289017 -0.022807531401259833 0 0.00010447517127138186 -0.02290031436443565 0 0.00024928127591124016 -0.023266037249677452 0 0.00048188146448289017 -0.022807531401259833 0 0.00010447517127138186 -0.02290031436443565 0 0.00010447517127138186 -0.02290031436443565 0 -0.00027494839479039613 -0.023125232209165583 0 -8.983068973727226e-05 -0.022787179349921742 0 -0.00027494839479039613 -0.023125232209165583 0 -0.0003072668488136705 -0.022662221972939933 0 -8.983068973727226e-05 -0.022787179349921742 0 -0.00027494839479039613 -0.023125232209165583 0 -0.0003072668488136705 -0.022662221972939933 0 -0.00067937660936702102 -0.023211695333830457 0 0.00011216567201073713 -0.022457290183642738 0 0.00010447517127138186 -0.02290031436443565 0 -8.983068973727226e-05 -0.022787179349921742 0 0.00011216567201073713 -0.022457290183642738 0 -0.0003072668488136705 -0.022662221972939933 0 -8.983068973727226e-05 -0.022787179349921742 0 0.00011216567201073713 -0.022457290183642738 0 -0.0003072668488136705 -0.022662221972939933 0 -2.9760701651990957e-05 -0.022277706773427771 0 -0.0003072668488136705 -0.022662221972939933 0 -2.9760701651990957e-05 -0.022277706773427771 0 -0.0003301870801866586 -0.022283474823959162 0 -0.0003072668488136705 -0.022662221972939933 0 -0.0003301870801866586 -0.022283474823959162 0 -0.00060236040184046653 -0.022534135442888917 0 -0.0003301870801866586 -0.022283474823959162 0 -3.0035787310598558e-05 -0.021960064789415815 0 -0.00060280696727884611 -0.022076177736197321 0 -2.9760701651990957e-05 -0.022277706773427771 0 -0.0003301870801866586 -0.022283474823959162 0 -3.0035787310598558e-05 -0.021960064789415815 0 -2.9760701651990957e-05 -0.022277706773427771 0 0.0004169013716769188 -0.022085270995335235 0 -3.0035787310598558e-05 -0.021960064789415815 0 0.00068130357456944234 -0.021897975273597995 0 0.0004169013716769188 -0.022085270995335235 0 0.00068549606451593606 -0.021782048977463601 0 0.00011216567201073713 -0.022457290183642738 0 -2.9760701651990957e-05 -0.022277706773427771 0 0.0004169013716769188 -0.022085270995335235 0 0.00011216567201073713 -0.022457290183642738 0 0.00034768848001171307 -0.022394234944498107 0 0.0004169013716769188 -0.022085270995335235 0 0.00068130357456944234 -0.021897975273597995 0 0.00051273736691139014 -0.022249658076808621 0 0.0004169013716769188 -0.022085270995335235 0 0.0004169013716769188 -0.022085270995335235 0 0.00068549606451593606 -0.021782048977463601 0 -3.0035787310598558e-05 -0.021960064789415815 0 0.00068549606451593606 -0.021782048977463601 0 0.00014022131330481365 -0.021474809043096 0 -3.0035787310598558e-05 -0.021960064789415815 0 0.00068549606451593606 -0.021782048977463601 0 0.00014022131330481365 -0.021474809043096 0 0.00098577894754823983 -0.020568030434175728 0 0.00025870526470109581 -0.020307097780221023 0 0.00024050978160227731 -0.018485257994865407 0 0.00014022131330481365 -0.021474809043096 0 -0.00057393870016151109 -0.0217519003834633 0 -0.00038738664678234056 -0.021065229635049771 0 0.00014022131330481365 -0.021474809043096 0 -0.00038738664678234056 -0.021065229635049771 0 0.00098577894754823983 -0.020568030434175728 0 0.00014022131330481365 -0.021474809043096 0 -3.0035787310598558e-05 -0.021960064789415815 0 -0.00057393870016151109 -0.0217519003834633 0 -3.0035787310598558e-05 -0.021960064789415815 0 -0.00060280696727884611 -0.022076177736197321 0 -0.00057393870016151109 -0.0217519003834633 0 -0.00060280696727884611 -0.022076177736197321 0 -0.00095764325378368406 -0.022082893263091714 0 -0.00057393870016151109 -0.0217519003834633 0 -0.00095764325378368406 -0.022082893263091714 0 -0.0010712164325987449 -0.021862205783190775 0 -0.00057393870016151109 -0.0217519003834633 0 -0.00095764325378368406 -0.022082893263091714 0 -0.0010712164325987449 -0.021862205783190775 0 -0.0014041952924379588 -0.022214451259671746 0 -0.0010712164325987449 -0.021862205783190775 0 -0.00057393870016151109 -0.0217519003834633 0 -0.00091130505211227397 -0.021509676332759357 0 -0.00057393870016151109 -0.0217519003834633 0 -0.00091130505211227397 -0.021509676332759357 0 -0.00038738664678234056 -0.021065229635049771 0 -0.0010712164325987449 -0.021862205783190775 0 -0.00091130505211227397 -0.021509676332759357 0 -0.0013251182400673522 -0.021574177721594517 0 -0.00091130505211227397 -0.021509676332759357 0 -0.001097343296243557 -0.021130745778025522 0 -0.0013251182400673522 -0.021574177721594517 0 -0.00091130505211227397 -0.021509676332759357 0 -0.001097343296243557 -0.021130745778025522 0 -0.00038738664678234056 -0.021065229635049771 0 -0.001097343296243557 -0.021130745778025522 0 -0.0017311388925284916 -0.021434528875440978 0 -0.0013251182400673522 -0.021574177721594517 0 -0.0017311388925284916 -0.021434528875440978 0 -0.0013251182400673522 -0.021574177721594517 0 -0.0017033204849485862 -0.021819997187862081 0 -0.0017311388925284916 -0.021434528875440978 0 -0.0017033204849485862 -0.021819997187862081 0 -0.0020707734074079569 -0.021636280629466435 0 -0.0010712164325987449 -0.021862205783190775 0 -0.0013251182400673522 -0.021574177721594517 0 -0.0017033204849485862 -0.021819997187862081 0 -0.0010712164325987449 -0.021862205783190775 0 -0.0017033204849485862 -0.021819997187862081 0 -0.0014041952924379588 -0.022214451259671746 0 -0.0017033204849485862 -0.021819997187862081 0 -0.0014041952924379588 -0.022214451259671746 0 -0.0018727136731240411 -0.022206047175944724 0 -0.0014041952924379588 -0.022214451259671746 0 -0.0017949183638700415 -0.022527590590385636 0 -0.0018727136731240411 -0.022206047175944724 0 -0.0014151371387281233 -0.022540823724174274 0 -0.001466486893966333 -0.022862098409879128 0 -0.0017949183638700415 -0.022527590590385636 0 -0.0014151371387281233 -0.022540823724174274 0 -0.0014041952924379588 -0.022214451259671746 0 -0.0017949183638700415 -0.022527590590385636 0 -0.0012083983322486436 -0.022653134394383115 0 -0.0014151371387281233 -0.022540823724174274 0 -0.001175589577268374 -0.022457997243120826 0 -0.0014151371387281233 -0.022540823724174274 0 -0.001175589577268374 -0.022457997243120826 0 -0.0014041952924379588 -0.022214451259671746 0 -0.001175589577268374 -0.022457997243120826 0 -0.0014041952924379588 -0.022214451259671746 0 -0.00096945108756390412 -0.022284712201316847 0 -0.00060280696727884611 -0.022076177736197321 0 -0.00095764325378368406 -0.022082893263091714 0 -0.00096945108756390412 -0.022284712201316847 0 -0.00095764325378368406 -0.022082893263091714 0 -0.0014041952924379588 -0.022214451259671746 0 -0.00096945108756390412 -0.022284712201316847 0 -0.0003301870801866586 -0.022283474823959162 0 -0.00060280696727884611 -0.022076177736197321 0 -0.00067582697865291742 -0.022357525577653137 0 -0.00060280696727884611 -0.022076177736197321 0 -0.00096945108756390412 -0.022284712201316847 0 -0.00067582697865291742 -0.022357525577653137 0 -0.00067582697865291742 -0.022357525577653137 0 -0.00060236040184046653 -0.022534135442888917 0 -0.00094370422174754238 -0.022572910525577434 0 -0.0003301870801866586 -0.022283474823959162 0 -0.00067582697865291742 -0.022357525577653137 0 -0.00060236040184046653 -0.022534135442888917 0 -0.00060236040184046653 -0.022534135442888917 0 -0.00094370422174754238 -0.022572910525577434 0 -0.0007643265339563743 -0.022786182721231639 0 -0.00096945108756390412 -0.022284712201316847 0 -0.00067582697865291742 -0.022357525577653137 0 -0.00094370422174754238 -0.022572910525577434 0 -0.001175589577268374 -0.022457997243120826 0 -0.00096945108756390412 -0.022284712201316847 0 -0.00094370422174754238 -0.022572910525577434 0 -0.0012083983322486436 -0.022653134394383115 0 -0.001175589577268374 -0.022457997243120826 0 -0.00094370422174754238 -0.022572910525577434 0 -0.0012083983322486436 -0.022653134394383115 0 -0.00094370422174754238 -0.022572910525577434 0 -0.0010472553360321658 -0.022759487903999696 0 -0.0019421555447193413 -0.026018104818531444 0 -0.00040030506780538928 -0.022138371410959461 0 -0.0012083983322486436 -0.022653134394383115 0 -0.0010472553360321658 -0.022759487903999696 0 -0.0011742489900683872 -0.022874308697672759 0 -0.0015448764004573753 -0.023560085522355997 0 -0.0007643265339563743 -0.022786182721231639 0 -0.00067937660936702102 -0.023211695333830457 0 -0.0010472553360321658 -0.022759487903999696 0 -0.0011742489900683872 -0.022874308697672759 0 -0.0007643265339563743 -0.022786182721231639 0 -0.0014214297491703554 -0.023637024287543752 0 -0.0011742489900683872 -0.022874308697672759 0 -0.0007643265339563743 -0.022786182721231639 0 -0.00094370422174754238 -0.022572910525577434 0 -0.0010472553360321658 -0.022759487903999696 0 -0.0007643265339563743 -0.022786182721231639 0 -0.0003072668488136705 -0.022662221972939933 0 -0.00060236040184046653 -0.022534135442888917 0 -0.0007643265339563743 -0.022786182721231639 0 -0.0003072668488136705 -0.022662221972939933 0 -0.0007643265339563743 -0.022786182721231639 0 -0.00067937660936702102 -0.023211695333830457 0 -0.0025597711048429535 -0.023564029008707056 0 -0.0014214297491703554 -0.023637024287543752 0 -0.0015332861677501595 -0.022981755189392064 0 -0.0014214297491703554 -0.023637024287543752 0 -0.0011742489900683872 -0.022874308697672759 0 -0.0015332861677501595 -0.022981755189392064 0 -0.0012083983322486436 -0.022653134394383115 0 -0.0014151371387281233 -0.022540823724174274 0 -0.001466486893966333 -0.022862098409879128 0 -0.0012083983322486436 -0.022653134394383115 0 -0.0011742489900683872 -0.022874308697672759 0 -0.001466486893966333 -0.022862098409879128 0 -0.0012306613283882039 -0.023389110488316968 0 -0.0016862379795962068 -0.023848456326578279 0 -0.002225226320734592 -0.022344524895868165 0 -0.0024573222986289693 -0.022016003804558527 0 -0.0026478122807456201 -0.022665356321255051 0 -0.001466486893966333 -0.022862098409879128 0 -0.0021653996715254855 -0.0227315563874784 0 -0.0017949183638700415 -0.022527590590385636 0 -0.0025597711048429535 -0.023564029008707056 0 -0.0015332861677501595 -0.022981755189392064 0 -0.0026041134561040082 -0.023277384186558579 0 -0.0016862379795962068 -0.023848456326578279 0 -0.0021438203027424343 -0.02402548747174937 0 -0.0020180598882840054 -0.025176491493491149 0 -0.0021213083281647798 -0.025278484901733213 0 -0.0021198535657298554 -0.025282416829480056 0 -0.0016862379795962068 -0.023848456326578279 0 -0.0024131004153090129 -0.023951052069113611 0 -0.0033514320346333241 -0.02785723486444933 0 -0.0023644498741096057 -0.027919648872349885 0 -0.0024131004153090129 -0.023951052069113611 0 -0.0023644498741096057 -0.027919648872349885 0 -0.0021438203027424343 -0.02402548747174937 0 -0.002323207327087632 -0.024019526098016376 0 -0.0021653996715254855 -0.0227315563874784 0 -0.002225226320734592 -0.022344524895868165 0 -0.0026478122807456201 -0.022665356321255051 0 -0.0025597711048429535 -0.023564029008707056 0 -0.0026041134561040082 -0.023277384186558579 0 -0.0035275486729469071 -0.02355547949840801 0 -0.0021213083281647798 -0.025278484901733213 0 -0.0021198535657298554 -0.025282416829480056 0 -0.0020811387028772869 -0.025341082094324903 0 -0.0021653996715254855 -0.0227315563874784 0 -0.002225226320734592 -0.022344524895868165 0 -0.0017949183638700415 -0.022527590590385636 0 -0.002225226320734592 -0.022344524895868165 0 -0.0017949183638700415 -0.022527590590385636 0 -0.0018727136731240411 -0.022206047175944724 0 -0.0017033204849485862 -0.021819997187862081 0 -0.0018727136731240411 -0.022206047175944724 0 -0.0020983301023518044 -0.02199088726379627 0 -0.002225226320734592 -0.022344524895868165 0 -0.0018727136731240411 -0.022206047175944724 0 -0.0020983301023518044 -0.02199088726379627 0 -0.0017033204849485862 -0.021819997187862081 0 -0.0020983301023518044 -0.02199088726379627 0 -0.0020707734074079569 -0.021636280629466435 0 -0.0017311388925284916 -0.021434528875440978 0 -0.0020707734074079569 -0.021636280629466435 0 -0.0022557062847706664 -0.021324885126899562 0 -0.0020707734074079569 -0.021636280629466435 0 -0.001327108931465551 -0.022215530949016769 0 -0.0012385207919670261 -0.021966817924958484 0 -0.0020526349717318467 -0.021697677939613545 0 -0.0018865846279295393 -0.022013757458475634 0 -0.0020707734074079569 -0.021636280629466435 0 -0.001327108931465551 -0.022215530949016769 0 -0.0015322978635456475 -0.022340815847809913 0 -0.0020983301023518044 -0.02199088726379627 0 -0.0020707734074079569 -0.021636280629466435 0 -0.0024573222986289693 -0.022016003804558527 0 -0.002225226320734592 -0.022344524895868165 0 -0.0020983301023518044 -0.02199088726379627 0 -0.0024573222986289693 -0.022016003804558527 0 -0.0018865846279295393 -0.022013757458475634 0 -0.0016397334194303095 -0.021845823688066101 0 -0.001327108931465551 -0.022215530949016769 0 -0.0012385207919670261 -0.021966817924958484 0 -0.00091582710534689074 -0.022413889183766335 0 -0.0012385207919670261 -0.021966817924958484 0 -0.00091582710534689074 -0.022413889183766335 0 -0.00058426752041359055 -0.022198864598510268 0 -0.00091582710534689074 -0.022413889183766335 0 -0.00070425118645482286 -0.022933334682203467 0 -0.0010988084769022381 -0.022675533350284938 0 -0.001327108931465551 -0.022215530949016769 0 -0.00091582710534689074 -0.022413889183766335 0 -0.0010988084769022381 -0.022675533350284938 0 -9.4458494406415055e-05 -0.022879494488866819 0 -0.00051046718078904803 -0.022640240430778891 0 -0.00023134446993287403 -0.022422148928946953 0 -9.4458494406415055e-05 -0.022879494488866819 0 -0.00051046718078904803 -0.022640240430778891 0 -0.00042318313278946447 -0.023112687441069747 0 -0.00091582710534689074 -0.022413889183766335 0 -0.00051046718078904803 -0.022640240430778891 0 -0.00070425118645482286 -0.022933334682203467 0 -0.00051046718078904803 -0.022640240430778891 0 -0.00070425118645482286 -0.022933334682203467 0 -0.00042318313278946447 -0.023112687441069747 0 -0.00091582710534689074 -0.022413889183766335 0 -0.00051046718078904803 -0.022640240430778891 0 -0.00058426752041359055 -0.022198864598510268 0 -0.00051046718078904803 -0.022640240430778891 0 -0.00023134446993287403 -0.022422148928946953 0 -0.00058426752041359055 -0.022198864598510268 0 -0.0002606149291260131 -0.022053062721892513 0 -0.00023134446993287403 -0.022422148928946953 0 -0.00058426752041359055 -0.022198864598510268 0 -0.0002606149291260131 -0.022053062721892513 0 -0.00058426752041359055 -0.022198864598510268 0 -0.00041042398198491188 -0.021751762941296635 0 -0.0012385207919670261 -0.021966817924958484 0 -0.00058426752041359055 -0.022198864598510268 0 -0.00041042398198491188 -0.021751762941296635 0 -0.0024573222986289693 -0.022016003804558527 0 -0.0028845346372767763 -0.022372669675853475 0 -0.0026478122807456201 -0.022665356321255051 0 -0.0021213083281647798 -0.025278484901733213 0 -0.0020747629009838552 -0.02537145848546641 0 -0.0020811387028772869 -0.025341082094324903 0 -0.0023644498741096057 -0.027919648872349885 0 -0.0017365526478941213 -0.031737880916989022 0 -0.0018917015965787777 -0.025404819901564308 0 -0.0020747629009838552 -0.02537145848546641 0 -0.0020811387028772869 -0.025341082094324903 0 -0.0025686578405216217 -0.02400920237112179 0 -0.002323207327087632 -0.024019526098016376 0 -0.0030138937202630403 -0.02262983559163859 0 -0.0028845346372767763 -0.022372669675853475 0 -0.0026478122807456201 -0.022665356321255051 0 -0.0018839037143523999 -0.025442737991026285 0 -0.0018917015965787777 -0.025404819901564308 0 -0.0020747629009838552 -0.02537145848546641 0 -0.0016843540329229449 -0.028680736196804973 0 -0.0023644498741096057 -0.027919648872349885 0 -0.0015453469488252544 -0.031587655109063251 0 -0.0016749107152485808 -0.031486139643662446 0 -0.0015802387422758357 -0.031539440964580612 0 -0.00023374829521127783 -0.024734921305803313 0 -0.00066759259215723151 -0.024645360817100597 0 -0.00027661429947042589 -0.024197099593672108 0 5.2014690898342057e-05 -0.02197585788240539 0 -0.0015238354725225847 -0.017623436583228239 0 0.00023981962631898355 -0.014292403700134119 0 -0.00024007415899614102 -0.014227924390327083 0 4.0070192626118189e-05 -0.014474346123309698 0 -0.0015238354725225847 -0.017623436583228239 0 -0.00045135904395660206 -0.014118356262848245 0 -0.0015238354725225847 -0.017623436583228239 0 -0.0029809495718424576 -0.021557013885048357 0 -0.00037508041136869743 -0.014145635270550346 0 -0.0009370705764329345 -0.014212826118645472 0 -0.00071709291165876303 -0.014356028700185002 0 -0.0056121869222287993 -0.017068530794729083 0 -0.0047015931650969582 -0.018174730326102378 0 -0.0042306033878628602 -0.017397534542283859 0 -0.0015238354725225847 -0.017623436583228239 0 -0.0029115309476421616 -0.015592754265638459 0 -0.00066759259215723151 -0.024645360817100597 0 -0.0011999401563860647 -0.024160578504897338 0 -0.00071689300338089173 -0.023940812989443727 0 -0.00066759259215723151 -0.024645360817100597 0 -0.00027661429947042589 -0.024197099593672108 0 -0.00071689300338089173 -0.023940812989443727 0 -0.0001140540736075067 -0.024062804961962628 0 -0.00027661429947042589 -0.024197099593672108 0 -0.00045538547741721307 -0.023578140264898576 0 -0.00027661429947042589 -0.024197099593672108 0 -0.00045538547741721307 -0.023578140264898576 0 -0.00071689300338089173 -0.023940812989443727 0 -0.00045538547741721307 -0.023578140264898576 0 -0.00070425118645482286 -0.022933334682203467 0 -0.00091474037310015324 -0.023296200561407032 0 -0.00045538547741721307 -0.023578140264898576 0 -0.00070425118645482286 -0.022933334682203467 0 -0.00042318313278946447 -0.023112687441069747 0 -9.4426105921000154e-05 -0.02364076166111535 0 -0.00045538547741721307 -0.023578140264898576 0 -0.00042318313278946447 -0.023112687441069747 0 -9.4426105921000154e-05 -0.02364076166111535 0 -9.4458494406415055e-05 -0.022879494488866819 0 -0.00042318313278946447 -0.023112687441069747 0 -0.00070425118645482286 -0.022933334682203467 0 -0.0010988084769022381 -0.022675533350284938 0 -0.00091474037310015324 -0.023296200561407032 0 -0.0010988084769022381 -0.022675533350284938 0 -0.00091474037310015324 -0.023296200561407032 0 -0.001286415752725974 -0.022995223941782994 0 -0.00091474037310015324 -0.023296200561407032 0 -0.0011693477624434715 -0.023511526507026266 0 -0.001286415752725974 -0.022995223941782994 0 -0.00045538547741721307 -0.023578140264898576 0 -0.00091474037310015324 -0.023296200561407032 0 -0.00071689300338089173 -0.023940812989443727 0 -0.00091474037310015324 -0.023296200561407032 0 -0.00071689300338089173 -0.023940812989443727 0 -0.0011693477624434715 -0.023511526507026266 0 -0.0011999401563860647 -0.024160578504897338 0 -0.00071689300338089173 -0.023940812989443727 0 -0.0011693477624434715 -0.023511526507026266 0 -0.0011999401563860647 -0.024160578504897338 0 -0.0011693477624434715 -0.023511526507026266 0 -0.0018812387701529184 -0.023228962916517451 0 -0.0029809495718424576 -0.021557013885048357 0 -0.0027335178518633663 -0.021284456336090229 0 -0.0011693477624434715 -0.023511526507026266 0 -0.0018812387701529184 -0.023228962916517451 0 -0.001286415752725974 -0.022995223941782994 0 -0.0018812387701529184 -0.023228962916517451 0 -0.0015322978635456475 -0.022340815847809913 0 -0.0019248848210119758 -0.022021157532221051 0 -0.0018812387701529184 -0.023228962916517451 0 -0.001286415752725974 -0.022995223941782994 0 -0.0015322978635456475 -0.022340815847809913 0 -0.0010988084769022381 -0.022675533350284938 0 -0.001286415752725974 -0.022995223941782994 0 -0.0015322978635456475 -0.022340815847809913 0 -0.001327108931465551 -0.022215530949016769 0 -0.0010988084769022381 -0.022675533350284938 0 -0.0015322978635456475 -0.022340815847809913 0 -0.0018812387701529184 -0.023228962916517451 0 -0.0022557062847706664 -0.021324885126899562 0 -0.0019248848210119758 -0.022021157532221051 0 -0.0020707734074079569 -0.021636280629466435 0 -0.0015322978635456475 -0.022340815847809913 0 -0.0019248848210119758 -0.022021157532221051 0 -0.0027335178518633663 -0.021284456336090229 0 -0.0022802105439801842 -0.021447732459139678 0 -0.0020707734074079569 -0.021636280629466435 0 -0.0022557062847706664 -0.021324885126899562 0 -0.0019248848210119758 -0.022021157532221051 0 -0.0036863349799773197 -0.019456717929145668 0 -0.0022557062847706664 -0.021324885126899562 0 -0.001793193040910348 -0.019355016249712309 0 -0.0036863349799773197 -0.019456717929145668 0 -0.0026556872807539235 -0.017699897157669467 0 -0.001793193040910348 -0.019355016249712309 0 -0.0047015931650969582 -0.018174730326102378 0 -0.0026556872807539235 -0.017699897157669467 0 -0.0042306033878628602 -0.017397534542283859 0 -0.0047015931650969582 -0.018174730326102378 0 -0.0036863349799773197 -0.019456717929145668 0 -0.0026556872807539235 -0.017699897157669467 0 -0.0012264908321109268 -0.014667001974560065 0 -0.0009370705764329345 -0.014212826118645472 0 -0.00098288319939415737 -0.014289376681265745 0 -0.0009370705764329345 -0.014212826118645472 0 -0.00098288319939415737 -0.014289376681265745 0 -0.00071709291165876303 -0.014356028700185002 0 -0.00182612294617218 -0.016245499164979537 0 -0.0029115309476421616 -0.015592754265638459 0 -0.0012264908321109268 -0.014667001974560065 0 -0.00098288319939415737 -0.014289376681265745 0 -0.001029081444944035 -0.014200831362023679 0 -0.0012264908321109268 -0.014667001974560065 0 -0.00095912873860563082 -0.014272464040811908 0 -0.00092363332566223295 -0.015716694059974216 0 -0.0012264908321109268 -0.014667001974560065 0 -0.00095912873860563082 -0.014272464040811908 0 -0.001029081444944035 -0.014200831362023679 0 -0.00095912873860563082 -0.014272464040811908 0 -0.00092363332566223295 -0.015716694059974216 0 4.8471893734472057e-06 -0.014186951638742789 0 -0.00084515901416381872 -0.016859213198107882 0 0.0008031691998795096 -0.017532730154540332 0 -0.00182612294617218 -0.016245499164979537 0 -0.00084515901416381872 -0.016859213198107882 0 -0.0026556872807539235 -0.017699897157669467 0 -0.0010201752360969422 -0.017951515620951757 0 -0.001793193040910348 -0.019355016249712309 0 -0.0010201752360969422 -0.017951515620951757 0 -0.001793193040910348 -0.019355016249712309 0 -0.00094067565695524344 -0.019341987246907347 0 -0.001793193040910348 -0.019355016249712309 0 -0.0014616950757257959 -0.020575925538006926 0 -0.00094067565695524344 -0.019341987246907347 0 -0.0022557062847706664 -0.021324885126899562 0 -0.001793193040910348 -0.019355016249712309 0 -0.0014616950757257959 -0.020575925538006926 0 -0.001097343296243557 -0.021130745778025522 0 -0.0017311388925284916 -0.021434528875440978 0 -0.0014616950757257959 -0.020575925538006926 0 -0.0017311388925284916 -0.021434528875440978 0 -0.0022557062847706664 -0.021324885126899562 0 -0.0014616950757257959 -0.020575925538006926 0 -0.001097343296243557 -0.021130745778025522 0 -0.00038738664678234056 -0.021065229635049771 0 -0.00063394206992063934 -0.020292964522560551 0 -0.00038738664678234056 -0.021065229635049771 0 -0.00063394206992063934 -0.020292964522560551 0 0.00017756525447099218 -0.020043603978391607 0 -0.001097343296243557 -0.021130745778025522 0 -0.0014616950757257959 -0.020575925538006926 0 -0.00063394206992063934 -0.020292964522560551 0 -0.0014616950757257959 -0.020575925538006926 0 -0.00063394206992063934 -0.020292964522560551 0 -0.00094067565695524344 -0.019341987246907347 0 -0.0010201752360969422 -0.017951515620951757 0 -0.00094067565695524344 -0.019341987246907347 0 -1.4789656364080925e-05 -0.018988275844186615 0 -0.0010201752360969422 -0.017951515620951757 0 -1.4789656364080925e-05 -0.018988275844186615 0 0.00079827246310968725 -0.017596561149062277 0 -0.00063394206992063934 -0.020292964522560551 0 -0.00094067565695524344 -0.019341987246907347 0 -1.4789656364080925e-05 -0.018988275844186615 0 0.0010264677521132273 -0.017827575136221473 0 -1.4789656364080925e-05 -0.018988275844186615 0 0.00017756525447099218 -0.020043603978391607 0 0.0010264677521132273 -0.017827575136221473 0 -1.4789656364080925e-05 -0.018988275844186615 0 0.00079827246310968725 -0.017596561149062277 0 -0.00038738664678234056 -0.021065229635049771 0 0.00017756525447099218 -0.020043603978391607 0 0.00098577894754823983 -0.020568030434175728 0 -0.00063394206992063934 -0.020292964522560551 0 -1.4789656364080925e-05 -0.018988275844186615 0 0.00017756525447099218 -0.020043603978391607 0 0.0010264677521132273 -0.017827575136221473 0 0.00017756525447099218 -0.020043603978391607 0 0.00098577894754823983 -0.020568030434175728 0 -0.00031127099263715237 -0.014710443312634772 0 0.00011924898745381059 -0.014713633309339186 0 0.00035101619553711043 -0.015460121614074882 0 0.00031606037890556871 -0.016264611919069881 0 0.00024050978160227731 -0.018485257994865407 0 -0.00031127099263715237 -0.014710443312634772 0 -0.00053137897708046276 -0.016451121621269115 0 0.00035101619553711043 -0.015460121614074882 0 0.0004492943852424569 -0.014727162540238845 0 0.00011924898745381059 -0.014713633309339186 0 0.00035101619553711043 -0.015460121614074882 0 0.0004492943852424569 -0.014727162540238845 0 0.00036193743859440309 -0.014445673936117049 0 0.00011924898745381059 -0.014713633309339186 0 0.00036193743859440309 -0.014445673936117049 0 0.00051133525778014578 -0.014124100462729819 0 0.00069011023148311823 -0.014375596810166846 0 0.00036193743859440309 -0.014445673936117049 0 7.0321585507599754e-05 -0.014404905603969615 0 0.00051133525778014578 -0.014124100462729819 0 -0.00031127099263715237 -0.014710443312634772 0 7.0321585507599754e-05 -0.014404905603969615 0 0.00011924898745381059 -0.014713633309339186 0 0.00036193743859440309 -0.014445673936117049 0 7.0321585507599754e-05 -0.014404905603969615 0 0.00011924898745381059 -0.014713633309339186 0 -0.00031127099263715237 -0.014710443312634772 0 7.0321585507599754e-05 -0.014404905603969615 0 4.8471893734472057e-06 -0.014186951638742789 0 0.0010264677521132273 -0.017827575136221473 0 0.00079827246310968725 -0.017596561149062277 0 4.8471893734472057e-06 -0.014186951638742789 0 0.00031606037890556871 -0.016264611919069881 0 4.2588341054364644e-06 -0.014314985236646515 0 -0.00092363332566223295 -0.015716694059974216 0 0.00079827246310968725 -0.017596561149062277 0 4.8471893734472057e-06 -0.014186951638742789 0 4.8471893734472057e-06 -0.014186951638742789 0 0.00020318693675010872 -0.014121940350508233 0 0.00034986022568781312 -0.013788425512359651 0 7.0321585507599754e-05 -0.014404905603969615 0 4.8471893734472057e-06 -0.014186951638742789 0 0.00020318693675010872 -0.014121940350508233 0 0.00051133525778014578 -0.014124100462729819 0 0.00034986022568781312 -0.013788425512359651 0 0.000925596510590088 -0.013762016827600837 0 7.0321585507599754e-05 -0.014404905603969615 0 0.00051133525778014578 -0.014124100462729819 0 0.00020318693675010872 -0.014121940350508233 0 0.00051133525778014578 -0.014124100462729819 0 0.00020318693675010872 -0.014121940350508233 0 0.00034986022568781312 -0.013788425512359651 0 0.00051865031851998941 -0.013065919053115521 0 0.0011657416079533349 -0.013483412805780349 0 0.00034986022568781312 -0.013788425512359651 0 0.00043511594566433701 -0.013015273278673552 0 0.00087603401081702223 -0.013442799668517325 0 0.00034986022568781312 -0.013788425512359651 0 -1.2422910856639263e-05 -0.013549329320168918 0 0.00043511594566433701 -0.013015273278673552 0 4.8471893734472057e-06 -0.014186951638742789 0 0.00034986022568781312 -0.013788425512359651 0 -1.2422910856639263e-05 -0.013549329320168918 0 -1.2422910856639263e-05 -0.013549329320168918 0 -0.00029543774545122637 -0.012957957489497195 0 0.00043511594566433701 -0.013015273278673552 0 -0.00029543774545122637 -0.012957957489497195 0 0.00043511594566433701 -0.013015273278673552 0 -0.00010622040142153086 -0.011724900147155137 0 0.00043511594566433701 -0.013015273278673552 0 0.00048115157649831049 -0.011286875474203442 0 -0.00010622040142153086 -0.011724900147155137 0 0.00048115157649831049 -0.011286875474203442 0 1.9193152067626246e-05 -0.010366192952833328 0 -0.00010622040142153086 -0.011724900147155137 0 0.00043511594566433701 -0.013015273278673552 0 0.00048115157649831049 -0.011286875474203442 0 0.0020528402473698869 -0.012012322750691386 0 0.00048115157649831049 -0.011286875474203442 0 1.9193152067626246e-05 -0.010366192952833328 0 0.00021872089441191873 -0.0089743010830964469 0 1.9193152067626246e-05 -0.010366192952833328 0 2.2681820879292863e-06 -0.0090664782033848309 0 0.00021872089441191873 -0.0089743010830964469 0 1.9193152067626246e-05 -0.010366192952833328 0 -0.00010622040142153086 -0.011724900147155137 0 -1.2003784427541919e-06 -0.01113933379094125 0 1.9193152067626246e-05 -0.010366192952833328 0 2.2681820879292863e-06 -0.0090664782033848309 0 -1.2003784427541919e-06 -0.01113933379094125 0 -0.00010622040142153086 -0.011724900147155137 0 -1.2003784427541919e-06 -0.01113933379094125 0 -0.00067378693776304615 -0.013099101485001478 0 -0.00029543774545122637 -0.012957957489497195 0 -0.00010622040142153086 -0.011724900147155137 0 -0.00067378693776304615 -0.013099101485001478 0 -1.2003784427541919e-06 -0.01113933379094125 0 -0.00067378693776304615 -0.013099101485001478 0 -8.8256427974986794e-07 -0.013210535724063232 0 -0.00067378693776304615 -0.013099101485001478 0 -0.00090114610204506643 -0.013871715056695211 0 -0.00089832964987358454 -0.014141754847235458 0 -0.00067378693776304615 -0.013099101485001478 0 -0.00090114610204506643 -0.013871715056695211 0 -0.00062448874038733833 -0.013656813456798422 0 -1.2422910856639263e-05 -0.013549329320168918 0 -0.00029543774545122637 -0.012957957489497195 0 -0.00062448874038733833 -0.013656813456798422 0 -0.00029543774545122637 -0.012957957489497195 0 -0.00067378693776304615 -0.013099101485001478 0 -0.00062448874038733833 -0.013656813456798422 0 4.8471893734472057e-06 -0.014186951638742789 0 -1.2422910856639263e-05 -0.013549329320168918 0 -0.00062448874038733833 -0.013656813456798422 0 -0.00095912873860563082 -0.014272464040811908 0 4.8471893734472057e-06 -0.014186951638742789 0 -0.00062448874038733833 -0.013656813456798422 0 -0.00095912873860563082 -0.014272464040811908 0 -0.00090114610204506643 -0.013871715056695211 0 -0.00062448874038733833 -0.013656813456798422 0 -0.00095912873860563082 -0.014272464040811908 0 -0.00090114610204506643 -0.013871715056695211 0 -0.001029081444944035 -0.014200831362023679 0 -0.001029081444944035 -0.014200831362023679 0 -0.00089401040733516136 -0.014339843956560775 0 -0.00089832964987358454 -0.014141754847235458 0 -0.00098288319939415737 -0.014289376681265745 0 -0.001029081444944035 -0.014200831362023679 0 -0.00089401040733516136 -0.014339843956560775 0 -0.00089401040733516136 -0.014339843956560775 0 -0.00064370979931038244 -0.014624580850422631 0 -0.00071709291165876303 -0.014356028700185002 0 -0.00098288319939415737 -0.014289376681265745 0 -0.00089401040733516136 -0.014339843956560775 0 -0.00071709291165876303 -0.014356028700185002 0 -0.00089401040733516136 -0.014339843956560775 0 -0.00089832964987358454 -0.014141754847235458 0 -0.00064370979931038244 -0.014624580850422631 0 -0.00089832964987358454 -0.014141754847235458 0 -0.00058449827455964545 -0.01474280114315699 0 -0.00064370979931038244 -0.014624580850422631 0 -0.00090114610204506643 -0.013871715056695211 0 -0.001029081444944035 -0.014200831362023679 0 -0.00089832964987358454 -0.014141754847235458 0 -0.00089832964987358454 -0.014141754847235458 0 -0.00076572326475919748 -0.014603943285592022 0 -0.00058449827455964545 -0.01474280114315699 0 -0.00067378693776304615 -0.013099101485001478 0 -0.00089832964987358454 -0.014141754847235458 0 -0.00076572326475919748 -0.014603943285592022 0 -0.00060854666978968667 -0.013286766064331148 0 -0.00042992460796827505 -0.013999116944126864 0 -4.1882149854801504e-05 -0.013393028165198549 0 -8.8256427974986794e-07 -0.013210535724063232 0 7.4013131772121585e-07 -0.015281844964661553 0 -0.00067378693776304615 -0.013099101485001478 0 -4.1882149854801504e-05 -0.013393028165198549 0 -8.8256427974986794e-07 -0.013210535724063232 0 -0.00076572326475919748 -0.014603943285592022 0 -1.1662328996002649e-06 -0.015285069897930543 0 -0.00058449827455964545 -0.01474280114315699 0 -1.1662328996002649e-06 -0.015285069897930543 0 -0.00058449827455964545 -0.01474280114315699 0 -0.00036986962441129615 -0.015303229328723531 0 -0.00042992460796827505 -0.013999116944126864 0 -2.5751395304680807e-07 -0.015282683306131008 0 -0.00058449827455964545 -0.01474280114315699 0 -0.00036986962441129615 -0.015303229328723531 0 -0.00064370979931038244 -0.014624580850422631 0 -1.1662328996002649e-06 -0.015285069897930543 0 -0.00036986962441129615 -0.015303229328723531 0 -1.0364126406862039e-06 -0.01688144060624687 0 -0.00036986962441129615 -0.015303229328723531 0 -1.0364126406862039e-06 -0.01688144060624687 0 -1.8891120758390716e-05 -0.015722621964054648 0 0.00048951531254071341 -0.01621042925123202 0 -1.0364126406862039e-06 -0.01688144060624687 0 -1.8891120758390716e-05 -0.015722621964054648 0 -0.00036986962441129615 -0.015303229328723531 0 -1.8891120758390716e-05 -0.015722621964054648 0 -0.00024044898794965363 -0.015034372036108143 0 -1.8891120758390716e-05 -0.015722621964054648 0 0.00011068947052118629 -0.01535098671044776 0 -0.00024044898794965363 -0.015034372036108143 0 0.00011068947052118629 -0.01535098671044776 0 -1.0899257126594493e-05 -0.014862998538952848 0 -0.00024044898794965363 -0.015034372036108143 0 0.00047594374440533137 -0.014935158741990808 0 0.00011068947052118629 -0.01535098671044776 0 -1.0899257126594493e-05 -0.014862998538952848 0 -1.0899257126594493e-05 -0.014862998538952848 0 -0.00024044898794965363 -0.015034372036108143 0 -0.00036299338867901848 -0.014574959850856283 0 -0.00036986962441129615 -0.015303229328723531 0 -0.00024044898794965363 -0.015034372036108143 0 -0.00064370979931038244 -0.014624580850422631 0 -0.00024044898794965363 -0.015034372036108143 0 -0.00064370979931038244 -0.014624580850422631 0 -0.00036299338867901848 -0.014574959850856283 0 -0.00037508041136869743 -0.014145635270550346 0 -0.00036299338867901848 -0.014574959850856283 0 -0.00071709291165876303 -0.014356028700185002 0 -0.00064370979931038244 -0.014624580850422631 0 -0.00036299338867901848 -0.014574959850856283 0 -0.00071709291165876303 -0.014356028700185002 0 -0.00037508041136869743 -0.014145635270550346 0 -0.00036299338867901848 -0.014574959850856283 0 4.0070192626118189e-05 -0.014474346123309698 0 0.00047594374440533137 -0.014935158741990808 0 -1.0899257126594493e-05 -0.014862998538952848 0 4.0070192626118189e-05 -0.014474346123309698 0 -1.0899257126594493e-05 -0.014862998538952848 0 -0.00036299338867901848 -0.014574959850856283 0 4.0070192626118189e-05 -0.014474346123309698 0 0.00044510455949178747 -0.0035967486359161161 0 3.9393579840856137e-05 -0.0035079432986002677 0 0.0001026590857707551 -0.0028225137408911332 0 0.00044510455949178747 -0.0035967486359161161 0 0.0001026590857707551 -0.0028225137408911332 0 0.0007090144551046045 -0.0028915323348729428 0 0.0007090144551046045 -0.0028915323348729428 0 0.0011192637640198052 -0.0032588737470584531 0 0.0012138202356454597 -0.0027129576903024508 0 0.0007090144551046045 -0.0028915323348729428 0 0.0011192637640198052 -0.0032588737470584531 0 0.00093574861226252857 -0.00370261177953368 0 0.0011192637640198052 -0.0032588737470584531 0 0.00093574861226252857 -0.00370261177953368 0 0.0016483969184010185 -0.0037539920517625836 0 0.00044510455949178747 -0.0035967486359161161 0 0.0007090144551046045 -0.0028915323348729428 0 0.00093574861226252857 -0.00370261177953368 0 0.00044510455949178747 -0.0035967486359161161 0 0.00093574861226252857 -0.00370261177953368 0 0.00064444755354473601 -0.0045383043165228955 0 0.00093574861226252857 -0.00370261177953368 0 0.00064444755354473601 -0.0045383043165228955 0 0.0016483969184010185 -0.0037539920517625836 0 0.00064444755354473601 -0.0045383043165228955 0 0.00023365824428992645 -0.0041447087499907487 0 0.0001023839442849531 -0.0047671215218096164 0 0.00044510455949178747 -0.0035967486359161161 0 0.00064444755354473601 -0.0045383043165228955 0 0.00023365824428992645 -0.0041447087499907487 0 0.00044510455949178747 -0.0035967486359161161 0 3.9393579840856137e-05 -0.0035079432986002677 0 0.00023365824428992645 -0.0041447087499907487 0 3.9393579840856137e-05 -0.0035079432986002677 0 0.00023365824428992645 -0.0041447087499907487 0 -0.00016645080635714092 -0.0040489641660341495 0 0.00023365824428992645 -0.0041447087499907487 0 -0.00016645080635714092 -0.0040489641660341495 0 0.0001023839442849531 -0.0047671215218096164 0 -0.00034956627259111141 -0.0043947946601867027 0 -0.00016645080635714092 -0.0040489641660341495 0 0.0001023839442849531 -0.0047671215218096164 0 -0.00065091098067200453 -0.0039268287137604043 0 -0.00016645080635714092 -0.0040489641660341495 0 -0.00052044095169847952 -0.0030992213980858365 0 -0.00034956627259111141 -0.0043947946601867027 0 -0.00065091098067200453 -0.0039268287137604043 0 -0.00068196120202591371 -0.0048198924357386692 0 -0.00034956627259111141 -0.0043947946601867027 0 -0.00065091098067200453 -0.0039268287137604043 0 -0.00016645080635714092 -0.0040489641660341495 0 -0.001150501076124112 -0.0035725774547663994 0 -0.00068196120202591371 -0.0048198924357386692 0 -0.0017699251323967265 -0.0036510318627399948 0 -0.00021512213186346269 -0.00016806499349333534 0 -0.00020144353122585651 -0.00027481055094388351 0 -0.00021765618549486783 -0.00036828147672215403 0 -0.0004353489884419424 -0.0024803761181710206 0 -0.00094427112168994013 -0.0019624359019654904 0 -0.00065091098067200453 -0.0039268287137604043 0 -0.001150501076124112 -0.0035725774547663994 0 -0.00068196120202591371 -0.0048198924357386692 0 -0.001150501076124112 -0.0035725774547663994 0 -0.0013755487882662716 -0.0028882249811737807 0 -0.00052044095169847952 -0.0030992213980858365 0 -0.0013755487882662716 -0.0028882249811737807 0 -0.00052044095169847952 -0.0030992213980858365 0 -0.00085726931651943818 -0.001950995546438948 0 -0.001150501076124112 -0.0035725774547663994 0 -0.0013755487882662716 -0.0028882249811737807 0 -0.0017699251323967265 -0.0036510318627399948 0 -0.0012819317904980748 -0.0025995849870066594 0 -0.00094427112168994013 -0.0019624359019654904 0 3.9393579840856137e-05 -0.0035079432986002677 0 -0.00016645080635714092 -0.0040489641660341495 0 -0.00052044095169847952 -0.0030992213980858365 0 -0.00065091098067200453 -0.0039268287137604043 0 -0.001150501076124112 -0.0035725774547663994 0 -0.00052044095169847952 -0.0030992213980858365 0 3.9393579840856137e-05 -0.0035079432986002677 0 0.0001026590857707551 -0.0028225137408911332 0 -0.00052044095169847952 -0.0030992213980858365 0 -0.00052044095169847952 -0.0030992213980858365 0 -0.00027034580493274959 -0.0020188754518254675 0 -0.00085726931651943818 -0.001950995546438948 0 0.0001026590857707551 -0.0028225137408911332 0 -0.00052044095169847952 -0.0030992213980858365 0 -0.00027034580493274959 -0.0020188754518254675 0 -0.0010318187000979866 -0.0020343792753202364 0 -0.00085726931651943818 -0.001950995546438948 0 -0.0012046668143110796 -0.0017634435718866131 0 -0.00085726931651943818 -0.001950995546438948 0 -0.0011560986985338579 -0.0014703814277493459 0 -0.0012046668143110796 -0.0017634435718866131 0 -0.0012819317904980748 -0.0025995849870066594 0 -0.0008725416546600767 -0.0019610410824873145 0 -0.00085726931651943818 -0.001950995546438948 0 -0.00097589308645364831 -0.0012798097137927448 0 -0.00057428322745690398 -0.001207648998784918 0 -0.00085726931651943818 -0.001950995546438948 0 -0.00097589308645364831 -0.0012798097137927448 0 -0.0011560986985338579 -0.0014703814277493459 0 -0.00095699317901003027 -0.00075325272210242857 0 -0.00097589308645364831 -0.0012798097137927448 0 -0.00057428322745690398 -0.001207648998784918 0 -0.00095699317901003027 -0.00075325272210242857 0 -0.00097589308645364831 -0.0012798097137927448 0 -0.0012835233620549823 -0.00070788927544614426 0 -0.00027034580493274959 -0.0020188754518254675 0 -0.00085726931651943818 -0.001950995546438948 0 -0.00057428322745690398 -0.001207648998784918 0 -0.00027034580493274959 -0.0020188754518254675 0 -0.00057428322745690398 -0.001207648998784918 0 -1.2300943497095358e-05 -0.0013907738920897591 0 0.00031319609294203673 -0.0010680316950736747 0 -1.2300943497095358e-05 -0.0013907738920897591 0 0.00072463924112604221 -0.0015731632212767192 0 -1.2300943497095358e-05 -0.0013907738920897591 0 0.00024063468436786358 -0.0020736776933378176 0 0.00072463924112604221 -0.0015731632212767192 0 -0.00027034580493274959 -0.0020188754518254675 0 -1.2300943497095358e-05 -0.0013907738920897591 0 0.00024063468436786358 -0.0020736776933378176 0 0.0001026590857707551 -0.0028225137408911332 0 -0.00027034580493274959 -0.0020188754518254675 0 0.00024063468436786358 -0.0020736776933378176 0 0.0001026590857707551 -0.0028225137408911332 0 0.0007090144551046045 -0.0028915323348729428 0 0.00024063468436786358 -0.0020736776933378176 0 0.0007090144551046045 -0.0028915323348729428 0 0.0012138202356454597 -0.0027129576903024508 0 0.00081221516384212967 -0.0022620734658317324 0 0.0007090144551046045 -0.0028915323348729428 0 0.00024063468436786358 -0.0020736776933378176 0 0.00081221516384212967 -0.0022620734658317324 0 0.0012138202356454597 -0.0027129576903024508 0 0.00081221516384212967 -0.0022620734658317324 0 0.0014522955495000316 -0.0022083361889833372 0 0.00081221516384212967 -0.0022620734658317324 0 0.00072463924112604221 -0.0015731632212767192 0 0.0014522955495000316 -0.0022083361889833372 0 0.00024063468436786358 -0.0020736776933378176 0 0.00081221516384212967 -0.0022620734658317324 0 0.00072463924112604221 -0.0015731632212767192 0 0.0010437962285896208 -0.0010725244409237188 0 0.00072463924112604221 -0.0015731632212767192 0 0.0014522955495000316 -0.0022083361889833372 0 0.0027304814099334625 -0.0094210015592708571 0 0.0027901009805412404 -0.0088451698687944998 0 0.0044153507145691393 -0.017634456999397648 0 0.0029854988819552112 -0.016440834123714079 0 0.0041752232769289837 -0.015485637972845571 0 0.0029854988819552112 -0.016440834123714079 0 0.0022282898128600831 -0.014980466522209421 0 0.001446968215213404 -0.015554427347155167 0 0.0029854988819552112 -0.016440834123714079 0 0.0022282898128600831 -0.014980466522209421 0 0.0029184927142319947 -0.014714040102273004 0 0.0022282898128600831 -0.014980466522209421 0 0.0017371991176762492 -0.014241856016190583 0 0.0024332485819902553 -0.014053002245901643 0 0.0029184927142319947 -0.014714040102273004 0 0.0032665177390100728 -0.012996405260748557 0 0.0024332485819902553 -0.014053002245901643 0 0.0022282898128600831 -0.014980466522209421 0 0.0029184927142319947 -0.014714040102273004 0 0.0024332485819902553 -0.014053002245901643 0 0.0029184927142319947 -0.014714040102273004 0 0.0041752232769289837 -0.015485637972845571 0 0.0032665177390100728 -0.012996405260748557 0 0.0029854988819552112 -0.016440834123714079 0 0.0029184927142319947 -0.014714040102273004 0 0.0041752232769289837 -0.015485637972845571 0 0.0012138202356454597 -0.0027129576903024508 0 0.0014522955495000316 -0.0022083361889833372 0 0.0016483969184010185 -0.0037539920517625836 0 0.001188087428769012 -0.016956956915582782 0 -0.00053137897708046276 -0.016451121621269115 0 0.00035101619553711043 -0.015460121614074882 0 0.001188087428769012 -0.016956956915582782 0 0.001446968215213404 -0.015554427347155167 0 0.00035101619553711043 -0.015460121614074882 0 0.001188087428769012 -0.016956956915582782 0 0.0029854988819552112 -0.016440834123714079 0 0.001446968215213404 -0.015554427347155167 0 0.001446968215213404 -0.015554427347155167 0 0.00091551299355153233 -0.014710687304132197 0 0.0017371991176762492 -0.014241856016190583 0 0.0022282898128600831 -0.014980466522209421 0 0.001446968215213404 -0.015554427347155167 0 0.0017371991176762492 -0.014241856016190583 0 0.001446968215213404 -0.015554427347155167 0 0.00091551299355153233 -0.014710687304132197 0 0.00035101619553711043 -0.015460121614074882 0 0.0004492943852424569 -0.014727162540238845 0 0.00091551299355153233 -0.014710687304132197 0 0.00035101619553711043 -0.015460121614074882 0 0.00051133525778014578 -0.014124100462729819 0 0.00069011023148311823 -0.014375596810166846 0 0.0011093026606882122 -0.01404832758713772 0 0.0004492943852424569 -0.014727162540238845 0 0.00036193743859440309 -0.014445673936117049 0 0.00069011023148311823 -0.014375596810166846 0 0.0004492943852424569 -0.014727162540238845 0 0.00091551299355153233 -0.014710687304132197 0 0.00069011023148311823 -0.014375596810166846 0 0.00091551299355153233 -0.014710687304132197 0 0.00069011023148311823 -0.014375596810166846 0 0.0011093026606882122 -0.01404832758713772 0 0.00091551299355153233 -0.014710687304132197 0 0.0011093026606882122 -0.01404832758713772 0 0.0017371991176762492 -0.014241856016190583 0 0.0011093026606882122 -0.01404832758713772 0 0.0017371991176762492 -0.014241856016190583 0 0.0016224292553901152 -0.01387924603682786 0 0.0017371991176762492 -0.014241856016190583 0 0.0016224292553901152 -0.01387924603682786 0 0.0022423989736367225 -0.013676723388563251 0 0.0017638100776394413 -0.012673008951783901 0 0.00094401206196984846 -0.0099888347065528547 0 0.0024764569917304709 -0.014150649262849788 0 0.003112879530057313 -0.014642219182968244 0 0.0026386089554119693 -0.013560644622570133 0 0.0022055982002522553 -0.014095974806564826 0 0.0017638100776394413 -0.012673008951783901 0 0.0016224292553901152 -0.01387924603682786 0 0.0014213990687781642 -0.013584076045348189 0 0.0022423989736367225 -0.013676723388563251 0 0.0011093026606882122 -0.01404832758713772 0 0.0016224292553901152 -0.01387924603682786 0 0.0014213990687781642 -0.013584076045348189 0 0.0014213990687781642 -0.013584076045348189 0 0.000925596510590088 -0.013762016827600837 0 0.00087603401081702223 -0.013442799668517325 0 0.0011093026606882122 -0.01404832758713772 0 0.0014213990687781642 -0.013584076045348189 0 0.000925596510590088 -0.013762016827600837 0 0.00051133525778014578 -0.014124100462729819 0 0.0011093026606882122 -0.01404832758713772 0 0.000925596510590088 -0.013762016827600837 0 0.0011192637640198052 -0.0032588737470584531 0 0.0012138202356454597 -0.0027129576903024508 0 0.0016483969184010185 -0.0037539920517625836 0 0.0041752232769289837 -0.015485637972845571 0 0.0032591346793462823 -0.010647107724371076 0 0.0032665177390100728 -0.012996405260748557 0 0.0032591346793462823 -0.010647107724371076 0 0.0032665177390100728 -0.012996405260748557 0 -0.00022897413692367005 -0.010209607378876669 0 0.0027901009805412404 -0.0088451698687944998 0 0.0023624801062878272 -0.0072558468165495613 0 0.0032665177390100728 -0.012996405260748557 0 0.0024332485819902553 -0.014053002245901643 0 0.0022423989736367225 -0.013676723388563251 0 0.0028093221016513661 -0.012801916899788742 0 0.0017638100776394413 -0.012673008951783901 0 0.0017371991176762492 -0.014241856016190583 0 0.0024332485819902553 -0.014053002245901643 0 0.0022423989736367225 -0.013676723388563251 0 0.0032591346793462823 -0.010647107724371076 0 -0.00022897413692367005 -0.010209607378876669 0 0.00042421780006874602 -0.0074748980589192694 0 -0.00022897413692367005 -0.010209607378876669 0 0.00042421780006874602 -0.0074748980589192694 0 -0.00071639706103225034 -0.0063636330772626759 0 0.0023624801062878272 -0.0072558468165495613 0 0.0014946063256408145 -0.0058705423616850659 0 0.00064444755354473601 -0.0045383043165228955 0 0.0016483969184010185 -0.0037539920517625836 0 0.0012769467446878597 -0.0057304209388641288 0 0.0032591346793462823 -0.010647107724371076 0 0.0012769467446878597 -0.0057304209388641288 0 0.00042421780006874602 -0.0074748980589192694 0 0.0012769467446878597 -0.0057304209388641288 0 0.00042421780006874602 -0.0074748980589192694 0 0.00013437662137251232 -0.0061762290437285565 0 0.00042421780006874602 -0.0074748980589192694 0 0.00013437662137251232 -0.0061762290437285565 0 -0.00071639706103225034 -0.0063636330772626759 0 0.00013437662137251232 -0.0061762290437285565 0 -0.00071639706103225034 -0.0063636330772626759 0 -9.6408588106477338e-05 -0.0057734964224406939 0 0.0012769467446878597 -0.0057304209388641288 0 0.00013437662137251232 -0.0061762290437285565 0 -9.6408588106477338e-05 -0.0057734964224406939 0 0.0012769467446878597 -0.0057304209388641288 0 0.00039099214941502273 -0.0053525366309243655 0 -9.6408588106477338e-05 -0.0057734964224406939 0 0.0022055982002522553 -0.014095974806564826 0 0.0011657416079533349 -0.013483412805780349 0 0.00034986022568781312 -0.013788425512359651 0 0.000925596510590088 -0.013762016827600837 0 0.00087603401081702223 -0.013442799668517325 0 0.0024764569917304709 -0.014150649262849788 0 0.0015896956615937502 -0.0136728058224604 0 0.0026386089554119693 -0.013560644622570133 0 0.00094401206196984846 -0.0099888347065528547 0 0.00095287874309929411 -0.009137463329235266 0 -0.00071639706103225034 -0.0063636330772626759 0 4.1089701138162258e-05 -0.006169041522316461 0 -9.6408588106477338e-05 -0.0057734964224406939 0 0.00043511594566433701 -0.013015273278673552 0 0.0015896956615937502 -0.0136728058224604 0 0.0020528402473698869 -0.012012322750691386 0 0.0015896956615937502 -0.0136728058224604 0 0.0026386089554119693 -0.013560644622570133 0 0.0020528402473698869 -0.012012322750691386 0 0.00031955209914477791 -0.0088785038525500872 0 0.00095287874309929411 -0.009137463329235266 0 0.00048115157649831049 -0.011286875474203442 0 0.00021872089441191873 -0.0089743010830964469 0 0.0020528402473698869 -0.012012322750691386 0 4.1089701138162258e-05 -0.006169041522316461 0 -0.000119127106202471 -0.006385350840538412 0 -1.0346899403657598e-05 -0.0073141505138520314 0 4.1089701138162258e-05 -0.006169041522316461 0 -0.000119127106202471 -0.006385350840538412 0 -9.6408588106477338e-05 -0.0057734964224406939 0 -0.000119127106202471 -0.006385350840538412 0 -8.3092471627709077e-07 -0.006992767009448197 0 -1.0346899403657598e-05 -0.0073141505138520314 0 0.00021872089441191873 -0.0089743010830964469 0 -8.3092471627709077e-07 -0.006992767009448197 0 -1.0346899403657598e-05 -0.0073141505138520314 0 0.00021872089441191873 -0.0089743010830964469 0 4.1089701138162258e-05 -0.006169041522316461 0 -1.0346899403657598e-05 -0.0073141505138520314 0 2.2681820879292863e-06 -0.0090664782033848309 0 0.00021872089441191873 -0.0089743010830964469 0 -8.3092471627709077e-07 -0.006992767009448197 0 -7.1945415529323504e-05 -0.005425185409300837 0 0.00039099214941502273 -0.0053525366309243655 0 -9.6408588106477338e-05 -0.0057734964224406939 0 -7.1945415529323504e-05 -0.005425185409300837 0 0.00039099214941502273 -0.0053525366309243655 0 5.449870322213589e-05 -0.0044389644989091146 0 -0.000119127106202471 -0.006385350840538412 0 -7.1945415529323504e-05 -0.005425185409300837 0 -9.6408588106477338e-05 -0.0057734964224406939 0 -8.3092471627709077e-07 -0.006992767009448197 0 -7.1945415529323504e-05 -0.005425185409300837 0 -2.8612498002167699e-07 -0.0049215556799146144 0 -0.000119127106202471 -0.006385350840538412 0 -8.3092471627709077e-07 -0.006992767009448197 0 -7.1945415529323504e-05 -0.005425185409300837 0 -7.1945415529323504e-05 -0.005425185409300837 0 -2.8612498002167699e-07 -0.0049215556799146144 0 5.449870322213589e-05 -0.0044389644989091146 0 -2.8612498002167699e-07 -0.0049215556799146144 0 5.449870322213589e-05 -0.0044389644989091146 0 1.3489098913621977e-06 -0.0028489597634766932 0 5.449870322213589e-05 -0.0044389644989091146 0 0.00020508745202099465 -0.0032313351447058906 0 0.00023021290459759801 -0.0048621608006821724 0 5.449870322213589e-05 -0.0044389644989091146 0 1.3489098913621977e-06 -0.0028489597634766932 0 0.00020508745202099465 -0.0032313351447058906 0 1.3489098913621977e-06 -0.0028489597634766932 0 0.00020508745202099465 -0.0032313351447058906 0 -2.9316605387202779e-05 -0.0016747047686789195 0 0.00020508745202099465 -0.0032313351447058906 0 0.00013682953972636325 -0.00048316721835275006 0 -2.9316605387202779e-05 -0.0016747047686789195 0 0.00018780047974494715 -0.0030918558332900343 0 0.00021464228104144264 -0.0028485698236749069 0 0.00020508745202099465 -0.0032313351447058906 0 0.00023021290459759801 -0.0048621608006821724 0 0.0004878468231253963 -0.00526808464161551 0 0.00039099214941502273 -0.0053525366309243655 0 5.449870322213589e-05 -0.0044389644989091146 0 0.00023021290459759801 -0.0048621608006821724 0 0.00039099214941502273 -0.0053525366309243655 0 0.00023021290459759801 -0.0048621608006821724 0 0.00048411705515314746 -0.0053124632952321971 0 0.0012769467446878597 -0.0057304209388641288 0 0.00039099214941502273 -0.0053525366309243655 0 0.00048411705515314746 -0.0053124632952321971 0 0.00023021290459759801 -0.0048621608006821724 0 0.00048411705515314746 -0.0053124632952321971 0 0.0004878468231253963 -0.00526808464161551 0 0.00048411705515314746 -0.0053124632952321971 0 0.0001023839442849531 -0.0047671215218096164 0 0.0004878468231253963 -0.00526808464161551 0 0.00064444755354473601 -0.0045383043165228955 0 0.00048411705515314746 -0.0053124632952321971 0 0.0001023839442849531 -0.0047671215218096164 0 0.00064444755354473601 -0.0045383043165228955 0 0.0012769467446878597 -0.0057304209388641288 0 0.00048411705515314746 -0.0053124632952321971 0 -0.00021512213186346269 -0.00016806499349333534 0 -0.00022868274479231619 -0.00019951817999219379 0 -0.00021084925047420197 -0.00022344198766697943 0 -0.00021512213186346269 -0.00016806499349333534 0 -0.00021084925047420197 -0.00022344198766697943 0 -0.00020144353122585651 -0.00027481055094388351 0 -0.00034956627259111141 -0.0043947946601867027 0 0.0001023839442849531 -0.0047671215218096164 0 -0.00068196120202591371 -0.0048198924357386692 0 0.0001023839442849531 -0.0047671215218096164 0 -0.00068196120202591371 -0.0048198924357386692 0 0.0004878468231253963 -0.00526808464161551 0 -0.00021512213186346269 -0.00016806499349333534 0 -0.00022283494432241195 -0.00026485614703478788 0 0.00013682953972636325 -0.00048316721835275006 0 -0.0004353489884419424 -0.0024803761181710206 0 0.00021464228104144264 -0.0028485698236749069 0 -0.00021512213186346269 -0.00016806499349333534 0 -0.00022283494432241195 -0.00026485614703478788 0 -0.00022868274479231619 -0.00019951817999219379 0 -0.00022283494432241195 -0.00026485614703478788 0 -0.00026266258698726585 -0.00013220984455153051 0 -0.00022868274479231619 -0.00019951817999219379 0 -0.00022283494432241195 -0.00026485614703478788 0 -0.00025380869997970208 -0.00050187003031980045 0 -0.00026266258698726585 -0.00013220984455153051 0 -0.00022283494432241195 -0.00026485614703478788 0 -0.00025380869997970208 -0.00050187003031980045 0 0.00013682953972636325 -0.00048316721835275006 0 -0.00025380869997970208 -0.00050187003031980045 0 0.00013682953972636325 -0.00048316721835275006 0 -2.9316605387202779e-05 -0.0016747047686789195 0 -0.00025380869997970208 -0.00050187003031980045 0 -2.9316605387202779e-05 -0.0016747047686789195 0 -8.3828200925204042e-07 -0.0007761897590866934 0 1.3489098913621977e-06 -0.0028489597634766932 0 -2.9316605387202779e-05 -0.0016747047686789195 0 -8.3828200925204042e-07 -0.0007761897590866934 0 -0.00025380869997970208 -0.00050187003031980045 0 -8.3828200925204042e-07 -0.0007761897590866934 0 -0.00023878076047788034 0.0002548609268914401 0 -4.6911952969879889e-07 0.0012963912489083159 0 -8.481745712132114e-05 0.00095819511920054669 0 -0.00023878076047788034 0.0002548609268914401 0 -8.3828200925204042e-07 -0.0007761897590866934 0 -4.6911952969879889e-07 0.0012963912489083159 0 -0.00023878076047788034 0.0002548609268914401 0 -4.6911952969879889e-07 0.0012963912489083159 0 3.5820584176383976e-05 0.0018407253501726431 0 -8.481745712132114e-05 0.00095819511920054669 0 3.5820584176383976e-05 0.0018407253501726431 0 -8.481745712132114e-05 0.00095819511920054669 0 -3.3775790670448108e-05 0.00057432108249011828 0 -8.481745712132114e-05 0.00095819511920054669 0 -3.3775790670448108e-05 0.00057432108249011828 0 -0.00023878076047788034 0.0002548609268914401 0 -3.3775790670448108e-05 0.00057432108249011828 0 -0.00023878076047788034 0.0002548609268914401 0 -6.6714326570703922e-05 0.0001145152891731512 0 3.5820584176383976e-05 0.0018407253501726431 0 -3.3775790670448108e-05 0.00057432108249011828 0 0.00028626530353025644 0.00053363356520915741 0 -3.3775790670448108e-05 0.00057432108249011828 0 0.0003872890852602673 0.00017493836545173132 0 -6.6714326570703922e-05 0.0001145152891731512 0 -3.3775790670448108e-05 0.00057432108249011828 0 0.00028626530353025644 0.00053363356520915741 0 0.0003872890852602673 0.00017493836545173132 0 -0.00025380869997970208 -0.00050187003031980045 0 -0.00023878076047788034 0.0002548609268914401 0 -0.00026266258698726585 -0.00013220984455153051 0 -0.00023878076047788034 0.0002548609268914401 0 -0.00026266258698726585 -0.00013220984455153051 0 -6.6714326570703922e-05 0.0001145152891731512 0 2.0359174981911999e-06 0.0033721610601845173 0 0.0002178937882447902 0.0056591217844657307 0 -0.0001837281284160705 0.0053891420297304711 0 2.0359174981911999e-06 0.0033721610601845173 0 -0.0001837281284160705 0.0053891420297304711 0 -1.2363773765502485e-06 0.0052556496645419625 0 8.4192856421538174e-07 0.0033686068262532656 0 -0.00034843899035804705 0.0038224220399136043 0 3.5820584176383976e-05 0.0018407253501726431 0 1.3425857635898307e-06 0.0033654137951317983 0 0.00013142176892792513 0.0015902918872495264 0 -4.6911952969879889e-07 0.0012963912489083159 0 3.5820584176383976e-05 0.0018407253501726431 0 1.3425857635898307e-06 0.0033654137951317983 0 0.00019423833774008141 0.0015188871659996487 0 0.00021589242928347934 0.001715722244630967 0 2.0359174981911999e-06 0.0033721610601845173 0 0.00088467824453218461 0.0061620434298190049 0 0.0002178937882447902 0.0056591217844657307 0 1.3425857635898307e-06 0.0033654137951317983 0 0.00013142176892792513 0.0015902918872495264 0 0.00035865592616279949 0.0012995723501484371 0 3.5820584176383976e-05 0.0018407253501726431 0 0.00028626530353025644 0.00053363356520915741 0 0.00080357044174632049 0.00041905860878846629 0 0.0003872890852602673 0.00017493836545173132 0 0.00055988964996474754 0.00028835825667278834 0 0.00070998139053080457 0.00011242830238767188 0 0.00028626530353025644 0.00053363356520915741 0 0.0003872890852602673 0.00017493836545173132 0 0.00055988964996474754 0.00028835825667278834 0 0.00055988964996474754 0.00028835825667278834 0 0.00080357044174632049 0.00041905860878846629 0 0.00070998139053080457 0.00011242830238767188 0 0.00028626530353025644 0.00053363356520915741 0 0.00055988964996474754 0.00028835825667278834 0 0.00080357044174632049 0.00041905860878846629 0 -0.00015105308055086316 0.0022528838314315337 0 -0.00055728266254727744 0.0029813707887060854 0 -0.00042474200464976829 0.0036175568394238183 0 0.00021589242928347934 0.001715722244630967 0 -0.00075654040702374326 0.0033209455104065539 0 0.00088467824453218461 0.0061620434298190049 0 0.00044988071724044753 0.00609935828840722 0 0.0002178937882447902 0.0056591217844657307 0 0.00021589242928347934 0.001715722244630967 0 -0.00034843899035804705 0.0038224220399136043 0 -0.00034843899035804705 0.0038224220399136043 0 -0.0011585431933802876 0.0054947439968264225 0 0.00088467824453218461 0.0061620434298190049 0 0.00044988071724044753 0.00609935828840722 0 0.00060407154019042686 0.0063300825184019853 0 0.00044988071724044753 0.00609935828840722 0 0.00036050221972728461 0.0062276696546245559 0 0.00060407154019042686 0.0063300825184019853 0 0.0002178937882447902 0.0056591217844657307 0 0.00020620953127500807 0.006088598537215887 0 -0.00013683155512299921 0.0061085042594813555 0 0.00044988071724044753 0.00609935828840722 0 0.0002178937882447902 0.0056591217844657307 0 0.00020620953127500807 0.006088598537215887 0 0.00044988071724044753 0.00609935828840722 0 0.00020620953127500807 0.006088598537215887 0 0.00036050221972728461 0.0062276696546245559 0 0.0002178937882447902 0.0056591217844657307 0 -0.00013683155512299921 0.0061085042594813555 0 -0.0001837281284160705 0.0053891420297304711 0 -0.0003108751027742287 0.0065698510947541427 0 0.00060407154019042686 0.0063300825184019853 0 -0.00053503929977791577 0.0066805125903386213 0 -0.0024234204728356282 0.0075374800711314636 0 -0.0024779329753621868 0.007448418277271291 0 -0.0020332626293008485 0.0069148790787527193 0 -0.0011585431933802876 0.0054947439968264225 0 -0.001281964930848975 0.006976595855127078 0 -0.0003108751027742287 0.0065698510947541427 0 -0.00024765211415956294 0.0064466472366157155 0 6.7734706733020168e-05 0.0063232185479458391 0 -0.0003108751027742287 0.0065698510947541427 0 -0.00024765211415956294 0.0064466472366157155 0 -0.00048705018122839882 0.0065921023985264122 0 -0.00013683155512299921 0.0061085042594813555 0 -0.00024765211415956294 0.0064466472366157155 0 6.7734706733020168e-05 0.0063232185479458391 0 -0.00013683155512299921 0.0061085042594813555 0 -0.00024765211415956294 0.0064466472366157155 0 -0.00038037087244993461 0.0064836236065128868 0 -0.0003108751027742287 0.0065698510947541427 0 0.00027491756361021618 0.0063563790908203821 0 0.00060407154019042686 0.0063300825184019853 0 -0.0003108751027742287 0.0065698510947541427 0 6.7734706733020168e-05 0.0063232185479458391 0 0.00027491756361021618 0.0063563790908203821 0 0.00020620953127500807 0.006088598537215887 0 -0.00013683155512299921 0.0061085042594813555 0 6.7734706733020168e-05 0.0063232185479458391 0 0.00020620953127500807 0.006088598537215887 0 6.7734706733020168e-05 0.0063232185479458391 0 0.00036050221972728461 0.0062276696546245559 0 6.7734706733020168e-05 0.0063232185479458391 0 0.00036050221972728461 0.0062276696546245559 0 0.00027491756361021618 0.0063563790908203821 0 0.00061596079034097358 -7.0751189094097897e-05 0 0.00019251525490076695 -5.1274901146122991e-05 0 0.00020775444568415073 -0.00058177350948849409 0 -0.0013874311951141438 0.0050407124161425858 0 -0.0026560010494768548 0.0064431397282187792 0 -0.0027727367268224985 0.0058461928445767966 0 -0.0028136848235706946 0.0057810693083340126 0 -0.0026572655955623284 0.0053912130629907729 0 0.00036050221972728461 0.0062276696546245559 0 0.00027491756361021618 0.0063563790908203821 0 0.00060407154019042686 0.0063300825184019853 0 -0.00034843899035804705 0.0038224220399136043 0 -0.00075654040702374326 0.0033209455104065539 0 -0.00088317897989182998 0.0046066659434219155 0 -0.00082036965629234669 0.0044886274218642773 0 -0.00091932951344050288 0.004459005131004461 0 -0.0011585431933802876 0.0054947439968264225 0 -0.0013874311951141438 0.0050407124161425858 0 -0.00082036965629234669 0.0044886274218642773 0 -0.00091932951344050288 0.004459005131004461 0 -0.00089642853022921644 0.0043657113466140859 0 -0.00075654040702374326 0.0033209455104065539 0 -0.0013874311951141438 0.0050407124161425858 0 -0.00092236284430275697 0.0043251538237176236 0 -0.00085001608817863712 0.0040450764683837579 0 -0.0010688800172779255 0.0036836497838892267 0 -0.00075654040702374326 0.0033209455104065539 0 -0.0013778876806165067 0.0033430474624421024 0 -0.0013874311951141438 0.0050407124161425858 0 -0.0013778876806165067 0.0033430474624421024 0 0.0003872890852602673 0.00017493836545173132 0 0.00070998139053080457 0.00011242830238767188 0 0.00061596079034097358 -7.0751189094097897e-05 0 0.0003872890852602673 0.00017493836545173132 0 0.00061596079034097358 -7.0751189094097897e-05 0 0.00019251525490076695 -5.1274901146122991e-05 0 -0.0013778876806165067 0.0033430474624421024 0 -0.0023080118993476693 0.004110734160268064 0 -0.0013778876806165067 0.0033430474624421024 0 -0.00073920319419518491 0.00075662593952245574 0 -0.0014571202291897207 0.0029816655778670759 0 -0.0015798718808939043 0.0024699861503729571 0 -0.0017080367820552294 0.0025644947114233955 0 -0.0028136848235706946 0.0057810693083340126 0 -0.0029764642765958056 0.0052632753749455525 0 -0.0026572655955623284 0.0053912130629907729 0 -0.0024779329753621868 0.007448418277271291 0 -0.0023415007157843353 0.0068063804838474525 0 -0.0020332626293008485 0.0069148790787527193 0 -0.0023415007157843353 0.0068063804838474525 0 -0.0020332626293008485 0.0069148790787527193 0 -0.0020151311352647502 0.0063035931975083869 0 -0.0003108751027742287 0.0065698510947541427 0 -0.00053503929977791577 0.0066805125903386213 0 -0.00048705018122839882 0.0065921023985264122 0 -0.00013900347996632605 -0.00011354177353263656 0 -0.00026266258698726585 -0.00013220984455153051 0 -6.6714326570703922e-05 0.0001145152891731512 0 -0.00013900347996632605 -0.00011354177353263656 0 -0.00026266258698726585 -0.00013220984455153051 0 -0.00022868274479231619 -0.00019951817999219379 0 -0.00013900347996632605 -0.00011354177353263656 0 -6.6714326570703922e-05 0.0001145152891731512 0 0.00019251525490076695 -5.1274901146122991e-05 0 0.0003872890852602673 0.00017493836545173132 0 -6.6714326570703922e-05 0.0001145152891731512 0 0.00019251525490076695 -5.1274901146122991e-05 0 0.00015417068556181906 -7.5084250706314027e-05 0 -6.1097134896042444e-05 -0.0003486960943409437 0 -0.00013900347996632605 -0.00011354177353263656 0 0.00019251525490076695 -5.1274901146122991e-05 0 -0.00010108640091508164 -0.00026802043652079613 0 0.00019251525490076695 -5.1274901146122991e-05 0 -6.9000560168336301e-05 -0.00047747711091783316 0 0.00020775444568415073 -0.00058177350948849409 0 -6.9000560168336301e-05 -0.00047747711091783316 0 0.00020775444568415073 -0.00058177350948849409 0 -6.1525968267430703e-05 -0.00072905802633692438 0 -0.00010108640091508164 -0.00026802043652079613 0 -0.00018137417916922794 -0.00025720128022947632 0 -0.00018063253794179505 -0.00030083681654608456 0 -6.1097134896042444e-05 -0.0003486960943409437 0 -0.00030021759978203413 -0.00059392073565024336 0 -6.9000560168336301e-05 -0.00047747711091783316 0 -0.00029653056059661577 -0.0008456142235667934 0 -6.1525968267430703e-05 -0.00072905802633692438 0 -0.00010108640091508164 -0.00026802043652079613 0 -0.00022868274479231619 -0.00019951817999219379 0 -0.00018137417916922794 -0.00025720128022947632 0 -0.00013900347996632605 -0.00011354177353263656 0 -0.00010108640091508164 -0.00026802043652079613 0 -0.00022868274479231619 -0.00019951817999219379 0 -0.00022868274479231619 -0.00019951817999219379 0 -0.00018137417916922794 -0.00025720128022947632 0 -0.00021084925047420197 -0.00022344198766697943 0 -0.00018137417916922794 -0.00025720128022947632 0 -0.00021084925047420197 -0.00022344198766697943 0 -0.00020144353122585651 -0.00027481055094388351 0 -0.00018137417916922794 -0.00025720128022947632 0 -0.00020144353122585651 -0.00027481055094388351 0 -0.00018063253794179505 -0.00030083681654608456 0 -0.00029332936207502962 -0.0004317486408091665 0 -0.00030021759978203413 -0.00059392073565024336 0 -0.00029653056059661577 -0.0008456142235667934 0 -8.3124615619718789e-05 -0.0010041279196656026 0 -6.1525968267430703e-05 -0.00072905802633692438 0 -0.00091714118809898095 -0.00072326788629313099 0 -0.00094374478589136647 -0.00076549832687849084 0 -0.00087085734056888597 -0.0007564736917809934 0 -0.00030021759978203413 -0.00059392073565024336 0 -0.0010257388439655478 0.00047970514250935732 0 -0.00020144353122585651 -0.00027481055094388351 0 -0.00016967834201001177 -0.00031116750929352987 0 -0.00021765618549486783 -0.00036828147672215403 0 -0.00030021759978203413 -0.00059392073565024336 0 -0.00094427112168994013 -0.0019624359019654904 0 -0.0010318187000979866 -0.0020343792753202364 0 -0.0013859379273366492 -0.0020723946126812469 0 -0.0012046668143110796 -0.0017634435718866131 0 -0.0010318187000979866 -0.0020343792753202364 0 -0.0012188645955320944 -0.0023217342986396887 0 -0.0013859379273366492 -0.0020723946126812469 0 -0.00094427112168994013 -0.0019624359019654904 0 -0.0013489132217075594 -0.0010470313131364212 0 -0.00094374478589136647 -0.00076549832687849084 0 -0.00090888620466621824 -0.0008212576570199347 0 -0.00087085734056888597 -0.0007564736917809934 0 -0.0013489132217075594 -0.0010470313131364212 0 -0.0010257388439655478 0.00047970514250935732 0 -0.0018590347253377689 0.000750816932744141 0 -0.001931456713911402 0.00075267873353301786 0 -0.0018824525627135099 0.00071279533935769527 0 -0.0026275581387586733 0.0029964455730704513 0 -0.0010257388439655478 0.00047970514250935732 0 -0.0015798718808939043 0.0024699861503729571 0 -0.0017080367820552294 0.0025644947114233955 0 -0.0019398743593450898 0.0021646183773385052 0 -0.0015798718808939043 0.0024699861503729571 0 -0.0016931919865183496 0.0019852190115889181 0 -0.0019398743593450898 0.0021646183773385052 0 -0.00073920319419518491 0.00075662593952245574 0 -0.0010257388439655478 0.00047970514250935732 0 0.00020775444568415073 -0.00058177350948849409 0 -8.3124615619718789e-05 -0.0010041279196656026 0 -6.1525968267430703e-05 -0.00072905802633692438 0 -0.0023080118993476693 0.004110734160268064 0 -0.0026275581387586733 0.0029964455730704513 0 -0.0029764642765958056 0.0052632753749455525 0 -0.003196736991337185 0.0045671364018737863 0 -0.0028042760433533063 0.0049348552357705126 0 -0.0029764642765958056 0.0052632753749455525 0 -0.0026572655955623284 0.0053912130629907729 0 -0.0028042760433533063 0.0049348552357705126 0 -0.0020332626293008485 0.0069148790787527193 0 -0.0020151311352647502 0.0063035931975083869 0 -0.0011939821865821086 0.0058047003760345033 0 -0.0023415007157843353 0.0068063804838474525 0 -0.0020151311352647502 0.0063035931975083869 0 -0.0022017033663577043 0.005627512151385349 0 -0.0026572655955623284 0.0053912130629907729 0 -0.0028042760433533063 0.0049348552357705126 0 -0.0024328723729379626 0.004838076590702154 0 -0.0026560010494768548 0.0064431397282187792 0 -0.0022752512456059326 0.0051030131019689602 0 -0.001281964930848975 0.006976595855127078 0 -0.0010947948968156645 0.0057479653635824834 0 -0.0020151311352647502 0.0063035931975083869 0 -0.0022017033663577043 0.005627512151385349 0 -0.0011939821865821086 0.0058047003760345033 0 -0.0022752512456059326 0.0051030131019689602 0 -0.002031693779029045 0.0040895328214163151 0 -0.0024328723729379626 0.004838076590702154 0 -0.0027837970118002038 0.0045616070921413428 0 -0.0026606782629388136 0.0040566371456074602 0 -0.0024328723729379626 0.004838076590702154 0 -0.0026606782629388136 0.0040566371456074602 0 -0.0020077995064585121 0.0039805052998704744 0 -0.0022017033663577043 0.005627512151385349 0 -0.0020077995064585121 0.0039805052998704744 0 -0.0012721604143377046 0.0048745802382500619 0 -0.003196736991337185 0.0045671364018737863 0 -0.0027837970118002038 0.0045616070921413428 0 -0.0026606782629388136 0.0040566371456074602 0 -0.0026275581387586733 0.0029964455730704513 0 -0.0025904269998074277 0.0037517930157803668 0 -0.003196736991337185 0.0045671364018737863 0 -0.0028042760433533063 0.0049348552357705126 0 -0.0027837970118002038 0.0045616070921413428 0 -0.0028042760433533063 0.0049348552357705126 0 -0.0024328723729379626 0.004838076590702154 0 -0.0027837970118002038 0.0045616070921413428 0 -0.0029144530682546641 0.0029245534163737786 0 -0.0024922585831301863 0.0021109415340478336 0 -0.0036874095449984687 0.0025053006999465502 0 -0.0032759633055356174 0.0039502131077598255 0 -0.0029144530682546641 0.0029245534163737786 0 -0.0022118683148256292 0.0030887618096616283 0 -0.0029144530682546641 0.0029245534163737786 0 -0.0022118683148256292 0.0030887618096616283 0 -0.0024922585831301863 0.0021109415340478336 0 -0.0026606782629388136 0.0040566371456074602 0 -0.0020077995064585121 0.0039805052998704744 0 -0.0015280883267418234 0.0028164594151834283 0 -0.0022118683148256292 0.0030887618096616283 0 -0.0019853148637600775 0.0024364233857786122 0 -0.0015280883267418234 0.0028164594151834283 0 -0.0025904269998074277 0.0037517930157803668 0 -0.0014850500324821 0.0027918742063430665 0 -0.0019853148637600775 0.0024364233857786122 0 -0.0015280883267418234 0.0028164594151834283 0 -0.0016664169628789786 0.0015288882743076338 0 -0.0019853148637600775 0.0024364233857786122 0 -0.0024922585831301863 0.0021109415340478336 0 -0.0016664169628789786 0.0015288882743076338 0 -0.0022118683148256292 0.0030887618096616283 0 -0.0019853148637600775 0.0024364233857786122 0 -0.0024922585831301863 0.0021109415340478336 0 -0.002348748818120399 0.00046434513226067416 0 -0.0025639008443441853 0.00062210563257669759 0 -0.0024922585831301863 0.0021109415340478336 0 -0.0036874095449984687 0.0025053006999465502 0 -0.0023537200307834532 0.00062187709239931114 0 -0.0019025889981119162 -0.0010031668230643205 0 -0.0020480620933850764 -0.0014015675669411516 0 -0.0023537200307834532 0.00062187709239931114 0 -0.0019025889981119162 -0.0010031668230643205 0 -0.0015594496744155124 -0.00086980527759437606 0 -0.0016516946553817293 -0.00020314108486727128 0 -0.002370979992442649 -0.00055855083786393871 0 -0.002348748818120399 0.00046434513226067416 0 -0.0019025889981119162 -0.0010031668230643205 0 -0.0015594496744155124 -0.00086980527759437606 0 -0.0015301514425734384 -0.0013858347081612209 0 -0.0019025889981119162 -0.0010031668230643205 0 -0.0019853821636488249 -0.0013186710113074274 0 -0.0015301514425734384 -0.0013858347081612209 0 -0.0015594496744155124 -0.00086980527759437606 0 -0.0013545268424885492 -0.0011149915945346024 0 -0.0012835233620549823 -0.00070788927544614426 0 -0.00097589308645364831 -0.0012798097137927448 0 -0.0013545268424885492 -0.0011149915945346024 0 -0.0012835233620549823 -0.00070788927544614426 0 -0.0013545268424885492 -0.0011149915945346024 0 -0.0011560986985338579 -0.0014703814277493459 0 -0.0015301514425734384 -0.0013858347081612209 0 -0.00097589308645364831 -0.0012798097137927448 0 -0.0013545268424885492 -0.0011149915945346024 0 -0.0011560986985338579 -0.0014703814277493459 0 -0.0015594496744155124 -0.00086980527759437606 0 -0.0013545268424885492 -0.0011149915945346024 0 -0.0015301514425734384 -0.0013858347081612209 0 -0.0014739226777116207 -0.0022287836613107842 0 -0.0015301514425734384 -0.0013858347081612209 0 -0.0012046668143110796 -0.0017634435718866131 0 -0.0011560986985338579 -0.0014703814277493459 0 -0.0015301514425734384 -0.0013858347081612209 0 -0.0012046668143110796 -0.0017634435718866131 0 -0.0013489132217075594 -0.0010470313131364212 0 -0.0014203688886889069 -0.0020438150117297305 0 -0.0032759633055356174 0.0039502131077598255 0 -0.0029144530682546641 0.0029245534163737786 0 -0.0036874095449984687 0.0025053006999465502 0 -0.0018590347253377689 0.000750816932744141 0 -0.001931456713911402 0.00075267873353301786 0 -0.0019171518567372345 0.00082915171036834008 0 -0.0026275581387586733 0.0029964455730704513 0 -0.002348748818120399 0.00046434513226067416 0 -0.0013489132217075594 -0.0010470313131364212 0 -0.002348748818120399 0.00046434513226067416 0 -0.0014739226777116207 -0.0022287836613107842 0 -0.0019853821636488249 -0.0013186710113074274 0 -0.0015301514425734384 -0.0013858347081612209 0 0.00013919750098443314 0.0045188080405279664 0 0.00074003109844910612 0.0041142161101366034 0 0.00030345984230755461 0.0036462846674318035 0 0.00074003109844910612 0.0041142161101366034 0 0.00073092707174078132 0.005000241894097715 0 0.0011894624184728363 0.0043854394950932317 0 0.00013919750098443314 0.0045188080405279664 0 0.00074003109844910612 0.0041142161101366034 0 0.00073092707174078132 0.005000241894097715 0 0.00074003109844910612 0.0041142161101366034 0 0.00077156903524271212 0.0036116883963823185 0 0.001303596727993803 0.0037681817719620067 0 0.00074003109844910612 0.0041142161101366034 0 0.00077156903524271212 0.0036116883963823185 0 0.00030345984230755461 0.0036462846674318035 0 0.00030345984230755461 0.0036462846674318035 0 -0.0003381413855976986 0.0022916809610917378 0 0.00057916563236861274 0.0013522588529864205 0 0.00032555762752572412 0.0035285475443390317 0 0.00053178104236742299 0.002368963393906198 0 0.00077156903524271212 0.0036116883963823185 0 0.00030345984230755461 0.0036462846674318035 0 0.00056186628908137511 0.0033704817907663914 0 0.00030345984230755461 0.0036462846674318035 0 -0.00063647350184683636 0.003316367063730374 0 -0.0003381413855976986 0.0022916809610917378 0 -0.00063647350184683636 0.003316367063730374 0 -0.0010850299765587581 0.0022569209664305254 0 -0.0003381413855976986 0.0022916809610917378 0 -0.0010850299765587581 0.0022569209664305254 0 -0.0015280883267418234 0.0028164594151834283 0 -0.0016664169628789786 0.0015288882743076338 0 -0.00063647350184683636 0.003316367063730374 0 -0.0010850299765587581 0.0022569209664305254 0 -0.0015280883267418234 0.0028164594151834283 0 -0.0020077995064585121 0.0039805052998704744 0 -0.0015280883267418234 0.0028164594151834283 0 -0.0011686789195612824 0.0039082513238307007 0 -0.00063647350184683636 0.003316367063730374 0 -0.0015280883267418234 0.0028164594151834283 0 -0.0011686789195612824 0.0039082513238307007 0 -0.0011686789195612824 0.0039082513238307007 0 -0.00060875632547781658 0.0044832045906712994 0 -0.0012721604143377046 0.0048745802382500619 0 -0.0020077995064585121 0.0039805052998704744 0 -0.0011686789195612824 0.0039082513238307007 0 -0.0012721604143377046 0.0048745802382500619 0 0.00013919750098443314 0.0045188080405279664 0 0.00030345984230755461 0.0036462846674318035 0 -0.00063647350184683636 0.003316367063730374 0 -0.00063647350184683636 0.003316367063730374 0 -0.0011686789195612824 0.0039082513238307007 0 -0.00060875632547781658 0.0044832045906712994 0 0.00013919750098443314 0.0045188080405279664 0 -0.00063647350184683636 0.003316367063730374 0 -0.00060875632547781658 0.0044832045906712994 0 -0.00060875632547781658 0.0044832045906712994 0 -0.00070660369928368563 0.0053969852021132983 0 -3.8866074977092003e-05 0.0054822642089759283 0 0.00013919750098443314 0.0045188080405279664 0 -0.00060875632547781658 0.0044832045906712994 0 -3.8866074977092003e-05 0.0054822642089759283 0 -0.00060875632547781658 0.0044832045906712994 0 -0.00070660369928368563 0.0053969852021132983 0 -0.0012721604143377046 0.0048745802382500619 0 -0.00070660369928368563 0.0053969852021132983 0 -0.0012721604143377046 0.0048745802382500619 0 -0.0011939821865821086 0.0058047003760345033 0 -0.0022017033663577043 0.005627512151385349 0 -0.0012721604143377046 0.0048745802382500619 0 -0.0011939821865821086 0.0058047003760345033 0 -0.00070660369928368563 0.0053969852021132983 0 -0.0011939821865821086 0.0058047003760345033 0 -0.00052294525736033598 0.0060974458027010852 0 -0.00053503929977791577 0.0066805125903386213 0 -0.0011939821865821086 0.0058047003760345033 0 -0.00072725595482264923 0.0064366944019801945 0 -0.0011939821865821086 0.0058047003760345033 0 -0.00052294525736033598 0.0060974458027010852 0 -0.00072725595482264923 0.0064366944019801945 0 -0.00070660369928368563 0.0053969852021132983 0 -0.00052294525736033598 0.0060974458027010852 0 -3.8866074977092003e-05 0.0054822642089759283 0 -3.8866074977092003e-05 0.0054822642089759283 0 0.00047948527947262476 0.006014238884466055 0 -0.00017872963744178854 0.0065354347387469548 0 -0.00052294525736033598 0.0060974458027010852 0 -3.8866074977092003e-05 0.0054822642089759283 0 -0.00017872963744178854 0.0065354347387469548 0 0.00013919750098443314 0.0045188080405279664 0 -3.8866074977092003e-05 0.0054822642089759283 0 0.00073092707174078132 0.005000241894097715 0 -3.8866074977092003e-05 0.0054822642089759283 0 0.00073092707174078132 0.005000241894097715 0 0.00047948527947262476 0.006014238884466055 0 0.00073092707174078132 0.005000241894097715 0 0.00047948527947262476 0.006014238884466055 0 0.0012739981533670529 0.005584822006319462 0 0.00047948527947262476 0.006014238884466055 0 0.00028199866237279127 0.0069148740323592382 0 0.0010161509776740367 0.0065554969830795128 0 0.00047948527947262476 0.006014238884466055 0 0.00028199866237279127 0.0069148740323592382 0 -0.00017872963744178854 0.0065354347387469548 0 0.00028199866237279127 0.0069148740323592382 0 -0.00012658232784969439 0.0073120708073365626 0 0.00034922276452109221 0.0080706802038533615 0 0.00028199866237279127 0.0069148740323592382 0 -0.00017872963744178854 0.0065354347387469548 0 -0.00012658232784969439 0.0073120708073365626 0 -0.00017872963744178854 0.0065354347387469548 0 -0.00012658232784969439 0.0073120708073365626 0 -0.00039347963733786626 0.0068612495819883402 0 -0.00012658232784969439 0.0073120708073365626 0 -0.00039347963733786626 0.0068612495819883402 0 -0.00026609402194701368 0.0070450976173574882 0 -0.00012658232784969439 0.0073120708073365626 0 -6.5572919938340933e-05 0.0078982065901446168 0 0.00034922276452109221 0.0080706802038533615 0 -0.00053503929977791577 0.0066805125903386213 0 -0.00048705018122839882 0.0065921023985264122 0 -0.00072725595482264923 0.0064366944019801945 0 -0.00048705018122839882 0.0065921023985264122 0 -0.00072725595482264923 0.0064366944019801945 0 -0.00050233795796796824 0.0066435994782357349 0 -0.00072725595482264923 0.0064366944019801945 0 -0.00050527158028034142 0.0065291323317693767 0 -0.00050233795796796824 0.0066435994782357349 0 -0.00017872963744178854 0.0065354347387469548 0 -0.00050527158028034142 0.0065291323317693767 0 -0.00039347963733786626 0.0068612495819883402 0 -0.00052294525736033598 0.0060974458027010852 0 -0.00017872963744178854 0.0065354347387469548 0 -0.00050527158028034142 0.0065291323317693767 0 -0.00050527158028034142 0.0065291323317693767 0 -0.00039347963733786626 0.0068612495819883402 0 -0.00050233795796796824 0.0066435994782357349 0 -0.00052294525736033598 0.0060974458027010852 0 -0.00072725595482264923 0.0064366944019801945 0 -0.00050527158028034142 0.0065291323317693767 0 -0.00039347963733786626 0.0068612495819883402 0 -0.00050233795796796824 0.0066435994782357349 0 -0.00039685516017649375 0.0065192032989168352 0 -0.00050233795796796824 0.0066435994782357349 0 -0.00038037087244993461 0.0064836236065128868 0 -0.00039685516017649375 0.0065192032989168352 0 -0.00013683155512299921 0.0061085042594813555 0 -0.00038037087244993461 0.0064836236065128868 0 -0.00039685516017649375 0.0065192032989168352 0 -0.00024765211415956294 0.0064466472366157155 0 -0.00048705018122839882 0.0065921023985264122 0 -0.00038037087244993461 0.0064836236065128868 0 -0.00048705018122839882 0.0065921023985264122 0 -0.00050233795796796824 0.0066435994782357349 0 -0.00038037087244993461 0.0064836236065128868 0 -0.00013683155512299921 0.0061085042594813555 0 -0.0001837281284160705 0.0053891420297304711 0 -0.00039685516017649375 0.0065192032989168352 0 -0.00039685516017649375 0.0065192032989168352 0 -1.2363773765502485e-06 0.0052556496645419625 0 -0.00026609402194701368 0.0070450976173574882 0 -0.00039347963733786626 0.0068612495819883402 0 -0.00039685516017649375 0.0065192032989168352 0 -0.00026609402194701368 0.0070450976173574882 0 -1.2363773765502485e-06 0.0052556496645419625 0 -0.00026609402194701368 0.0070450976173574882 0 -3.640578563832264e-07 0.0071432492358988369 0 -0.0001837281284160705 0.0053891420297304711 0 -0.00039685516017649375 0.0065192032989168352 0 -1.2363773765502485e-06 0.0052556496645419625 0 -6.5572919938340933e-05 0.0078982065901446168 0 -3.640578563832264e-07 0.0071432492358988369 0 0.00019754714299339372 0.0090940727364791675 0 -6.5572919938340933e-05 0.0078982065901446168 0 0.00019754714299339372 0.0090940727364791675 0 0.00034922276452109221 0.0080706802038533615 0 -0.00012658232784969439 0.0073120708073365626 0 -6.5572919938340933e-05 0.0078982065901446168 0 -0.00026609402194701368 0.0070450976173574882 0 -6.5572919938340933e-05 0.0078982065901446168 0 -0.00026609402194701368 0.0070450976173574882 0 -3.640578563832264e-07 0.0071432492358988369 0 -3.640578563832264e-07 0.0071432492358988369 0 3.7751601880554164e-07 0.0090297242546140306 0 0.00019754714299339372 0.0090940727364791675 0 3.7751601880554164e-07 0.0090297242546140306 0 0.00019754714299339372 0.0090940727364791675 0 5.1512842068704655e-07 0.010916271790474198 0 0.00019754714299339372 0.0090940727364791675 0 0.00084013819494021017 0.0099081669895439359 0 0.00034922276452109221 0.0080706802038533615 0 0.00019754714299339372 0.0090940727364791675 0 0.00084013819494021017 0.0099081669895439359 0 5.1512842068704655e-07 0.010916271790474198 0 5.1512842068704655e-07 0.010916271790474198 0 -6.4493145659927235e-07 0.01280419912929814 0 6.0129320882863635e-05 0.011405492686774236 0 -6.4493145659927235e-07 0.01280419912929814 0 -9.005076020863944e-05 0.012298617131747472 0 6.0129320882863635e-05 0.011405492686774236 0 -9.005076020863944e-05 0.012298617131747472 0 6.0129320882863635e-05 0.011405492686774236 0 8.3469858978430323e-06 0.011734768459446935 0 0.00084013819494021017 0.0099081669895439359 0 5.1512842068704655e-07 0.010916271790474198 0 6.0129320882863635e-05 0.011405492686774236 0 0.00084013819494021017 0.0099081669895439359 0 6.0129320882863635e-05 0.011405492686774236 0 8.3469858978430323e-06 0.011734768459446935 0 -9.005076020863944e-05 0.012298617131747472 0 8.3469858978430323e-06 0.011734768459446935 0 -0.00014282426498115919 0.012495298466311283 0 8.3469858978430323e-06 0.011734768459446935 0 -3.7248260814003173e-05 0.01249334973242947 0 -0.00014282426498115919 0.012495298466311283 0 8.3469858978430323e-06 0.011734768459446935 0 -3.7248260814003173e-05 0.01249334973242947 0 0.00075423118605410296 0.012380478799813546 0 -3.7248260814003173e-05 0.01249334973242947 0 0.00075423118605410296 0.012380478799813546 0 0.00019089928732128912 0.012779905412439264 0 0.00028199866237279127 0.0069148740323592382 0 0.00034922276452109221 0.0080706802038533615 0 0.0010161509776740367 0.0065554969830795128 0 0.0021157624391524663 0.0070888242441065853 0 0.00034922276452109221 0.0080706802038533615 0 0.0010161509776740367 0.0065554969830795128 0 0.00084013819494021017 0.0099081669895439359 0 0.0021157624391524663 0.0070888242441065853 0 0.00034922276452109221 0.0080706802038533615 0 0.00095226438690807944 0.0098883355205335536 0 0.0013599776753167564 0.0097803057783586583 0 0.00084013819494021017 0.0099081669895439359 0 8.3469858978430323e-06 0.011734768459446935 0 0.00075423118605410296 0.012380478799813546 0 0.00014792396327334916 0.014225909465291361 0 0.00024777165315187702 0.013908404190630138 0 0.00022368278117841319 0.014298409845931382 0 -5.3530602883537009e-05 0.015837447880244028 0 8.6410736287255484e-05 0.015309436158796434 0 0.00014792396327334916 0.014225909465291361 0 0.00037156501235640981 0.013813801374831482 0 0.00024777165315187702 0.013908404190630138 0 -0.00024561505656933843 0.017307572329533987 0 -4.6238698077077764e-07 0.01639407647998126 0 8.1820188085905126e-05 0.016701594276098207 0 -0.00024561505656933843 0.017307572329533987 0 -4.6238698077077764e-07 0.01639407647998126 0 -4.5561440347756504e-07 0.018096304746117491 0 -0.00048467874408186258 0.017594157418215097 0 -0.00024561505656933843 0.017307572329533987 0 8.1820188085905126e-05 0.016701594276098207 0 -4.6238698077077764e-07 0.01639407647998126 0 8.1820188085905126e-05 0.016701594276098207 0 8.2150839605588168e-07 0.014692139853268005 0 8.6410736287255484e-05 0.015309436158796434 0 -2.0098574121779312e-07 0.014691299695154361 0 0.00037156501235640981 0.013813801374831482 0 0.00024777165315187702 0.013908404190630138 0 0.00019555011154198554 0.013650975805413766 0 0.00024777165315187702 0.013908404190630138 0 0.00012310668125149545 0.013518296113957409 0 0.00019555011154198554 0.013650975805413766 0 0.00024777165315187702 0.013908404190630138 0 0.00012310668125149545 0.013518296113957409 0 0.00011224508161902655 0.013723281084868108 0 -7.4961440273918969e-05 0.013317275313035989 0 -0.00013262882545984602 0.012859425718607754 0 -2.3979578164270747e-05 0.013207805469902033 0 0.00012310668125149545 0.013518296113957409 0 -7.4961440273918969e-05 0.013317275313035989 0 -2.3979578164270747e-05 0.013207805469902033 0 0.00012310668125149545 0.013518296113957409 0 -7.4961440273918969e-05 0.013317275313035989 0 0.00019555011154198554 0.013650975805413766 0 -7.4961440273918969e-05 0.013317275313035989 0 0.00019555011154198554 0.013650975805413766 0 8.4070723289419853e-07 0.014687001906945423 0 0.00037156501235640981 0.013813801374831482 0 0.00019555011154198554 0.013650975805413766 0 8.4070723289419853e-07 0.014687001906945423 0 -6.4493145659927235e-07 0.01280419912929814 0 -9.005076020863944e-05 0.012298617131747472 0 -7.4961440273918969e-05 0.013317275313035989 0 -6.4493145659927235e-07 0.01280419912929814 0 -7.4961440273918969e-05 0.013317275313035989 0 8.4070723289419853e-07 0.014687001906945423 0 -9.005076020863944e-05 0.012298617131747472 0 -7.4961440273918969e-05 0.013317275313035989 0 -0.00013262882545984602 0.012859425718607754 0 -9.005076020863944e-05 0.012298617131747472 0 -0.00013262882545984602 0.012859425718607754 0 -0.00014282426498115919 0.012495298466311283 0 -0.00013262882545984602 0.012859425718607754 0 -0.00015324900336953924 0.012859170103834734 0 -0.00014282426498115919 0.012495298466311283 0 -3.7248260814003173e-05 0.01249334973242947 0 -0.00014282426498115919 0.012495298466311283 0 -0.00016817054858356043 0.012790759241382168 0 -0.00015324900336953924 0.012859170103834734 0 -0.00014282426498115919 0.012495298466311283 0 -0.00016817054858356043 0.012790759241382168 0 -3.7248260814003173e-05 0.01249334973242947 0 -0.00016817054858356043 0.012790759241382168 0 -0.00013721971872620212 0.012830836777555713 0 -0.00016817054858356043 0.012790759241382168 0 -0.00017938533617236415 0.012940028342972525 0 -0.00013721971872620212 0.012830836777555713 0 -0.00015324900336953924 0.012859170103834734 0 -0.00016817054858356043 0.012790759241382168 0 -0.00014941210423048782 0.013035764292849082 0 -0.00015324900336953924 0.012859170103834734 0 -0.00014941210423048782 0.013035764292849082 0 -8.8664249832614019e-05 0.013115149120036468 0 -0.00016817054858356043 0.012790759241382168 0 -0.00014941210423048782 0.013035764292849082 0 -0.00017938533617236415 0.012940028342972525 0 -0.00014941210423048782 0.013035764292849082 0 -0.00014919686616775911 0.013025214222848591 0 -0.00017938533617236415 0.012940028342972525 0 -0.00014941210423048782 0.013035764292849082 0 -3.5871784640172743e-05 0.01332041850428963 0 -8.0122676044560112e-05 0.013141460088809171 0 -0.00014941210423048782 0.013035764292849082 0 -0.00014919686616775911 0.013025214222848591 0 -8.0122676044560112e-05 0.013141460088809171 0 -0.00014941210423048782 0.013035764292849082 0 -8.8664249832614019e-05 0.013115149120036468 0 -3.5871784640172743e-05 0.01332041850428963 0 -8.8664249832614019e-05 0.013115149120036468 0 1.9630180506305012e-05 0.013395525325244561 0 -3.5871784640172743e-05 0.01332041850428963 0 -0.00013262882545984602 0.012859425718607754 0 -0.00015324900336953924 0.012859170103834734 0 -8.8664249832614019e-05 0.013115149120036468 0 -0.00013262882545984602 0.012859425718607754 0 -8.8664249832614019e-05 0.013115149120036468 0 -2.3979578164270747e-05 0.013207805469902033 0 0.00012310668125149545 0.013518296113957409 0 -2.3979578164270747e-05 0.013207805469902033 0 1.9630180506305012e-05 0.013395525325244561 0 -8.8664249832614019e-05 0.013115149120036468 0 -2.3979578164270747e-05 0.013207805469902033 0 1.9630180506305012e-05 0.013395525325244561 0 0.00012310668125149545 0.013518296113957409 0 1.9630180506305012e-05 0.013395525325244561 0 0.00011224508161902655 0.013723281084868108 0 1.9630180506305012e-05 0.013395525325244561 0 0.00011224508161902655 0.013723281084868108 0 -3.5871784640172743e-05 0.01332041850428963 0 -3.5871784640172743e-05 0.01332041850428963 0 -8.0122676044560112e-05 0.013141460088809171 0 0.00010481961708948493 0.013514084075125067 0 0.00011224508161902655 0.013723281084868108 0 -3.5871784640172743e-05 0.01332041850428963 0 0.00010481961708948493 0.013514084075125067 0 0.00010481961708948493 0.013514084075125067 0 0.00087171381762643952 0.013671776439115491 0 0.00061583902472985583 0.013149327054613712 0 0.00010481961708948493 0.013514084075125067 0 0.00022368278117841319 0.014298409845931382 0 0.00087171381762643952 0.013671776439115491 0 0.00014792396327334916 0.014225909465291361 0 0.00022368278117841319 0.014298409845931382 0 0.00012572994796206436 0.014827643185907249 0 0.00024777165315187702 0.013908404190630138 0 0.00011224508161902655 0.013723281084868108 0 0.00022368278117841319 0.014298409845931382 0 0.00011224508161902655 0.013723281084868108 0 0.00010481961708948493 0.013514084075125067 0 0.00022368278117841319 0.014298409845931382 0 0.0011707230916321531 0.016356661514977451 0 0.0008829828806562268 0.016624477760070568 0 0.00080763700866489903 0.016270340158880833 0 0.0011707230916321531 0.016356661514977451 0 0.00080763700866489903 0.016270340158880833 0 0.0010961382030313241 0.016061274808101975 0 0.0011707230916321531 0.016356661514977451 0 0.0008829828806562268 0.016624477760070568 0 0.0012843033578424251 0.016660257612453315 0 0.00044686295770151284 0.014876471720507321 0 0.0009814519943933521 0.014898236667513692 0 0.00010481961708948493 0.013514084075125067 0 2.0893379704932902e-05 0.013056933444274596 0 0.00061583902472985583 0.013149327054613712 0 0.00044686295770151284 0.014876471720507321 0 0.00020777662539223221 0.014157807857327167 0 -8.0122676044560112e-05 0.013141460088809171 0 2.0893379704932902e-05 0.013056933444274596 0 -0.00017368930671126425 0.012984417293148368 0 -8.0122676044560112e-05 0.013141460088809171 0 0.00010481961708948493 0.013514084075125067 0 2.0893379704932902e-05 0.013056933444274596 0 0.0008829828806562268 0.016624477760070568 0 0.00080763700866489903 0.016270340158880833 0 0.00046796383879669254 0.016569301573837944 0 0.00020777662539223221 0.014157807857327167 0 -1.8698697441391307e-06 0.014886576909155192 0 -0.00040680078374696188 0.012928869433619032 0 -0.00016872214087758786 0.013190293274238686 0 -0.00034305386026096019 0.013435897704169142 0 0.00080763700866489903 0.016270340158880833 0 0.00046796383879669254 0.016569301573837944 0 0.00037012164337479604 0.016079672083683695 0 2.0893379704932902e-05 0.013056933444274596 0 -0.00017368930671126425 0.012984417293148368 0 -0.00017846449838805471 0.012947988427239751 0 -0.00014919686616775911 0.013025214222848591 0 -8.0122676044560112e-05 0.013141460088809171 0 -0.00017368930671126425 0.012984417293148368 0 -0.00014919686616775911 0.013025214222848591 0 -0.00017938533617236415 0.012940028342972525 0 -0.00017368930671126425 0.012984417293148368 0 -0.00017938533617236415 0.012940028342972525 0 -0.00017368930671126425 0.012984417293148368 0 -0.00017958770963963434 0.012942454500117368 0 8.6045373846831198e-05 0.013561758947222641 0 0.00020777662539223221 0.014157807857327167 0 -0.00017368930671126425 0.012984417293148368 0 -0.00018338012387140369 0.012967110465700833 0 -0.00017958770963963434 0.012942454500117368 0 0.00020777662539223221 0.014157807857327167 0 -0.00037237043292702725 0.013108887436137291 0 -0.00015898509508932747 0.012959586627617196 0 -0.00013721971872620212 0.012830836777555713 0 0.00012536908966688504 0.013023166741206191 0 -0.00018338012387140369 0.012967110465700833 0 -0.00015898509508932747 0.012959586627617196 0 -0.00017958770963963434 0.012942454500117368 0 -0.00015898509508932747 0.012959586627617196 0 -0.00017958770963963434 0.012942454500117368 0 -0.00013721971872620212 0.012830836777555713 0 -0.00017938533617236415 0.012940028342972525 0 -0.00017958770963963434 0.012942454500117368 0 -0.00013721971872620212 0.012830836777555713 0 -0.00015898509508932747 0.012959586627617196 0 -0.00016872214087758786 0.013190293274238686 0 1.7530382366210116e-05 0.013172898512504264 0 -0.00016872214087758786 0.013190293274238686 0 1.7530382366210116e-05 0.013172898512504264 0 7.6330907235915742e-05 0.013495612851884732 0 -0.00040680078374696188 0.012928869433619032 0 -0.00015898509508932747 0.012959586627617196 0 -0.00016872214087758786 0.013190293274238686 0 -1.4905824248423809e-05 0.013734748693364562 0 -0.00034305386026096019 0.013435897704169142 0 7.6330907235915742e-05 0.013495612851884732 0 -0.00016872214087758786 0.013190293274238686 0 -0.00034305386026096019 0.013435897704169142 0 7.6330907235915742e-05 0.013495612851884732 0 -1.4905824248423809e-05 0.013734748693364562 0 0.00018133038493997611 0.014006450592360976 0 -0.00023022785638720971 0.014039790285973304 0 -1.4905824248423809e-05 0.013734748693364562 0 -0.00034305386026096019 0.013435897704169142 0 -0.00023022785638720971 0.014039790285973304 0 -1.8698697441391307e-06 0.014886576909155192 0 1.4068712180335157e-05 0.014733861113419037 0 0.00037012164337479604 0.016079672083683695 0 0.00081812824083424046 0.015892618333784896 0 0.0006742190913216952 0.01551571724591061 0 0.00037012164337479604 0.016079672083683695 0 0.0006742190913216952 0.01551571724591061 0 0.00023436288383922815 0.015512744278538902 0 0.00080763700866489903 0.016270340158880833 0 0.00081812824083424046 0.015892618333784896 0 0.0010961382030313241 0.016061274808101975 0 0.00080763700866489903 0.016270340158880833 0 0.00037012164337479604 0.016079672083683695 0 0.00081812824083424046 0.015892618333784896 0 0.00081812824083424046 0.015892618333784896 0 0.0012307309769570745 0.01558580664495725 0 0.0006742190913216952 0.01551571724591061 0 0.00081812824083424046 0.015892618333784896 0 0.0010961382030313241 0.016061274808101975 0 0.0012307309769570745 0.01558580664495725 0 0.0010961382030313241 0.016061274808101975 0 0.0012307309769570745 0.01558580664495725 0 0.0014201253399007956 0.016115199116339615 0 0.0011707230916321531 0.016356661514977451 0 0.0010961382030313241 0.016061274808101975 0 0.0014201253399007956 0.016115199116339615 0 0.0018984543439411327 0.005249914419708698 0 0.0012739981533670529 0.005584822006319462 0 0.0017488869587957295 0.0059598912969779658 0 0.0018984543439411327 0.005249914419708698 0 0.0017488869587957295 0.0059598912969779658 0 0.0024552522577731468 0.0054495591984955087 0 0.0021955834749772373 0.0050085595286189447 0 0.0018984543439411327 0.005249914419708698 0 0.0024552522577731468 0.0054495591984955087 0 0.0021955834749772373 0.0050085595286189447 0 0.0018984543439411327 0.005249914419708698 0 0.0019952994736998058 0.0046890903173041473 0 0.0018984543439411327 0.005249914419708698 0 0.0012739981533670529 0.005584822006319462 0 0.0014559826966675591 0.004849795615285246 0 0.00073092707174078132 0.005000241894097715 0 0.0012739981533670529 0.005584822006319462 0 0.0014559826966675591 0.004849795615285246 0 0.00047948527947262476 0.006014238884466055 0 0.0012739981533670529 0.005584822006319462 0 0.0010161509776740367 0.0065554969830795128 0 0.0012739981533670529 0.005584822006319462 0 0.0010161509776740367 0.0065554969830795128 0 0.0017488869587957295 0.0059598912969779658 0 0.0021157624391524663 0.0070888242441065853 0 0.0017488869587957295 0.0059598912969779658 0 0.0024552522577731468 0.0054495591984955087 0 0.0013599776753167564 0.0097803057783586583 0 0.0015510021916623224 0.0090083810516479613 0 0.0021157624391524663 0.0070888242441065853 0 0.0010161509776740367 0.0065554969830795128 0 0.0017488869587957295 0.0059598912969779658 0 0.00075423118605410296 0.012380478799813546 0 0.00019089928732128912 0.012779905412439264 0 0.00052083087571257137 0.013094087489243646 0 0.00019089928732128912 0.012779905412439264 0 0.00012536908966688504 0.013023166741206191 0 0.00052083087571257137 0.013094087489243646 0 -0.00013721971872620212 0.012830836777555713 0 0.00019089928732128912 0.012779905412439264 0 0.00012536908966688504 0.013023166741206191 0 -3.7248260814003173e-05 0.01249334973242947 0 -0.00013721971872620212 0.012830836777555713 0 0.00019089928732128912 0.012779905412439264 0 -0.00015898509508932747 0.012959586627617196 0 0.00012536908966688504 0.013023166741206191 0 1.7530382366210116e-05 0.013172898512504264 0 0.00012536908966688504 0.013023166741206191 0 0.00034659839802827 0.013174961516296119 0 0.00018129761228152441 0.013299184912794125 0 0.00012536908966688504 0.013023166741206191 0 1.7530382366210116e-05 0.013172898512504264 0 0.00018129761228152441 0.013299184912794125 0 0.0021955834749772373 0.0050085595286189447 0 0.0024552522577731468 0.0054495591984955087 0 0.0022800737878154722 0.0047366256851177502 0 0.00012536908966688504 0.013023166741206191 0 0.00052083087571257137 0.013094087489243646 0 0.00034659839802827 0.013174961516296119 0 0.00046233618687383085 0.014445442615515761 0 0.0012319461444264426 0.0099910066263151891 0 0.00034659839802827 0.013174961516296119 0 0.00030882264619396725 0.013429746954648356 0 0.00052464820898388972 0.013624316863265196 0 0.0015510021916623224 0.0090083810516479613 0 0.0012319461444264426 0.0099910066263151891 0 0.0024552522577731468 0.0054495591984955087 0 0.0022800737878154722 0.0047366256851177502 0 0.0025769323206224349 0.0042770463212975498 0 0.00052083087571257137 0.013094087489243646 0 0.00034659839802827 0.013174961516296119 0 0.00039353617305500657 0.013329209590960343 0 0.00030882264619396725 0.013429746954648356 0 0.00033706362932928489 0.013603553372841288 0 0.00052464820898388972 0.013624316863265196 0 0.0022800737878154722 0.0047366256851177502 0 0.0025769323206224349 0.0042770463212975498 0 0.0021232568964491801 0.0042091289184535792 0 1.7530382366210116e-05 0.013172898512504264 0 0.00018129761228152441 0.013299184912794125 0 7.6330907235915742e-05 0.013495612851884732 0 0.00018129761228152441 0.013299184912794125 0 0.00022347585120928562 0.013521084013794061 0 7.6330907235915742e-05 0.013495612851884732 0 0.00018129761228152441 0.013299184912794125 0 0.00030882264619396725 0.013429746954648356 0 0.00022347585120928562 0.013521084013794061 0 0.00034659839802827 0.013174961516296119 0 0.00018129761228152441 0.013299184912794125 0 0.00030882264619396725 0.013429746954648356 0 0.00030882264619396725 0.013429746954648356 0 0.00022347585120928562 0.013521084013794061 0 0.00033706362932928489 0.013603553372841288 0 0.00022347585120928562 0.013521084013794061 0 7.6330907235915742e-05 0.013495612851884732 0 0.00024652993137485999 0.013709727123349676 0 -1.4905824248423809e-05 0.013734748693364562 0 7.6330907235915742e-05 0.013495612851884732 0 0.00024652993137485999 0.013709727123349676 0 0.00024652993137485999 0.013709727123349676 0 0.00039075431554826432 0.013707481179203659 0 0.00044443834901757148 0.013869671699195308 0 0.00022347585120928562 0.013521084013794061 0 0.00033706362932928489 0.013603553372841288 0 0.00024652993137485999 0.013709727123349676 0 0.00033706362932928489 0.013603553372841288 0 0.00024652993137485999 0.013709727123349676 0 0.00039075431554826432 0.013707481179203659 0 0.00024652993137485999 0.013709727123349676 0 0.00044443834901757148 0.013869671699195308 0 0.00018133038493997611 0.014006450592360976 0 -1.4905824248423809e-05 0.013734748693364562 0 0.00024652993137485999 0.013709727123349676 0 0.00018133038493997611 0.014006450592360976 0 0.0012319461444264426 0.0099910066263151891 0 0.0014875199630447202 0.0085800839066720105 0 0.00052464820898388972 0.013624316863265196 0 0.00044443834901757148 0.013869671699195308 0 0.00061328895827739139 0.01404224855543704 0 0.0025769323206224349 0.0042770463212975498 0 0.0021232568964491801 0.0042091289184535792 0 0.0023427349050055431 0.00354401841020536 0 0.00052464820898388972 0.013624316863265196 0 0.00039075431554826432 0.013707481179203659 0 0.00044443834901757148 0.013869671699195308 0 0.00033706362932928489 0.013603553372841288 0 0.00052464820898388972 0.013624316863265196 0 0.00039075431554826432 0.013707481179203659 0 0.0018487013536059044 0.0038266399129500898 0 0.0021232568964491801 0.0042091289184535792 0 0.0023427349050055431 0.00354401841020536 0 0.0018487013536059044 0.0038266399129500898 0 0.0021232568964491801 0.0042091289184535792 0 0.0016790864754561762 0.0043013973622005684 0 0.0018487013536059044 0.0038266399129500898 0 0.0016790864754561762 0.0043013973622005684 0 0.001303596727993803 0.0037681817719620067 0 0.0022800737878154722 0.0047366256851177502 0 0.0021232568964491801 0.0042091289184535792 0 0.0019952994736998058 0.0046890903173041473 0 0.0021232568964491801 0.0042091289184535792 0 0.0016790864754561762 0.0043013973622005684 0 0.0019952994736998058 0.0046890903173041473 0 0.0018984543439411327 0.005249914419708698 0 0.0019952994736998058 0.0046890903173041473 0 0.0014559826966675591 0.004849795615285246 0 0.0016790864754561762 0.0043013973622005684 0 0.0019952994736998058 0.0046890903173041473 0 0.0014559826966675591 0.004849795615285246 0 0.0021955834749772373 0.0050085595286189447 0 0.0022800737878154722 0.0047366256851177502 0 0.0019952994736998058 0.0046890903173041473 0 0.00073092707174078132 0.005000241894097715 0 0.0014559826966675591 0.004849795615285246 0 0.0011894624184728363 0.0043854394950932317 0 0.0016790864754561762 0.0043013973622005684 0 0.0014559826966675591 0.004849795615285246 0 0.0011894624184728363 0.0043854394950932317 0 0.0016790864754561762 0.0043013973622005684 0 0.0011894624184728363 0.0043854394950932317 0 0.001303596727993803 0.0037681817719620067 0 0.00074003109844910612 0.0041142161101366034 0 0.0011894624184728363 0.0043854394950932317 0 0.001303596727993803 0.0037681817719620067 0 0.001303596727993803 0.0037681817719620067 0 0.0011516270005346308 0.0029976284782475878 0 0.001754906432226586 0.0033969381949596343 0 0.00077156903524271212 0.0036116883963823185 0 0.001303596727993803 0.0037681817719620067 0 0.0011516270005346308 0.0029976284782475878 0 0.00034830336984491246 0.0033013311399238119 0 0.00034668160813988041 0.0033049808243753058 0 0.00035896178580091688 0.0033387711457419245 0 0.0011516270005346308 0.0029976284782475878 0 0.001754906432226586 0.0033969381949596343 0 0.0021452188682378674 0.0028565119854713789 0 0.00034830336984491246 0.0033013311399238119 0 0.00036094203241398084 0.0033728332653843226 0 0.00035896178580091688 0.0033387711457419245 0 0.00094992899505122875 0.0023447914616845978 0 0.00087277749954503124 0.0088941399980947619 0 0.0018487013536059044 0.0038266399129500898 0 0.001754906432226586 0.0033969381949596343 0 0.0023427349050055431 0.00354401841020536 0 0.001754906432226586 0.0033969381949596343 0 0.0023427349050055431 0.00354401841020536 0 0.0021452188682378674 0.0028565119854713789 0 0.0018487013536059044 0.0038266399129500898 0 0.001303596727993803 0.0037681817719620067 0 0.001754906432226586 0.0033969381949596343 0 0.00061328895827739139 0.01404224855543704 0 0.00037272841238458044 0.014247934570193297 0 0.00069441528099368696 0.014429925824245876 0 0.00044443834901757148 0.013869671699195308 0 0.00061328895827739139 0.01404224855543704 0 0.00037272841238458044 0.014247934570193297 0 0.0014875199630447202 0.0085800839066720105 0 0.00087277749954503124 0.0088941399980947619 0 0.00044443834901757148 0.013869671699195308 0 0.00018133038493997611 0.014006450592360976 0 0.00037272841238458044 0.014247934570193297 0 0.00018133038493997611 0.014006450592360976 0 0.00037272841238458044 0.014247934570193297 0 0.00013207042239677297 0.014344421082571316 0 0.00037272841238458044 0.014247934570193297 0 0.00015937606846099333 0.014566533882993844 0 0.00013207042239677297 0.014344421082571316 0 -0.00023613233257205099 0.01591054292295532 0 0.00087277749954503124 0.0088941399980947619 0 0.00015937606846099333 0.014566533882993844 0 -7.9449235312575639e-06 0.01447087679542701 0 4.5620850858831851e-05 0.014463029191020235 0 0.00037272841238458044 0.014247934570193297 0 0.00015937606846099333 0.014566533882993844 0 0.00069441528099368696 0.014429925824245876 0 1.5357207735780047e-05 0.01020986315191129 0 -0.0006766352760881766 0.0069073177796989248 0 0.00032518363578058377 0.0052398964300847369 0 -0.00072809290516979866 0.0049812503396950703 0 -0.0010809408415481394 0.0060314378308801665 0 4.5620850858831851e-05 0.014463029191020235 0 6.1838882244438326e-05 0.014407103379958991 0 -1.1169099317475304e-05 0.01441378636166926 0 -7.9449235312575639e-06 0.01447087679542701 0 4.5620850858831851e-05 0.014463029191020235 0 -1.1169099317475304e-05 0.01441378636166926 0 0.00015937606846099333 0.014566533882993844 0 6.1838882244438326e-05 0.014407103379958991 0 0.00015466367380355238 0.014501863665074572 0 0.00015937606846099333 0.014566533882993844 0 4.5620850858831851e-05 0.014463029191020235 0 6.1838882244438326e-05 0.014407103379958991 0 1.5357207735780047e-05 0.01020986315191129 0 0.0011653354016795908 0.0092959173602941737 0 6.1838882244438326e-05 0.014407103379958991 0 0.00015466367380355238 0.014501863665074572 0 0.00019290946006226455 0.014245805936998222 0 0.00032518363578058377 0.0052398964300847369 0 0.0017000344684186691 0.0044581152032151595 0 0.00053467069755865559 0.0039385360706136567 0 0.00032518363578058377 0.0052398964300847369 0 -0.00072809290516979866 0.0049812503396950703 0 -0.0004466706215032353 0.0040580352959361365 0 0.00032518363578058377 0.0052398964300847369 0 -0.0004466706215032353 0.0040580352959361365 0 0.00053467069755865559 0.0039385360706136567 0 -0.00072809290516979866 0.0049812503396950703 0 -0.0014883858905650983 0.0041850820128058091 0 -0.0004466706215032353 0.0040580352959361365 0 -0.00072809290516979866 0.0049812503396950703 0 -0.0010809408415481394 0.0060314378308801665 0 -0.0014883858905650983 0.0041850820128058091 0 -0.0006766352760881766 0.0069073177796989248 0 -0.0005752983011912626 0.0034255999939317434 0 0.00038939697188801768 0.0033355535403787637 0 0.00036094009123118382 0.0033008255037876842 0 0.00038297140854672977 0.0032399405192415887 0 0.00034036183457601172 0.0032741850389862749 0 0.00036094009123118382 0.0033008255037876842 0 0.00038297140854672977 0.0032399405192415887 0 0.00034830336984491246 0.0033013311399238119 0 0.00034668160813988041 0.0033049808243753058 0 0.00033950263742091232 0.0032844511218603008 0 0.00034036183457601172 0.0032741850389862749 0 0.00034668160813988041 0.0033049808243753058 0 0.00036094009123118382 0.0033008255037876842 0 0.00034036183457601172 0.0032741850389862749 0 0.00034668160813988041 0.0033049808243753058 0 0.00033950263742091232 0.0032844511218603008 0 0.00034668160813988041 0.0033049808243753058 0 0.00035896178580091688 0.0033387711457419245 0 0.00036094009123118382 0.0033008255037876842 0 0.00035896178580091688 0.0033387711457419245 0 0.00038939697188801768 0.0033355535403787637 0 0.00036094009123118382 0.0033008255037876842 0 0.00087277749954503124 0.0088941399980947619 0 -0.0006766352760881766 0.0069073177796989248 0 0.0011146813434788176 0.003908305981814247 0 -0.0006766352760881766 0.0069073177796989248 0 0.00036094203241398084 0.0033728332653843226 0 0.00035896178580091688 0.0033387711457419245 0 0.00035293376752458522 0.003373210184272629 0 0.0012307309769570745 0.01558580664495725 0 0.0008799129316769185 0.015119580631822662 0 0.0012780755437293632 0.014774289605856059 0 0.0012307309769570745 0.01558580664495725 0 0.0006742190913216952 0.01551571724591061 0 0.0008799129316769185 0.015119580631822662 0 0.0006742190913216952 0.01551571724591061 0 0.0008799129316769185 0.015119580631822662 0 0.00056555899966604251 0.014888606291194694 0 0.0008799129316769185 0.015119580631822662 0 0.00056555899966604251 0.014888606291194694 0 0.00090537647750383362 0.014775107037106187 0 0.00056555899966604251 0.014888606291194694 0 0.00023436288383922815 0.015512744278538902 0 0.00010623917200511417 0.014696958872812875 0 0.0006742190913216952 0.01551571724591061 0 0.00056555899966604251 0.014888606291194694 0 0.00023436288383922815 0.015512744278538902 0 0.00018133038493997611 0.014006450592360976 0 -0.00023022785638720971 0.014039790285973304 0 0.00013207042239677297 0.014344421082571316 0 1.4068712180335157e-05 0.014733861113419037 0 8.3196884347502462e-05 0.014704311882062473 0 -0.00023022785638720971 0.014039790285973304 0 0.00013207042239677297 0.014344421082571316 0 0.00010623917200511417 0.014696958872812875 0 0.00015937606846099333 0.014566533882993844 0 0.00013207042239677297 0.014344421082571316 0 0.00010623917200511417 0.014696958872812875 0 0.00010623917200511417 0.014696958872812875 0 0.00015466367380355238 0.014501863665074572 0 0.00036675548342363502 0.014494784929736057 0 0.00015937606846099333 0.014566533882993844 0 0.00010623917200511417 0.014696958872812875 0 0.00015466367380355238 0.014501863665074572 0 0.00015466367380355238 0.014501863665074572 0 0.00019290946006226455 0.014245805936998222 0 0.00036675548342363502 0.014494784929736057 0 0.00036675548342363502 0.014494784929736057 0 0.00075815433041866393 0.014440396556134391 0 0.00054806064511533773 0.013998619418649182 0 0.00019290946006226455 0.014245805936998222 0 0.00036675548342363502 0.014494784929736057 0 0.00054806064511533773 0.013998619418649182 0 0.00056555899966604251 0.014888606291194694 0 0.00036675548342363502 0.014494784929736057 0 0.00075815433041866393 0.014440396556134391 0 0.00056555899966604251 0.014888606291194694 0 0.00010623917200511417 0.014696958872812875 0 0.00036675548342363502 0.014494784929736057 0 0.00056555899966604251 0.014888606291194694 0 0.00090537647750383362 0.014775107037106187 0 0.00075815433041866393 0.014440396556134391 0 0.00090537647750383362 0.014775107037106187 0 0.00075815433041866393 0.014440396556134391 0 0.0012780755437293632 0.014774289605856059 0 0.0011987229254339737 0.016244051780282549 0 0.00078266876589081066 0.0084362605250714717 0 0.0012780755437293632 0.014774289605856059 0 0.0012278787722974412 0.014181906583835517 0 0.0016421952905518659 0.014415639478463018 0 0.00075815433041866393 0.014440396556134391 0 0.0012780755437293632 0.014774289605856059 0 0.0012278787722974412 0.014181906583835517 0 0.0008799129316769185 0.015119580631822662 0 0.00090537647750383362 0.014775107037106187 0 0.0012780755437293632 0.014774289605856059 0 0.0011885179222114789 0.013244264100591268 0 0.0018122557684617214 0.013407518924274156 0 0.0023749786674996652 0.012472902104601207 0 0.0011556600005654038 0.0034608578823595556 0 0.0013670307887894923 0.0028221747602583001 0 0.0020738808697038013 0.0028592291992999073 0 0.0010832774261139446 0.0081970551747677714 0 0.0024433855991000493 0.0094768094958340206 0 0.0012278787722974412 0.014181906583835517 0 0.0016182857556454777 0.014210539644940755 0 0.0014990995638616744 0.014107364215344703 0 0.0014119238578488163 0.013957082910971913 0 0.0013320744889901053 0.014350450141594799 0 0.0011885179222114789 0.013244264100591268 0 0.0012278787722974412 0.014181906583835517 0 0.0018122557684617214 0.013407518924274156 0 0.00075815433041866393 0.014440396556134391 0 0.0012278787722974412 0.014181906583835517 0 0.00034904719563907553 0.013805571459089686 0 0.0011885179222114789 0.013244264100591268 0 0.0012278787722974412 0.014181906583835517 0 0.00034904719563907553 0.013805571459089686 0 0.0010832774261139446 0.0081970551747677714 0 0.00078266876589081066 0.0084362605250714717 0 0.0011556600005654038 0.0034608578823595556 0 0.00041204476457105472 0.0033294370174857674 0 0.00071272395798824403 0.0027003741552327964 0 0.0011556600005654038 0.0034608578823595556 0 0.00041204476457105472 0.0033294370174857674 0 0.00012321681391586333 0.0040813529826600218 0 0.00041204476457105472 0.0033294370174857674 0 0.00012321681391586333 0.0040813529826600218 0 -0.00044823629856597091 0.0028527431351297568 0 0.00078266876589081066 0.0084362605250714717 0 0.00082407329968618476 0.0013784257091970901 0 0.0011653354016795908 0.0092959173602941737 0 0.00078266876589081066 0.0084362605250714717 0 0.0017000344684186691 0.0044581152032151595 0 0.0030779749956674181 0.0036987398624841084 0 0.0012820198457623145 0.0030838233306843331 0 0.0030779749956674181 0.0036987398624841084 0 0.0012820198457623145 0.0030838233306843331 0 0.0021894401526492946 0.0018626538905870947 0 0.0012820198457623145 0.0030838233306843331 0 0.0021894401526492946 0.0018626538905870947 0 0.00078482688646061647 0.0016690474737994575 0 0.0021894401526492946 0.0018626538905870947 0 0.001249188548602432 0.00015786250675217425 0 0.00078482688646061647 0.0016690474737994575 0 0.00082407329968618476 0.0013784257091970901 0 0.00018283889116437911 0.0013829221182768761 0 -0.00044823629856597091 0.0028527431351297568 0 -0.0009967993820096388 0.0016987108617312673 0 0.00022314723571819776 0.0019906824351127741 0 0.00018283889116437911 0.0013829221182768761 0 0.00046387414775446 0.0018742114398817254 0 0.00041204476457105472 0.0033294370174857674 0 -0.00044823629856597091 0.0028527431351297568 0 0.00071272395798824403 0.0027003741552327964 0 -0.00044823629856597091 0.0028527431351297568 0 0.00022314723571819776 0.0019906824351127741 0 0.00071272395798824403 0.0027003741552327964 0 0.00022314723571819776 0.0019906824351127741 0 0.00071272395798824403 0.0027003741552327964 0 0.0014789426305945822 0.0022535080738884895 0 0.00086026074368836789 0.0017275494784762119 0 0.0014789426305945822 0.0022535080738884895 0 0.0013661304030125542 0.0016683230715086414 0 0.00046387414775446 0.0018742114398817254 0 0.001499806410817015 0.0022229318411748581 0 0.0014789426305945822 0.0022535080738884895 0 0.0018513624879550022 0.0019050871761776319 0 0.0013661304030125542 0.0016683230715086414 0 0.0014789426305945822 0.0022535080738884895 0 0.0013670307887894923 0.0028221747602583001 0 0.0020738808697038013 0.0028592291992999073 0 0.00071272395798824403 0.0027003741552327964 0 0.0014789426305945822 0.0022535080738884895 0 0.0013670307887894923 0.0028221747602583001 0 0.0011556600005654038 0.0034608578823595556 0 0.00071272395798824403 0.0027003741552327964 0 0.0013670307887894923 0.0028221747602583001 0 -0.00098636649693594684 0.0031571728452043542 0 -0.00092467421975332286 0.0023456465842882366 0 -0.0018851082490571732 0.002334635079685665 0 -0.00061262899441664846 0.00043501439058284759 0 -0.00068553801567613429 0.00040325079267591673 0 -0.00072911634909607489 0.00052077449297297104 0 -0.00068553801567613429 0.00040325079267591673 0 -0.00072911634909607489 0.00052077449297297104 0 -0.00079362978376293098 0.00039588779072519993 0 -0.00046749190588711852 0.0018840845048354795 0 -0.00013428964966165772 0.0018031707630945227 0 0.00034036183457601172 0.0032741850389862749 0 0.00032150234546721298 0.0032075920893755569 0 0.00038297140854672977 0.0032399405192415887 0 0.00036127080412814511 0.0031229839544341066 0 0.00032150234546721298 0.0032075920893755569 0 0.00038297140854672977 0.0032399405192415887 0 -0.00098636649693594684 0.0031571728452043542 0 -0.0018851082490571732 0.002334635079685665 0 -0.0014883858905650983 0.0041850820128058091 0 -0.00046749190588711852 0.0018840845048354795 0 -0.0005752983011912626 0.0034255999939317434 0 -0.00098636649693594684 0.0031571728452043542 0 -0.0014883858905650983 0.0041850820128058091 0 -0.0004466706215032353 0.0040580352959361365 0 -0.0004466706215032353 0.0040580352959361365 0 0.00053467069755865559 0.0039385360706136567 0 -9.1107310401265814e-05 0.0028700125874414058 0 -0.00098636649693594684 0.0031571728452043542 0 -0.0004466706215032353 0.0040580352959361365 0 -9.1107310401265814e-05 0.0028700125874414058 0 0.0012820198457623145 0.0030838233306843331 0 0.00053467069755865559 0.0039385360706136567 0 -9.1107310401265814e-05 0.0028700125874414058 0 0.0017000344684186691 0.0044581152032151595 0 0.0012820198457623145 0.0030838233306843331 0 0.00053467069755865559 0.0039385360706136567 0 0.0012820198457623145 0.0030838233306843331 0 -9.1107310401265814e-05 0.0028700125874414058 0 0.00078482688646061647 0.0016690474737994575 0 -0.00092467421975332286 0.0023456465842882366 0 -9.1107310401265814e-05 0.0028700125874414058 0 -0.00022972932680211225 0.0016788806460772173 0 -0.00098636649693594684 0.0031571728452043542 0 -0.00092467421975332286 0.0023456465842882366 0 -9.1107310401265814e-05 0.0028700125874414058 0 -9.1107310401265814e-05 0.0028700125874414058 0 -0.00022972932680211225 0.0016788806460772173 0 0.00078482688646061647 0.0016690474737994575 0 -0.00092467421975332286 0.0023456465842882366 0 -0.00022972932680211225 0.0016788806460772173 0 -0.0012045125753819877 0.0014736265913523534 0 -0.00022972932680211225 0.0016788806460772173 0 -0.00040845904389265249 0.00057900273352252626 0 -0.0012045125753819877 0.0014736265913523534 0 -0.00022972932680211225 0.0016788806460772173 0 0.00078482688646061647 0.0016690474737994575 0 0.00031367027446872785 0.00066320442008231716 0 0.001249188548602432 0.00015786250675217425 0 0.00031367027446872785 0.00066320442008231716 0 -0.00016893421919609235 5.45371140783619e-05 0 0.001249188548602432 0.00015786250675217425 0 0.00078482688646061647 0.0016690474737994575 0 0.00031367027446872785 0.00066320442008231716 0 -0.00022972932680211225 0.0016788806460772173 0 0.00031367027446872785 0.00066320442008231716 0 -0.00040845904389265249 0.00057900273352252626 0 -0.00040845904389265249 0.00057900273352252626 0 -0.00047461033382356166 0.00032203477321760411 0 -0.00016893421919609235 5.45371140783619e-05 0 0.00031367027446872785 0.00066320442008231716 0 -0.00040845904389265249 0.00057900273352252626 0 -0.00016893421919609235 5.45371140783619e-05 0 -0.00047461033382356166 0.00032203477321760411 0 -0.00056732646100872896 0.00032719711131204155 0 -0.00051039426113327706 0.00028208354078448379 0 -0.00047461033382356166 0.00032203477321760411 0 -0.00049577469687209946 0.00043072621743455006 0 -0.00056732646100872896 0.00032719711131204155 0 -0.00049577469687209946 0.00043072621743455006 0 -0.00055717716426020554 0.00039345609149934324 0 -0.00056732646100872896 0.00032719711131204155 0 -0.00040845904389265249 0.00057900273352252626 0 -0.00049577469687209946 0.00043072621743455006 0 -0.00051257865417502044 0.00042586364975691961 0 -0.00040845904389265249 0.00057900273352252626 0 -0.00047461033382356166 0.00032203477321760411 0 -0.00049577469687209946 0.00043072621743455006 0 -0.00048515989897912127 0.0006050140737421804 0 -0.00081357709555874441 0.00098423256074277495 0 -0.00051257865417502044 0.00042586364975691961 0 -0.00055717716426020554 0.00039345609149934324 0 -0.00060349078193678565 0.00041515343654991636 0 -0.00049577469687209946 0.00043072621743455006 0 -0.00051257865417502044 0.00042586364975691961 0 -0.00055717716426020554 0.00039345609149934324 0 -0.00059070017639885851 0.00047704022239644661 0 -0.00051257865417502044 0.00042586364975691961 0 -0.00060349078193678565 0.00041515343654991636 0 -0.00046749190588711852 0.0018840845048354795 0 -0.00081357709555874441 0.00098423256074277495 0 -0.00092467421975332286 0.0023456465842882366 0 -0.0018851082490571732 0.002334635079685665 0 -0.0012045125753819877 0.0014736265913523534 0 -0.00061262899441664846 0.00043501439058284759 0 -0.00068553801567613429 0.00040325079267591673 0 -0.00060349078193678565 0.00041515343654991636 0 -0.00046749190588711852 0.0018840845048354795 0 -0.00069133915920398541 0.00049831866833861599 0 -0.00068553801567613429 0.00040325079267591673 0 -0.00060349078193678565 0.00041515343654991636 0 -0.00063761705431624642 0.00035469318788809972 0 -0.00055717716426020554 0.00039345609149934324 0 -0.00060349078193678565 0.00041515343654991636 0 -0.00063761705431624642 0.00035469318788809972 0 -0.00068553801567613429 0.00040325079267591673 0 -0.00063761705431624642 0.00035469318788809972 0 -0.00075307662615700763 0.00030963669931097557 0 -0.00063761705431624642 0.00035469318788809972 0 -0.0006704540204491566 0.00026231642230536842 0 -0.00075307662615700763 0.00030963669931097557 0 -0.00063761705431624642 0.00035469318788809972 0 -0.00056732646100872896 0.00032719711131204155 0 -0.0006704540204491566 0.00026231642230536842 0 -0.00055717716426020554 0.00039345609149934324 0 -0.00063761705431624642 0.00035469318788809972 0 -0.00056732646100872896 0.00032719711131204155 0 -0.00056732646100872896 0.00032719711131204155 0 -0.00060121955463685842 0.00026552544452787476 0 -0.0006704540204491566 0.00026231642230536842 0 -0.00056732646100872896 0.00032719711131204155 0 -0.00060121955463685842 0.00026552544452787476 0 -0.00051039426113327706 0.00028208354078448379 0 -0.00060121955463685842 0.00026552544452787476 0 -0.0006704540204491566 0.00026231642230536842 0 -0.00065726037421651444 0.00018322431933376015 0 -0.0006704540204491566 0.00026231642230536842 0 -0.00080344412328375685 0.00017746697838795134 0 -0.00065726037421651444 0.00018322431933376015 0 -0.00080344412328375685 0.00017746697838795134 0 -0.00094125359966503092 0.00022825286643315775 0 -0.00075307662615700763 0.00030963669931097557 0 -0.0006704540204491566 0.00026231642230536842 0 -0.00080344412328375685 0.00017746697838795134 0 -0.00075307662615700763 0.00030963669931097557 0 -0.00098362326364295673 5.274244074215362e-05 0 -0.00094125359966503092 0.00022825286643315775 0 -0.0012061083020727345 5.4716586041423454e-05 0 -0.00080344412328375685 0.00017746697838795134 0 -0.00098362326364295673 5.274244074215362e-05 0 -0.00094125359966503092 0.00022825286643315775 0 -0.00094125359966503092 0.00022825286643315775 0 -0.00095313065560297268 0.00038075852727298491 0 -0.0011029471568436034 0.00029618857264599396 0 -0.00094125359966503092 0.00022825286643315775 0 -0.00079362978376293098 0.00039588779072519993 0 -0.00095313065560297268 0.00038075852727298491 0 -0.00094125359966503092 0.00022825286643315775 0 -0.00075307662615700763 0.00030963669931097557 0 -0.00079362978376293098 0.00039588779072519993 0 -0.00068553801567613429 0.00040325079267591673 0 -0.00075307662615700763 0.00030963669931097557 0 -0.00079362978376293098 0.00039588779072519993 0 -0.00079362978376293098 0.00039588779072519993 0 -0.00095313065560297268 0.00038075852727298491 0 -0.00087740566406991011 0.00052875877991349213 0 -0.00095313065560297268 0.00038075852727298491 0 -0.0010486629806907653 0.00046132036246971378 0 -0.0011029471568436034 0.00029618857264599396 0 -0.0010466830423549118 0.00050464520554062658 0 -0.0010396805619649117 0.00052469096836230426 0 -0.0010486629806907653 0.00046132036246971378 0 -0.00087740566406991011 0.00052875877991349213 0 -0.0010452474449113185 0.00071455146206888902 0 -0.00095313065560297268 0.00038075852727298491 0 -0.0010486629806907653 0.00046132036246971378 0 -0.00087740566406991011 0.00052875877991349213 0 -0.00072911634909607489 0.00052077449297297104 0 -0.00087740566406991011 0.00052875877991349213 0 -0.00086788795115144148 0.00070972452223915807 0 -0.00013428964966165772 0.0018031707630945227 0 -0.00033061733752907854 0.0021293010965362531 0 -0.00072911634909607489 0.00052077449297297104 0 -0.00079362978376293098 0.00039588779072519993 0 -0.00087740566406991011 0.00052875877991349213 0 -0.0013482939452456248 0.00035817954769060069 0 -0.0014778847343454658 0.00041859259640992917 0 -0.0011963978316485669 0.00044751727121856251 0 -0.0013482939452456248 0.00035817954769060069 0 -0.0011835466175364063 0.00037175589262174164 0 -0.0011963978316485669 0.00044751727121856251 0 -0.0010486629806907653 0.00046132036246971378 0 -0.0011835466175364063 0.00037175589262174164 0 -0.0011963978316485669 0.00044751727121856251 0 -0.0011835466175364063 0.00037175589262174164 0 -0.0011029471568436034 0.00029618857264599396 0 -0.0013363553143129531 0.00023394351693859739 0 -0.0010486629806907653 0.00046132036246971378 0 -0.0011835466175364063 0.00037175589262174164 0 -0.0011029471568436034 0.00029618857264599396 0 -0.0013482939452456248 0.00035817954769060069 0 -0.0013363553143129531 0.00023394351693859739 0 -0.0015562830081148119 0.00028996675300590135 0 -0.0013482939452456248 0.00035817954769060069 0 -0.0011835466175364063 0.00037175589262174164 0 -0.0013363553143129531 0.00023394351693859739 0 -0.0013363553143129531 0.00023394351693859739 0 -0.0012061083020727345 5.4716586041423454e-05 0 -0.0014904961126224275 -7.9317956634993412e-06 0 -0.00094125359966503092 0.00022825286643315775 0 -0.0011029471568436034 0.00029618857264599396 0 -0.0012061083020727345 5.4716586041423454e-05 0 -0.0011029471568436034 0.00029618857264599396 0 -0.0013363553143129531 0.00023394351693859739 0 -0.0012061083020727345 5.4716586041423454e-05 0 -0.0012061083020727345 5.4716586041423454e-05 0 -0.0014904961126224275 -7.9317956634993412e-06 0 -0.0014861951922709438 -0.00031126040488522962 0 -0.0014904961126224275 -7.9317956634993412e-06 0 -0.0017202796077536969 8.2852453432716503e-05 0 -0.0017389827467803145 -0.00031116945918899464 0 -0.0017202796077536969 8.2852453432716503e-05 0 -0.0019667176873007387 -0.00032612966157385286 0 -0.0017389827467803145 -0.00031116945918899464 0 -0.0017202796077536969 8.2852453432716503e-05 0 -0.0015291307510810757 0.00015262346624437032 0 -0.0015562830081148119 0.00028996675300590135 0 -0.0013363553143129531 0.00023394351693859739 0 -0.0014904961126224275 -7.9317956634993412e-06 0 -0.0015291307510810757 0.00015262346624437032 0 -0.0014904961126224275 -7.9317956634993412e-06 0 -0.0017202796077536969 8.2852453432716503e-05 0 -0.0015291307510810757 0.00015262346624437032 0 -0.0022789821544274081 -0.00040924069752663878 0 -0.0020610854009920541 -0.00014913248520040227 0 -0.0021389130479002511 -0.00039290613078056346 0 -0.0019711024206864121 1.7352205300803605e-05 0 -0.0018651852590726515 5.1718787727941065e-05 0 -0.0018977189226755599 0.00011575923759133325 0 -0.0020610854009920541 -0.00014913248520040227 0 -0.0019667176873007387 -0.00032612966157385286 0 -0.0021389130479002511 -0.00039290613078056346 0 -0.0017202796077536969 8.2852453432716503e-05 0 -0.0020610854009920541 -0.00014913248520040227 0 -0.0019667176873007387 -0.00032612966157385286 0 -0.0017202796077536969 8.2852453432716503e-05 0 -0.0018651852590726515 5.1718787727941065e-05 0 -0.0018977189226755599 0.00011575923759133325 0 -0.0017202796077536969 8.2852453432716503e-05 0 -0.0018977189226755599 0.00011575923759133325 0 -0.0017833056750827614 0.00027787541982264054 0 -0.0016826768261698098 0.00011197668540730341 0 -0.0020485874162463249 -0.0001639388714428467 0 -0.001351330274605348 0.00056566508811463259 0 -0.0011452415537962851 0.00039458069489098276 0 -0.0015005885882211191 0.00032457192019134847 0 -0.0013396305086218303 0.00044463433779866975 0 -0.0015866267480093416 0.0004101861878660543 0 -0.00079683230061422723 0.00058273823529365822 0 -0.00094681304176846132 0.00076744323432748193 0 -0.0010407194349678079 0.00055190393101853404 0 -0.00094681304176846132 0.00076744323432748193 0 -0.0010407194349678079 0.00055190393101853404 0 -0.001351330274605348 0.00056566508811463259 0 -0.0010407194349678079 0.00055190393101853404 0 -0.001351330274605348 0.00056566508811463259 0 -0.0011452415537962851 0.00039458069489098276 0 -0.00087355105529094128 0.00044785536048540952 0 -0.0010407194349678079 0.00055190393101853404 0 -0.0011452415537962851 0.00039458069489098276 0 -0.0013363553143129531 0.00023394351693859739 0 -0.0015291307510810757 0.00015262346624437032 0 -0.0015562830081148119 0.00028996675300590135 0 -0.0017202796077536969 8.2852453432716503e-05 0 -0.0017833056750827614 0.00027787541982264054 0 -0.0015562830081148119 0.00028996675300590135 0 -0.0015866267480093416 0.0004101861878660543 0 -0.0016424310343154478 0.00041252837703675897 0 -0.0017833056750827614 0.00027787541982264054 0 -0.0015562830081148119 0.00028996675300590135 0 -0.0016529370097887299 0.00041790312898725313 0 -0.0015562830081148119 0.00028996675300590135 0 -0.0014778847343454658 0.00041859259640992917 0 -0.0016529370097887299 0.00041790312898725313 0 -0.0013482939452456248 0.00035817954769060069 0 -0.0015562830081148119 0.00028996675300590135 0 -0.0014778847343454658 0.00041859259640992917 0 -0.0014778847343454658 0.00041859259640992917 0 -0.0016529370097887299 0.00041790312898725313 0 -0.0016091906932786477 0.00048339654297592109 0 -0.0016529370097887299 0.00041790312898725313 0 -0.0018108175798194944 0.00039985462360609075 0 -0.0015005885882211191 0.00032457192019134847 0 -0.0016529370097887299 0.00041790312898725313 0 -0.0018108175798194944 0.00039985462360609075 0 -0.0016091906932786477 0.00048339654297592109 0 -0.0018108175798194944 0.00039985462360609075 0 -0.0016091906932786477 0.00048339654297592109 0 -0.0017696256893783725 0.00065245938274539862 0 -0.001351330274605348 0.00056566508811463259 0 -0.0016529370097887299 0.00041790312898725313 0 -0.0015005885882211191 0.00032457192019134847 0 -0.00083789056509484894 0.00026914288819895356 0 -0.0011452415537962851 0.00039458069489098276 0 -0.0011824252032583955 0.00017726838720828482 0 -0.0011452415537962851 0.00039458069489098276 0 -0.0015005885882211191 0.00032457192019134847 0 -0.0011824252032583955 0.00017726838720828482 0 -0.0018108175798194944 0.00039985462360609075 0 -0.0015005885882211191 0.00032457192019134847 0 -0.0016333911900542175 0.00017296967289044546 0 -0.0015005885882211191 0.00032457192019134847 0 -0.0011824252032583955 0.00017726838720828482 0 -0.0016333911900542175 0.00017296967289044546 0 -0.0011824252032583955 0.00017726838720828482 0 -0.001193319740458811 -0.00022139754548716384 0 -0.0016333911900542175 0.00017296967289044546 0 -0.001193319740458811 -0.00022139754548716384 0 -0.0016333911900542175 0.00017296967289044546 0 -0.0016516946553817293 -0.00020314108486727128 0 -0.0016333911900542175 0.00017296967289044546 0 -0.0016516946553817293 -0.00020314108486727128 0 -0.0023537200307834532 0.00062187709239931114 0 -0.0019025889981119162 -0.0010031668230643205 0 -0.0016516946553817293 -0.00020314108486727128 0 -0.0023537200307834532 0.00062187709239931114 0 -0.00095699317901003027 -0.00075325272210242857 0 -0.001193319740458811 -0.00022139754548716384 0 -0.0012835233620549823 -0.00070788927544614426 0 -0.001193319740458811 -0.00022139754548716384 0 -0.0016516946553817293 -0.00020314108486727128 0 -0.0012835233620549823 -0.00070788927544614426 0 -0.0015594496744155124 -0.00086980527759437606 0 -0.0016516946553817293 -0.00020314108486727128 0 -0.0012835233620549823 -0.00070788927544614426 0 -0.0016091906932786477 0.00048339654297592109 0 -0.0017696256893783725 0.00065245938274539862 0 -0.0013133073494777955 0.00076512770492520382 0 -0.0017696256893783725 0.00065245938274539862 0 -0.0016664169628789786 0.0015288882743076338 0 -0.0013133073494777955 0.00076512770492520382 0 -0.0018108175798194944 0.00039985462360609075 0 -0.0017696256893783725 0.00065245938274539862 0 -0.0023537200307834532 0.00062187709239931114 0 -0.0018108175798194944 0.00039985462360609075 0 -0.0016333911900542175 0.00017296967289044546 0 -0.0023537200307834532 0.00062187709239931114 0 -0.0017696256893783725 0.00065245938274539862 0 -0.0023537200307834532 0.00062187709239931114 0 -0.0016664169628789786 0.0015288882743076338 0 -0.0024922585831301863 0.0021109415340478336 0 -0.0023537200307834532 0.00062187709239931114 0 -0.0016664169628789786 0.0015288882743076338 0 -0.0016664169628789786 0.0015288882743076338 0 -0.0013133073494777955 0.00076512770492520382 0 -0.00099832045766050088 0.001437553914246766 0 -0.0010850299765587581 0.0022569209664305254 0 -0.0016664169628789786 0.0015288882743076338 0 -0.00099832045766050088 0.001437553914246766 0 -0.0013133073494777955 0.00076512770492520382 0 -0.00093399894568672534 0.00087474295920961904 0 -0.001105194221708501 0.00065569702064456972 0 -0.0013133073494777955 0.00076512770492520382 0 -0.00093399894568672534 0.00087474295920961904 0 -0.00099832045766050088 0.001437553914246766 0 -0.00048460267185098256 0.00061075454965811202 0 -0.0010159816828029756 0.0013960736053050473 0 -0.00020592316587933517 0.00053050808293251487 0 -0.00019856217316820872 0.0012846830944599273 0 0.00017904873909701529 0.00068511636510079242 0 -0.00019856217316820872 0.0012846830944599273 0 -0.0003381413855976986 0.0022916809610917378 0 0.00057916563236861274 0.0013522588529864205 0 -0.00020592316587933517 0.00053050808293251487 0 -0.00019856217316820872 0.0012846830944599273 0 -0.00099832045766050088 0.001437553914246766 0 -0.00019856217316820872 0.0012846830944599273 0 -0.00099832045766050088 0.001437553914246766 0 -0.0003381413855976986 0.0022916809610917378 0 -0.0010850299765587581 0.0022569209664305254 0 -0.00099832045766050088 0.001437553914246766 0 -0.0003381413855976986 0.0022916809610917378 0 0.00030345984230755461 0.0036462846674318035 0 0.00056186628908137511 0.0033704817907663914 0 0.00037149397902975741 0.0032622228679554093 0 0.00056186628908137511 0.0033704817907663914 0 0.00037149397902975741 0.0032622228679554093 0 0.00037060610639191594 0.0032492287656698936 0 -0.00019856217316820872 0.0012846830944599273 0 0.00057916563236861274 0.0013522588529864205 0 0.00017904873909701529 0.00068511636510079242 0 0.00077156903524271212 0.0036116883963823185 0 0.0011516270005346308 0.0029976284782475878 0 0.00056186628908137511 0.0033704817907663914 0 0.0011516270005346308 0.0029976284782475878 0 0.00056186628908137511 0.0033704817907663914 0 0.00037060610639191594 0.0032492287656698936 0 0.00034830336984491246 0.0033013311399238119 0 0.00035109170212073963 0.003274334415084183 0 0.00033950263742091232 0.0032844511218603008 0 0.00094992899505122875 0.0023447914616845978 0 0.00028660635321416415 0.0034615097452138904 0 0.00034830336984491246 0.0033013311399238119 0 0.00037060610639191594 0.0032492287656698936 0 0.00035109170212073963 0.003274334415084183 0 0.00057916563236861274 0.0013522588529864205 0 0.00017904873909701529 0.00068511636510079242 0 0.00052247106734268464 -0.00041875001626847465 0 0.00037149397902975741 0.0032622228679554093 0 0.00037060610639191594 0.0032492287656698936 0 0.00035092042918877632 0.0032587385944561494 0 0.00037060610639191594 0.0032492287656698936 0 0.00035109170212073963 0.003274334415084183 0 0.00035092042918877632 0.0032587385944561494 0 0.00053178104236742299 0.002368963393906198 0 -0.00034812388584819351 0.0012731265739758372 0 -0.00020592316587933517 0.00053050808293251487 0 0.00017904873909701529 0.00068511636510079242 0 0.00052247106734268464 -0.00041875001626847465 0 -0.00048460267185098256 0.00061075454965811202 0 -0.00034812388584819351 0.0012731265739758372 0 -0.00094746943540601088 0.00064500969145266855 0 -0.0010397163672935478 0.00049644408359711455 0 -0.0011054697940995164 0.00054653456068089743 0 -0.00034812388584819351 0.0012731265739758372 0 -0.0010396805619649117 0.00052469096836230426 0 -0.00034812388584819351 0.0012731265739758372 0 -0.00033061733752907854 0.0021293010965362531 0 0.00035092042918877632 0.0032587385944561494 0 0.00033950263742091232 0.0032844511218603008 0 0.00032357972295100391 0.0032659726946186853 0 0.00035109170212073963 0.003274334415084183 0 0.00035092042918877632 0.0032587385944561494 0 0.00033950263742091232 0.0032844511218603008 0 0.00034036183457601172 0.0032741850389862749 0 0.00032150234546721298 0.0032075920893755569 0 0.00032357972295100391 0.0032659726946186853 0 0.00034036183457601172 0.0032741850389862749 0 0.00033950263742091232 0.0032844511218603008 0 0.00032357972295100391 0.0032659726946186853 0 -0.0010389903841903046 0.00095043821083895422 0 -0.00086788795115144148 0.00070972452223915807 0 -0.0010452474449113185 0.00071455146206888902 0 -0.00087740566406991011 0.00052875877991349213 0 -0.00086788795115144148 0.00070972452223915807 0 -0.0010452474449113185 0.00071455146206888902 0 -0.0010397163672935478 0.00049644408359711455 0 -0.0011963978316485669 0.00044751727121856251 0 -0.0011054697940995164 0.00054653456068089743 0 -0.0011963978316485669 0.00044751727121856251 0 -0.0013048817608911877 0.00051517089465021807 0 -0.0011054697940995164 0.00054653456068089743 0 -0.0010486629806907653 0.00046132036246971378 0 -0.0010397163672935478 0.00049644408359711455 0 -0.0011963978316485669 0.00044751727121856251 0 -0.0014778847343454658 0.00041859259640992917 0 -0.0016091906932786477 0.00048339654297592109 0 -0.0013048817608911877 0.00051517089465021807 0 -0.0014778847343454658 0.00041859259640992917 0 -0.0011963978316485669 0.00044751727121856251 0 -0.0013048817608911877 0.00051517089465021807 0 -0.0016091906932786477 0.00048339654297592109 0 -0.0013133073494777955 0.00076512770492520382 0 -0.0013048817608911877 0.00051517089465021807 0 -0.0013133073494777955 0.00076512770492520382 0 -0.0013048817608911877 0.00051517089465021807 0 -0.001105194221708501 0.00065569702064456972 0 -0.00094746943540601088 0.00064500969145266855 0 -0.001105194221708501 0.00065569702064456972 0 -0.0011054697940995164 0.00054653456068089743 0 -0.00093399894568672534 0.00087474295920961904 0 -0.00094746943540601088 0.00064500969145266855 0 -0.001105194221708501 0.00065569702064456972 0 -0.0013048817608911877 0.00051517089465021807 0 -0.001105194221708501 0.00065569702064456972 0 -0.0011054697940995164 0.00054653456068089743 0 3.7074807741475361e-09 0.03499927382427611 0 2.6549390038788339e-05 0.034794383332396879 0 -1.6486153620059311e-08 0.03499986252457192 0 3.834887566615415e-05 0.03480174741266704 0 4.683787615074962e-05 0.034659815432411506 0 5.8211013582803423e-05 0.034791926880025817 0 4.683787615074962e-05 0.034659815432411506 0 2.7785127487021007e-05 0.034768322906312286 0 5.8211013582803423e-05 0.034791926880025817 0 5.8211013582803423e-05 0.034791926880025817 0 3.7074807741475361e-09 0.03499927382427611 0 6.7033042655872371e-05 0.034789896423247035 0 3.834887566615415e-05 0.03480174741266704 0 5.8211013582803423e-05 0.034791926880025817 0 3.7074807741475361e-09 0.03499927382427611 0 3.834887566615415e-05 0.03480174741266704 0 3.7074807741475361e-09 0.03499927382427611 0 2.6549390038788339e-05 0.034794383332396879 0 3.834887566615415e-05 0.03480174741266704 0 4.683787615074962e-05 0.034659815432411506 0 2.6549390038788339e-05 0.034794383332396879 0 4.683787615074962e-05 0.034659815432411506 0 -1.2651321948137472e-05 0.034427480903175628 0 2.6549390038788339e-05 0.034794383332396879 0 -1.2651321948137472e-05 0.034427480903175628 0 0.0001167318464833045 0.03470374113130132 0 2.6549390038788339e-05 0.034794383332396879 0 -1.2651321948137472e-05 0.034427480903175628 0 0.00050944689157488802 0.034417281258993793 0 0.0001167318464833045 0.03470374113130132 0 0.00050944689157488802 0.034417281258993793 0 0.0011288788219513859 0.03436367984715448 0 0.00041665112137349766 0.034770345024692631 0 -1.2651321948137472e-05 0.034427480903175628 0 0.00050944689157488802 0.034417281258993793 0 0.00064996175077012706 0.03357520562028915 0 0.00050944689157488802 0.034417281258993793 0 0.00064996175077012706 0.03357520562028915 0 0.0011288788219513859 0.03436367984715448 0 0.00064996175077012706 0.03357520562028915 0 -9.4412695680064381e-05 0.033148124476384995 0 0.00077517150276894709 0.032656494607397689 0 0.00064996175077012706 0.03357520562028915 0 0.00077517150276894709 0.032656494607397689 0 0.0015066160191702562 0.032561099817336889 0 4.683787615074962e-05 0.034659815432411506 0 -1.2651321948137472e-05 0.034427480903175628 0 -7.2950848406922635e-05 0.034730864086963201 0 -1.2651321948137472e-05 0.034427480903175628 0 0.00064996175077012706 0.03357520562028915 0 -9.4412695680064381e-05 0.033148124476384995 0 -4.1991629328874547e-05 0.034272405651374897 0 -9.4577121900142201e-05 0.034135959638605093 0 4.683787615074962e-05 0.034659815432411506 0 2.7785127487021007e-05 0.034768322906312286 0 -7.2950848406922635e-05 0.034730864086963201 0 -7.2950848406922635e-05 0.034730864086963201 0 -2.4106513532452052e-05 0.034786558123910571 0 -6.450804969850837e-05 0.034816501845377296 0 -9.4577121900142201e-05 0.034135959638605093 0 -8.7630910199990248e-05 0.03218316164152115 0 2.7785127487021007e-05 0.034768322906312286 0 -7.2950848406922635e-05 0.034730864086963201 0 -2.4106513532452052e-05 0.034786558123910571 0 2.7785127487021007e-05 0.034768322906312286 0 -2.4106513532452052e-05 0.034786558123910571 0 1.851179152946717e-05 0.034792517766421692 0 -8.7630910199990248e-05 0.03218316164152115 0 6.564376496387546e-06 0.033662553452678101 0 6.838842238006587e-05 0.032607218083695808 0 -0.00013260400138412118 0.032600664341647226 0 8.4510894036832131e-05 0.032505967723594174 0 -2.4106513532452052e-05 0.034786558123910571 0 -6.450804969850837e-05 0.034816501845377296 0 -1.026939957244951e-05 0.03482129645439673 0 6.564376496387546e-06 0.033662553452678101 0 0.00013998678588180317 0.031373004722640631 0 -8.7630910199990248e-05 0.03218316164152115 0 0.00013998678588180317 0.031373004722640631 0 6.564376496387546e-06 0.033662553452678101 0 0.00013904156853967678 0.033793328622463502 0 -2.4106513532452052e-05 0.034786558123910571 0 -1.026939957244951e-05 0.03482129645439673 0 1.851179152946717e-05 0.034792517766421692 0 8.7268905643935894e-05 0.03207833866484644 0 0.00077517150276894709 0.032656494607397689 0 0.0015096282623438815 0.032232752257939527 0 -8.7630910199990248e-05 0.03218316164152115 0 0.00071892692753703041 0.030399399634149851 0 -0.00041150818005927212 0.028942911964082843 0 -0.00039801246402943309 0.028850204855554038 0 6.8112155770091353e-05 0.028933359768875181 0 -9.4412695680064381e-05 0.033148124476384995 0 8.7268905643935894e-05 0.03207833866484644 0 0.00077517150276894709 0.032656494607397689 0 0.00013998678588180317 0.031373004722640631 0 0.00049631682489192919 0.031955011379453106 0 0.00034478525532825573 0.02919281086160529 0 0.00032283430709006885 0.02938840489158813 0 2.7785264399712864e-05 0.029313473602837304 0 0.00013998678588180317 0.031373004722640631 0 0.0001228697633259335 0.028562190357668472 0 0.00032988031802084653 0.034569419180365116 0 0.00050216715330520184 0.034632090205110842 0 0.00059480806237023067 0.034324352872056443 0 0.00034346942027955112 0.034696340854921785 0 0.00028598951842151899 0.034692778472007357 0 0.00032988031802084653 0.034569419180365116 0 0.00034346942027955112 0.034696340854921785 0 0.00032988031802084653 0.034569419180365116 0 0.00050216715330520184 0.034632090205110842 0 7.1840300526524812e-05 0.034953044827365297 0 -1.2239746987417886e-07 0.03499968548620612 0 0.00010727109442185636 0.03461747934273305 0 5.5583249640249912e-05 0.034824599740605006 0 0.00019169758429697946 0.03447891501355501 0 0.00032988031802084653 0.034569419180365116 0 4.6983095320482587e-05 0.034695344982961424 0 0.00025832030865478097 0.034358769322240801 0 0.00028598951842151899 0.034692778472007357 0 0.00032988031802084653 0.034569419180365116 0 4.6983095320482587e-05 0.034695344982961424 0 -1.026939957244951e-05 0.03482129645439673 0 6.7033042655872371e-05 0.034789896423247035 0 1.851179152946717e-05 0.034792517766421692 0 0.00033746585341245372 0.034697209253153311 0 0.00028598951842151899 0.034692778472007357 0 6.7033042655872371e-05 0.034789896423247035 0 6.564376496387546e-06 0.033662553452678101 0 2.5185439185178229e-05 0.034923721573810296 0 0.00028598951842151899 0.034692778472007357 0 4.6983095320482587e-05 0.034695344982961424 0 6.7033042655872371e-05 0.034789896423247035 0 2.7785127487021007e-05 0.034768322906312286 0 5.8211013582803423e-05 0.034791926880025817 0 6.7033042655872371e-05 0.034789896423247035 0 2.7785127487021007e-05 0.034768322906312286 0 6.7033042655872371e-05 0.034789896423247035 0 1.851179152946717e-05 0.034792517766421692 0 3.7074807741475361e-09 0.03499927382427611 0 4.6983095320482587e-05 0.034695344982961424 0 6.7033042655872371e-05 0.034789896423247035 0 6.3345720460543838e-08 0.035000207002866601 0 7.1840300526524812e-05 0.034953044827365297 0 -1.2239746987417886e-07 0.03499968548620612 0 5.4326607236425469e-06 0.034977619395544363 0 5.5583249640249912e-05 0.034824599740605006 0 -1.2239746987417886e-07 0.03499968548620612 0 -4.9602656439543331e-07 0.034996972711313405 0 -0.00013884155043871618 0.034277315576370468 0 -1.2239746987417886e-07 0.03499968548620612 0 -3.6282818121505467e-05 0.03430089717923996 0 -0.00013884155043871618 0.034277315576370468 0 -1.2239746987417886e-07 0.03499968548620612 0 0.00010727109442185636 0.03461747934273305 0 -3.6282818121505467e-05 0.03430089717923996 0 0.00010727109442185636 0.03461747934273305 0 -3.6282818121505467e-05 0.03430089717923996 0 0.00015849229607061379 0.034028695717280059 0 -4.9602656439543331e-07 0.034996972711313405 0 -0.00013884155043871618 0.034277315576370468 0 6.8065312743243249e-08 0.032282670006224791 0 -0.00013884155043871618 0.034277315576370468 0 0.00017337032860292406 0.03279616081822908 0 2.2828980015791181e-05 0.033626398594188207 0 -3.6282818121505467e-05 0.03430089717923996 0 -0.00013884155043871618 0.034277315576370468 0 2.2828980015791181e-05 0.033626398594188207 0 -0.00015866650282549708 0.033924682187337331 0 0.00015383859692978785 0.032199622205340207 0 0.00015383859692978785 0.032199622205340207 0 7.8752428875571969e-08 0.030240520075609807 0 4.8213125465095975e-05 0.032388289546235426 0 6.8065312743243249e-08 0.032282670006224791 0 2.4531214983226146e-07 0.03023995776581203 0 0.00047466694664788242 0.031145782399619674 0 0.00028904556933425642 0.031899587293550365 0 1.3765572259918517e-06 0.030239935699650111 0 -0.00013884155043871618 0.034277315576370468 0 0.00028904556933425642 0.031899587293550365 0 0.00017337032860292406 0.03279616081822908 0 -0.00013884155043871618 0.034277315576370468 0 4.8213125465095975e-05 0.032388289546235426 0 6.8065312743243249e-08 0.032282670006224791 0 0.00047466694664788242 0.031145782399619674 0 0.00028904556933425642 0.031899587293550365 0 0.00017337032860292406 0.03279616081822908 0 0.00017337032860292406 0.03279616081822908 0 2.2828980015791181e-05 0.033626398594188207 0 0.00021431795827858095 0.033437868694271192 0 0.00031861857320000992 0.032694182073812188 0 0.00017337032860292406 0.03279616081822908 0 0.00021431795827858095 0.033437868694271192 0 0.00021431795827858095 0.033437868694271192 0 0.00046905140287272938 0.03306882125746223 0 0.00052827473212947924 0.033884481027080533 0 0.00031861857320000992 0.032694182073812188 0 0.00021431795827858095 0.033437868694271192 0 0.00046905140287272938 0.03306882125746223 0 0.00047466694664788242 0.031145782399619674 0 0.00050553580861883269 0.029642824788676581 0 2.5089471734781862e-05 0.029962209773605749 0 0.00047466694664788242 0.031145782399619674 0 0.00046905140287272938 0.03306882125746223 0 0.00090720416715377617 0.033836392761226561 0 0.00054255912794864188 0.031293411061675706 0 0.00063230770817909515 0.031711655101636545 0 0.00047466694664788242 0.031145782399619674 0 0.00031861857320000992 0.032694182073812188 0 0.00017337032860292406 0.03279616081822908 0 0.00047466694664788242 0.031145782399619674 0 0.00031861857320000992 0.032694182073812188 0 0.00046905140287272938 0.03306882125746223 0 0.00050553580861883269 0.029642824788676581 0 0.00027813707533845875 0.029495541589437322 0 0.00032283430709006885 0.02938840489158813 0 0.00090720416715377617 0.033836392761226561 0 0.00052827473212947924 0.033884481027080533 0 0.00059480806237023067 0.034324352872056443 0 0.00050553580861883269 0.029642824788676581 0 4.017169381865744e-05 0.029570657203528417 0 2.5089471734781862e-05 0.029962209773605749 0 0.00063230770817909515 0.031711655101636545 0 0.00049631682489192919 0.031955011379453106 0 0.00046905140287272938 0.03306882125746223 0 0.00090720416715377617 0.033836392761226561 0 0.00052827473212947924 0.033884481027080533 0 0.00050553580861883269 0.029642824788676581 0 0.00027813707533845875 0.029495541589437322 0 4.017169381865744e-05 0.029570657203528417 0 0.00010727109442185636 0.03461747934273305 0 0.00015849229607061379 0.034028695717280059 0 0.00052827473212947924 0.033884481027080533 0 -3.6282818121505467e-05 0.03430089717923996 0 2.2828980015791181e-05 0.033626398594188207 0 0.00015849229607061379 0.034028695717280059 0 2.2828980015791181e-05 0.033626398594188207 0 0.00021431795827858095 0.033437868694271192 0 0.00015849229607061379 0.034028695717280059 0 0.00021431795827858095 0.033437868694271192 0 0.00015849229607061379 0.034028695717280059 0 0.00052827473212947924 0.033884481027080533 0 0.00019169758429697946 0.03447891501355501 0 0.00051216695770018921 0.033924214405664649 0 0.00032988031802084653 0.034569419180365116 0 0.00025832030865478097 0.034358769322240801 0 0.00059480806237023067 0.034324352872056443 0 0.00025832030865478097 0.034358769322240801 0 0.00052827473212947924 0.033884481027080533 0 0.00059480806237023067 0.034324352872056443 0 0.00032283430709006885 0.02938840489158813 0 0.0001285804542877183 0.029437808525291504 0 2.7785264399712864e-05 0.029313473602837304 0 0.00027813707533845875 0.029495541589437322 0 0.00032283430709006885 0.02938840489158813 0 0.0001285804542877183 0.029437808525291504 0 0.0001285804542877183 0.029437808525291504 0 -8.4255040720624977e-05 0.02947456384031865 0 2.7785264399712864e-05 0.029313473602837304 0 -8.4255040720624977e-05 0.02947456384031865 0 -2.8660264040723286e-05 0.029527832746397621 0 2.7785264399712864e-05 0.029313473602837304 0 0.00037847060820992828 0.029242025473318702 0 0.0001228697633259335 0.028562190357668472 0 -8.4255040720624977e-05 0.02947456384031865 0 -0.00017427193425887541 0.02948249310469386 0 5.2352216183922905e-05 0.029287576367957976 0 4.017169381865744e-05 0.029570657203528417 0 2.5089471734781862e-05 0.029962209773605749 0 -0.00017427193425887541 0.02948249310469386 0 -8.4255040720624977e-05 0.02947456384031865 0 4.017169381865744e-05 0.029570657203528417 0 -0.00017427193425887541 0.02948249310469386 0 0.0001285804542877183 0.029437808525291504 0 -8.4255040720624977e-05 0.02947456384031865 0 4.017169381865744e-05 0.029570657203528417 0 0.00027813707533845875 0.029495541589437322 0 0.0001285804542877183 0.029437808525291504 0 4.017169381865744e-05 0.029570657203528417 0 0.00047466694664788242 0.031145782399619674 0 2.5089471734781862e-05 0.029962209773605749 0 -0.00014598623656419257 0.029720492600595574 0 2.5089471734781862e-05 0.029962209773605749 0 -0.00017427193425887541 0.02948249310469386 0 -0.00014598623656419257 0.029720492600595574 0 -0.00017427193425887541 0.02948249310469386 0 -0.00014598623656419257 0.029720492600595574 0 -0.00012329880993086401 0.028752258702279546 0 -1.4215369339933203e-06 0.028474868141744991 0 -0.00014598623656419257 0.029720492600595574 0 -0.00012329880993086401 0.028752258702279546 0 -1.4215369339933203e-06 0.028474868141744991 0 1.3765572259918517e-06 0.030239935699650111 0 -0.00014598623656419257 0.029720492600595574 0 0.00047466694664788242 0.031145782399619674 0 1.3765572259918517e-06 0.030239935699650111 0 -0.00014598623656419257 0.029720492600595574 0 1.5141900007874029e-06 0.02670769663894303 0 0.00040984999723856083 0.024739862880218001 0 -9.1180747556320738e-05 0.025160395181841023 0 2.3409486977139506e-07 0.026710356771533349 0 0.00045257741133658216 0.026717940528875193 0 2.2464642863968873e-06 0.026713889704118213 0 -0.00012329880993086401 0.028752258702279546 0 0.00063451939897230002 0.028752357051351554 0 -1.4215369339933203e-06 0.028474868141744991 0 2.2464642863968873e-06 0.026713889704118213 0 -0.00012329880993086401 0.028752258702279546 0 -0.00012329880993086401 0.028752258702279546 0 0.00063451939897230002 0.028752357051351554 0 5.2352216183922905e-05 0.029287576367957976 0 -0.00017427193425887541 0.02948249310469386 0 -0.00012329880993086401 0.028752258702279546 0 5.2352216183922905e-05 0.029287576367957976 0 0.00063451939897230002 0.028752357051351554 0 5.2352216183922905e-05 0.029287576367957976 0 0.00061669876299496218 0.02944418564460272 0 5.2352216183922905e-05 0.029287576367957976 0 -2.8660264040723286e-05 0.029527832746397621 0 0.00061669876299496218 0.02944418564460272 0 0.00045257741133658216 0.026717940528875193 0 0.0003818672383566675 0.026811514664931587 0 -8.4255040720624977e-05 0.02947456384031865 0 5.2352216183922905e-05 0.029287576367957976 0 -2.8660264040723286e-05 0.029527832746397621 0 0.00067272777671999455 0.028315172486034393 0 0.00096550324311836424 0.028518463212843702 0 0.0011942913597345825 0.028213437195801428 0 0.00037847060820992828 0.029242025473318702 0 0.0003818672383566675 0.026811514664931587 0 0.00067272777671999455 0.028315172486034393 0 0.0011942913597345825 0.028213437195801428 0 0.0012192926846296716 0.02805296010234052 0 0.00078176738188266205 0.0287969943221206 0 0.00080794162973366263 0.026105724636729166 0 0.00096550324311836424 0.028518463212843702 0 0.0011942913597345825 0.028213437195801428 0 0.0012562022084226794 0.028248427235012957 0 0.00096550324311836424 0.028518463212843702 0 0.0010492910172431931 0.028946312926723932 0 0.0013675825848769312 0.028701507579756917 0 0.00096550324311836424 0.028518463212843702 0 0.0013675825848769312 0.028701507579756917 0 0.0012846362004059757 0.02821854925242177 0 0.0010022070002489705 0.029024352694513915 0 0.00074468473277460338 0.026689982204163683 0 0.0015167444238167265 0.03200638169209867 0 0.001516575245111287 0.031971309830110754 0 0.0015148883095229564 0.032044071570608602 0 0.0015167444238167265 0.03200638169209867 0 0.0015148883095229564 0.032044071570608602 0 0.0015217957430964739 0.032107859872596574 0 0.00083659765353648135 0.029402802354632687 0 0.0010022070002489705 0.029024352694513915 0 0.0015167444238167265 0.03200638169209867 0 0.0015435945850843051 0.031973139542650457 0 0.001516575245111287 0.031971309830110754 0 0.0015435945850843051 0.031973139542650457 0 0.001516575245111287 0.031971309830110754 0 0.0015261053218508247 0.031896256026576648 0 0.0015167444238167265 0.03200638169209867 0 0.0015528050160034863 0.03221073307998841 0 0.0015217957430964739 0.032107859872596574 0 0.00096550324311836424 0.028518463212843702 0 0.0010492910172431931 0.028946312926723932 0 0.00055091193010762477 0.028934024119299982 0 0.0015167444238167265 0.03200638169209867 0 0.0015123095086208625 0.031990984914694605 0 0.0015528050160034863 0.03221073307998841 0 0.0010022070002489705 0.029024352694513915 0 0.0011402661059366328 0.030723664371318259 0 0.0015528050160034863 0.03221073307998841 0 0.0015343286266194943 0.032222136718959425 0 0.0015217957430964739 0.032107859872596574 0 0.00096550324311836424 0.028518463212843702 0 0.00047064485299079534 0.028630190430564209 0 0.00055091193010762477 0.028934024119299982 0 0.00067272777671999455 0.028315172486034393 0 0.00096550324311836424 0.028518463212843702 0 0.00047064485299079534 0.028630190430564209 0 0.00067272777671999455 0.028315172486034393 0 0.00047064485299079534 0.028630190430564209 0 0.00013436364221488847 0.028581678414115692 0 0.00047064485299079534 0.028630190430564209 0 0.00013436364221488847 0.028581678414115692 0 6.8112155770091353e-05 0.028933359768875181 0 -0.00039801246402943309 0.028850204855554038 0 0.00013436364221488847 0.028581678414115692 0 6.8112155770091353e-05 0.028933359768875181 0 0.0015096282623438815 0.032232752257939527 0 0.0015066160191702562 0.032561099817336889 0 0.0015509922176397018 0.032310498252332683 0 0.00077517150276894709 0.032656494607397689 0 0.0015096282623438815 0.032232752257939527 0 0.0015066160191702562 0.032561099817336889 0 0.0015096282623438815 0.032232752257939527 0 0.0015528050160034863 0.03221073307998841 0 0.0015509922176397018 0.032310498252332683 0 0.00047064485299079534 0.028630190430564209 0 6.8112155770091353e-05 0.028933359768875181 0 0.00055091193010762477 0.028934024119299982 0 0.00071892692753703041 0.030399399634149851 0 0.0011402661059366328 0.030723664371318259 0 0.0015528050160034863 0.03221073307998841 0 0.0015509922176397018 0.032310498252332683 0 0.0015343286266194943 0.032222136718959425 0 0.0015509922176397018 0.032310498252332683 0 0.0015343286266194943 0.032222136718959425 0 0.0015346649403135907 0.032305280788328776 0 0.0015343286266194943 0.032222136718959425 0 0.0015346649403135907 0.032305280788328776 0 0.0015565747041873565 0.032148222643007131 0 0.0015343286266194943 0.032222136718959425 0 0.0015565747041873565 0.032148222643007131 0 0.0015198603490595775 0.032113295129453719 0 0.0015066160191702562 0.032561099817336889 0 0.0015346649403135907 0.032305280788328776 0 0.0016835345348843232 0.032109811008984135 0 0.00064996175077012706 0.03357520562028915 0 0.0015066160191702562 0.032561099817336889 0 0.0011288788219513859 0.03436367984715448 0 0.0014955106249763472 0.032598724172190612 0 0.0013918922131956933 0.033166180973107438 0 0.0015066160191702562 0.032561099817336889 0 0.0015509922176397018 0.032310498252332683 0 0.0015346649403135907 0.032305280788328776 0 0.0015346649403135907 0.032305280788328776 0 0.0016835345348843232 0.032109811008984135 0 0.0015565747041873565 0.032148222643007131 0 0.0016835345348843232 0.032109811008984135 0 0.0015565747041873565 0.032148222643007131 0 0.0015987481217077429 0.032041656087103153 0 0.0015565747041873565 0.032148222643007131 0 0.001539222132060321 0.032054589146054822 0 0.0015198603490595775 0.032113295129453719 0 0.0015565747041873565 0.032148222643007131 0 0.001539222132060321 0.032054589146054822 0 0.0015987481217077429 0.032041656087103153 0 0.001539222132060321 0.032054589146054822 0 0.0015198603490595775 0.032113295129453719 0 0.0015095986045723301 0.032018975006388936 0 0.0015198603490595775 0.032113295129453719 0 0.0015095986045723301 0.032018975006388936 0 0.0015071744978289541 0.032050684775267936 0 0.0015095986045723301 0.032018975006388936 0 0.0014959164833447209 0.031994035370664517 0 0.0015071744978289541 0.032050684775267936 0 0.0015095986045723301 0.032018975006388936 0 0.0014959164833447209 0.031994035370664517 0 0.0014978898039881548 0.031963939878928496 0 0.0014959164833447209 0.031994035370664517 0 0.0014959160052684037 0.031963606467317898 0 0.0014978898039881548 0.031963939878928496 0 0.0014959164833447209 0.031994035370664517 0 0.0015056873065491384 0.03201315830249394 0 0.0015071744978289541 0.032050684775267936 0 0.0014959164833447209 0.031994035370664517 0 0.0015056873065491384 0.03201315830249394 0 0.0014987034751867904 0.031936657467631899 0 0.001516575245111287 0.031971309830110754 0 0.0015056873065491384 0.03201315830249394 0 0.0014987034751867904 0.031936657467631899 0 0.0015148883095229564 0.032044071570608602 0 0.0015056873065491384 0.03201315830249394 0 0.0015217957430964739 0.032107859872596574 0 0.001516575245111287 0.031971309830110754 0 0.0015148883095229564 0.032044071570608602 0 0.0015056873065491384 0.03201315830249394 0 0.0015056873065491384 0.03201315830249394 0 0.0015217957430964739 0.032107859872596574 0 0.0015071744978289541 0.032050684775267936 0 0.0015198603490595775 0.032113295129453719 0 0.0015217957430964739 0.032107859872596574 0 0.0015071744978289541 0.032050684775267936 0 0.0015343286266194943 0.032222136718959425 0 0.0015198603490595775 0.032113295129453719 0 0.0015217957430964739 0.032107859872596574 0 0.0015567419370432155 0.031035534333541604 0 0.0015523287232327722 0.031259378234389887 0 0.00068232932757853978 0.030243242188719544 0 0.0016403005893396712 0.028269098750653341 0 0.0015426612640727902 0.031763678626730386 0 0.0014987034751867904 0.031936657467631899 0 0.0015095565593689802 0.031956105471553801 0 0.0015426612640727902 0.031763678626730386 0 0.0014987034751867904 0.031936657467631899 0 0.0015426612640727902 0.031763678626730386 0 0.0015261053218508247 0.031896256026576648 0 0.001516575245111287 0.031971309830110754 0 0.0014987034751867904 0.031936657467631899 0 0.0015261053218508247 0.031896256026576648 0 0.0014959160052684037 0.031963606467317898 0 0.0015095565593689802 0.031956105471553801 0 0.0014903413358172898 0.031925627354544475 0 0.0014987034751867904 0.031936657467631899 0 0.0014959160052684037 0.031963606467317898 0 0.0015095565593689802 0.031956105471553801 0 0.0014959164833447209 0.031994035370664517 0 0.0014987034751867904 0.031936657467631899 0 0.0014959160052684037 0.031963606467317898 0 0.00068232932757853978 0.030243242188719544 0 0.0016403005893396712 0.028269098750653341 0 -0.0012155442102230909 0.02904178235604998 0 0.00042314588262845301 0.023143784268678618 0 0.0015582755681146239 0.01888327366682346 0 0.0016403005893396712 0.028269098750653341 0 -0.0012155442102230909 0.02904178235604998 0 -0.00053699536644524043 0.026347620903495308 0 0.0024794591697305901 0.0161853502990464 0 0.0023117395144044714 0.015997201478559174 0 0.0024753975876570093 0.015868999084202539 0 0.0023117395144044714 0.015997201478559174 0 0.0021053507270382553 0.015999099926727926 0 0.002118299646613025 0.015885409503158691 0 0.0023117395144044714 0.015997201478559174 0 0.0021628778161213967 0.016109461929715921 0 0.0021053507270382553 0.015999099926727926 0 0.0024794591697305901 0.0161853502990464 0 0.0023117395144044714 0.015997201478559174 0 0.002226897457401992 0.016197389132342369 0 0.0023117395144044714 0.015997201478559174 0 0.002226897457401992 0.016197389132342369 0 0.0021628778161213967 0.016109461929715921 0 0.002226897457401992 0.016197389132342369 0 0.002123965634082656 0.01619316910383925 0 0.0021628778161213967 0.016109461929715921 0 0.002123965634082656 0.01619316910383925 0 0.0021628778161213967 0.016109461929715921 0 0.0020764528523367384 0.016124364267624161 0 0.00042314588262845301 0.023143784268678618 0 0.0013099896506919269 0.024031154851613605 0 0.0024794591697305901 0.0161853502990464 0 0.0022266504457549466 0.016717516062329029 0 0.0024164865765562669 0.017047312754826682 0 0.0021138955030876008 0.016307227026538158 0 0.0021160309794914399 0.016378264223895107 0 0.0020939549328098453 0.016336270378980666 0 0.0021138955030876008 0.016307227026538158 0 0.0021553256371153384 0.016276820593623422 0 0.0021778506674871015 0.016394521891845315 0 0.0021138955030876008 0.016307227026538158 0 0.0021778506674871015 0.016394521891845315 0 0.0021160309794914399 0.016378264223895107 0 0.0020907151544119549 0.016426715791173975 0 0.0019437980455740797 0.016536357535351695 0 0.0020210192886575776 0.01636306513927473 0 0.0020064505467552477 0.016379776883599321 0 0.002123965634082656 0.01619316910383925 0 0.0021138955030876008 0.016307227026538158 0 0.0021553256371153384 0.016276820593623422 0 0.002226897457401992 0.016197389132342369 0 0.002123965634082656 0.01619316910383925 0 0.0021553256371153384 0.016276820593623422 0 0.002226897457401992 0.016197389132342369 0 0.0021553256371153384 0.016276820593623422 0 0.0021778506674871015 0.016394521891845315 0 0.0024794591697305901 0.0161853502990464 0 0.0021778506674871015 0.016394521891845315 0 0.0022266504457549466 0.016717516062329029 0 0.0024794591697305901 0.0161853502990464 0 0.002226897457401992 0.016197389132342369 0 0.0021778506674871015 0.016394521891845315 0 0.0022266504457549466 0.016717516062329029 0 0.0019108119904922857 0.016597234615065445 0 0.0022459930464431141 0.017066589352630664 0 0.0021778506674871015 0.016394521891845315 0 0.0022266504457549466 0.016717516062329029 0 0.0019108119904922857 0.016597234615065445 0 0.0019437980455740797 0.016536357535351695 0 0.0020064505467552477 0.016379776883599321 0 0.00068232932757853978 0.030243242188719544 0 -0.0012155442102230909 0.02904178235604998 0 -0.0018067365803314038 0.031507332616562383 0 0.0013099896506919269 0.024031154851613605 0 0.00089151597280127547 0.029423500999018099 0 0.0014525797075333156 0.025584558227680448 0 0.0019012831305674305 0.025837127797413456 0 0.0019622793002980325 0.025603561152552877 0 0.0014525797075333156 0.025584558227680448 0 0.0019012831305674305 0.025837127797413456 0 0.00096288946044707552 0.025840663046578546 0 0.00068232932757853978 0.030243242188719544 0 -0.0018067365803314038 0.031507332616562383 0 0.001474440148617059 0.031777554380871945 0 0.0019108119904922857 0.016597234615065445 0 0.0022459930464431141 0.017066589352630664 0 0.0023349825065178166 0.017434964885017425 0 0.002078456056554235 0.017816048052109026 0 0.002070437779293098 0.018332654322312975 0 0.0025061001369236567 0.018618516399984433 0 0.0019437980455740797 0.016536357535351695 0 0.0022883507624082348 0.020992842887780406 0 0.0022459930464431141 0.017066589352630664 0 0.0024323565280598399 0.017090549711140997 0 0.0023349825065178166 0.017434964885017425 0 0.0013099896506919269 0.024031154851613605 0 0.0022883507624082348 0.020992842887780406 0 0.0016071689764319385 0.023084286852576054 0 0.0013099896506919269 0.024031154851613605 0 0.0022266504457549466 0.016717516062329029 0 0.0022459930464431141 0.017066589352630664 0 0.0024164865765562669 0.017047312754826682 0 0.002070437779293098 0.018332654322312975 0 0.0025061001369236567 0.018618516399984433 0 0.001960295737398119 0.018667379658540442 0 0.0021400449423374301 0.020778478220250165 0 0.0020633556823833185 0.021067159421117698 0 0.002339895032874999 0.021149341402382737 0 0.0022883507624082348 0.020992842887780406 0 0.0022015704546922907 0.022194621688124402 0 0.0025061001369236567 0.018618516399984433 0 0.0023339657365737125 0.019261843632018157 0 0.001960295737398119 0.018667379658540442 0 0.0022883507624082348 0.020992842887780406 0 0.0022339781616442082 0.019648292704197844 0 0.0022339781616442082 0.019648292704197844 0 0.0022015704546922907 0.022194621688124402 0 0.0020642490124133809 0.018502778999229724 0 0.0025517940777534148 0.018654840301368832 0 0.0026986054228923164 0.01893212344490024 0 0.0014525797075333156 0.025584558227680448 0 0.0013145748530378259 0.025252859248872387 0 0.0016582088001646537 0.025042632339518915 0 0.0014525797075333156 0.025584558227680448 0 0.0019622793002980325 0.025603561152552877 0 0.0016582088001646537 0.025042632339518915 0 0.0022015704546922907 0.022194621688124402 0 0.0010908027084066646 0.023969063462353214 0 0.0013145748530378259 0.025252859248872387 0 0.0016582088001646537 0.025042632339518915 0 0.0011501146408563511 0.024911633261442582 0 0.00074468473277460338 0.026689982204163683 0 0.0010908027084066646 0.023969063462353214 0 0.00099408934930499127 0.025469749998498322 0 0.00049299313924536974 0.025432433347544161 0 0.0011501146408563511 0.024911633261442582 0 0.0013145748530378259 0.025252859248872387 0 0.00099408934930499127 0.025469749998498322 0 0.0011501146408563511 0.024911633261442582 0 0.0014525797075333156 0.025584558227680448 0 0.0013145748530378259 0.025252859248872387 0 0.00099408934930499127 0.025469749998498322 0 0.0014525797075333156 0.025584558227680448 0 0.00099408934930499127 0.025469749998498322 0 0.00096288946044707552 0.025840663046578546 0 0.00099408934930499127 0.025469749998498322 0 0.00096288946044707552 0.025840663046578546 0 0.00056729824675460215 0.025794868584698524 0 0.00068232932757853978 0.030243242188719544 0 0.001474440148617059 0.031777554380871945 0 0.0015426612640727902 0.031763678626730386 0 0.0015435945850843051 0.031973139542650457 0 0.001474440148617059 0.031777554380871945 0 0.0015426612640727902 0.031763678626730386 0 4.9185042404687798e-05 0.025849421598307467 0 0.00056729824675460215 0.025794868584698524 0 0.00051005127533457033 0.025489814112052575 0 0.0010022070002489705 0.029024352694513915 0 0.00089151597280127547 0.029423500999018099 0 4.9185042404687798e-05 0.025849421598307467 0 0.00096288946044707552 0.025840663046578546 0 0.00056729824675460215 0.025794868584698524 0 0.0015435945850843051 0.031973139542650457 0 0.0015426612640727902 0.031763678626730386 0 0.0015261053218508247 0.031896256026576648 0 0.00052985765858268579 0.025565161317494329 0 0.00074468473277460338 0.026689982204163683 0 0.00099408934930499127 0.025469749998498322 0 0.00056729824675460215 0.025794868584698524 0 0.00049299313924536974 0.025432433347544161 0 0.00076054846896944411 0.025893691196519915 0 0.00066904293195789119 0.025384735825703931 0 0.0012412856608971406 0.025526000057411694 0 0.00074468473277460338 0.026689982204163683 0 0.00080794162973366263 0.026105724636729166 0 0.00080794162973366263 0.026105724636729166 0 0.0010908027084066646 0.023969063462353214 0 0.001065871789298877 0.024085824164530052 0 0.0010711978479405601 0.024079331056115906 0 0.0011544196266373337 0.024066313810202116 0 3.3632633847034381e-05 0.025256999286000458 0 0.00019579590329358155 0.025277473003454842 0 -0.00010224959131056318 0.024515772962335956 0 0.00079730578223621807 0.025829524714475829 0 0.0003818672383566675 0.026811514664931587 0 0.0012515206140766674 0.028218129784441041 0 0.0011942913597345825 0.028213437195801428 0 0.0012192926846296716 0.02805296010234052 0 0.00079730578223621807 0.025829524714475829 0 0.00085438020559195434 0.025238067409618353 0 0.00079730578223621807 0.025829524714475829 0 0.0009580471441425067 0.026020940974944062 0 0.0012505866637019932 0.028218218994633382 0 0.0011942913597345825 0.028213437195801428 0 0.0012562022084226794 0.028248427235012957 0 0.00079730578223621807 0.025829524714475829 0 0.00080794162973366263 0.026105724636729166 0 0.00098652440449393673 0.025578645060494884 0 0.00089974609727283886 0.025102476481743824 0 0.00041960012047089152 0.025503787473793223 0 0.00080794162973366263 0.026105724636729166 0 0.00085438020559195434 0.025238067409618353 0 0.0010711978479405601 0.024079331056115906 0 0.0011544196266373337 0.024066313810202116 0 0.0011743026415764078 0.024043387930715393 0 0.00068535093005405183 0.022550262774524588 0 0.0014133365167140115 0.021921675923897689 0 0.0016135523886457958 0.022641690371852846 0 0.00085438020559195434 0.025238067409618353 0 0.0015418839279516758 0.021761805704872305 0 0.0010908027084066646 0.023969063462353214 0 0.0015418839279516758 0.021761805704872305 0 0.00085438020559195434 0.025238067409618353 0 0.0013945559080674119 0.021692718977336621 0 -0.00041880443586128185 0.024309820262700902 0 0.00022674192824682522 0.024034590179937202 0 -6.3476608757470677e-06 0.024458374769876407 0 0.00019579590329358155 0.025277473003454842 0 0.0022360251804048555 0.023541653292119605 0 -0.00010224959131056318 0.024515772962335956 0 0.00040984999723856083 0.024739862880218001 0 0.00022674192824682522 0.024034590179937202 0 -6.3476608757470677e-06 0.024458374769876407 0 0.0013945559080674119 0.021692718977336621 0 0.0003818672383566675 0.026811514664931587 0 -6.3476608757470677e-06 0.024458374769876407 0 -0.00024494498554051376 0.024586249704785301 0 -9.1180747556320738e-05 0.025160395181841023 0 0.00040984999723856083 0.024739862880218001 0 -6.3476608757470677e-06 0.024458374769876407 0 -9.1180747556320738e-05 0.025160395181841023 0 0.0013945559080674119 0.021692718977336621 0 0.00032852505542449662 0.024734659814927906 0 -0.00018284996516081399 0.02467816474921004 0 -0.00024494498554051376 0.024586249704785301 0 -0.00016623035524860976 0.024244676788954245 0 -0.00041880443586128185 0.024309820262700902 0 -6.3476608757470677e-06 0.024458374769876407 0 -0.00024494498554051376 0.024586249704785301 0 -0.00024494498554051376 0.024586249704785301 0 -0.00016623035524860976 0.024244676788954245 0 -9.3490929129426175e-07 0.024974785213155975 0 -0.00016623035524860976 0.024244676788954245 0 -9.3490929129426175e-07 0.024974785213155975 0 -2.303299342708598e-07 0.023238343691517407 0 -0.00024494498554051376 0.024586249704785301 0 -9.3490929129426175e-07 0.024974785213155975 0 -9.1180747556320738e-05 0.025160395181841023 0 1.5141900007874029e-06 0.02670769663894303 0 -9.3490929129426175e-07 0.024974785213155975 0 -9.1180747556320738e-05 0.025160395181841023 0 -2.303299342708598e-07 0.023238343691517407 0 0.00011597141889827251 0.023928033596572459 0 8.9159504159053324e-07 0.021504315837269035 0 0.00068193721711433256 0.022140934082631611 0 1.0363604368609145e-07 0.02150274692161154 0 0.0015360529355491934 0.020253065161876631 0 0.00040151522146160987 0.020074173831546745 0 2.176215181103545e-06 0.021498756555050742 0 -0.00016623035524860976 0.024244676788954245 0 -2.303299342708598e-07 0.023238343691517407 0 0.00011597141889827251 0.023928033596572459 0 0.0026129697236973027 0.019303705299969713 0 0.0016252999806931434 0.019696723385209305 0 0.0015360529355491934 0.020253065161876631 0 0.0013945559080674119 0.021692718977336621 0 0.00068193721711433256 0.022140934082631611 0 0.0013945559080674119 0.021692718977336621 0 0.0022802337007107238 0.018766856190802646 0 -0.00018284996516081399 0.02467816474921004 0 -0.00016623035524860976 0.024244676788954245 0 0.00011597141889827251 0.023928033596572459 0 0.0022802337007107238 0.018766856190802646 0 0.00081048617460576162 0.019471956045108933 0 0.0016252999806931434 0.019696723385209305 0 0.0015360529355491934 0.020253065161876631 0 0.00040151522146160987 0.020074173831546745 0 0.0021817833746611017 0.01838596710001765 0 0.001777886236978057 0.01820613499646976 0 0.0014613929908834015 0.018804167121937193 0 0.001777886236978057 0.01820613499646976 0 0.0012255654764238831 0.017962102398576499 0 0.0014613929908834015 0.018804167121937193 0 0.0018273377029297156 0.01782806092956974 0 0.0013648592429379317 0.01695352046398528 0 0.0012255654764238831 0.017962102398576499 0 0.001777886236978057 0.01820613499646976 0 0.0018273377029297156 0.01782806092956974 0 0.0012255654764238831 0.017962102398576499 0 0.001777886236978057 0.01820613499646976 0 0.002111997668528522 0.018054645879634092 0 0.0018273377029297156 0.01782806092956974 0 0.0021817833746611017 0.01838596710001765 0 0.001777886236978057 0.01820613499646976 0 0.002111997668528522 0.018054645879634092 0 0.002870846287246348 0.018110556691617666 0 0.0023957574179096944 0.017907562372815412 0 0.0025032305368141443 0.017412568827078544 0 0.002870846287246348 0.018110556691617666 0 0.0021817833746611017 0.01838596710001765 0 0.0023957574179096944 0.017907562372815412 0 0.0018273377029297156 0.01782806092956974 0 0.0023957574179096944 0.017907562372815412 0 0.0025032305368141443 0.017412568827078544 0 0.0013945559080674119 0.021692718977336621 0 0.0022195259191003522 0.019566777643434615 0 0.0021817833746611017 0.01838596710001765 0 0.002111997668528522 0.018054645879634092 0 0.0023957574179096944 0.017907562372815412 0 0.002111997668528522 0.018054645879634092 0 0.0018273377029297156 0.01782806092956974 0 0.0023957574179096944 0.017907562372815412 0 0.002243744026003215 0.017263904096475272 0 0.0022195259191003522 0.019566777643434615 0 0.0014133365167140115 0.021921675923897689 0 0.0017516666476751384 0.022535580589125352 0 0.0016135523886457958 0.022641690371852846 0 0.0018273377029297156 0.01782806092956974 0 0.0025725070230960502 0.017288575202755306 0 0.0024827298327230246 0.017120750555828786 0 0.0022015704546922907 0.022194621688124402 0 0.0021159918838802787 0.019891744076800173 0 0.0017443333335552451 0.022457331241109262 0 0.0014063658444691061 0.022372152164199431 0 0.0015216889771413407 0.022283027179653251 0 0.0017443333335552451 0.022457331241109262 0 0.0016565690914986276 0.022297388129820978 0 0.0015216889771413407 0.022283027179653251 0 0.0020157288574137993 0.020741634687949907 0 0.0019739299071802486 0.020664367423458611 0 0.0020964579963372951 0.020684103913816747 0 0.0021159918838802787 0.019891744076800173 0 0.0015418839279516758 0.021761805704872305 0 0.0022195259191003522 0.019566777643434615 0 0.0021159918838802787 0.019891744076800173 0 0.0022195259191003522 0.019566777643434615 0 0.0015418839279516758 0.021761805704872305 0 0.0018273377029297156 0.01782806092956974 0 0.0024827298327230246 0.017120750555828786 0 0.0013648592429379317 0.01695352046398528 0 0.0020642490124133809 0.018502778999229724 0 0.0026986054228923164 0.01893212344490024 0 0.0017792527013855816 0.018778228662422482 0 0.0021159918838802787 0.019891744076800173 0 0.0016082767311094294 0.017811886196261898 0 0.0013648592429379317 0.01695352046398528 0 0.0006745336820492123 0.017512808319879287 0 0.00033853918572714493 0.016884149705130989 0 0.0016082767311094294 0.017811886196261898 0 0.00089194739042224394 0.016451469540172077 0 0.0013648592429379317 0.01695352046398528 0 0.0006745336820492123 0.017512808319879287 0 0.0012255654764238831 0.017962102398576499 0 0.00032954790822579082 0.017358156253940202 0 3.9559225269284175e-05 0.01761645217344851 0 0.00033853918572714493 0.016884149705130989 0 0.00032954790822579082 0.017358156253940202 0 0.0006745336820492123 0.017512808319879287 0 0.00033853918572714493 0.016884149705130989 0 0.0006745336820492123 0.017512808319879287 0 0.00022121332319599489 0.017708285111772019 0 0.00050630438034835455 0.018207793502606002 0 0.00032954790822579082 0.017358156253940202 0 0.0006745336820492123 0.017512808319879287 0 0.00022121332319599489 0.017708285111772019 0 0.00022121332319599489 0.017708285111772019 0 0.00050630438034835455 0.018207793502606002 0 0.00014619988740889988 0.01797580966114283 0 0.0006745336820492123 0.017512808319879287 0 0.0012255654764238831 0.017962102398576499 0 0.00050630438034835455 0.018207793502606002 0 0.0012255654764238831 0.017962102398576499 0 0.0014613929908834015 0.018804167121937193 0 0.00050630438034835455 0.018207793502606002 0 0.00081048617460576162 0.019471956045108933 0 0.00021866577047142388 0.019621340036991012 0 0.0014613929908834015 0.018804167121937193 0 0.00050630438034835455 0.018207793502606002 0 0.0001635731170704897 0.019603903718418185 0 0.00050630438034835455 0.018207793502606002 0 6.4111217505331451e-05 0.018722897961796076 0 0.0001635731170704897 0.019603903718418185 0 0.00050630438034835455 0.018207793502606002 0 0.00014619988740889988 0.01797580966114283 0 6.4111217505331451e-05 0.018722897961796076 0 6.4111217505331451e-05 0.018722897961796076 0 -3.6303491207862596e-07 0.019799482145527517 0 0.0001635731170704897 0.019603903718418185 0 -3.6303491207862596e-07 0.019799482145527517 0 0.0001635731170704897 0.019603903718418185 0 2.176215181103545e-06 0.021498756555050742 0 0.00040151522146160987 0.020074173831546745 0 0.0001635731170704897 0.019603903718418185 0 2.176215181103545e-06 0.021498756555050742 0 -4.5561440347756504e-07 0.018096304746117491 0 -5.1475344268848798e-05 0.018494225938206061 0 -0.00016283081337224544 0.01781318612392151 0 -0.00024561505656933843 0.017307572329533987 0 -4.5561440347756504e-07 0.018096304746117491 0 -0.00016283081337224544 0.01781318612392151 0 6.4111217505331451e-05 0.018722897961796076 0 -3.6303491207862596e-07 0.019799482145527517 0 -5.1475344268848798e-05 0.018494225938206061 0 -3.6303491207862596e-07 0.019799482145527517 0 -4.5561440347756504e-07 0.018096304746117491 0 -5.1475344268848798e-05 0.018494225938206061 0 -5.1475344268848798e-05 0.018494225938206061 0 6.1531009187626101e-05 0.017843680009300453 0 -0.00016283081337224544 0.01781318612392151 0 6.4111217505331451e-05 0.018722897961796076 0 -5.1475344268848798e-05 0.018494225938206061 0 6.1531009187626101e-05 0.017843680009300453 0 0.00014619988740889988 0.01797580966114283 0 6.4111217505331451e-05 0.018722897961796076 0 6.1531009187626101e-05 0.017843680009300453 0 0.00014619988740889988 0.01797580966114283 0 6.1531009187626101e-05 0.017843680009300453 0 6.342012341941477e-05 0.017580322493909003 0 6.1531009187626101e-05 0.017843680009300453 0 0.00013056565086459968 0.016993638315509003 0 6.342012341941477e-05 0.017580322493909003 0 -0.00048467874408186258 0.017594157418215097 0 0.00013056565086459968 0.016993638315509003 0 0.00032680328065038593 0.015929568463773604 0 -5.3530602883537009e-05 0.015837447880244028 0 0.00039057886455973607 0.01581163214462411 0 6.1531009187626101e-05 0.017843680009300453 0 0.00013056565086459968 0.016993638315509003 0 -0.00016283081337224544 0.01781318612392151 0 -0.00048467874408186258 0.017594157418215097 0 0.00013056565086459968 0.016993638315509003 0 -0.00016283081337224544 0.01781318612392151 0 -0.00048467874408186258 0.017594157418215097 0 -0.00024561505656933843 0.017307572329533987 0 -0.00016283081337224544 0.01781318612392151 0 0.00012572994796206436 0.014827643185907249 0 0.00032680328065038593 0.015929568463773604 0 0.00095336067668632383 0.01451123869744975 0 0.00014792396327334916 0.014225909465291361 0 0.00012572994796206436 0.014827643185907249 0 0.00032680328065038593 0.015929568463773604 0 0.00022368278117841319 0.014298409845931382 0 0.00012572994796206436 0.014827643185907249 0 0.00025402548274227623 0.01442688084721227 0 0.00013056565086459968 0.016993638315509003 0 0.00032680328065038593 0.015929568463773604 0 0.00095336067668632383 0.01451123869744975 0 6.017053968494711e-05 0.017011547738261697 0 0.00054455917718499347 0.015945543818159841 0 0.00013056565086459968 0.016993638315509003 0 6.342012341941477e-05 0.017580322493909003 0 3.9559225269284175e-05 0.01761645217344851 0 0.00022121332319599489 0.017708285111772019 0 0.00014619988740889988 0.01797580966114283 0 6.342012341941477e-05 0.017580322493909003 0 0.00032954790822579082 0.017358156253940202 0 0.00022121332319599489 0.017708285111772019 0 3.9559225269284175e-05 0.01761645217344851 0 0.00022121332319599489 0.017708285111772019 0 6.342012341941477e-05 0.017580322493909003 0 3.9559225269284175e-05 0.01761645217344851 0 0.00054455917718499347 0.015945543818159841 0 0.00089194739042224394 0.016451469540172077 0 0.00095336067668632383 0.01451123869744975 0 0.00089807690669778915 0.01388694683921185 0 0.001287731188923106 0.013952093309290869 0 0.00095336067668632383 0.01451123869744975 0 0.00025402548274227623 0.01442688084721227 0 0.00089807690669778915 0.01388694683921185 0 0.00066210438842557713 0.0139205662507026 0 0.0013272766484849019 0.015080171485863764 0 0.00012572994796206436 0.014827643185907249 0 0.00095336067668632383 0.01451123869744975 0 0.00025402548274227623 0.01442688084721227 0 0.00087171381762643952 0.013671776439115491 0 0.00061583902472985583 0.013149327054613712 0 0.0013604460110095129 0.013267747696715572 0 0.00020710002627523553 0.014326820310348636 0 0.00066210438842557713 0.0139205662507026 0 0.0009814519943933521 0.014898236667513692 0 0.0013272766484849019 0.015080171485863764 0 0.0012843033578424251 0.016660257612453315 0 0.001581955767439864 0.016526208968610744 0 0.0016433928356719039 0.016687564819775447 0 0.0012843033578424251 0.016660257612453315 0 0.0014882204968001444 0.016395715498599073 0 0.001581955767439864 0.016526208968610744 0 0.0011707230916321531 0.016356661514977451 0 0.0014882204968001444 0.016395715498599073 0 0.0014201253399007956 0.016115199116339615 0 0.0011707230916321531 0.016356661514977451 0 0.0012843033578424251 0.016660257612453315 0 0.0014882204968001444 0.016395715498599073 0 0.0014882204968001444 0.016395715498599073 0 0.0016821698448165599 0.016286259942229049 0 0.0014201253399007956 0.016115199116339615 0 0.0016821698448165599 0.016286259942229049 0 0.0016839842882491278 0.016413441369243161 0 0.0018435945595536862 0.016369394555337979 0 0.0014882204968001444 0.016395715498599073 0 0.0016821698448165599 0.016286259942229049 0 0.0016839842882491278 0.016413441369243161 0 0.0014882204968001444 0.016395715498599073 0 0.0016839842882491278 0.016413441369243161 0 0.001581955767439864 0.016526208968610744 0 0.0016839842882491278 0.016413441369243161 0 0.001581955767439864 0.016526208968610744 0 0.0017837362429684997 0.016477138473869137 0 0.0013272766484849019 0.015080171485863764 0 0.0014914137435926094 0.016985317588541649 0 0.001581955767439864 0.016526208968610744 0 0.0016433928356719039 0.016687564819775447 0 0.0017837362429684997 0.016477138473869137 0 0.0013272766484849019 0.015080171485863764 0 0.00089194739042224394 0.016451469540172077 0 0.0016237316142408028 0.01631389741173217 0 0.0011568510948964019 0.016258275849003797 0 0.0011081498835790054 0.016764833637780505 0 0.00089194739042224394 0.016451469540172077 0 0.0011630294104304577 0.017842321320959226 0 0.0011568510948964019 0.016258275849003797 0 0.0008660597518486727 0.016700099869109582 0 0.0011081498835790054 0.016764833637780505 0 0.0011630294104304577 0.017842321320959226 0 0.0014914137435926094 0.016985317588541649 0 0.0014914137435926094 0.016985317588541649 0 0.001611742812700837 0.016902998319000197 0 0.0016433928356719039 0.016687564819775447 0 0.0018559203950520682 0.016497168801283716 0 0.0017837362429684997 0.016477138473869137 0 0.0022339781616442082 0.019648292704197844 0 0.0011630294104304577 0.017842321320959226 0 0.0020642490124133809 0.018502778999229724 0 0.0017792527013855816 0.018778228662422482 0 0.001149943308788335 0.01822351860793929 0 0.0017792527013855816 0.018778228662422482 0 0.0008709506185681147 0.018629803281587635 0 0.001149943308788335 0.01822351860793929 0 0.0023339657365737125 0.019261843632018157 0 0.0011702996785263994 0.018925543201736492 0 0.001960295737398119 0.018667379658540442 0 0.0011630294104304577 0.017842321320959226 0 0.0017437613958502145 0.017086181055054106 0 0.0011702996785263994 0.018925543201736492 0 0.001960295737398119 0.018667379658540442 0 0.001692871319583112 0.018148524160847192 0 0.002070437779293098 0.018332654322312975 0 0.001960295737398119 0.018667379658540442 0 0.001692871319583112 0.018148524160847192 0 0.002078456056554235 0.017816048052109026 0 0.002070437779293098 0.018332654322312975 0 0.001692871319583112 0.018148524160847192 0 0.0018455247198468389 0.016486851363604022 0 0.002045524604129509 0.016284030864731798 0 0.0018435945595536862 0.016369394555337979 0 0.002045524604129509 0.016284030864731798 0 0.0018435945595536862 0.016369394555337979 0 0.001949011509255755 0.016247878647773911 0 0.0014118144943592471 0.017377332168719683 0 0.0012954312586013141 0.017344380044133204 0 0.0016196366319189391 0.017067616084049376 0 0.0014914137435926094 0.016985317588541649 0 0.0017437613958502145 0.017086181055054106 0 0.0016839842882491278 0.016413441369243161 0 0.0017837362429684997 0.016477138473869137 0 0.0018435945595536862 0.016369394555337979 0 0.0018455247198468389 0.016486851363604022 0 0.0017837362429684997 0.016477138473869137 0 0.0018435945595536862 0.016369394555337979 0 0.0018435945595536862 0.016369394555337979 0 0.0018569266004237548 0.016234424746441746 0 0.001949011509255755 0.016247878647773911 0 0.0016821698448165599 0.016286259942229049 0 0.0018435945595536862 0.016369394555337979 0 0.0018569266004237548 0.016234424746441746 0 0.0016821698448165599 0.016286259942229049 0 0.0018569266004237548 0.016234424746441746 0 0.0018050327685362778 0.016063075814744986 0 0.0018569266004237548 0.016234424746441746 0 0.001949011509255755 0.016247878647773911 0 0.0019404959783795785 0.016161813984390615 0 0.0018569266004237548 0.016234424746441746 0 0.0019404959783795785 0.016161813984390615 0 0.0018050327685362778 0.016063075814744986 0 0.0019404959783795785 0.016161813984390615 0 0.0018050327685362778 0.016063075814744986 0 0.0019359206838953659 0.016036333312524301 0 0.0020664363917386784 0.016640561697408709 0 0.0017086148471186346 0.016947594739464868 0 0.001998064606673258 0.0165142630360198 0 0.002045524604129509 0.016284030864731798 0 0.0020353665918761729 0.016215280921046522 0 0.0020736163518867701 0.016217406694010266 0 0.0019437980455740797 0.016536357535351695 0 0.0017437613958502145 0.017086181055054106 0 0.0017437613958502145 0.017086181055054106 0 0.0020064505467552477 0.016379776883599321 0 0.002045524604129509 0.016284030864731798 0 0.001949011509255755 0.016247878647773911 0 0.0020353665918761729 0.016215280921046522 0 0.001949011509255755 0.016247878647773911 0 0.0019404959783795785 0.016161813984390615 0 0.0020353665918761729 0.016215280921046522 0 0.0019404959783795785 0.016161813984390615 0 0.0020353665918761729 0.016215280921046522 0 0.002016089752281877 0.016145119080642555 0 0.0019404959783795785 0.016161813984390615 0 0.002016089752281877 0.016145119080642555 0 0.0019359206838953659 0.016036333312524301 0 0.0020353665918761729 0.016215280921046522 0 0.002016089752281877 0.016145119080642555 0 0.0020679548909017524 0.016220795728433546 0 0.002016089752281877 0.016145119080642555 0 0.0020679548909017524 0.016220795728433546 0 0.0020764528523367384 0.016124364267624161 0 0.002123965634082656 0.01619316910383925 0 0.0021138955030876008 0.016307227026538158 0 0.0020679548909017524 0.016220795728433546 0 0.002123965634082656 0.01619316910383925 0 0.0020679548909017524 0.016220795728433546 0 0.0020764528523367384 0.016124364267624161 0 0.0020353665918761729 0.016215280921046522 0 0.0020679548909017524 0.016220795728433546 0 0.0020736163518867701 0.016217406694010266 0 0.0021138955030876008 0.016307227026538158 0 0.0020679548909017524 0.016220795728433546 0 0.0020871147125272795 0.016345338505910419 0 0.0020061002817866372 0.016341019010237202 0 0.0020064505467552477 0.016379776883599321 0 0.0021628778161213967 0.016109461929715921 0 0.0020764528523367384 0.016124364267624161 0 0.0021053507270382553 0.015999099926727926 0 0.0020764528523367384 0.016124364267624161 0 0.0020193646079004397 0.016053332226709502 0 0.0021053507270382553 0.015999099926727926 0 0.002016089752281877 0.016145119080642555 0 0.0020764528523367384 0.016124364267624161 0 0.0020193646079004397 0.016053332226709502 0 0.002016089752281877 0.016145119080642555 0 0.0020193646079004397 0.016053332226709502 0 0.0019359206838953659 0.016036333312524301 0 0.0020193646079004397 0.016053332226709502 0 0.0019838159387996074 0.015921262903433497 0 0.0019359206838953659 0.016036333312524301 0 0.0020193646079004397 0.016053332226709502 0 0.0019838159387996074 0.015921262903433497 0 0.0021053507270382553 0.015999099926727926 0 0.0019838159387996074 0.015921262903433497 0 0.0021053507270382553 0.015999099926727926 0 0.002118299646613025 0.015885409503158691 0 0.0018050327685362778 0.016063075814744986 0 0.0019359206838953659 0.016036333312524301 0 0.0018390869644110486 0.015850601991554591 0 0.0019838159387996074 0.015921262903433497 0 0.0019359206838953659 0.016036333312524301 0 0.0018390869644110486 0.015850601991554591 0 0.0018050327685362778 0.016063075814744986 0 0.0018390869644110486 0.015850601991554591 0 0.0016205760440409812 0.015888508873378386 0 0.0018390869644110486 0.015850601991554591 0 0.0016205760440409812 0.015888508873378386 0 0.001670549903216899 0.015588273122236367 0 0.0012307309769570745 0.01558580664495725 0 0.0016205760440409812 0.015888508873378386 0 0.0014201253399007956 0.016115199116339615 0 0.0016821698448165599 0.016286259942229049 0 0.0018050327685362778 0.016063075814744986 0 0.0016368341435515918 0.016089079350904041 0 0.0016821698448165599 0.016286259942229049 0 0.0014201253399007956 0.016115199116339615 0 0.0016368341435515918 0.016089079350904041 0 0.0018050327685362778 0.016063075814744986 0 0.0016205760440409812 0.015888508873378386 0 0.0016368341435515918 0.016089079350904041 0 0.0016205760440409812 0.015888508873378386 0 0.0014201253399007956 0.016115199116339615 0 0.0016368341435515918 0.016089079350904041 0 0.0012307309769570745 0.01558580664495725 0 0.0012780755437293632 0.014774289605856059 0 0.0015941074691507556 0.015152198678874483 0 0.0015941074691507556 0.015152198678874483 0 0.001670549903216899 0.015588273122236367 0 0.0019975240478635795 0.015067267848686965 0 0.0012307309769570745 0.01558580664495725 0 0.0016205760440409812 0.015888508873378386 0 0.001670549903216899 0.015588273122236367 0 0.0012307309769570745 0.01558580664495725 0 0.0015941074691507556 0.015152198678874483 0 0.001670549903216899 0.015588273122236367 0 0.0016849153105256759 0.015596585869033359 0 0.0020724970175155788 0.015507017566710666 0 0.0019838159387996074 0.015921262903433497 0 0.0018390869644110486 0.015850601991554591 0 0.0019509072241536685 0.015681405521564783 0 0.0018390869644110486 0.015850601991554591 0 0.001670549903216899 0.015588273122236367 0 0.0019509072241536685 0.015681405521564783 0 0.0019838159387996074 0.015921262903433497 0 0.002118299646613025 0.015885409503158691 0 0.0019509072241536685 0.015681405521564783 0 0.002118299646613025 0.015885409503158691 0 0.0019509072241536685 0.015681405521564783 0 0.0022544146630106049 0.015793535716143465 0 0.0022249454908099858 0.01533463659287391 0 0.0024105597516636901 0.014979326557033658 0 0.002581240613508689 0.015211329121988169 0 0.0020724970175155788 0.015507017566710666 0 0.0024293086765092052 0.015417098312601692 0 0.0019975240478635795 0.015067267848686965 0 0.0022249454908099858 0.01533463659287391 0 0.0024105597516636901 0.014979326557033658 0 0.001670549903216899 0.015588273122236367 0 0.0019975240478635795 0.015067267848686965 0 0.0022249454908099858 0.01533463659287391 0 0.0019975240478635795 0.015067267848686965 0 0.0021504646693792976 0.014740035379280661 0 0.0017938502747766088 0.014765081621043744 0 0.0019975240478635795 0.015067267848686965 0 0.0024105597516636901 0.014979326557033658 0 0.0021504646693792976 0.014740035379280661 0 0.0024105597516636901 0.014979326557033658 0 0.0021504646693792976 0.014740035379280661 0 0.0024878847503234797 0.014716400183536607 0 0.0021504646693792976 0.014740035379280661 0 0.0022597538024035674 0.014467369215527794 0 0.0024878847503234797 0.014716400183536607 0 0.0021504646693792976 0.014740035379280661 0 0.0019502134964622905 0.014496628636608602 0 0.0022597538024035674 0.014467369215527794 0 0.0021504646693792976 0.014740035379280661 0 0.0019502134964622905 0.014496628636608602 0 0.0017938502747766088 0.014765081621043744 0 0.0019502134964622905 0.014496628636608602 0 0.0017938502747766088 0.014765081621043744 0 0.0016421952905518659 0.014415639478463018 0 0.0015941074691507556 0.015152198678874483 0 0.0019975240478635795 0.015067267848686965 0 0.0017938502747766088 0.014765081621043744 0 0.0012780755437293632 0.014774289605856059 0 0.0015941074691507556 0.015152198678874483 0 0.0017938502747766088 0.014765081621043744 0 0.0012780755437293632 0.014774289605856059 0 0.0017938502747766088 0.014765081621043744 0 0.0016421952905518659 0.014415639478463018 0 0.0012278787722974412 0.014181906583835517 0 0.0016421952905518659 0.014415639478463018 0 0.0016182857556454777 0.014210539644940755 0 0.0019502134964622905 0.014496628636608602 0 0.0016421952905518659 0.014415639478463018 0 0.001917698146634686 0.0141899140647181 0 0.0016421952905518659 0.014415639478463018 0 0.0016182857556454777 0.014210539644940755 0 0.001917698146634686 0.0141899140647181 0 0.0016182857556454777 0.014210539644940755 0 0.001917698146634686 0.0141899140647181 0 0.0017287093861831871 0.014101799064496746 0 0.001917698146634686 0.0141899140647181 0 0.0018800366368517194 0.014051649897592205 0 0.0017287093861831871 0.014101799064496746 0 0.0018800366368517194 0.014051649897592205 0 0.0017287093861831871 0.014101799064496746 0 0.0017243835910559799 0.013950478834889377 0 0.001917698146634686 0.0141899140647181 0 0.0018800366368517194 0.014051649897592205 0 0.0020129422733133782 0.014059630438470964 0 0.0014990995638616744 0.014107364215344703 0 0.0017287093861831871 0.014101799064496746 0 0.0017243835910559799 0.013950478834889377 0 0.0013320744889901053 0.014350450141594799 0 0.0024433855991000493 0.0094768094958340206 0 0.0016182857556454777 0.014210539644940755 0 0.0014990995638616744 0.014107364215344703 0 0.0017287093861831871 0.014101799064496746 0 0.0014789426305945822 0.0022535080738884895 0 0.0020738808697038013 0.0028592291992999073 0 0.0019737694396081583 0.0022949746487984659 0 0.0020738808697038013 0.0028592291992999073 0 0.002430891922337941 0.0021546513908633838 0 0.0019737694396081583 0.0022949746487984659 0 0.0025283387181289081 0.010249284290960567 0 0.0022232415803786535 0.010422771380722094 0 0.0022995524291949164 0.010596094444607936 0 0.0024433855991000493 0.0094768094958340206 0 0.0023125135970869775 0.012849792730420291 0 0.0018800366368517194 0.014051649897592205 0 0.0017243835910559799 0.013950478834889377 0 0.0020203279265831979 0.013980600329362197 0 0.0017243835910559799 0.013950478834889377 0 0.0020203279265831979 0.013980600329362197 0 0.0020006816818879205 0.013929310689340856 0 0.0024433855991000493 0.0094768094958340206 0 0.0024780184155211815 0.0090915974489965568 0 0.0018800366368517194 0.014051649897592205 0 0.0020203279265831979 0.013980600329362197 0 0.0020129422733133782 0.014059630438470964 0 0.0020203279265831979 0.013980600329362197 0 0.0020356386932678786 0.013979952637804284 0 0.0020839586643153921 0.014008612549888798 0 0.0023703419608406503 0.013177289764956334 0 0.0023125135970869775 0.012849792730420291 0 0.0023125135970869775 0.012849792730420291 0 0.0019374923854925093 0.013474210115568376 0 0.0022788125307297807 0.013953494045834415 0 0.0023378510905151359 0.014110268021651284 0 0.0022399959750161779 0.014087832432861297 0 0.0023125135970869775 0.012849792730420291 0 0.0024780184155211815 0.0090915974489965568 0 0.0022788125307297807 0.013953494045834415 0 0.0022399959750161779 0.014087832432861297 0 0.0021464094689464643 0.014028113159479848 0 0.0023378510905151359 0.014110268021651284 0 0.0022356233537580731 0.014190942670334682 0 0.0022253379086511209 0.014297668060548895 0 0.0024780184155211815 0.0090915974489965568 0 0.0013811040136699885 0.015475975518156822 0 0.0023378510905151359 0.014110268021651284 0 0.0022399959750161779 0.014087832432861297 0 0.0022356233537580731 0.014190942670334682 0 0.002430891922337941 0.0021546513908633838 0 0.0018513624879550022 0.0019050871761776319 0 0.0019737694396081583 0.0022949746487984659 0 0.0014789426305945822 0.0022535080738884895 0 0.0018513624879550022 0.0019050871761776319 0 0.0019737694396081583 0.0022949746487984659 0 0.0021190179928894264 0.014155235447757228 0 0.0020805477986695774 0.014185585217677097 0 0.0021474118274224904 0.014038276224464382 0 0.0020805477986695774 0.014185585217677097 0 0.0021474118274224904 0.014038276224464382 0 0.0020052369863360182 0.014221531317419161 0 0.0021190179928894264 0.014155235447757228 0 0.0021438426564564868 0.014167133006307646 0 0.0021338634806534322 0.014100390412363455 0 0.0020805477986695774 0.014185585217677097 0 0.0020490883160936388 0.014247423840391179 0 0.0020958564222395824 0.014266440371583195 0 0.0021190179928894264 0.014155235447757228 0 0.0020805477986695774 0.014185585217677097 0 0.0020958564222395824 0.014266440371583195 0 0.0021190179928894264 0.014155235447757228 0 0.0021320796734895053 0.014225492292696281 0 0.0020958564222395824 0.014266440371583195 0 0.0021320796734895053 0.014225492292696281 0 0.0021271584374386822 0.014273797684302519 0 0.0020958564222395824 0.014266440371583195 0 0.0021190179928894264 0.014155235447757228 0 0.0021320796734895053 0.014225492292696281 0 0.0021438426564564868 0.014167133006307646 0 0.0021320796734895053 0.014225492292696281 0 0.0021633579437128564 0.014224809731145188 0 0.0021438426564564868 0.014167133006307646 0 0.0021320796734895053 0.014225492292696281 0 0.0021633579437128564 0.014224809731145188 0 0.0021515754702041974 0.014267951799114316 0 0.0021820704755289039 0.014225606253335025 0 0.0021781882682222939 0.014188069826609254 0 0.0022069616452823192 0.01425197702600367 0 0.0021633579437128564 0.014224809731145188 0 0.0021820704755289039 0.014225606253335025 0 0.0021781882682222939 0.014188069826609254 0 0.0021781882682222939 0.014188069826609254 0 0.0021438426564564868 0.014167133006307646 0 0.0021471831984384965 0.014107439864490012 0 0.0021633579437128564 0.014224809731145188 0 0.0021781882682222939 0.014188069826609254 0 0.0021438426564564868 0.014167133006307646 0 0.0021781882682222939 0.014188069826609254 0 0.0022356233537580731 0.014190942670334682 0 0.0022177845937514265 0.014245843271960396 0 0.0021781882682222939 0.014188069826609254 0 0.0022069616452823192 0.01425197702600367 0 0.0022177845937514265 0.014245843271960396 0 0.0021781882682222939 0.014188069826609254 0 0.0022356233537580731 0.014190942670334682 0 0.0021850997211428753 0.014122286335507715 0 0.0022399959750161779 0.014087832432861297 0 0.0022356233537580731 0.014190942670334682 0 0.0021850997211428753 0.014122286335507715 0 0.0022399959750161779 0.014087832432861297 0 0.0021850997211428753 0.014122286335507715 0 0.0021464094689464643 0.014028113159479848 0 0.0021781882682222939 0.014188069826609254 0 0.0021850997211428753 0.014122286335507715 0 0.0021471831984384965 0.014107439864490012 0 0.0021850997211428753 0.014122286335507715 0 0.0021464094689464643 0.014028113159479848 0 0.0021471831984384965 0.014107439864490012 0 0.0021464094689464643 0.014028113159479848 0 0.0021471831984384965 0.014107439864490012 0 0.0021267096076237526 0.014048191923135217 0 0.0021438426564564868 0.014167133006307646 0 0.0021471831984384965 0.014107439864490012 0 0.0021338634806534322 0.014100390412363455 0 0.0021471831984384965 0.014107439864490012 0 0.0021338634806534322 0.014100390412363455 0 0.0021267096076237526 0.014048191923135217 0 0.0020129422733133782 0.014059630438470964 0 0.0020969640110493283 0.014033432763306904 0 0.0021474118274224904 0.014038276224464382 0 0.0021267096076237526 0.014048191923135217 0 0.0020969640110493283 0.014033432763306904 0 0.0021474118274224904 0.014038276224464382 0 0.0021338634806534322 0.014100390412363455 0 0.0021267096076237526 0.014048191923135217 0 0.0021474118274224904 0.014038276224464382 0 0.0020356386932678786 0.013979952637804284 0 0.0021464094689464643 0.014028113159479848 0 0.0020839586643153921 0.014008612549888798 0 0.0021464094689464643 0.014028113159479848 0 0.0021267096076237526 0.014048191923135217 0 0.0020839586643153921 0.014008612549888798 0 0.0021267096076237526 0.014048191923135217 0 0.0020839586643153921 0.014008612549888798 0 0.0020969640110493283 0.014033432763306904 0 0.0020839586643153921 0.014008612549888798 0 0.0020129422733133782 0.014059630438470964 0 0.0020969640110493283 0.014033432763306904 0 0.0020203279265831979 0.013980600329362197 0 0.0020839586643153921 0.014008612549888798 0 0.0020129422733133782 0.014059630438470964 0 0.0022805717217867197 0.013760900364328055 0 0.0022006156866198646 0.015346619442765625 0 0.0021190179928894264 0.014155235447757228 0 0.0021338634806534322 0.014100390412363455 0 0.0021474118274224904 0.014038276224464382 0 0.0022707373856502532 0.01398943966053749 0 0.0023820237210948878 0.014224110012915259 0 0.00261133632939625 0.014091671991397417 0 0.001917698146634686 0.0141899140647181 0 0.0022707373856502532 0.01398943966053749 0 0.0023820237210948878 0.014224110012915259 0 0.001917698146634686 0.0141899140647181 0 0.0020129422733133782 0.014059630438470964 0 0.0021474118274224904 0.014038276224464382 0 0.0018852758739002677 0.014283090483945417 0 0.0022805717217867197 0.013760900364328055 0 0.001917698146634686 0.0141899140647181 0 0.0023820237210948878 0.014224110012915259 0 0.0022597538024035674 0.014467369215527794 0 0.0019502134964622905 0.014496628636608602 0 0.001917698146634686 0.0141899140647181 0 0.0022597538024035674 0.014467369215527794 0 0.0023820237210948878 0.014224110012915259 0 0.0022597538024035674 0.014467369215527794 0 0.0026990239828028452 0.014471566638606027 0 0.0019107903957308434 0.018370286788492049 0 0.0019221804141328119 0.018367650228344402 0 0.0019150192362670647 0.018385676891829149 0 0.0019107903957308434 0.018370286788492049 0 0.0018945478001041497 0.018341683878077893 0 0.0019221804141328119 0.018367650228344402 0 0.0023820237210948878 0.014224110012915259 0 0.0026990239828028452 0.014471566638606027 0 0.00261133632939625 0.014091671991397417 0 0.0022597518643773071 0.016549588307032716 0 0.0022678470399582437 0.016335824687721601 0 0.0022678470399582437 0.016335824687721601 0 0.0022006156866198646 0.015346619442765625 0 0.0022707373856502532 0.01398943966053749 0 0.00261133632939625 0.014091671991397417 0 0.0025640491549770274 0.013781080069234902 0 0.0018945478001041497 0.018341683878077893 0 0.0019243685853491954 0.018318518288823842 0 0.0019221804141328119 0.018367650228344402 0 0.0018945478001041497 0.018341683878077893 0 0.0019243685853491954 0.018318518288823842 0 0.0018815156051697794 0.018280239779091469 0 0.001427389657478291 0.021496627500561204 0 0.0013786201712732422 0.020685081933299508 0 0.0019243685853491954 0.018318518288823842 0 0.0018815156051697794 0.018280239779091469 0 0.0019171100574492308 0.018253512393393581 0 0.001427389657478291 0.021496627500561204 0 0.0015400569607104471 0.018012736555567399 0 0.0020055096260501205 0.014226859139200241 0 0.0020090940231158125 0.014249947662449032 0 0.0018626704279325924 0.01442450175154154 0 0.0022006156866198646 0.015346619442765625 0 0.002173998705016902 0.015121786922540128 0 0.0020090940231158125 0.014249947662449032 0 0.0020490883160936388 0.014247423840391179 0 0.0020486724095029551 0.014310860884574273 0 0.0020490883160936388 0.014247423840391179 0 0.0020486724095029551 0.014310860884574273 0 0.0020958564222395824 0.014266440371583195 0 0.0020805477986695774 0.014185585217677097 0 0.0020052369863360182 0.014221531317419161 0 0.0020490883160936388 0.014247423840391179 0 0.0020052369863360182 0.014221531317419161 0 0.0020090940231158125 0.014249947662449032 0 0.0020490883160936388 0.014247423840391179 0 0.0007276879615631547 0.023507880611187245 0 0.00062680261431679468 0.023585339569259248 0 0.00078582145576758114 0.023593256967476751 0 0.00088067395582208045 0.023453274951164546 0 0.0007276879615631547 0.023507880611187245 0 0.00078582145576758114 0.023593256967476751 0 0.00088067395582208045 0.023453274951164546 0 0.00076388302458565776 0.023407766497206047 0 0.00086104857118893968 0.02332642702644476 0 0.00088067395582208045 0.023453274951164546 0 0.0007276879615631547 0.023507880611187245 0 0.00076388302458565776 0.023407766497206047 0 0.0007276879615631547 0.023507880611187245 0 0.00076388302458565776 0.023407766497206047 0 0.0006150691458660459 0.023467866981894295 0 0.00076388302458565776 0.023407766497206047 0 0.00066730252182125422 0.023362421033908946 0 0.0006150691458660459 0.023467866981894295 0 0.00076388302458565776 0.023407766497206047 0 0.00076270590042304995 0.023305721438938731 0 0.00066730252182125422 0.023362421033908946 0 0.00076270590042304995 0.023305721438938731 0 0.00069702036455067666 0.023229750792006443 0 0.00066730252182125422 0.023362421033908946 0 0.00076270590042304995 0.023305721438938731 0 0.00086104857118893968 0.02332642702644476 0 0.00084872071003534884 0.02319179056490776 0 0.00076388302458565776 0.023407766497206047 0 0.00076270590042304995 0.023305721438938731 0 0.00086104857118893968 0.02332642702644476 0 0.0013786201712732422 0.020685081933299508 0 0.0014036453591005252 0.020980219021902842 0 0.00076270590042304995 0.023305721438938731 0 0.00084872071003534884 0.02319179056490776 0 0.00069702036455067666 0.023229750792006443 0 0.00084872071003534884 0.02319179056490776 0 0.00069702036455067666 0.023229750792006443 0 0.00076042093210663465 0.023140106802482002 0 0.00069702036455067666 0.023229750792006443 0 0.00076042093210663465 0.023140106802482002 0 0.0006617006506298667 0.023095648309950915 0 0.0014695758004792104 0.031845055077180821 0 0.0014862408897467305 0.031882379855632678 0 0.0014868949385911825 0.031824667025621527 0 0.0012610865024115347 0.019910616400612369 0 0.0012350752559622214 0.027359664166105472 0 0.0010540202815122052 0.024589547545809352 0 0.0013525764463948333 0.024749957789023138 0 0.00079651536732797904 0.024837761409192045 0 0.00076042093210663465 0.023140106802482002 0 0.00083806793211412109 0.023041444755854072 0 0.0006617006506298667 0.023095648309950915 0 0.00082883188419283855 0.02855777356907532 0 0.0012350752559622214 0.027359664166105472 0 0.0012610865024115347 0.019910616400612369 0 0.0016579121533185132 0.024388336750926932 0 0.0010540202815122052 0.024589547545809352 0 0.0013525764463948333 0.024749957789023138 0 0.0013122748581289236 0.024353665393703591 0 0.0026807388472953218 0.015316501768405589 0 0.0026746338160775398 0.015412260028460592 0 0.0027399199983783738 0.01568800445399254 0 0.0019150192362670647 0.018385676891829149 0 0.001905214179371626 0.018373698550806856 0 0.0019141424264448195 0.018372544913545438 0 0.0014036453591005252 0.020980219021902842 0 0.0012610865024115347 0.019910616400612369 0 0.00084872071003534884 0.02319179056490776 0 0.00076042093210663465 0.023140106802482002 0 0.00083806793211412109 0.023041444755854072 0 0.0019107903957308434 0.018370286788492049 0 0.0019141424264448195 0.018372544913545438 0 0.0019237883468232371 0.01835380741471514 0 0.0019107903957308434 0.018370286788492049 0 0.0019150192362670647 0.018385676891829149 0 0.0019141424264448195 0.018372544913545438 0 0.0026990239828028452 0.014471566638606027 0 0.0024878847503234797 0.014716400183536607 0 0.0027781262353523272 0.01493282811007678 0 0.0022597538024035674 0.014467369215527794 0 0.0026990239828028452 0.014471566638606027 0 0.0024878847503234797 0.014716400183536607 0 0.0022597518643773071 0.016549588307032716 0 0.0027735256840215449 0.015903556898379169 0 0.0024105597516636901 0.014979326557033658 0 0.0024878847503234797 0.014716400183536607 0 0.0027781262353523272 0.01493282811007678 0 0.0024105597516636901 0.014979326557033658 0 0.0026150530090934244 0.015143171686908975 0 0.002581240613508689 0.015211329121988169 0 0.0024070484422930812 0.014900843216935895 0 0.0027735256840215449 0.015903556898379169 0 0.0026150530090934244 0.015143171686908975 0 0.0026120872794877341 0.015253137925436283 0 0.002581240613508689 0.015211329121988169 0 0.0026807388472953218 0.015316501768405589 0 0.0026746338160775398 0.015412260028460592 0 0.0025966869488469398 0.015273661609259071 0 0.0012610865024115347 0.019910616400612369 0 0.0027735256840215449 0.015903556898379169 0 0.001905214179371626 0.018373698550806856 0 0.0019141424264448195 0.018372544913545438 0 0.0019237883468232371 0.01835380741471514 0 0.0026746338160775398 0.015412260028460592 0 0.0026120872794877341 0.015253137925436283 0 0.002581240613508689 0.015211329121988169 0 0.0026746338160775398 0.015412260028460592 0 0.0025966869488469398 0.015273661609259071 0 0.0026120872794877341 0.015253137925436283 0 0.0027735256840215449 0.015903556898379169 0 0.0026608965718704428 0.015238343861728681 0 0.0026746338160775398 0.015412260028460592 0 0.0024534508242428474 0.015624722490825809 0 0.0022578432281094591 0.015612840271085534 0 0.0026746338160775398 0.015412260028460592 0 0.0025767657165509349 0.01561380831475814 0 0.0024534508242428474 0.015624722490825809 0 0.0026715935773009981 0.015395927030551286 0 0.0024293086765092052 0.015417098312601692 0 0.0024534508242428474 0.015624722490825809 0 0.0023680683096540095 0.015738827028561189 0 0.0022578432281094591 0.015612840271085534 0 0.0024534508242428474 0.015624722490825809 0 0.0023680683096540095 0.015738827028561189 0 0.002490231451227622 0.015758171330736585 0 0.002490231451227622 0.015758171330736585 0 0.0024375007990464887 0.015997426280235903 0 0.0027399199983783738 0.01568800445399254 0 0.0025767657165509349 0.01561380831475814 0 0.0024534508242428474 0.015624722490825809 0 0.002490231451227622 0.015758171330736585 0 0.0019509072241536685 0.015681405521564783 0 0.0022578432281094591 0.015612840271085534 0 0.0022544146630106049 0.015793535716143465 0 0.0023680683096540095 0.015738827028561189 0 0.0022578432281094591 0.015612840271085534 0 0.0022544146630106049 0.015793535716143465 0 0.0023117395144044714 0.015997201478559174 0 0.0022544146630106049 0.015793535716143465 0 0.0024524269225900497 0.015862004901213946 0 0.0023117395144044714 0.015997201478559174 0 0.002118299646613025 0.015885409503158691 0 0.0022544146630106049 0.015793535716143465 0 0.0025147400739636821 0.015511810308215371 0 0.0015582755681146239 0.01888327366682346 0 0.0023680683096540095 0.015738827028561189 0 0.0022544146630106049 0.015793535716143465 0 0.0024524269225900497 0.015862004901213946 0 0.0023680683096540095 0.015738827028561189 0 0.002490231451227622 0.015758171330736585 0 0.0024524269225900497 0.015862004901213946 0 0.002999469952874497 0.015423143485147773 0 0.0015582755681146239 0.01888327366682346 0 0.0015567419370432155 0.031035534333541604 0 0.0016579121533185132 0.024388336750926932 0 0.0016403005893396712 0.028269098750653341 0 -0.00053699536644524043 0.026347620903495308 0 0.0013353350265442846 0.024661037653552893 0 0.0015095565593689802 0.031956105471553801 0 0.0014903413358172898 0.031925627354544475 0 0.0014531059581669116 0.031851076921145041 0 0.0015582755681146239 0.01888327366682346 0 0.0016579121533185132 0.024388336750926932 0 0.0014959160052684037 0.031963606467317898 0 0.0014903413358172898 0.031925627354544475 0 0.0014978898039881548 0.031963939878928496 0 0.0014695758004792104 0.031845055077180821 0 0.0014862408897467305 0.031882379855632678 0 0.0014531059581669116 0.031851076921145041 0 0.0014903413358172898 0.031925627354544475 0 0.0014862408897467305 0.031882379855632678 0 0.0014531059581669116 0.031851076921145041 0 0.0014903413358172898 0.031925627354544475 0 0.0014862408897467305 0.031882379855632678 0 0.0015006131155749316 0.03192556828687864 0 0.00082883188419283855 0.02855777356907532 0 0.0016579121533185132 0.024388336750926932 0 0.0026746338160775398 0.015412260028460592 0 0.0025767657165509349 0.01561380831475814 0 0.0027399199983783738 0.01568800445399254 0 0.0025767657165509349 0.01561380831475814 0 0.002490231451227622 0.015758171330736585 0 0.0027399199983783738 0.01568800445399254 0 0.0015314063227623519 0.031919314470118247 0 0.0015727069837041785 0.0319218538269226 0 0.0015527187089510218 0.031837807940838986 0 0.0015314063227623519 0.031919314470118247 0 0.0015006131155749316 0.03192556828687864 0 0.0015132769704125383 0.031964572700656044 0 0.0015314063227623519 0.031919314470118247 0 0.0015053580469565908 0.031884567535465667 0 0.0015207122302234902 0.031865345394902156 0 0.0015314063227623519 0.031919314470118247 0 0.0015053580469565908 0.031884567535465667 0 0.0015006131155749316 0.03192556828687864 0 0.0014862408897467305 0.031882379855632678 0 0.0015053580469565908 0.031884567535465667 0 0.0015006131155749316 0.03192556828687864 0 0.0015006131155749316 0.03192556828687864 0 0.0014978898039881548 0.031963939878928496 0 0.0015132769704125383 0.031964572700656044 0 0.0014903413358172898 0.031925627354544475 0 0.0015006131155749316 0.03192556828687864 0 0.0014978898039881548 0.031963939878928496 0 0.0015095986045723301 0.032018975006388936 0 0.0014978898039881548 0.031963939878928496 0 0.0015132769704125383 0.031964572700656044 0 0.0015095986045723301 0.032018975006388936 0 0.0015132769704125383 0.031964572700656044 0 0.0015308271642535359 0.031990392940843083 0 0.0015314063227623519 0.031919314470118247 0 0.0015308271642535359 0.031990392940843083 0 0.001568808529467388 0.031979678589596515 0 0.0015314063227623519 0.031919314470118247 0 0.0015132769704125383 0.031964572700656044 0 0.0015308271642535359 0.031990392940843083 0 0.001539222132060321 0.032054589146054822 0 0.0015095986045723301 0.032018975006388936 0 0.0015308271642535359 0.031990392940843083 0 0.001539222132060321 0.032054589146054822 0 0.0015308271642535359 0.031990392940843083 0 0.001568808529467388 0.031979678589596515 0 0.001539222132060321 0.032054589146054822 0 0.001568808529467388 0.031979678589596515 0 0.0015987481217077429 0.032041656087103153 0 0.0013918922131956933 0.033166180973107438 0 0.0011729167286509677 0.033526888070071155 0 0.0016835345348843232 0.032109811008984135 0 0.0015987481217077429 0.032041656087103153 0 0.0016557258000992805 0.031961703789282141 0 0.001568808529467388 0.031979678589596515 0 0.0015987481217077429 0.032041656087103153 0 0.0016557258000992805 0.031961703789282141 0 0.0016557258000992805 0.031961703789282141 0 0.0016110344404641102 0.031904913428000427 0 0.0015727069837041785 0.0319218538269226 0 0.0016557258000992805 0.031961703789282141 0 0.0016110344404641102 0.031904913428000427 0 0.0016424455686941549 0.031883192928738396 0 0.0011729167286509677 0.033526888070071155 0 0.0010461379196786153 0.032985951077407448 0 0.001568808529467388 0.031979678589596515 0 0.0016557258000992805 0.031961703789282141 0 0.0015727069837041785 0.0319218538269226 0 0.0015314063227623519 0.031919314470118247 0 0.001568808529467388 0.031979678589596515 0 0.0015727069837041785 0.0319218538269226 0 0.0016110344404641102 0.031904913428000427 0 0.0015727069837041785 0.0319218538269226 0 0.0015527187089510218 0.031837807940838986 0 0.0016110344404641102 0.031904913428000427 0 0.001645098665068651 0.031868129326464843 0 0.0015527187089510218 0.031837807940838986 0 0.001645098665068651 0.031868129326464843 0 0.0016449030235536777 0.031838316573616181 0 0.0015527187089510218 0.031837807940838986 0 0.0019006060805753654 0.031697566720563265 0 0.0010461379196786153 0.032985951077407448 0 0.0010461379196786153 0.032985951077407448 0 0.0010160765651366953 0.03099199184766329 0 0.0006252383154704053 0.029206750616182799 0 0.0010209515622210789 0.029489370476565916 0 0.00059361073909278562 0.029681029777010259 0 0.0010160765651366953 0.03099199184766329 0 0.00056696887022354963 0.029798943110031586 0 0.0010209515622210789 0.029489370476565916 0 0.0016264095293500678 0.029461894078009854 0 0.0013582423526086952 0.029126235476256545 0 0.0010160765651366953 0.03099199184766329 0 0.0015857893347511127 0.030849167815684173 0 0.0006252383154704053 0.029206750616182799 0 0.0010209515622210789 0.029489370476565916 0 0.0013582423526086952 0.029126235476256545 0 0.0016264095293500678 0.029461894078009854 0 0.0013582423526086952 0.029126235476256545 0 0.0020682271924946558 0.029036711221903527 0 0.0015857893347511127 0.030849167815684173 0 0.0012350752559622214 0.027359664166105472 0 0.0015314063227623519 0.031919314470118247 0 0.0015527187089510218 0.031837807940838986 0 0.0015207122302234902 0.031865345394902156 0 0.0015527187089510218 0.031837807940838986 0 0.0015207122302234902 0.031865345394902156 0 0.0014868949385911825 0.031824667025621527 0 0.0014862408897467305 0.031882379855632678 0 0.0015053580469565908 0.031884567535465667 0 0.0014868949385911825 0.031824667025621527 0 0.0015053580469565908 0.031884567535465667 0 0.0015207122302234902 0.031865345394902156 0 0.0014868949385911825 0.031824667025621527 0 0.00069702036455067666 0.023229750792006443 0 0.00054160976728309879 0.023215764272018127 0 0.0006617006506298667 0.023095648309950915 0 0.0011764737806155923 0.02612893299517164 0 0.0012350752559622214 0.027359664166105472 0 0.00069702036455067666 0.023229750792006443 0 0.00054160976728309879 0.023215764272018127 0 0.00053491466942401551 0.02336055570413758 0 0.00054160976728309879 0.023215764272018127 0 0.00053491466942401551 0.02336055570413758 0 0.00041677268622697676 0.02333558142727683 0 0.0011764737806155923 0.02612893299517164 0 0.00075649065747509419 0.026656469090749264 0 0.00053491466942401551 0.02336055570413758 0 0.00046752320293387968 0.02349247718337116 0 0.00041093294294403636 0.023437876657763375 0 0.00053491466942401551 0.02336055570413758 0 0.00066730252182125422 0.023362421033908946 0 0.0006150691458660459 0.023467866981894295 0 0.00069702036455067666 0.023229750792006443 0 0.00053491466942401551 0.02336055570413758 0 0.00066730252182125422 0.023362421033908946 0 0.00053491466942401551 0.02336055570413758 0 0.0006150691458660459 0.023467866981894295 0 0.00046752320293387968 0.02349247718337116 0 0.0006150691458660459 0.023467866981894295 0 0.00046752320293387968 0.02349247718337116 0 0.00052172815451645145 0.023562155262751225 0 0.0006150691458660459 0.023467866981894295 0 0.00052172815451645145 0.023562155262751225 0 0.00062680261431679468 0.023585339569259248 0 0.0007276879615631547 0.023507880611187245 0 0.0006150691458660459 0.023467866981894295 0 0.00062680261431679468 0.023585339569259248 0 0.00038664435097146446 0.023586539763330076 0 0.00034013704656411591 0.023530274184146514 0 0.00028614347646604239 0.023589295995121339 0 0.00021768969752813076 0.023621284486884643 0 0.00010633653240950545 0.02346609135073608 0 8.8679535146536089e-05 0.023711974780585159 0 0.00021768969752813076 0.023621284486884643 0 0.00037445603740925891 0.023538929033254951 0 0.0003048715533277589 0.023755448459441841 0 0.0003107522273201161 0.023496506081785825 0 0.00042820727842158337 0.024667864386800714 0 0.00021768969752813076 0.023621284486884643 0 0.00037445603740925891 0.023538929033254951 0 0.00010633653240950545 0.02346609135073608 0 0.00052172815451645145 0.023562155262751225 0 0.00037445603740925891 0.023538929033254951 0 0.00047249344534256089 0.023685787093672573 0 0.00046752320293387968 0.02349247718337116 0 0.00052172815451645145 0.023562155262751225 0 0.00038664435097146446 0.023586539763330076 0 0.00053351043205646619 0.023573863235608557 0 0.0003107522273201161 0.023496506081785825 0 0.00046752320293387968 0.02349247718337116 0 0.00034013704656411591 0.023530274184146514 0 0.00041093294294403636 0.023437876657763375 0 0.00046752320293387968 0.02349247718337116 0 0.00038664435097146446 0.023586539763330076 0 0.00034013704656411591 0.023530274184146514 0 0.00034013704656411591 0.023530274184146514 0 0.00024817245756606453 0.023465468597252261 0 0.00041093294294403636 0.023437876657763375 0 0.00034013704656411591 0.023530274184146514 0 0.00024817245756606453 0.023465468597252261 0 0.00016563970308098021 0.023761636998250974 0 0.00045538210008659201 0.023431700991059134 0 0.00042820727842158337 0.024667864386800714 0 0.00067608120825582831 0.03028230497610862 0 0.00082299706313063495 0.029936317958757615 0 0.00059687275558024673 0.030199070327633772 0 0.0004955325010674547 0.026867228760635777 0 0.00075649065747509419 0.026656469090749264 0 0.00067608120825582831 0.03028230497610862 0 0.00082299706313063495 0.029936317958757615 0 0.0011642889039149343 0.029905413457150726 0 0.00024817245756606453 0.023465468597252261 0 0.00041093294294403636 0.023437876657763375 0 0.00041677268622697676 0.02333558142727683 0 0.00053491466942401551 0.02336055570413758 0 0.00041093294294403636 0.023437876657763375 0 0.00041677268622697676 0.02333558142727683 0 0.0010209515622210789 0.029489370476565916 0 0.00082299706313063495 0.029936317958757615 0 0.0011642889039149343 0.029905413457150726 0 0.0010209515622210789 0.029489370476565916 0 0.0016264095293500678 0.029461894078009854 0 0.0011642889039149343 0.029905413457150726 0 0.00082299706313063495 0.029936317958757615 0 0.00059361073909278562 0.029681029777010259 0 0.00059687275558024673 0.030199070327633772 0 0.0010209515622210789 0.029489370476565916 0 0.00082299706313063495 0.029936317958757615 0 0.00059361073909278562 0.029681029777010259 0 0.00056696887022354963 0.029798943110031586 0 0.00058287294427134494 0.030261895572050692 0 0.0005408343078080859 0.030348810028330772 0 0.00061249169992154168 0.030299236775977175 0 0.00059608208646256395 0.030387294075667433 0 0.0005408343078080859 0.030348810028330772 0 0.00061249169992154168 0.030299236775977175 0 0.00059687275558024673 0.030199070327633772 0 0.00061249169992154168 0.030299236775977175 0 0.00065504484021364304 0.030369368637704973 0 0.00059608208646256395 0.030387294075667433 0 0.00065504484021364304 0.030369368637704973 0 0.00063990149473819031 0.030287663104729273 0 0.00067265969075271201 0.030330129316468449 0 0.00061249169992154168 0.030299236775977175 0 0.00065504484021364304 0.030369368637704973 0 0.00063990149473819031 0.030287663104729273 0 0.00063990149473819031 0.030287663104729273 0 0.00062365377631189069 0.030264624767733922 0 0.00063768955946375677 0.030271309592168602 0 0.00063990149473819031 0.030287663104729273 0 0.00061525634582097364 0.030248262165476825 0 0.00062365377631189069 0.030264624767733922 0 0.00061249169992154168 0.030299236775977175 0 0.00061525634582097364 0.030248262165476825 0 0.00059687275558024673 0.030199070327633772 0 0.00061249169992154168 0.030299236775977175 0 0.00063990149473819031 0.030287663104729273 0 0.00061525634582097364 0.030248262165476825 0 0.00067608120825582831 0.03028230497610862 0 0.00059687275558024673 0.030199070327633772 0 0.00062110328270703651 0.030259285428406932 0 0.00061525634582097364 0.030248262165476825 0 0.00059687275558024673 0.030199070327633772 0 0.00062110328270703651 0.030259285428406932 0 0.00024817245756606453 0.023465468597252261 0 0.00016563970308098021 0.023761636998250974 0 -5.6065574788146244e-05 0.023757164009112305 0 0.0004955325010674547 0.026867228760635777 0 0.00013124061319574212 0.026910117698231182 0 0.00067608120825582831 0.03028230497610862 0 0.00062110328270703651 0.030259285428406932 0 0.00060777150865558847 0.03024613678819945 0 0.00062110328270703651 0.030259285428406932 0 0.0006213852322804167 0.030260616849826755 0 0.00060777150865558847 0.03024613678819945 0 0.00061525634582097364 0.030248262165476825 0 0.00062110328270703651 0.030259285428406932 0 0.00062365377631189069 0.030264624767733922 0 0.00062110328270703651 0.030259285428406932 0 0.0006213852322804167 0.030260616849826755 0 0.00062365377631189069 0.030264624767733922 0 0.0006213852322804167 0.030260616849826755 0 0.00062365377631189069 0.030264624767733922 0 0.00063768955946375677 0.030271309592168602 0 0.00063990149473819031 0.030287663104729273 0 0.00063768955946375677 0.030271309592168602 0 0.00065808466613494849 0.030291348528730225 0 0.00063768955946375677 0.030271309592168602 0 0.00063089701899999434 0.030250828186783141 0 0.00065808466613494849 0.030291348528730225 0 0.0006213852322804167 0.030260616849826755 0 0.0006251674021356241 0.030257162724238867 0 0.00060777150865558847 0.03024613678819945 0 0.0006213852322804167 0.030260616849826755 0 0.00063768955946375677 0.030271309592168602 0 0.0006251674021356241 0.030257162724238867 0 0.00063768955946375677 0.030271309592168602 0 0.0006251674021356241 0.030257162724238867 0 0.00063089701899999434 0.030250828186783141 0 0.00060242760355492598 0.029957431270250159 0 0.0007846017337086829 0.029407950086243268 0 0.0006251674021356241 0.030257162724238867 0 0.00062886785170493766 0.030243060901443752 0 0.00060777150865558847 0.03024613678819945 0 0.0007846017337086829 0.029407950086243268 0 0.00013124061319574212 0.026910117698231182 0 0.00041528692575464249 0.031303565267553193 0 0.00048055566581939839 0.031153380987201478 0 0.00065858872681890431 0.03134971840688424 0 0.00014376097149185394 0.02741896909986322 0 0.00024054405996282676 0.027824420196841029 0 0.00040370620240841537 0.027443552393158942 0 0.0007846017337086829 0.029407950086243268 0 0.0005097703515777438 0.031203906331131428 0 1.6286136612572965e-05 0.027966381848025631 0 -9.9206568454734848e-05 0.027988066263457335 0 0.00024054405996282676 0.027824420196841029 0 0.00014376097149185394 0.02741896909986322 0 -9.9206568454734848e-05 0.027988066263457335 0 0.00024054405996282676 0.027824420196841029 0 0.00024054405996282676 0.027824420196841029 0 0.00094330804925940397 0.027493058349620465 0 0.00040370620240841537 0.027443552393158942 0 0.00024054405996282676 0.027824420196841029 0 0.00094330804925940397 0.027493058349620465 0 0.00014528241836614936 0.028257654585450889 0 0.00042820727842158337 0.024667864386800714 0 0.00017774049169874681 0.027702734796211794 0 0.00010633653240950545 0.02346609135073608 0 8.8679535146536089e-05 0.023711974780585159 0 -0.00010530997511790555 0.023759200941242013 0 0.00042820727842158337 0.024667864386800714 0 0.00013124061319574212 0.026910117698231182 0 -6.4815489374089505e-05 0.034950229597114968 0 -0.00010598553214088872 0.034832126799984958 0 -0.00013716286400730052 0.035002400417238851 0 -1.4412073013676744e-07 0.034999885952523291 0 5.0957692737590381e-05 0.035016255908146179 0 -6.4815489374089505e-05 0.034950229597114968 0 -0.00013716286400730052 0.035002400417238851 0 -4.8556072777997865e-07 0.035000935255776265 0 -6.4815489374089505e-05 0.034950229597114968 0 1.0843526320651211e-08 0.034999809128821384 0 -0.00010598553214088872 0.034832126799984958 0 -6.4815489374089505e-05 0.034950229597114968 0 1.0843526320651211e-08 0.034999809128821384 0 -4.8556072777997865e-07 0.035000935255776265 0 0.0005097703515777438 0.031203906331131428 0 0.00027587588803172338 0.033035507066970039 0 -0.00033342099154956437 0.034784980785075637 0 -0.00010598553214088872 0.034832126799984958 0 -0.00013716286400730052 0.035002400417238851 0 0.0007846017337086829 0.029407950086243268 0 0.00027587588803172338 0.033035507066970039 0 0.00063089701899999434 0.030250828186783141 0 0.00067158035485042754 0.030283901614530942 0 0.00065808466613494849 0.030291348528730225 0 0.00067158035485042754 0.030283901614530942 0 0.00065808466613494849 0.030291348528730225 0 0.00069221391727124042 0.030325414778359743 0 0.00027587588803172338 0.033035507066970039 0 0.00016968395631662158 0.033360631898712197 0 0.00027587588803172338 0.033035507066970039 0 -5.5477560538152181e-05 0.035050500258925851 0 -3.0323891656846563e-06 0.034978159178269963 0 -4.8556072777997865e-07 0.035000935255776265 0 -2.7242267852557884e-07 0.034995545144486016 0 1.0843526320651211e-08 0.034999809128821384 0 -4.8556072777997865e-07 0.035000935255776265 0 -9.3255504629941704e-09 0.035000092459560365 0 -4.8556072777997865e-07 0.035000935255776265 0 -9.3255504629941704e-09 0.035000092459560365 0 -2.7242267852557884e-07 0.034995545144486016 0 -6.7970799759308562e-07 0.034998503951358104 0 0.00016968395631662158 0.033360631898712197 0 9.3239829130696962e-07 0.034998646766837761 0 0.00016968395631662158 0.033360631898712197 0 1.7265382341934888e-07 0.035000231250255288 0 7.4905143752643837e-05 0.035031059309793139 0 5.3780438847558665e-05 0.035012119170959435 0 0.00016968395631662158 0.033360631898712197 0 0.0004400852632809662 0.032584342680362366 0 1.7265382341934888e-07 0.035000231250255288 0 1.112196308166501e-05 0.035007284308025736 0 6.2898723912515605e-05 0.03502732934720957 0 -9.9170223443859017e-10 0.034999994947703741 0 1.4878053427745412e-09 0.03499999555147823 0 3.619338088267481e-07 0.034996954839365005 0 0.00063990149473819031 0.030287663104729273 0 0.00065808466613494849 0.030291348528730225 0 0.00067265969075271201 0.030330129316468449 0 0.00065808466613494849 0.030291348528730225 0 0.00069221391727124042 0.030325414778359743 0 0.00067265969075271201 0.030330129316468449 0 0.00015740170965350601 0.035063626378658647 0 6.2898723912515605e-05 0.03502732934720957 0 7.4905143752643837e-05 0.035031059309793139 0 0.00040828380205945385 0.032678765099832363 0 0.0004400852632809662 0.032584342680362366 0 1.7265382341934888e-07 0.035000231250255288 0 6.2898723912515605e-05 0.03502732934720957 0 7.4905143752643837e-05 0.035031059309793139 0 1.7265382341934888e-07 0.035000231250255288 0 5.3780438847558665e-05 0.035012119170959435 0 -1.6486153620059311e-08 0.03499986252457192 0 5.3780438847558665e-05 0.035012119170959435 0 0.00016130420221068242 0.0350201911628059 0 6.2469523022235277e-05 0.034961316890491416 0 5.3780438847558665e-05 0.035012119170959435 0 0.00013594594545234966 0.035044758347375832 0 0.00016130420221068242 0.0350201911628059 0 0.00015740170965350601 0.035063626378658647 0 7.4905143752643837e-05 0.035031059309793139 0 0.00013594594545234966 0.035044758347375832 0 7.4905143752643837e-05 0.035031059309793139 0 5.3780438847558665e-05 0.035012119170959435 0 0.00013594594545234966 0.035044758347375832 0 0.00040828380205945385 0.032678765099832363 0 0.00051906846963913826 0.033221547877097884 0 0.00015740170965350601 0.035063626378658647 0 0.00023268303861411849 0.035072288667487676 0 0.00027121231988398389 0.035073838557298953 0 0.00015740170965350601 0.035063626378658647 0 0.00023268303861411849 0.035072288667487676 0 0.00013594594545234966 0.035044758347375832 0 0.00065504484021364304 0.030369368637704973 0 0.00059608208646256395 0.030387294075667433 0 0.00058784105745760158 0.030467101147484618 0 0.00053044991121632961 0.030471826165829462 0 0.0005408343078080859 0.030348810028330772 0 0.00059608208646256395 0.030387294075667433 0 0.00018475438330847367 0.034217012711199105 0 0.00051906846963913826 0.033221547877097884 0 0.00023268303861411849 0.035072288667487676 0 0.0003479874341925901 0.035104140142365244 0 0.00026419906529967502 0.03504296722783725 0 0.00053044991121632961 0.030471826165829462 0 0.00059608208646256395 0.030387294075667433 0 0.00058784105745760158 0.030467101147484618 0 0.0010160765651366953 0.03099199184766329 0 0.00051906846963913826 0.033221547877097884 0 0.0011231653971800933 0.032335533286147286 0 0.0011072776742980222 0.032597934590074575 0 0.00078971082932438499 0.032624919731578952 0 0.0010461379196786153 0.032985951077407448 0 0.00051906846963913826 0.033221547877097884 0 0.00045892534695971687 0.035063953887623497 0 0.0003479874341925901 0.035104140142365244 0 0.00037310382108183757 0.035048277133061405 0 0.0003479874341925901 0.035104140142365244 0 0.00037310382108183757 0.035048277133061405 0 0.00026419906529967502 0.03504296722783725 0 0.00037310382108183757 0.035048277133061405 0 0.00029827606719167084 0.035000947172386387 0 0.00043664967216760754 0.034999202792005926 0 0.00037310382108183757 0.035048277133061405 0 0.00029827606719167084 0.035000947172386387 0 0.00026419906529967502 0.03504296722783725 0 0.00045892534695971687 0.035063953887623497 0 0.00037310382108183757 0.035048277133061405 0 0.00043664967216760754 0.034999202792005926 0 0.00023268303861411849 0.035072288667487676 0 0.00013594594545234966 0.035044758347375832 0 0.00016130420221068242 0.0350201911628059 0 0.00023268303861411849 0.035072288667487676 0 0.00026419906529967502 0.03504296722783725 0 0.00016130420221068242 0.0350201911628059 0 0.00029827606719167084 0.035000947172386387 0 0.00026419906529967502 0.03504296722783725 0 0.00016130420221068242 0.0350201911628059 0 0.00029827606719167084 0.035000947172386387 0 0.00014556338369957467 0.034919649798103941 0 0.00039469127994669199 0.034927602384757228 0 0.00029827606719167084 0.035000947172386387 0 0.00016130420221068242 0.0350201911628059 0 0.00014556338369957467 0.034919649798103941 0 0.00066451977272256109 0.034913912817360532 0 0.00045892534695971687 0.035063953887623497 0 0.00043664967216760754 0.034999202792005926 0 0.00029827606719167084 0.035000947172386387 0 0.00043664967216760754 0.034999202792005926 0 0.00039469127994669199 0.034927602384757228 0 0.00066451977272256109 0.034913912817360532 0 0.00043664967216760754 0.034999202792005926 0 0.00039469127994669199 0.034927602384757228 0 0.0011288788219513859 0.03436367984715448 0 0.00066451977272256109 0.034913912817360532 0 0.00041665112137349766 0.034770345024692631 0 0.00066451977272256109 0.034913912817360532 0 0.00039469127994669199 0.034927602384757228 0 0.00041665112137349766 0.034770345024692631 0 0.00050944689157488802 0.034417281258993793 0 0.00041665112137349766 0.034770345024692631 0 0.0001167318464833045 0.03470374113130132 0 0.00014556338369957467 0.034919649798103941 0 0.00039469127994669199 0.034927602384757228 0 0.00041665112137349766 0.034770345024692631 0 0.00014556338369957467 0.034919649798103941 0 0.0001167318464833045 0.03470374113130132 0 2.6549390038788339e-05 0.034794383332396879 0 0.00014556338369957467 0.034919649798103941 0 0.00041665112137349766 0.034770345024692631 0 0.0001167318464833045 0.03470374113130132 0 0.00014556338369957467 0.034919649798103941 0 2.6549390038788339e-05 0.034794383332396879 0 6.2469523022235277e-05 0.034961316890491416 0 2.6549390038788339e-05 0.034794383332396879 0 -1.6486153620059311e-08 0.03499986252457192 0 6.2469523022235277e-05 0.034961316890491416 0 5.3780438847558665e-05 0.035012119170959435 0 -1.6486153620059311e-08 0.03499986252457192 0 6.2469523022235277e-05 0.034961316890491416 0 0.00016130420221068242 0.0350201911628059 0 0.00014556338369957467 0.034919649798103941 0 6.2469523022235277e-05 0.034961316890491416 0 -0.00021688688475993319 0.034831787518985961 0 -8.7025286169335042e-05 0.034882206875673158 0 -0.0001532268786974349 0.034711716908903269 0 -0.00021688688475993319 0.034831787518985961 0 -0.0003637666692797498 0.034644018850164458 0 -0.00037215753077815387 0.034841891487817592 0 -0.00021688688475993319 0.034831787518985961 0 -0.0001532268786974349 0.034711716908903269 0 -0.0003637666692797498 0.034644018850164458 0 -0.00021688688475993319 0.034831787518985961 0 -0.00037215753077815387 0.034841891487817592 0 -0.00024587218568002177 0.034932138898214372 0 -0.00037215753077815387 0.034841891487817592 0 -0.00039721220453522912 0.034932727352740237 0 -0.00024587218568002177 0.034932138898214372 0 -0.00021688688475993319 0.034831787518985961 0 -0.00011857766516862575 0.034923991527737487 0 -0.00024587218568002177 0.034932138898214372 0 -0.00021688688475993319 0.034831787518985961 0 -0.00011857766516862575 0.034923991527737487 0 -8.7025286169335042e-05 0.034882206875673158 0 -0.00011857766516862575 0.034923991527737487 0 -2.5121039425282377e-05 0.034954475830766808 0 -7.8585500177644861e-05 0.034966058400369565 0 5.4803890061041603e-09 0.034999707624369596 0 -2.5084480142150023e-05 0.034976100243934327 0 -5.6429855278147025e-08 0.035000100744908891 0 -2.5121039425282377e-05 0.034954475830766808 0 5.4803890061041603e-09 0.034999707624369596 0 -2.5084480142150023e-05 0.034976100243934327 0 -0.00011857766516862575 0.034923991527737487 0 -2.5121039425282377e-05 0.034954475830766808 0 -8.7025286169335042e-05 0.034882206875673158 0 -2.5121039425282377e-05 0.034954475830766808 0 -2.5084480142150023e-05 0.034976100243934327 0 -7.8585500177644861e-05 0.034966058400369565 0 -2.5121039425282377e-05 0.034954475830766808 0 5.8159280154641497e-06 0.034962898498692919 0 5.4803890061041603e-09 0.034999707624369596 0 -2.5121039425282377e-05 0.034954475830766808 0 5.8159280154641497e-06 0.034962898498692919 0 -8.7025286169335042e-05 0.034882206875673158 0 5.8159280154641497e-06 0.034962898498692919 0 -8.7025286169335042e-05 0.034882206875673158 0 -0.0001532268786974349 0.034711716908903269 0 5.8159280154641497e-06 0.034962898498692919 0 -0.0001532268786974349 0.034711716908903269 0 -0.00015886539745753333 0.034325719735072334 0 7.5356432145556974e-06 0.034937483082543963 0 -0.00015160445458310625 0.034660219186751801 0 5.8159280154641497e-06 0.034962898498692919 0 5.4803890061041603e-09 0.034999707624369596 0 -5.4333601434075478e-05 0.035073512876415809 0 5.4803890061041603e-09 0.034999707624369596 0 -5.4333601434075478e-05 0.035073512876415809 0 -4.6559255430445328e-08 0.035000206281473947 0 -0.0003637666692797498 0.034644018850164458 0 -0.00054591085081297718 0.034326816962193557 0 -0.00015886539745753333 0.034325719735072334 0 -0.0001532268786974349 0.034711716908903269 0 -0.0003637666692797498 0.034644018850164458 0 -0.00015886539745753333 0.034325719735072334 0 -0.0003637666692797498 0.034644018850164458 0 -0.00054591085081297718 0.034326816962193557 0 -0.00064427148888522687 0.034569987148669719 0 -0.0003637666692797498 0.034644018850164458 0 -0.00064427148888522687 0.034569987148669719 0 -0.00050419932768223951 0.034742404839745278 0 -0.00064427148888522687 0.034569987148669719 0 -0.00078623802673409885 0.034699035908059513 0 -0.0010402393931349071 0.034219460625888723 0 -0.00054591085081297718 0.034326816962193557 0 -0.00064427148888522687 0.034569987148669719 0 -0.0010402393931349071 0.034219460625888723 0 -0.0026249319010640745 0.026998091204565297 0 -0.002681546271113661 0.026802036108841795 0 -0.002716896020713688 0.027235185743838323 0 -0.0018204305871802164 0.030508326027273772 0 -0.0017881542232660759 0.030934926550296928 0 -0.0026249319010640745 0.026998091204565297 0 -0.0025358233170972209 0.027205335385501773 0 -0.002716896020713688 0.027235185743838323 0 -0.0026249319010640745 0.026998091204565297 0 -0.0026283881580483762 0.026885332091125431 0 -0.0026692788841017924 0.026848032089944497 0 -0.0026249319010640745 0.026998091204565297 0 -0.0026283881580483762 0.026885332091125431 0 -0.0025789831421228863 0.02686758494835096 0 -0.0018204305871802164 0.030508326027273772 0 -0.0010177025398837314 0.032524070060037505 0 -0.002681546271113661 0.026802036108841795 0 -0.0022479156476729778 0.027696518088220299 0 -0.0025084898093936849 0.027336703147729759 0 -0.0026249319010640745 0.026998091204565297 0 -0.0026692788841017924 0.026848032089944497 0 -0.002681546271113661 0.026802036108841795 0 -0.0026256878844116037 0.026841138847579576 0 -0.0026580307354767637 0.026860709189067924 0 -0.0026257843781379922 0.026819737760507448 0 -0.0026256878844116037 0.026841138847579576 0 -0.0026283881580483762 0.026885332091125431 0 -0.0025789831421228863 0.02686758494835096 0 -0.0026256878844116037 0.026841138847579576 0 -0.0026283881580483762 0.026885332091125431 0 -0.0026692788841017924 0.026848032089944497 0 -0.0026580307354767637 0.026860709189067924 0 -0.0026974644234931499 0.02691825540990439 0 -0.0026257843781379922 0.026819737760507448 0 -0.0026256878844116037 0.026841138847579576 0 -0.0026692788841017924 0.026848032089944497 0 -0.0026580307354767637 0.026860709189067924 0 -0.0026692788841017924 0.026848032089944497 0 -0.0026580307354767637 0.026860709189067924 0 -0.0026974644234931499 0.02691825540990439 0 -0.0026974644234931499 0.02691825540990439 0 -0.002681546271113661 0.026802036108841795 0 -0.0026486501810187913 0.027112040940457726 0 -0.0026692788841017924 0.026848032089944497 0 -0.0026974644234931499 0.02691825540990439 0 -0.002681546271113661 0.026802036108841795 0 -0.002681546271113661 0.026802036108841795 0 -0.0026486501810187913 0.027112040940457726 0 -0.0025084898093936849 0.027336703147729759 0 -0.0026722969552362562 0.027273278010868405 0 -0.0026486501810187913 0.027112040940457726 0 -0.0025084898093936849 0.027336703147729759 0 -0.0026722969552362562 0.027273278010868405 0 -0.0027928964283613225 0.027237445861272754 0 -0.0027131385421407727 0.027411411250501162 0 -0.0026722969552362562 0.027273278010868405 0 -0.0026486501810187913 0.027112040940457726 0 -0.0027928964283613225 0.027237445861272754 0 -0.0026974644234931499 0.02691825540990439 0 -0.0026486501810187913 0.027112040940457726 0 -0.0027928964283613225 0.027237445861272754 0 -0.0026974644234931499 0.02691825540990439 0 -0.0027928964283613225 0.027237445861272754 0 -0.0030742023112859686 0.027411011200181298 0 -0.0026974644234931499 0.02691825540990439 0 -0.0026257843781379922 0.026819737760507448 0 -0.0025571338370921704 0.026710902020254473 0 -0.0026256878844116037 0.026841138847579576 0 -0.0026257843781379922 0.026819737760507448 0 -0.0025712403183043393 0.026774698933135044 0 -0.00078623802673409885 0.034699035908059513 0 -0.00052692770121048785 0.034950704398460576 0 -0.00054871007265603797 0.035028697373034781 0 -0.00078623802673409885 0.034699035908059513 0 -0.0005910304680637234 0.034769148525474289 0 -0.00052692770121048785 0.034950704398460576 0 -0.0003637666692797498 0.034644018850164458 0 -0.00050419932768223951 0.034742404839745278 0 -0.00037215753077815387 0.034841891487817592 0 -0.00064427148888522687 0.034569987148669719 0 -0.00078623802673409885 0.034699035908059513 0 -0.0005910304680637234 0.034769148525474289 0 -0.00064427148888522687 0.034569987148669719 0 -0.00050419932768223951 0.034742404839745278 0 -0.0005910304680637234 0.034769148525474289 0 -0.00050419932768223951 0.034742404839745278 0 -0.0005910304680637234 0.034769148525474289 0 -0.00048676689354096477 0.034840870798001529 0 -0.0005910304680637234 0.034769148525474289 0 -0.00048676689354096477 0.034840870798001529 0 -0.00052692770121048785 0.034950704398460576 0 -0.00050419932768223951 0.034742404839745278 0 -0.00048676689354096477 0.034840870798001529 0 -0.00037215753077815387 0.034841891487817592 0 -0.00048676689354096477 0.034840870798001529 0 -0.00037215753077815387 0.034841891487817592 0 -0.00039721220453522912 0.034932727352740237 0 -0.00039721220453522912 0.034932727352740237 0 -0.00045643436280259052 0.03498750405549627 0 -0.00052692770121048785 0.034950704398460576 0 -0.00048676689354096477 0.034840870798001529 0 -0.00039721220453522912 0.034932727352740237 0 -0.00052692770121048785 0.034950704398460576 0 -0.00039721220453522912 0.034932727352740237 0 -0.00045643436280259052 0.03498750405549627 0 -0.0003800218226962137 0.035005089331792666 0 -0.00045643436280259052 0.03498750405549627 0 -0.00052692770121048785 0.034950704398460576 0 -0.00051563084648026543 0.034991280708354486 0 -0.0012161985824183333 0.033906829053691648 0 -0.0010177025398837314 0.032524070060037505 0 -0.00051563084648026543 0.034991280708354486 0 -0.00043984230795897665 0.035023760908646562 0 -0.00046453669944082637 0.03507804013024024 0 -0.0010177025398837314 0.032524070060037505 0 -0.00024157352383133164 0.035465514776361687 0 -0.00045643436280259052 0.03498750405549627 0 -0.00051563084648026543 0.034991280708354486 0 -0.00043984230795897665 0.035023760908646562 0 -0.00043984230795897665 0.035023760908646562 0 -0.0003800218226962137 0.035005089331792666 0 -0.00037221312523601013 0.035068251476948767 0 -0.00045643436280259052 0.03498750405549627 0 -0.00043984230795897665 0.035023760908646562 0 -0.0003800218226962137 0.035005089331792666 0 -0.0030076022040563502 0.02765035290146858 0 -0.0030742023112859686 0.027411011200181298 0 -0.0028905437372440759 0.027530905632909879 0 -0.0030076022040563502 0.02765035290146858 0 -0.0030742023112859686 0.027411011200181298 0 -0.0032304660003763834 0.027736498229577054 0 -0.0030742023112859686 0.027411011200181298 0 -0.0028681552608812908 0.027397567114943833 0 -0.0028905437372440759 0.027530905632909879 0 -0.0027928964283613225 0.027237445861272754 0 -0.0030742023112859686 0.027411011200181298 0 -0.0028681552608812908 0.027397567114943833 0 -0.0027928964283613225 0.027237445861272754 0 -0.0028681552608812908 0.027397567114943833 0 -0.0027131385421407727 0.027411411250501162 0 -0.0028681552608812908 0.027397567114943833 0 -0.0028905437372440759 0.027530905632909879 0 -0.0027131385421407727 0.027411411250501162 0 -0.0030076022040563502 0.02765035290146858 0 -0.0028905437372440759 0.027530905632909879 0 -0.0028013545221760748 0.027730705691822573 0 -0.0028905437372440759 0.027530905632909879 0 -0.0027302041207093726 0.027579022003294672 0 -0.0028013545221760748 0.027730705691822573 0 -0.0022479156476729778 0.027696518088220299 0 -0.0025084898093936849 0.027336703147729759 0 -0.0024793887790101579 0.027549825371723624 0 -0.0027302041207093726 0.027579022003294672 0 -0.0025748669138800752 0.027648510953512402 0 -0.0028013545221760748 0.027730705691822573 0 -0.0026006496996073361 0.027503909572614338 0 -0.0027302041207093726 0.027579022003294672 0 -0.0025748669138800752 0.027648510953512402 0 -0.0028905437372440759 0.027530905632909879 0 -0.0027302041207093726 0.027579022003294672 0 -0.0027131385421407727 0.027411411250501162 0 -0.0026722969552362562 0.027273278010868405 0 -0.0027131385421407727 0.027411411250501162 0 -0.0025084898093936849 0.027336703147729759 0 -0.0026006496996073361 0.027503909572614338 0 -0.0027131385421407727 0.027411411250501162 0 -0.0025084898093936849 0.027336703147729759 0 -0.0026006496996073361 0.027503909572614338 0 -0.0027302041207093726 0.027579022003294672 0 -0.0027131385421407727 0.027411411250501162 0 -0.0026006496996073361 0.027503909572614338 0 -0.0025084898093936849 0.027336703147729759 0 -0.0024793887790101579 0.027549825371723624 0 -0.0022479156476729778 0.027696518088220299 0 -0.0024793887790101579 0.027549825371723624 0 -0.0025748669138800752 0.027648510953512402 0 -0.0026006496996073361 0.027503909572614338 0 -0.0024793887790101579 0.027549825371723624 0 -0.0025748669138800752 0.027648510953512402 0 -0.0022479156476729778 0.027696518088220299 0 -0.0025905075321793042 0.028022885493637194 0 -0.0026095814755722345 0.027810906134349018 0 -0.0022479156476729778 0.027696518088220299 0 -0.0025748669138800752 0.027648510953512402 0 -0.0026095814755722345 0.027810906134349018 0 -0.0025905075321793042 0.028022885493637194 0 -0.0026095814755722345 0.027810906134349018 0 -0.0028200714620417143 0.027967993419897218 0 -0.0025748669138800752 0.027648510953512402 0 -0.0026095814755722345 0.027810906134349018 0 -0.0028013545221760748 0.027730705691822573 0 -0.0026095814755722345 0.027810906134349018 0 -0.0028013545221760748 0.027730705691822573 0 -0.0028200714620417143 0.027967993419897218 0 -0.0030076022040563502 0.02765035290146858 0 -0.0028013545221760748 0.027730705691822573 0 -0.0030379280220922725 0.027842920382557396 0 -0.0028013545221760748 0.027730705691822573 0 -0.0028200714620417143 0.027967993419897218 0 -0.0030379280220922725 0.027842920382557396 0 -0.0028200714620417143 0.027967993419897218 0 -0.0030244257821174939 0.028004737845933606 0 -0.0028953709157630713 0.028134848414914922 0 -0.0030244257821174939 0.028004737845933606 0 -0.0031676002544361519 0.028107552425568325 0 -0.0031664743498791099 0.02792646766879129 0 -0.0028200714620417143 0.027967993419897218 0 -0.0030244257821174939 0.028004737845933606 0 -0.0030379280220922725 0.027842920382557396 0 -0.0030244257821174939 0.028004737845933606 0 -0.0030379280220922725 0.027842920382557396 0 -0.0031664743498791099 0.02792646766879129 0 -0.0030076022040563502 0.02765035290146858 0 -0.0030379280220922725 0.027842920382557396 0 -0.0032304660003763834 0.027736498229577054 0 -0.0022479156476729778 0.027696518088220299 0 -0.0025905075321793042 0.028022885493637194 0 -0.0025338877396862977 0.028476381398660627 0 -0.0010177025398837314 0.032524070060037505 0 -0.0010526321137358757 0.031193533482253406 0 -0.0030071363043269422 0.02822995638070307 0 -0.0028953709157630713 0.028134848414914922 0 -0.0031676002544361519 0.028107552425568325 0 -0.0030244257821174939 0.028004737845933606 0 -0.0028953709157630713 0.028134848414914922 0 -0.0031676002544361519 0.028107552425568325 0 -0.0024087095939490074 0.028142912126887638 0 -0.0026780571509744896 0.028038840826275883 0 -0.0028953709157630713 0.028134848414914922 0 -0.0027723870009250451 0.028402688472139438 0 -0.0027244814158689187 0.028196463894595965 0 -0.0028200714620417143 0.027967993419897218 0 -0.0028953709157630713 0.028134848414914922 0 -0.0027244814158689187 0.028196463894595965 0 -0.0016555361593816071 0.028770119322444179 0 -0.0018031572540935339 0.029245156060594031 0 -0.0012727326757426194 0.027550746697771047 0 -0.0012888635285928909 0.027586901307804518 0 -0.0013966324632712582 0.027531989675699135 0 -0.0024087095939490074 0.028142912126887638 0 -0.0018031572540935339 0.029245156060594031 0 -0.0030071363043269422 0.02822995638070307 0 -0.0028953709157630713 0.028134848414914922 0 -0.0027723870009250451 0.028402688472139438 0 -0.0025905075321793042 0.028022885493637194 0 -0.0027244814158689187 0.028196463894595965 0 -0.0025338877396862977 0.028476381398660627 0 -0.0018031572540935339 0.029245156060594031 0 -0.0010526321137358757 0.031193533482253406 0 -0.0027723870009250451 0.028402688472139438 0 -0.0027244814158689187 0.028196463894595965 0 -0.0025338877396862977 0.028476381398660627 0 -0.0025905075321793042 0.028022885493637194 0 -0.0028200714620417143 0.027967993419897218 0 -0.0027244814158689187 0.028196463894595965 0 -0.0010526321137358757 0.031193533482253406 0 -0.00090682037200599613 0.030149102987875254 0 -0.0018031572540935339 0.029245156060594031 0 -0.00090682037200599613 0.030149102987875254 0 -0.0019081750420667086 0.029804957649375054 0 -0.00030983899004060863 0.030247102903926331 0 -0.00050685474390192232 0.030740866073416979 0 -0.0012727326757426194 0.027550746697771047 0 -0.0012911188774256306 0.027398874521230965 0 -0.001158508736050364 0.02731090120049446 0 -0.0013914697137904829 0.027524244311362918 0 -0.0014828940558516029 0.02746723486061926 0 -0.0012911188774256306 0.027398874521230965 0 -0.0012727326757426194 0.027550746697771047 0 -0.0013914697137904829 0.027524244311362918 0 -0.0012911188774256306 0.027398874521230965 0 -0.0013128790828964339 0.031974886400275647 0 -0.00079094426964900258 0.032140380074584488 0 -0.00089611014947203272 0.032321253384160843 0 -0.0010526321137358757 0.031193533482253406 0 -0.00046848000831071465 0.033760772962089416 0 -0.00054204405614813778 0.034848805628552672 0 -0.00063123109865319401 0.035131365080160265 0 -0.00046453669944082637 0.03507804013024024 0 -0.00063123109865319401 0.035131365080160265 0 -0.00046453669944082637 0.03507804013024024 0 -0.00035113196875444902 0.035207196859169579 0 -0.00037221312523601013 0.035068251476948767 0 -0.00046453669944082637 0.03507804013024024 0 -0.00035113196875444902 0.035207196859169579 0 -0.00043984230795897665 0.035023760908646562 0 -0.00037221312523601013 0.035068251476948767 0 -0.00046453669944082637 0.03507804013024024 0 -0.0013128790828964339 0.031974886400275647 0 -0.0013299250395571497 0.03201662376776504 0 -0.00089611014947203272 0.032321253384160843 0 -0.00090682037200599613 0.030149102987875254 0 -0.00097348981933508536 0.030797349173556438 0 -0.00035113196875444902 0.035207196859169579 0 -0.00022405298346616601 0.035142016884669537 0 -0.00012118575339698058 0.035268525366018343 0 -0.00035113196875444902 0.035207196859169579 0 -0.00022405298346616601 0.035142016884669537 0 -0.00029079178742470957 0.035095783640151756 0 -0.00022405298346616601 0.035142016884669537 0 -0.00014640073990529435 0.035101869693460602 0 -0.00012118575339698058 0.035268525366018343 0 -0.00022405298346616601 0.035142016884669537 0 -0.00020371303892628034 0.035055527953531555 0 -0.00014640073990529435 0.035101869693460602 0 -0.00022405298346616601 0.035142016884669537 0 -0.00029079178742470957 0.035095783640151756 0 -0.00020371303892628034 0.035055527953531555 0 -0.00037221312523601013 0.035068251476948767 0 -0.00035113196875444902 0.035207196859169579 0 -0.00029079178742470957 0.035095783640151756 0 -0.00037221312523601013 0.035068251476948767 0 -0.00029079178742470957 0.035095783640151756 0 -0.0002963812696824615 0.035035330334773428 0 -0.0003800218226962137 0.035005089331792666 0 -0.00037221312523601013 0.035068251476948767 0 -0.0002963812696824615 0.035035330334773428 0 -0.0003800218226962137 0.035005089331792666 0 -0.0002963812696824615 0.035035330334773428 0 -0.00030831367840090788 0.034980720988392985 0 -0.0002963812696824615 0.035035330334773428 0 -0.00022608722566094073 0.035006842235379934 0 -0.00030831367840090788 0.034980720988392985 0 -0.00029079178742470957 0.035095783640151756 0 -0.0002963812696824615 0.035035330334773428 0 -0.00020371303892628034 0.035055527953531555 0 -0.00020371303892628034 0.035055527953531555 0 -0.00016330735616219754 0.03501123728649385 0 -9.3862216811148845e-05 0.03501106581731623 0 -0.0002963812696824615 0.035035330334773428 0 -0.00020371303892628034 0.035055527953531555 0 -0.00022608722566094073 0.035006842235379934 0 -0.00016330735616219754 0.03501123728649385 0 -0.00022608722566094073 0.035006842235379934 0 -0.00014403326849035097 0.034976550633427528 0 -0.00020371303892628034 0.035055527953531555 0 -0.00016330735616219754 0.03501123728649385 0 -0.00022608722566094073 0.035006842235379934 0 -0.00011857766516862575 0.034923991527737487 0 -0.00014403326849035097 0.034976550633427528 0 -0.00024587218568002177 0.034932138898214372 0 -0.00022608722566094073 0.035006842235379934 0 -0.00014403326849035097 0.034976550633427528 0 -0.00024587218568002177 0.034932138898214372 0 -0.00039721220453522912 0.034932727352740237 0 -0.00024587218568002177 0.034932138898214372 0 -0.00030831367840090788 0.034980720988392985 0 -0.00022608722566094073 0.035006842235379934 0 -0.00024587218568002177 0.034932138898214372 0 -0.00030831367840090788 0.034980720988392985 0 -0.00039721220453522912 0.034932727352740237 0 -0.0003800218226962137 0.035005089331792666 0 -0.00030831367840090788 0.034980720988392985 0 -0.00014403326849035097 0.034976550633427528 0 -7.8585500177644861e-05 0.034966058400369565 0 -9.3862216811148845e-05 0.03501106581731623 0 -2.5084480142150023e-05 0.034976100243934327 0 -7.8585500177644861e-05 0.034966058400369565 0 -9.3862216811148845e-05 0.03501106581731623 0 -0.00011857766516862575 0.034923991527737487 0 -0.00014403326849035097 0.034976550633427528 0 -7.8585500177644861e-05 0.034966058400369565 0 -9.3862216811148845e-05 0.03501106581731623 0 -3.6195355626205697e-05 0.035007204305393433 0 -8.3325727439236214e-05 0.035069049166909345 0 -0.00020371303892628034 0.035055527953531555 0 -9.3862216811148845e-05 0.03501106581731623 0 -0.00014640073990529435 0.035101869693460602 0 -0.00016330735616219754 0.03501123728649385 0 -0.00014403326849035097 0.034976550633427528 0 -9.3862216811148845e-05 0.03501106581731623 0 -3.6195355626205697e-05 0.035007204305393433 0 -3.2357007865616302e-06 0.035009825066600067 0 -8.3325727439236214e-05 0.035069049166909345 0 -2.5084480142150023e-05 0.034976100243934327 0 -3.6195355626205697e-05 0.035007204305393433 0 -5.6429855278147025e-08 0.035000100744908891 0 -2.5084480142150023e-05 0.034976100243934327 0 -9.3862216811148845e-05 0.03501106581731623 0 -3.6195355626205697e-05 0.035007204305393433 0 -3.6195355626205697e-05 0.035007204305393433 0 -5.6429855278147025e-08 0.035000100744908891 0 -3.2357007865616302e-06 0.035009825066600067 0 -5.0627813115506778e-05 0.035254413542251013 0 -0.00033523546006152655 0.034300726731460139 0 -5.6429855278147025e-08 0.035000100744908891 0 -3.2357007865616302e-06 0.035009825066600067 0 1.6079785385948415e-08 0.034999976137786416 0 -3.2357007865616302e-06 0.035009825066600067 0 1.6079785385948415e-08 0.034999976137786416 0 2.0870633551363868e-06 0.034999052982118084 0 -3.2357007865616302e-06 0.035009825066600067 0 -8.3325727439236214e-05 0.035069049166909345 0 -0.00012118575339698058 0.035268525366018343 0 -9.3862216811148845e-05 0.03501106581731623 0 -0.00014640073990529435 0.035101869693460602 0 -8.3325727439236214e-05 0.035069049166909345 0 -0.00014640073990529435 0.035101869693460602 0 -8.3325727439236214e-05 0.035069049166909345 0 -0.00012118575339698058 0.035268525366018343 0 3.0232680033459963e-07 0.034999902313736383 0 -0.00033523546006152655 0.034300726731460139 0 -2.3807083044147909e-08 0.034999958168355383 0 1.6120420075815245e-06 0.03499211292877643 0 -1.3448030506755758e-06 0.034989810978092659 0 1.6120420075815245e-06 0.03499211292877643 0 -1.9300368537048156e-06 0.034978034905380304 0 8.3709186628962062e-05 0.03486132434598626 0 1.6120420075815245e-06 0.03499211292877643 0 -1.9300368537048156e-06 0.034978034905380304 0 -1.3448030506755758e-06 0.034989810978092659 0 -1.9300368537048156e-06 0.034978034905380304 0 -3.4237358642974767e-06 0.034987026808940565 0 -1.166371629911874e-05 0.034989931939219197 0 -1.9300368537048156e-06 0.034978034905380304 0 -3.4237358642974767e-06 0.034987026808940565 0 -1.3448030506755758e-06 0.034989810978092659 0 -3.4237358642974767e-06 0.034987026808940565 0 -2.6257265073450332e-06 0.034992190852764504 0 -1.3448030506755758e-06 0.034989810978092659 0 -3.4237358642974767e-06 0.034987026808940565 0 -2.6257265073450332e-06 0.034992190852764504 0 -1.166371629911874e-05 0.034989931939219197 0 -0.00030227877891808764 0.035114185154276306 0 -0.00027477739066896666 0.033380083994732974 0 -2.6257265073450332e-06 0.034992190852764504 0 -1.3448030506755758e-06 0.034989810978092659 0 1.3256969244789558e-08 0.034999996397929771 0 -2.3807083044147909e-08 0.034999958168355383 0 -1.3448030506755758e-06 0.034989810978092659 0 1.3256969244789558e-08 0.034999996397929771 0 -0.00046848000831071465 0.033760772962089416 0 -0.00033523546006152655 0.034300726731460139 0 -0.00079094426964900258 0.032140380074584488 0 -0.00028602346118313633 0.032293889667067081 0 -0.00047489754040062025 0.032608709568706026 0 -0.00079094426964900258 0.032140380074584488 0 -0.00047489754040062025 0.032608709568706026 0 -0.00089611014947203272 0.032321253384160843 0 -1.9300368537048156e-06 0.034978034905380304 0 8.3709186628962062e-05 0.03486132434598626 0 4.1320357438964194e-05 0.034830524325015176 0 -0.00033523546006152655 0.034300726731460139 0 -0.00080919914926120781 0.032006691407184741 0 -0.00080919914926120781 0.032006691407184741 0 -0.00097348981933508536 0.030797349173556438 0 -0.00027477739066896666 0.033380083994732974 0 -0.00036269919493227786 0.032794680895249444 0 -0.00026084888854112007 0.033869295575070464 0 -0.00049892421097295404 0.033712445716016906 0 5.5507636427388562e-06 0.033235468176995728 0 -0.00097122795846161798 0.032554505170876151 0 -0.0012003820139777268 0.032403120791681991 0 -0.00031278763670837642 0.031412275041670996 0 -0.0014445129564945457 0.029041799428352701 0 -0.0011096610380624677 0.028443899618909405 0 -0.00071032099705338827 0.028896619718071562 0 -0.0012003820139777268 0.032403120791681991 0 -0.00031278763670837642 0.031412275041670996 0 -0.00053957841887703796 0.030841652843823803 0 -0.00080919914926120781 0.032006691407184741 0 -0.00069052500827631127 0.029792544344262262 0 -0.00080919914926120781 0.032006691407184741 0 -0.00027477739066896666 0.033380083994732974 0 -3.1406090574001255e-07 0.034999123128407174 0 -2.1503724146473653e-10 0.034999998851374434 0 -1.4441558148881324e-10 0.034999998896513618 0 -2.6257265073450332e-06 0.034992190852764504 0 -2.7086738597870831e-06 0.034995904769079877 0 1.3256969244789558e-08 0.034999996397929771 0 -8.2837880653427223e-05 0.034673770581423215 0 -1.5988658087888943e-07 0.034999849588055555 0 -0.00027477739066896666 0.033380083994732974 0 -8.2837880653427223e-05 0.034673770581423215 0 -2.6257265073450332e-06 0.034992190852764504 0 -1.166371629911874e-05 0.034989931939219197 0 -2.7086738597870831e-06 0.034995904769079877 0 3.7585747794312257e-07 0.034996460293114123 0 -2.1353216335795017e-09 0.034999983532438592 0 4.6427619009595763e-07 0.034992739906269721 0 -8.2837880653427223e-05 0.034673770581423215 0 1.0541854120098673e-07 0.034999822370926324 0 -2.1353216335795017e-09 0.034999983532438592 0 4.6427619009595763e-07 0.034992739906269721 0 2.5579764617727256e-09 0.034999981881669792 0 3.7585747794312257e-07 0.034996460293114123 0 4.6427619009595763e-07 0.034992739906269721 0 1.9679778853679848e-06 0.034980292270782087 0 4.6427619009595763e-07 0.034992739906269721 0 7.4313461591668894e-07 0.034987601557235251 0 2.5579764617727256e-09 0.034999981881669792 0 -8.2837880653427223e-05 0.034673770581423215 0 -0.00036269919493227786 0.032794680895249444 0 4.6427619009595763e-07 0.034992739906269721 0 1.9679778853679848e-06 0.034980292270782087 0 7.4313461591668894e-07 0.034987601557235251 0 -0.00033342099154956437 0.034784980785075637 0 -0.00010598553214088872 0.034832126799984958 0 -0.00029435085877498008 0.034688993381942701 0 5.0957692737590381e-05 0.035016255908146179 0 9.5263511571268632e-07 0.032794067575060197 0 6.6540432076226921e-07 0.034991255628637252 0 7.4313461591668894e-07 0.034987601557235251 0 5.9744660798149781e-07 0.034974931913449685 0 -0.00036269919493227786 0.032794680895249444 0 9.5263511571268632e-07 0.032794067575060197 0 1.9679778853679848e-06 0.034980292270782087 0 7.4313461591668894e-07 0.034987601557235251 0 5.9744660798149781e-07 0.034974931913449685 0 -7.0937435978879503e-10 0.03499999784416391 0 6.6540432076226921e-07 0.034991255628637252 0 2.5579764617727256e-09 0.034999981881669792 0 6.6540432076226921e-07 0.034991255628637252 0 7.4313461591668894e-07 0.034987601557235251 0 2.5579764617727256e-09 0.034999981881669792 0 0.00010633653240950545 0.02346609135073608 0 -0.00010530997511790555 0.023759200941242013 0 -0.00028886769905584224 0.023792983715792936 0 3.4588174378140358e-06 0.023848082137414298 0 -0.00010530997511790555 0.023759200941242013 0 -0.00023575946580404458 0.023934471873039372 0 3.4588174378140358e-06 0.023848082137414298 0 -0.00023575946580404458 0.023934471873039372 0 -2.640883807436826e-05 0.024065202385821601 0 3.4588174378140358e-06 0.023848082137414298 0 8.8679535146536089e-05 0.023711974780585159 0 -0.00010530997511790555 0.023759200941242013 0 1.6286136612572965e-05 0.027966381848025631 0 0.00024054405996282676 0.027824420196841029 0 0.00014528241836614936 0.028257654585450889 0 0.00017906465450419131 0.028002580867593829 0 0.00017774049169874681 0.027702734796211794 0 0.0005097703515777438 0.031203906331131428 0 9.5263511571268632e-07 0.032794067575060197 0 1.6286136612572965e-05 0.027966381848025631 0 -9.9206568454734848e-05 0.027988066263457335 0 0.00014519627070411263 0.028280765128601865 0 0.0005097703515777438 0.031203906331131428 0 0.00017774049169874681 0.027702734796211794 0 0.00037509143139423032 0.030667813317841595 0 0.00027161906953819461 0.030364371528100249 0 0.00053279059107644983 0.030297058276004242 0 0.00037509143139423032 0.030667813317841595 0 7.6959574380770586e-05 0.030321613671932656 0 0.00027161906953819461 0.030364371528100249 0 -0.00053957841887703796 0.030841652843823803 0 0.00017340252485569045 0.030171737004718063 0 0.00034932405726110827 0.03026577534408785 0 -0.00069654163476332487 0.032297475864538287 0 -0.00023337090923121365 0.031216520854788828 0 0.000210899071901243 0.031454110956540028 0 0.00027161906953819461 0.030364371528100249 0 0.00053279059107644983 0.030297058276004242 0 0.00026780996013377049 0.030148670045564714 0 9.5263511571268632e-07 0.032794067575060197 0 -0.00010521947977137891 0.029884414275640828 0 -0.00010530997511790555 0.023759200941242013 0 -0.00028886769905584224 0.023792983715792936 0 -0.00023575946580404458 0.023934471873039372 0 0.00017774049169874681 0.027702734796211794 0 -0.00054452276606025394 0.026265820733726051 0 -0.00011531075354042622 0.028824828492609374 0 -0.0001383868261787734 0.028471092291375264 0 -0.00053732934861653464 0.027852364821984648 0 0.00017774049169874681 0.027702734796211794 0 -0.00010521947977137891 0.029884414275640828 0 -0.00011531075354042622 0.028824828492609374 0 0.00038614909681846461 0.028361482514175845 0 -0.0001383868261787734 0.028471092291375264 0 0.00038614909681846461 0.028361482514175845 0 -0.0001383868261787734 0.028471092291375264 0 3.7760679785995341e-05 0.028172706708492354 0 7.6959574380770586e-05 0.030321613671932656 0 0.00027161906953819461 0.030364371528100249 0 0.00026780996013377049 0.030148670045564714 0 -0.00010521947977137891 0.029884414275640828 0 -0.00014911434329745833 0.028893128285516705 0 -9.9611597872777889e-05 0.028778937225370768 0 -0.00014911434329745833 0.028893128285516705 0 -0.0001383868261787734 0.028471092291375264 0 3.9065783787057805e-05 0.02816637609102841 0 -0.00053732934861653464 0.027852364821984648 0 -0.00014911434329745833 0.028893128285516705 0 -0.00054452276606025394 0.026265820733726051 0 -0.00069052500827631127 0.029792544344262262 0 -0.00014911434329745833 0.028893128285516705 0 -0.0011096610380624677 0.028443899618909405 0 -0.00076861530693138737 0.02784755747820988 0 -0.00074713489258592183 0.02829802031477742 0 -0.00062130115087543692 0.027925587133424818 0 -0.00074713489258592183 0.02829802031477742 0 -0.00039665402663865393 0.028451399488542514 0 -0.00031278763670837642 0.031412275041670996 0 -0.00053957841887703796 0.030841652843823803 0 0.00034932405726110827 0.03026577534408785 0 -0.00076861530693138737 0.02784755747820988 0 -0.00062130115087543692 0.027925587133424818 0 -0.00074713489258592183 0.02829802031477742 0 -0.00036269919493227786 0.032794680895249444 0 -0.00010521947977137891 0.029884414275640828 0 -0.00054452276606025394 0.026265820733726051 0 -0.00024478704877766772 0.026464160783100949 0 -0.00032579483574531325 0.0239237415787391 0 -0.00016096796583726109 0.024321203103569698 0 -2.640883807436826e-05 0.024065202385821601 0 -0.00054452276606025394 0.026265820733726051 0 -0.00043767727000506104 0.024275746500282153 0 -0.00016096796583726109 0.024321203103569698 0 -2.640883807436826e-05 0.024065202385821601 0 0.0002008360208523508 0.024249029918437807 0 -0.00024478704877766772 0.026464160783100949 0 -0.00035494629387347604 0.026141258607368892 0 -0.00016096796583726109 0.024321203103569698 0 1.4130383803424665e-05 0.024761909071837281 0 0.0002008360208523508 0.024249029918437807 0 -0.00039665402663865393 0.028451399488542514 0 -0.00071032099705338827 0.028896619718071562 0 -0.00017192110928417379 0.028973796938562019 0 -0.0011096610380624677 0.028443899618909405 0 -0.00074713489258592183 0.02829802031477742 0 -0.00071032099705338827 0.028896619718071562 0 -0.00074713489258592183 0.02829802031477742 0 -0.00039665402663865393 0.028451399488542514 0 -0.00071032099705338827 0.028896619718071562 0 -0.0014445129564945457 0.029041799428352701 0 -0.00071032099705338827 0.028896619718071562 0 -0.00094705259991969821 0.029359172082506917 0 -0.00045236383533805383 0.029683817242887323 0 -0.00071032099705338827 0.028896619718071562 0 -0.00094705259991969821 0.029359172082506917 0 -0.0014828940558516029 0.02746723486061926 0 -0.0012911188774256306 0.027398874521230965 0 -0.0012876699190342671 0.026983803647722921 0 -0.0012911188774256306 0.027398874521230965 0 -0.0012876699190342671 0.026983803647722921 0 -0.001158508736050364 0.02731090120049446 0 -0.00045236383533805383 0.029683817242887323 0 -0.00071032099705338827 0.028896619718071562 0 -0.00017192110928417379 0.028973796938562019 0 -0.00090682037200599613 0.030149102987875254 0 -0.00035494629387347604 0.026141258607368892 0 -0.00035494629387347604 0.026141258607368892 0 -0.00052314308027558631 0.025625860011793719 0 0.00020053203438229842 0.023949716338810486 0 0.00023406793918363036 0.024047377339468018 0 0.00027723160720106104 0.023900336598036413 0 0.00023406793918363036 0.024047377339468018 0 0.00035506089417862668 0.023922502267350272 0 0.00033195170772717665 0.024058055988569003 0 0.00023406793918363036 0.024047377339468018 0 0.00035506089417862668 0.023922502267350272 0 0.00027723160720106104 0.023900336598036413 0 0.00035506089417862668 0.023922502267350272 0 0.00048612930348765902 0.024013630861632534 0 0.00033195170772717665 0.024058055988569003 0 0.00035506089417862668 0.023922502267350272 0 0.00047714310039181218 0.023808059244450758 0 0.00048908997187908096 0.023902097651733734 0 0.00035506089417862668 0.023922502267350272 0 0.00035251565370877089 0.023812739839140302 0 0.00047714310039181218 0.023808059244450758 0 0.00020053203438229842 0.023949716338810486 0 0.00027723160720106104 0.023900336598036413 0 0.00026714174700734203 0.023823173367630852 0 -0.00035494629387347604 0.026141258607368892 0 0.00035313765201783789 0.023695302083822669 0 0.00035506089417862668 0.023922502267350272 0 0.00027723160720106104 0.023900336598036413 0 0.00035251565370877089 0.023812739839140302 0 0.00027723160720106104 0.023900336598036413 0 0.00026714174700734203 0.023823173367630852 0 0.00035251565370877089 0.023812739839140302 0 0.00026714174700734203 0.023823173367630852 0 0.00035251565370877089 0.023812739839140302 0 0.0003048715533277589 0.023755448459441841 0 -2.640883807436826e-05 0.024065202385821601 0 0.0002008360208523508 0.024249029918437807 0 0.0003048715533277589 0.023755448459441841 0 0.00035313765201783789 0.023695302083822669 0 0.00025419496834223903 0.02391452195452988 0 0.00035251565370877089 0.023812739839140302 0 0.0003048715533277589 0.023755448459441841 0 0.00047249344534256089 0.023685787093672573 0 0.00035251565370877089 0.023812739839140302 0 0.00047249344534256089 0.023685787093672573 0 0.00047714310039181218 0.023808059244450758 0 0.00037445603740925891 0.023538929033254951 0 0.0003048715533277589 0.023755448459441841 0 0.00047249344534256089 0.023685787093672573 0 3.4588174378140358e-06 0.023848082137414298 0 8.8679535146536089e-05 0.023711974780585159 0 0.0003048715533277589 0.023755448459441841 0 3.4588174378140358e-06 0.023848082137414298 0 -2.640883807436826e-05 0.024065202385821601 0 0.0003048715533277589 0.023755448459441841 0 0.00021768969752813076 0.023621284486884643 0 8.8679535146536089e-05 0.023711974780585159 0 0.0003048715533277589 0.023755448459441841 0 0.00062680261431679468 0.023585339569259248 0 0.00047249344534256089 0.023685787093672573 0 0.00062690974364354533 0.023706947085348023 0 0.00052172815451645145 0.023562155262751225 0 0.00062680261431679468 0.023585339569259248 0 0.00047249344534256089 0.023685787093672573 0 0.00047249344534256089 0.023685787093672573 0 0.00047714310039181218 0.023808059244450758 0 0.00062690974364354533 0.023706947085348023 0 0.00047714310039181218 0.023808059244450758 0 0.00062690974364354533 0.023706947085348023 0 0.0006414284237589139 0.023865693519191121 0 0.00047714310039181218 0.023808059244450758 0 0.0006414284237589139 0.023865693519191121 0 0.00048908997187908096 0.023902097651733734 0 0.0006414284237589139 0.023865693519191121 0 0.00048908997187908096 0.023902097651733734 0 0.00048612930348765902 0.024013630861632534 0 0.00035506089417862668 0.023922502267350272 0 0.00048908997187908096 0.023902097651733734 0 0.00048612930348765902 0.024013630861632534 0 0.00010599267646867572 0.016601748249057538 0 4.9468941218776158e-05 0.018900008604615815 0 0.0010477147183322272 0.016920191857681902 0 0.0003688820992592207 0.020232251209178161 0 -0.00060712644445728384 0.02100560377503129 0 0.00010599267646867572 0.016601748249057538 0 -0.0019537002334799373 0.018491123952070507 0 4.9468941218776158e-05 0.018900008604615815 0 0.00031570798540764896 0.016974481394271875 0 0.0013265397236521836 0.015875291761053973 0 0.00031570798540764896 0.016974481394271875 0 -0.00096726596401866614 0.021559505719187973 0 0.00045167317074490501 0.015461205077170647 0 0.00090425455751544912 0.017155985020202699 0 0.001240333912595253 0.01585462204288882 0 4.9468941218776158e-05 0.018900008604615815 0 -0.00097289375500740746 0.020835273965718656 0 -0.0014323294435655625 0.019580472331570082 0 0.00045167317074490501 0.015461205077170647 0 0.001240333912595253 0.01585462204288882 0 0.0015510617679485627 0.015245465102552855 0 0.00045167317074490501 0.015461205077170647 0 0.00090425455751544912 0.017155985020202699 0 -0.0015982710566490887 0.018478064143101831 0 -0.00096726596401866614 0.021559505719187973 0 0.0017220812166144125 0.019745591086250888 0 0.00090425455751544912 0.017155985020202699 0 -0.0015982710566490887 0.018478064143101831 0 0.0010463415982587398 0.019162744156511615 0 0.0011505109403283219 0.02153591690880087 0 0.0026038380256995374 0.022128727845642824 0 0.0022386383297159228 0.020155317953552639 0 7.4434946696376388e-05 0.019876157228280941 0 0.0011505109403283219 0.02153591690880087 0 0.0022386383297159228 0.020155317953552639 0 -0.00096726596401866614 0.021559505719187973 0 -0.0021592435922088678 0.023690151093097713 0 -0.00097289375500740746 0.020835273965718656 0 -0.0014323294435655625 0.019580472331570082 0 -0.0039949972133126108 0.020324360231438496 0 -0.0019537002334799373 0.018491123952070507 0 4.9468941218776158e-05 0.018900008604615815 0 -0.0014323294435655625 0.019580472331570082 0 -0.0019537002334799373 0.018491123952070507 0 -0.0014323294435655625 0.019580472331570082 0 -0.0039949972133126108 0.020324360231438496 0 0.00048612930348765902 0.024013630861632534 0 0.00033195170772717665 0.024058055988569003 0 0.0003253825563777499 0.024160034952931526 0 -0.00060712644445728384 0.02100560377503129 0 -0.0021592435922088678 0.023690151093097713 0 -0.00052314308027558631 0.025625860011793719 0 -0.0016396414329288302 0.026179650048097882 0 -0.0012727326757426194 0.027550746697771047 0 -0.001158508736050364 0.02731090120049446 0 -0.0010377767143092925 0.02761731992277959 0 0.00023406793918363036 0.024047377339468018 0 0.00033195170772717665 0.024058055988569003 0 0.00026495864390427564 0.024152487969077763 0 -0.0021592435922088678 0.023690151093097713 0 -0.0016396414329288302 0.026179650048097882 0 0.00033195170772717665 0.024058055988569003 0 0.0003253825563777499 0.024160034952931526 0 0.00026495864390427564 0.024152487969077763 0 -0.0012727326757426194 0.027550746697771047 0 -0.0012888635285928909 0.027586901307804518 0 -0.0010377767143092925 0.02761731992277959 0 -0.0024087095939490074 0.028142912126887638 0 -0.0016396414329288302 0.026179650048097882 0 -0.0035517813459833639 0.028113969177791947 0 -0.0031676002544361519 0.028107552425568325 0 -0.0033689352286409777 0.027940098681703864 0 -0.0030102703896404208 0.028215087643628792 0 -0.0035517813459833639 0.028113969177791947 0 -0.0031676002544361519 0.028107552425568325 0 -0.0026974644234931499 0.02691825540990439 0 -0.0030742023112859686 0.027411011200181298 0 -0.0036781072218253961 0.027827479098444189 0 -0.0026974644234931499 0.02691825540990439 0 -0.0024554700216088466 0.026478272791428212 0 -0.0025571338370921704 0.026710902020254473 0 -0.0024554700216088466 0.026478272791428212 0 -0.0024404025005703941 0.026624258635641072 0 -0.0023360544090937139 0.02667537285125484 0 -0.0028960799140706366 0.027180705611842406 0 -0.0027011271985634211 0.026468122597129259 0 -0.0030379280220922725 0.027842920382557396 0 -0.0032304660003763834 0.027736498229577054 0 -0.0031664743498791099 0.02792646766879129 0 -0.0032304660003763834 0.027736498229577054 0 -0.0031664743498791099 0.02792646766879129 0 -0.0033689352286409777 0.027940098681703864 0 -0.0031676002544361519 0.028107552425568325 0 -0.0031664743498791099 0.02792646766879129 0 -0.0033689352286409777 0.027940098681703864 0 -0.0032304660003763834 0.027736498229577054 0 -0.0033689352286409777 0.027940098681703864 0 -0.0033378605570918785 0.027729342701887039 0 -0.0033689352286409777 0.027940098681703864 0 -0.0033378605570918785 0.027729342701887039 0 -0.0036781072218253961 0.027827479098444189 0 -0.0022888225933223828 0.02519236128279331 0 -0.0022031380680983285 0.025212961903942465 0 -0.0022329351119187617 0.025148376774776562 0 -0.0016396414329288302 0.026179650048097882 0 -0.0027011271985634211 0.026468122597129259 0 -0.0035517813459833639 0.028113969177791947 0 -0.0033689352286409777 0.027940098681703864 0 -0.0036781072218253961 0.027827479098444189 0 -0.0021592435922088678 0.023690151093097713 0 -0.0027011271985634211 0.026468122597129259 0 -0.0024554700216088466 0.026478272791428212 0 -0.0024404025005703941 0.026624258635641072 0 -0.0025571338370921704 0.026710902020254473 0 -0.0030742023112859686 0.027411011200181298 0 -0.0033378605570918785 0.027729342701887039 0 -0.0036781072218253961 0.027827479098444189 0 -0.0030742023112859686 0.027411011200181298 0 -0.0032304660003763834 0.027736498229577054 0 -0.0033378605570918785 0.027729342701887039 0 -0.0027011271985634211 0.026468122597129259 0 -0.0023592466762999949 0.02661300203404857 0 -0.0016242042914318318 0.026135389462109995 0 -0.0024167966403498484 0.025998181945938906 0 -0.002141958312675061 0.026427995860635409 0 -0.0025965197489125806 0.026138804656969342 0 -0.0023591664671811325 0.026345816953214425 0 -0.0023360544090937139 0.02667537285125484 0 -0.0024167966403498484 0.025998181945938906 0 -0.0025965197489125806 0.026138804656969342 0 -0.0023591664671811325 0.026345816953214425 0 -0.0024167966403498484 0.025998181945938906 0 -0.0023591664671811325 0.026345816953214425 0 -0.002141958312675061 0.026427995860635409 0 -0.0023591664671811325 0.026345816953214425 0 -0.002141958312675061 0.026427995860635409 0 -0.0022482136654322585 0.026527415426665986 0 -0.002141958312675061 0.026427995860635409 0 -0.0022036359558184793 0.026673865688460318 0 -0.0020603915092445679 0.026814390253456031 0 -0.002141958312675061 0.026427995860635409 0 -0.0022482136654322585 0.026527415426665986 0 -0.0022036359558184793 0.026673865688460318 0 -0.0023591664671811325 0.026345816953214425 0 -0.0022482136654322585 0.026527415426665986 0 -0.0023360544090937139 0.02667537285125484 0 -0.0023360544090937139 0.02667537285125484 0 -0.0024294006209733504 0.026703647391990763 0 -0.0023886764980561967 0.026762323904056067 0 -0.0022482136654322585 0.026527415426665986 0 -0.0023360544090937139 0.02667537285125484 0 -0.0022036359558184793 0.026673865688460318 0 -0.0023360544090937139 0.02667537285125484 0 -0.0022036359558184793 0.026673865688460318 0 -0.0023886764980561967 0.026762323904056067 0 -0.0022036359558184793 0.026673865688460318 0 -0.0023886764980561967 0.026762323904056067 0 -0.0023663606538969605 0.026883924294011045 0 -0.0026257843781379922 0.026819737760507448 0 -0.0025712403183043393 0.026774698933135044 0 -0.0025571338370921704 0.026710902020254473 0 -0.0025712403183043393 0.026774698933135044 0 -0.0025571338370921704 0.026710902020254473 0 -0.0024944184996615851 0.026703982089228515 0 -0.0025712403183043393 0.026774698933135044 0 -0.0024843679363360663 0.026757289754262118 0 -0.0025582256542574185 0.026815462562220473 0 -0.0025712403183043393 0.026774698933135044 0 -0.0024843679363360663 0.026757289754262118 0 -0.0024944184996615851 0.026703982089228515 0 -0.0024404025005703941 0.026624258635641072 0 -0.0025571338370921704 0.026710902020254473 0 -0.0024944184996615851 0.026703982089228515 0 -0.0024843679363360663 0.026757289754262118 0 -0.0024944184996615851 0.026703982089228515 0 -0.0024294006209733504 0.026703647391990763 0 -0.0024404025005703941 0.026624258635641072 0 -0.0024944184996615851 0.026703982089228515 0 -0.0024294006209733504 0.026703647391990763 0 -0.0024404025005703941 0.026624258635641072 0 -0.0023360544090937139 0.02667537285125484 0 -0.0024294006209733504 0.026703647391990763 0 -0.0024843679363360663 0.026757289754262118 0 -0.0024294006209733504 0.026703647391990763 0 -0.0023886764980561967 0.026762323904056067 0 -0.0023886764980561967 0.026762323904056067 0 -0.0024543925585811728 0.026836493200521498 0 -0.0023663606538969605 0.026883924294011045 0 -0.0024843679363360663 0.026757289754262118 0 -0.0023886764980561967 0.026762323904056067 0 -0.0024543925585811728 0.026836493200521498 0 -0.0024843679363360663 0.026757289754262118 0 -0.0024543925585811728 0.026836493200521498 0 -0.0025582256542574185 0.026815462562220473 0 -0.0024543925585811728 0.026836493200521498 0 -0.0025582256542574185 0.026815462562220473 0 -0.0025273276862673054 0.026895214552908383 0 -0.0025789831421228863 0.02686758494835096 0 -0.0025582256542574185 0.026815462562220473 0 -0.0025273276862673054 0.026895214552908383 0 -0.0026256878844116037 0.026841138847579576 0 -0.0025789831421228863 0.02686758494835096 0 -0.0025582256542574185 0.026815462562220473 0 -0.0026256878844116037 0.026841138847579576 0 -0.0025712403183043393 0.026774698933135044 0 -0.0025582256542574185 0.026815462562220473 0 -0.0026249319010640745 0.026998091204565297 0 -0.0025273276862673054 0.026895214552908383 0 -0.0024765483432031459 0.026996409554388142 0 -0.0026249319010640745 0.026998091204565297 0 -0.0025789831421228863 0.02686758494835096 0 -0.0025273276862673054 0.026895214552908383 0 -0.0024543925585811728 0.026836493200521498 0 -0.0025273276862673054 0.026895214552908383 0 -0.0024765483432031459 0.026996409554388142 0 -0.0024543925585811728 0.026836493200521498 0 -0.0024765483432031459 0.026996409554388142 0 -0.0023663606538969605 0.026883924294011045 0 -0.0024765483432031459 0.026996409554388142 0 -0.0023663606538969605 0.026883924294011045 0 -0.0023323199669462976 0.027189245935114337 0 -0.0024765483432031459 0.026996409554388142 0 -0.0025358233170972209 0.027205335385501773 0 -0.0023323199669462976 0.027189245935114337 0 -0.0026249319010640745 0.026998091204565297 0 -0.0024765483432031459 0.026996409554388142 0 -0.0025358233170972209 0.027205335385501773 0 -0.0016779820459671216 0.02381643071399046 0 -0.0011006054646776871 0.02556385547396324 0 -0.0025663249918199383 0.027406230205186941 0 -0.0018613012973438942 0.025623265482290502 0 -0.0025240633769315151 0.027121758252355698 0 -0.0022677377309722109 0.026853854942422182 0 -0.0024845294997889152 0.026783175741448874 0 -0.0020603915092445679 0.026814390253456031 0 -0.0025663249918199383 0.027406230205186941 0 -0.0026577958781533856 0.027099282553582162 0 -0.0022036359558184793 0.026673865688460318 0 -0.0020603915092445679 0.026814390253456031 0 -0.0026577958781533856 0.027099282553582162 0 -0.0022036359558184793 0.026673865688460318 0 -0.0023663606538969605 0.026883924294011045 0 -0.0023323199669462976 0.027189245935114337 0 -0.0011006054646776871 0.02556385547396324 0 0.00032626828861012939 0.024815673307279171 0 0.0002958615687518571 0.026886314991638537 0 -0.0011006054646776871 0.02556385547396324 0 0.00032626828861012939 0.024815673307279171 0 -4.6141527871444314e-05 0.023104549464024939 0 -0.0016779820459671216 0.02381643071399046 0 -0.0011006054646776871 0.02556385547396324 0 -4.6141527871444314e-05 0.023104549464024939 0 0.00032626828861012939 0.024815673307279171 0 0.0019650587524756855 0.024781007659984981 0 0.0002958615687518571 0.026886314991638537 0 0.00032626828861012939 0.024815673307279171 0 0.0011827894329105404 0.023248153093036617 0 -4.6141527871444314e-05 0.023104549464024939 0 0.00032626828861012939 0.024815673307279171 0 0.0019650587524756855 0.024781007659984981 0 0.0011827894329105404 0.023248153093036617 0 0.0011827894329105404 0.023248153093036617 0 0.0011505109403283219 0.02153591690880087 0 -4.6141527871444314e-05 0.023104549464024939 0 7.4434946696376388e-05 0.019876157228280941 0 0.0011505109403283219 0.02153591690880087 0 -4.6141527871444314e-05 0.023104549464024939 0 0.0019650587524756855 0.024781007659984981 0 0.0011827894329105404 0.023248153093036617 0 0.0026038380256995374 0.022128727845642824 0 0.0011827894329105404 0.023248153093036617 0 0.0011505109403283219 0.02153591690880087 0 0.0026038380256995374 0.022128727845642824 0 -0.00096726596401866614 0.021559505719187973 0 -0.0018613012973438942 0.025623265482290502 0 -0.0016242042914318318 0.026135389462109995 0 -0.002141958312675061 0.026427995860635409 0 -0.0020603915092445679 0.026814390253456031 0 7.4434946696376388e-05 0.019876157228280941 0 -0.0016779820459671216 0.02381643071399046 0 -4.6141527871444314e-05 0.023104549464024939 0 0.002484549333104354 0.021330484266843627 0 0.003091307539929403 0.016785859133951316 0 0.0039087989870127248 0.023748936932768378 0 0.0043926682505223474 0.020165660563487311 0 0.0056908580642697536 0.019860849864959732 0 0.00092067050890757478 0.018259019652803649 0 0.0019579524946244467 0.017891853997799884 0 0.0013717560986128356 0.017260037627371584 0 0.0025812880328537806 0.014859637457512004 0 0.003091307539929403 0.016785859133951316 0 0.0026038380256995374 0.022128727845642824 0 0.0039087989870127248 0.023748936932768378 0 0.0043926682505223474 0.020165660563487311 0 0.0019650587524756855 0.024781007659984981 0 0.0026038380256995374 0.022128727845642824 0 0.0039087989870127248 0.023748936932768378 0 0.002484549333104354 0.021330484266843627 0 0.00079723406938928638 0.022871870374232668 0 0.0019650587524756855 0.024781007659984981 0 0.0039087989870127248 0.023748936932768378 0 0.0024598090758411835 0.026894316865671616 0 0.00092067050890757478 0.018259019652803649 0 0.0018268674590062196 0.01862534989806848 0 0.001400185583697703 0.019240696903328722 0 0.00092067050890757478 0.018259019652803649 0 0.0018268674590062196 0.01862534989806848 0 0.0019579524946244467 0.017891853997799884 0 0.0018268674590062196 0.01862534989806848 0 0.0025474973107665212 0.018506663775467787 0 0.0019579524946244467 0.017891853997799884 0 0.0018268674590062196 0.01862534989806848 0 0.0025474973107665212 0.018506663775467787 0 0.0023071177880085855 0.019229069310490822 0 0.0031621921457290793 0.01555660215640868 0 0.0025812880328537806 0.014859637457512004 0 0.0032658643178715831 0.012106853432898591 0 0.0030178633644959213 0.012368730377545538 0 0.0029754806361099056 0.012061240668613726 0 0.0031621921457290793 0.01555660215640868 0 0.0018701700345307838 0.014594360071335064 0 0.0032658643178715831 0.012106853432898591 0 0.0029754806361099056 0.012061240668613726 0 0.0029806826363733608 0.01185619689259944 0 0.0032658643178715831 0.012106853432898591 0 0.0032995710916527456 0.012528202753911909 0 0.0030178633644959213 0.012368730377545538 0 0.0032995710916527456 0.012528202753911909 0 0.0036219360478146529 0.012412773892591631 0 0.0035519053059221792 0.012847327014756648 0 0.0032658643178715831 0.012106853432898591 0 0.0032995710916527456 0.012528202753911909 0 0.0036219360478146529 0.012412773892591631 0 0.0036219360478146529 0.012412773892591631 0 0.0035519053059221792 0.012847327014756648 0 0.0040205533875106794 0.0128129577556736 0 0.0032995710916527456 0.012528202753911909 0 0.0035519053059221792 0.012847327014756648 0 0.0030874732270944859 0.012908825521300534 0 0.0035519053059221792 0.012847327014756648 0 0.0030874732270944859 0.012908825521300534 0 0.0033060781209514347 0.013304153630721061 0 0.0032995710916527456 0.012528202753911909 0 0.0030874732270944859 0.012908825521300534 0 0.0030178633644959213 0.012368730377545538 0 0.0030874732270944859 0.012908825521300534 0 0.0033060781209514347 0.013304153630721061 0 0.0029382800975756617 0.013369442980941925 0 0.0033060781209514347 0.013304153630721061 0 0.0038416048677920173 0.013273331806798242 0 0.0034410340811249708 0.013585428362041905 0 0.0035519053059221792 0.012847327014756648 0 0.0033060781209514347 0.013304153630721061 0 0.0038416048677920173 0.013273331806798242 0 0.0035696642484842494 0.015518619622183033 0 0.0026681255570535135 0.016013169563329939 0 0.0021172068678663243 0.015799879536104629 0 0.0035696642484842494 0.015518619622183033 0 0.0021172068678663243 0.015799879536104629 0 0.0034438920857258136 0.014152155332648809 0 0.0035696642484842494 0.015518619622183033 0 0.0026681255570535135 0.016013169563329939 0 0.0030072360692715411 0.01675266237151889 0 0.0037910027076055648 0.014044365708763787 0 0.003091307539929403 0.016785859133951316 0 0.0035519053059221792 0.012847327014756648 0 0.0038416048677920173 0.013273331806798242 0 0.0040205533875106794 0.0128129577556736 0 0.0043926682505223474 0.020165660563487311 0 0.0056908580642697536 0.019860849864959732 0 0.0028415379196411665 0.018497478682651048 0 0.0056908580642697536 0.019860849864959732 0 0.0028415379196411665 0.018497478682651048 0 0.0020302465617880855 0.015957500206267232 0 0.003091307539929403 0.016785859133951316 0 0.0027089806719036219 0.016684263691483167 0 0.0026038380256995374 0.022128727845642824 0 0.0043926682505223474 0.020165660563487311 0 0.0022386383297159228 0.020155317953552639 0 0.0040811966794566668 0.020109205271936981 0 0.0017220812166144125 0.019745591086250888 0 0.0043926682505223474 0.020165660563487311 0 0.0010463415982587398 0.019162744156511615 0 0.0028415379196411665 0.018497478682651048 0 0.00090425455751544912 0.017155985020202699 0 0.0010463415982587398 0.019162744156511615 0 0.0028415379196411665 0.018497478682651048 0 0.00090425455751544912 0.017155985020202699 0 0.0028415379196411665 0.018497478682651048 0 0.0020302465617880855 0.015957500206267232 0 0.0026681255570535135 0.016013169563329939 0 0.0030072360692715411 0.01675266237151889 0 0.0020302465617880855 0.015957500206267232 0 0.00090425455751544912 0.017155985020202699 0 0.0020302465617880855 0.015957500206267232 0 0.001240333912595253 0.01585462204288882 0 0.0026681255570535135 0.016013169563329939 0 0.0020302465617880855 0.015957500206267232 0 0.0021172068678663243 0.015799879536104629 0 0.0021172068678663243 0.015799879536104629 0 0.0019046670358691229 0.015421634824879649 0 0.0020586480865623005 0.01519945287867824 0 0.0021172068678663243 0.015799879536104629 0 0.0019046670358691229 0.015421634824879649 0 0.0017813740528189988 0.015655405239567353 0 0.001240333912595253 0.01585462204288882 0 0.0017813740528189988 0.015655405239567353 0 0.0015510617679485627 0.015245465102552855 0 0.0020302465617880855 0.015957500206267232 0 0.001240333912595253 0.01585462204288882 0 0.0017813740528189988 0.015655405239567353 0 0.0020302465617880855 0.015957500206267232 0 0.0021172068678663243 0.015799879536104629 0 0.0017813740528189988 0.015655405239567353 0 0.0019046670358691229 0.015421634824879649 0 0.0017813740528189988 0.015655405239567353 0 0.0015510617679485627 0.015245465102552855 0 0.00045167317074490501 0.015461205077170647 0 0.0015510617679485627 0.015245465102552855 0 0.0017696916913093374 0.014675501706222047 0 0.0019046670358691229 0.015421634824879649 0 0.0015510617679485627 0.015245465102552855 0 0.0018910049567385922 0.015203599128839418 0 0.0019046670358691229 0.015421634824879649 0 0.0018910049567385922 0.015203599128839418 0 0.0020586480865623005 0.01519945287867824 0 0.0019720928533707373 0.015086023653343281 0 0.0018910049567385922 0.015203599128839418 0 0.0020586480865623005 0.01519945287867824 0 0.0015510617679485627 0.015245465102552855 0 0.0018910049567385922 0.015203599128839418 0 0.0018523130378675858 0.014985924263240065 0 0.0019720928533707373 0.015086023653343281 0 0.0018910049567385922 0.015203599128839418 0 0.0018523130378675858 0.014985924263240065 0 0.0018523130378675858 0.014985924263240065 0 0.0019230851235482673 0.014839446348414893 0 0.0017696916913093374 0.014675501706222047 0 0.0019720928533707373 0.015086023653343281 0 0.0019910228795671533 0.014955810179946037 0 0.0020425631383272501 0.015012744564941921 0 0.0019720928533707373 0.015086023653343281 0 0.0018523130378675858 0.014985924263240065 0 0.0019910228795671533 0.014955810179946037 0 0.0018523130378675858 0.014985924263240065 0 0.0019910228795671533 0.014955810179946037 0 0.0019230851235482673 0.014839446348414893 0 0.0015510617679485627 0.015245465102552855 0 0.0018523130378675858 0.014985924263240065 0 0.0017696916913093374 0.014675501706222047 0 0.0021075135833541737 0.015644569936651729 0 0.0027816551302256073 0.01459219698703795 0 0.0021172068678663243 0.015799879536104629 0 0.0020586480865623005 0.01519945287867824 0 0.0021520407985079859 0.014883860125214591 0 0.0020586480865623005 0.01519945287867824 0 0.0020873314876160287 0.014935425475085955 0 0.0021520407985079859 0.014883860125214591 0 0.0019720928533707373 0.015086023653343281 0 0.0020586480865623005 0.01519945287867824 0 0.0020425631383272501 0.015012744564941921 0 0.0020586480865623005 0.01519945287867824 0 0.0020425631383272501 0.015012744564941921 0 0.0020873314876160287 0.014935425475085955 0 0.0020415817919605429 0.014890411002010802 0 0.0020873314876160287 0.014935425475085955 0 0.0020866857392836109 0.014825279249080473 0 0.0019910228795671533 0.014955810179946037 0 0.0020425631383272501 0.015012744564941921 0 0.0020415817919605429 0.014890411002010802 0 0.0019910228795671533 0.014955810179946037 0 0.0019230851235482673 0.014839446348414893 0 0.0020415817919605429 0.014890411002010802 0 0.0019230851235482673 0.014839446348414893 0 0.0020415817919605429 0.014890411002010802 0 0.0019681980088386468 0.014814950570966675 0 0.0020425631383272501 0.015012744564941921 0 0.0020415817919605429 0.014890411002010802 0 0.0020873314876160287 0.014935425475085955 0 0.0020873314876160287 0.014935425475085955 0 0.0021520407985079859 0.014883860125214591 0 0.0020866857392836109 0.014825279249080473 0 0.0020866857392836109 0.014825279249080473 0 0.002027997705392851 0.014788041715256019 0 0.0020431991769398901 0.014761390996001173 0 0.0020866857392836109 0.014825279249080473 0 0.0020183489604051466 0.014818122671558916 0 0.002027997705392851 0.014788041715256019 0 0.0020415817919605429 0.014890411002010802 0 0.0020866857392836109 0.014825279249080473 0 0.0020183489604051466 0.014818122671558916 0 0.0020183489604051466 0.014818122671558916 0 0.0019561695031130037 0.014796081630526819 0 0.002027997705392851 0.014788041715256019 0 0.0020415817919605429 0.014890411002010802 0 0.0020183489604051466 0.014818122671558916 0 0.0019681980088386468 0.014814950570966675 0 0.0020183489604051466 0.014818122671558916 0 0.0019681980088386468 0.014814950570966675 0 0.0019561695031130037 0.014796081630526819 0 0.0019877444821187191 0.014799880582884768 0 0.002027997705392851 0.014788041715256019 0 0.0020432036229203953 0.014754310091107815 0 0.0019561695031130037 0.014796081630526819 0 0.0019877444821187191 0.014799880582884768 0 0.0019208329567470424 0.014804994271528763 0 0.0019561695031130037 0.014796081630526819 0 0.0019877444821187191 0.014799880582884768 0 0.002027997705392851 0.014788041715256019 0 0.0019877444821187191 0.014799880582884768 0 0.0019973491424268926 0.014830750617432465 0 0.0019208329567470424 0.014804994271528763 0 0.0019877444821187191 0.014799880582884768 0 0.0019973491424268926 0.014830750617432465 0 0.0020432036229203953 0.014754310091107815 0 0.002027997705392851 0.014788041715256019 0 0.0020432036229203953 0.014754310091107815 0 0.0020431991769398901 0.014761390996001173 0 0.0003688820992592207 0.020232251209178161 0 0.0013321934429854055 0.019438154881343987 0 0.0013265397236521836 0.015875291761053973 0 0.0019142700597945016 0.014969527584478415 0 0.0017696916913093374 0.014675501706222047 0 0.0019208329567470424 0.014804994271528763 0 0.001963413568758684 0.014906338150885962 0 0.00010599267646867572 0.016601748249057538 0 0.0010477147183322272 0.016920191857681902 0 0.001963413568758684 0.014906338150885962 0 0.00010599267646867572 0.016601748249057538 0 0.0020623138900043403 0.014710455397372445 0 0.001963413568758684 0.014906338150885962 0 0.0019230851235482673 0.014839446348414893 0 0.0017696916913093374 0.014675501706222047 0 0.001900345741218223 0.014775076156259488 0 0.0017696916913093374 0.014675501706222047 0 0.001900345741218223 0.014775076156259488 0 0.0019208329567470424 0.014804994271528763 0 0.0019230851235482673 0.014839446348414893 0 0.0019681980088386468 0.014814950570966675 0 0.001900345741218223 0.014775076156259488 0 0.0019561695031130037 0.014796081630526819 0 0.001900345741218223 0.014775076156259488 0 0.0019208329567470424 0.014804994271528763 0 0.0019681980088386468 0.014814950570966675 0 0.0019561695031130037 0.014796081630526819 0 0.001900345741218223 0.014775076156259488 0 0.0019973491424268926 0.014830750617432465 0 0.0019208329567470424 0.014804994271528763 0 0.001963413568758684 0.014906338150885962 0 0.00062690974364354533 0.023706947085348023 0 0.00078651488563653881 0.023714273158217388 0 0.00078582145576758114 0.023593256967476751 0 0.00062690974364354533 0.023706947085348023 0 0.0006414284237589139 0.023865693519191121 0 0.00078651488563653881 0.023714273158217388 0 0.0019973491424268926 0.014830750617432465 0 0.0020623138900043403 0.014710455397372445 0 0.001963413568758684 0.014906338150885962 0 0.0013321934429854055 0.019438154881343987 0 0.0015400569607104471 0.018012736555567399 0 0.0020623138900043403 0.014710455397372445 0 0.0020432036229203953 0.014754310091107815 0 0.0020004661855039163 0.014877088802201009 0 0.0019973491424268926 0.014830750617432465 0 0.0020623138900043403 0.014710455397372445 0 0.0020432036229203953 0.014754310091107815 0 0.00078651488563653881 0.023714273158217388 0 0.00078582145576758114 0.023593256967476751 0 0.00090703735820144721 0.023569593693910741 0 0.00088067395582208045 0.023453274951164546 0 0.00078582145576758114 0.023593256967476751 0 0.00090703735820144721 0.023569593693910741 0 0.00062680261431679468 0.023585339569259248 0 0.00062690974364354533 0.023706947085348023 0 0.00078582145576758114 0.023593256967476751 0 0.0019852682441519765 0.014392270949750582 0 0.0020787773857921408 0.014395255605232008 0 0.0020312875163157268 0.014546317315232751 0 0.0019852682441519765 0.014392270949750582 0 0.0020787773857921408 0.014395255605232008 0 0.0020486724095029551 0.014310860884574273 0 0.0020787773857921408 0.014395255605232008 0 0.0020486724095029551 0.014310860884574273 0 0.0020958564222395824 0.014266440371583195 0 0.0020090940231158125 0.014249947662449032 0 0.0019852682441519765 0.014392270949750582 0 0.0020486724095029551 0.014310860884574273 0 0.0022006156866198646 0.015346619442765625 0 0.0015400569607104471 0.018012736555567399 0 0.0020090940231158125 0.014249947662449032 0 0.0019852682441519765 0.014392270949750582 0 0.0018626704279325924 0.01442450175154154 0 0.0019852682441519765 0.014392270949750582 0 0.0018626704279325924 0.01442450175154154 0 0.0020312875163157268 0.014546317315232751 0 0.0018626704279325924 0.01442450175154154 0 0.0020312875163157268 0.014546317315232751 0 0.0020099350240591757 0.014721839999806854 0 0.0020432036229203953 0.014754310091107815 0 0.0020004661855039163 0.014877088802201009 0 0.0020099350240591757 0.014721839999806854 0 0.0015400569607104471 0.018012736555567399 0 0.0020146092381719475 0.013322539639206163 0 0.0020312875163157268 0.014546317315232751 0 0.0020559010523780552 0.01471654130130131 0 0.0021546896397193652 0.014511961687003134 0 0.0020787773857921408 0.014395255605232008 0 0.0020312875163157268 0.014546317315232751 0 0.0021546896397193652 0.014511961687003134 0 0.0027100505162637807 0.014289498964655053 0 0.0024559265315322802 0.014309731211331552 0 0.0033412469665749021 0.013862736205808284 0 0.0030091388491133584 0.01373632166853153 0 0.00276316578036421 0.014115731263703116 0 0.0033412469665749021 0.013862736205808284 0 0.0030091388491133584 0.01373632166853153 0 0.0032267620566656142 0.013682170596827765 0 0.0021520407985079859 0.014883860125214591 0 0.0020866857392836109 0.014825279249080473 0 0.0020559010523780552 0.01471654130130131 0 0.0020559010523780552 0.01471654130130131 0 0.0020431991769398901 0.014761390996001173 0 0.0020099350240591757 0.014721839999806854 0 0.0020866857392836109 0.014825279249080473 0 0.0020559010523780552 0.01471654130130131 0 0.0020431991769398901 0.014761390996001173 0 0.0020312875163157268 0.014546317315232751 0 0.0020559010523780552 0.01471654130130131 0 0.0020099350240591757 0.014721839999806854 0 0.0020432036229203953 0.014754310091107815 0 0.0020431991769398901 0.014761390996001173 0 0.0020099350240591757 0.014721839999806854 0 0.0038416048677920173 0.013273331806798242 0 0.0035243758658916845 0.013984932166774577 0 0.0034410340811249708 0.013585428362041905 0 0.0037910027076055648 0.014044365708763787 0 0.0035303432492236999 0.014224371372965804 0 0.0035696642484842494 0.015518619622183033 0 0.0034438920857258136 0.014152155332648809 0 0.0035243758658916845 0.013984932166774577 0 0.0027816551302256073 0.01459219698703795 0 0.0027100505162637807 0.014289498964655053 0 0.0034438920857258136 0.014152155332648809 0 0.0033412469665749021 0.013862736205808284 0 0.0035243758658916845 0.013984932166774577 0 0.0033412469665749021 0.013862736205808284 0 0.0035243758658916845 0.013984932166774577 0 0.0032267620566656142 0.013682170596827765 0 0.0035243758658916845 0.013984932166774577 0 0.0034410340811249708 0.013585428362041905 0 0.0032267620566656142 0.013682170596827765 0 0.0030091388491133584 0.01373632166853153 0 0.0032267620566656142 0.013682170596827765 0 0.0029382800975756617 0.013369442980941925 0 0.0033060781209514347 0.013304153630721061 0 0.0032267620566656142 0.013682170596827765 0 0.0029382800975756617 0.013369442980941925 0 0.0033060781209514347 0.013304153630721061 0 0.0034410340811249708 0.013585428362041905 0 0.0032267620566656142 0.013682170596827765 0 0.0024535587940037519 0.013335640266253699 0 0.0026952301737114474 0.013671898060472447 0 0.0029382800975756617 0.013369442980941925 0 0.0030091388491133584 0.01373632166853153 0 0.0026952301737114474 0.013671898060472447 0 0.0029382800975756617 0.013369442980941925 0 0.0024535587940037519 0.013335640266253699 0 0.002233230155267748 0.013774357388985905 0 0.0020290109516586646 0.013358588203766066 0 0.0024535587940037519 0.013335640266253699 0 0.002233230155267748 0.013774357388985905 0 0.0026952301737114474 0.013671898060472447 0 0.002233230155267748 0.013774357388985905 0 0.0026952301737114474 0.013671898060472447 0 0.00276316578036421 0.014115731263703116 0 0.0030091388491133584 0.01373632166853153 0 0.0026952301737114474 0.013671898060472447 0 0.00276316578036421 0.014115731263703116 0 0.002233230155267748 0.013774357388985905 0 0.00276316578036421 0.014115731263703116 0 0.0022495039346370053 0.014064627609455649 0 0.0024559265315322802 0.014309731211331552 0 0.0022829972620026138 0.01430633485069846 0 0.00276316578036421 0.014115731263703116 0 0.0022495039346370053 0.014064627609455649 0 0.0022576320102634662 0.014290893661615418 0 0.0021546896397193652 0.014511961687003134 0 0.0022576320102634662 0.014290893661615418 0 0.0021906940697357887 0.014288028810277697 0 0.0022576320102634662 0.014290893661615418 0 0.002227144901187693 0.014280670980331128 0 0.0021906940697357887 0.014288028810277697 0 0.0022356233537580731 0.014190942670334682 0 0.0022253379086511209 0.014297668060548895 0 0.0022177845937514265 0.014245843271960396 0 0.0022253379086511209 0.014297668060548895 0 0.002227144901187693 0.014280670980331128 0 0.0022177845937514265 0.014245843271960396 0 0.0022576320102634662 0.014290893661615418 0 0.0022253379086511209 0.014297668060548895 0 0.002227144901187693 0.014280670980331128 0 0.002227144901187693 0.014280670980331128 0 0.0022069616452823192 0.01425197702600367 0 0.0022177845937514265 0.014245843271960396 0 0.002227144901187693 0.014280670980331128 0 0.0022069616452823192 0.01425197702600367 0 0.0021906940697357887 0.014288028810277697 0 0.0021820704755289039 0.014225606253335025 0 0.0022069616452823192 0.01425197702600367 0 0.0021906940697357887 0.014288028810277697 0 0.0021633579437128564 0.014224809731145188 0 0.0021906940697357887 0.014288028810277697 0 0.0021515754702041974 0.014267951799114316 0 0.0021633579437128564 0.014224809731145188 0 0.0021820704755289039 0.014225606253335025 0 0.0021906940697357887 0.014288028810277697 0 0.0020787773857921408 0.014395255605232008 0 0.0021546896397193652 0.014511961687003134 0 0.0021339939048126834 0.014335147582761601 0 0.0021546896397193652 0.014511961687003134 0 0.0021906940697357887 0.014288028810277697 0 0.0021339939048126834 0.014335147582761601 0 0.0021906940697357887 0.014288028810277697 0 0.0021515754702041974 0.014267951799114316 0 0.0021339939048126834 0.014335147582761601 0 0.0021515754702041974 0.014267951799114316 0 0.0021271584374386822 0.014273797684302519 0 0.0021339939048126834 0.014335147582761601 0 0.0021320796734895053 0.014225492292696281 0 0.0021515754702041974 0.014267951799114316 0 0.0021271584374386822 0.014273797684302519 0 0.0020787773857921408 0.014395255605232008 0 0.0020958564222395824 0.014266440371583195 0 0.0021339939048126834 0.014335147582761601 0 0.0021271584374386822 0.014273797684302519 0 0.0020958564222395824 0.014266440371583195 0 0.0021339939048126834 0.014335147582761601 0 0.0018513624879550022 0.0019050871761776319 0 0.0019521276500355463 0.001352733963872398 0 0.0013661304030125542 0.0016683230715086414 0 0.002430891922337941 0.0021546513908633838 0 0.0018513624879550022 0.0019050871761776319 0 0.0019521276500355463 0.001352733963872398 0 0.0024780184155211815 0.0090915974489965568 0 0.0018523314676532011 0.007580239285097462 0 0.0021023759490215329 0.014452745847924182 0 0.0022253379086511209 0.014297668060548895 0 0.002095634449750295 0.014217614952200815 0 0.0021023759490215329 0.014452745847924182 0 0.002095634449750295 0.014217614952200815 0 0.0018562821051411598 0.014126215326433626 0 0.0022576320102634662 0.014290893661615418 0 0.0022253379086511209 0.014297668060548895 0 0.002095634449750295 0.014217614952200815 0 0.0022495039346370053 0.014064627609455649 0 0.0022576320102634662 0.014290893661615418 0 0.002095634449750295 0.014217614952200815 0 0.0022495039346370053 0.014064627609455649 0 0.002095634449750295 0.014217614952200815 0 0.0018562821051411598 0.014126215326433626 0 0.002233230155267748 0.013774357388985905 0 0.0022495039346370053 0.014064627609455649 0 0.0018562821051411598 0.014126215326433626 0 0.0018523314676532011 0.007580239285097462 0 0.0015522783442621483 0.0071750333354220304 0 0.002233230155267748 0.013774357388985905 0 0.0018562821051411598 0.014126215326433626 0 0.0015392240122734868 0.013595081047406221 0 0.002233230155267748 0.013774357388985905 0 0.0015392240122734868 0.013595081047406221 0 0.0020290109516586646 0.013358588203766066 0 0.0015392240122734868 0.013595081047406221 0 0.0020290109516586646 0.013358588203766066 0 0.0017090650758302573 0.013040167662047646 0 0.0015392240122734868 0.013595081047406221 0 0.0017090650758302573 0.013040167662047646 0 0.0012087458559005789 0.012963437283899731 0 0.0017090650758302573 0.013040167662047646 0 0.0015114858218164011 0.012699966481961159 0 0.0017791297343432535 0.012641553225329311 0 0.0017090650758302573 0.013040167662047646 0 0.0015114858218164011 0.012699966481961159 0 0.0012087458559005789 0.012963437283899731 0 0.0015114858218164011 0.012699966481961159 0 0.0017791297343432535 0.012641553225329311 0 0.0015302406801331937 0.012433005479070062 0 0.0017791297343432535 0.012641553225329311 0 0.0015302406801331937 0.012433005479070062 0 0.0017777035821876879 0.012288818942903923 0 0.0020108618296813072 0.012516192050930568 0 0.0021434442309947988 0.012878504289313945 0 0.0022674318068791454 0.012389311703461518 0 0.0017791297343432535 0.012641553225329311 0 0.0020108618296813072 0.012516192050930568 0 0.0017777035821876879 0.012288818942903923 0 0.0017791297343432535 0.012641553225329311 0 0.0020108618296813072 0.012516192050930568 0 0.0021434442309947988 0.012878504289313945 0 0.0017090650758302573 0.013040167662047646 0 0.0017791297343432535 0.012641553225329311 0 0.0021434442309947988 0.012878504289313945 0 0.0024535587940037519 0.013335640266253699 0 0.0020290109516586646 0.013358588203766066 0 0.0021434442309947988 0.012878504289313945 0 0.0020290109516586646 0.013358588203766066 0 0.0017090650758302573 0.013040167662047646 0 0.0021434442309947988 0.012878504289313945 0 0.0024535587940037519 0.013335640266253699 0 0.0021434442309947988 0.012878504289313945 0 0.0026438285138757948 0.012821796048214181 0 0.0024535587940037519 0.013335640266253699 0 0.0029382800975756617 0.013369442980941925 0 0.0026438285138757948 0.012821796048214181 0 0.0030874732270944859 0.012908825521300534 0 0.0029382800975756617 0.013369442980941925 0 0.0026438285138757948 0.012821796048214181 0 0.0030874732270944859 0.012908825521300534 0 0.0026438285138757948 0.012821796048214181 0 0.0030178633644959213 0.012368730377545538 0 0.0026438285138757948 0.012821796048214181 0 0.0025890818887378442 0.012455992257315997 0 0.0030178633644959213 0.012368730377545538 0 0.0021434442309947988 0.012878504289313945 0 0.0026438285138757948 0.012821796048214181 0 0.0022674318068791454 0.012389311703461518 0 0.0026438285138757948 0.012821796048214181 0 0.0022674318068791454 0.012389311703461518 0 0.0025890818887378442 0.012455992257315997 0 0.0022674318068791454 0.012389311703461518 0 0.0025890818887378442 0.012455992257315997 0 0.0025872851266422144 0.012179384748541074 0 0.0022674318068791454 0.012389311703461518 0 0.0025872851266422144 0.012179384748541074 0 0.0023618453093749449 0.011969877231518485 0 0.0022674318068791454 0.012389311703461518 0 0.0023618453093749449 0.011969877231518485 0 0.0021019360810610225 0.012097502080854652 0 0.0025890818887378442 0.012455992257315997 0 0.0025872851266422144 0.012179384748541074 0 0.0030178633644959213 0.012368730377545538 0 0.0025872851266422144 0.012179384748541074 0 0.0030178633644959213 0.012368730377545538 0 0.0026576822850860487 0.011933652602438742 0 0.0030178633644959213 0.012368730377545538 0 0.0027929835381816561 0.012016359612811032 0 0.0029754806361099056 0.012061240668613726 0 0.0030178633644959213 0.012368730377545538 0 0.0026576822850860487 0.011933652602438742 0 0.0028055149803013209 0.011547922652260983 0 0.0030080871224210954 0.012312690998754493 0 0.0027944846126377199 0.011792446357893376 0 0.0027929835381816561 0.012016359612811032 0 0.0029754806361099056 0.012061240668613726 0 0.0028219266051013633 0.011942529549730551 0 0.0023709551390694132 0.011563376571326297 0 0.0017922077836632991 0.011606403652160566 0 0.0024482615894863805 0.011558446585679307 0 0.002201935935459514 0.01170823216478298 0 0.0019696983342370068 0.011642610635392738 0 0.0024482615894863805 0.011558446585679307 0 0.0015587726327990596 0.011586774302069175 0 0.0020899614375067847 0.011281241508021659 0 0.0023618453093749449 0.011969877231518485 0 0.002201935935459514 0.01170823216478298 0 0.0021019360810610225 0.012097502080854652 0 0.0026576822850860487 0.011933652602438742 0 0.0023618453093749449 0.011969877231518485 0 0.0024482615894863805 0.011558446585679307 0 0.0025872851266422144 0.012179384748541074 0 0.0026576822850860487 0.011933652602438742 0 0.0023618453093749449 0.011969877231518485 0 0.0026576822850860487 0.011933652602438742 0 0.0028055149803013209 0.011547922652260983 0 0.0024482615894863805 0.011558446585679307 0 0.0023618453093749449 0.011969877231518485 0 0.0024482615894863805 0.011558446585679307 0 0.002201935935459514 0.01170823216478298 0 0.0017922077836632991 0.011606403652160566 0 0.00085810753518691951 0.009492732550967057 0 0.002201935935459514 0.01170823216478298 0 0.0019696983342370068 0.011642610635392738 0 0.0017991930713026844 0.011857015425698296 0 0.0019696983342370068 0.011642610635392738 0 0.0017991930713026844 0.011857015425698296 0 0.0015376118704748124 0.011664295996601281 0 0.0015587726327990596 0.011586774302069175 0 0.00068668824792542159 0.011646283663036853 0 0.001333571516381067 0.011142746793842442 0 0.002201935935459514 0.01170823216478298 0 0.0018425476797874606 0.011939400396910863 0 0.0021019360810610225 0.012097502080854652 0 0.0021691368914533949 0.011728919339819333 0 0.0017983988142432252 0.011882641091981385 0 0.00085810753518691951 0.009492732550967057 0 0.0012248350876525901 0.01105614628887072 0 0.0017991930713026844 0.011857015425698296 0 0.0015376118704748124 0.011664295996601281 0 0.0014324146781557448 0.012003592032192686 0 0.0017983988142432252 0.011882641091981385 0 0.0012248350876525901 0.01105614628887072 0 0.0018425476797874606 0.011939400396910863 0 0.0016422906337181574 0.012171696510851255 0 0.0017777035821876879 0.012288818942903923 0 0.0018425476797874606 0.011939400396910863 0 0.0016422906337181574 0.012171696510851255 0 0.0015085079190720095 0.012092192390140574 0 0.0016422906337181574 0.012171696510851255 0 0.0015085079190720095 0.012092192390140574 0 0.0014928356228445382 0.012140813814458291 0 0.0016422906337181574 0.012171696510851255 0 0.0014928356228445382 0.012140813814458291 0 0.0015595943615443434 0.01226711258192833 0 0.0012248350876525901 0.01105614628887072 0 0.0011968619595319056 0.011272456099018833 0 0.0014928356228445382 0.012140813814458291 0 0.0015595943615443434 0.01226711258192833 0 0.0013506468060258158 0.012304776871429038 0 0.0015302406801331937 0.012433005479070062 0 0.0015595943615443434 0.01226711258192833 0 0.0017777035821876879 0.012288818942903923 0 0.0015302406801331937 0.012433005479070062 0 0.0015595943615443434 0.01226711258192833 0 0.0013506468060258158 0.012304776871429038 0 0.0016422906337181574 0.012171696510851255 0 0.0015595943615443434 0.01226711258192833 0 0.0017777035821876879 0.012288818942903923 0 0.0020108618296813072 0.012516192050930568 0 0.0022674318068791454 0.012389311703461518 0 0.0021019360810610225 0.012097502080854652 0 0.0020108618296813072 0.012516192050930568 0 0.0017777035821876879 0.012288818942903923 0 0.0021019360810610225 0.012097502080854652 0 0.0018425476797874606 0.011939400396910863 0 0.0017777035821876879 0.012288818942903923 0 0.0021019360810610225 0.012097502080854652 0 0.0019161601465859151 0.010601204485535098 0 0.0010439541282523178 0.010460866736224388 0 0.0021040978378621387 0.010237811808316996 0 0.00096477968881798033 0.010440597107709539 0 0.0021040978378621387 0.010237811808316996 0 0.0016472343576193142 0.0090594185539242152 0 0.0012017395135171785 0.0076597318679048169 0 0.00179744057414884 0.01060213793800323 0 0.0013039124270268158 0.0043027121609217397 0 0.00051471138394722086 0.0034072128584029986 0 -0.0005419550439037875 0.0046662603586327851 0 0.0012017395135171785 0.0076597318679048169 0 6.0427707795590844e-05 0.0039772883651580503 0 0.00085810753518691951 0.009492732550967057 0 0.0012017395135171785 0.0076597318679048169 0 0.00068668824792542159 0.011646283663036853 0 0.0010439541282523178 0.010460866736224388 0 0.001333571516381067 0.011142746793842442 0 0.00077204560820053135 0.0068658335736121751 0 0.00084154541436049001 0.0066446034603827725 0 0.00057503196751899335 0.0066773610506382503 0 0.0019161601465859151 0.010601204485535098 0 0.0010439541282523178 0.010460866736224388 0 0.0017336132509715566 0.010931139700585639 0 0.0010439541282523178 0.010460866736224388 0 0.001333571516381067 0.011142746793842442 0 0.0017336132509715566 0.010931139700585639 0 0.0019161601465859151 0.010601204485535098 0 0.0017336132509715566 0.010931139700585639 0 0.002089969498752156 0.010932271739139625 0 0.0015587726327990596 0.011586774302069175 0 0.001333571516381067 0.011142746793842442 0 0.001678688748472027 0.011236035613364774 0 0.0015587726327990596 0.011586774302069175 0 0.001678688748472027 0.011236035613364774 0 0.0020899614375067847 0.011281241508021659 0 0.0017336132509715566 0.010931139700585639 0 0.001678688748472027 0.011236035613364774 0 0.0020899614375067847 0.011281241508021659 0 0.001333571516381067 0.011142746793842442 0 0.0017336132509715566 0.010931139700585639 0 0.001678688748472027 0.011236035613364774 0 0.0027929835381816561 0.012016359612811032 0 0.0028219266051013633 0.011942529549730551 0 0.002463409988100193 0.011493254809257102 0 0.0027944846126377199 0.011792446357893376 0 0.0023690793602296487 0.01081793544655207 0 0.0028055149803013209 0.011547922652260983 0 0.0022870922429601916 0.010845144364177555 0 0.0023081627850096817 0.010336883351452738 0 0.0017336132509715566 0.010931139700585639 0 0.0020899614375067847 0.011281241508021659 0 0.002089969498752156 0.010932271739139625 0 0.0020899614375067847 0.011281241508021659 0 0.0023763452358041754 0.011187886369447122 0 0.002089969498752156 0.010932271739139625 0 0.0024482615894863805 0.011558446585679307 0 0.0020899614375067847 0.011281241508021659 0 0.0023763452358041754 0.011187886369447122 0 0.0028055149803013209 0.011547922652260983 0 0.0023763452358041754 0.011187886369447122 0 0.0022870922429601916 0.010845144364177555 0 0.0028055149803013209 0.011547922652260983 0 0.0024482615894863805 0.011558446585679307 0 0.0023763452358041754 0.011187886369447122 0 0.0019161601465859151 0.010601204485535098 0 0.002089969498752156 0.010932271739139625 0 0.0022870922429601916 0.010845144364177555 0 0.0019161601465859151 0.010601204485535098 0 0.0022870922429601916 0.010845144364177555 0 0.0021656655315725631 0.010458630245870924 0 0.0023763452358041754 0.011187886369447122 0 0.002089969498752156 0.010932271739139625 0 0.0022870922429601916 0.010845144364177555 0 0.0030256045916314997 0.011828170401823605 0 0.0028219266051013633 0.011942529549730551 0 0.0025976779517284379 0.011382468258276501 0 0.0029754806361099056 0.012061240668613726 0 0.0029806826363733608 0.01185619689259944 0 0.0028219266051013633 0.011942529549730551 0 0.0018701700345307838 0.014594360071335064 0 0.0034250303163221299 0.012416896571848402 0 0.00026266267444197095 0.013925809729889257 0 0.0002769234080391631 0.013940082647874063 0 0.0002492233110123808 0.013953121527009451 0 0.0018701700345307838 0.014594360071335064 0 0.0013272820893376 0.012651775374484414 0 0.0023081627850096817 0.010336883351452738 0 0.0021040978378621387 0.010237811808316996 0 0.0016472343576193142 0.0090594185539242152 0 0.0025976779517284379 0.011382468258276501 0 0.002463409988100193 0.011493254809257102 0 0.002109888904403561 0.010872029494871878 0 0.0028219266051013633 0.011942529549730551 0 0.0025976779517284379 0.011382468258276501 0 0.002463409988100193 0.011493254809257102 0 0.0022870922429601916 0.010845144364177555 0 0.0023081627850096817 0.010336883351452738 0 0.0021656655315725631 0.010458630245870924 0 0.0023081627850096817 0.010336883351452738 0 0.0021040978378621387 0.010237811808316996 0 0.0021656655315725631 0.010458630245870924 0 0.0019161601465859151 0.010601204485535098 0 0.0021040978378621387 0.010237811808316996 0 0.0021656655315725631 0.010458630245870924 0 0.0023690793602296487 0.01081793544655207 0 0.0017770306141403553 0.010463773872768829 0 0.0002769234080391631 0.013940082647874063 0 0.00027168594272983232 0.013946447810919135 0 0.00027939912742429345 0.013925749279184545 0 0.0013272820893376 0.012651775374484414 0 0.0017770306141403553 0.010463773872768829 0 0.00027168594272983232 0.013946447810919135 0 0.00027482301273141992 0.013936114602054453 0 0.00027939912742429345 0.013925749279184545 0 0.0002769234080391631 0.013940082647874063 0 0.00027168594272983232 0.013946447810919135 0 0.00025581594394850742 0.013969192654658225 0 0.0002769234080391631 0.013940082647874063 0 0.00025581594394850742 0.013969192654658225 0 0.0002492233110123808 0.013953121527009451 0 0.00025581594394850742 0.013969192654658225 0 0.00026497484266088618 0.013960702792851597 0 0.00024298590489784473 0.014000894385591267 0 0.00026497484266088618 0.013960702792851597 0 0.00025513173279522816 0.013978602701781882 0 0.00024298590489784473 0.014000894385591267 0 0.00027168594272983232 0.013946447810919135 0 0.00025581594394850742 0.013969192654658225 0 0.00026497484266088618 0.013960702792851597 0 0.00027168594272983232 0.013946447810919135 0 0.00027482301273141992 0.013936114602054453 0 0.00026497484266088618 0.013960702792851597 0 0.00026497484266088618 0.013960702792851597 0 0.00027141389786737081 0.013938632638842865 0 0.00026457054458839868 0.013951640287375344 0 0.00027482301273141992 0.013936114602054453 0 0.00026497484266088618 0.013960702792851597 0 0.00027141389786737081 0.013938632638842865 0 0.00044600824650399085 0.006492898206224583 0 0.00074953119848632092 0.0067282976599670839 0 0.00093572606779079252 0.0056560141948033349 0 0.00027141389786737081 0.013938632638842865 0 0.00027978456603786029 0.013919541150382082 0 0.00026889398143702543 0.013926130928546889 0 0.00094373896934012397 0.0098973425786223722 0 -0.00065110057822262511 0.0075212687760456177 0 0.0014199913941525446 0.0019744799638141009 0 0.0018605994077827376 0.0024322446005091928 0 0.001013752936903786 0.0026063461084659552 0 0.00044600824650399085 0.006492898206224583 0 0.00074953119848632092 0.0067282976599670839 0 0.0007278314924761913 0.0068016424045641852 0 0.00089999400321681623 0.0038075452379770199 0 0.0012751833975626287 0.0071538248338448096 0 0.00094373896934012397 0.0098973425786223722 0 0.0012751833975626287 0.0071538248338448096 0 0.00027482301273141992 0.013936114602054453 0 0.00027141389786737081 0.013938632638842865 0 0.00027978456603786029 0.013919541150382082 0 0.00027482301273141992 0.013936114602054453 0 0.00027978456603786029 0.013919541150382082 0 0.00027939912742429345 0.013925749279184545 0 0.00096477968881798033 0.010440597107709539 0 0.0016472343576193142 0.0090594185539242152 0 0.0014570509179203436 0.0088539450800717342 0 0.0013039124270268158 0.0043027121609217397 0 0.0018605994077827376 0.0024322446005091928 0 0.001013752936903786 0.0026063461084659552 0 0.0012017395135171785 0.0076597318679048169 0 0.0012751833975626287 0.0071538248338448096 0 0.00057684457456997078 0.0077465743969160269 0 0.0018727143381548944 0.010172919237312741 0 0.00033125804561730737 0.0085431689978605705 0 0.00094373896934012397 0.0098973425786223722 0 0.0017770306141403553 0.010463773872768829 0 0.0017770306141403553 0.010463773872768829 0 0.0012751833975626287 0.0071538248338448096 0 0.0013039124270268158 0.0043027121609217397 0 0.00051471138394722086 0.0034072128584029986 0 0.001013752936903786 0.0026063461084659552 0 0.00051471138394722086 0.0034072128584029986 0 0.001013752936903786 0.0026063461084659552 0 0.00036975450793448643 0.0026931233594964877 0 0.001013752936903786 0.0026063461084659552 0 0.00036975450793448643 0.0026931233594964877 0 0.00062814162564404387 0.0020260043382892808 0 0.0013389627408916666 0.0019031567450776368 0 0.00062814162564404387 0.0020260043382892808 0 0.00070703098954299018 0.0016992767956853527 0 0.00089999400321681623 0.0038075452379770199 0 0.0013830119277210896 0.0022513771606428464 0 0.0013389627408916666 0.0019031567450776368 0 0.001013752936903786 0.0026063461084659552 0 0.00062814162564404387 0.0020260043382892808 0 0.00089999400321681623 0.0038075452379770199 0 0.00071364757576758767 -0.00065638280588614238 0 0.0013389627408916666 0.0019031567450776368 0 0.00070703098954299018 0.0016992767956853527 0 0.00055169994237199847 0.0013455747893939389 0 0.00070703098954299018 0.0016992767956853527 0 0.00055169994237199847 0.0013455747893939389 0 0.00038033222553134527 0.0015481386515547391 0 0.00062814162564404387 0.0020260043382892808 0 0.00070703098954299018 0.0016992767956853527 0 0.00038033222553134527 0.0015481386515547391 0 0.00033678109530730022 -0.0043261497475495765 0 0.00033591397540593557 -0.0043309412943697357 0 0.00033932791406822367 -0.004326150110727579 0 0.00033678109530730022 -0.0043261497475495765 0 0.00033591397540593557 -0.0043309412943697357 0 0.00033494097399359762 -0.0043159662376491678 0 0.00033591397540593557 -0.0043309412943697357 0 0.00032506250195180362 -0.0042895161550868489 0 0.00033494097399359762 -0.0043159662376491678 0 0.00032506250195180362 -0.0042895161550868489 0 0.00033494097399359762 -0.0043159662376491678 0 0.00033156110235818548 -0.0042993386064366689 0 0.00033515601439141669 -0.0043111142005110587 0 0.00033494097399359762 -0.0043159662376491678 0 0.00033156110235818548 -0.0042993386064366689 0 0.00033515601439141669 -0.0043111142005110587 0 0.00033671673109272925 -0.0043114171519500555 0 0.00033156110235818548 -0.0042993386064366689 0 0.00033591397540593557 -0.0043309412943697357 0 0.00033932791406822367 -0.004326150110727579 0 0.00034674589135654345 -0.0043357307856502492 0 0.00033515601439141669 -0.0043111142005110587 0 0.00033788754640293926 -0.0043188403364352755 0 0.00033671673109272925 -0.0043114171519500555 0 0.00033515601439141669 -0.0043111142005110587 0 0.00033788754640293926 -0.0043188403364352755 0 0.00033494097399359762 -0.0043159662376491678 0 0.00033788754640293926 -0.0043188403364352755 0 0.00033974674503555922 -0.0043209312907735815 0 0.00033671673109272925 -0.0043114171519500555 0 0.00033974674503555922 -0.0043209312907735815 0 0.00034161769769947161 -0.004326513644719524 0 0.00034399963194225698 -0.004332078108996361 0 0.00033788754640293926 -0.0043188403364352755 0 0.00033974674503555922 -0.0043209312907735815 0 0.00034161769769947161 -0.004326513644719524 0 0.00034161769769947161 -0.004326513644719524 0 0.00033932791406822367 -0.004326150110727579 0 0.00034674589135654345 -0.0043357307856502492 0 0.00033788754640293926 -0.0043188403364352755 0 0.00034161769769947161 -0.004326513644719524 0 0.00033932791406822367 -0.004326150110727579 0 0.00033678109530730022 -0.0043261497475495765 0 0.00033932791406822367 -0.004326150110727579 0 0.00033494097399359762 -0.0043159662376491678 0 0.00033788754640293926 -0.0043188403364352755 0 0.00033932791406822367 -0.004326150110727579 0 0.00033494097399359762 -0.0043159662376491678 0 0.00033591397540593557 -0.0043309412943697357 0 0.00032506250195180362 -0.0042895161550868489 0 0.00029926505993490616 -0.0042547481094762137 0 0.00074953119848632092 0.0067282976599670839 0 0.00093572606779079252 0.0056560141948033349 0 0.0010710089211602972 0.0056095914692126684 0 0.00089999400321681623 0.0038075452379770199 0 0.00093469865585134001 0.0029538258618698999 0 0.00080234412773789651 0.0021341881814811313 0 0.00070568617240067682 0.0020195384737671344 0 0.0009058329124019002 0.0019646316359118498 0 0.00071364757576758767 -0.00065638280588614238 0 0.00093469865585134001 0.0029538258618698999 0 0.00032506250195180362 -0.0042895161550868489 0 0.00029926505993490616 -0.0042547481094762137 0 0.000317261588443938 -0.0042660785615871583 0 0.00093469865585134001 0.0029538258618698999 0 -0.00065110057822262511 0.0075212687760456177 0 0.00031988118592134651 -0.0042537316351125461 0 0.00034402040560648563 -0.004272030501989754 0 0.0002719096960639925 -0.0042001763943323193 0 -0.00041668047400953952 -0.00066344372525142489 0 -0.0017674079837707026 0.0040608039329365804 0 0.00029926505993490616 -0.0042547481094762137 0 0.00030171456507317127 -0.0042418794869295206 0 0.000317261588443938 -0.0042660785615871583 0 0.00029926505993490616 -0.0042547481094762137 0 0.00030171456507317127 -0.0042418794869295206 0 0.00027609331752162806 -0.0042160080921237837 0 0.00030171456507317127 -0.0042418794869295206 0 0.00029656833064443066 -0.0042308722269356362 0 0.00028454827086368746 -0.0042185671888997989 0 0.00030171456507317127 -0.0042418794869295206 0 0.00031961614544167704 -0.0042604933609547797 0 0.00031082736425510336 -0.004247709356984106 0 0.00030171456507317127 -0.0042418794869295206 0 0.000317261588443938 -0.0042660785615871583 0 0.00031961614544167704 -0.0042604933609547797 0 0.000317261588443938 -0.0042660785615871583 0 0.00032660013339262108 -0.0042765815978045652 0 0.00031961614544167704 -0.0042604933609547797 0 0.00032506250195180362 -0.0042895161550868489 0 0.000317261588443938 -0.0042660785615871583 0 0.00032660013339262108 -0.0042765815978045652 0 0.00032660013339262108 -0.0042765815978045652 0 0.00033122626097655558 -0.0042739516949692816 0 0.00031961614544167704 -0.0042604933609547797 0 0.00032660013339262108 -0.0042765815978045652 0 0.00033122626097655558 -0.0042739516949692816 0 0.0003348782988379341 -0.0042860154769991327 0 0.00032659430748558613 -0.0042653421715503912 0 0.00033122626097655558 -0.0042739516949692816 0 0.00031961614544167704 -0.0042604933609547797 0 0.00032659430748558613 -0.0042653421715503912 0 0.00033122626097655558 -0.0042739516949692816 0 0.00033541552803094231 -0.0042732358466423762 0 0.00032659430748558613 -0.0042653421715503912 0 0.00033541552803094231 -0.0042732358466423762 0 0.00031988118592134651 -0.0042537316351125461 0 0.00033753828933171339 -0.0042723858988948527 0 0.00031988118592134651 -0.0042537316351125461 0 0.00034402040560648563 -0.004272030501989754 0 0.00033541552803094231 -0.0042732358466423762 0 0.00033753828933171339 -0.0042723858988948527 0 0.00031988118592134651 -0.0042537316351125461 0 0.00033541552803094231 -0.0042732358466423762 0 0.00033753828933171339 -0.0042723858988948527 0 0.0003420058781698483 -0.0042823326498740398 0 0.00031988118592134651 -0.0042537316351125461 0 0.00031961614544167704 -0.0042604933609547797 0 0.00031082736425510336 -0.004247709356984106 0 0.00032659430748558613 -0.0042653421715503912 0 0.00031988118592134651 -0.0042537316351125461 0 0.00031961614544167704 -0.0042604933609547797 0 0.00031988118592134651 -0.0042537316351125461 0 0.00029656833064443066 -0.0042308722269356362 0 0.0002719096960639925 -0.0042001763943323193 0 0.00030171456507317127 -0.0042418794869295206 0 0.00031082736425510336 -0.004247709356984106 0 0.00029656833064443066 -0.0042308722269356362 0 0.00031988118592134651 -0.0042537316351125461 0 0.00031082736425510336 -0.004247709356984106 0 0.00029656833064443066 -0.0042308722269356362 0 0.00033747708703365316 -0.0043092603468706013 0 0.00033834170660099048 -0.0043163505291678563 0 0.00033574607304621219 -0.0043037578830942176 0 0.00033747708703365316 -0.0043092603468706013 0 0.00033854137831423203 -0.0043217414037323111 0 0.00033628843647547909 -0.0043200674776792255 0 0.00033747708703365316 -0.0043092603468706013 0 0.00033854137831423203 -0.0043217414037323111 0 0.00033834170660099048 -0.0043163505291678563 0 0.00033854137831423203 -0.0043217414037323111 0 0.00033834170660099048 -0.0043163505291678563 0 0.00034399963194225698 -0.004332078108996361 0 0.00033974674503555922 -0.0043209312907735815 0 0.00033834170660099048 -0.0043163505291678563 0 0.00034399963194225698 -0.004332078108996361 0 0.00033974674503555922 -0.0043209312907735815 0 0.00033834170660099048 -0.0043163505291678563 0 0.00033671673109272925 -0.0043114171519500555 0 0.00033834170660099048 -0.0043163505291678563 0 0.00033671673109272925 -0.0043114171519500555 0 0.00033574607304621219 -0.0043037578830942176 0 0.00033671673109272925 -0.0043114171519500555 0 0.00033574607304621219 -0.0043037578830942176 0 0.00033156110235818548 -0.0042993386064366689 0 0.00033574607304621219 -0.0043037578830942176 0 0.00033156110235818548 -0.0042993386064366689 0 0.00033107884978955812 -0.0042885987496717459 0 0.00032506250195180362 -0.0042895161550868489 0 0.00033156110235818548 -0.0042993386064366689 0 0.00033107884978955812 -0.0042885987496717459 0 0.00032506250195180362 -0.0042895161550868489 0 0.00032660013339262108 -0.0042765815978045652 0 0.00033107884978955812 -0.0042885987496717459 0 0.00033107884978955812 -0.0042885987496717459 0 0.0003360907992555323 -0.0042965436083335362 0 0.0003348782988379341 -0.0042860154769991327 0 0.00032660013339262108 -0.0042765815978045652 0 0.00033107884978955812 -0.0042885987496717459 0 0.0003348782988379341 -0.0042860154769991327 0 0.00033574607304621219 -0.0043037578830942176 0 0.00033107884978955812 -0.0042885987496717459 0 0.0003360907992555323 -0.0042965436083335362 0 0.00033747708703365316 -0.0043092603468706013 0 0.0003360907992555323 -0.0042965436083335362 0 0.00033936543496777258 -0.0042996352038069327 0 0.00033747708703365316 -0.0043092603468706013 0 0.00033574607304621219 -0.0043037578830942176 0 0.0003360907992555323 -0.0042965436083335362 0 0.0003360907992555323 -0.0042965436083335362 0 0.00033936543496777258 -0.0042996352038069327 0 0.0003348782988379341 -0.0042860154769991327 0 0.00033936543496777258 -0.0042996352038069327 0 0.0003348782988379341 -0.0042860154769991327 0 0.00033946540391098772 -0.0042853400264627455 0 0.00033122626097655558 -0.0042739516949692816 0 0.0003348782988379341 -0.0042860154769991327 0 0.00033946540391098772 -0.0042853400264627455 0 0.00033122626097655558 -0.0042739516949692816 0 0.00033541552803094231 -0.0042732358466423762 0 0.00033946540391098772 -0.0042853400264627455 0 0.00033541552803094231 -0.0042732358466423762 0 0.00033946540391098772 -0.0042853400264627455 0 0.0003420058781698483 -0.0042823326498740398 0 0.00033946540391098772 -0.0042853400264627455 0 0.0003420058781698483 -0.0042823326498740398 0 0.000344218235938784 -0.0042962551612282327 0 0.0003420058781698483 -0.0042823326498740398 0 0.000344218235938784 -0.0042962551612282327 0 0.00034723760597544931 -0.0042799969357671325 0 0.00033753828933171339 -0.0042723858988948527 0 0.0003420058781698483 -0.0042823326498740398 0 0.00034723760597544931 -0.0042799969357671325 0 0.00033966655556409183 -0.0043110456707755145 0 0.000344218235938784 -0.0042962551612282327 0 0.00033723742915578025 -0.0043305978534041731 0 0.00033936543496777258 -0.0042996352038069327 0 0.00033966655556409183 -0.0043110456707755145 0 0.000344218235938784 -0.0042962551612282327 0 0.00033936543496777258 -0.0042996352038069327 0 0.00033946540391098772 -0.0042853400264627455 0 0.000344218235938784 -0.0042962551612282327 0 0.00033966655556409183 -0.0043110456707755145 0 0.00033628843647547909 -0.0043200674776792255 0 0.0003334718852399959 -0.0043293338152129886 0 0.00033966655556409183 -0.0043110456707755145 0 0.0003334718852399959 -0.0043293338152129886 0 0.00032813428739219988 -0.0043483449143250251 0 0.00033747708703365316 -0.0043092603468706013 0 0.00033936543496777258 -0.0042996352038069327 0 0.00033628843647547909 -0.0043200674776792255 0 0.00033936543496777258 -0.0042996352038069327 0 0.00033966655556409183 -0.0043110456707755145 0 0.00033628843647547909 -0.0043200674776792255 0 0.00033854137831423203 -0.0043217414037323111 0 0.00033628843647547909 -0.0043200674776792255 0 0.00033832724313455728 -0.0043325540522393844 0 0.00033628843647547909 -0.0043200674776792255 0 0.00033192190520257164 -0.0043404618648957361 0 0.00033832724313455728 -0.0043325540522393844 0 0.00033628843647547909 -0.0043200674776792255 0 0.0003334718852399959 -0.0043293338152129886 0 0.00033192190520257164 -0.0043404618648957361 0 0.0003334718852399959 -0.0043293338152129886 0 0.00032699903488881326 -0.004350557632354232 0 0.00033192190520257164 -0.0043404618648957361 0 7.1864103027613488e-05 -0.0045176683942456707 0 0.00016599653795756051 -0.0044006299769607654 0 0.00030226170489183973 -0.0044615920078837712 0 0.0003334718852399959 -0.0043293338152129886 0 0.00032813428739219988 -0.0043483449143250251 0 0.00032699903488881326 -0.004350557632354232 0 0.00033723742915578025 -0.0043305978534041731 0 0.00035498719387620249 -0.004290649082031227 0 0.00030226170489183973 -0.0044615920078837712 0 -0.00041668047400953952 -0.00066344372525142489 0 0.00021441410706137012 -0.0052121588053425658 0 0.00032813428739219988 -0.0043483449143250251 0 0.00033723742915578025 -0.0043305978534041731 0 0.00030226170489183973 -0.0044615920078837712 0 0.00032813428739219988 -0.0043483449143250251 0 0.00032699903488881326 -0.004350557632354232 0 0.00030917948517925639 -0.0043905659502982966 0 0.00033966655556409183 -0.0043110456707755145 0 0.00032813428739219988 -0.0043483449143250251 0 0.00033723742915578025 -0.0043305978534041731 0 0.00033723742915578025 -0.0043305978534041731 0 0.00035498719387620249 -0.004290649082031227 0 0.00034656222938803078 -0.0042992571822390068 0 0.000344218235938784 -0.0042962551612282327 0 0.00033723742915578025 -0.0043305978534041731 0 0.00034656222938803078 -0.0042992571822390068 0 0.00035498719387620249 -0.004290649082031227 0 0.00034656222938803078 -0.0042992571822390068 0 0.00034723760597544931 -0.0042799969357671325 0 0.000344218235938784 -0.0042962551612282327 0 0.00034656222938803078 -0.0042992571822390068 0 0.00034723760597544931 -0.0042799969357671325 0 0.00033753828933171339 -0.0042723858988948527 0 0.00034402040560648563 -0.004272030501989754 0 0.00034723760597544931 -0.0042799969357671325 0 -0.00041668047400953952 -0.00066344372525142489 0 -0.00038568815193753094 -0.00099147670597709648 0 -0.003842724863291954 0.0067711322498240981 0 -0.0025730785410051217 0.006395253296315487 0 -0.0021531189760278673 0.0075085000940731464 0 -0.003842724863291954 0.0067711322498240981 0 -0.0025730785410051217 0.006395253296315487 0 -0.0029871987228197333 0.005585197056538811 0 -0.0038883845077135066 0.0045711798688834841 0 -0.0029871987228197333 0.005585197056538811 0 -0.002016025631559522 0.0045639786686939108 0 -0.003842724863291954 0.0067711322498240981 0 -0.0038883845077135066 0.0045711798688834841 0 -0.0029871987228197333 0.005585197056538811 0 7.1864103027613488e-05 -0.0045176683942456707 0 2.9821803281544754e-05 -0.0042770227920829402 0 0.00016599653795756051 -0.0044006299769607654 0 2.9821803281544754e-05 -0.0042770227920829402 0 0.00016599653795756051 -0.0044006299769607654 0 0.00022697641366176789 -0.0043021344945534477 0 -0.00041668047400953952 -0.00066344372525142489 0 -0.002062046969618704 0.00052901138688134816 0 -0.00083500172969959549 0.0054966049905452738 0 -0.002016025631559522 0.0045639786686939108 0 -0.00046559829118475628 0.0040396022468333738 0 -0.00083500172969959549 0.0054966049905452738 0 -0.00012063353214928907 0.0049450579410864094 0 -0.00046559829118475628 0.0040396022468333738 0 -0.00083500172969959549 0.0054966049905452738 0 -0.00012063353214928907 0.0049450579410864094 0 -0.00011553714834634435 0.0055368075971479885 0 -0.0029871987228197333 0.005585197056538811 0 -0.002016025631559522 0.0045639786686939108 0 -0.0020525777464479012 0.0056762329870619918 0 -0.00083500172969959549 0.0054966049905452738 0 -0.002016025631559522 0.0045639786686939108 0 -0.0020525777464479012 0.0056762329870619918 0 -0.00083500172969959549 0.0054966049905452738 0 -0.0020525777464479012 0.0056762329870619918 0 -0.0015173628931438752 0.0065248283291398246 0 -0.0025730785410051217 0.006395253296315487 0 -0.0020525777464479012 0.0056762329870619918 0 -0.0015173628931438752 0.0065248283291398246 0 -0.0025730785410051217 0.006395253296315487 0 -0.0029871987228197333 0.005585197056538811 0 -0.0020525777464479012 0.0056762329870619918 0 -0.0025730785410051217 0.006395253296315487 0 -0.0015173628931438752 0.0065248283291398246 0 -0.0021531189760278673 0.0075085000940731464 0 -0.0012008314246366378 0.0061167327086988042 0 -0.00066790362760675082 0.0064694663872344512 0 -0.0011096394371495019 0.0065866439433616645 0 -0.0012008314246366378 0.0061167327086988042 0 -0.00044327990547876785 0.0059878919458793093 0 -0.00066790362760675082 0.0064694663872344512 0 -0.00085743614951920653 0.0055065515923401996 0 -0.0016145361624722917 0.0066090061033702704 0 -0.00083500172969959549 0.0054966049905452738 0 -0.0012008314246366378 0.0061167327086988042 0 -0.00044327990547876785 0.0059878919458793093 0 -0.00083500172969959549 0.0054966049905452738 0 -0.00044327990547876785 0.0059878919458793093 0 -0.00011553714834634435 0.0055368075971479885 0 -0.00044327990547876785 0.0059878919458793093 0 -0.00066790362760675082 0.0064694663872344512 0 -7.9008439165672686e-05 0.0063464896180646145 0 -0.00066790362760675082 0.0064694663872344512 0 -0.00022938495804319402 0.0067554240093508746 0 -7.9008439165672686e-05 0.0063464896180646145 0 0.00020739131240016091 0.01405984236452641 0 0.00020601187149964058 0.014091339235812711 0 0.00020778918003393966 0.014088044200065855 0 -0.00066790362760675082 0.0064694663872344512 0 -0.00097942059034901289 0.0070215730581195158 0 -0.00022938495804319402 0.0067554240093508746 0 -0.00066790362760675082 0.0064694663872344512 0 -0.00097942059034901289 0.0070215730581195158 0 -0.0011096394371495019 0.0065866439433616645 0 -9.2490081522736916e-05 0.010723269130330513 0 -0.00010602350987589206 0.010419756143103018 0 -9.2490081522736916e-05 0.010723269130330513 0 -0.00065110057822262511 0.0075212687760456177 0 -0.00026054063632666358 0.0073786958519761877 0 -0.00066883053878670105 0.0072642431912602811 0 -0.00074862837749546803 0.007532115386753308 0 0.00029656833064443066 -0.0042308722269356362 0 0.0002719096960639925 -0.0042001763943323193 0 0.00028454827086368746 -0.0042185671888997989 0 -0.0016145361624722917 0.0066090061033702704 0 -0.0017674079837707026 0.0040608039329365804 0 -0.0012008314246366378 0.0061167327086988042 0 -0.001586874892175763 0.006743549822139731 0 -0.0011096394371495019 0.0065866439433616645 0 -0.00026054063632666358 0.0073786958519761877 0 -0.00063023245243848803 0.0071985609001434369 0 -0.00066883053878670105 0.0072642431912602811 0 -0.00097942059034901289 0.0070215730581195158 0 -0.001586874892175763 0.006743549822139731 0 -0.0011096394371495019 0.0065866439433616645 0 -9.2490081522736916e-05 0.010723269130330513 0 -0.0017674079837707026 0.0040608039329365804 0 -0.00056319426221297837 0.0029334815311581213 0 -0.00065110057822262511 0.0075212687760456177 0 0.00093469865585134001 0.0029538258618698999 0 -0.00056319426221297837 0.0029334815311581213 0 -0.0017674079837707026 0.0040608039329365804 0 -0.00056319426221297837 0.0029334815311581213 0 0.00030171456507317127 -0.0042418794869295206 0 0.00027609331752162806 -0.0042160080921237837 0 0.00028454827086368746 -0.0042185671888997989 0 0.0002719096960639925 -0.0042001763943323193 0 0.00027609331752162806 -0.0042160080921237837 0 0.00028454827086368746 -0.0042185671888997989 0 0.00027141389786737081 0.013938632638842865 0 0.00026889398143702543 0.013926130928546889 0 0.00026457054458839868 0.013951640287375344 0 0.0002592583750324947 0.013957501217742035 0 0.00026889398143702543 0.013926130928546889 0 0.00026457054458839868 0.013951640287375344 0 -0.00094867208991834589 0.0046587962905538681 0 -0.0003249887871321023 0.0035876121448150102 0 -0.0006005277533964018 0.004534398730803 0 0.0002592583750324947 0.013957501217742035 0 0.00025513173279522816 0.013978602701781882 0 0.00023741383706638348 0.014015774428213687 0 -9.2490081522736916e-05 0.010723269130330513 0 0.00045469797644955912 0.014316856357850153 0 0.0002592583750324947 0.013957501217742035 0 0.00026457054458839868 0.013951640287375344 0 0.00025513173279522816 0.013978602701781882 0 0.00026497484266088618 0.013960702792851597 0 0.00026457054458839868 0.013951640287375344 0 0.00025513173279522816 0.013978602701781882 0 0.00025513173279522816 0.013978602701781882 0 0.00023741383706638348 0.014015774428213687 0 0.00024298590489784473 0.014000894385591267 0 0.00020601187149964058 0.014091339235812711 0 0.00017684586773252778 0.014083330737251598 0 0.00018673176480837682 0.014111416483392323 0 0.00045469797644955912 0.014316856357850153 0 7.3699213862106965e-05 0.01400903603437386 0 0.00023741383706638348 0.014015774428213687 0 0.00017684586773252778 0.014083330737251598 0 0.00024298590489784473 0.014000894385591267 0 0.00017684586773252778 0.014083330737251598 0 0.00018673176480837682 0.014111416483392323 0 8.450187148357016e-05 0.014210986776663818 0 0.00018673176480837682 0.014111416483392323 0 0.00018707351987218304 0.014124419880041516 0 8.450187148357016e-05 0.014210986776663818 0 8.0596830597236822e-05 0.0084645112157643865 0 0.00053793256842506708 0.010766171524243013 0 0.00018673176480837682 0.014111416483392323 0 0.00018707351987218304 0.014124419880041516 0 0.00020778918003393966 0.014088044200065855 0 0.00020601187149964058 0.014091339235812711 0 0.00018673176480837682 0.014111416483392323 0 0.00020778918003393966 0.014088044200065855 0 8.0596830597236822e-05 0.0084645112157643865 0 -6.9715643709511414e-05 0.0068249213499987646 0 8.0596830597236822e-05 0.0084645112157643865 0 -0.00010602350987589206 0.010419756143103018 0 0.00054732101429651821 0.0064948379535516958 0 -0.00022938495804319402 0.0067554240093508746 0 -7.9008439165672686e-05 0.0063464896180646145 0 -0.00044327990547876785 0.0059878919458793093 0 -7.9008439165672686e-05 0.0063464896180646145 0 0.00020514588631140421 0.0059248397061875393 0 -0.00044327990547876785 0.0059878919458793093 0 0.00020514588631140421 0.0059248397061875393 0 -0.00011553714834634435 0.0055368075971479885 0 0.00020514588631140421 0.0059248397061875393 0 0.00064196073665959835 0.0058447369705456722 0 0.00039328596890941087 0.0052786786050940983 0 0.00045375270421178012 0.006398474282782173 0 -7.9008439165672686e-05 0.0063464896180646145 0 0.00020514588631140421 0.0059248397061875393 0 0.00045375270421178012 0.006398474282782173 0 0.00064196073665959835 0.0058447369705456722 0 0.0011405698516630922 0.0061523767477050535 0 0.00045375270421178012 0.006398474282782173 0 0.00020514588631140421 0.0059248397061875393 0 0.00064196073665959835 0.0058447369705456722 0 8.0596830597236822e-05 0.0084645112157643865 0 0.00087912323445175022 0.0063127825263640906 0 0.00064196073665959835 0.0058447369705456722 0 0.00092542473249890322 0.0055416018117829275 0 0.0011405698516630922 0.0061523767477050535 0 0.00064196073665959835 0.0058447369705456722 0 0.00092542473249890322 0.0055416018117829275 0 0.00039328596890941087 0.0052786786050940983 0 0.00092542473249890322 0.0055416018117829275 0 0.00039328596890941087 0.0052786786050940983 0 0.0007817513937300566 0.004879298825846457 0 -0.00012063353214928907 0.0049450579410864094 0 0.00039328596890941087 0.0052786786050940983 0 0.00030265443692933724 0.0045375276556148033 0 -0.00012063353214928907 0.0049450579410864094 0 -0.00011553714834634435 0.0055368075971479885 0 0.00039328596890941087 0.0052786786050940983 0 0.00020514588631140421 0.0059248397061875393 0 -0.00011553714834634435 0.0055368075971479885 0 0.00039328596890941087 0.0052786786050940983 0 0.0017897507126687362 0.00544017940507289 0 0.0013600457381744858 0.0057403214290280957 0 0.0018465844047464738 0.0061503482326562223 0 0.0017897507126687362 0.00544017940507289 0 0.0012256030614146605 0.0052812875651450262 0 0.0013641147677856031 0.0048384844878397353 0 0.00092542473249890322 0.0055416018117829275 0 0.0012256030614146605 0.0052812875651450262 0 0.0007817513937300566 0.004879298825846457 0 0.00092542473249890322 0.0055416018117829275 0 0.0012256030614146605 0.0052812875651450262 0 0.0013600457381744858 0.0057403214290280957 0 0.0017897507126687362 0.00544017940507289 0 0.0012256030614146605 0.0052812875651450262 0 0.0013600457381744858 0.0057403214290280957 0 0.00048978485945977901 0.0066490762414565252 0 0.0018465844047464738 0.0061503482326562223 0 0.001117318075322496 0.0075136583185705201 0 0.0013600457381744858 0.0057403214290280957 0 0.0011405698516630922 0.0061523767477050535 0 0.0018465844047464738 0.0061503482326562223 0 0.00087912323445175022 0.0063127825263640906 0 0.0017434668556956521 0.0061627061962614017 0 0.00092542473249890322 0.0055416018117829275 0 0.0013600457381744858 0.0057403214290280957 0 0.0011405698516630922 0.0061523767477050535 0 0.0018465844047464738 0.0061503482326562223 0 0.0021846173861704054 0.0069667752008899476 0 0.001117318075322496 0.0075136583185705201 0 0.0017897507126687362 0.00544017940507289 0 0.0018465844047464738 0.0061503482326562223 0 0.002711574655099541 0.0063189880492234094 0 0.0018465844047464738 0.0061503482326562223 0 0.0021846173861704054 0.0069667752008899476 0 0.002711574655099541 0.0063189880492234094 0 0.0021846173861704054 0.0069667752008899476 0 0.001117318075322496 0.0075136583185705201 0 0.0030280561529734172 0.0079337417059496887 0 0.00017684586773252778 0.014083330737251598 0 8.450187148357016e-05 0.014210986776663818 0 2.3143270021991419e-05 0.014181597748721101 0 0.00053793256842506708 0.010766171524243013 0 0.001285629298499096 0.013967265682081105 0 -0.00081036440136999512 0.0071262490136152577 0 0.00048978485945977901 0.0066490762414565252 0 0.001117318075322496 0.0075136583185705201 0 8.450187148357016e-05 0.014210986776663818 0 2.3143270021991419e-05 0.014181597748721101 0 -8.223147670473884e-05 0.014315431572809078 0 2.3143270021991419e-05 0.014181597748721101 0 -1.5405141284721663e-05 0.014076200551928498 0 9.6857327986252589e-05 0.014073732663702997 0 0.00017684586773252778 0.014083330737251598 0 2.3143270021991419e-05 0.014181597748721101 0 9.6857327986252589e-05 0.014073732663702997 0 2.3143270021991419e-05 0.014181597748721101 0 -1.5405141284721663e-05 0.014076200551928498 0 -7.1023983638572382e-05 0.014191718264604573 0 -1.5405141284721663e-05 0.014076200551928498 0 0.00010785491586450712 0.013997080772362823 0 9.6857327986252589e-05 0.014073732663702997 0 -3.2846856571892304e-05 0.021245401279241422 0 0.0011156743989127397 0.020508816779120493 0 0.00033878405499006601 0.020160379444413342 0 0.00038672067237767688 0.016858145123267033 0 0.00052675314437016798 0.017342174858427373 0 0.00010785491586450712 0.013997080772362823 0 9.6857327986252589e-05 0.014073732663702997 0 0.0001618723972523694 0.014023992990762997 0 0.00017684586773252778 0.014083330737251598 0 0.00022316525848635601 0.013993185554034929 0 0.0001618723972523694 0.014023992990762997 0 0.00017684586773252778 0.014083330737251598 0 9.6857327986252589e-05 0.014073732663702997 0 0.0001618723972523694 0.014023992990762997 0 0.00025581594394850742 0.013969192654658225 0 0.00024298590489784473 0.014000894385591267 0 0.00022316525848635601 0.013993185554034929 0 0.00017684586773252778 0.014083330737251598 0 0.00024298590489784473 0.014000894385591267 0 0.00022316525848635601 0.013993185554034929 0 0.00025581594394850742 0.013969192654658225 0 0.00022316525848635601 0.013993185554034929 0 0.0002492233110123808 0.013953121527009451 0 0.00022316525848635601 0.013993185554034929 0 0.0001618723972523694 0.014023992990762997 0 0.00020269294417376467 0.013950282829624324 0 0.00010785491586450712 0.013997080772362823 0 0.0001618723972523694 0.014023992990762997 0 0.00020269294417376467 0.013950282829624324 0 0.00052675314437016798 0.017342174858427373 0 0.0011113564155682356 0.017114308343716259 0 0.00026266267444197095 0.013925809729889257 0 0.00020269294417376467 0.013950282829624324 0 0.0002492233110123808 0.013953121527009451 0 0.00022316525848635601 0.013993185554034929 0 0.00020269294417376467 0.013950282829624324 0 0.0002492233110123808 0.013953121527009451 0 0.0025474973107665212 0.018506663775467787 0 0.0031832498472272831 0.019128218789217815 0 0.0023071177880085855 0.019229069310490822 0 0.0018701700345307838 0.014594360071335064 0 0.0011113564155682356 0.017114308343716259 0 0.0031832498472272831 0.019128218789217815 0 0.0022256369987855634 0.019786564504226872 0 0.0023071177880085855 0.019229069310490822 0 0.0022256369987855634 0.019786564504226872 0 0.0023071177880085855 0.019229069310490822 0 0.0011837991947253642 0.019234783423622167 0 0.0022754554985490111 0.019269072128943319 0 0.001184109904829258 0.018981533904172086 0 0.0018268674590062196 0.01862534989806848 0 0.0023071177880085855 0.019229069310490822 0 0.001400185583697703 0.019240696903328722 0 0.001184109904829258 0.018981533904172086 0 0.00079723406938928638 0.022871870374232668 0 0.0011837991947253642 0.019234783423622167 0 1.4225513285350104e-05 0.019252274035862566 0 0.00033878405499006601 0.020160379444413342 0 0.00092067050890757478 0.018259019652803649 0 0.001400185583697703 0.019240696903328722 0 0.00047286682544460775 0.019268159136185289 0 0.0011156743989127397 0.020508816779120493 0 0.0022256369987855634 0.019786564504226872 0 0.0011837991947253642 0.019234783423622167 0 0.0011156743989127397 0.020508816779120493 0 0.0011837991947253642 0.019234783423622167 0 0.00033878405499006601 0.020160379444413342 0 -0.0012408670976477381 0.027846550996818188 0 -0.0017506606653387082 0.028554569273176234 0 -0.00051488877168985527 0.028599052129044716 0 -0.0012408670976477381 0.027846550996818188 0 -0.00069774657607690564 0.027117950277455928 0 -0.00051488877168985527 0.028599052129044716 0 -0.0012408670976477381 0.027846550996818188 0 -0.0019253784972393683 0.02785129054420828 0 -0.0017506606653387082 0.028554569273176234 0 -0.0012408670976477381 0.027846550996818188 0 -0.0015780216674070842 0.026957758669067154 0 -0.0019253784972393683 0.02785129054420828 0 1.4225513285350104e-05 0.019252274035862566 0 0.00033878405499006601 0.020160379444413342 0 -0.00060564461032884206 0.020590656155763439 0 0.0002617141274622657 0.027096433384199675 0 -0.00069774657607690564 0.027117950277455928 0 -0.00051488877168985527 0.028599052129044716 0 0.00079723406938928638 0.022871870374232668 0 -0.0007112300288443788 0.025035427568010766 0 0.0019650587524756855 0.024781007659984981 0 0.0024598090758411835 0.026894316865671616 0 0.0002958615687518571 0.026886314991638537 0 0.00079723406938928638 0.022871870374232668 0 -0.00012389404438532719 0.026916286186743126 0 -0.0012408670976477381 0.027846550996818188 0 -0.00069774657607690564 0.027117950277455928 0 -0.0015780216674070842 0.026957758669067154 0 -0.00012389404438532719 0.026916286186743126 0 -0.0014576454639759413 0.026966929505326257 0 -0.0011006054646776871 0.02556385547396324 0 0.0002958615687518571 0.026886314991638537 0 -0.0015780216674070842 0.026957758669067154 0 -0.0011006054646776871 0.02556385547396324 0 -0.0015780216674070842 0.026957758669067154 0 -0.0025663249918199383 0.027406230205186941 0 -0.0015780216674070842 0.026957758669067154 0 -0.0025663249918199383 0.027406230205186941 0 -0.0019253784972393683 0.02785129054420828 0 -0.0025663249918199383 0.027406230205186941 0 -0.0026577958781533856 0.027099282553582162 0 -0.0031737496565492291 0.028061744665594322 0 -0.0025358233170972209 0.027205335385501773 0 -0.0025624772059724132 0.027728298915421331 0 -0.002716896020713688 0.027235185743838323 0 -0.0025358233170972209 0.027205335385501773 0 -0.0023323199669462976 0.027189245935114337 0 -0.0025624772059724132 0.027728298915421331 0 -0.0024845294997889152 0.026783175741448874 0 -0.0022374343985809568 0.029881386025174844 0 -0.0031737496565492291 0.028061744665594322 0 -0.0023990056802820534 0.028236427453440415 0 -0.002426685217930461 0.0294440745225962 0 -0.0025663249918199383 0.027406230205186941 0 -0.0031737496565492291 0.028061744665594322 0 -0.0023990056802820534 0.028236427453440415 0 -0.0025663249918199383 0.027406230205186941 0 -0.0019253784972393683 0.02785129054420828 0 -0.0023990056802820534 0.028236427453440415 0 -0.0019253784972393683 0.02785129054420828 0 -0.0023990056802820534 0.028236427453440415 0 -0.0017506606653387082 0.028554569273176234 0 -0.0023990056802820534 0.028236427453440415 0 -0.0017506606653387082 0.028554569273176234 0 -0.002426685217930461 0.0294440745225962 0 -0.0017506606653387082 0.028554569273176234 0 -0.0017985091575111779 0.029278443835989869 0 -0.002426685217930461 0.0294440745225962 0 -0.0022374343985809568 0.029881386025174844 0 -0.0025956826309135013 0.029125327537709949 0 -0.0021646524251473795 0.030263714585660861 0 -0.002426685217930461 0.0294440745225962 0 -0.0020676621949636703 0.029696224790083579 0 -0.002426685217930461 0.0294440745225962 0 -0.0020208438138514741 0.029650935167957766 0 -0.0020676621949636703 0.029696224790083579 0 -0.002426685217930461 0.0294440745225962 0 -0.0020687199758682778 0.029648970379721827 0 -0.0020208438138514741 0.029650935167957766 0 -0.002426685217930461 0.0294440745225962 0 -0.0020687199758682778 0.029648970379721827 0 -0.0022260693914540478 0.029570558047475153 0 -0.0020687199758682778 0.029648970379721827 0 -0.0022260693914540478 0.029570558047475153 0 -0.0020817330147266692 0.029614883060851659 0 -0.0020687199758682778 0.029648970379721827 0 -0.0020817330147266692 0.029614883060851659 0 -0.0016763741157653942 0.029765095533164237 0 -0.0017985091575111779 0.029278443835989869 0 -0.002426685217930461 0.0294440745225962 0 -0.0022260693914540478 0.029570558047475153 0 -0.0022260693914540478 0.029570558047475153 0 -0.0014037520010933724 0.029687976280621382 0 -0.0025006284251646933 0.029498003984150246 0 -0.0017985091575111779 0.029278443835989869 0 -0.0022260693914540478 0.029570558047475153 0 -0.0014037520010933724 0.029687976280621382 0 -0.0017506606653387082 0.028554569273176234 0 -0.0017985091575111779 0.029278443835989869 0 -0.00051488877168985527 0.028599052129044716 0 -0.0017985091575111779 0.029278443835989869 0 -0.0014037520010933724 0.029687976280621382 0 -0.00051488877168985527 0.028599052129044716 0 -3.2846856571892304e-05 0.021245401279241422 0 -0.0012453204481725213 0.021993842713960255 0 -0.00060564461032884206 0.020590656155763439 0 -3.2846856571892304e-05 0.021245401279241422 0 0.00033878405499006601 0.020160379444413342 0 -0.00060564461032884206 0.020590656155763439 0 -0.0014602555062688679 0.023909563899736912 0 -0.0007112300288443788 0.025035427568010766 0 0.00038672067237767688 0.016858145123267033 0 -0.0014602555062688679 0.023909563899736912 0 -1.5405141284721663e-05 0.014076200551928498 0 -0.00021428280613623732 0.014203613094222668 0 -7.1023983638572382e-05 0.014191718264604573 0 2.3143270021991419e-05 0.014181597748721101 0 -7.1023983638572382e-05 0.014191718264604573 0 -9.6813610590774227e-05 0.014305049653795884 0 2.3143270021991419e-05 0.014181597748721101 0 -9.6813610590774227e-05 0.014305049653795884 0 -8.223147670473884e-05 0.014315431572809078 0 -0.00021428280613623732 0.014203613094222668 0 -7.1023983638572382e-05 0.014191718264604573 0 -9.6813610590774227e-05 0.014305049653795884 0 0.00076533737755321129 0.014174589172649649 0 0.001285629298499096 0.013967265682081105 0 -9.6813610590774227e-05 0.014305049653795884 0 -0.00033864219857961445 0.014424492214874941 0 -7.8506189612291007e-05 0.014414734525127607 0 -0.0042209126676056594 0.030246974059400935 0 -0.0036667337436517744 0.029149844272111314 0 -0.0033212929886054167 0.029240672460629741 0 -0.00021428280613623732 0.014203613094222668 0 -9.6813610590774227e-05 0.014305049653795884 0 -0.00033864219857961445 0.014424492214874941 0 -0.0014602555062688679 0.023909563899736912 0 -0.0026800864902199076 0.022616294866708447 0 -0.0016562487772124692 0.021026709659487709 0 -0.0014605698716607942 0.021490869090180983 0 -0.001906897802185714 0.021700487499389933 0 -0.0016562487772124692 0.021026709659487709 0 -0.0014605698716607942 0.021490869090180983 0 -0.0011001702713769959 0.021100878505375457 0 -0.0026800864902199076 0.022616294866708447 0 0.001285629298499096 0.013967265682081105 0 0.0021846173861704054 0.0069667752008899476 0 0.0030280561529734172 0.0079337417059496887 0 0.002711574655099541 0.0063189880492234094 0 -0.0014605698716607942 0.021490869090180983 0 -0.0011001702713769959 0.021100878505375457 0 -0.0010377870055308356 0.021770189870609098 0 0.001285629298499096 0.013967265682081105 0 0.0008054787101185912 0.014172407205469237 0 -0.0014605698716607942 0.021490869090180983 0 -0.0010377870055308356 0.021770189870609098 0 -0.0013863929569704434 0.021942052211147641 0 -0.0013863929569704434 0.021942052211147641 0 -0.0015834251235400576 0.022308097615945009 0 -0.001906897802185714 0.021700487499389933 0 -0.0014605698716607942 0.021490869090180983 0 -0.0013863929569704434 0.021942052211147641 0 -0.001906897802185714 0.021700487499389933 0 -0.0013863929569704434 0.021942052211147641 0 -0.0015834251235400576 0.022308097615945009 0 -0.0010278481138016008 0.022361060957812845 0 0.0017897507126687362 0.00544017940507289 0 0.002711574655099541 0.0063189880492234094 0 0.002389299626096299 0.0051464213340436391 0 0.0008054787101185912 0.014172407205469237 0 0.00077007749485179938 0.013678578205699928 0 -0.0010377870055308356 0.021770189870609098 0 -0.0013863929569704434 0.021942052211147641 0 -0.0010278481138016008 0.022361060957812845 0 -0.0029737324499430652 0.02568771188370194 0 -0.0023691554161449808 0.027240700379395497 0 -0.00097781981466624093 0.026205422986034607 0 -0.0029737324499430652 0.02568771188370194 0 -0.00097781981466624093 0.026205422986034607 0 -0.001359257597436544 0.024746869347069485 0 -0.0015834251235400576 0.022308097615945009 0 -0.0020827331647069311 0.022367916174109135 0 -0.001906897802185714 0.021700487499389933 0 -0.003380152774401035 0.02764534927999563 0 -0.0023691554161449808 0.027240700379395497 0 -0.0029343638053004753 0.028572042692323489 0 -0.0024419907659917186 0.023895749804045938 0 -0.0027448270004376087 0.025119239620247417 0 -0.0029737324499430652 0.02568771188370194 0 -0.003380152774401035 0.02764534927999563 0 -0.0023691554161449808 0.027240700379395497 0 -0.0023691554161449808 0.027240700379395497 0 -0.0029343638053004753 0.028572042692323489 0 -0.001609855402907423 0.028218587752506179 0 -0.0029343638053004753 0.028572042692323489 0 -0.002127898578601069 0.029166591506316963 0 -0.001609855402907423 0.028218587752506179 0 -0.0029343638053004753 0.028572042692323489 0 -0.0025006284251646933 0.029498003984150246 0 -0.002127898578601069 0.029166591506316963 0 -0.0036911353995056195 0.029164117636718213 0 -0.003380152774401035 0.02764534927999563 0 -0.0029343638053004753 0.028572042692323489 0 -0.0026800864902199076 0.022616294866708447 0 -0.0027448270004376087 0.025119239620247417 0 -0.0036911353995056195 0.029164117636718213 0 -0.0029343638053004753 0.028572042692323489 0 -0.0033212929886054167 0.029240672460629741 0 -0.0014602555062688679 0.023909563899736912 0 -0.003414970334391189 0.031514834581849234 0 -0.0042209126676056594 0.030246974059400935 0 -0.0033212929886054167 0.029240672460629741 0 -0.0025006284251646933 0.029498003984150246 0 -0.0026800864902199076 0.022616294866708447 0 -0.002643153250912641 0.024435598142214653 0 -0.0029343638053004753 0.028572042692323489 0 -0.0033212929886054167 0.029240672460629741 0 -0.0025006284251646933 0.029498003984150246 0 -0.0022260693914540478 0.029570558047475153 0 -0.0025006284251646933 0.029498003984150246 0 -0.0020817330147266692 0.029614883060851659 0 -0.002127898578601069 0.029166591506316963 0 -0.0020817330147266692 0.029614883060851659 0 -0.0016078599803489415 0.029525540978979598 0 -0.0025006284251646933 0.029498003984150246 0 -0.002127898578601069 0.029166591506316963 0 -0.0020817330147266692 0.029614883060851659 0 -0.0012070774020768915 0.02982803179752436 0 -0.0016078599803489415 0.029525540978979598 0 -0.0016763741157653942 0.029765095533164237 0 -0.0020817330147266692 0.029614883060851659 0 -0.0016078599803489415 0.029525540978979598 0 -0.0016763741157653942 0.029765095533164237 0 -0.0012070774020768915 0.02982803179752436 0 -0.0016763741157653942 0.029765095533164237 0 -0.0015131015438774823 0.029863134805400177 0 -0.0012070774020768915 0.02982803179752436 0 -0.0016078599803489415 0.029525540978979598 0 -0.0009055037537509925 0.029050552155876729 0 -0.00036796126266416156 0.030174687742355658 0 5.7330173919073663e-05 0.033969875914820188 0 -0.0012949445483631966 0.034004972160215578 0 -0.0012070774020768915 0.02982803179752436 0 -0.00036796126266416156 0.030174687742355658 0 -0.0015131015438774823 0.029863134805400177 0 -0.00044665205881108373 0.030259836575658648 0 -0.0012600522066167563 0.031657868153221358 0 -0.00036796126266416156 0.030174687742355658 0 0.0018901348128159494 0.02935186490446386 0 5.7330173919073663e-05 0.033969875914820188 0 -0.0012070774020768915 0.02982803179752436 0 -0.00036796126266416156 0.030174687742355658 0 -0.0009055037537509925 0.029050552155876729 0 -0.00036796126266416156 0.030174687742355658 0 0.00040989301957935061 0.028732690483624403 0 0.0018901348128159494 0.02935186490446386 0 -0.00036796126266416156 0.030174687742355658 0 0.00040989301957935061 0.028732690483624403 0 -0.0009055037537509925 0.029050552155876729 0 0.00040989301957935061 0.028732690483624403 0 -0.0009055037537509925 0.029050552155876729 0 -6.2364819266731456e-05 0.027621816085204299 0 0.00040989301957935061 0.028732690483624403 0 -6.2364819266731456e-05 0.027621816085204299 0 0.0013929595262722682 0.027766068597646881 0 -0.002127898578601069 0.029166591506316963 0 -0.0016078599803489415 0.029525540978979598 0 -0.001609855402907423 0.028218587752506179 0 -0.001609855402907423 0.028218587752506179 0 -0.0009055037537509925 0.029050552155876729 0 -6.2364819266731456e-05 0.027621816085204299 0 -0.0016078599803489415 0.029525540978979598 0 -0.001609855402907423 0.028218587752506179 0 -0.0009055037537509925 0.029050552155876729 0 -0.0023691554161449808 0.027240700379395497 0 -0.001609855402907423 0.028218587752506179 0 -0.00097781981466624093 0.026205422986034607 0 -0.001609855402907423 0.028218587752506179 0 -6.2364819266731456e-05 0.027621816085204299 0 -0.00097781981466624093 0.026205422986034607 0 -6.2364819266731456e-05 0.027621816085204299 0 0.0012943575042392535 0.02576871763059967 0 0.0013929595262722682 0.027766068597646881 0 -0.00097781981466624093 0.026205422986034607 0 0.0012943575042392535 0.02576871763059967 0 -0.00012188863099280202 0.024203488649848611 0 -6.2364819266731456e-05 0.027621816085204299 0 -0.00097781981466624093 0.026205422986034607 0 0.0012943575042392535 0.02576871763059967 0 -1.310605298687152e-06 0.035002946947253095 0 0.00035976277487085803 0.032801650708883405 0 -1.2990159004170879e-07 0.035000493462906027 0 -0.00022801282598165255 0.03508836863109991 0 -0.00012745519906372211 0.035410617951864495 0 -8.5331119486147958e-10 0.035000002456152819 0 1.9164311442697176e-09 0.03499998440095458 0 1.658684085499491e-06 0.034992148902303545 0 -1.2990159004170879e-07 0.035000493462906027 0 -0.00022801282598165255 0.03508836863109991 0 -0.00019338120427151998 0.034942682539809422 0 -0.00022801282598165255 0.03508836863109991 0 -0.00067221493150318565 0.034993586570577079 0 -0.00012745519906372211 0.035410617951864495 0 -0.00022801282598165255 0.03508836863109991 0 -0.00067221493150318565 0.034993586570577079 0 -0.00084488539324098684 0.034302115195626079 0 0.00036868860598904225 0.030210672205959244 0 0.00035976277487085803 0.032801650708883405 0 0.0012943575042392535 0.02576871763059967 0 0.0013929595262722682 0.027766068597646881 0 0.002792957782245553 0.02725294333523947 0 1.9164311442697176e-09 0.03499998440095458 0 1.658684085499491e-06 0.034992148902303545 0 -3.6421100239185798e-11 0.034999995576846583 0 0.00035976277487085803 0.032801650708883405 0 8.1498740085336924e-07 0.035000679683935901 0 3.0295743245227334e-05 0.035021557931591091 0 0.00010247245436571881 0.034887581263206381 0 -8.3029594412569886e-06 0.03492509932022992 0 3.0295743245227334e-05 0.035021557931591091 0 -7.0822146891251784e-08 0.035000015543464824 0 -8.3029594412569886e-06 0.03492509932022992 0 0.0013929595262722682 0.027766068597646881 0 0.002792957782245553 0.02725294333523947 0 0.0018901348128159494 0.02935186490446386 0 0.00035976277487085803 0.032801650708883405 0 0.0011803887053936138 0.031816564570778715 0 0.00040989301957935061 0.028732690483624403 0 0.0013929595262722682 0.027766068597646881 0 0.0018901348128159494 0.02935186490446386 0 0.00010247245436571881 0.034887581263206381 0 4.8465815521152603e-06 0.034586766098983777 0 5.7330173919073663e-05 0.033969875914820188 0 0.00010247245436571881 0.034887581263206381 0 -8.3029594412569886e-06 0.03492509932022992 0 4.8465815521152603e-06 0.034586766098983777 0 0.0011803887053936138 0.031816564570778715 0 -1.9197590622871078e-05 0.034060079321897932 0 -7.0822146891251784e-08 0.035000015543464824 0 -5.2545514192966189e-09 0.034999437854420105 0 -8.3029594412569886e-06 0.03492509932022992 0 -5.2545514192966189e-09 0.034999437854420105 0 -8.3029594412569886e-06 0.03492509932022992 0 4.8465815521152603e-06 0.034586766098983777 0 -5.2545514192966189e-09 0.034999437854420105 0 8.6141559346862367e-08 0.034999760842718601 0 6.7472719897378043e-06 0.034769062330934151 0 -5.2545514192966189e-09 0.034999437854420105 0 6.7472719897378043e-06 0.034769062330934151 0 4.8465815521152603e-06 0.034586766098983777 0 8.6141559346862367e-08 0.034999760842718601 0 6.7472719897378043e-06 0.034769062330934151 0 -4.0235809831303874e-05 0.035002570160201356 0 -0.0001636546343253048 0.034907383295611487 0 6.7472719897378043e-06 0.034769062330934151 0 -4.0235809831303874e-05 0.035002570160201356 0 -0.0001636546343253048 0.034907383295611487 0 6.7472719897378043e-06 0.034769062330934151 0 -5.90524600573055e-05 0.03453120242699443 0 6.7472719897378043e-06 0.034769062330934151 0 4.8465815521152603e-06 0.034586766098983777 0 -5.90524600573055e-05 0.03453120242699443 0 4.8465815521152603e-06 0.034586766098983777 0 -5.90524600573055e-05 0.03453120242699443 0 5.7330173919073663e-05 0.033969875914820188 0 5.7330173919073663e-05 0.033969875914820188 0 -0.00054655722020904829 0.034400476517250096 0 -0.0012949445483631966 0.034004972160215578 0 -0.00054655722020904829 0.034400476517250096 0 -0.0012949445483631966 0.034004972160215578 0 -0.00084740065661313799 0.034601044908219657 0 -5.90524600573055e-05 0.03453120242699443 0 5.7330173919073663e-05 0.033969875914820188 0 -0.00054655722020904829 0.034400476517250096 0 -5.90524600573055e-05 0.03453120242699443 0 -0.00054655722020904829 0.034400476517250096 0 -0.00051524171087618262 0.034695622189421585 0 -0.0015131015438774823 0.029863134805400177 0 -0.0017659753544065683 0.029760320428624375 0 -0.0019321297283634048 0.029699329245145803 0 -0.0012600522066167563 0.031657868153221358 0 -0.0011253376885488901 0.032948134248677881 0 -0.0012949445483631966 0.034004972160215578 0 -0.0010535368059442238 0.034839538576947528 0 -0.00084740065661313799 0.034601044908219657 0 -0.0020687199758682778 0.029648970379721827 0 -0.0016763741157653942 0.029765095533164237 0 -0.0017659753544065683 0.029760320428624375 0 -0.0016763741157653942 0.029765095533164237 0 -0.0015131015438774823 0.029863134805400177 0 -0.0017659753544065683 0.029760320428624375 0 -0.0020687199758682778 0.029648970379721827 0 -0.0017659753544065683 0.029760320428624375 0 -0.0020208438138514741 0.029650935167957766 0 -0.0017659753544065683 0.029760320428624375 0 -0.0020208438138514741 0.029650935167957766 0 -0.0018797976955215775 0.029718647896530951 0 -0.0021646524251473795 0.030263714585660861 0 -0.0019321297283634048 0.029699329245145803 0 -0.0020676621949636703 0.029696224790083579 0 -0.0010535368059442238 0.034839538576947528 0 -0.00067766812336778125 0.034854805439524614 0 -0.0003290504502111951 0.035112670138950045 0 -0.0017659753544065683 0.029760320428624375 0 -0.0018797976955215775 0.029718647896530951 0 -0.0019321297283634048 0.029699329245145803 0 -0.0019757997207346264 0.029693056798011853 0 -0.0020208438138514741 0.029650935167957766 0 -0.0020676621949636703 0.029696224790083579 0 -0.0019757997207346264 0.029693056798011853 0 -0.0019321297283634048 0.029699329245145803 0 -0.0020676621949636703 0.029696224790083579 0 -0.0019757997207346264 0.029693056798011853 0 -0.0020208438138514741 0.029650935167957766 0 -0.0018797976955215775 0.029718647896530951 0 -0.0019757997207346264 0.029693056798011853 0 -0.0018797976955215775 0.029718647896530951 0 -0.0019315753127602205 0.029702380526019857 0 -0.0018797976955215775 0.029718647896530951 0 -0.0019315753127602205 0.029702380526019857 0 -0.0019321297283634048 0.029699329245145803 0 -0.0019757997207346264 0.029693056798011853 0 -0.0019315753127602205 0.029702380526019857 0 -0.0019321297283634048 0.029699329245145803 0 -0.0010535368059442238 0.034839538576947528 0 -0.00084740065661313799 0.034601044908219657 0 -0.00067766812336778125 0.034854805439524614 0 -0.0001636546343253048 0.034907383295611487 0 -5.90524600573055e-05 0.03453120242699443 0 -0.00051524171087618262 0.034695622189421585 0 -0.00054655722020904829 0.034400476517250096 0 -0.00084740065661313799 0.034601044908219657 0 -0.00051524171087618262 0.034695622189421585 0 -0.00084740065661313799 0.034601044908219657 0 -0.00051524171087618262 0.034695622189421585 0 -0.00067766812336778125 0.034854805439524614 0 -0.00051524171087618262 0.034695622189421585 0 -0.00067766812336778125 0.034854805439524614 0 -0.00042185201147593019 0.034903971894781144 0 -0.0001636546343253048 0.034907383295611487 0 -0.00051524171087618262 0.034695622189421585 0 -0.00042185201147593019 0.034903971894781144 0 -0.00067766812336778125 0.034854805439524614 0 -0.00042185201147593019 0.034903971894781144 0 -0.0003290504502111951 0.035112670138950045 0 -0.0001636546343253048 0.034907383295611487 0 -0.00042185201147593019 0.034903971894781144 0 -0.0003290504502111951 0.035112670138950045 0 -0.0012567156587224917 0.033652476038988605 0 -0.0010191630073924662 0.033190265154717617 0 -0.00054543634490438191 0.033756325232213835 0 -0.0011253376885488901 0.032948134248677881 0 -0.00039093389671711261 0.034609114718122849 0 -0.0022374343985809568 0.029881386025174844 0 -0.0011253376885488901 0.032948134248677881 0 -0.0022374343985809568 0.029881386025174844 0 -0.0017881542232660759 0.030934926550296928 0 -0.0012567156587224917 0.033652476038988605 0 -0.00054543634490438191 0.033756325232213835 0 -0.0010402393931349071 0.034219460625888723 0 -0.00054591085081297718 0.034326816962193557 0 -0.00054543634490438191 0.033756325232213835 0 -0.00015886539745753333 0.034325719735072334 0 -0.00054591085081297718 0.034326816962193557 0 -0.00054543634490438191 0.033756325232213835 0 -0.0010402393931349071 0.034219460625888723 0 -0.0003290504502111951 0.035112670138950045 0 -5.4333601434075478e-05 0.035073512876415809 0 -4.0235809831303874e-05 0.035002570160201356 0 -0.00039093389671711261 0.034609114718122849 0 -0.00015160445458310625 0.034660219186751801 0 -5.4333601434075478e-05 0.035073512876415809 0 -4.6559255430445328e-08 0.035000206281473947 0 -4.0235809831303874e-05 0.035002570160201356 0 8.6141559346862367e-08 0.034999760842718601 0 -4.6559255430445328e-08 0.035000206281473947 0 -4.0235809831303874e-05 0.035002570160201356 0 -0.0001636546343253048 0.034907383295611487 0 -0.0003290504502111951 0.035112670138950045 0 -4.0235809831303874e-05 0.035002570160201356 0 -0.0010218872086906457 -0.0017708151933888726 0 -0.0013129076191431377 -0.0017134132443538618 0 -0.0011453034658557883 -0.001431421034530253 0 -0.0013129076191431377 -0.0017134132443538618 0 -0.0015070126116093902 -0.0013881194101482586 0 -0.0011453034658557883 -0.001431421034530253 0 -0.0013129076191431377 -0.0017134132443538618 0 -0.0015070126116093902 -0.0013881194101482586 0 -0.0016214581983455447 -0.0019649317902759597 0 -0.0015070126116093902 -0.0013881194101482586 0 -0.0011453034658557883 -0.001431421034530253 0 -0.0012688493575070863 -0.00098985405898488216 0 -0.0015070126116093902 -0.0013881194101482586 0 -0.0016788903649039789 -0.0010336796352534688 0 -0.0012688493575070863 -0.00098985405898488216 0 -0.0011453034658557883 -0.001431421034530253 0 -0.00086258589448725219 -0.0011843796790184712 0 -0.0012688493575070863 -0.00098985405898488216 0 -0.0011453034658557883 -0.001431421034530253 0 -0.00086258589448725219 -0.0011843796790184712 0 -0.00070702563005460204 -0.0016157526803732313 0 -0.00086258589448725219 -0.0011843796790184712 0 -0.00050768824146102984 -0.0013222259902395596 0 -0.00070702563005460204 -0.0016157526803732313 0 -0.00086258589448725219 -0.0011843796790184712 0 -0.00050768824146102984 -0.0013222259902395596 0 -0.00050209092185314282 -0.00094285144094453563 0 -0.00050768824146102984 -0.0013222259902395596 0 -0.00050209092185314282 -0.00094285144094453563 0 -9.9344239425828071e-05 -0.0012291300256435879 0 -0.00046987816342432492 -0.001576770182438202 0 -0.00041784709770285633 -0.0018437382212852453 0 -0.00024186698471660213 -0.0015258743767364393 0 -0.00050768824146102984 -0.0013222259902395596 0 -0.00046987816342432492 -0.001576770182438202 0 -0.00024186698471660213 -0.0015258743767364393 0 -0.00050768824146102984 -0.0013222259902395596 0 -0.00046987816342432492 -0.001576770182438202 0 -0.00070702563005460204 -0.0016157526803732313 0 -0.00046987816342432492 -0.001576770182438202 0 -0.00041784709770285633 -0.0018437382212852453 0 -0.00070702563005460204 -0.0016157526803732313 0 -0.00041784709770285633 -0.0018437382212852453 0 -0.00070702563005460204 -0.0016157526803732313 0 -0.00074992708845239098 -0.0019815169764049925 0 -0.0010218872086906457 -0.0017708151933888726 0 -0.0011453034658557883 -0.001431421034530253 0 -0.00070702563005460204 -0.0016157526803732313 0 -0.0010218872086906457 -0.0017708151933888726 0 -0.00070702563005460204 -0.0016157526803732313 0 -0.00074992708845239098 -0.0019815169764049925 0 -0.00074992708845239098 -0.0019815169764049925 0 -0.00078826648230443817 -0.0024049185770906672 0 -0.0011246305653232927 -0.0020866828784880825 0 -0.0010218872086906457 -0.0017708151933888726 0 -0.00074992708845239098 -0.0019815169764049925 0 -0.0011246305653232927 -0.0020866828784880825 0 -0.00074992708845239098 -0.0019815169764049925 0 -0.00058927737822035546 -0.002211211974741333 0 -0.00078826648230443817 -0.0024049185770906672 0 -0.00041784709770285633 -0.0018437382212852453 0 -0.0003552017833893358 -0.0021648229912008248 0 -0.00013073477270109861 -0.0019581404649401109 0 -0.00041784709770285633 -0.0018437382212852453 0 -0.00074992708845239098 -0.0019815169764049925 0 -0.00058927737822035546 -0.002211211974741333 0 -0.00041784709770285633 -0.0018437382212852453 0 -0.00058927737822035546 -0.002211211974741333 0 -0.0003552017833893358 -0.0021648229912008248 0 -0.0003552017833893358 -0.0021648229912008248 0 -0.00045091383968584527 -0.0024785435795228483 0 -0.00017372556573467507 -0.0024419686298427145 0 -0.00058927737822035546 -0.002211211974741333 0 -0.00045091383968584527 -0.0024785435795228483 0 -0.00078826648230443817 -0.0024049185770906672 0 -0.00058927737822035546 -0.002211211974741333 0 -0.0003552017833893358 -0.0021648229912008248 0 -0.00045091383968584527 -0.0024785435795228483 0 -0.00045091383968584527 -0.0024785435795228483 0 -0.00072994856059630084 -0.0026690554447110922 0 -0.00036469814638182148 -0.0027302373183610293 0 -0.00045091383968584527 -0.0024785435795228483 0 -0.00017372556573467507 -0.0024419686298427145 0 -0.00036469814638182148 -0.0027302373183610293 0 -0.00078826648230443817 -0.0024049185770906672 0 -0.0011907268571190997 -0.002743436272506027 0 -0.00072994856059630084 -0.0026690554447110922 0 -0.00045091383968584527 -0.0024785435795228483 0 -0.00078826648230443817 -0.0024049185770906672 0 -0.00072994856059630084 -0.0026690554447110922 0 -0.00078826648230443817 -0.0024049185770906672 0 -0.0011907268571190997 -0.002743436272506027 0 -0.0011246305653232927 -0.0020866828784880825 0 -0.0011907268571190997 -0.002743436272506027 0 -0.0011246305653232927 -0.0020866828784880825 0 -0.0016214581983455447 -0.0019649317902759597 0 -0.0010218872086906457 -0.0017708151933888726 0 -0.0013129076191431377 -0.0017134132443538618 0 -0.0011246305653232927 -0.0020866828784880825 0 -0.0013129076191431377 -0.0017134132443538618 0 -0.0011246305653232927 -0.0020866828784880825 0 -0.0016214581983455447 -0.0019649317902759597 0 -0.0011907268571190997 -0.002743436272506027 0 -0.0012273750539454386 -0.0035810847060660659 0 -0.0012551674529472246 -0.0028655737078385969 0 -0.0011922187296231929 -0.0027823840544118831 0 -0.0013761227723683631 -0.0028024228747025098 0 -6.085501803690663e-05 -0.0036726405669946717 0 -0.00028378109627824166 -0.0038558929508486265 0 -0.0012273750539454386 -0.0035810847060660659 0 -0.00071763490047547086 -0.0032675705695760968 0 -0.0012551674529472246 -0.0028655737078385969 0 -0.00071763490047547086 -0.0032675705695760968 0 -0.000301921000163428 -0.0037810011134737954 0 9.8433197782838621e-05 -0.0036836660854679334 0 -6.085501803690663e-05 -0.0036726405669946717 0 -0.00014984455502929962 -0.00642516368383436 0 0.00054271624887077246 -0.0047311726551337403 0 0.00047366360237656354 -0.0047777595658309441 0 0.00051576486571580204 -0.0047940650783938141 0 -0.00071763490047547086 -0.0032675705695760968 0 -0.00063926513240831269 -0.0038471648548040875 0 -0.000301921000163428 -0.0037810011134737954 0 -0.00063926513240831269 -0.0038471648548040875 0 -0.000301921000163428 -0.0037810011134737954 0 -0.000251179572565846 -0.0041774665886408361 0 -0.0012273750539454386 -0.0035810847060660659 0 -0.00063926513240831269 -0.0038471648548040875 0 -0.00072793042833244883 -0.004504467705072443 0 -0.0012273750539454386 -0.0035810847060660659 0 -0.00071763490047547086 -0.0032675705695760968 0 -0.00063926513240831269 -0.0038471648548040875 0 -0.0014356522022943156 -0.012140754384207666 0 -0.000599521194358907 -0.010340918429291725 0 -0.0019930757839617874 -0.014584813098834642 0 -0.0021323178928283298 -0.014573299586741553 0 -0.0020345082269054072 -0.014797393854658751 0 -0.001852424653493185 -0.014666902872976917 0 -0.0019930757839617874 -0.014584813098834642 0 -0.0020345082269054072 -0.014797393854658751 0 -0.00084128225410268545 -0.0094268930759007722 0 -0.00080314354462269837 -0.0093040489193096376 0 -0.00089376866577428311 -0.009278105476071977 0 -0.0019930757839617874 -0.014584813098834642 0 -0.0021323178928283298 -0.014573299586741553 0 -0.0020590179373568061 -0.014430449231506002 0 -0.00013119766462526075 -0.0071073679751359961 0 -0.00014984455502929962 -0.00642516368383436 0 -0.00084128225410268545 -0.0094268930759007722 0 -0.00073786180429125429 -0.0094525195067326692 0 -0.00080314354462269837 -0.0093040489193096376 0 0.00054271624887077246 -0.0047311726551337403 0 0.00047366360237656354 -0.0047777595658309441 0 0.00044352411713247862 -0.0047385477817416368 0 -0.000301921000163428 -0.0037810011134737954 0 8.0206866362089434e-05 -0.0039915604152378761 0 -0.000251179572565846 -0.0041774665886408361 0 8.0206866362089434e-05 -0.0039915604152378761 0 0.00012563156556198048 -0.0043116855454635779 0 -0.000251179572565846 -0.0041774665886408361 0 8.0206866362089434e-05 -0.0039915604152378761 0 0.00023929409594243992 -0.0040170087731960132 0 0.00012563156556198048 -0.0043116855454635779 0 0.00020852119533627122 -0.0048234751219204753 0 0.00033429000892333158 -0.0050191316793438733 0 -0.000301921000163428 -0.0037810011134737954 0 8.0206866362089434e-05 -0.0039915604152378761 0 9.8433197782838621e-05 -0.0036836660854679334 0 -0.00014984455502929962 -0.00642516368383436 0 0.00033429000892333158 -0.0050191316793438733 0 8.0206866362089434e-05 -0.0039915604152378761 0 9.8433197782838621e-05 -0.0036836660854679334 0 0.00024715176722723479 -0.0040012213868074664 0 -0.00019172182026628494 -0.0084399829615769157 0 -0.00035131122449955505 -0.008385725457857254 0 -0.00036318320767918136 -0.0083564629819111915 0 -0.00019172182026628494 -0.0084399829615769157 0 -0.00042433640675165665 -0.0083957417801418868 0 -0.00035131122449955505 -0.008385725457857254 0 -0.00058240961326589693 -0.010059551368602409 0 0.00033429000892333158 -0.0050191316793438733 0 0.00077306109824307114 -0.0043834647110952973 0 0.00024241933151424792 -0.0042898342084476048 0 0.000342092491176537 -0.0044876491942839125 0 -0.00014984455502929962 -0.00642516368383436 0 -0.000599521194358907 -0.010340918429291725 0 -0.00047092105037497509 -0.0082972887476415978 0 -0.00042433640675165665 -0.0083957417801418868 0 -0.00036240714584133508 -0.0083507719489178556 0 -0.00042433640675165665 -0.0083957417801418868 0 -0.00035131122449955505 -0.008385725457857254 0 -0.00036240714584133508 -0.0083507719489178556 0 0.00033429000892333158 -0.0050191316793438733 0 0.00019034234207144122 -0.0043107557133791581 0 -0.00072344015965559517 -0.0097809155693382704 0 -0.000599521194358907 -0.010340918429291725 0 0.000342092491176537 -0.0044876491942839125 0 -3.8816316620324017e-05 -0.0046301392956103436 0 0.0003812025893209509 -0.0050472378229533899 0 0.00071807816507781527 -0.0047472411980253983 0 0.000342092491176537 -0.0044876491942839125 0 0.0003812025893209509 -0.0050472378229533899 0 0.00023929409594243992 -0.0040170087731960132 0 0.000342092491176537 -0.0044876491942839125 0 0.00012563156556198048 -0.0043116855454635779 0 0.000342092491176537 -0.0044876491942839125 0 -3.8816316620324017e-05 -0.0046301392956103436 0 0.00012563156556198048 -0.0043116855454635779 0 -3.8816316620324017e-05 -0.0046301392956103436 0 0.00012563156556198048 -0.0043116855454635779 0 -0.000251179572565846 -0.0041774665886408361 0 -3.8816316620324017e-05 -0.0046301392956103436 0 -0.00072793042833244883 -0.004504467705072443 0 -9.9965382743593908e-05 -0.0052777024693373307 0 -3.8816316620324017e-05 -0.0046301392956103436 0 0.0003812025893209509 -0.0050472378229533899 0 -9.9965382743593908e-05 -0.0052777024693373307 0 -0.0013761227723683631 -0.0028024228747025098 0 -0.0013073582797600751 -0.0029387925951488013 0 -0.0015070126116093902 -0.0013881194101482586 0 -0.0016214581983455447 -0.0019649317902759597 0 -0.0018531733648543933 -0.0014434009387373609 0 -0.00063926513240831269 -0.0038471648548040875 0 -0.000251179572565846 -0.0041774665886408361 0 -0.00072793042833244883 -0.004504467705072443 0 -3.8816316620324017e-05 -0.0046301392956103436 0 -0.000251179572565846 -0.0041774665886408361 0 -0.00072793042833244883 -0.004504467705072443 0 -0.0018531733648543933 -0.0014434009387373609 0 -0.0016788903649039789 -0.0010336796352534688 0 -0.0020384693812987736 -0.0010607934882737905 0 -0.0013073582797600751 -0.0029387925951488013 0 -0.00095160915634116242 -0.0033879346894395623 0 -0.0015070126116093902 -0.0013881194101482586 0 -0.0018531733648543933 -0.0014434009387373609 0 -0.0016788903649039789 -0.0010336796352534688 0 -0.0016788903649039789 -0.0010336796352534688 0 -0.0017819216151209892 -0.00071373260039333424 0 -0.0020384693812987736 -0.0010607934882737905 0 -0.0016788903649039789 -0.0010336796352534688 0 -0.0017819216151209892 -0.00071373260039333424 0 -0.001455905849615316 -0.00063388251603781534 0 -0.0017819216151209892 -0.00071373260039333424 0 -0.0020384693812987736 -0.0010607934882737905 0 -0.0019865378011857757 -0.00062302532538698161 0 -0.0020384693812987736 -0.0010607934882737905 0 -0.0021926478235007795 -0.00079153209654812112 0 -0.0019865378011857757 -0.00062302532538698161 0 0.0003812025893209509 -0.0050472378229533899 0 -9.9965382743593908e-05 -0.0052777024693373307 0 0.00046414616518636656 -0.0059185958625470889 0 -0.00095160915634116242 -0.0033879346894395623 0 -0.0011973062746522677 -0.0022849437374664206 0 -0.0021926478235007795 -0.00079153209654812112 0 -0.0021241381834900055 -0.00053045396866826958 0 -0.0019865378011857757 -0.00062302532538698161 0 -0.0021241381834900055 -0.00053045396866826958 0 -0.0019865378011857757 -0.00062302532538698161 0 -0.0019667176873007387 -0.00032612966157385286 0 -0.0019865378011857757 -0.00062302532538698161 0 -0.0019667176873007387 -0.00032612966157385286 0 -0.0017389827467803145 -0.00031116945918899464 0 -0.0021241381834900055 -0.00053045396866826958 0 -0.0019667176873007387 -0.00032612966157385286 0 -0.0021389130479002511 -0.00039290613078056346 0 -0.0022173687529384641 -0.00053387453484834654 0 -0.0021241381834900055 -0.00053045396866826958 0 -0.0021389130479002511 -0.00039290613078056346 0 -0.0017819216151209892 -0.00071373260039333424 0 -0.0017389827467803145 -0.00031116945918899464 0 -0.0014861951922709438 -0.00031126040488522962 0 -0.0017819216151209892 -0.00071373260039333424 0 -0.0014861951922709438 -0.00031126040488522962 0 -0.001455905849615316 -0.00063388251603781534 0 -0.0017819216151209892 -0.00071373260039333424 0 -0.0019865378011857757 -0.00062302532538698161 0 -0.0017389827467803145 -0.00031116945918899464 0 -0.0014904961126224275 -7.9317956634993412e-06 0 -0.0017389827467803145 -0.00031116945918899464 0 -0.0014861951922709438 -0.00031126040488522962 0 -0.0014674423471446052 -0.00029163716350193706 0 -0.0011033716204228775 -0.00019835309129352929 0 -0.0012061083020727345 5.4716586041423454e-05 0 -0.0014861951922709438 -0.00031126040488522962 0 -0.0011178318049400748 -0.00018155609224771322 0 -0.00098362326364295673 5.274244074215362e-05 0 -0.0012061083020727345 5.4716586041423454e-05 0 -0.0011178318049400748 -0.00018155609224771322 0 -0.0010743490968492682 -0.00020947375677249372 0 -0.001455905849615316 -0.00063388251603781534 0 -0.0011176091563574221 -0.00057554079068979514 0 -0.0010743490968492682 -0.00020947375677249372 0 -0.0011176091563574221 -0.00057554079068979514 0 -0.00085816529027781961 -0.00040224285864660182 0 -0.0014861951922709438 -0.00031126040488522962 0 -0.0010743490968492682 -0.00020947375677249372 0 -0.001455905849615316 -0.00063388251603781534 0 -0.001455905849615316 -0.00063388251603781534 0 -0.0011176091563574221 -0.00057554079068979514 0 -0.0012688493575070863 -0.00098985405898488216 0 -0.00086258589448725219 -0.0011843796790184712 0 -0.0012688493575070863 -0.00098985405898488216 0 -0.00088999853918943304 -0.00076943770766960161 0 -0.0011176091563574221 -0.00057554079068979514 0 -0.0012688493575070863 -0.00098985405898488216 0 -0.00088999853918943304 -0.00076943770766960161 0 -0.0016788903649039789 -0.0010336796352534688 0 -0.001455905849615316 -0.00063388251603781534 0 -0.0012688493575070863 -0.00098985405898488216 0 -0.00050209092185314282 -0.00094285144094453563 0 -0.00088999853918943304 -0.00076943770766960161 0 -0.00058759027574832731 -0.00044680968722684823 0 -0.00086258589448725219 -0.0011843796790184712 0 -0.00050209092185314282 -0.00094285144094453563 0 -0.00088999853918943304 -0.00076943770766960161 0 -0.0011176091563574221 -0.00057554079068979514 0 -0.00088999853918943304 -0.00076943770766960161 0 -0.00085816529027781961 -0.00040224285864660182 0 -0.00088999853918943304 -0.00076943770766960161 0 -0.00058759027574832731 -0.00044680968722684823 0 -0.00085816529027781961 -0.00040224285864660182 0 -0.00058759027574832731 -0.00044680968722684823 0 -0.00085816529027781961 -0.00040224285864660182 0 -0.00063351456476074171 -8.7125604856435612e-05 0 -0.00058759027574832731 -0.00044680968722684823 0 -0.00063351456476074171 -8.7125604856435612e-05 0 -0.00045425240134262107 -0.00023815230953358864 0 -0.0010743490968492682 -0.00020947375677249372 0 -0.00085816529027781961 -0.00040224285864660182 0 -0.00063351456476074171 -8.7125604856435612e-05 0 -0.00098362326364295673 5.274244074215362e-05 0 -0.0011178318049400748 -0.00018155609224771322 0 -0.00079394807190898934 -2.2490382914372708e-05 0 -0.0011033716204228775 -0.00019835309129352929 0 -0.0007079501617723473 -3.8543658563284072e-05 0 -0.00080344412328375685 0.00017746697838795134 0 -0.00098362326364295673 5.274244074215362e-05 0 -0.00079394807190898934 -2.2490382914372708e-05 0 -0.00080344412328375685 0.00017746697838795134 0 -0.00079394807190898934 -2.2490382914372708e-05 0 -0.00065726037421651444 0.00018322431933376015 0 -0.00079394807190898934 -2.2490382914372708e-05 0 -0.00033760030019404109 0.00021217810641149841 0 -0.00045248691543878933 0.00026079711436863539 0 -0.00079394807190898934 -2.2490382914372708e-05 0 -0.00065726037421651444 0.00018322431933376015 0 -0.00045248691543878933 0.00026079711436863539 0 -0.00060121955463685842 0.00026552544452787476 0 -0.00065726037421651444 0.00018322431933376015 0 -0.00051039426113327706 0.00028208354078448379 0 -0.00065726037421651444 0.00018322431933376015 0 -0.00045248691543878933 0.00026079711436863539 0 -0.00051039426113327706 0.00028208354078448379 0 -0.0007079501617723473 -3.8543658563284072e-05 0 -0.00035335311938900366 0.00016570252795081725 0 -0.00063351456476074171 -8.7125604856435612e-05 0 -0.00039193106363184007 -4.0294767537100951e-05 0 -0.00045425240134262107 -0.00023815230953358864 0 -0.00063351456476074171 -8.7125604856435612e-05 0 -0.00039193106363184007 -4.0294767537100951e-05 0 -0.00033760030019404109 0.00021217810641149841 0 -0.00039193106363184007 -4.0294767537100951e-05 0 -0.00045425240134262107 -0.00023815230953358864 0 -0.00022553297415644363 -0.00021493198064250946 0 -0.00039193106363184007 -4.0294767537100951e-05 0 -0.00016423184530061415 3.7470925703309904e-05 0 -0.00022553297415644363 -0.00021493198064250946 0 -0.00039193106363184007 -4.0294767537100951e-05 0 -0.00016423184530061415 3.7470925703309904e-05 0 -0.00033760030019404109 0.00021217810641149841 0 -0.00016423184530061415 3.7470925703309904e-05 0 -0.00033760030019404109 0.00021217810641149841 0 -4.1139868325221175e-05 0.00046671704189695759 0 -0.00047461033382356166 0.00032203477321760411 0 -0.00045248691543878933 0.00026079711436863539 0 -0.00016893421919609235 5.45371140783619e-05 0 -0.00043956808666995029 0.00030314174062551457 0 0.00014798792884924533 0.00042647589921413826 0 -0.00033760030019404109 0.00021217810641149841 0 -0.00045248691543878933 0.00026079711436863539 0 -4.1139868325221175e-05 0.00046671704189695759 0 -0.00045248691543878933 0.00026079711436863539 0 0.00012744263282960384 0.00089230068691394473 0 -4.1139868325221175e-05 0.00046671704189695759 0 -0.00047461033382356166 0.00032203477321760411 0 -0.00045248691543878933 0.00026079711436863539 0 -0.00051039426113327706 0.00028208354078448379 0 0.00012744263282960384 0.00089230068691394473 0 0.00017187126173469867 0.00071664241325114736 0 -4.1139868325221175e-05 0.00046671704189695759 0 0.00018283889116437911 0.0013829221182768761 0 0.00014798792884924533 0.00042647589921413826 0 0.00041985545687743775 0.0012725267747098065 0 0.00017187126173469867 0.00071664241325114736 0 0.00028596346591404755 0.0007806879261184872 0 0.00041985545687743775 0.0012725267747098065 0 0.00028596346591404755 0.0007806879261184872 0 0.00049735315641452615 0.00095275587090029948 0 0.00041985545687743775 0.0012725267747098065 0 0.00012744263282960384 0.00089230068691394473 0 0.00017187126173469867 0.00071664241325114736 0 0.00017187126173469867 0.00071664241325114736 0 0.00028596346591404755 0.0007806879261184872 0 0.00022691669630192689 0.0006517946875203767 0 0.00028596346591404755 0.0007806879261184872 0 0.00041371370048828458 0.00073212974374648279 0 0.00049735315641452615 0.00095275587090029948 0 -1.9282045684482519e-05 0.00048741047738232131 0 0.00022247852208305614 0.00014110165950221182 0 0.00017187126173469867 0.00071664241325114736 0 -4.1139868325221175e-05 0.00046671704189695759 0 0.00022691669630192689 0.0006517946875203767 0 -0.00016423184530061415 3.7470925703309904e-05 0 -4.1139868325221175e-05 0.00046671704189695759 0 0.00025936689134500873 -0.00033182962382665099 0 0.00025936689134500873 -0.00033182962382665099 0 -0.00022553297415644363 -0.00021493198064250946 0 -5.3662489922821823e-05 -0.00043621998574313486 0 -0.00016423184530061415 3.7470925703309904e-05 0 0.00025936689134500873 -0.00033182962382665099 0 -0.00022553297415644363 -0.00021493198064250946 0 0.00022691669630192689 0.0006517946875203767 0 0.00041371370048828458 0.00073212974374648279 0 0.00041273712114033012 0.00058561464514320484 0 0.00028596346591404755 0.0007806879261184872 0 0.00022691669630192689 0.0006517946875203767 0 0.00041371370048828458 0.00073212974374648279 0 0.00022247852208305614 0.00014110165950221182 0 0.00048846756058850804 -6.6293147721369829e-05 0 0.00022691669630192689 0.0006517946875203767 0 0.00041273712114033012 0.00058561464514320484 0 0.00037884350113698414 0.00043712099353168242 0 0.00041273712114033012 0.00058561464514320484 0 0.00052458962991697091 0.00050611351239009963 0 0.00037884350113698414 0.00043712099353168242 0 0.00059684684113811266 -0.00065505480644153374 0 0.00048846756058850804 -6.6293147721369829e-05 0 0.00025936689134500873 -0.00033182962382665099 0 0.00014223723973813825 -0.00071602461630916961 0 -5.3662489922821823e-05 -0.00043621998574313486 0 0.00025936689134500873 -0.00033182962382665099 0 0.00014223723973813825 -0.00071602461630916961 0 0.00047905659114447533 -0.00084533239127253159 0 0.00014223723973813825 -0.00071602461630916961 0 -0.0003679903472635737 -0.00046593717135675965 0 -5.3662489922821823e-05 -0.00043621998574313486 0 7.0295825466949261e-05 -0.00071454501337789549 0 -9.9344239425828071e-05 -0.0012291300256435879 0 0.00023890209680720804 -0.001126807218454103 0 0.00059684684113811266 -0.00065505480644153374 0 -0.00019040398553902247 -0.00060876073588631105 0 0.00062435294342345893 -0.00096146019431983185 0 7.0295825466949261e-05 -0.00071454501337789549 0 0.00023890209680720804 -0.001126807218454103 0 -0.00050209092185314282 -0.00094285144094453563 0 -0.00058759027574832731 -0.00044680968722684823 0 7.0295825466949261e-05 -0.00071454501337789549 0 -0.00050209092185314282 -0.00094285144094453563 0 7.0295825466949261e-05 -0.00071454501337789549 0 -9.9344239425828071e-05 -0.0012291300256435879 0 -0.00058759027574832731 -0.00044680968722684823 0 -0.0003679903472635737 -0.00046593717135675965 0 -0.00045425240134262107 -0.00023815230953358864 0 -0.00055016693446444944 -0.00044783371559039469 0 -0.00019040398553902247 -0.00060876073588631105 0 -0.0003679903472635737 -0.00046593717135675965 0 -0.00045425240134262107 -0.00023815230953358864 0 -0.00022553297415644363 -0.00021493198064250946 0 -0.0003679903472635737 -0.00046593717135675965 0 -0.00022553297415644363 -0.00021493198064250946 0 -5.3662489922821823e-05 -0.00043621998574313486 0 0.0019521276500355463 0.001352733963872398 0 0.0013661304030125542 0.0016683230715086414 0 0.0011502938372311183 0.0012066228696266279 0 0.0019521276500355463 0.001352733963872398 0 0.0015751634924142692 0.00079943982509442918 0 0.0011502938372311183 0.0012066228696266279 0 0.00086026074368836789 0.0017275494784762119 0 0.0013661304030125542 0.0016683230715086414 0 0.0011502938372311183 0.0012066228696266279 0 0.0011502938372311183 0.0012066228696266279 0 0.00070335522270753071 0.00084246895218493157 0 0.0010488182320072827 0.00081845206991237602 0 0.0011502938372311183 0.0012066228696266279 0 0.00070146536486827206 0.0012095280825619619 0 0.00070335522270753071 0.00084246895218493157 0 0.00041985545687743775 0.0012725267747098065 0 0.00086026074368836789 0.0017275494784762119 0 0.00070146536486827206 0.0012095280825619619 0 0.00086026074368836789 0.0017275494784762119 0 0.0011502938372311183 0.0012066228696266279 0 0.00070146536486827206 0.0012095280825619619 0 0.00041985545687743775 0.0012725267747098065 0 0.00070146536486827206 0.0012095280825619619 0 0.00049735315641452615 0.00095275587090029948 0 0.00070146536486827206 0.0012095280825619619 0 0.00049735315641452615 0.00095275587090029948 0 0.00070335522270753071 0.00084246895218493157 0 0.00041371370048828458 0.00073212974374648279 0 0.00049735315641452615 0.00095275587090029948 0 0.00070335522270753071 0.00084246895218493157 0 0.00041371370048828458 0.00073212974374648279 0 0.00055400754012770973 0.00062266103093566196 0 0.00070335522270753071 0.00084246895218493157 0 0.00041371370048828458 0.00073212974374648279 0 0.00041273712114033012 0.00058561464514320484 0 0.00055400754012770973 0.00062266103093566196 0 0.00041273712114033012 0.00058561464514320484 0 0.00055400754012770973 0.00062266103093566196 0 0.00052458962991697091 0.00050611351239009963 0 0.00055400754012770973 0.00062266103093566196 0 0.00052458962991697091 0.00050611351239009963 0 0.00068384902102968889 0.00050953042345302211 0 0.00052458962991697091 0.00050611351239009963 0 0.00068384902102968889 0.00050953042345302211 0 0.00060623011932803815 0.00036798743240547526 0 0.00055400754012770973 0.00062266103093566196 0 0.00068384902102968889 0.00050953042345302211 0 0.00077514485446727923 0.00066686370018392946 0 0.00077514485446727923 0.00066686370018392946 0 0.00091860404349707471 0.00055920908866154096 0 0.0010488182320072827 0.00081845206991237602 0 0.00068384902102968889 0.00050953042345302211 0 0.00077514485446727923 0.00066686370018392946 0 0.00091860404349707471 0.00055920908866154096 0 0.00068384902102968889 0.00050953042345302211 0 0.00091860404349707471 0.00055920908866154096 0 0.00079149196168123602 0.00040656779797040019 0 0.00077514485446727923 0.00066686370018392946 0 0.00070335522270753071 0.00084246895218493157 0 0.0010488182320072827 0.00081845206991237602 0 0.00055400754012770973 0.00062266103093566196 0 0.00077514485446727923 0.00066686370018392946 0 0.00070335522270753071 0.00084246895218493157 0 0.00091860404349707471 0.00055920908866154096 0 0.0010488182320072827 0.00081845206991237602 0 0.0012055607231361539 0.00063031651924418163 0 0.00091860404349707471 0.00055920908866154096 0 0.0012055607231361539 0.00063031651924418163 0 0.0009805463732455973 0.00035856388759232077 0 0.0015751634924142692 0.00079943982509442918 0 0.0012055607231361539 0.00063031651924418163 0 0.0012669640408725501 0.00043314103818770349 0 0.0015522783442621483 0.0071750333354220304 0 0.0013150164224447381 0.0069858772500543606 0 0.0015751634924142692 0.00079943982509442918 0 0.0010488182320072827 0.00081845206991237602 0 0.0012055607231361539 0.00063031651924418163 0 0.0015751634924142692 0.00079943982509442918 0 0.0011502938372311183 0.0012066228696266279 0 0.0010488182320072827 0.00081845206991237602 0 0.0012638764905844209 0.01240870767382808 0 0.0012087458559005789 0.012963437283899731 0 0.00092362734843056511 0.01228629778672137 0 0.0015114858218164011 0.012699966481961159 0 0.0012638764905844209 0.01240870767382808 0 0.0012087458559005789 0.012963437283899731 0 0.0013150164224447381 0.0069858772500543606 0 0.00080754672230373941 0.0048681525370975493 0 0.0015302406801331937 0.012433005479070062 0 0.0012638764905844209 0.01240870767382808 0 0.0013506468060258158 0.012304776871429038 0 0.0015114858218164011 0.012699966481961159 0 0.0015302406801331937 0.012433005479070062 0 0.0012638764905844209 0.01240870767382808 0 0.0012055607231361539 0.00063031651924418163 0 0.0012669640408725501 0.00043314103818770349 0 0.0009805463732455973 0.00035856388759232077 0 0.0012669640408725501 0.00043314103818770349 0 0.0009805463732455973 0.00035856388759232077 0 0.0010657329532781363 0.00018814934551744807 0 0.0012669640408725501 0.00043314103818770349 0 0.0010657329532781363 0.00018814934551744807 0 0.0010664813316898854 0.00014603812108676055 0 0.0010657329532781363 0.00018814934551744807 0 0.00078192777625062072 0.00019551958000488229 0 0.0010765242051289472 0.00014531592770308788 0 0.0011290365361018215 0.0025303027441842029 0 0.00080754672230373941 0.0048681525370975493 0 0.0011320287563457716 3.4974914595619129e-05 0 0.00080754672230373941 0.0048681525370975493 0 0.0009805463732455973 0.00035856388759232077 0 0.0010657329532781363 0.00018814934551744807 0 0.00078192777625062072 0.00019551958000488229 0 0.0010867709068539135 0.00080034572122809628 0 0.0010601778755066683 0.00098624397092254455 0 0.00079709214736912418 0.00096094373376397766 0 0.0010867709068539135 0.00080034572122809628 0 0.0011893940897963506 0.0008484526435377349 0 0.0010601778755066683 0.00098624397092254455 0 0.00091860404349707471 0.00055920908866154096 0 0.0009805463732455973 0.00035856388759232077 0 0.00079149196168123602 0.00040656779797040019 0 0.00078192777625062072 0.00019551958000488229 0 0.00079149196168123602 0.00040656779797040019 0 0.00060623011932803815 0.00036798743240547526 0 0.0009805463732455973 0.00035856388759232077 0 0.00078192777625062072 0.00019551958000488229 0 0.00079149196168123602 0.00040656779797040019 0 0.00078192777625062072 0.00019551958000488229 0 0.00060623011932803815 0.00036798743240547526 0 0.00048448338853486359 0.00029583191338330007 0 0.00052458962991697091 0.00050611351239009963 0 0.00060623011932803815 0.00036798743240547526 0 0.00037884350113698414 0.00043712099353168242 0 0.00068384902102968889 0.00050953042345302211 0 0.00079149196168123602 0.00040656779797040019 0 0.00060623011932803815 0.00036798743240547526 0 0.0011320287563457716 3.4974914595619129e-05 0 0.00089503801995503363 0.00041598271914332493 0 0.0012320457638823016 0.00073461909419559831 0 0.00089503801995503363 0.00041598271914332493 0 0.0010867709068539135 0.00080034572122809628 0 0.0011893940897963506 0.0008484526435377349 0 0.0013773142670275918 0.00064860337018916457 0 0.0011893940897963506 0.0008484526435377349 0 0.0013025449760499534 0.00081894845980416133 0 0.0013773142670275918 0.00064860337018916457 0 0.0013025449760499534 0.00081894845980416133 0 0.0012461283468692696 0.00092846948059590022 0 0.0013841796270269071 0.00085640561398278245 0 0.0011893940897963506 0.0008484526435377349 0 0.0013025449760499534 0.00081894845980416133 0 0.0012461283468692696 0.00092846948059590022 0 0.0012461283468692696 0.00092846948059590022 0 0.0011808633518600791 0.001141569680407447 0 0.0013841796270269071 0.00085640561398278245 0 0.0013581080854197039 -0.00070147925526134816 0 0.0012460615081985418 -0.00043815310287691211 0 0.0013841770997389913 -0.0022092470525818743 0 0.0011159233912080354 -0.0017593303634260255 0 0.0010734513505516663 -0.0022748499950123019 0 0.0011893940897963506 0.0008484526435377349 0 0.0012461283468692696 0.00092846948059590022 0 0.0011728126967173117 0.00097034841054048095 0 0.0012461283468692696 0.00092846948059590022 0 0.0011728126967173117 0.00097034841054048095 0 0.0011808633518600791 0.001141569680407447 0 0.0011893940897963506 0.0008484526435377349 0 0.0011728126967173117 0.00097034841054048095 0 0.0010601778755066683 0.00098624397092254455 0 0.0011728126967173117 0.00097034841054048095 0 0.0011808633518600791 0.001141569680407447 0 0.0010601778755066683 0.00098624397092254455 0 0.0013841770997389913 -0.0022092470525818743 0 0.0010734513505516663 -0.0022748499950123019 0 0.0013185856804082605 -0.0025839066346014907 0 0.0013581080854197039 -0.00070147925526134816 0 0.0010927683748707929 0.00029140891126010573 0 0.0011808633518600791 0.001141569680407447 0 0.0010571830877887578 0.0012052969651989971 0 0.001008076487677695 0.0013782803436048431 0 0.0011808633518600791 0.001141569680407447 0 0.0010571830877887578 0.0012052969651989971 0 0.0010055438448467863 0.0011055995099040572 0 0.0013841770997389913 -0.0022092470525818743 0 0.001630005575492308 -0.0025900601089689041 0 0.0013185856804082605 -0.0025839066346014907 0 0.00065926911564608188 0.0023821911994623204 0 0.0010927683748707929 0.00029140891126010573 0 0.0010571830877887578 0.0012052969651989971 0 0.00093964334612143814 0.0012184957249388234 0 0.001008076487677695 0.0013782803436048431 0 0.0010571830877887578 0.0012052969651989971 0 0.0010055438448467863 0.0011055995099040572 0 0.0009263270885017952 0.0012300576780966855 0 0.0010982405116596837 0.0016561090626755761 0 0.00065926911564608188 0.0023821911994623204 0 0.0010055438448467863 0.0011055995099040572 0 0.0010601778755066683 0.00098624397092254455 0 0.00079709214736912418 0.00096094373376397766 0 0.0011808633518600791 0.001141569680407447 0 0.0010055438448467863 0.0011055995099040572 0 0.0010601778755066683 0.00098624397092254455 0 0.00080754672230373941 0.0048681525370975493 0 0.00068864543206512965 0.0056358364411987468 0 0.00080754672230373941 0.0048681525370975493 0 0.00065926911564608188 0.0023821911994623204 0 0.0010055438448467863 0.0011055995099040572 0 0.00079709214736912418 0.00096094373376397766 0 0.0009263270885017952 0.0012300576780966855 0 0.00082153334965074255 0.0046837767618755008 0 0.00058098911418468424 0.0041210627655226565 0 0.00092481598163831886 0.0040967723338520131 0 0.00036855107138988251 0.0030619845631935359 0 0.00040505205899492774 0.003068725332402396 0 0.00037871580759565935 0.0030330344323661051 0 0.00065926911564608188 0.0023821911994623204 0 0.00068864543206512965 0.0056358364411987468 0 0.00085810753518691951 0.009492732550967057 0 0.00068864543206512965 0.0056358364411987468 0 9.4301465882790724e-05 0.0079770634936082094 0 0.00028928681912958895 0.0073382508270940523 0 0.0011792250753611979 0.0078532939903608254 0 0.0014928356228445382 0.012140813814458291 0 0.00092362734843056511 0.01228629778672137 0 0.0013506468060258158 0.012304776871429038 0 0.0015122081076221513 0.012083146486122328 0 0.0014928356228445382 0.012140813814458291 0 0.00092362734843056511 0.01228629778672137 0 0.0012248350876525901 0.01105614628887072 0 0.00080754672230373941 0.0048681525370975493 0 0.0012638764905844209 0.01240870767382808 0 0.00092362734843056511 0.01228629778672137 0 0.0013506468060258158 0.012304776871429038 0 0.00028928681912958895 0.0073382508270940523 0 0.0013677315873828724 0.0067950601397260418 0 0.0011792250753611979 0.0078532939903608254 0 0.00011790664320218131 -0.0017628352751318914 0 -1.0056671596867764e-05 -0.001535652813719434 0 0.0002239455023956876 -0.0014269374119691924 0 0.00036716163428476557 -0.0017161941369370716 0 0.00011790664320218131 -0.0017628352751318914 0 0.0002239455023956876 -0.0014269374119691924 0 0.00036716163428476557 -0.0017161941369370716 0 0.0002239455023956876 -0.0014269374119691924 0 0.00046226341345603636 -0.0015210092488963675 0 0.00036716163428476557 -0.0017161941369370716 0 0.00060990868339507213 -0.0018091874043476548 0 0.00033061903085280549 -0.0019558515954041697 0 0.00036716163428476557 -0.0017161941369370716 0 0.00011790664320218131 -0.0017628352751318914 0 0.00033061903085280549 -0.0019558515954041697 0 0.00011790664320218131 -0.0017628352751318914 0 -0.00011512105862021117 -0.0017354797371968551 0 -1.0056671596867764e-05 -0.001535652813719434 0 0.00011790664320218131 -0.0017628352751318914 0 -0.00011512105862021117 -0.0017354797371968551 0 -0.00013073477270109861 -0.0019581404649401109 0 -0.00041784709770285633 -0.0018437382212852453 0 -0.00011512105862021117 -0.0017354797371968551 0 -0.00024186698471660213 -0.0015258743767364393 0 -0.00041784709770285633 -0.0018437382212852453 0 -0.00011512105862021117 -0.0017354797371968551 0 -0.00013073477270109861 -0.0019581404649401109 0 -0.00011512105862021117 -0.0017354797371968551 0 -0.00024186698471660213 -0.0015258743767364393 0 -1.0056671596867764e-05 -0.001535652813719434 0 -0.00024186698471660213 -0.0015258743767364393 0 -1.0056671596867764e-05 -0.001535652813719434 0 -9.9344239425828071e-05 -0.0012291300256435879 0 -0.00050768824146102984 -0.0013222259902395596 0 -0.00024186698471660213 -0.0015258743767364393 0 -9.9344239425828071e-05 -0.0012291300256435879 0 -1.0056671596867764e-05 -0.001535652813719434 0 -9.9344239425828071e-05 -0.0012291300256435879 0 0.0002239455023956876 -0.0014269374119691924 0 -9.9344239425828071e-05 -0.0012291300256435879 0 0.00023890209680720804 -0.001126807218454103 0 0.0002239455023956876 -0.0014269374119691924 0 0.00062435294342345893 -0.00096146019431983185 0 0.00023890209680720804 -0.001126807218454103 0 0.00046557977683456758 -0.0012930406019243102 0 0.0002239455023956876 -0.0014269374119691924 0 0.00046557977683456758 -0.0012930406019243102 0 0.00046226341345603636 -0.0015210092488963675 0 0.00023890209680720804 -0.001126807218454103 0 0.0002239455023956876 -0.0014269374119691924 0 0.00046557977683456758 -0.0012930406019243102 0 0.00093448370588979633 -0.00030217778304388509 0 0.0007151144460148521 -0.00021034594680746326 0 0.00081628681687651082 -0.00012015909076642264 0 0.00062435294342345893 -0.00096146019431983185 0 0.0006479999256312185 -0.0013006759005236882 0 0.00046557977683456758 -0.0012930406019243102 0 0.00059684684113811266 -0.00065505480644153374 0 0.0011431344773046126 -0.00031856495038320087 0 0.00062435294342345893 -0.00096146019431983185 0 0.0006479999256312185 -0.0013006759005236882 0 0.00082086100437198366 -0.0012752828629623524 0 0.0006479999256312185 -0.0013006759005236882 0 0.00070203400178263961 -0.0014553739052694389 0 0.00082086100437198366 -0.0012752828629623524 0 0.0006479999256312185 -0.0013006759005236882 0 0.00070203400178263961 -0.0014553739052694389 0 0.00046557977683456758 -0.0012930406019243102 0 0.00070203400178263961 -0.0014553739052694389 0 0.00046557977683456758 -0.0012930406019243102 0 0.00046226341345603636 -0.0015210092488963675 0 0.00060623011932803815 0.00036798743240547526 0 0.00041789687974537492 0.00043843193658533921 0 0.00048448338853486359 0.00029583191338330007 0 0.00049497796112539418 0.00040393239438427325 0 0.00048846756058850804 -6.6293147721369829e-05 0 0.00048846756058850804 -6.6293147721369829e-05 0 0.00089503801995503363 0.00041598271914332493 0 0.0007151144460148521 -0.00021034594680746326 0 0.00081628681687651082 -0.00012015909076642264 0 0.00063615856435164631 -3.6001638422111532e-05 0 0.0011431344773046126 -0.00031856495038320087 0 0.00089503801995503363 0.00041598271914332493 0 0.00070203400178263961 -0.0014553739052694389 0 0.0011159233912080354 -0.0017593303634260255 0 0.00060990868339507213 -0.0018091874043476548 0 0.00070203400178263961 -0.0014553739052694389 0 0.00082086100437198366 -0.0012752828629623524 0 0.0011159233912080354 -0.0017593303634260255 0 0.0016367726547180828 0.0004619864069067487 0 0.0013960998797128467 0.000578734782138054 0 0.0013841796270269071 0.00085640561398278245 0 0.0011431344773046126 -0.00031856495038320087 0 0.0012460615081985418 -0.00043815310287691211 0 0.0013025449760499534 0.00081894845980416133 0 0.0013960998797128467 0.000578734782138054 0 0.0013841796270269071 0.00085640561398278245 0 0.00070203400178263961 -0.0014553739052694389 0 0.00046226341345603636 -0.0015210092488963675 0 0.00060990868339507213 -0.0018091874043476548 0 0.00036716163428476557 -0.0017161941369370716 0 0.00046226341345603636 -0.0015210092488963675 0 0.00060990868339507213 -0.0018091874043476548 0 0.00060990868339507213 -0.0018091874043476548 0 0.00053680824504660904 -0.002139804164255743 0 0.00033061903085280549 -0.0019558515954041697 0 0.00060990868339507213 -0.0018091874043476548 0 0.00053680824504660904 -0.002139804164255743 0 0.00082199933905191189 -0.0020946751501188742 0 0.0011159233912080354 -0.0017593303634260255 0 0.00082199933905191189 -0.0020946751501188742 0 0.0010734513505516663 -0.0022748499950123019 0 0.0011159233912080354 -0.0017593303634260255 0 0.00060990868339507213 -0.0018091874043476548 0 0.00082199933905191189 -0.0020946751501188742 0 0.00082199933905191189 -0.0020946751501188742 0 0.0010734513505516663 -0.0022748499950123019 0 0.00072589559749305747 -0.0024195837700538608 0 0.0010734513505516663 -0.0022748499950123019 0 0.0009820463728309279 -0.0025591550954380425 0 0.0013185856804082605 -0.0025839066346014907 0 0.0010734513505516663 -0.0022748499950123019 0 0.00072589559749305747 -0.0024195837700538608 0 0.0009820463728309279 -0.0025591550954380425 0 0.00053680824504660904 -0.002139804164255743 0 0.00072589559749305747 -0.0024195837700538608 0 0.00041029620784635318 -0.0023955379992185019 0 0.00053680824504660904 -0.002139804164255743 0 0.00082199933905191189 -0.0020946751501188742 0 0.00072589559749305747 -0.0024195837700538608 0 0.00072589559749305747 -0.0024195837700538608 0 0.00041029620784635318 -0.0023955379992185019 0 0.00052138166184181108 -0.0027354227114720674 0 0.00041029620784635318 -0.0023955379992185019 0 0.00011693817671884892 -0.0023784258179756212 0 0.00029775574851651258 -0.002616439527079567 0 0.00011693817671884892 -0.0023784258179756212 0 -7.8598686646353761e-06 -0.0026770357796427613 0 0.00029775574851651258 -0.002616439527079567 0 0.00011693817671884892 -0.0023784258179756212 0 0.00030083643549725102 -0.0021897409086903733 0 0.00010548384365178257 -0.0020783143683089584 0 0.00041029620784635318 -0.0023955379992185019 0 0.00011693817671884892 -0.0023784258179756212 0 0.00030083643549725102 -0.0021897409086903733 0 0.00053680824504660904 -0.002139804164255743 0 0.00041029620784635318 -0.0023955379992185019 0 0.00030083643549725102 -0.0021897409086903733 0 0.00053680824504660904 -0.002139804164255743 0 0.00030083643549725102 -0.0021897409086903733 0 0.00033061903085280549 -0.0019558515954041697 0 0.00030083643549725102 -0.0021897409086903733 0 0.00010548384365178257 -0.0020783143683089584 0 0.00033061903085280549 -0.0019558515954041697 0 0.00011790664320218131 -0.0017628352751318914 0 0.00010548384365178257 -0.0020783143683089584 0 0.00033061903085280549 -0.0019558515954041697 0 0.00011790664320218131 -0.0017628352751318914 0 0.00010548384365178257 -0.0020783143683089584 0 -0.00013073477270109861 -0.0019581404649401109 0 0.00010548384365178257 -0.0020783143683089584 0 -0.00013073477270109861 -0.0019581404649401109 0 -7.8954114017002738e-05 -0.0022086019361447474 0 -0.0003552017833893358 -0.0021648229912008248 0 -0.00013073477270109861 -0.0019581404649401109 0 -7.8954114017002738e-05 -0.0022086019361447474 0 -0.0003552017833893358 -0.0021648229912008248 0 -7.8954114017002738e-05 -0.0022086019361447474 0 -0.00017372556573467507 -0.0024419686298427145 0 0.00011693817671884892 -0.0023784258179756212 0 0.00010548384365178257 -0.0020783143683089584 0 -7.8954114017002738e-05 -0.0022086019361447474 0 0.00011693817671884892 -0.0023784258179756212 0 -7.8954114017002738e-05 -0.0022086019361447474 0 -0.00017372556573467507 -0.0024419686298427145 0 0.00011693817671884892 -0.0023784258179756212 0 -0.00017372556573467507 -0.0024419686298427145 0 -7.8598686646353761e-06 -0.0026770357796427613 0 -0.00017372556573467507 -0.0024419686298427145 0 -7.8598686646353761e-06 -0.0026770357796427613 0 -0.00036469814638182148 -0.0027302373183610293 0 -7.8598686646353761e-06 -0.0026770357796427613 0 -0.00020404881936415191 -0.0031192573897193703 0 0.00018213399244675662 -0.0028284163864764717 0 -7.8598686646353761e-06 -0.0026770357796427613 0 -0.00020404881936415191 -0.0031192573897193703 0 -0.00036469814638182148 -0.0027302373183610293 0 0.00036961232888485583 -0.0039867070708236091 0 0.0005857562889742383 -0.0038818905775368415 0 -0.00020404881936415191 -0.0031192573897193703 0 0.00033915257937294183 -0.0029994527024470867 0 0.00018213399244675662 -0.0028284163864764717 0 -0.00020404881936415191 -0.0031192573897193703 0 0.00033915257937294183 -0.0029994527024470867 0 0.00045819926418726571 -0.0033083293188682391 0 0.00029117162950386517 -0.0029057232379706903 0 0.0005857562889742383 -0.0038818905775368415 0 0.00033915257937294183 -0.0029994527024470867 0 0.00057388716165669056 -0.0030530642649386091 0 0.00045149960700705146 -0.0032340569274210895 0 0.00033915257937294183 -0.0029994527024470867 0 0.00018213399244675662 -0.0028284163864764717 0 0.00052138166184181108 -0.0027354227114720674 0 -7.8598686646353761e-06 -0.0026770357796427613 0 0.00018213399244675662 -0.0028284163864764717 0 0.00029775574851651258 -0.002616439527079567 0 0.00018213399244675662 -0.0028284163864764717 0 0.00029775574851651258 -0.002616439527079567 0 0.00052138166184181108 -0.0027354227114720674 0 0.00041029620784635318 -0.0023955379992185019 0 0.00029775574851651258 -0.002616439527079567 0 0.00052138166184181108 -0.0027354227114720674 0 0.00072589559749305747 -0.0024195837700538608 0 0.00052138166184181108 -0.0027354227114720674 0 0.00078368805751966107 -0.0027098100796152202 0 0.00052138166184181108 -0.0027354227114720674 0 0.00078368805751966107 -0.0027098100796152202 0 0.00078090971023471152 -0.0029582405598222992 0 0.0009820463728309279 -0.0025591550954380425 0 0.0010539230222082719 -0.0029396005232348922 0 0.0013166743034771003 -0.0026241003956798304 0 0.00078368805751966107 -0.0027098100796152202 0 0.0009820463728309279 -0.0025591550954380425 0 0.0010539230222082719 -0.0029396005232348922 0 0.00072589559749305747 -0.0024195837700538608 0 0.00078368805751966107 -0.0027098100796152202 0 0.0009820463728309279 -0.0025591550954380425 0 0.00078368805751966107 -0.0027098100796152202 0 0.0010539230222082719 -0.0029396005232348922 0 0.00078090971023471152 -0.0029582405598222992 0 0.0010539230222082719 -0.0029396005232348922 0 0.00078090971023471152 -0.0029582405598222992 0 0.00087752376515868767 -0.0033599198454870331 0 0.0010539230222082719 -0.0029396005232348922 0 0.00087752376515868767 -0.0033599198454870331 0 0.0011791219311776892 -0.0032195995279439499 0 0.00057388716165669056 -0.0030530642649386091 0 0.00078090971023471152 -0.0029582405598222992 0 0.00087752376515868767 -0.0033599198454870331 0 0.00057388716165669056 -0.0030530642649386091 0 0.00087752376515868767 -0.0033599198454870331 0 0.00045149960700705146 -0.0032340569274210895 0 0.00033915257937294183 -0.0029994527024470867 0 0.00052138166184181108 -0.0027354227114720674 0 0.00057388716165669056 -0.0030530642649386091 0 0.00052138166184181108 -0.0027354227114720674 0 0.00057388716165669056 -0.0030530642649386091 0 0.00078090971023471152 -0.0029582405598222992 0 0.00091498488666499726 -0.0048498161711657238 0 0.00092760933431323825 -0.0048162406564227888 0 0.00092148521010312976 -0.004837400264408368 0 0.00057069272602628058 -0.003977676891378199 0 0.00045428111559425049 -0.0041197414888785346 0 0.00037992925464911694 -0.0039128024099525397 0 0.0007076395363505275 -0.004580516436319129 0 0.0005857562889742383 -0.0038818905775368415 0 0.00080399421135402568 -0.0037569595468967924 0 0.0005857562889742383 -0.0038818905775368415 0 0.00057069272602628058 -0.003977676891378199 0 0.00064028876245976886 -0.00408907356841119 0 0.00076799677854606145 -0.0040369322074551902 0 0.00080399421135402568 -0.0037569595468967924 0 0.00063548892697810346 -0.0024641386459811516 0 0.00064028876245976886 -0.00408907356841119 0 0.00057710545514168341 -0.0041967010989503156 0 0.00045428111559425049 -0.0041197414888785346 0 0.00057069272602628058 -0.003977676891378199 0 0.00064028876245976886 -0.00408907356841119 0 0.00045428111559425049 -0.0041197414888785346 0 0.00064028876245976886 -0.00408907356841119 0 0.00057710545514168341 -0.0041967010989503156 0 0.00068191520318964258 -0.004244175197413119 0 0.00091498488666499726 -0.0048498161711657238 0 0.0009281737243097268 -0.0048400925922820635 0 0.00091160299757663519 -0.0048365366116731243 0 0.00091498488666499726 -0.0048498161711657238 0 0.0009281737243097268 -0.0048400925922820635 0 0.00092148521010312976 -0.004837400264408368 0 0.00092125629183503852 -0.004837415914397322 0 0.0009281737243097268 -0.0048400925922820635 0 0.00092148521010312976 -0.004837400264408368 0 0.00092125629183503852 -0.004837415914397322 0 0.0009281737243097268 -0.0048400925922820635 0 0.00092031505612638381 -0.0048403309959578417 0 0.00092125629183503852 -0.004837415914397322 0 0.00092031505612638381 -0.0048403309959578417 0 0.00091334232231232216 -0.0048312668045349212 0 0.00092031505612638381 -0.0048403309959578417 0 0.00091334232231232216 -0.0048312668045349212 0 0.00088307796739585192 -0.0048434796931598068 0 0.00089479163199292124 -0.0047925391510328765 0 0.00091334232231232216 -0.0048312668045349212 0 0.00088307796739585192 -0.0048434796931598068 0 0.00091334232231232216 -0.0048312668045349212 0 0.00092760933431323825 -0.0048162406564227888 0 0.00092148521010312976 -0.004837400264408368 0 0.00089479163199292124 -0.0047925391510328765 0 0.00091334232231232216 -0.0048312668045349212 0 0.00092760933431323825 -0.0048162406564227888 0 0.00092125629183503852 -0.004837415914397322 0 0.00091334232231232216 -0.0048312668045349212 0 0.00092148521010312976 -0.004837400264408368 0 0.00015865717539846364 0.0021258268577191756 0 0.00020511219113383789 0.0022266055869601441 0 0.00014233009047302252 0.0022396850495536879 0 0.00051471138394722086 0.0034072128584029986 0 -0.0005419550439037875 0.0046662603586327851 0 -0.00031475227505234631 0.0033849831183867681 0 6.0427707795590844e-05 0.0039772883651580503 0 -9.3114795983662016e-05 0.002767033703680134 0 0.00077204560820053135 0.0068658335736121751 0 0.00054283100262846734 0.0068662238027308474 0 0.00057503196751899335 0.0066773610506382503 0 0.00068864543206512965 0.0056358364411987468 0 6.0427707795590844e-05 0.0039772883651580503 0 6.0427707795590844e-05 0.0039772883651580503 0 0.00055702603694656925 0.00079834982827289131 0 0.00041151607370455771 0.0030143569593628935 0 0.00037871580759565935 0.0030330344323661051 0 0.00035582547832506656 0.0030081970729678117 0 0.00040505205899492774 0.003068725332402396 0 0.00041151607370455771 0.0030143569593628935 0 0.00037871580759565935 0.0030330344323661051 0 0.00023665414075736476 0.0018341381534231426 0 0.00055702603694656925 0.00079834982827289131 0 0.00015865717539846364 0.0021258268577191756 0 0.00020511219113383789 0.0022266055869601441 0 0.00030396275553652252 0.0020833754481869929 0 0.0011308114400764382 -0.00082446046845601167 0 0.0010860653023272578 -0.00031925335428559351 0 0.00036034136724959014 0.001192732658743574 0 0.00064225289872820704 0.0011275848023000069 0 0.00052528567830214612 0.00091154199879148656 0 0.0010860653023272578 -0.00031925335428559351 0 0.0014800016599710202 -0.0025939469766674398 0 0.0014806866803041307 -0.0030885449223159852 0 0.0016534517240641049 -0.0026784356501843532 0 0.0013166743034771003 -0.0026241003956798304 0 0.0016163424934412451 -0.0026205419524740125 0 0.001630005575492308 -0.0025900601089689041 0 0.0013185856804082605 -0.0025839066346014907 0 0.00064225289872820704 0.0011275848023000069 0 0.00052528567830214612 0.00091154199879148656 0 0.00055089497517129507 0.00090513295534232977 0 0.00055702603694656925 0.00079834982827289131 0 0.0010860653023272578 -0.00031925335428559351 0 0.00036855107138988251 0.0030619845631935359 0 0.00037871580759565935 0.0030330344323661051 0 0.00035181942391760047 0.0030129575377805654 0 0.00037871580759565935 0.0030330344323661051 0 0.00035582547832506656 0.0030081970729678117 0 0.00035181942391760047 0.0030129575377805654 0 0.0013034530469511303 7.5976708860650061e-05 0 0.0013092389408228449 7.417997791484537e-05 0 0.0013079425904905806 7.0703280193061722e-05 0 0.00055702603694656925 0.00079834982827289131 0 0.0010927683748707929 0.00029140891126010573 0 0.0010860653023272578 -0.00031925335428559351 0 0.0010927683748707929 0.00029140891126010573 0 0.00097246685298416947 -0.0025467559922247593 0 0.0014800016599710202 -0.0025939469766674398 0 0.0010539230222082719 -0.0029396005232348922 0 0.0014806866803041307 -0.0030885449223159852 0 0.0013166743034771003 -0.0026241003956798304 0 0.0010539230222082719 -0.0029396005232348922 0 0.0014806866803041307 -0.0030885449223159852 0 0.0011791219311776892 -0.0032195995279439499 0 0.0014806866803041307 -0.0030885449223159852 0 0.0013045891501625132 -0.0034898047648702956 0 0.0011791219311776892 -0.0032195995279439499 0 0.0011308114400764382 -0.00082446046845601167 0 0.00063548892697810346 -0.0024641386459811516 0 0.00087752376515868767 -0.0033599198454870331 0 0.0013045891501625132 -0.0034898047648702956 0 0.0011791219311776892 -0.0032195995279439499 0 0.00064028876245976886 -0.00408907356841119 0 0.00076799677854606145 -0.0040369322074551902 0 0.00068191520318964258 -0.004244175197413119 0 0.00063548892697810346 -0.0024641386459811516 0 0.00052447817436966887 -0.004669306826839535 0 0.00051724638965906084 -0.0044496007636786999 0 0.00049942308689479619 -0.004422820440643219 0 0.00054538349419907487 -0.0044281111671965936 0 0.00051724638965906084 -0.0044496007636786999 0 0.0004579039419985098 -0.004437828113942153 0 0.00049942308689479619 -0.004422820440643219 0 0.0004579039419985098 -0.004437828113942153 0 0.00043303043206889416 -0.0043938838056075983 0 0.00049942308689479619 -0.004422820440643219 0 0.00063548892697810346 -0.0024641386459811516 0 0.00043113531480254614 -0.0014277012507281995 0 0.00036034136724959014 0.001192732658743574 0 0.00064225289872820704 0.0011275848023000069 0 0.00049773516315264105 0.001438741032572454 0 0.00064225289872820704 0.0011275848023000069 0 0.00073144003354652458 0.0013308546594578614 0 0.00049773516315264105 0.001438741032572454 0 0.00036034136724959014 0.001192732658743574 0 0.00049773516315264105 0.001438741032572454 0 0.00023915553071143786 0.0014986933134906776 0 0.00049773516315264105 0.001438741032572454 0 0.00026750418543086555 0.0015510407835237557 0 0.00023915553071143786 0.0014986933134906776 0 0.00043113531480254614 -0.0014277012507281995 0 0.00033659967304957824 -0.0014883868229432183 0 0.0004579039419985098 -0.004437828113942153 0 0.00037856679497019546 -0.0043950054922211827 0 0.00043303043206889416 -0.0043938838056075983 0 0.00055169994237199847 0.0013455747893939389 0 0.00026750418543086555 0.0015510407835237557 0 0.00038033222553134527 0.0015481386515547391 0 0.00026750418543086555 0.0015510407835237557 0 0.00026145704275064454 0.0015158288286312583 0 0.00023915553071143786 0.0014986933134906776 0 0.00026750418543086555 0.0015510407835237557 0 0.00038033222553134527 0.0015481386515547391 0 0.00026145704275064454 0.0015158288286312583 0 0.00033019991379350233 0.001633378322112862 0 0.00017510479354373103 0.0019454452954318811 0 0.00036975450793448643 0.0026931233594964877 0 0.00062814162564404387 0.0020260043382892808 0 -5.3560182060374781e-05 0.0020900605856085186 0 0.00062814162564404387 0.0020260043382892808 0 0.00038033222553134527 0.0015481386515547391 0 -5.3560182060374781e-05 0.0020900605856085186 0 0.00038033222553134527 0.0015481386515547391 0 0.00026145704275064454 0.0015158288286312583 0 0.00024331761182823741 0.0015130813390193409 0 0.00018301039109514596 0.0019017077375541546 0 0.00017510479354373103 0.0019454452954318811 0 0.00017510479354373103 0.0019454452954318811 0 -9.3114795983662016e-05 0.002767033703680134 0 0.00023665414075736476 0.0018341381534231426 0 0.00017510479354373103 0.0019454452954318811 0 0.00036975450793448643 0.0026931233594964877 0 -5.3560182060374781e-05 0.0020900605856085186 0 -0.00031475227505234631 0.0033849831183867681 0 0.00020511219113383789 0.0022266055869601441 0 0.00012151109862751059 0.0023360134289365517 0 0.00014233009047302252 0.0022396850495536879 0 0.00051471138394722086 0.0034072128584029986 0 0.00036975450793448643 0.0026931233594964877 0 -0.00031475227505234631 0.0033849831183867681 0 0.00033192190520257164 -0.0043404618648957361 0 0.00034653072902495445 -0.0043466783817199418 0 0.00033832724313455728 -0.0043325540522393844 0 0.00033192190520257164 -0.0043404618648957361 0 0.00034653072902495445 -0.0043466783817199418 0 0.00030917948517925639 -0.0043905659502982966 0 0.00034653072902495445 -0.0043466783817199418 0 0.00034399963194225698 -0.004332078108996361 0 0.00036631154919052446 -0.0043552167864973901 0 0.00034653072902495445 -0.0043466783817199418 0 0.00033832724313455728 -0.0043325540522393844 0 0.00034399963194225698 -0.004332078108996361 0 0.00033854137831423203 -0.0043217414037323111 0 0.00033832724313455728 -0.0043325540522393844 0 0.00034399963194225698 -0.004332078108996361 0 0.00037856679497019546 -0.0043950054922211827 0 0.00034674589135654345 -0.0043357307856502492 0 0.00036631154919052446 -0.0043552167864973901 0 0.00071364757576758767 -0.00065638280588614238 0 0.00033659967304957824 -0.0014883868229432183 0 0.00034161769769947161 -0.004326513644719524 0 0.00034399963194225698 -0.004332078108996361 0 0.00034674589135654345 -0.0043357307856502492 0 0.00034399963194225698 -0.004332078108996361 0 0.00034674589135654345 -0.0043357307856502492 0 0.00036631154919052446 -0.0043552167864973901 0 0.00033591397540593557 -0.0043309412943697357 0 0.00037856679497019546 -0.0043950054922211827 0 0.00034674589135654345 -0.0043357307856502492 0 0.00036631154919052446 -0.0043552167864973901 0 0.00043303043206889416 -0.0043938838056075983 0 0.00041937205407129995 -0.0043630365268222046 0 0.00037856679497019546 -0.0043950054922211827 0 0.00036631154919052446 -0.0043552167864973901 0 0.00043303043206889416 -0.0043938838056075983 0 0.00034653072902495445 -0.0043466783817199418 0 0.00036631154919052446 -0.0043552167864973901 0 0.00041937205407129995 -0.0043630365268222046 0 0.00034653072902495445 -0.0043466783817199418 0 0.00041937205407129995 -0.0043630365268222046 0 0.0004030832555333982 -0.0043184235819673112 0 0.00041937205407129995 -0.0043630365268222046 0 0.00047652924777263163 -0.0043926016694952764 0 0.00052027175098944434 -0.0043534734992979026 0 0.00041937205407129995 -0.0043630365268222046 0 0.00052027175098944434 -0.0043534734992979026 0 0.0004030832555333982 -0.0043184235819673112 0 0.00043303043206889416 -0.0043938838056075983 0 0.00047652924777263163 -0.0043926016694952764 0 0.00049942308689479619 -0.004422820440643219 0 0.00043303043206889416 -0.0043938838056075983 0 0.00041937205407129995 -0.0043630365268222046 0 0.00047652924777263163 -0.0043926016694952764 0 0.00047652924777263163 -0.0043926016694952764 0 0.00049942308689479619 -0.004422820440643219 0 0.00053619108776451917 -0.0044144167915927107 0 0.00053619108776451917 -0.0044144167915927107 0 0.00054538349419907487 -0.0044281111671965936 0 0.00059780091142048097 -0.0044170546486042538 0 0.00049942308689479619 -0.004422820440643219 0 0.00053619108776451917 -0.0044144167915927107 0 0.00054538349419907487 -0.0044281111671965936 0 0.00053619108776451917 -0.0044144167915927107 0 0.00057223484218467402 -0.0044115619794482487 0 0.00052027175098944434 -0.0043534734992979026 0 0.00047652924777263163 -0.0043926016694952764 0 0.00053619108776451917 -0.0044144167915927107 0 0.00052027175098944434 -0.0043534734992979026 0 0.00053619108776451917 -0.0044144167915927107 0 0.00057223484218467402 -0.0044115619794482487 0 0.00059780091142048097 -0.0044170546486042538 0 0.00057223484218467402 -0.0044115619794482487 0 0.00052027175098944434 -0.0043534734992979026 0 0.00062791977034816785 -0.004487623736986265 0 0.0006038299498514725 -0.0045565805556132882 0 0.00079612621004705513 -0.004647035956774276 0 0.00068962618855380998 -0.0047553731660133058 0 0.00096566020428904946 -0.0048092982374636859 0 0.00085852271866594968 -0.0047393327908507544 0 0.00068962618855380998 -0.0047553731660133058 0 0.0007901518318655323 -0.0046520949504912862 0 0.00059193041723199988 -0.0045233524910447262 0 0.00068962618855380998 -0.0047553731660133058 0 0.0007901518318655323 -0.0046520949504912862 0 0.00085852271866594968 -0.0047393327908507544 0 0.0007901518318655323 -0.0046520949504912862 0 0.00059193041723199988 -0.0045233524910447262 0 0.00081256949134832701 -0.0045388340019079532 0 0.0006038299498514725 -0.0045565805556132882 0 0.00042694402857395035 -0.0044721680131757247 0 0.00068962618855380998 -0.0047553731660133058 0 0.00059193041723199988 -0.0045233524910447262 0 0.00042460338784359661 -0.0046297533750037272 0 0.00059193041723199988 -0.0045233524910447262 0 0.00042460338784359661 -0.0046297533750037272 0 0.00039484347787231537 -0.0044863333687764455 0 0.00042460338784359661 -0.0046297533750037272 0 0.00039484347787231537 -0.0044863333687764455 0 0.00030226170489183973 -0.0044615920078837712 0 0.00059193041723199988 -0.0045233524910447262 0 0.00040081994243908111 -0.0043699409610027575 0 0.00039484347787231537 -0.0044863333687764455 0 0.00040081994243908111 -0.0043699409610027575 0 0.00039484347787231537 -0.0044863333687764455 0 0.00030354038452231339 -0.0044114405171230206 0 0.00039484347787231537 -0.0044863333687764455 0 0.00030354038452231339 -0.0044114405171230206 0 0.00030226170489183973 -0.0044615920078837712 0 0.00040081994243908111 -0.0043699409610027575 0 0.00030354038452231339 -0.0044114405171230206 0 0.00022697641366176789 -0.0043021344945534477 0 0.00016599653795756051 -0.0044006299769607654 0 0.00030354038452231339 -0.0044114405171230206 0 0.00022697641366176789 -0.0043021344945534477 0 0.00016599653795756051 -0.0044006299769607654 0 0.00030354038452231339 -0.0044114405171230206 0 0.00030226170489183973 -0.0044615920078837712 0 0.00042694402857395035 -0.0044721680131757247 0 0.00033409555772220074 -0.0044095368714945427 0 0.00042460338784359661 -0.0046297533750037272 0 0.00030226170489183973 -0.0044615920078837712 0 0.00030917948517925639 -0.0043905659502982966 0 0.00034653072902495445 -0.0043466783817199418 0 0.0004030832555333982 -0.0043184235819673112 0 0.00030917948517925639 -0.0043905659502982966 0 0.00032699903488881326 -0.004350557632354232 0 0.00033192190520257164 -0.0043404618648957361 0 0.00030917948517925639 -0.0043905659502982966 0 0.00032813428739219988 -0.0043483449143250251 0 0.00030226170489183973 -0.0044615920078837712 0 0.00030917948517925639 -0.0043905659502982966 0 0.00097127932021023563 -0.0047551629000123011 0 0.00099073240485943919 -0.0047606661524072901 0 0.00095625592019070612 -0.004805341831838502 0 0.00099073240485943919 -0.0047606661524072901 0 0.00095809425655697038 -0.0048024477855830331 0 0.00095625592019070612 -0.004805341831838502 0 0.00097127932021023563 -0.0047551629000123011 0 0.00095625592019070612 -0.004805341831838502 0 0.00091710029235609442 -0.0047988278945001427 0 0.00097127932021023563 -0.0047551629000123011 0 0.00099073240485943919 -0.0047606661524072901 0 0.0010172003318291063 -0.0047110138625079782 0 0.00099073240485943919 -0.0047606661524072901 0 0.00096230816089635813 -0.004787678668015799 0 0.00095809425655697038 -0.0048024477855830331 0 0.00094268402499086219 -0.0048169153715314876 0 0.00095809425655697038 -0.0048024477855830331 0 0.00092988898603042606 -0.0048316417725804608 0 0.00096230816089635813 -0.004787678668015799 0 0.00094268402499086219 -0.0048169153715314876 0 0.00092427250792978294 -0.0048367536183119252 0 0.00096230816089635813 -0.004787678668015799 0 0.00094268402499086219 -0.0048169153715314876 0 0.00095809425655697038 -0.0048024477855830331 0 0.00095809425655697038 -0.0048024477855830331 0 0.00093987228334146077 -0.0048258401263065361 0 0.00095625592019070612 -0.004805341831838502 0 0.00095809425655697038 -0.0048024477855830331 0 0.00092988898603042606 -0.0048316417725804608 0 0.00093987228334146077 -0.0048258401263065361 0 0.00092988898603042606 -0.0048316417725804608 0 0.00093987228334146077 -0.0048258401263065361 0 0.00091005518311799028 -0.0048457134051137331 0 0.00092031505612638381 -0.0048403309959578417 0 0.00093987228334146077 -0.0048258401263065361 0 0.00091005518311799028 -0.0048457134051137331 0 0.0009281737243097268 -0.0048400925922820635 0 0.00092031505612638381 -0.0048403309959578417 0 0.00093987228334146077 -0.0048258401263065361 0 0.0009281737243097268 -0.0048400925922820635 0 0.00093987228334146077 -0.0048258401263065361 0 0.00095625592019070612 -0.004805341831838502 0 0.0009281737243097268 -0.0048400925922820635 0 0.00095625592019070612 -0.004805341831838502 0 0.00091160299757663519 -0.0048365366116731243 0 0.00095625592019070612 -0.004805341831838502 0 0.00091160299757663519 -0.0048365366116731243 0 0.00091710029235609442 -0.0047988278945001427 0 0.0007076395363505275 -0.004580516436319129 0 0.00066971071021903247 -0.0045518550897442585 0 0.00057710545514168341 -0.0041967010989503156 0 0.00045428111559425049 -0.0041197414888785346 0 0.00053288111169194348 -0.004332456401292482 0 0.00091498488666499726 -0.0048498161711657238 0 0.00091160299757663519 -0.0048365366116731243 0 0.00082410052569068177 -0.0048410356320440938 0 0.00091160299757663519 -0.0048365366116731243 0 0.00091710029235609442 -0.0047988278945001427 0 0.00082410052569068177 -0.0048410356320440938 0 0.00057710545514168341 -0.0041967010989503156 0 0.00068191520318964258 -0.004244175197413119 0 0.00053288111169194348 -0.004332456401292482 0 0.00052447817436966887 -0.004669306826839535 0 0.00064409410646234643 -0.0042815160113518214 0 0.00068191520318964258 -0.004244175197413119 0 0.00053288111169194348 -0.004332456401292482 0 0.00059780091142048097 -0.0044170546486042538 0 0.00066971071021903247 -0.0045518550897442585 0 0.00063495567996454906 -0.0045006999486263731 0 0.00082410052569068177 -0.0048410356320440938 0 0.00084579900549301712 -0.0046887248536879415 0 0.00062791977034816785 -0.004487623736986265 0 0.00053288111169194348 -0.004332456401292482 0 0.00059780091142048097 -0.0044170546486042538 0 0.00062791977034816785 -0.004487623736986265 0 0.00084579900549301712 -0.0046887248536879415 0 0.00062791977034816785 -0.004487623736986265 0 0.00064128992402133608 -0.0044918657463372084 0 0.00057223484218467402 -0.0044115619794482487 0 0.00059780091142048097 -0.0044170546486042538 0 0.00062791977034816785 -0.004487623736986265 0 0.00084579900549301712 -0.0046887248536879415 0 0.00064128992402133608 -0.0044918657463372084 0 0.0010172003318291063 -0.0047110138625079782 0 0.00097127932021023563 -0.0047551629000123011 0 0.00091710029235609442 -0.0047988278945001427 0 0.00084579900549301712 -0.0046887248536879415 0 0.00091710029235609442 -0.0047988278945001427 0 0.00082410052569068177 -0.0048410356320440938 0 0.00084579900549301712 -0.0046887248536879415 0 0.00097127932021023563 -0.0047551629000123011 0 0.00084579900549301712 -0.0046887248536879415 0 0.0010172003318291063 -0.0047110138625079782 0 0.00079612621004705513 -0.004647035956774276 0 0.00098301859357184055 -0.0046986614962682919 0 0.0010280505458785552 -0.0047531602754684234 0 0.00096566020428904946 -0.0048092982374636859 0 0.0010172003318291063 -0.0047110138625079782 0 0.0010280505458785552 -0.0047531602754684234 0 0.0010936304534085992 -0.0047453854624942273 0 0.0010172003318291063 -0.0047110138625079782 0 0.00052027175098944434 -0.0043534734992979026 0 0.00062791977034816785 -0.004487623736986265 0 0.00064128992402133608 -0.0044918657463372084 0 0.00096566020428904946 -0.0048092982374636859 0 0.00096236409618126267 -0.0047611844920373778 0 0.00085852271866594968 -0.0047393327908507544 0 0.0010280505458785552 -0.0047531602754684234 0 0.00096566020428904946 -0.0048092982374636859 0 0.00096236409618126267 -0.0047611844920373778 0 0.0010280505458785552 -0.0047531602754684234 0 0.00096236409618126267 -0.0047611844920373778 0 0.00095779650035760432 -0.0047354346800415701 0 0.00096236409618126267 -0.0047611844920373778 0 0.00095779650035760432 -0.0047354346800415701 0 0.00085852271866594968 -0.0047393327908507544 0 0.0007901518318655323 -0.0046520949504912862 0 0.00095779650035760432 -0.0047354346800415701 0 0.00085852271866594968 -0.0047393327908507544 0 0.0007901518318655323 -0.0046520949504912862 0 0.00095779650035760432 -0.0047354346800415701 0 0.00081256949134832701 -0.0045388340019079532 0 0.00095779650035760432 -0.0047354346800415701 0 0.0010990854515117051 -0.0047376805027444001 0 0.00081256949134832701 -0.0045388340019079532 0 0.0010280505458785552 -0.0047531602754684234 0 0.0010990854515117051 -0.0047376805027444001 0 0.0010936304534085992 -0.0047453854624942273 0 0.0010990854515117051 -0.0047376805027444001 0 0.0011896267820722605 -0.004772822237753039 0 0.0010936304534085992 -0.0047453854624942273 0 0.0010280505458785552 -0.0047531602754684234 0 0.00095779650035760432 -0.0047354346800415701 0 0.0010990854515117051 -0.0047376805027444001 0 0.0010990854515117051 -0.0047376805027444001 0 0.0011896267820722605 -0.004772822237753039 0 0.0012272226349073316 -0.0047169507096113074 0 0.0011896267820722605 -0.004772822237753039 0 0.001067576887190622 -0.0047399900004188485 0 0.0010101201225722082 -0.0047836475535974156 0 0.001067576887190622 -0.0047399900004188485 0 0.0010936304534085992 -0.0047453854624942273 0 0.0010426891238546458 -0.0047334377358569405 0 0.0011896267820722605 -0.004772822237753039 0 0.001067576887190622 -0.0047399900004188485 0 0.0010936304534085992 -0.0047453854624942273 0 0.0010936304534085992 -0.0047453854624942273 0 0.0010426891238546458 -0.0047334377358569405 0 0.0010172003318291063 -0.0047110138625079782 0 0.00099073240485943919 -0.0047606661524072901 0 0.0010426891238546458 -0.0047334377358569405 0 0.0010172003318291063 -0.0047110138625079782 0 0.00096230816089635813 -0.004787678668015799 0 0.0010426891238546458 -0.0047334377358569405 0 0.00092497815838885294 -0.0048160852724829315 0 0.0010426891238546458 -0.0047334377358569405 0 0.001005384772162209 -0.0047239293901809448 0 0.0009648791319793725 -0.0046535054146393711 0 0.00095085197168203145 -0.004713248756670476 0 0.0011301780492381803 -0.0047707050759155691 0 0.00099073240485943919 -0.0047606661524072901 0 0.00096230816089635813 -0.004787678668015799 0 0.0010426891238546458 -0.0047334377358569405 0 0.001067576887190622 -0.0047399900004188485 0 0.0010426891238546458 -0.0047334377358569405 0 0.001005384772162209 -0.0047239293901809448 0 0.0010708128590942855 -0.0049131260958814454 0 0.00049715810002902839 -0.0042875501288359335 0 0.001005384772162209 -0.0047239293901809448 0 0.0010101201225722082 -0.0047836475535974156 0 0.000925235827637927 -0.0047162452694542783 0 0.001067576887190622 -0.0047399900004188485 0 0.001005384772162209 -0.0047239293901809448 0 0.0010101201225722082 -0.0047836475535974156 0 0.0001399153283879088 -0.0049199571342714984 0 -0.00032278119607582101 -0.0044825635583604249 0 0.00010537903353208413 -0.0040525080283368934 0 0.0011086122947404867 -0.005024914908248513 0 0.0001399153283879088 -0.0049199571342714984 0 0.00010537903353208413 -0.0040525080283368934 0 -0.00032278119607582101 -0.0044825635583604249 0 -0.00067061942352446421 -0.0041604528393722126 0 0.00010537903353208413 -0.0040525080283368934 0 0.0001399153283879088 -0.0049199571342714984 0 -0.00032278119607582101 -0.0044825635583604249 0 -0.00049374308886969897 -0.0049876515625604002 0 -0.00049374308886969897 -0.0049876515625604002 0 -0.0010608160796570652 -0.004966855042524451 0 -0.00088441152012114872 -0.0045456197827632473 0 -0.00032278119607582101 -0.0044825635583604249 0 -0.00049374308886969897 -0.0049876515625604002 0 -0.00088441152012114872 -0.0045456197827632473 0 -0.0010608160796570652 -0.004966855042524451 0 -0.0014706580142407782 -0.0050559036802498205 0 -0.0015664412703699625 -0.0046206861288932543 0 -0.0010608160796570652 -0.004966855042524451 0 -0.00088441152012114872 -0.0045456197827632473 0 -0.0015664412703699625 -0.0046206861288932543 0 -0.00088441152012114872 -0.0045456197827632473 0 -0.0011768477636189612 -0.0042381125973093414 0 -0.0015664412703699625 -0.0046206861288932543 0 -0.00088441152012114872 -0.0045456197827632473 0 -0.00067061942352446421 -0.0041604528393722126 0 -0.0011768477636189612 -0.0042381125973093414 0 -0.00032278119607582101 -0.0044825635583604249 0 -0.00088441152012114872 -0.0045456197827632473 0 -0.00067061942352446421 -0.0041604528393722126 0 -0.00063637332487026749 -0.0038074226374712706 0 0.00010537903353208413 -0.0040525080283368934 0 -0.00086469669083096771 -0.0032505704995804121 0 -0.00067061942352446421 -0.0041604528393722126 0 -0.0011014410846271045 -0.0037689077540585046 0 -0.00063637332487026749 -0.0038074226374712706 0 -0.0011768477636189612 -0.0042381125973093414 0 -0.0011014410846271045 -0.0037689077540585046 0 -0.0015428756087930953 -0.0040099841290122005 0 -0.00067061942352446421 -0.0041604528393722126 0 -0.0011768477636189612 -0.0042381125973093414 0 -0.0011014410846271045 -0.0037689077540585046 0 -0.0011014410846271045 -0.0037689077540585046 0 -0.0015587404561671456 -0.0036047904795780141 0 -0.00086469669083096771 -0.0032505704995804121 0 -0.0011014410846271045 -0.0037689077540585046 0 -0.00063637332487026749 -0.0038074226374712706 0 -0.00086469669083096771 -0.0032505704995804121 0 0.0009648791319793725 -0.0046535054146393711 0 0.000925235827637927 -0.0047162452694542783 0 0.0007867101051457062 -0.0045881455458255125 0 0.00049715810002902839 -0.0042875501288359335 0 -0.00019665913674418224 -0.0046704908460337112 0 0.001005384772162209 -0.0047239293901809448 0 0.0009648791319793725 -0.0046535054146393711 0 0.000925235827637927 -0.0047162452694542783 0 -0.00067061942352446421 -0.0041604528393722126 0 -0.00063637332487026749 -0.0038074226374712706 0 0.00010537903353208413 -0.0040525080283368934 0 -0.0067090473651736813 -0.014310252191688941 0 -0.007175244093058474 -0.014095663917377448 0 -0.0068719234730377169 -0.01485416822544491 0 -0.0019305248269200935 -0.0048412244475296608 0 -0.0015664412703699625 -0.0046206861288932543 0 -0.0022481872186910787 -0.0038405869916553403 0 -0.0039772833651407075 -0.0092156513427533084 0 -0.0048329218267361704 -0.0094390213858023715 0 -0.0039772833651407075 -0.0092156513427533084 0 -0.0038803899620864662 -0.0066052244907456028 0 -0.0019305248269200935 -0.0048412244475296608 0 -0.0015664412703699625 -0.0046206861288932543 0 -0.0019197043708134294 -0.0051627580591967637 0 -0.0014706580142407782 -0.0050559036802498205 0 -0.0015664412703699625 -0.0046206861288932543 0 -0.0019197043708134294 -0.0051627580591967637 0 -0.0011768477636189612 -0.0042381125973093414 0 -0.0015664412703699625 -0.0046206861288932543 0 -0.0015428756087930953 -0.0040099841290122005 0 -0.0015664412703699625 -0.0046206861288932543 0 -0.0015428756087930953 -0.0040099841290122005 0 -0.0022481872186910787 -0.0038405869916553403 0 -0.0011014410846271045 -0.0037689077540585046 0 -0.0015428756087930953 -0.0040099841290122005 0 -0.0015587404561671456 -0.0036047904795780141 0 -0.0015428756087930953 -0.0040099841290122005 0 -0.0015587404561671456 -0.0036047904795780141 0 -0.0022481872186910787 -0.0038405869916553403 0 -0.0067090473651736813 -0.014310252191688941 0 -0.0068719234730377169 -0.01485416822544491 0 -0.006118915500004876 -0.014682129990832744 0 -0.0022481872186910787 -0.0038405869916553403 0 -0.0018780270178293792 -0.0030454386423741601 0 -0.0027171773357433588 -0.0028224575716158866 0 -0.0048329218267361704 -0.0094390213858023715 0 -0.00309267526006036 -0.0088469941729661244 0 -0.0015587404561671456 -0.0036047904795780141 0 -0.0018780270178293792 -0.0030454386423741601 0 -0.00086469669083096771 -0.0032505704995804121 0 -0.0010009740625721265 -0.0060046150026034249 0 -0.0010758977251382475 -0.0060711481073847913 0 -0.0011909209587079288 -0.0059012619485433841 0 -0.0015145602377229039 -0.0041484019659926569 0 -0.00019665913674418224 -0.0046704908460337112 0 -0.0015587404561671456 -0.0036047904795780141 0 -0.0022481872186910787 -0.0038405869916553403 0 -0.0018780270178293792 -0.0030454386423741601 0 0.00033394594508955608 -0.0051097845085317384 0 -1.9441598958627226e-05 -0.0054616148899582408 0 0.00079663361702944874 -0.0049124632308078856 0 0.00079749655734281011 -0.0049112750069831065 0 0.00080123874398308024 -0.0049066867909100713 0 -0.0010009740625721265 -0.0060046150026034249 0 -0.0010758977251382475 -0.0060711481073847913 0 -0.00090144167223297025 -0.0061843451023464533 0 0.00082833304714794928 -0.0048931614252197969 0 0.00082369094864784493 -0.0048857185931773222 0 0.00080123874398308024 -0.0049066867909100713 0 0.00033394594508955608 -0.0051097845085317384 0 0.00082868311733014547 -0.0049476381045788212 0 -0.0015145602377229039 -0.0041484019659926569 0 -0.00309267526006036 -0.0088469941729661244 0 -0.0010009740625721265 -0.0060046150026034249 0 -0.00090144167223297025 -0.0061843451023464533 0 -0.00079353169906695958 -0.0061187338310672457 0 0.00092497815838885294 -0.0048160852724829315 0 0.00079876694320548476 -0.0047060735940491569 0 0.00072713668058909959 -0.0047602249539983018 0 0.00092641743648956641 -0.0047898842485028549 0 0.00089823460321655866 -0.0047683684046074849 0 0.0011301780492381803 -0.0047707050759155691 0 -0.00019665913674418224 -0.0046704908460337112 0 0.00096230816089635813 -0.004787678668015799 0 0.00092497815838885294 -0.0048160852724829315 0 0.00079876694320548476 -0.0047060735940491569 0 0.00096230816089635813 -0.004787678668015799 0 0.00089398085460800562 -0.0048682169733986697 0 0.00092427250792978294 -0.0048367536183119252 0 0.00089398085460800562 -0.0048682169733986697 0 0.00092427250792978294 -0.0048367536183119252 0 0.00089833370766579529 -0.0048537335331246328 0 0.00094268402499086219 -0.0048169153715314876 0 0.00092988898603042606 -0.0048316417725804608 0 0.00092427250792978294 -0.0048367536183119252 0 0.00033394594508955608 -0.0051097845085317384 0 0.00089823460321655866 -0.0047683684046074849 0 0.00059724341443274747 -0.0046270363973343149 0 0.00079876694320548476 -0.0047060735940491569 0 0.00072713668058909959 -0.0047602249539983018 0 0.00033394594508955608 -0.0051097845085317384 0 -0.00019665913674418224 -0.0046704908460337112 0 0.00082833304714794928 -0.0048931614252197969 0 0.00089398085460800562 -0.0048682169733986697 0 0.00086149799474266261 -0.0048720812165765617 0 0.00089398085460800562 -0.0048682169733986697 0 0.00086149799474266261 -0.0048720812165765617 0 0.00089833370766579529 -0.0048537335331246328 0 0.00086149799474266261 -0.0048720812165765617 0 0.00086447510184937504 -0.0048640439692839467 0 0.00082369094864784493 -0.0048857185931773222 0 0.00082833304714794928 -0.0048931614252197969 0 0.00086149799474266261 -0.0048720812165765617 0 0.00082369094864784493 -0.0048857185931773222 0 0.00086149799474266261 -0.0048720812165765617 0 0.00089833370766579529 -0.0048537335331246328 0 0.00086447510184937504 -0.0048640439692839467 0 0.00089833370766579529 -0.0048537335331246328 0 0.00091005518311799028 -0.0048457134051137331 0 0.00086447510184937504 -0.0048640439692839467 0 0.00092988898603042606 -0.0048316417725804608 0 0.00092427250792978294 -0.0048367536183119252 0 0.00089833370766579529 -0.0048537335331246328 0 0.00092988898603042606 -0.0048316417725804608 0 0.00089833370766579529 -0.0048537335331246328 0 0.00091005518311799028 -0.0048457134051137331 0 0.00091005518311799028 -0.0048457134051137331 0 0.00088307796739585192 -0.0048434796931598068 0 0.00086447510184937504 -0.0048640439692839467 0 0.00092031505612638381 -0.0048403309959578417 0 0.00091005518311799028 -0.0048457134051137331 0 0.00088307796739585192 -0.0048434796931598068 0 0.00089479163199292124 -0.0047925391510328765 0 0.00088307796739585192 -0.0048434796931598068 0 0.0008381062167818708 -0.00482120777986976 0 0.00081073988218748993 -0.0048777249504475782 0 0.00076550826332810501 -0.0048275694509265664 0 0.0008381062167818708 -0.00482120777986976 0 0.00088307796739585192 -0.0048434796931598068 0 0.00081073988218748993 -0.0048777249504475782 0 0.0008381062167818708 -0.00482120777986976 0 0.00088307796739585192 -0.0048434796931598068 0 0.00081073988218748993 -0.0048777249504475782 0 0.00086447510184937504 -0.0048640439692839467 0 0.00081073988218748993 -0.0048777249504475782 0 0.00086447510184937504 -0.0048640439692839467 0 0.00082369094864784493 -0.0048857185931773222 0 0.00082369094864784493 -0.0048857185931773222 0 0.00080123874398308024 -0.0049066867909100713 0 0.00080090715573149845 -0.0049072193224936932 0 0.00081073988218748993 -0.0048777249504475782 0 0.00082369094864784493 -0.0048857185931773222 0 0.00080090715573149845 -0.0049072193224936932 0 -1.9441598958627226e-05 -0.0054616148899582408 0 -0.0013462368124537345 -0.0082049937952775442 0 0.00079749655734281011 -0.0049112750069831065 0 0.00080012452263836015 -0.0049249916275835425 0 0.00081302744494380491 -0.0049353195552604675 0 0.00079749655734281011 -0.0049112750069831065 0 0.00080123874398308024 -0.0049066867909100713 0 0.00080012452263836015 -0.0049249916275835425 0 0.00080123874398308024 -0.0049066867909100713 0 0.00080090715573149845 -0.0049072193224936932 0 0.00080012452263836015 -0.0049249916275835425 0 0.00075059972377569206 -0.0049225008677603365 0 0.0007504574785226867 -0.0047387759736314998 0 0.00079246214773034929 -0.0049419793993583216 0 0.00081240771980573868 -0.0050143935944630099 0 0.00080941552040438816 -0.0049578480799647578 0 0.00080012452263836015 -0.0049249916275835425 0 0.00079246214773034929 -0.0049419793993583216 0 0.00080941552040438816 -0.0049578480799647578 0 0.00080090715573149845 -0.0049072193224936932 0 0.00080012452263836015 -0.0049249916275835425 0 0.00079246214773034929 -0.0049419793993583216 0 0.00081073988218748993 -0.0048777249504475782 0 0.00069653355559979192 -0.0048722089610274567 0 0.00076550826332810501 -0.0048275694509265664 0 0.00081073988218748993 -0.0048777249504475782 0 0.00080090715573149845 -0.0049072193224936932 0 0.00079246214773034929 -0.0049419793993583216 0 0.00080030238227671768 -0.0048855618627416716 0 0.00075059972377569206 -0.0049225008677603365 0 0.00069653355559979192 -0.0048722089610274567 0 0.00076550826332810501 -0.0048275694509265664 0 0.00067608414092371137 -0.0048101225504541241 0 0.00073174899038251618 -0.0047822917502722594 0 0.00076550826332810501 -0.0048275694509265664 0 0.00080820299897852354 -0.0047560887099939858 0 0.00073174899038251618 -0.0047822917502722594 0 0.00076550826332810501 -0.0048275694509265664 0 0.00067608414092371137 -0.0048101225504541241 0 0.00069653355559979192 -0.0048722089610274567 0 0.00067608414092371137 -0.0048101225504541241 0 0.00059646300180072915 -0.004856654278472248 0 0.00067608414092371137 -0.0048101225504541241 0 0.00067319350536301705 -0.004731329464691761 0 0.00059525520900265702 -0.004791315387707008 0 0.00073174899038251618 -0.0047822917502722594 0 0.00067608414092371137 -0.0048101225504541241 0 0.00067319350536301705 -0.004731329464691761 0 0.00073174899038251618 -0.0047822917502722594 0 0.00067319350536301705 -0.004731329464691761 0 0.00080820299897852354 -0.0047560887099939858 0 -0.0011907268571190997 -0.002743436272506027 0 -0.0012551674529472246 -0.0028655737078385969 0 -0.0009078966192714857 -0.002941944430176314 0 -0.00028378109627824166 -0.0038558929508486265 0 -5.8113650513556885e-05 -0.0038356743648484534 0 -0.0011907268571190997 -0.002743436272506027 0 -0.0009078966192714857 -0.002941944430176314 0 -0.00072994856059630084 -0.0026690554447110922 0 -0.00020404881936415191 -0.0031192573897193703 0 -0.0009078966192714857 -0.002941944430176314 0 -0.00036469814638182148 -0.0027302373183610293 0 -0.0009078966192714857 -0.002941944430176314 0 -0.00072994856059630084 -0.0026690554447110922 0 -0.00036469814638182148 -0.0027302373183610293 0 0.00036961232888485583 -0.0039867070708236091 0 -5.8113650513556885e-05 -0.0038356743648484534 0 0.00089479163199292124 -0.0047925391510328765 0 0.00080820299897852354 -0.0047560887099939858 0 0.0008381062167818708 -0.00482120777986976 0 0.00076550826332810501 -0.0048275694509265664 0 0.00080820299897852354 -0.0047560887099939858 0 0.0008381062167818708 -0.00482120777986976 0 -0.0047074518025044245 -0.017707519993933944 0 -0.0045923820535942548 -0.017487326218272089 0 -0.0048866457100136184 -0.01731592412611262 0 -0.0015802693599241849 -0.011077060027184841 0 -0.0017232696383188443 -0.011069457308696838 0 -0.0017201323170911061 -0.010723229665049652 0 -0.0017232696383188443 -0.011069457308696838 0 -0.0018386090210687064 -0.011010790882772861 0 -0.0017201323170911061 -0.010723229665049652 0 -0.0023404837848252339 -0.013106626733158398 0 -0.0032568287568184376 -0.01419721634439527 0 -0.0047074518025044245 -0.017707519993933944 0 -0.0045923820535942548 -0.017487326218272089 0 -0.0044717423536961192 -0.017719650361746525 0 -0.0023404837848252339 -0.013106626733158398 0 -0.0036939450738243161 -0.016078370217426894 0 -0.0023404837848252339 -0.013106626733158398 0 -0.0010450694638614658 -0.0098545282378841494 0 -0.0043381164593620167 -0.018071743208942115 0 -0.0036939450738243161 -0.016078370217426894 0 -0.0045923820535942548 -0.017487326218272089 0 -0.0043532985757758162 -0.017468412288313421 0 -0.0044717423536961192 -0.017719650361746525 0 -0.0045923820535942548 -0.017487326218272089 0 -0.0043532985757758162 -0.017468412288313421 0 -0.0044473892011427903 -0.017321896500031884 0 -0.0040308879386330978 -0.017494906220715877 0 -0.0043532985757758162 -0.017468412288313421 0 -0.0044717423536961192 -0.017719650361746525 0 -0.0040308879386330978 -0.017494906220715877 0 -0.0043532985757758162 -0.017468412288313421 0 -0.0042170937052127344 -0.017297331774821758 0 -0.0036939450738243161 -0.016078370217426894 0 -0.0019990889053965104 -0.013402541006877863 0 -0.0018845896708716975 -0.014450072820699267 0 -0.0021117259116311105 -0.014303600440160017 0 -0.0020590179373568061 -0.014430449231506002 0 -0.0021117259116311105 -0.014303600440160017 0 -0.0020590179373568061 -0.014430449231506002 0 -0.002211094293234434 -0.014364286134192114 0 -0.0021323178928283298 -0.014573299586741553 0 -0.0020590179373568061 -0.014430449231506002 0 -0.0022041544432308603 -0.014350367554738891 0 -0.0019444100453520148 -0.014167289880487453 0 -0.0019990889053965104 -0.013402541006877863 0 -0.0018845896708716975 -0.014450072820699267 0 -0.0019930757839617874 -0.014584813098834642 0 -0.0020590179373568061 -0.014430449231506002 0 -0.00084128225410268545 -0.0094268930759007722 0 -0.00073786180429125429 -0.0094525195067326692 0 -0.00078742254748168593 -0.0095727999297441965 0 -0.00073786180429125429 -0.0094525195067326692 0 -0.00071050243732770292 -0.0095997689896393165 0 -0.00067110373967798698 -0.0095963050163903104 0 -0.00073786180429125429 -0.0094525195067326692 0 -0.00071050243732770292 -0.0095997689896393165 0 -0.00078742254748168593 -0.0095727999297441965 0 -0.0014356522022943156 -0.012140754384207666 0 -0.0020189977700142839 -0.01256005800404077 0 -0.00013119766462526075 -0.0071073679751359961 0 -0.00031905589001899438 -0.007949272865685331 0 -0.0021323178928283298 -0.014573299586741553 0 -0.0022041544432308603 -0.014350367554738891 0 -0.0022293679122950202 -0.014337852473980218 0 -0.0022236159626676352 -0.014398928735055933 0 -0.0032995845072401656 -0.014409157755019959 0 -0.0025632982912951394 -0.013918681137686829 0 -0.0023404837848252339 -0.013106626733158398 0 -0.0020189977700142839 -0.01256005800404077 0 -0.0022236159626676352 -0.014398928735055933 0 -0.0025632982912951394 -0.013918681137686829 0 -0.0023843493547729606 -0.013998821877330503 0 -0.0019990889053965104 -0.013402541006877863 0 -0.0020189977700142839 -0.01256005800404077 0 -0.0015175260730827327 -0.011390298978158233 0 -0.0017018421045106829 -0.011383355877756768 0 -0.0014766990068609705 -0.011495872718981575 0 -0.0010450694638614658 -0.0098545282378841494 0 -0.0020189977700142839 -0.01256005800404077 0 0.00054271624887077246 -0.0047311726551337403 0 0.00051576486571580204 -0.0047940650783938141 0 0.00054459669875225295 -0.0047976337603106416 0 0.00047366360237656354 -0.0047777595658309441 0 0.00051576486571580204 -0.0047940650783938141 0 0.00050158653881500416 -0.0048364621515259651 0 0.00051576486571580204 -0.0047940650783938141 0 0.00054459669875225295 -0.0047976337603106416 0 0.00051307082268281881 -0.0048337540320586977 0 0.00054459669875225295 -0.0047976337603106416 0 0.00051307082268281881 -0.0048337540320586977 0 0.00055124457249286257 -0.0048251409719746495 0 0.00051576486571580204 -0.0047940650783938141 0 0.00050158653881500416 -0.0048364621515259651 0 0.00051307082268281881 -0.0048337540320586977 0 0.00054271624887077246 -0.0047311726551337403 0 0.00067319350536301705 -0.004731329464691761 0 0.00059525520900265702 -0.004791315387707008 0 0.00054271624887077246 -0.0047311726551337403 0 0.00054459669875225295 -0.0047976337603106416 0 0.00059525520900265702 -0.004791315387707008 0 0.00054459669875225295 -0.0047976337603106416 0 0.00059525520900265702 -0.004791315387707008 0 0.00055124457249286257 -0.0048251409719746495 0 0.00059525520900265702 -0.004791315387707008 0 0.00059646300180072915 -0.004856654278472248 0 0.00055124457249286257 -0.0048251409719746495 0 0.00067608414092371137 -0.0048101225504541241 0 0.00059525520900265702 -0.004791315387707008 0 0.00059646300180072915 -0.004856654278472248 0 0.00059646300180072915 -0.004856654278472248 0 0.00050561213917820912 -0.0048469611244992732 0 0.00055124457249286257 -0.0048251409719746495 0 0.0007504574785226867 -0.0047387759736314998 0 -0.000296869774887403 -0.0076392194240169084 0 0.00081240771980573868 -0.0050143935944630099 0 0.00087452115621658823 -0.0050884084389874922 0 0.0008442943283372904 -0.004987474143402529 0 -0.0018386090210687064 -0.011010790882772861 0 -0.0020365164902305657 -0.010598323002175765 0 -0.0017201323170911061 -0.010723229665049652 0 -0.000296869774887403 -0.0076392194240169084 0 -0.00056601172813225441 -0.0077737892096953597 0 0.00050561213917820912 -0.0048469611244992732 0 0.00051307082268281881 -0.0048337540320586977 0 0.00055124457249286257 -0.0048251409719746495 0 -0.0010450694638614658 -0.0098545282378841494 0 -0.00031905589001899438 -0.007949272865685331 0 -0.000296869774887403 -0.0076392194240169084 0 -0.00031905589001899438 -0.007949272865685331 0 -0.00057284253044074271 -0.0087822000779794653 0 -0.00069797806129626866 -0.0087191979713882196 0 -0.00067098780928331739 -0.0087785104143686486 0 -0.0010450694638614658 -0.0098545282378841494 0 -0.000296869774887403 -0.0076392194240169084 0 -0.00031905589001899438 -0.007949272865685331 0 -9.4572079964781299e-05 -0.0077054148262036609 0 0.00050561213917820912 -0.0048469611244992732 0 0.000499629511642271 -0.004838738908297965 0 0.00051307082268281881 -0.0048337540320586977 0 -0.005005603904659409 -0.016921933567538381 0 -0.0050649682338819299 -0.01689272371712619 0 -0.0048866457100136184 -0.01731592412611262 0 -0.0035327154431088717 -0.013481639626900724 0 -0.0032568287568184376 -0.01419721634439527 0 -0.0020365164902305657 -0.010598323002175765 0 -0.0018617091910599138 -0.010359602400636055 0 -0.0017201323170911061 -0.010723229665049652 0 0.0008442943283372904 -0.004987474143402529 0 0.00080941552040438816 -0.0049578480799647578 0 0.00081302744494380491 -0.0049353195552604675 0 0.00081240771980573868 -0.0050143935944630099 0 0.0008442943283372904 -0.004987474143402529 0 0.00080941552040438816 -0.0049578480799647578 0 -0.00056601172813225441 -0.0077737892096953597 0 -0.0013462368124537345 -0.0082049937952775442 0 0.00080012452263836015 -0.0049249916275835425 0 0.00080941552040438816 -0.0049578480799647578 0 0.00081302744494380491 -0.0049353195552604675 0 -0.0035327154431088717 -0.013481639626900724 0 -0.0051121367133474043 -0.015132838919567151 0 -0.0049761688443704993 -0.016761523038478526 0 -0.0048225345294212255 -0.016662802690302975 0 -0.0052286179056364197 -0.016488805142573532 0 -0.0050665541221740409 -0.016894471967425398 0 -0.0049761688443704993 -0.016761523038478526 0 -0.0052286179056364197 -0.016488805142573532 0 -0.0035211692236306932 -0.011630480120544294 0 -0.0026857991053292245 -0.012021199611991686 0 -0.0029853864855063721 -0.01126391027617534 0 -0.0013462368124537345 -0.0082049937952775442 0 -0.0035327154431088717 -0.013481639626900724 0 -0.0020365164902305657 -0.010598323002175765 0 -0.0022337438903989632 -0.010170354200025138 0 -0.0018617091910599138 -0.010359602400636055 0 -0.005005603904659409 -0.016921933567538381 0 -0.0050665541221740409 -0.016894471967425398 0 -0.0049761688443704993 -0.016761523038478526 0 -0.0036313494087578538 -0.01371216420887785 0 -0.0035327154431088717 -0.013481639626900724 0 -0.0049761688443704993 -0.016761523038478526 0 -0.0048225345294212255 -0.016662802690302975 0 -0.0047985992815468091 -0.016877752395408226 0 -0.0049346142977506535 -0.016635132752417802 0 -0.0045172968902129898 -0.016803411557647415 0 -0.0048225345294212255 -0.016662802690302975 0 -0.0047985992815468091 -0.016877752395408226 0 -0.0044555562241692572 -0.016833722555151601 0 -0.0050878346188818818 -0.016590204139527887 0 -0.0044555562241692572 -0.016833722555151601 0 -0.0046547840181501302 -0.016234198813588407 0 -0.0047985992815468091 -0.016877752395408226 0 -0.0046974992658320091 -0.01706309555628226 0 -0.0044555562241692572 -0.016833722555151601 0 -0.005005603904659409 -0.016921933567538381 0 -0.0049761688443704993 -0.016761523038478526 0 -0.0047985992815468091 -0.016877752395408226 0 -0.005005603904659409 -0.016921933567538381 0 -0.0047985992815468091 -0.016877752395408226 0 -0.0048122226203285989 -0.017094135619430975 0 -0.005005603904659409 -0.016921933567538381 0 -0.0048122226203285989 -0.017094135619430975 0 -0.0048866457100136184 -0.01731592412611262 0 -0.0047985992815468091 -0.016877752395408226 0 -0.0048122226203285989 -0.017094135619430975 0 -0.0046974992658320091 -0.01706309555628226 0 -0.0046974992658320091 -0.01706309555628226 0 -0.0046479125374350675 -0.017233171089738424 0 -0.004454829040934331 -0.017111651208704982 0 -0.0048122226203285989 -0.017094135619430975 0 -0.0046974992658320091 -0.01706309555628226 0 -0.0046479125374350675 -0.017233171089738424 0 -0.0045923820535942548 -0.017487326218272089 0 -0.0046479125374350675 -0.017233171089738424 0 -0.0048866457100136184 -0.01731592412611262 0 -0.0048122226203285989 -0.017094135619430975 0 -0.0046479125374350675 -0.017233171089738424 0 -0.0048866457100136184 -0.01731592412611262 0 -0.0042170937052127344 -0.017297331774821758 0 -0.0044473892011427903 -0.017321896500031884 0 -0.004454829040934331 -0.017111651208704982 0 -0.0043532985757758162 -0.017468412288313421 0 -0.0042170937052127344 -0.017297331774821758 0 -0.0044473892011427903 -0.017321896500031884 0 -0.0046479125374350675 -0.017233171089738424 0 -0.0044473892011427903 -0.017321896500031884 0 -0.004454829040934331 -0.017111651208704982 0 -0.0045923820535942548 -0.017487326218272089 0 -0.0046479125374350675 -0.017233171089738424 0 -0.0044473892011427903 -0.017321896500031884 0 -0.0041234703493809033 -0.017060154309069882 0 -0.0042170937052127344 -0.017297331774821758 0 -0.004454829040934331 -0.017111651208704982 0 -0.0041234703493809033 -0.017060154309069882 0 -0.004454829040934331 -0.017111651208704982 0 -0.0044555562241692572 -0.016833722555151601 0 -0.0040602130907090445 -0.016772471161627948 0 -0.004181384563242299 -0.016314890321633781 0 -0.0044555562241692572 -0.016833722555151601 0 -0.0041234703493809033 -0.017060154309069882 0 -0.0040602130907090445 -0.016772471161627948 0 -0.0044555562241692572 -0.016833722555151601 0 -0.0046974992658320091 -0.01706309555628226 0 -0.004454829040934331 -0.017111651208704982 0 -0.0044555562241692572 -0.016833722555151601 0 -0.004181384563242299 -0.016314890321633781 0 -0.0044555562241692572 -0.016833722555151601 0 -0.0046547840181501302 -0.016234198813588407 0 -0.0050878346188818818 -0.016590204139527887 0 -0.0046547840181501302 -0.016234198813588407 0 -0.0052330855673004611 -0.016027124375884431 0 -0.0050878346188818818 -0.016590204139527887 0 -0.0052330855673004611 -0.016027124375884431 0 -0.0055387290268818137 -0.016135876345906606 0 -0.0046547840181501302 -0.016234198813588407 0 -0.0052330855673004611 -0.016027124375884431 0 -0.0049836227133539272 -0.015808315444534499 0 -0.0049836227133539272 -0.015808315444534499 0 -0.0052764454210456639 -0.015536082345205595 0 -0.004764514225578457 -0.015391506357053145 0 -0.0046547840181501302 -0.016234198813588407 0 -0.0049836227133539272 -0.015808315444534499 0 -0.004764514225578457 -0.015391506357053145 0 -0.0052330855673004611 -0.016027124375884431 0 -0.0049836227133539272 -0.015808315444534499 0 -0.0052764454210456639 -0.015536082345205595 0 -0.0052764454210456639 -0.015536082345205595 0 -0.004764514225578457 -0.015391506357053145 0 -0.0052095007390294112 -0.015151444873057694 0 -0.004181384563242299 -0.016314890321633781 0 -0.0046547840181501302 -0.016234198813588407 0 -0.0042406714250432277 -0.015710887180845661 0 -0.0046399565466807222 -0.016198436249422035 0 -0.0042255898711412877 -0.015431432953983887 0 -0.0046547840181501302 -0.016234198813588407 0 -0.004764514225578457 -0.015391506357053145 0 -0.0041831985719552444 -0.015103713317625361 0 -0.0064432861104709513 -0.015890708147552425 0 -0.0057888002362299785 -0.016155536764241443 0 -0.0057561915576958382 -0.0162419111360032 0 -0.0035211692236306932 -0.011630480120544294 0 -0.0038583812624768863 -0.010913427361979719 0 -0.0029853864855063721 -0.01126391027617534 0 -0.00090144167223297025 -0.0061843451023464533 0 -0.00071661250748299783 -0.0062993159110338835 0 -0.00079353169906695958 -0.0061187338310672457 0 -0.0064432861104709513 -0.015890708147552425 0 -0.0059777935126081134 -0.015804029707428079 0 -0.0057888002362299785 -0.016155536764241443 0 -0.00309267526006036 -0.0088469941729661244 0 -0.0051121367133474043 -0.015132838919567151 0 -0.0013462368124537345 -0.0082049937952775442 0 -0.00309267526006036 -0.0088469941729661244 0 -0.0049346142977506535 -0.016635132752417802 0 -0.0051121367133474043 -0.015132838919567151 0 -0.0050878346188818818 -0.016590204139527887 0 -0.0057585442168781526 -0.016259067293435271 0 -0.0055387290268818137 -0.016135876345906606 0 -0.0057888002362299785 -0.016155536764241443 0 -0.0055387290268818137 -0.016135876345906606 0 -0.0056478226933723086 -0.015748925029123978 0 -0.0059777935126081134 -0.015804029707428079 0 -0.0057888002362299785 -0.016155536764241443 0 -0.0056478226933723086 -0.015748925029123978 0 -0.0057888002362299785 -0.016155536764241443 0 -0.0057585442168781526 -0.016259067293435271 0 -0.0055387290268818137 -0.016135876345906606 0 -0.0051094212563349197 -0.015284396678368001 0 -0.0051121367133474043 -0.015132838919567151 0 -0.0052330855673004611 -0.016027124375884431 0 -0.0055387290268818137 -0.016135876345906606 0 -0.0056478226933723086 -0.015748925029123978 0 -0.0052764454210456639 -0.015536082345205595 0 -0.0056307078744545266 -0.01518098915598144 0 -0.0056478226933723086 -0.015748925029123978 0 -0.0052330855673004611 -0.016027124375884431 0 -0.0052764454210456639 -0.015536082345205595 0 -0.0056478226933723086 -0.015748925029123978 0 -0.0052764454210456639 -0.015536082345205595 0 -0.0056307078744545266 -0.01518098915598144 0 -0.0052095007390294112 -0.015151444873057694 0 -0.0056307078744545266 -0.01518098915598144 0 -0.0056478226933723086 -0.015748925029123978 0 -0.0060267388273750576 -0.015422145817655971 0 -0.0059777935126081134 -0.015804029707428079 0 -0.0056478226933723086 -0.015748925029123978 0 -0.0060267388273750576 -0.015422145817655971 0 -0.0068719234730377169 -0.01485416822544491 0 -0.0064432861104709513 -0.015890708147552425 0 -0.0060267388273750576 -0.015422145817655971 0 -0.0064432861104709513 -0.015890708147552425 0 -0.0059777935126081134 -0.015804029707428079 0 -0.0060267388273750576 -0.015422145817655971 0 -0.0056307078744545266 -0.01518098915598144 0 -0.0060267388273750576 -0.015422145817655971 0 -0.006118915500004876 -0.014682129990832744 0 -0.0068719234730377169 -0.01485416822544491 0 -0.0060267388273750576 -0.015422145817655971 0 -0.006118915500004876 -0.014682129990832744 0 -0.0056307078744545266 -0.01518098915598144 0 -0.006118915500004876 -0.014682129990832744 0 -0.0054880452759375146 -0.014742518946843548 0 -0.0056307078744545266 -0.01518098915598144 0 -0.0054880452759375146 -0.014742518946843548 0 -0.0052095007390294112 -0.015151444873057694 0 -0.0057720954064206615 -0.01418364034113123 0 -0.0052292000316575254 -0.01426909280306215 0 -0.0054514786039304751 -0.013674908171445914 0 -0.006118915500004876 -0.014682129990832744 0 -0.0054880452759375146 -0.014742518946843548 0 -0.0057720954064206615 -0.01418364034113123 0 -0.0054880452759375146 -0.014742518946843548 0 -0.0057720954064206615 -0.01418364034113123 0 -0.0052292000316575254 -0.01426909280306215 0 -0.006118915500004876 -0.014682129990832744 0 -0.0057720954064206615 -0.01418364034113123 0 -0.0062692138665456053 -0.014051680334123793 0 -0.0067090473651736813 -0.014310252191688941 0 -0.006118915500004876 -0.014682129990832744 0 -0.0062692138665456053 -0.014051680334123793 0 -0.0044826643037675779 -0.014794951439151856 0 -0.0048751170942215264 -0.014924145751787854 0 -0.0046388000269150485 -0.014333794875583457 0 -0.0044826643037675779 -0.014794951439151856 0 -0.0041831985719552444 -0.015103713317625361 0 -0.0042714424772713269 -0.01448187970074916 0 -0.004764514225578457 -0.015391506357053145 0 -0.0044826643037675779 -0.014794951439151856 0 -0.0048751170942215264 -0.014924145751787854 0 -0.004764514225578457 -0.015391506357053145 0 -0.0044826643037675779 -0.014794951439151856 0 -0.0041831985719552444 -0.015103713317625361 0 -0.0054880452759375146 -0.014742518946843548 0 -0.0048751170942215264 -0.014924145751787854 0 -0.0052292000316575254 -0.01426909280306215 0 -0.004764514225578457 -0.015391506357053145 0 -0.0048751170942215264 -0.014924145751787854 0 -0.0052095007390294112 -0.015151444873057694 0 -0.0054880452759375146 -0.014742518946843548 0 -0.0048751170942215264 -0.014924145751787854 0 -0.0052095007390294112 -0.015151444873057694 0 -0.0048751170942215264 -0.014924145751787854 0 -0.0052292000316575254 -0.01426909280306215 0 -0.0046388000269150485 -0.014333794875583457 0 -0.0052292000316575254 -0.01426909280306215 0 -0.0046388000269150485 -0.014333794875583457 0 -0.0047795601170837355 -0.013605087483519594 0 -0.0044826643037675779 -0.014794951439151856 0 -0.0046388000269150485 -0.014333794875583457 0 -0.0042714424772713269 -0.01448187970074916 0 -0.0046388000269150485 -0.014333794875583457 0 -0.0042714424772713269 -0.01448187970074916 0 -0.0042704936063903227 -0.013965997389773202 0 -0.0042704936063903227 -0.013965997389773202 0 -0.0047795601170837355 -0.013605087483519594 0 -0.004228029942394268 -0.013414846794716507 0 -0.0046388000269150485 -0.014333794875583457 0 -0.0042704936063903227 -0.013965997389773202 0 -0.0047795601170837355 -0.013605087483519594 0 -0.0052292000316575254 -0.01426909280306215 0 -0.0047795601170837355 -0.013605087483519594 0 -0.0054514786039304751 -0.013674908171445914 0 -0.0047795601170837355 -0.013605087483519594 0 -0.0050494469066263469 -0.012950348807566372 0 -0.0054514786039304751 -0.013674908171445914 0 -0.0045952759699304105 -0.013048581188524063 0 -0.004228029942394268 -0.013414846794716507 0 -0.0041319809269603968 -0.012671554055801953 0 -0.0047795601170837355 -0.013605087483519594 0 -0.0050494469066263469 -0.012950348807566372 0 -0.0045952759699304105 -0.013048581188524063 0 -0.0047795601170837355 -0.013605087483519594 0 -0.0045952759699304105 -0.013048581188524063 0 -0.004228029942394268 -0.013414846794716507 0 -0.0062692138665456053 -0.014051680334123793 0 -0.0060543716520630366 -0.013612622705569684 0 -0.0065886361126671336 -0.013300349995862361 0 -0.0057720954064206615 -0.01418364034113123 0 -0.0062692138665456053 -0.014051680334123793 0 -0.0060543716520630366 -0.013612622705569684 0 -0.0057720954064206615 -0.01418364034113123 0 -0.0060543716520630366 -0.013612622705569684 0 -0.0054514786039304751 -0.013674908171445914 0 -0.0060543716520630366 -0.013612622705569684 0 -0.0054514786039304751 -0.013674908171445914 0 -0.0057233180448840563 -0.013128894422280062 0 -0.0050494469066263469 -0.012950348807566372 0 -0.0054514786039304751 -0.013674908171445914 0 -0.0057233180448840563 -0.013128894422280062 0 -0.0054117889811438327 -0.010719901654010083 0 -0.0052367780015792577 -0.010039399735834644 0 -0.0057233180448840563 -0.013128894422280062 0 -0.0060445200996917031 -0.012525713075900382 0 -0.0065886361126671336 -0.013300349995862361 0 -0.0060543716520630366 -0.013612622705569684 0 -0.0057233180448840563 -0.013128894422280062 0 -0.0065886361126671336 -0.013300349995862361 0 -0.0057233180448840563 -0.013128894422280062 0 -0.0060445200996917031 -0.012525713075900382 0 -0.0052074362079896335 -0.012343029530685445 0 -0.0050494469066263469 -0.012950348807566372 0 -0.0057233180448840563 -0.013128894422280062 0 -0.0052074362079896335 -0.012343029530685445 0 -0.0054117889811438327 -0.010719901654010083 0 -0.0053790307356461012 -0.011369805827222763 0 -0.0049396885483782901 -0.0089573337021819077 0 -0.005333935651274645 -0.011481096444543194 0 -0.0050689054453874286 -0.011353300384178946 0 -0.0060445200996917031 -0.012525713075900382 0 -0.0052074362079896335 -0.012343029530685445 0 -0.005333935651274645 -0.011481096444543194 0 -0.0049396885483782901 -0.0089573337021819077 0 -0.0040126456866393084 -0.010114742782905318 0 -0.0031942655511304117 -0.008849708207643742 0 -0.0049396885483782901 -0.0089573337021819077 0 -0.0040126456866393084 -0.010114742782905318 0 -0.0050689054453874286 -0.011353300384178946 0 -0.0045952759699304105 -0.013048581188524063 0 -0.0047728134046513227 -0.012628141389050166 0 -0.0041319809269603968 -0.012671554055801953 0 -0.0047728134046513227 -0.012628141389050166 0 -0.0049115998672440535 -0.012271865006309651 0 -0.0041319809269603968 -0.012671554055801953 0 -0.0050494469066263469 -0.012950348807566372 0 -0.0045952759699304105 -0.013048581188524063 0 -0.0047728134046513227 -0.012628141389050166 0 -0.0050494469066263469 -0.012950348807566372 0 -0.0047728134046513227 -0.012628141389050166 0 -0.0052074362079896335 -0.012343029530685445 0 -0.0052074362079896335 -0.012343029530685445 0 -0.00518470890926422 -0.011909052591287 0 -0.005333935651274645 -0.011481096444543194 0 -0.0047728134046513227 -0.012628141389050166 0 -0.0052074362079896335 -0.012343029530685445 0 -0.0049115998672440535 -0.012271865006309651 0 -0.0052074362079896335 -0.012343029530685445 0 -0.00518470890926422 -0.011909052591287 0 -0.0049115998672440535 -0.012271865006309651 0 -0.0048578148594088568 -0.012348828355993442 0 -0.0040118051492098964 -0.013231206895598259 0 -0.0026203022248918362 -0.013220674957822686 0 -0.0016190311482091463 -0.013579088126790749 0 -0.0049115998672440535 -0.012271865006309651 0 -0.0052072935778741591 -0.011762752410574329 0 -0.0038123911512446965 -0.01231071508505144 0 -3.5967864188479935e-05 -0.014667458188165297 0 0.00036059045169014225 -0.014204689853039479 0 0.00062838266907508378 -0.014831715284600887 0 -3.5967864188479935e-05 -0.014667458188165297 0 -0.00030460751233511518 -0.014194755621374636 0 0.00036059045169014225 -0.014204689853039479 0 -0.00518470890926422 -0.011909052591287 0 -0.0049115998672440535 -0.012271865006309651 0 -0.0052072935778741591 -0.011762752410574329 0 -0.00518470890926422 -0.011909052591287 0 -0.0052072935778741591 -0.011762752410574329 0 -0.005333935651274645 -0.011481096444543194 0 -3.5967864188479935e-05 -0.014667458188165297 0 -0.00062079185416896363 -0.014502975532405288 0 -0.00030460751233511518 -0.014194755621374636 0 -0.0026203022248918362 -0.013220674957822686 0 -0.0028328775934721457 -0.012924665297099808 0 -0.0052072935778741591 -0.011762752410574329 0 -0.005333935651274645 -0.011481096444543194 0 -0.0050689054453874286 -0.011353300384178946 0 -0.0028328775934721457 -0.012924665297099808 0 -0.0019690663249668666 -0.012630333423043675 0 -0.0040126456866393084 -0.010114742782905318 0 -0.0050689054453874286 -0.011353300384178946 0 -0.0028960364291725732 -0.010910821325311333 0 -0.00062079185416896363 -0.014502975532405288 0 -0.00077616356700620107 -0.014081433935226234 0 -0.0010192668911081079 -0.01432313185022816 0 -0.00062079185416896363 -0.014502975532405288 0 -0.00030460751233511518 -0.014194755621374636 0 -0.00077616356700620107 -0.014081433935226234 0 -0.00030460751233511518 -0.014194755621374636 0 -0.00051308241762608908 -0.013774943798713867 0 -0.00077616356700620107 -0.014081433935226234 0 -0.00030460751233511518 -0.014194755621374636 0 -0.00051308241762608908 -0.013774943798713867 0 -3.5549629446013317e-06 -0.013776373527804179 0 -0.00051308241762608908 -0.013774943798713867 0 -0.00077616356700620107 -0.014081433935226234 0 -0.00099781247373992364 -0.013640713490984458 0 -0.00051308241762608908 -0.013774943798713867 0 -0.00099781247373992364 -0.013640713490984458 0 -0.00072905473431600929 -0.013333666517006165 0 -0.00051308241762608908 -0.013774943798713867 0 -0.00028380359415750331 -0.013212296696316144 0 -0.00072905473431600929 -0.013333666517006165 0 -0.00051308241762608908 -0.013774943798713867 0 -3.5549629446013317e-06 -0.013776373527804179 0 -0.00028380359415750331 -0.013212296696316144 0 -3.5549629446013317e-06 -0.013776373527804179 0 0.00024309064033718465 -0.013388516636244348 0 0.0007068608872898769 -0.013666606279787923 0 -3.5549629446013317e-06 -0.013776373527804179 0 0.00036059045169014225 -0.014204689853039479 0 0.0007068608872898769 -0.013666606279787923 0 -0.00030460751233511518 -0.014194755621374636 0 -3.5549629446013317e-06 -0.013776373527804179 0 0.00036059045169014225 -0.014204689853039479 0 -0.001942822026394771 -0.013448510368881832 0 -0.0015401029312440478 -0.01404960266558028 0 -0.0023380360705352278 -0.013990409096816666 0 -0.001942822026394771 -0.013448510368881832 0 -0.0023380360705352278 -0.013990409096816666 0 -0.0026431677202283007 -0.013285227379648856 0 -0.001942822026394771 -0.013448510368881832 0 -0.0026431677202283007 -0.013285227379648856 0 -0.0021003217681687921 -0.012923817276241091 0 -0.001942822026394771 -0.013448510368881832 0 -0.0014363225106768357 -0.013469002284208428 0 -0.0015825317058561002 -0.013000550271357271 0 -0.0014363225106768357 -0.013469002284208428 0 -0.00099781247373992364 -0.013640713490984458 0 -0.0011217888895615486 -0.013146842547926625 0 -0.00099781247373992364 -0.013640713490984458 0 -0.00072905473431600929 -0.013333666517006165 0 -0.0011217888895615486 -0.013146842547926625 0 -0.0014363225106768357 -0.013469002284208428 0 -0.00099781247373992364 -0.013640713490984458 0 -0.0015401029312440478 -0.01404960266558028 0 -0.00077616356700620107 -0.014081433935226234 0 -0.00099781247373992364 -0.013640713490984458 0 -0.0015401029312440478 -0.01404960266558028 0 -0.00079061973886291454 -0.014074336480983711 0 -0.0013257120232960109 -0.014084365386675082 0 -0.001942822026394771 -0.013448510368881832 0 -0.0014363225106768357 -0.013469002284208428 0 -0.0015401029312440478 -0.01404960266558028 0 -0.00077616356700620107 -0.014081433935226234 0 -0.0010934217048801896 -0.014097424916490455 0 -0.0010192668911081079 -0.01432313185022816 0 -0.0010934217048801896 -0.014097424916490455 0 -0.0010192668911081079 -0.01432313185022816 0 -0.0011709485368164372 -0.014158944016194623 0 -0.0028960364291725732 -0.010910821325311333 0 -0.00072636938439468496 -0.010621273324475954 0 -0.0017531192698668424 -0.0090949270784755828 0 -0.0019690663249668666 -0.012630333423043675 0 -0.00094305375487751413 -0.012344287119713157 0 -0.0013257120232960109 -0.014084365386675082 0 -0.0016793342399493314 -0.01395376803271412 0 -0.0010934217048801896 -0.014097424916490455 0 -0.0011709485368164372 -0.014158944016194623 0 -0.0011869137122105609 -0.014084513089366908 0 -0.00094305375487751413 -0.012344287119713157 0 0.00022233525328271001 -0.01269494554832613 0 -0.00072636938439468496 -0.010621273324475954 0 0.0005193095624530387 -0.0094170718888643909 0 0.0016066950568882001 -0.010545606009340142 0 -0.0011709485368164372 -0.014158944016194623 0 -0.0011869137122105609 -0.014084513089366908 0 -0.0011649383180115749 -0.014034527560431283 0 -0.00072636938439468496 -0.010621273324475954 0 0.0005193095624530387 -0.0094170718888643909 0 -0.00050076115456924549 -0.0089709101547692325 0 0.0005193095624530387 -0.0094170718888643909 0 -0.00050076115456924549 -0.0089709101547692325 0 0.00067940938539328441 -0.0082946839593172512 0 -0.00072636938439468496 -0.010621273324475954 0 -0.00050076115456924549 -0.0089709101547692325 0 -0.0017531192698668424 -0.0090949270784755828 0 -0.00050076115456924549 -0.0089709101547692325 0 -0.001059075991320684 -0.0076716087392128766 0 -0.0017531192698668424 -0.0090949270784755828 0 -0.00050076115456924549 -0.0089709101547692325 0 -0.001059075991320684 -0.0076716087392128766 0 -0.00010632804605118701 -0.0076213434792188946 0 -0.00010632804605118701 -0.0076213434792188946 0 0.00061902907634120473 -0.0071385600163880207 0 0.00067940938539328441 -0.0082946839593172512 0 -0.00050076115456924549 -0.0089709101547692325 0 -0.00010632804605118701 -0.0076213434792188946 0 0.00067940938539328441 -0.0082946839593172512 0 -0.0040126456866393084 -0.010114742782905318 0 -0.0028960364291725732 -0.010910821325311333 0 -0.0031942655511304117 -0.008849708207643742 0 -0.0028960364291725732 -0.010910821325311333 0 -0.0017531192698668424 -0.0090949270784755828 0 -0.0031942655511304117 -0.008849708207643742 0 -0.0017531192698668424 -0.0090949270784755828 0 -0.0031942655511304117 -0.008849708207643742 0 -0.0021099239340262063 -0.0074601942889488612 0 -0.001059075991320684 -0.0076716087392128766 0 -0.0017531192698668424 -0.0090949270784755828 0 -0.0021099239340262063 -0.0074601942889488612 0 -0.0049396885483782901 -0.0089573337021819077 0 -0.0031942655511304117 -0.008849708207643742 0 -0.0036460211396470159 -0.0066363554300785162 0 -0.0031942655511304117 -0.008849708207643742 0 -0.0036460211396470159 -0.0066363554300785162 0 -0.0021099239340262063 -0.0074601942889488612 0 -0.0036460211396470159 -0.0066363554300785162 0 -0.0021099239340262063 -0.0074601942889488612 0 -0.001999999861063576 -0.0061998364945942573 0 -0.0021099239340262063 -0.0074601942889488612 0 -0.001999999861063576 -0.0061998364945942573 0 -0.0012095102538648872 -0.0064468321226581575 0 -0.0021644617416162089 -0.0046670718693380756 0 -0.0036460211396470159 -0.0066363554300785162 0 -0.0019197043708134294 -0.0051627580591967637 0 -0.0036460211396470159 -0.0066363554300785162 0 -0.001999999861063576 -0.0061998364945942573 0 -0.0019197043708134294 -0.0051627580591967637 0 -0.001999999861063576 -0.0061998364945942573 0 -0.0012095102538648872 -0.0064468321226581575 0 -0.0013252851562148571 -0.0055296152332508881 0 -0.0014706580142407782 -0.0050559036802498205 0 -0.0019197043708134294 -0.0051627580591967637 0 -0.0013252851562148571 -0.0055296152332508881 0 -0.001999999861063576 -0.0061998364945942573 0 -0.0019197043708134294 -0.0051627580591967637 0 -0.0013252851562148571 -0.0055296152332508881 0 -0.0067090473651736813 -0.014310252191688941 0 -0.007175244093058474 -0.014095663917377448 0 -0.0065886361126671336 -0.013300349995862361 0 -0.0067090473651736813 -0.014310252191688941 0 -0.0062692138665456053 -0.014051680334123793 0 -0.0065886361126671336 -0.013300349995862361 0 -0.0039772833651407075 -0.0092156513427533084 0 -0.0052367780015792577 -0.010039399735834644 0 -6.5172558032572386e-05 -0.0063915107073838073 0 0.00053166524749874227 -0.0055386127519290018 0 0.0012622222886486388 -0.0056709684256045509 0 0.00061902907634120473 -0.0071385600163880207 0 -6.5172558032572386e-05 -0.0063915107073838073 0 0.0012622222886486388 -0.0056709684256045509 0 -0.00010632804605118701 -0.0076213434792188946 0 0.00061902907634120473 -0.0071385600163880207 0 -6.5172558032572386e-05 -0.0063915107073838073 0 -6.5172558032572386e-05 -0.0063915107073838073 0 -0.0012095102538648872 -0.0064468321226581575 0 -0.00075089404892084697 -0.0057076458412278659 0 -0.001059075991320684 -0.0076716087392128766 0 -0.00010632804605118701 -0.0076213434792188946 0 -6.5172558032572386e-05 -0.0063915107073838073 0 -0.001059075991320684 -0.0076716087392128766 0 -6.5172558032572386e-05 -0.0063915107073838073 0 -0.0012095102538648872 -0.0064468321226581575 0 -0.001059075991320684 -0.0076716087392128766 0 -0.0021099239340262063 -0.0074601942889488612 0 -0.0012095102538648872 -0.0064468321226581575 0 -0.0012095102538648872 -0.0064468321226581575 0 -0.00075089404892084697 -0.0057076458412278659 0 -0.0013252851562148571 -0.0055296152332508881 0 -0.0010608160796570652 -0.004966855042524451 0 -0.00075089404892084697 -0.0057076458412278659 0 -0.0013252851562148571 -0.0055296152332508881 0 -0.0010608160796570652 -0.004966855042524451 0 -0.0014706580142407782 -0.0050559036802498205 0 -0.0013252851562148571 -0.0055296152332508881 0 -0.00049374308886969897 -0.0049876515625604002 0 -0.0010608160796570652 -0.004966855042524451 0 -0.00075089404892084697 -0.0057076458412278659 0 -0.00049374308886969897 -0.0049876515625604002 0 -0.00075089404892084697 -0.0057076458412278659 0 -0.00013598046759464108 -0.0054089182981533852 0 0.0001399153283879088 -0.0049199571342714984 0 -0.00049374308886969897 -0.0049876515625604002 0 -0.00013598046759464108 -0.0054089182981533852 0 0.0011086122947404867 -0.005024914908248513 0 0.0001399153283879088 -0.0049199571342714984 0 0.00053166524749874227 -0.0055386127519290018 0 -6.5172558032572386e-05 -0.0063915107073838073 0 -0.00013598046759464108 -0.0054089182981533852 0 0.00053166524749874227 -0.0055386127519290018 0 -6.5172558032572386e-05 -0.0063915107073838073 0 -0.00075089404892084697 -0.0057076458412278659 0 -0.00013598046759464108 -0.0054089182981533852 0 0.0001399153283879088 -0.0049199571342714984 0 -0.00013598046759464108 -0.0054089182981533852 0 0.00053166524749874227 -0.0055386127519290018 0 0.0011086122947404867 -0.005024914908248513 0 0.00053166524749874227 -0.0055386127519290018 0 0.0012622222886486388 -0.0056709684256045509 0 0.0011086122947404867 -0.005024914908248513 0 0.0012622222886486388 -0.0056709684256045509 0 0.0012892779852693183 -0.0053160435615397413 0 0.00061902907634120473 -0.0071385600163880207 0 0.0012622222886486388 -0.0056709684256045509 0 0.0015993268950086055 -0.0078733223294735945 0 0.0012622222886486388 -0.0056709684256045509 0 0.0012892779852693183 -0.0053160435615397413 0 0.0013270536498044933 -0.0052096069530989586 0 0.0013611925744051257 -0.0051104742734203647 0 0.0014340478004035444 -0.0049059923604618787 0 0.001387220740357184 -0.0050808624010368819 0 0.0013611925744051257 -0.0051104742734203647 0 0.0013270536498044933 -0.0052096069530989586 0 0.0014340478004035444 -0.0049059923604618787 0 0.0013611925744051257 -0.0051104742734203647 0 0.0013270536498044933 -0.0052096069530989586 0 0.0013371067109433951 -0.0052108330531262445 0 0.0012622222886486388 -0.0056709684256045509 0 0.0013270536498044933 -0.0052096069530989586 0 0.0013371067109433951 -0.0052108330531262445 0 0.0012892779852693183 -0.0053160435615397413 0 0.0013270536498044933 -0.0052096069530989586 0 0.0013566308523692103 -0.0050713307474669683 0 0.0013566308523692103 -0.0050713307474669683 0 0.0014340478004035444 -0.0049059923604618787 0 0.0013370398074439647 -0.0047921940225540078 0 0.0013270536498044933 -0.0052096069530989586 0 0.0013566308523692103 -0.0050713307474669683 0 0.0014340478004035444 -0.0049059923604618787 0 0.0010708128590942855 -0.0049131260958814454 0 0.0013250370597299088 -0.0050726993371369 0 0.0011896267820722605 -0.004772822237753039 0 0.0010101201225722082 -0.0047836475535974156 0 0.0012824183676520319 -0.0048504862264758929 0 0.0011086122947404867 -0.005024914908248513 0 0.0012892779852693183 -0.0053160435615397413 0 0.0013566308523692103 -0.0050713307474669683 0 0.0010101201225722082 -0.0047836475535974156 0 0.0013566308523692103 -0.0050713307474669683 0 0.0012824183676520319 -0.0048504862264758929 0 0.0013566308523692103 -0.0050713307474669683 0 0.0012824183676520319 -0.0048504862264758929 0 0.0013370398074439647 -0.0047921940225540078 0 0.0011896267820722605 -0.004772822237753039 0 0.0012824183676520319 -0.0048504862264758929 0 0.0012272226349073316 -0.0047169507096113074 0 0.0013370398074439647 -0.0047921940225540078 0 0.0012272226349073316 -0.0047169507096113074 0 0.0012206173106827981 -0.0043580508419147953 0 0.0012824183676520319 -0.0048504862264758929 0 0.0013370398074439647 -0.0047921940225540078 0 0.0012272226349073316 -0.0047169507096113074 0 0.0010990854515117051 -0.0047376805027444001 0 0.0012272226349073316 -0.0047169507096113074 0 0.00081256949134832701 -0.0045388340019079532 0 0.0012272226349073316 -0.0047169507096113074 0 0.00081256949134832701 -0.0045388340019079532 0 0.0012206173106827981 -0.0043580508419147953 0 0.0012206173106827981 -0.0043580508419147953 0 0.0013241743797008162 -0.0035446727105644857 0 0.00049025337639189005 -0.0035838847342484978 0 0.00081256949134832701 -0.0045388340019079532 0 0.0012206173106827981 -0.0043580508419147953 0 0.00049025337639189005 -0.0035838847342484978 0 0.0014340478004035444 -0.0049059923604618787 0 0.0013370398074439647 -0.0047921940225540078 0 0.0012206173106827981 -0.0043580508419147953 0 0.001428711889681197 -0.0047776345046313985 0 0.0012812631320557293 -0.0042927931881694484 0 0.0014340478004035444 -0.0049059923604618787 0 0.0012206173106827981 -0.0043580508419147953 0 0.0013241743797008162 -0.0035446727105644857 0 0.0014340478004035444 -0.0049059923604618787 0 0.001387220740357184 -0.0050808624010368819 0 0.0013641786252549571 -0.0051121532891351225 0 0.001387220740357184 -0.0050808624010368819 0 0.0013641786252549571 -0.0051121532891351225 0 0.0013958017490035542 -0.0050472192790576237 0 0.001387220740357184 -0.0050808624010368819 0 0.0013958017490035542 -0.0050472192790576237 0 0.0013841432800258534 -0.0050982437259994772 0 0.0013641786252549571 -0.0051121532891351225 0 0.0013958017490035542 -0.0050472192790576237 0 0.0013913972935899364 -0.0049132141062584499 0 0.0013241743797008162 -0.0035446727105644857 0 0.00079101086675367846 -0.0025239644167784274 0 0.00049025337639189005 -0.0035838847342484978 0 0.0012812631320557293 -0.0042927931881694484 0 0.00096686024236933429 -0.0038923645480170481 0 0.0011555958451004418 -0.0049240248326895197 0 0.0013913972935899364 -0.0049132141062584499 0 0.0012448041795882704 -0.0047143514270859693 0 0.0017423437417330356 -0.0053454937112192794 0 0.0013932390776007742 -0.0050214163100699089 0 0.001687956562678959 -0.0056878502786530134 0 0.0013641786252549571 -0.0051121532891351225 0 0.0011555958451004418 -0.0049240248326895197 0 0.0013913972935899364 -0.0049132141062584499 0 0.0013958017490035542 -0.0050472192790576237 0 0.0013913972935899364 -0.0049132141062584499 0 0.001440231713609111 -0.0050395215960300074 0 0.0015772948454120374 -0.0051502320142563611 0 0.0014486538496183024 -0.0050356495403904144 0 0.0015772948454120374 -0.0051502320142563611 0 0.001829796020900336 -0.0047842671512983428 0 0.0022929586723320645 -0.0064988569929514423 0 0.0014852793279964043 -0.0092683395354793627 0 0.0017423437417330356 -0.0053454937112192794 0 0.001440231713609111 -0.0050395215960300074 0 0.0013932390776007742 -0.0050214163100699089 0 0.0027064037619071914 -0.0092239761064121257 0 0.0029070738810692024 -0.0083459450663036019 0 0.0040720640739857223 -0.010511057085449228 0 0.0027064037619071914 -0.0092239761064121257 0 0.0025346048840578848 -0.0098178937200140617 0 0.0040720640739857223 -0.010511057085449228 0 0.0027064037619071914 -0.0092239761064121257 0 0.0021764455538052833 -0.008584562520972944 0 0.0029070738810692024 -0.0083459450663036019 0 0.0027064037619071914 -0.0092239761064121257 0 0.0025346048840578848 -0.0098178937200140617 0 0.0016781268465530367 -0.009114322918229785 0 0.0025346048840578848 -0.0098178937200140617 0 0.0016781268465530367 -0.009114322918229785 0 0.0016066950568882001 -0.010545606009340142 0 0.0005193095624530387 -0.0094170718888643909 0 0.0016781268465530367 -0.009114322918229785 0 0.0016066950568882001 -0.010545606009340142 0 0.0005193095624530387 -0.0094170718888643909 0 0.00067940938539328441 -0.0082946839593172512 0 0.0016781268465530367 -0.009114322918229785 0 0.0027064037619071914 -0.0092239761064121257 0 0.0016781268465530367 -0.009114322918229785 0 0.0021764455538052833 -0.008584562520972944 0 0.0021764455538052833 -0.008584562520972944 0 0.0015993268950086055 -0.0078733223294735945 0 0.0029070738810692024 -0.0083459450663036019 0 0.0012806859008620114 -0.0057417448794088574 0 0.0022929586723320645 -0.0064988569929514423 0 0.0012622222886486388 -0.0056709684256045509 0 0.0015993268950086055 -0.0078733223294735945 0 0.0029070738810692024 -0.0083459450663036019 0 0.0016781268465530367 -0.009114322918229785 0 0.0021764455538052833 -0.008584562520972944 0 0.0015993268950086055 -0.0078733223294735945 0 0.00067940938539328441 -0.0082946839593172512 0 0.0016781268465530367 -0.009114322918229785 0 0.0015993268950086055 -0.0078733223294735945 0 0.00061902907634120473 -0.0071385600163880207 0 0.00067940938539328441 -0.0082946839593172512 0 0.0015993268950086055 -0.0078733223294735945 0 0.0012622222886486388 -0.0056709684256045509 0 0.0013371067109433951 -0.0052108330531262445 0 0.0013932390776007742 -0.0050214163100699089 0 0.0013371067109433951 -0.0052108330531262445 0 0.0013866874811635952 -0.0050832795455837609 0 0.0013932390776007742 -0.0050214163100699089 0 0.0013611925744051257 -0.0051104742734203647 0 0.0013371067109433951 -0.0052108330531262445 0 0.0013841432800258534 -0.0050982437259994772 0 0.0013611925744051257 -0.0051104742734203647 0 0.001387220740357184 -0.0050808624010368819 0 0.0013841432800258534 -0.0050982437259994772 0 0.0013371067109433951 -0.0052108330531262445 0 0.0013841432800258534 -0.0050982437259994772 0 0.0013866874811635952 -0.0050832795455837609 0 0.0013866874811635952 -0.0050832795455837609 0 0.001440231713609111 -0.0050395215960300074 0 0.0013932390776007742 -0.0050214163100699089 0 0.0013958017490035542 -0.0050472192790576237 0 0.0013841432800258534 -0.0050982437259994772 0 0.001440231713609111 -0.0050395215960300074 0 0.0013841432800258534 -0.0050982437259994772 0 0.0013866874811635952 -0.0050832795455837609 0 0.001440231713609111 -0.0050395215960300074 0 0.00040081994243908111 -0.0043699409610027575 0 0.00028850850721138345 -0.0041045963020229928 0 0.00022697641366176789 -0.0043021344945534477 0 0.00028850850721138345 -0.0041045963020229928 0 0.00022697641366176789 -0.0043021344945534477 0 0.00011716133360082432 -0.0041492838769817634 0 0.00040081994243908111 -0.0043699409610027575 0 0.00028850850721138345 -0.0041045963020229928 0 0.00057011630310485151 -0.0042902394354630228 0 -0.00052515481126142664 -0.0041863859566334443 0 3.4288976348836063e-05 -0.0041451479546623536 0 -0.0017730617247000617 -0.0035587923690789196 0 -0.00039953604435042132 -0.0040982796817303326 0 -0.0004931926193908659 -0.00318984366524128 0 -0.00039953604435042132 -0.0040982796817303326 0 0.00049025337639189005 -0.0035838847342484978 0 -0.0004931926193908659 -0.00318984366524128 0 0.00059193041723199988 -0.0045233524910447262 0 0.00040081994243908111 -0.0043699409610027575 0 0.00057011630310485151 -0.0042902394354630228 0 0.00059193041723199988 -0.0045233524910447262 0 0.00081256949134832701 -0.0045388340019079532 0 0.00057011630310485151 -0.0042902394354630228 0 0.0008061019630271419 -0.0045192083818545855 0 3.4288976348836063e-05 -0.0041451479546623536 0 0.00081256949134832701 -0.0045388340019079532 0 -0.00039953604435042132 -0.0040982796817303326 0 0.00049025337639189005 -0.0035838847342484978 0 0.00079101086675367846 -0.0025239644167784274 0 0.00049025337639189005 -0.0035838847342484978 0 -0.00017917132458800567 -0.0024705498596598605 0 0.00079101086675367846 -0.0025239644167784274 0 -0.00017917132458800567 -0.0024705498596598605 0 0.00013588021584797047 -0.0017271297638987817 0 0.00096686024236933429 -0.0038923645480170481 0 0.0013066136511762074 -0.0015908379398108712 0 -0.00017917132458800567 -0.0024705498596598605 0 -0.00080934570761500538 -0.001694641761488579 0 0.00013588021584797047 -0.0017271297638987817 0 -0.00017917132458800567 -0.0024705498596598605 0 -0.00097847335698806183 -0.0023278471873330341 0 -0.00080934570761500538 -0.001694641761488579 0 -0.00017917132458800567 -0.0024705498596598605 0 -0.0004931926193908659 -0.00318984366524128 0 -0.00097847335698806183 -0.0023278471873330341 0 0.00049025337639189005 -0.0035838847342484978 0 -0.00017917132458800567 -0.0024705498596598605 0 -0.0004931926193908659 -0.00318984366524128 0 -0.0017730617247000617 -0.0035587923690789196 0 -0.0004931926193908659 -0.00318984366524128 0 -0.00097847335698806183 -0.0023278471873330341 0 -0.00097847335698806183 -0.0023278471873330341 0 -0.0012276069239937693 -0.0019775351375424417 0 -0.00080934570761500538 -0.001694641761488579 0 -0.00097847335698806183 -0.0023278471873330341 0 -0.0012276069239937693 -0.0019775351375424417 0 -0.0014161949864386104 -0.0020592141791381346 0 0.00081134772741221957 0.0014717546230532904 0 -0.0019452926524029975 -0.0026034844338685692 0 -0.0012276069239937693 -0.0019775351375424417 0 -0.0013362117229030171 -0.0017108045602145447 0 -0.0014426024359298383 -0.0018781275658565047 0 -0.0012276069239937693 -0.0019775351375424417 0 -0.0014161949864386104 -0.0020592141791381346 0 -0.0014426024359298383 -0.0018781275658565047 0 -0.0017730617247000617 -0.0035587923690789196 0 -0.00097847335698806183 -0.0023278471873330341 0 -0.0022173361440618361 -0.0026062587498404456 0 -0.0010575038478354802 -0.0022468984955482598 0 -0.0019638070538183579 -0.0018564056191775066 0 -0.00097847335698806183 -0.0023278471873330341 0 -0.0025093689103040375 -0.0017074430174283447 0 -0.0022173361440618361 -0.0026062587498404456 0 0.0049063707553042464 0.0087894205400332569 0 0.003546198643470954 0.010533059863893015 0 0.0028920413990529913 0.0087480832976863255 0 0.0049063707553042464 0.0087894205400332569 0 0.0060284956228615887 0.01043516091237824 0 0.003546198643470954 0.010533059863893015 0 0.0049063707553042464 0.0087894205400332569 0 0.0037694626582990081 0.0071178140154541832 0 0.0028920413990529913 0.0087480832976863255 0 -0.0012276069239937693 -0.0019775351375424417 0 -0.0013362117229030171 -0.0017108045602145447 0 -0.00080934570761500538 -0.001694641761488579 0 0.0035509042739568669 0.0062869595756113155 0 0.00081134772741221957 0.0014717546230532904 0 0.00081134772741221957 0.0014717546230532904 0 0.00018136856675636241 -1.3522369801488835e-06 0 0.00112238990911432 0.0022111144392726193 0 0.0016043759386652502 0.0016885831115129935 0 0.0019565162263462375 0.0021970006603866978 0 0.00112238990911432 0.0022111144392726193 0 0.00077507763864733401 0.0016959465461818424 0 0.0016043759386652502 0.0016885831115129935 0 0.00112238990911432 0.0022111144392726193 0 0.0019565162263462375 0.0021970006603866978 0 0.0014701593087839793 0.0027319988978921476 0 0.0035509042739568669 0.0062869595756113155 0 0.0018144917225210748 0.0048367855329972814 0 0.0013506535573064114 0.00029710373861121711 0 0.0018144917225210748 0.0048367855329972814 0 0.00085378202780387442 -0.00077671276502737255 0 0.0017970085444085292 -0.00074605001524413023 0 0.00048594852477286415 -0.00018539496068039287 0 0.00085378202780387442 -0.00077671276502737255 0 0.00056551078996257926 -0.0012098046373143019 0 0.0017235229343620221 -0.00076580500318397819 0 0.00056551078996257926 -0.0012098046373143019 0 0.00048594852477286415 -0.00018539496068039287 0 -0.00050258174086970336 -0.00010233640520603662 0 0.00085378202780387442 -0.00077671276502737255 0 0.00056551078996257926 -0.0012098046373143019 0 0.00048594852477286415 -0.00018539496068039287 0 0.00018136856675636241 -1.3522369801488835e-06 0 0.0013066136511762074 -0.0015908379398108712 0 0.0016043759386652502 0.0016885831115129935 0 0.0019565162263462375 0.0021970006603866978 0 0.0024393044626304029 0.0016638396581957413 0 0.0013506535573064114 0.00029710373861121711 0 0.0013066136511762074 -0.0015908379398108712 0 0.0015580785293073081 -0.0022422730993778449 0 0.0017235229343620221 -0.00076580500318397819 0 0.0031357538507773715 -0.0022497378979734859 0 0.0013066136511762074 -0.0015908379398108712 0 0.001829796020900336 -0.0047842671512983428 0 0.00056551078996257926 -0.0012098046373143019 0 0.0015580785293073081 -0.0022422730993778449 0 0.0017235229343620221 -0.00076580500318397819 0 0.0012593854969485904 -0.0015474783345940358 0 0.00092125241732448444 -0.003696525068506565 0 -0.00020733902619538176 -0.0053033581604563828 0 -0.0012617561299800093 -0.0041752616875783913 0 0.00025445178153957703 -0.0041198632797934112 0 -0.0012617561299800093 -0.0041752616875783913 0 0.00025445178153957703 -0.0041198632797934112 0 -0.00041910419779967996 -0.0029509033215877906 0 -0.0021142906628683774 -0.0095197751574006215 0 -0.00090897064588784987 -0.0023214763829353655 0 0.00073264631080582746 0.0019674080511237523 0 -0.00090897064588784987 -0.0023214763829353655 0 0.0017970085444085292 -0.00074605001524413023 0 0.00019929762585316652 0.0009291612766473621 0 0.00048594852477286415 -0.00018539496068039287 0 0.00092125241732448444 -0.003696525068506565 0 0.00073264631080582746 0.0019674080511237523 0 0.00019929762585316652 0.0009291612766473621 0 0.00048594852477286415 -0.00018539496068039287 0 -0.00050258174086970336 -0.00010233640520603662 0 0.0012807777376497664 0.0059264737609338114 0 0.00091021463810826524 0.0053848487733221921 0 0.00075631682851983861 0.0064688104442041676 0 0.00073264631080582746 0.0019674080511237523 0 0.0018144917225210748 0.0048367855329972814 0 0.0012538646007453872 0.005891765430840027 0 0.00075631682851983861 0.0064688104442041676 0 0.0011190699744800952 0.0069615950262584868 0 0.00091021463810826524 0.0053848487733221921 0 0.00075631682851983861 0.0064688104442041676 0 0.00017444571460451989 0.006166685747447883 0 0.00073264631080582746 0.0019674080511237523 0 0.00025855640530515886 0.007012587872246798 0 0.00075631682851983861 0.0064688104442041676 0 0.00017444571460451989 0.006166685747447883 0 0.0002746524519136015 0.0071073463081585799 0 0.0060284956228615887 0.01043516091237824 0 0.0039916564409917038 0.012589861124927383 0 0.003546198643470954 0.010533059863893015 0 0.0018144917225210748 0.0048367855329972814 0 0.0022017037380567561 0.0097534080000227195 0 -0.0011869137122105609 -0.014084513089366908 0 -0.0011553231194626153 -0.014032834431897094 0 -0.0011649383180115749 -0.014034527560431283 0 -0.0016793342399493314 -0.01395376803271412 0 -0.0024755201659140053 -0.014553661717762772 0 0.0025346048840578848 -0.0098178937200140617 0 0.0016066950568882001 -0.010545606009340142 0 0.0040720640739857223 -0.010511057085449228 0 0.00022233525328271001 -0.01269494554832613 0 0.0014852793279964043 -0.0092683395354793627 0 -0.0011553231194626153 -0.014032834431897094 0 -0.0011649383180115749 -0.014034527560431283 0 -0.0011109958614041039 -0.013954525872907091 0 0.0012825137712509222 -0.0072423441502777004 0 0.00077089056263046889 -0.0072328330398259491 0 0.00084288138221427723 -0.0065082241795238688 0 0.0014852793279964043 -0.0092683395354793627 0 0.001829796020900336 -0.0047842671512983428 0 0.0017423437417330356 -0.0053454937112192794 0 0.001687956562678959 -0.0056878502786530134 0 0.0020648660290160221 -0.0056796510947458387 0 0.0011555958451004418 -0.0049240248326895197 0 0.00094387095119656853 -0.0046851064827794324 0 0.0012448041795882704 -0.0047143514270859693 0 0.00092125241732448444 -0.003696525068506565 0 -0.0011206149679283096 -0.0099788227990050757 0 8.3073703165152023e-05 -0.006515640367072399 0 0.00077089056263046889 -0.0072328330398259491 0 0.00084288138221427723 -0.0065082241795238688 0 0.00092125241732448444 -0.003696525068506565 0 0.001829796020900336 -0.0047842671512983428 0 0.0014852793279964043 -0.0092683395354793627 0 -0.0011206149679283096 -0.0099788227990050757 0 -0.0011553231194626153 -0.014032834431897094 0 -0.0011109958614041039 -0.013954525872907091 0 -0.0010982026460988092 -0.013964865450212889 0 -0.0024755201659140053 -0.014553661717762772 0 -0.0011206149679283096 -0.0099788227990050757 0 -0.0031198897220233533 -0.013932806254882777 0 -0.0039375669914143265 -0.013924507495027253 0 -0.003666392402240295 -0.013395012040233734 0 -0.00020733902619538176 -0.0053033581604563828 0 0.00092231928367475567 -0.005296520428759075 0 0.00025445178153957703 -0.0041198632797934112 0 -0.0039375669914143265 -0.013924507495027253 0 -0.003666392402240295 -0.013395012040233734 0 -0.0043558823286822083 -0.013276045810484477 0 -0.0011206149679283096 -0.0099788227990050757 0 -0.0021142906628683774 -0.0095197751574006215 0 -0.0043558823286822083 -0.013276045810484477 0 -0.0039435692333553542 -0.012988378268233614 0 -0.004263822813052604 -0.012631097705235664 0 -0.003666392402240295 -0.013395012040233734 0 -0.0043558823286822083 -0.013276045810484477 0 -0.0039435692333553542 -0.012988378268233614 0 -0.003666392402240295 -0.013395012040233734 0 -0.0039435692333553542 -0.012988378268233614 0 -0.0035360812095442855 -0.012914057984311878 0 -0.003666392402240295 -0.013395012040233734 0 -0.0035360812095442855 -0.012914057984311878 0 -0.0031829934191272531 -0.01325819448081377 0 -0.0031198897220233533 -0.013932806254882777 0 -0.003666392402240295 -0.013395012040233734 0 -0.0031829934191272531 -0.01325819448081377 0 -0.0031198897220233533 -0.013932806254882777 0 -0.0031829934191272531 -0.01325819448081377 0 -0.0026431677202283007 -0.013285227379648856 0 -0.0023380360705352278 -0.013990409096816666 0 -0.0031198897220233533 -0.013932806254882777 0 -0.0026431677202283007 -0.013285227379648856 0 -0.0031829934191272531 -0.01325819448081377 0 -0.0026431677202283007 -0.013285227379648856 0 -0.0031810796172035546 -0.012528054966541096 0 -0.0026431677202283007 -0.013285227379648856 0 -0.0031810796172035546 -0.012528054966541096 0 -0.0026346991648441755 -0.012696189519931254 0 -0.0028739251300048383 -0.012270281512524323 0 -0.0031810796172035546 -0.012528054966541096 0 -0.0026346991648441755 -0.012696189519931254 0 -0.0031810796172035546 -0.012528054966541096 0 -0.0034818125384990179 -0.012203671269252085 0 -0.003220256892082093 -0.011800711242126562 0 -0.0031016392175108004 -0.013180760344281452 0 -0.0035777191925451353 -0.010182191100816687 0 -0.0028739251300048383 -0.012270281512524323 0 -0.0031810796172035546 -0.012528054966541096 0 -0.0032780926579914394 -0.012006607399171382 0 -0.0031810796172035546 -0.012528054966541096 0 -0.0035719925207614474 -0.012486194249311489 0 -0.0034818125384990179 -0.012203671269252085 0 -0.0035360812095442855 -0.012914057984311878 0 -0.0031829934191272531 -0.01325819448081377 0 -0.0031810796172035546 -0.012528054966541096 0 -0.0035360812095442855 -0.012914057984311878 0 -0.0031810796172035546 -0.012528054966541096 0 -0.0035719925207614474 -0.012486194249311489 0 -0.0039435692333553542 -0.012988378268233614 0 -0.0035360812095442855 -0.012914057984311878 0 -0.0038750230247638299 -0.012555990711091052 0 -0.0035360812095442855 -0.012914057984311878 0 -0.0035719925207614474 -0.012486194249311489 0 -0.0038750230247638299 -0.012555990711091052 0 -0.0035719925207614474 -0.012486194249311489 0 -0.0038750230247638299 -0.012555990711091052 0 -0.0038047466888704831 -0.01225463180109246 0 -0.004263822813052604 -0.012631097705235664 0 -0.0044508174163910503 -0.011999102103150049 0 -0.0041473221993167317 -0.012299387790462853 0 -0.0039435692333553542 -0.012988378268233614 0 -0.004263822813052604 -0.012631097705235664 0 -0.0038750230247638299 -0.012555990711091052 0 -0.0038750230247638299 -0.012555990711091052 0 -0.0041473221993167317 -0.012299387790462853 0 -0.0039827740306785635 -0.012189156651591541 0 -0.004263822813052604 -0.012631097705235664 0 -0.0038750230247638299 -0.012555990711091052 0 -0.0041473221993167317 -0.012299387790462853 0 -0.0044508174163910503 -0.011999102103150049 0 -0.0041365049011039701 -0.01209523443414586 0 -0.0039679876509425309 -0.011886053266875037 0 -0.0044508174163910503 -0.011999102103150049 0 -0.0041473221993167317 -0.012299387790462853 0 -0.0041365049011039701 -0.01209523443414586 0 -0.0038750230247638299 -0.012555990711091052 0 -0.0039827740306785635 -0.012189156651591541 0 -0.0038047466888704831 -0.01225463180109246 0 -0.0041365049011039701 -0.01209523443414586 0 -0.0039827740306785635 -0.012189156651591541 0 -0.0039679876509425309 -0.011886053266875037 0 -0.0041473221993167317 -0.012299387790462853 0 -0.0041365049011039701 -0.01209523443414586 0 -0.0039827740306785635 -0.012189156651591541 0 -0.0039827740306785635 -0.012189156651591541 0 -0.0039679876509425309 -0.011886053266875037 0 -0.0038047466888704831 -0.01225463180109246 0 -0.0037604849115469752 -0.011800473310395869 0 -0.0039679876509425309 -0.011886053266875037 0 -0.0038047466888704831 -0.01225463180109246 0 -0.0036748371180992403 -0.011226415372973029 0 -0.0039112858625401691 -0.011484660754876476 0 -0.0044508174163910503 -0.011999102103150049 0 -0.0039679876509425309 -0.011886053266875037 0 -0.0045791977664160792 -0.011898545180008746 0 -0.0038365492412865865 -0.01210187239168959 0 -0.0034818125384990179 -0.012203671269252085 0 -0.003220256892082093 -0.011800711242126562 0 -0.0035719925207614474 -0.012486194249311489 0 -0.0038047466888704831 -0.01225463180109246 0 -0.0034818125384990179 -0.012203671269252085 0 -0.0036748371180992403 -0.011226415372973029 0 -0.0036957678649457244 -0.012120380419345106 0 -0.0038365492412865865 -0.01210187239168959 0 -0.0038047466888704831 -0.01225463180109246 0 -0.0034818125384990179 -0.012203671269252085 0 -0.0041999414879689981 -0.009278325506217525 0 -0.0025784299174690072 -0.0064358690488393955 0 -0.0044878917379175187 -0.0062337945472116969 0 -0.0036748371180992403 -0.011226415372973029 0 -0.0035777191925451353 -0.010182191100816687 0 -0.0041999414879689981 -0.009278325506217525 0 -0.0025784299174690072 -0.0064358690488393955 0 -0.00048242814084885327 -0.007504925191528857 0 -0.003159995571320321 -0.0058677609248722999 0 -0.0030504335654596478 -0.0061878857800766168 0 -0.001038369420677926 -0.00072833507660317572 0 -0.0020346452395998216 -0.0022008085505106603 0 -0.0021371618133198792 -0.00045929244284098424 0 -0.0036320144574682636 -0.011721563102078697 0 -0.0039679876509425309 -0.011886053266875037 0 -0.0037606471097259811 -0.010482107566611587 0 -0.0039679876509425309 -0.011886053266875037 0 -0.0037606471097259811 -0.010482107566611587 0 -0.0045791977664160792 -0.011898545180008746 0 -0.0036748371180992403 -0.011226415372973029 0 -0.003159995571320321 -0.0058677609248722999 0 -0.001038369420677926 -0.00072833507660317572 0 -0.0011286507168275055 0.00024565268264232641 0 -0.0021371618133198792 -0.00045929244284098424 0 -0.003159995571320321 -0.0058677609248722999 0 -0.00144246065438326 0.002238150735348545 0 -0.00023437956692537134 0.0094225792783346682 0 -1.4248300673637412e-05 0.0095114431692903088 0 -5.7390069942152179e-05 0.0093969937245374016 0 -0.00144246065438326 0.002238150735348545 0 -0.00080895331657515721 0.0047840122065739175 0 -0.0025784299174690072 -0.0064358690488393955 0 -0.0030645727497840359 -0.004175474727108254 0 -0.00067597560538304848 -0.0049913894513740472 0 -0.0025784299174690072 -0.0064358690488393955 0 -0.0044878917379175187 -0.0062337945472116969 0 -0.0030645727497840359 -0.004175474727108254 0 -0.003159995571320321 -0.0058677609248722999 0 -0.0033549150390350889 -0.0046939820801740343 0 -0.0043395448138480747 -0.0060255956737718117 0 -0.0045630338863889112 -0.0039549872983871276 0 -0.0030645727497840359 -0.004175474727108254 0 -0.0075662779686162078 -0.0096196857948883507 0 -0.0054222872287912269 -0.010225430930939299 0 -0.0074239590239119644 -0.01113244578160227 0 -0.0030645727497840359 -0.004175474727108254 0 -0.00067597560538304848 -0.0049913894513740472 0 -0.00088909216486233534 -0.0025419862539054314 0 -0.0054222872287912269 -0.010225430930939299 0 -0.0063466543497063014 -0.0088947105037606184 0 -0.0049768808352067947 -0.008737253372854404 0 -0.0075662779686162078 -0.0096196857948883507 0 -0.0054222872287912269 -0.010225430930939299 0 -0.0063466543497063014 -0.0088947105037606184 0 -0.0045188860192363267 -0.011189822960317994 0 -0.0035777191925451353 -0.010182191100816687 0 -0.0028739251300048383 -0.012270281512524323 0 -0.0028369430312459362 -0.011703750345503677 0 -0.0032780926579914394 -0.012006607399171382 0 -0.0041176816603640809 -0.0071679215040810745 0 -0.0035777191925451353 -0.010182191100816687 0 -0.0025784299174690072 -0.0064358690488393955 0 -0.00067597560538304848 -0.0049913894513740472 0 -0.00048242814084885327 -0.007504925191528857 0 0.00023216151070611134 0.0077863604422022245 0 0.0002746524519136015 0.0071073463081585799 0 0.00078061425249339761 0.0076450070794352116 0 0.00023216151070611134 0.0077863604422022245 0 0.0002746524519136015 0.0071073463081585799 0 -0.00034730769570968153 0.0077153158476560542 0 0.00023216151070611134 0.0077863604422022245 0 -0.00034730769570968153 0.0077153158476560542 0 -0.00010414100472094867 0.0083039810597331162 0 0.00023216151070611134 0.0077863604422022245 0 0.00078061425249339761 0.0076450070794352116 0 0.00053829205635960709 0.0082239263719155967 0 0.00017444571460451989 0.006166685747447883 0 0.0002746524519136015 0.0071073463081585799 0 -0.0005393667317610362 0.0069878736141841336 0 0.0002746524519136015 0.0071073463081585799 0 0.0011190699744800952 0.0069615950262584868 0 0.00078061425249339761 0.0076450070794352116 0 0.00075631682851983861 0.0064688104442041676 0 0.0002746524519136015 0.0071073463081585799 0 0.0011190699744800952 0.0069615950262584868 0 0.0011190699744800952 0.0069615950262584868 0 0.00078061425249339761 0.0076450070794352116 0 0.0012827595601815822 0.0073602981643642283 0 0.00078061425249339761 0.0076450070794352116 0 0.0012827595601815822 0.0073602981643642283 0 0.0013051434590205385 0.0079651378717802805 0 0.001442373308721569 0.0080322015354137508 0 -4.5987502749098983e-05 0.0059971696400349913 0 0.0012827595601815822 0.0073602981643642283 0 0.0019220239083773722 0.0068692327999948424 0 0.0013051434590205385 0.0079651378717802805 0 -0.00090897064588784987 -0.0023214763829353655 0 -4.5987502749098983e-05 0.0059971696400349913 0 0.0011190699744800952 0.0069615950262584868 0 0.0012827595601815822 0.0073602981643642283 0 0.0019220239083773722 0.0068692327999948424 0 0.0012538646007453872 0.005891765430840027 0 0.0011190699744800952 0.0069615950262584868 0 0.0019220239083773722 0.0068692327999948424 0 -0.0043558823286822083 -0.013276045810484477 0 -0.004263822813052604 -0.012631097705235664 0 -0.004833081702570464 -0.012496416920804195 0 -0.004263822813052604 -0.012631097705235664 0 -0.0044508174163910503 -0.011999102103150049 0 -0.004833081702570464 -0.012496416920804195 0 -0.00090897064588784987 -0.0023214763829353655 0 -0.0030504335654596478 -0.0061878857800766168 0 -0.0044508174163910503 -0.011999102103150049 0 -0.004833081702570464 -0.012496416920804195 0 -0.004514106656831874 -0.011932518248110195 0 -0.0011139230451787884 -0.001999694200718413 0 0.00010949369329747782 -0.00020765806427730093 0 -0.0027419276195992329 0.00080559260014753773 0 -0.0027898249698328319 -0.0069106414154559747 0 -0.0030504335654596478 -0.0061878857800766168 0 -0.0020346452395998216 -0.0022008085505106603 0 -0.0021371618133198792 -0.00045929244284098424 0 -0.0031472180425924962 -0.0011532743902131857 0 -0.0030504335654596478 -0.0061878857800766168 0 -0.0012421502558558084 0.0038585315530440664 0 -0.00080895331657515721 0.0047840122065739175 0 -0.0012421502558558084 0.0038585315530440664 0 -1.4248300673637412e-05 0.0095114431692903088 0 6.8832411992251385e-05 0.0094110692409329379 0 -5.7390069942152179e-05 0.0093969937245374016 0 -1.4248300673637412e-05 0.0095114431692903088 0 0.00013569300819364074 0.0094810243987058854 0 6.8832411992251385e-05 0.0094110692409329379 0 -1.4248300673637412e-05 0.0095114431692903088 0 0.00013569300819364074 0.0094810243987058854 0 0.00013269348726666289 0.0095694784409263538 0 0.00013569300819364074 0.0094810243987058854 0 0.00013269348726666289 0.0095694784409263538 0 0.00024896123742452927 0.0095022048851991555 0 0.00013569300819364074 0.0094810243987058854 0 0.0001617440234969055 0.0093854267546667897 0 6.8832411992251385e-05 0.0094110692409329379 0 0.00013569300819364074 0.0094810243987058854 0 0.00024896123742452927 0.0095022048851991555 0 0.00025206710297634655 0.0094352391174298434 0 -0.0012421502558558084 0.0038585315530440664 0 -0.00026026843620384423 0.0087010698297900878 0 0.00058458300698174457 0.0064923648023166138 0 -5.8349526993738693e-05 0.0060480774923710812 0 -0.00036624652269631042 0.0073664628216151369 0 0.00010949369329747782 -0.00020765806427730093 0 -0.0017447956410848542 0.0014914450028352287 0 -0.0027419276195992329 0.00080559260014753773 0 -0.0012421502558558084 0.0038585315530440664 0 -4.5987502749098983e-05 0.0059971696400349913 0 0.00053829205635960709 0.0082239263719155967 0 0.0009205704503062542 0.0086833354922439369 0 0.0001871103131864566 0.0088296847761614259 0 0.0013170851303160253 0.0080336728914870009 0 0.00053829205635960709 0.0082239263719155967 0 0.0009205704503062542 0.0086833354922439369 0 -5.8349526993738693e-05 0.0060480774923710812 0 -0.00036624652269631042 0.0073664628216151369 0 -0.0006879483034308066 0.0071432783432920886 0 0.00078061425249339761 0.0076450070794352116 0 0.0013170851303160253 0.0080336728914870009 0 0.00053829205635960709 0.0082239263719155967 0 -4.5987502749098983e-05 0.0059971696400349913 0 7.0708485573923573e-05 0.0079998778802456826 0 0.0009205704503062542 0.0086833354922439369 0 0.0001871103131864566 0.0088296847761614259 0 0.00052407934129923182 0.0092829239968159356 0 -0.00036624652269631042 0.0073664628216151369 0 -0.0006879483034308066 0.0071432783432920886 0 -0.0012998270369975334 0.0082363094286111022 0 0.00024896123742452927 0.0095022048851991555 0 0.00033781035797114271 0.0094511784110019974 0 0.00025206710297634655 0.0094352391174298434 0 -0.00026026843620384423 0.0087010698297900878 0 1.3512886788166574e-05 0.0089336244683737905 0 7.0708485573923573e-05 0.0079998778802456826 0 1.3512886788166574e-05 0.0089336244683737905 0 0.0001871103131864566 0.0088296847761614259 0 -9.2874205240002719e-05 0.0093631523646760997 0 0.00052407934129923182 0.0092829239968159356 0 0.00023216151070611134 0.0077863604422022245 0 0.00053829205635960709 0.0082239263719155967 0 -0.00010414100472094867 0.0083039810597331162 0 0.00053829205635960709 0.0082239263719155967 0 0.0001871103131864566 0.0088296847761614259 0 -0.00010414100472094867 0.0083039810597331162 0 0.00042497288270445382 0.0075283592782525739 0 0.0017132399602521997 0.015435572794655694 0 0.00015940114032233487 0.010041531278540948 0 0.00033208431601344416 0.010520234351452344 0 -0.000245456499885282 0.009877515512254258 0 0.0017132399602521997 0.015435572794655694 0 0.00070960666754590863 0.017951106593276079 0 0.00015940114032233487 0.010041531278540948 0 0.00039188820366380789 0.0095447696650839894 0 0.00033208431601344416 0.010520234351452344 0 0.00039188820366380789 0.0095447696650839894 0 0.00035493200685900064 0.0093820545067472127 0 0.00039689771551677973 0.0092903890886208325 0 0.0018455074302282516 0.025356268444244139 0 0.0017634322285372769 0.02529916978648232 0 0.0016907388725798918 0.025104614957654935 0 0.00015940114032233487 0.010041531278540948 0 0.00020453329939241926 0.0097349744306419236 0 0.00039188820366380789 0.0095447696650839894 0 0.00020453329939241926 0.0097349744306419236 0 4.5728010246092467e-05 0.0098292593034512328 0 0.00028648192923605464 0.0094841000921761006 0 4.5728010246092467e-05 0.0098292593034512328 0 0.00028648192923605464 0.0094841000921761006 0 -0.000245456499885282 0.009877515512254258 0 0.00015940114032233487 0.010041531278540948 0 4.5728010246092467e-05 0.0098292593034512328 0 -0.000245456499885282 0.009877515512254258 0 0.00015940114032233487 0.010041531278540948 0 0.00020453329939241926 0.0097349744306419236 0 4.5728010246092467e-05 0.0098292593034512328 0 0.00028648192923605464 0.0094841000921761006 0 0.00050163360249917406 0.009025465562896913 0 -0.000245456499885282 0.009877515512254258 0 1.3512886788166574e-05 0.0089336244683737905 0 -4.8048009251596367e-05 0.0098561585901317424 0 -9.2874205240002719e-05 0.0093631523646760997 0 0.00052407934129923182 0.0092829239968159356 0 -0.000245456499885282 0.009877515512254258 0 0.00028648192923605464 0.0094841000921761006 0 0.00034371812121754074 0.0094730601462560057 0 0.00033781035797114271 0.0094511784110019974 0 0.00018106627201882889 0.0093750169693286815 0 1.3512886788166574e-05 0.0089336244683737905 0 0.00020453329939241926 0.0097349744306419236 0 0.00028648192923605464 0.0094841000921761006 0 0.00039188820366380789 0.0095447696650839894 0 0.00028648192923605464 0.0094841000921761006 0 0.00039188820366380789 0.0095447696650839894 0 0.00034371812121754074 0.0094730601462560057 0 0.00039188820366380789 0.0095447696650839894 0 0.00033454906660721129 0.0094686013119297495 0 0.00034371812121754074 0.0094730601462560057 0 0.00033454906660721129 0.0094686013119297495 0 0.00029736255028297562 0.0094267746066510998 0 0.00030846910859900426 0.0094213307259230633 0 0.00033454906660721129 0.0094686013119297495 0 0.00031412505976234796 0.0094456102689407084 0 0.00029736255028297562 0.0094267746066510998 0 0.00033454906660721129 0.0094686013119297495 0 0.00031412505976234796 0.0094456102689407084 0 0.00034371812121754074 0.0094730601462560057 0 0.00031412505976234796 0.0094456102689407084 0 0.00034371812121754074 0.0094730601462560057 0 0.00033781035797114271 0.0094511784110019974 0 0.00031412505976234796 0.0094456102689407084 0 0.00033781035797114271 0.0094511784110019974 0 0.00025206710297634655 0.0094352391174298434 0 0.00031412505976234796 0.0094456102689407084 0 0.00026969852984514803 0.0094124842591123102 0 0.00025206710297634655 0.0094352391174298434 0 0.00031412505976234796 0.0094456102689407084 0 0.00026969852984514803 0.0094124842591123102 0 0.00029736255028297562 0.0094267746066510998 0 0.00026969852984514803 0.0094124842591123102 0 0.00029736255028297562 0.0094267746066510998 0 0.00025297754117713684 0.0093771461281770569 0 0.00029736255028297562 0.0094267746066510998 0 0.00027400132050953597 0.0093832571799953995 0 0.00025297754117713684 0.0093771461281770569 0 0.00027400132050953597 0.0093832571799953995 0 0.00024283868381310021 0.0093423424904017158 0 0.00025297754117713684 0.0093771461281770569 0 0.00027400132050953597 0.0093832571799953995 0 0.00027203754848162382 0.0093495139868717703 0 0.00024283868381310021 0.0093423424904017158 0 0.00027400132050953597 0.0093832571799953995 0 0.00030846910859900426 0.0094213307259230633 0 0.00027203754848162382 0.0093495139868717703 0 0.00030846910859900426 0.0094213307259230633 0 0.00031820262035432738 0.0094011634332216275 0 0.00027203754848162382 0.0093495139868717703 0 0.00029736255028297562 0.0094267746066510998 0 0.00027400132050953597 0.0093832571799953995 0 0.00030846910859900426 0.0094213307259230633 0 0.00039188820366380789 0.0095447696650839894 0 0.00035049557316152745 0.0094488150702929756 0 0.00035493200685900064 0.0093820545067472127 0 0.00033454906660721129 0.0094686013119297495 0 0.00030846910859900426 0.0094213307259230633 0 0.00033968040309296339 0.0094612210378279462 0 0.00039188820366380789 0.0095447696650839894 0 0.00033968040309296339 0.0094612210378279462 0 0.00035049557316152745 0.0094488150702929756 0 0.00039188820366380789 0.0095447696650839894 0 0.00033454906660721129 0.0094686013119297495 0 0.00033968040309296339 0.0094612210378279462 0 0.00030846910859900426 0.0094213307259230633 0 0.00033968040309296339 0.0094612210378279462 0 0.00031820262035432738 0.0094011634332216275 0 0.00033968040309296339 0.0094612210378279462 0 0.00035049557316152745 0.0094488150702929756 0 0.00031820262035432738 0.0094011634332216275 0 0.00031820262035432738 0.0094011634332216275 0 0.00035493200685900064 0.0093820545067472127 0 0.00030767208466161262 0.0093478488370262423 0 0.00035049557316152745 0.0094488150702929756 0 0.00031820262035432738 0.0094011634332216275 0 0.00035493200685900064 0.0093820545067472127 0 0.00035493200685900064 0.0093820545067472127 0 0.00032330144207649825 0.0093304801499231246 0 0.00034750291612958714 0.0093288785711874139 0 0.00032330144207649825 0.0093304801499231246 0 0.00030767208466161262 0.0093478488370262423 0 0.00030408594647608772 0.0093025058434689483 0 0.00035493200685900064 0.0093820545067472127 0 0.00032330144207649825 0.0093304801499231246 0 0.00030767208466161262 0.0093478488370262423 0 0.00030767208466161262 0.0093478488370262423 0 0.00027382305735869166 0.0093114773769146682 0 0.00030408594647608772 0.0093025058434689483 0 0.00027382305735869166 0.0093114773769146682 0 0.00024414461806635299 0.0092923996908856124 0 0.00024559976058407477 0.0092653937665134935 0 0.00027382305735869166 0.0093114773769146682 0 0.00027203754848162382 0.0093495139868717703 0 0.00024414461806635299 0.0092923996908856124 0 0.00027203754848162382 0.0093495139868717703 0 0.00022626450249643658 0.0092989641594663358 0 0.00024414461806635299 0.0092923996908856124 0 0.00031820262035432738 0.0094011634332216275 0 0.00030767208466161262 0.0093478488370262423 0 0.00027203754848162382 0.0093495139868717703 0 0.00030767208466161262 0.0093478488370262423 0 0.00027382305735869166 0.0093114773769146682 0 0.00027203754848162382 0.0093495139868717703 0 0.00022626450249643658 0.0092989641594663358 0 0.00021083387575777249 0.0092546201450591972 0 0.00018490324164943073 0.0092662982971727526 0 0.00022626450249643658 0.0092989641594663358 0 0.00024414461806635299 0.0092923996908856124 0 0.00021083387575777249 0.0092546201450591972 0 0.00021083387575777249 0.0092546201450591972 0 0.00016962866628057825 0.0092252363191855594 0 0.00018490324164943073 0.0092662982971727526 0 0.00016962866628057825 0.0092252363191855594 0 0.00013621819886070486 0.0092086635744199653 0 0.00013503212872356682 0.0091840319575441105 0 0.00018490324164943073 0.0092662982971727526 0 0.00015091677504486205 0.0092590636715068377 0 0.00013621819886070486 0.0092086635744199653 0 0.00016962866628057825 0.0092252363191855594 0 0.00018490324164943073 0.0092662982971727526 0 0.00013621819886070486 0.0092086635744199653 0 0.00018490324164943073 0.0092662982971727526 0 0.00015091677504486205 0.0092590636715068377 0 0.00020602251424155679 0.0093183441066948067 0 0.00015091677504486205 0.0092590636715068377 0 0.00015973268225387936 0.0093127370314812913 0 0.00011627896103809175 0.0092588399825751858 0 0.00015091677504486205 0.0092590636715068377 0 0.00020602251424155679 0.0093183441066948067 0 0.00015973268225387936 0.0093127370314812913 0 0.00022626450249643658 0.0092989641594663358 0 0.00018490324164943073 0.0092662982971727526 0 0.00020602251424155679 0.0093183441066948067 0 0.00027203754848162382 0.0093495139868717703 0 0.00022626450249643658 0.0092989641594663358 0 0.00024283868381310021 0.0093423424904017158 0 0.00022626450249643658 0.0092989641594663358 0 0.00020602251424155679 0.0093183441066948067 0 0.00024283868381310021 0.0093423424904017158 0 0.00020602251424155679 0.0093183441066948067 0 0.00024283868381310021 0.0093423424904017158 0 0.00025297754117713684 0.0093771461281770569 0 0.00020602251424155679 0.0093183441066948067 0 0.00025297754117713684 0.0093771461281770569 0 0.00022217755925050877 0.0093776545506203037 0 0.00026969852984514803 0.0094124842591123102 0 0.00025297754117713684 0.0093771461281770569 0 0.00022217755925050877 0.0093776545506203037 0 0.00026969852984514803 0.0094124842591123102 0 0.00022217755925050877 0.0093776545506203037 0 0.00025206710297634655 0.0094352391174298434 0 0.00022217755925050877 0.0093776545506203037 0 0.00025206710297634655 0.0094352391174298434 0 0.0001617440234969055 0.0093854267546667897 0 0.00013569300819364074 0.0094810243987058854 0 0.00025206710297634655 0.0094352391174298434 0 0.0001617440234969055 0.0093854267546667897 0 0.00022217755925050877 0.0093776545506203037 0 0.0001617440234969055 0.0093854267546667897 0 0.00015973268225387936 0.0093127370314812913 0 0.0001617440234969055 0.0093854267546667897 0 0.00015973268225387936 0.0093127370314812913 0 9.4665381941987602e-05 0.0093059314604517131 0 0.00020602251424155679 0.0093183441066948067 0 0.00022217755925050877 0.0093776545506203037 0 0.00015973268225387936 0.0093127370314812913 0 0.00015973268225387936 0.0093127370314812913 0 9.4665381941987602e-05 0.0093059314604517131 0 0.00011627896103809175 0.0092588399825751858 0 9.4665381941987602e-05 0.0093059314604517131 0 1.7876616986525858e-05 0.0092377056053362834 0 7.4069588145614268e-05 0.0092283253073657204 0 9.4665381941987602e-05 0.0093059314604517131 0 7.4069588145614268e-05 0.0092283253073657204 0 0.00011627896103809175 0.0092588399825751858 0 9.4665381941987602e-05 0.0093059314604517131 0 6.8832411992251385e-05 0.0094110692409329379 0 4.2766675577847176e-06 0.0093329351421972163 0 0.0001617440234969055 0.0093854267546667897 0 9.4665381941987602e-05 0.0093059314604517131 0 6.8832411992251385e-05 0.0094110692409329379 0 6.8832411992251385e-05 0.0094110692409329379 0 -5.7390069942152179e-05 0.0093969937245374016 0 4.2766675577847176e-06 0.0093329351421972163 0 -5.7390069942152179e-05 0.0093969937245374016 0 4.2766675577847176e-06 0.0093329351421972163 0 -0.00013329100728794334 0.0092726371853845066 0 4.2766675577847176e-06 0.0093329351421972163 0 1.7876616986525858e-05 0.0092377056053362834 0 -0.00013329100728794334 0.0092726371853845066 0 9.4665381941987602e-05 0.0093059314604517131 0 4.2766675577847176e-06 0.0093329351421972163 0 1.7876616986525858e-05 0.0092377056053362834 0 2.8197144240128282e-05 0.0090823060109734913 0 0.00014103219871259052 0.0091764208119229501 0 -0.00012779284075420483 0.0089288343718445778 0 1.7876616986525858e-05 0.0092377056053362834 0 3.1341366148440117e-05 0.0091634559797802943 0 -4.2460843853485173e-05 0.0091384179098827623 0 -9.4959024253370085e-09 0.0090892254814578643 0 3.1341366148440117e-05 0.0091634559797802943 0 -4.2460843853485173e-05 0.0091384179098827623 0 -9.4959024253370085e-09 0.0090892254814578643 0 3.1341366148440117e-05 0.0091634559797802943 0 4.5612214807237837e-05 0.0091259942208125958 0 3.1341366148440117e-05 0.0091634559797802943 0 9.5363905683949375e-05 0.0091954915297781364 0 4.5612214807237837e-05 0.0091259942208125958 0 1.7876616986525858e-05 0.0092377056053362834 0 3.1341366148440117e-05 0.0091634559797802943 0 7.4069588145614268e-05 0.0092283253073657204 0 7.4069588145614268e-05 0.0092283253073657204 0 0.00011627896103809175 0.0092588399825751858 0 9.5363905683949375e-05 0.0091954915297781364 0 3.1341366148440117e-05 0.0091634559797802943 0 7.4069588145614268e-05 0.0092283253073657204 0 9.5363905683949375e-05 0.0091954915297781364 0 0.00015091677504486205 0.0092590636715068377 0 0.00011627896103809175 0.0092588399825751858 0 9.5363905683949375e-05 0.0091954915297781364 0 0.00015091677504486205 0.0092590636715068377 0 9.5363905683949375e-05 0.0091954915297781364 0 0.00013621819886070486 0.0092086635744199653 0 9.5363905683949375e-05 0.0091954915297781364 0 8.8141700137775875e-05 0.0091476843920107395 0 4.5612214807237837e-05 0.0091259942208125958 0 9.5363905683949375e-05 0.0091954915297781364 0 0.00013621819886070486 0.0092086635744199653 0 8.8141700137775875e-05 0.0091476843920107395 0 0.00013621819886070486 0.0092086635744199653 0 8.8141700137775875e-05 0.0091476843920107395 0 0.00013503212872356682 0.0091840319575441105 0 8.8141700137775875e-05 0.0091476843920107395 0 2.8197144240128282e-05 0.0090823060109734913 0 0.00010542767686282498 0.0091481024086619237 0 -9.4959024253370085e-09 0.0090892254814578643 0 2.8197144240128282e-05 0.0090823060109734913 0 4.5612214807237837e-05 0.0091259942208125958 0 -9.4959024253370085e-09 0.0090892254814578643 0 2.8197144240128282e-05 0.0090823060109734913 0 -4.7034587510217204e-05 0.0090408033241935436 0 8.8141700137775875e-05 0.0091476843920107395 0 2.8197144240128282e-05 0.0090823060109734913 0 4.5612214807237837e-05 0.0091259942208125958 0 2.8197144240128282e-05 0.0090823060109734913 0 0.00010542767686282498 0.0091481024086619237 0 0.00014103219871259052 0.0091764208119229501 0 8.8141700137775875e-05 0.0091476843920107395 0 0.00010542767686282498 0.0091481024086619237 0 0.00013503212872356682 0.0091840319575441105 0 0.00010542767686282498 0.0091481024086619237 0 0.00014555673724477348 0.009180356638296824 0 0.00014103219871259052 0.0091764208119229501 0 0.00010542767686282498 0.0091481024086619237 0 0.00013503212872356682 0.0091840319575441105 0 0.00014555673724477348 0.009180356638296824 0 0.00014555673724477348 0.009180356638296824 0 0.00014103219871259052 0.0091764208119229501 0 0.00017952155886096944 0.0091915923429572027 0 0.00014103219871259052 0.0091764208119229501 0 0.00019696978555277568 0.0091828108991154171 0 0.00017952155886096944 0.0091915923429572027 0 0.0008159533047745537 0.0069976787232709208 0 0.00076053188277949745 0.0076508596033654647 0 0.00014103219871259052 0.0091764208119229501 0 0.00019696978555277568 0.0091828108991154171 0 0.0002104296974844492 0.0091622732616268333 0 0.0013109379864902845 0.0053547739052856409 0 0.0011849423240012573 0.0036871408854859244 0 0.0021336615641325699 0.0029950788015658029 0 0.0013109379864902845 0.0053547739052856409 0 0.0011849423240012573 0.0036871408854859244 0 9.4262487893230896e-07 0.0032995182831263314 0 0.00019696978555277568 0.0091828108991154171 0 0.00022172907107324857 0.0091982023268265441 0 0.00017952155886096944 0.0091915923429572027 0 0.00019696978555277568 0.0091828108991154171 0 0.00023410216758501599 0.0091919553906763714 0 0.00022172907107324857 0.0091982023268265441 0 0.00019696978555277568 0.0091828108991154171 0 0.00021477755197795562 0.0091759938767168956 0 0.0002104296974844492 0.0091622732616268333 0 0.00019696978555277568 0.0091828108991154171 0 0.00021477755197795562 0.0091759938767168956 0 0.00023410216758501599 0.0091919553906763714 0 0.00021477755197795562 0.0091759938767168956 0 0.00022389868011500732 0.0091704895066722775 0 0.0002104296974844492 0.0091622732616268333 0 0.00022772468343955319 0.0091854048303609704 0 0.00023410216758501599 0.0091919553906763714 0 0.00025796254087670473 0.0092032934330502393 0 0.0019534025569860488 0.01308800967567841 0 0.0012507598642969959 0.016387096317495818 0 0.00022772468343955319 0.0091854048303609704 0 0.00025796254087670473 0.0092032934330502393 0 0.00029755214343917512 0.0092097318305555571 0 0.0019534025569860488 0.01308800967567841 0 0.00083518174712924774 0.010219971294632457 0 0.00021477755197795562 0.0091759938767168956 0 0.00022389868011500732 0.0091704895066722775 0 0.00023410216758501599 0.0091919553906763714 0 0.00023410216758501599 0.0091919553906763714 0 0.00025796254087670473 0.0092032934330502393 0 0.00022172907107324857 0.0091982023268265441 0 0.00025796254087670473 0.0092032934330502393 0 0.00022172907107324857 0.0091982023268265441 0 0.00024267692118928744 0.0092157426125180197 0 0.00024267692118928744 0.0092157426125180197 0 0.0002487595092530413 0.0092391462762485953 0 0.00021340584357079303 0.0092115704875786412 0 0.0002487595092530413 0.0092391462762485953 0 0.00021340584357079303 0.0092115704875786412 0 0.00021230847223486119 0.0092291141697734991 0 0.00021340584357079303 0.0092115704875786412 0 0.000184149276392109 0.0092036687128808983 0 0.00021230847223486119 0.0092291141697734991 0 0.00022172907107324857 0.0091982023268265441 0 0.00024267692118928744 0.0092157426125180197 0 0.00021340584357079303 0.0092115704875786412 0 0.00022172907107324857 0.0091982023268265441 0 0.00021340584357079303 0.0092115704875786412 0 0.00017952155886096944 0.0091915923429572027 0 0.00014555673724477348 0.009180356638296824 0 0.00017952155886096944 0.0091915923429572027 0 0.000184149276392109 0.0092036687128808983 0 0.00021340584357079303 0.0092115704875786412 0 0.00017952155886096944 0.0091915923429572027 0 0.000184149276392109 0.0092036687128808983 0 0.000184149276392109 0.0092036687128808983 0 0.00017452932576654306 0.0092112545007337863 0 0.00021230847223486119 0.0092291141697734991 0 0.00014555673724477348 0.009180356638296824 0 0.000184149276392109 0.0092036687128808983 0 0.00017452932576654306 0.0092112545007337863 0 0.00013503212872356682 0.0091840319575441105 0 0.00014555673724477348 0.009180356638296824 0 0.00017452932576654306 0.0092112545007337863 0 0.00016962866628057825 0.0092252363191855594 0 0.00013503212872356682 0.0091840319575441105 0 0.00017452932576654306 0.0092112545007337863 0 0.00021083387575777249 0.0092546201450591972 0 0.00016962866628057825 0.0092252363191855594 0 0.00017452932576654306 0.0092112545007337863 0 0.00021083387575777249 0.0092546201450591972 0 0.00017452932576654306 0.0092112545007337863 0 0.00021230847223486119 0.0092291141697734991 0 0.00021083387575777249 0.0092546201450591972 0 0.00024559976058407477 0.0092653937665134935 0 0.00021230847223486119 0.0092291141697734991 0 0.00024414461806635299 0.0092923996908856124 0 0.00021083387575777249 0.0092546201450591972 0 0.00024559976058407477 0.0092653937665134935 0 0.0002487595092530413 0.0092391462762485953 0 0.00024559976058407477 0.0092653937665134935 0 0.00021230847223486119 0.0092291141697734991 0 0.00027764935415173873 0.0092744846071454549 0 0.00030408594647608772 0.0093025058434689483 0 0.00030971631498251146 0.0092781631227670854 0 0.00027764935415173873 0.0092744846071454549 0 0.00030971631498251146 0.0092781631227670854 0 0.00028685440424857365 0.0092569964969723348 0 0.0002487595092530413 0.0092391462762485953 0 0.00027764935415173873 0.0092744846071454549 0 0.00028685440424857365 0.0092569964969723348 0 0.0002487595092530413 0.0092391462762485953 0 0.00024559976058407477 0.0092653937665134935 0 0.00027764935415173873 0.0092744846071454549 0 0.00027382305735869166 0.0093114773769146682 0 0.00024559976058407477 0.0092653937665134935 0 0.00027764935415173873 0.0092744846071454549 0 0.00027382305735869166 0.0093114773769146682 0 0.00027764935415173873 0.0092744846071454549 0 0.00030408594647608772 0.0093025058434689483 0 0.00032330144207649825 0.0093304801499231246 0 0.00030408594647608772 0.0093025058434689483 0 0.00033769622717059295 0.0093018366565233591 0 0.00034750291612958714 0.0093288785711874139 0 0.00033769622717059295 0.0093018366565233591 0 0.00037150957604736818 0.0093065626618466582 0 0.00035493200685900064 0.0093820545067472127 0 0.00034750291612958714 0.0093288785711874139 0 0.00037150957604736818 0.0093065626618466582 0 0.00032330144207649825 0.0093304801499231246 0 0.00034750291612958714 0.0093288785711874139 0 0.00033769622717059295 0.0093018366565233591 0 0.00033769622717059295 0.0093018366565233591 0 0.00035832903866962556 0.0092882269994428047 0 0.00037150957604736818 0.0093065626618466582 0 0.00033769622717059295 0.0093018366565233591 0 0.0003363102182599864 0.0092821150591340246 0 0.00035832903866962556 0.0092882269994428047 0 0.0003363102182599864 0.0092821150591340246 0 0.00035832903866962556 0.0092882269994428047 0 0.00035176396384317097 0.009276347242101364 0 0.00030408594647608772 0.0093025058434689483 0 0.00033769622717059295 0.0093018366565233591 0 0.00030971631498251146 0.0092781631227670854 0 0.00033769622717059295 0.0093018366565233591 0 0.0003363102182599864 0.0092821150591340246 0 0.00030971631498251146 0.0092781631227670854 0 0.00030971631498251146 0.0092781631227670854 0 0.00031677266350088883 0.0092583063316034678 0 0.00028685440424857365 0.0092569964969723348 0 0.0003363102182599864 0.0092821150591340246 0 0.00030971631498251146 0.0092781631227670854 0 0.00031677266350088883 0.0092583063316034678 0 0.0003363102182599864 0.0092821150591340246 0 0.00031677266350088883 0.0092583063316034678 0 0.00035176396384317097 0.009276347242101364 0 0.00031677266350088883 0.0092583063316034678 0 0.00035176396384317097 0.009276347242101364 0 0.00035620316389032409 0.0092699252500738245 0 0.00035832903866962556 0.0092882269994428047 0 0.00035176396384317097 0.009276347242101364 0 0.00037135390292528775 0.0092807162009193398 0 0.00035176396384317097 0.009276347242101364 0 0.00035620316389032409 0.0092699252500738245 0 0.00037135390292528775 0.0092807162009193398 0 0.00031677266350088883 0.0092583063316034678 0 0.00028685440424857365 0.0092569964969723348 0 0.00027434375333336376 0.0092294261763661168 0 0.0002487595092530413 0.0092391462762485953 0 0.00028685440424857365 0.0092569964969723348 0 0.00027434375333336376 0.0092294261763661168 0 0.00024267692118928744 0.0092157426125180197 0 0.0002487595092530413 0.0092391462762485953 0 0.00027434375333336376 0.0092294261763661168 0 0.00025796254087670473 0.0092032934330502393 0 0.00027434375333336376 0.0092294261763661168 0 0.00029755214343917512 0.0092097318305555571 0 0.00025796254087670473 0.0092032934330502393 0 0.00024267692118928744 0.0092157426125180197 0 0.00027434375333336376 0.0092294261763661168 0 0.00031677266350088883 0.0092583063316034678 0 0.00027434375333336376 0.0092294261763661168 0 0.00029755214343917512 0.0092097318305555571 0 0.0030616284462801112 0.023964874645846911 0 0.0023411711810564766 0.023596926906468845 0 0.0025908431792434758 0.024022911203164774 0 0.00035620316389032409 0.0092699252500738245 0 0.00029755214343917512 0.0092097318305555571 0 0.00038967283626148175 0.0092849565142647146 0 0.0012507598642969959 0.016387096317495818 0 0.00062375249275696163 0.020728074538737033 0 0.00031677266350088883 0.0092583063316034678 0 0.00035620316389032409 0.0092699252500738245 0 0.00029755214343917512 0.0092097318305555571 0 0.0017937791181743389 0.025539307462130505 0 0.0016447443018468713 0.025676438899728007 0 0.0016390737964234003 0.025788424544000235 0 0.0023411711810564766 0.023596926906468845 0 0.0015753687252222572 0.023184018752154742 0 0.001440652095653353 0.024453616062145463 0 0.00062375249275696163 0.020728074538737033 0 0.0015776561492684129 0.025865791504314877 0 0.0017937791181743389 0.025539307462130505 0 0.00171491115629908 0.025462914571763546 0 0.0016447443018468713 0.025676438899728007 0 0.00062375249275696163 0.020728074538737033 0 0.0027171408597548301 0.024706551271470298 0 0.0017894767836269822 0.025399073632079532 0 0.001824648797487019 0.0254466630050031 0 0.00171491115629908 0.025462914571763546 0 0.00062375249275696163 0.020728074538737033 0 0.0017132399602521997 0.015435572794655694 0 0.00038967283626148175 0.0092849565142647146 0 0.00037135390292528775 0.0092807162009193398 0 0.00039689771551677973 0.0092903890886208325 0 0.0017894767836269822 0.025399073632079532 0 0.001824648797487019 0.0254466630050031 0 0.0018455074302282516 0.025356268444244139 0 0.00035620316389032409 0.0092699252500738245 0 0.00038967283626148175 0.0092849565142647146 0 0.00037135390292528775 0.0092807162009193398 0 0.00035493200685900064 0.0093820545067472127 0 0.00039689771551677973 0.0092903890886208325 0 0.00037150957604736818 0.0093065626618466582 0 0.00037135390292528775 0.0092807162009193398 0 0.00039689771551677973 0.0092903890886208325 0 0.00038203512217307165 0.0092928119335746757 0 0.00035832903866962556 0.0092882269994428047 0 0.00037135390292528775 0.0092807162009193398 0 0.00038203512217307165 0.0092928119335746757 0 0.00039689771551677973 0.0092903890886208325 0 0.00038203512217307165 0.0092928119335746757 0 0.00037150957604736818 0.0093065626618466582 0 0.00035832903866962556 0.0092882269994428047 0 0.00038203512217307165 0.0092928119335746757 0 0.00037150957604736818 0.0093065626618466582 0 0.0017894767836269822 0.025399073632079532 0 0.0017322332609212897 0.025327135782534822 0 0.00171491115629908 0.025462914571763546 0 0.0017894767836269822 0.025399073632079532 0 0.0018455074302282516 0.025356268444244139 0 0.0017634322285372769 0.02529916978648232 0 0.0017894767836269822 0.025399073632079532 0 0.0017634322285372769 0.02529916978648232 0 0.0017322332609212897 0.025327135782534822 0 -0.00022647211062948807 0.0030243472124165142 0 -0.00019578874956376857 0.0030105580357183809 0 -0.00022348539680521243 0.0029543001633554168 0 -0.00023330070934595608 0.0028975520264059953 0 -0.00027066186784223894 0.0028258482951739488 0 -0.00022348539680521243 0.0029543001633554168 0 -0.0035385277878785784 -0.0030115500497472606 0 -0.0030862033413083961 -0.0027176996391736871 0 -0.0031011626109939969 -0.0024924145561707259 0 -0.0013613492432137375 0.00031449432203672369 0 -0.00018384490360782608 0.0038869991968449105 0 -0.0041627429908347377 -0.0033026172019303933 0 -0.0039755823956525386 -0.0052674026130487958 0 -0.0041627429908347377 -0.0033026172019303933 0 -0.0013613492432137375 0.00031449432203672369 0 -0.00023330070934595608 0.0028975520264059953 0 -0.00024078611599589816 0.0029018917515392438 0 -0.00027066186784223894 0.0028258482951739488 0 -0.00023330070934595608 0.0028975520264059953 0 -0.00024078611599589816 0.0029018917515392438 0 -0.00025625930038607225 0.002852190323619518 0 -0.0041627429908347377 -0.0033026172019303933 0 -0.0062043799258921211 -0.0060578573760187082 0 -0.0065235176718928117 -0.0064074592067793583 0 -0.0054390098175215017 -0.0061548548827017697 0 -0.0054393849034784884 -0.0067582452539918436 0 -0.0065235176718928117 -0.0064074592067793583 0 -0.0054390098175215017 -0.0061548548827017697 0 -0.0051398808403432588 -0.0052817880938613466 0 -0.0065235176718928117 -0.0064074592067793583 0 -0.0054393849034784884 -0.0067582452539918436 0 -0.0060349023744999362 -0.0078053081968513837 0 -0.0063466543497063014 -0.0088947105037606184 0 -0.0060349023744999362 -0.0078053081968513837 0 -0.007715824556993091 -0.0080621262934836378 0 -0.0065235176718928117 -0.0064074592067793583 0 -0.0060349023744999362 -0.0078053081968513837 0 -0.007715824556993091 -0.0080621262934836378 0 -0.0054393849034784884 -0.0067582452539918436 0 -0.0060349023744999362 -0.0078053081968513837 0 -0.0047627826695937729 -0.0074803361128947601 0 -0.0063466543497063014 -0.0088947105037606184 0 -0.0060349023744999362 -0.0078053081968513837 0 -0.0049768808352067947 -0.008737253372854404 0 -0.0075662779686162078 -0.0096196857948883507 0 -0.0063466543497063014 -0.0088947105037606184 0 -0.007715824556993091 -0.0080621262934836378 0 -0.0041176816603640809 -0.0071679215040810745 0 -0.0039755823956525386 -0.0052674026130487958 0 -0.0030645727497840359 -0.004175474727108254 0 -0.00097684821335608735 -0.0014517894534238228 0 -0.00088909216486233534 -0.0025419862539054314 0 -0.0013613492432137375 0.00031449432203672369 0 -0.0039755823956525386 -0.0052674026130487958 0 -0.0045630338863889112 -0.0039549872983871276 0 -0.0030645727497840359 -0.004175474727108254 0 -0.00097684821335608735 -0.0014517894534238228 0 -0.00144246065438326 0.002238150735348545 0 -0.0013613492432137375 0.00031449432203672369 0 -0.0001928565342393212 0.0030406614888974118 0 -0.00022647211062948807 0.0030243472124165142 0 -0.00019911597971608089 0.0030251250010062953 0 -0.0001928565342393212 0.0030406614888974118 0 -0.00019151234701162919 0.0030304984843361983 0 -0.00019911597971608089 0.0030251250010062953 0 -0.00023437956692537134 0.0094225792783346682 0 -0.00013329100728794334 0.0092726371853845066 0 -0.00040857796596301951 0.0091507131932435891 0 -0.00144246065438326 0.002238150735348545 0 -0.000299514908419082 0.0067567214805798453 0 -0.0001928565342393212 0.0030406614888974118 0 -0.00019151234701162919 0.0030304984843361983 0 -0.0001874895827425946 0.0030327270229351909 0 -0.00023437956692537134 0.0094225792783346682 0 -5.7390069942152179e-05 0.0093969937245374016 0 -0.00013329100728794334 0.0092726371853845066 0 1.7876616986525858e-05 0.0092377056053362834 0 -0.00013329100728794334 0.0092726371853845066 0 -4.2460843853485173e-05 0.0091384179098827623 0 -0.00013329100728794334 0.0092726371853845066 0 -4.2460843853485173e-05 0.0091384179098827623 0 -0.00010804383970589043 0.0090977691074750153 0 -0.000299514908419082 0.0067567214805798453 0 -0.00026259056149588775 0.0043607995928820805 0 -0.0001874895827425946 0.0030327270229351909 0 -0.00018282049162882135 0.0030237640026654685 0 -0.00017505062645152368 0.0030470813705081993 0 -0.00012779284075420483 0.0089288343718445778 0 -0.00040857796596301951 0.0091507131932435891 0 -0.00048709871256238284 0.0059742160401213672 0 -9.4959024253370085e-09 0.0090892254814578643 0 -4.7034587510217204e-05 0.0090408033241935436 0 -4.2460843853485173e-05 0.0091384179098827623 0 -4.7034587510217204e-05 0.0090408033241935436 0 -4.2460843853485173e-05 0.0091384179098827623 0 -0.00010804383970589043 0.0090977691074750153 0 -0.00010804383970589043 0.0090977691074750153 0 -0.00012779284075420483 0.0089288343718445778 0 -0.00040857796596301951 0.0091507131932435891 0 -0.00013329100728794334 0.0092726371853845066 0 -0.00010804383970589043 0.0090977691074750153 0 -0.00040857796596301951 0.0091507131932435891 0 -4.7034587510217204e-05 0.0090408033241935436 0 -0.00010804383970589043 0.0090977691074750153 0 -0.00012779284075420483 0.0089288343718445778 0 -0.00019151234701162919 0.0030304984843361983 0 -0.0001874895827425946 0.0030327270229351909 0 -0.00018282049162882135 0.0030237640026654685 0 2.8197144240128282e-05 0.0090823060109734913 0 -4.7034587510217204e-05 0.0090408033241935436 0 -0.00012779284075420483 0.0089288343718445778 0 -0.00022647211062948807 0.0030243472124165142 0 -0.00019911597971608089 0.0030251250010062953 0 -0.00019578874956376857 0.0030105580357183809 0 -0.00019911597971608089 0.0030251250010062953 0 -0.00018282049162882135 0.0030237640026654685 0 -0.00019578874956376857 0.0030105580357183809 0 -0.00019151234701162919 0.0030304984843361983 0 -0.00019911597971608089 0.0030251250010062953 0 -0.00018282049162882135 0.0030237640026654685 0 -0.00018282049162882135 0.0030237640026654685 0 -0.00019578874956376857 0.0030105580357183809 0 -0.00017426683953585854 0.003016123949415494 0 -0.00019578874956376857 0.0030105580357183809 0 -0.00017426683953585854 0.003016123949415494 0 -0.00022348539680521243 0.0029543001633554168 0 -0.00017426683953585854 0.003016123949415494 0 -0.00015273471787582976 0.0030388649084953467 0 -0.00022348539680521243 0.0029543001633554168 0 -0.00015273471787582976 0.0030388649084953467 0 -0.00017896997591768045 0.0030152676432870754 0 -0.00022348539680521243 0.0029543001633554168 0 -0.00018282049162882135 0.0030237640026654685 0 -0.00017426683953585854 0.003016123949415494 0 -0.00017505062645152368 0.0030470813705081993 0 -0.00017426683953585854 0.003016123949415494 0 -0.00015273471787582976 0.0030388649084953467 0 -0.00017505062645152368 0.0030470813705081993 0 -0.00015273471787582976 0.0030388649084953467 0 -0.00017505062645152368 0.0030470813705081993 0 9.4262487893230896e-07 0.0032995182831263314 0 0.0013109379864902845 0.0053547739052856409 0 -0.00048709871256238284 0.0059742160401213672 0 9.4262487893230896e-07 0.0032995182831263314 0 0.0008159533047745537 0.0069976787232709208 0 -0.00017409195761308938 0.0089935258063717806 0 0.0013109379864902845 0.0053547739052856409 0 -0.00012779284075420483 0.0089288343718445778 0 -0.00048709871256238284 0.0059742160401213672 0 9.4262487893230896e-07 0.0032995182831263314 0 -0.00017896997591768045 0.0030152676432870754 0 -0.00010132020044783093 0.0029148458641939097 0 -0.00026259056149588775 0.0043607995928820805 0 -7.7761725291945307e-05 0.003458293246378836 0 0.0011849423240012573 0.0036871408854859244 0 9.4262487893230896e-07 0.0032995182831263314 0 0.00048892477641503617 0.0030468946928512946 0 -0.00015273471787582976 0.0030388649084953467 0 9.4262487893230896e-07 0.0032995182831263314 0 -0.00017896997591768045 0.0030152676432870754 0 -0.00017896997591768045 0.0030152676432870754 0 -0.00022563068565865972 0.0029174749051961617 0 -0.00023293534966900824 0.0028563098731658213 0 -0.00017896997591768045 0.0030152676432870754 0 -0.00022563068565865972 0.0029174749051961617 0 -0.00022348539680521243 0.0029543001633554168 0 -0.00022563068565865972 0.0029174749051961617 0 -0.00023098050147536664 0.0028463379266494885 0 -0.000239684922117811 0.0028337772550174373 0 -0.00022563068565865972 0.0029174749051961617 0 -0.00023199365892040701 0.0028844827734045538 0 -0.00023098050147536664 0.0028463379266494885 0 -0.00022563068565865972 0.0029174749051961617 0 -0.00023199365892040701 0.0028844827734045538 0 -0.00022348539680521243 0.0029543001633554168 0 -0.00023330070934595608 0.0028975520264059953 0 -0.000237795850982793 0.0028933570371149778 0 -0.00022348539680521243 0.0029543001633554168 0 -0.00023199365892040701 0.0028844827734045538 0 -0.000237795850982793 0.0028933570371149778 0 -0.00022348539680521243 0.0029543001633554168 0 -0.00023330070934595608 0.0028975520264059953 0 -0.00025625930038607225 0.002852190323619518 0 -0.000237795850982793 0.0028933570371149778 0 -0.0041627429908347377 -0.0033026172019303933 0 -0.001919968028676385 0.00046306371335127236 0 0.00034682987651491495 0.0032265495831524677 0 -0.001919968028676385 0.00046306371335127236 0 -0.0061912994115457601 -0.0059908410879617631 0 -0.0054118959518107603 -0.0048829822512568965 0 -0.0051398808403432588 -0.0052817880938613466 0 -0.00025625930038607225 0.002852190323619518 0 -0.000237795850982793 0.0028933570371149778 0 -0.00024023518644099724 0.0028701929993253539 0 -0.00025625930038607225 0.002852190323619518 0 -0.00024023518644099724 0.0028701929993253539 0 -0.00024054010142887002 0.0028540207007008698 0 -0.00024078611599589816 0.0029018917515392438 0 -0.00025625930038607225 0.002852190323619518 0 -0.00048631641994799021 0.0027212042196473733 0 -0.00023199365892040701 0.0028844827734045538 0 -0.000237795850982793 0.0028933570371149778 0 -0.00024023518644099724 0.0028701929993253539 0 -0.00023199365892040701 0.0028844827734045538 0 -0.00024023518644099724 0.0028701929993253539 0 -0.00023108402952419331 0.0028506726658014234 0 -0.00024023518644099724 0.0028701929993253539 0 -0.00023108402952419331 0.0028506726658014234 0 -0.00024054010142887002 0.0028540207007008698 0 -0.00023108402952419331 0.0028506726658014234 0 -0.00024054010142887002 0.0028540207007008698 0 -0.00022392304390136887 0.0028014208941572029 0 -0.00023199365892040701 0.0028844827734045538 0 -0.00023108402952419331 0.0028506726658014234 0 -0.00023098050147536664 0.0028463379266494885 0 -0.00023108402952419331 0.0028506726658014234 0 -0.00022392304390136887 0.0028014208941572029 0 -0.00023098050147536664 0.0028463379266494885 0 -0.00023098050147536664 0.0028463379266494885 0 -0.00022557342653218207 0.0027795996270499499 0 -0.000239684922117811 0.0028337772550174373 0 -0.00022392304390136887 0.0028014208941572029 0 -0.00021165208765153016 0.0027375566124645252 0 -0.00022557342653218207 0.0027795996270499499 0 -0.00022392304390136887 0.0028014208941572029 0 -0.00023098050147536664 0.0028463379266494885 0 -0.00022557342653218207 0.0027795996270499499 0 -0.00021165208765153016 0.0027375566124645252 0 -0.0002368547924318451 0.0027591480681240905 0 -0.00019108606644366137 0.0026578382340948924 0 -0.001919968028676385 0.00046306371335127236 0 -0.002099138822477135 -0.00063676993648197793 0 -0.00022392304390136887 0.0028014208941572029 0 -0.00021165208765153016 0.0027375566124645252 0 -0.0002368547924318451 0.0027591480681240905 0 -0.00081938313602750547 0.0017259990767236231 0 -0.00047961185774374161 0.0022029463443652042 0 -0.00017822191645607815 0.0023169874313230094 0 -0.0054118959518107603 -0.0048829822512568965 0 -0.0033924663236445381 -0.0027850379564988881 0 -0.0041436042895744438 -0.0041692347110376888 0 -0.0002368547924318451 0.0027591480681240905 0 -0.00014163616588399081 0.0025163527291013192 0 -0.00019108606644366137 0.0026578382340948924 0 -7.762209036673872e-05 0.0028068027518560637 0 -0.00027196830242907569 0.0024263514448551108 0 -0.00024054010142887002 0.0028540207007008698 0 -0.00022392304390136887 0.0028014208941572029 0 -0.0002368547924318451 0.0027591480681240905 0 -0.0033924663236445381 -0.0027850379564988881 0 -0.0025937458824156039 -0.0033456250238566763 0 -0.0014574217846689971 -0.0026090098275256515 0 -0.00047961185774374161 0.0022029463443652042 0 -0.00017822191645607815 0.0023169874313230094 0 -0.00014163616588399081 0.0025163527291013192 0 -0.0033924663236445381 -0.0027850379564988881 0 -0.0031889059511812081 -0.0038473574441537195 0 -0.0041436042895744438 -0.0041692347110376888 0 -0.0033924663236445381 -0.0027850379564988881 0 -0.0031889059511812081 -0.0038473574441537195 0 -0.0025937458824156039 -0.0033456250238566763 0 -0.0031889059511812081 -0.0038473574441537195 0 -0.0025937458824156039 -0.0033456250238566763 0 -0.0024366360375587849 -0.0042750170876694835 0 -0.0025937458824156039 -0.0033456250238566763 0 -0.0024366360375587849 -0.0042750170876694835 0 -0.0014574217846689971 -0.0026090098275256515 0 -0.0031889059511812081 -0.0038473574441537195 0 -0.0034078578914728025 -0.0047379972820990766 0 -0.0041436042895744438 -0.0041692347110376888 0 -0.0031889059511812081 -0.0038473574441537195 0 -0.0024366360375587849 -0.0042750170876694835 0 -0.0034078578914728025 -0.0047379972820990766 0 -0.0034078578914728025 -0.0047379972820990766 0 -0.0038157677164704904 -0.0056198931950176799 0 -0.002521253303650084 -0.0060286265284730488 0 -0.0024366360375587849 -0.0042750170876694835 0 -0.0034078578914728025 -0.0047379972820990766 0 -0.002521253303650084 -0.0060286265284730488 0 -0.001919968028676385 0.00046306371335127236 0 -7.762209036673872e-05 0.0028068027518560637 0 -0.0054118959518107603 -0.0048829822512568965 0 -0.0041436042895744438 -0.0041692347110376888 0 -0.0046781767277710596 -0.0048871239023130951 0 -0.0034078578914728025 -0.0047379972820990766 0 -0.0041436042895744438 -0.0041692347110376888 0 -0.004109602220538946 -0.0049501789085280084 0 -0.0041436042895744438 -0.0041692347110376888 0 -0.004109602220538946 -0.0049501789085280084 0 -0.0046781767277710596 -0.0048871239023130951 0 -0.004109602220538946 -0.0049501789085280084 0 -0.0044878461959757558 -0.0053338537974972067 0 -0.0046781767277710596 -0.0048871239023130951 0 -0.0034078578914728025 -0.0047379972820990766 0 -0.004109602220538946 -0.0049501789085280084 0 -0.0038157677164704904 -0.0056198931950176799 0 -0.004109602220538946 -0.0049501789085280084 0 -0.0038157677164704904 -0.0056198931950176799 0 -0.0044878461959757558 -0.0053338537974972067 0 -0.0044878461959757558 -0.0053338537974972067 0 -0.0051398808403432588 -0.0052817880938613466 0 -0.00463971452018235 -0.0061736338620188135 0 -0.0044878461959757558 -0.0053338537974972067 0 -0.0046781767277710596 -0.0048871239023130951 0 -0.0051398808403432588 -0.0052817880938613466 0 -0.0054118959518107603 -0.0048829822512568965 0 -0.0046781767277710596 -0.0048871239023130951 0 -0.0051398808403432588 -0.0052817880938613466 0 -0.0054390098175215017 -0.0061548548827017697 0 -0.0054393849034784884 -0.0067582452539918436 0 -0.00463971452018235 -0.0061736338620188135 0 -0.0054390098175215017 -0.0061548548827017697 0 -0.0051398808403432588 -0.0052817880938613466 0 -0.00463971452018235 -0.0061736338620188135 0 -0.0054393849034784884 -0.0067582452539918436 0 -0.00463971452018235 -0.0061736338620188135 0 -0.0047627826695937729 -0.0074803361128947601 0 -0.00463971452018235 -0.0061736338620188135 0 -0.0036608141138817596 -0.0067676757333145548 0 -0.0047627826695937729 -0.0074803361128947601 0 -0.0038157677164704904 -0.0056198931950176799 0 -0.00463971452018235 -0.0061736338620188135 0 -0.0036608141138817596 -0.0067676757333145548 0 -0.0038157677164704904 -0.0056198931950176799 0 -0.0044878461959757558 -0.0053338537974972067 0 -0.00463971452018235 -0.0061736338620188135 0 -0.002521253303650084 -0.0060286265284730488 0 -0.0036608141138817596 -0.0067676757333145548 0 -0.0029826956190627659 -0.0077407475594533561 0 -0.002521253303650084 -0.0060286265284730488 0 -0.0029826956190627659 -0.0077407475594533561 0 -0.0017809441933839321 -0.0072550694344394387 0 -0.0038157677164704904 -0.0056198931950176799 0 -0.002521253303650084 -0.0060286265284730488 0 -0.0036608141138817596 -0.0067676757333145548 0 -0.0029826956190627659 -0.0077407475594533561 0 -0.0038841839935175831 -0.0082996941359272085 0 -0.0033085635208251578 -0.0093661428523985901 0 -0.0029826956190627659 -0.0077407475594533561 0 -0.0010247035106045403 -0.008555017675794677 0 -0.0033085635208251578 -0.0093661428523985901 0 -0.00085515253258088659 -0.0090680263880463415 0 -0.0026899513048940296 -0.010143343130546503 0 -0.0036608141138817596 -0.0067676757333145548 0 -0.0029826956190627659 -0.0077407475594533561 0 -0.0038841839935175831 -0.0082996941359272085 0 -0.0038841839935175831 -0.0082996941359272085 0 -0.0049768808352067947 -0.008737253372854404 0 -0.0033085635208251578 -0.0093661428523985901 0 -0.0038841839935175831 -0.0082996941359272085 0 -0.0049768808352067947 -0.008737253372854404 0 -0.0047627826695937729 -0.0074803361128947601 0 -0.0060349023744999362 -0.0078053081968513837 0 -0.0049768808352067947 -0.008737253372854404 0 -0.0047627826695937729 -0.0074803361128947601 0 -0.0036608141138817596 -0.0067676757333145548 0 -0.0038841839935175831 -0.0082996941359272085 0 -0.0047627826695937729 -0.0074803361128947601 0 0.0010542842723837429 -0.010524760124348768 0 -0.000406355569982252 -0.011268374387522196 0 -0.00085515253258088659 -0.0090680263880463415 0 0.0014520464717268883 -0.0078834584201724518 0 0.0015687067234986536 -0.0078097458446210423 0 0.0029041514860374809 -0.0092371648847051121 0 0.00035648768677999865 -0.010712474004900163 0 -0.0008633279327322494 -0.009634873916661655 0 0.0015687067234986536 -0.0078097458446210423 0 0.00035648768677999865 -0.010712474004900163 0 -0.0029826956190627659 -0.0077407475594533561 0 -0.0010247035106045403 -0.008555017675794677 0 -0.0017809441933839321 -0.0072550694344394387 0 -0.002521253303650084 -0.0060286265284730488 0 -0.00058897573472272487 -0.006671106074128394 0 -0.0012763790246769408 -0.0051714070176629365 0 -0.0010247035106045403 -0.008555017675794677 0 -0.00058897573472272487 -0.006671106074128394 0 -0.0017809441933839321 -0.0072550694344394387 0 -0.002521253303650084 -0.0060286265284730488 0 -0.00058897573472272487 -0.006671106074128394 0 -0.0017809441933839321 -0.0072550694344394387 0 -0.00058897573472272487 -0.006671106074128394 0 0.0015687067234986536 -0.0078097458446210423 0 0.00031990640548921394 -0.0047161121008538216 0 -0.0010247035106045403 -0.008555017675794677 0 -0.00058897573472272487 -0.006671106074128394 0 0.0015687067234986536 -0.0078097458446210423 0 -0.0024366360375587849 -0.0042750170876694835 0 -0.0012763790246769408 -0.0051714070176629365 0 -0.0014574217846689971 -0.0026090098275256515 0 -0.00058897573472272487 -0.006671106074128394 0 0.00031990640548921394 -0.0047161121008538216 0 -0.0012763790246769408 -0.0051714070176629365 0 0.00031990640548921394 -0.0047161121008538216 0 -0.0012763790246769408 -0.0051714070176629365 0 -0.0014574217846689971 -0.0026090098275256515 0 -0.0024366360375587849 -0.0042750170876694835 0 -0.002521253303650084 -0.0060286265284730488 0 -0.0012763790246769408 -0.0051714070176629365 0 0.00031990640548921394 -0.0047161121008538216 0 0.00067641548092582833 -0.0024127735009002887 0 0.0022145869309964121 -0.0037219617575649862 0 0.00031990640548921394 -0.0047161121008538216 0 -0.0014574217846689971 -0.0026090098275256515 0 0.00067641548092582833 -0.0024127735009002887 0 0.00067641548092582833 -0.0024127735009002887 0 0.0022145869309964121 -0.0037219617575649862 0 0.0029914330266270178 -0.00087670755558269585 0 0.0022145869309964121 -0.0037219617575649862 0 0.0043651758277947752 -0.0042509117907581226 0 0.0029914330266270178 -0.00087670755558269585 0 0.0010627217916512235 -0.008494313646717995 0 0.00086052978270311972 -0.0096295554371502255 0 2.9254824561082419e-05 -0.0078681779552921705 0 0.0027985394334173143 -0.0068197597751084678 0 0.001491212897072736 -0.0044818028169021067 0 0.0027985394334173143 -0.0068197597751084678 0 0.0022527276779265044 -0.010085653033552109 0 0.0022145869309964121 -0.0037219617575649862 0 0.0043651758277947752 -0.0042509117907581226 0 0.0027655566423140333 -0.0062602774966774802 0 0.00037627493355809374 -0.0048139587446376815 0 0.003152539904609032 -0.0061932800412119312 0 0.00031990640548921394 -0.0047161121008538216 0 0.0022145869309964121 -0.0037219617575649862 0 0.0027655566423140333 -0.0062602774966774802 0 0.0017976517306304667 -0.015886650077191228 0 0.0016794872713352476 -0.015920424722566787 0 0.0016184391704016066 -0.01564361788636949 0 0.0010627217916512235 -0.008494313646717995 0 0.0023687626148383846 -0.0092953082546326955 0 0.0016499776664767713 -0.0076124162686836755 0 0.0010627217916512235 -0.008494313646717995 0 0.00086052978270311972 -0.0096295554371502255 0 0.0023687626148383846 -0.0092953082546326955 0 0.00086052978270311972 -0.0096295554371502255 0 0.0017896785775980948 -0.010222662527314975 0 0.0016053593383258996 -0.011340323243394502 0 0.00086052978270311972 -0.0096295554371502255 0 0.0023687626148383846 -0.0092953082546326955 0 0.0017896785775980948 -0.010222662527314975 0 0.0023687626148383846 -0.0092953082546326955 0 0.0017896785775980948 -0.010222662527314975 0 0.0024164165139547418 -0.010949870029983787 0 0.0016794872713352476 -0.015920424722566787 0 0.0017067692751716198 -0.016090978486897254 0 0.0018552632040504614 -0.01606423694046745 0 0.0017976517306304667 -0.015886650077191228 0 0.0016794872713352476 -0.015920424722566787 0 0.0018552632040504614 -0.01606423694046745 0 0.0020795334653376189 -0.012718359753079106 0 0.001443859881894045 -0.012775747370537936 0 0.00065732894083294724 -0.011987382822875202 0 0.00078682440035655779 -0.012170263254337602 0 0.00093063763721142761 -0.012071403280632491 0 0.001443859881894045 -0.012775747370537936 0 0.0013441507321889749 -0.013983872003694279 0 0.00065732894083294724 -0.011987382822875202 0 0.00093063763721142761 -0.012071403280632491 0 0.00092903459968216159 -0.011839050054200457 0 0.001443859881894045 -0.012775747370537936 0 0.00068498363898450779 -0.011918051852002412 0 0.0017896785775980948 -0.010222662527314975 0 0.0024164165139547418 -0.010949870029983787 0 0.0016053593383258996 -0.011340323243394502 0 0.00068443410976321202 -0.011980599570756548 0 0.00051514452780274339 -0.012058644917407137 0 0.00054765621229271324 -0.012147444484055955 0 0.001443859881894045 -0.012775747370537936 0 0.0022527276779265044 -0.010085653033552109 0 0.0022527276779265044 -0.010085653033552109 0 0.0029409209096670154 -0.0095199420916645752 0 0.0010487884384188101 -0.01110091967402161 0 0.00054251624585702066 -0.012228800764310868 0 0.00068443410976321202 -0.011980599570756548 0 0.00054765621229271324 -0.012147444484055955 0 0.00067419998880807882 -0.012210617317721365 0 6.0083853448883397e-05 -0.011818129337027496 0 0.00044277239707463009 -0.01206166940667616 0 0.00024950191686906164 -0.012310413215430816 0 0.0010487884384188101 -0.01110091967402161 0 6.9830621206771069e-05 -0.012409773500270999 0 0.00054765621229271324 -0.012147444484055955 0 0.00067419998880807882 -0.012210617317721365 0 0.0007572980248595375 -0.012304920201197826 0 3.6976353341277528e-05 -0.011593046028746331 0 -0.00015322597477927327 -0.011483908431227659 0 -0.00023032291371758449 -0.011766569402583178 0 0.0010487884384188101 -0.01110091967402161 0 0.0029409209096670154 -0.0095199420916645752 0 0.001931513068083787 -0.010315562722613619 0 0.0019070687849311512 -0.01026830808520009 0 0.0019664312533042025 -0.010297993498635829 0 0.0022527276779265044 -0.010085653033552109 0 0.0010487884384188101 -0.01110091967402161 0 3.6976353341277528e-05 -0.011593046028746331 0 -0.00023032291371758449 -0.011766569402583178 0 -0.00010062911755750037 -0.012023482625448148 0 0.00065732894083294724 -0.011987382822875202 0 0.00067419998880807882 -0.012210617317721365 0 0.00078682440035655779 -0.012170263254337602 0 0.00067419998880807882 -0.012210617317721365 0 0.0007572980248595375 -0.012304920201197826 0 0.00078682440035655779 -0.012170263254337602 0 0.0007572980248595375 -0.012304920201197826 0 0.00078682440035655779 -0.012170263254337602 0 0.00091991904537885502 -0.012270454438978864 0 0.0015687067234986536 -0.0078097458446210423 0 0.00031990640548921394 -0.0047161121008538216 0 0.0029020865798362223 -0.0063198297686385563 0 0.0015687067234986536 -0.0078097458446210423 0 0.0032217890988925362 -0.0078214907777325003 0 0.0029020865798362223 -0.0063198297686385563 0 0.003152539904609032 -0.0061932800412119312 0 0.0029409209096670154 -0.0095199420916645752 0 0.0043651758277947752 -0.0042509117907581226 0 0.0057216014904021405 -0.0075258725370327736 0 0.0052013516721376501 -0.0077815499302250277 0 0.0043651758277947752 -0.0042509117907581226 0 0.0027655566423140333 -0.0062602774966774802 0 0.0052013516721376501 -0.0077815499302250277 0 0.0032217890988925362 -0.0078214907777325003 0 0.0029020865798362223 -0.0063198297686385563 0 0.0054894096825880727 -0.007921525833547367 0 -0.00015322597477927327 -0.011483908431227659 0 -0.00023032291371758449 -0.011766569402583178 0 -0.00067036798044112765 -0.011730192147968117 0 0.0029409209096670154 -0.0095199420916645752 0 0.0010542842723837429 -0.010524760124348768 0 -0.00023032291371758449 -0.011766569402583178 0 -0.00067036798044112765 -0.011730192147968117 0 -0.00034138758754042236 -0.012011588010002447 0 0.0032217890988925362 -0.0078214907777325003 0 0.0054894096825880727 -0.007921525833547367 0 0.0029041514860374809 -0.0092371648847051121 0 0.0015687067234986536 -0.0078097458446210423 0 0.0032217890988925362 -0.0078214907777325003 0 0.0029041514860374809 -0.0092371648847051121 0 -0.00067036798044112765 -0.011730192147968117 0 -0.00064656251916769835 -0.012156817528095821 0 -0.00034138758754042236 -0.012011588010002447 0 -0.00067036798044112765 -0.011730192147968117 0 -0.00064656251916769835 -0.012156817528095821 0 -0.0011337460147188114 -0.0118509879636629 0 -0.00064656251916769835 -0.012156817528095821 0 -0.00034138758754042236 -0.012011588010002447 0 -0.00019005976386521071 -0.01239232816230227 0 -0.00023032291371758449 -0.011766569402583178 0 -0.00034138758754042236 -0.012011588010002447 0 -0.00010062911755750037 -0.012023482625448148 0 -0.00034138758754042236 -0.012011588010002447 0 -0.00019005976386521071 -0.01239232816230227 0 -0.00010062911755750037 -0.012023482625448148 0 -0.00064656251916769835 -0.012156817528095821 0 -0.00053716514708044053 -0.01264772650488087 0 -0.00019005976386521071 -0.01239232816230227 0 -0.00053716514708044053 -0.01264772650488087 0 -0.00019005976386521071 -0.01239232816230227 0 -0.00018231958413706545 -0.012811648727669595 0 -0.00064656251916769835 -0.012156817528095821 0 -0.00053716514708044053 -0.01264772650488087 0 -0.0010035696929055237 -0.012308804380506801 0 0.00044277239707463009 -0.01206166940667616 0 0.00049067259873247511 -0.012500916267237887 0 0.00024950191686906164 -0.012310413215430816 0 0.00044277239707463009 -0.01206166940667616 0 0.00049067259873247511 -0.012500916267237887 0 0.00093970838238932532 -0.012486759612643505 0 -0.00019005976386521071 -0.01239232816230227 0 0.00024950191686906164 -0.012310413215430816 0 -0.00010062911755750037 -0.012023482625448148 0 3.6976353341277528e-05 -0.011593046028746331 0 0.00024950191686906164 -0.012310413215430816 0 -0.00010062911755750037 -0.012023482625448148 0 -0.00019005976386521071 -0.01239232816230227 0 0.00024950191686906164 -0.012310413215430816 0 0.00020015146354625672 -0.012716291701793687 0 -0.00019005976386521071 -0.01239232816230227 0 0.00020015146354625672 -0.012716291701793687 0 -0.00018231958413706545 -0.012811648727669595 0 0.00049067259873247511 -0.012500916267237887 0 0.00020015146354625672 -0.012716291701793687 0 0.00062949551513283026 -0.012911218227324916 0 0.00049067259873247511 -0.012500916267237887 0 0.00024950191686906164 -0.012310413215430816 0 0.00020015146354625672 -0.012716291701793687 0 0.00020015146354625672 -0.012716291701793687 0 0.00024309064033718465 -0.013388516636244348 0 0.00062949551513283026 -0.012911218227324916 0 0.00020015146354625672 -0.012716291701793687 0 0.00024309064033718465 -0.013388516636244348 0 -0.00018231958413706545 -0.012811648727669595 0 0.00024309064033718465 -0.013388516636244348 0 -0.00018231958413706545 -0.012811648727669595 0 -0.00028380359415750331 -0.013212296696316144 0 -3.5549629446013317e-06 -0.013776373527804179 0 0.00024309064033718465 -0.013388516636244348 0 -0.00028380359415750331 -0.013212296696316144 0 -0.00053716514708044053 -0.01264772650488087 0 -0.0008216488145331521 -0.012895183530486954 0 -0.00028380359415750331 -0.013212296696316144 0 -0.00053716514708044053 -0.01264772650488087 0 -0.0008216488145331521 -0.012895183530486954 0 -0.0010035696929055237 -0.012308804380506801 0 -0.00053716514708044053 -0.01264772650488087 0 -0.00018231958413706545 -0.012811648727669595 0 -0.00028380359415750331 -0.013212296696316144 0 -0.0008216488145331521 -0.012895183530486954 0 -0.00028380359415750331 -0.013212296696316144 0 -0.00072905473431600929 -0.013333666517006165 0 -0.0008216488145331521 -0.012895183530486954 0 -0.00072905473431600929 -0.013333666517006165 0 -0.0011217888895615486 -0.013146842547926625 0 -0.0008216488145331521 -0.012895183530486954 0 -0.0011217888895615486 -0.013146842547926625 0 -0.0012459136819156812 -0.012616676938753324 0 -0.0008216488145331521 -0.012895183530486954 0 -0.0012459136819156812 -0.012616676938753324 0 -0.0010035696929055237 -0.012308804380506801 0 -0.0012459136819156812 -0.012616676938753324 0 -0.0016802196108339641 -0.012385538829588125 0 -0.0015825317058561002 -0.013000550271357271 0 -0.0011217888895615486 -0.013146842547926625 0 -0.0012459136819156812 -0.012616676938753324 0 -0.0015825317058561002 -0.013000550271357271 0 -0.0014363225106768357 -0.013469002284208428 0 -0.0011217888895615486 -0.013146842547926625 0 -0.0015825317058561002 -0.013000550271357271 0 -0.001942822026394771 -0.013448510368881832 0 -0.0015825317058561002 -0.013000550271357271 0 -0.0021003217681687921 -0.012923817276241091 0 -0.0026431677202283007 -0.013285227379648856 0 -0.0021003217681687921 -0.012923817276241091 0 -0.0026346991648441755 -0.012696189519931254 0 -0.0028739251300048383 -0.012270281512524323 0 -0.0026346991648441755 -0.012696189519931254 0 -0.0023647516347443313 -0.012306155402951102 0 -0.0021003217681687921 -0.012923817276241091 0 -0.0026346991648441755 -0.012696189519931254 0 -0.0023647516347443313 -0.012306155402951102 0 -0.0016802196108339641 -0.012385538829588125 0 -0.0021003217681687921 -0.012923817276241091 0 -0.0023647516347443313 -0.012306155402951102 0 -0.0016802196108339641 -0.012385538829588125 0 -0.0015825317058561002 -0.013000550271357271 0 -0.0021003217681687921 -0.012923817276241091 0 -0.0016802196108339641 -0.012385538829588125 0 -0.0021960623980248955 -0.011886478681445141 0 -0.0016096405849542674 -0.011771631530034261 0 -0.0016802196108339641 -0.012385538829588125 0 -0.0023647516347443313 -0.012306155402951102 0 -0.0021960623980248955 -0.011886478681445141 0 -0.0028739251300048383 -0.012270281512524323 0 -0.0028369430312459362 -0.011703750345503677 0 -0.0023647516347443313 -0.012306155402951102 0 -0.0028369430312459362 -0.011703750345503677 0 -0.0023647516347443313 -0.012306155402951102 0 -0.0021960623980248955 -0.011886478681445141 0 -0.0054222872287912269 -0.010225430930939299 0 -0.0049768808352067947 -0.008737253372854404 0 -0.0033085635208251578 -0.0093661428523985901 0 -0.0045188860192363267 -0.011189822960317994 0 -0.0026899513048940296 -0.010143343130546503 0 -0.0028369430312459362 -0.011703750345503677 0 -0.0021960623980248955 -0.011886478681445141 0 -0.0023199059670662527 -0.011073036516079002 0 -0.0008633279327322494 -0.009634873916661655 0 -0.0023199059670662527 -0.011073036516079002 0 -0.0016096405849542674 -0.011771631530034261 0 -0.0021960623980248955 -0.011886478681445141 0 -0.0023199059670662527 -0.011073036516079002 0 -0.0016096405849542674 -0.011771631530034261 0 -0.0015389149582058677 -0.011766149358587677 0 -0.000406355569982252 -0.011268374387522196 0 -0.0016096405849542674 -0.011771631530034261 0 -0.0011337460147188114 -0.0118509879636629 0 -0.001304479526561992 -0.012115281362484659 0 -0.0008633279327322494 -0.009634873916661655 0 -0.0016096405849542674 -0.011771631530034261 0 0.00035648768677999865 -0.010712474004900163 0 -0.00064656251916769835 -0.012156817528095821 0 -0.0011337460147188114 -0.0118509879636629 0 -0.0010035696929055237 -0.012308804380506801 0 -0.0011337460147188114 -0.0118509879636629 0 -0.0010035696929055237 -0.012308804380506801 0 -0.001304479526561992 -0.012115281362484659 0 -0.0012459136819156812 -0.012616676938753324 0 -0.0010035696929055237 -0.012308804380506801 0 -0.001304479526561992 -0.012115281362484659 0 -0.0012459136819156812 -0.012616676938753324 0 -0.0016802196108339641 -0.012385538829588125 0 -0.001304479526561992 -0.012115281362484659 0 -0.0016802196108339641 -0.012385538829588125 0 -0.0016096405849542674 -0.011771631530034261 0 -0.001304479526561992 -0.012115281362484659 0 -4.5739766913647121e-05 0.034988097534705116 0 -8.4876502834029167e-05 0.034946576486023215 0 -0.00011057239371498818 0.034995015271485706 0 -4.5739766913647121e-05 0.034988097534705116 0 -0.00011057239371498818 0.034995015271485706 0 -6.8096799177903359e-05 0.035016498856802969 0 -4.5739766913647121e-05 0.034988097534705116 0 -1.1939417791478739e-09 0.034999943105600083 0 -4.3121350397142573e-08 0.034999978036748237 0 -4.5739766913647121e-05 0.034988097534705116 0 -1.1939417791478739e-09 0.034999943105600083 0 -8.4876502834029167e-05 0.034946576486023215 0 -1.1939417791478739e-09 0.034999943105600083 0 -8.4876502834029167e-05 0.034946576486023215 0 -4.6349021798511231e-05 0.034878582436260033 0 -8.4876502834029167e-05 0.034946576486023215 0 -0.00018304983388913701 0.034930925650300412 0 -0.00016690923453663542 0.03497975491655516 0 -8.4876502834029167e-05 0.034946576486023215 0 -0.00018304983388913701 0.034930925650300412 0 -0.00011779034150761338 0.034862734708303068 0 -0.00018304983388913701 0.034930925650300412 0 -0.000257325978366728 0.034909579632966536 0 -0.00020351400176779039 0.034846955398464302 0 -0.00018304983388913701 0.034930925650300412 0 -0.00020351400176779039 0.034846955398464302 0 -0.00011779034150761338 0.034862734708303068 0 -0.00036202023328557164 0.034888293504876024 0 -0.000257325978366728 0.034909579632966536 0 -0.00021716856675104072 0.034989021939666673 0 -0.00018304983388913701 0.034930925650300412 0 -0.000257325978366728 0.034909579632966536 0 -0.00021716856675104072 0.034989021939666673 0 -0.00080730875172665018 0.033358344864785498 0 -0.00073184681416728977 0.033078511905390753 0 -0.00088146137824834307 0.032722806886121218 0 -0.00056630874450942206 0.034116188048379369 0 -0.00057294674832892168 0.033841186275159071 0 -0.00080730875172665018 0.033358344864785498 0 -0.00073184681416728977 0.033078511905390753 0 -0.00065012579976934395 0.033453464077641271 0 -0.00073184681416728977 0.033078511905390753 0 -0.00061656918024239607 0.032996815319080421 0 -0.00065012579976934395 0.033453464077641271 0 -0.00036202023328557164 0.034888293504876024 0 -0.000257325978366728 0.034909579632966536 0 -0.00027956902457678453 0.034795759259285866 0 -0.00073184681416728977 0.033078511905390753 0 -0.00088146137824834307 0.032722806886121218 0 -0.00062738426825433805 0.033002633612984028 0 -0.0010525586131547684 0.032535707031673876 0 -0.0011547596496213552 0.032415741210203304 0 -0.00088146137824834307 0.032722806886121218 0 -0.00055309480650023049 0.032506549529329833 0 -0.00062738426825433805 0.033002633612984028 0 -0.00018304983388913701 0.034930925650300412 0 -0.00021716856675104072 0.034989021939666673 0 -0.00016690923453663542 0.03497975491655516 0 -0.00021716856675104072 0.034989021939666673 0 -0.00016690923453663542 0.03497975491655516 0 -0.00016375512955716168 0.03500514219687044 0 -8.4876502834029167e-05 0.034946576486023215 0 -0.00016690923453663542 0.03497975491655516 0 -0.00011057239371498818 0.034995015271485706 0 -0.00016690923453663542 0.03497975491655516 0 -0.00011057239371498818 0.034995015271485706 0 -0.00016375512955716168 0.03500514219687044 0 -0.00011057239371498818 0.034995015271485706 0 -0.00016375512955716168 0.03500514219687044 0 -0.00011803271687702661 0.035016246493665713 0 -0.00016375512955716168 0.03500514219687044 0 -0.00014335456524098349 0.035023984606345301 0 -0.00011803271687702661 0.035016246493665713 0 -0.00011803271687702661 0.035016246493665713 0 -0.00010619364175797375 0.035037882923329274 0 -6.8096799177903359e-05 0.035016498856802969 0 -0.00014335456524098349 0.035023984606345301 0 -0.00011803271687702661 0.035016246493665713 0 -0.00010619364175797375 0.035037882923329274 0 -0.00088146137824834307 0.032722806886121218 0 -0.00069304957913281522 0.032287667042864406 0 -0.00055309480650023049 0.032506549529329833 0 -0.00057294674832892168 0.033841186275159071 0 -0.00037932066300073531 0.033635949968469595 0 -0.00088146137824834307 0.032722806886121218 0 -0.00069304957913281522 0.032287667042864406 0 -0.00095370090906655633 0.032165610356453864 0 -0.00021716856675104072 0.034989021939666673 0 -0.00016375512955716168 0.03500514219687044 0 -0.00016254594605758207 0.035026192644341883 0 -0.00069304957913281522 0.032287667042864406 0 -0.00095370090906655633 0.032165610356453864 0 -0.00047608949879228093 0.032042989948921477 0 -0.00016375512955716168 0.03500514219687044 0 -0.00014335456524098349 0.035023984606345301 0 -0.00016254594605758207 0.035026192644341883 0 -0.00033293329532773795 0.034181709956217804 0 -0.00037932066300073531 0.033635949968469595 0 -0.00011573709261604879 0.034455699199784175 0 -0.0012542269114459107 0.03185282909324693 0 -0.00037932066300073531 0.033635949968469595 0 -0.0011880649579484113 0.031102052474170892 0 -0.00044111521944140966 0.03271321187995864 0 -0.00066508978761191135 0.032885587140969105 0 -0.00089346793970130722 0.032804717043623921 0 -0.00066508978761191135 0.032885587140969105 0 -0.00039590053916433246 0.033023746033299627 0 -0.00092980169498658213 0.033000931821064734 0 -0.00037932066300073531 0.033635949968469595 0 -0.00011573709261604879 0.034455699199784175 0 -0.00044111521944140966 0.03271321187995864 0 -0.00066508978761191135 0.032885587140969105 0 -0.00039590053916433246 0.033023746033299627 0 -0.00015569368581930268 0.035020276735634834 0 -0.00015115327974915535 0.035057297193914996 0 -0.00013815235536222985 0.035035729225518598 0 -0.00011573709261604879 0.034455699199784175 0 -8.0078981141963262e-05 0.035035278993046488 0 -0.00015115327974915535 0.035057297193914996 0 -0.00010619364175797375 0.035037882923329274 0 -7.3497125959896787e-05 0.035049316750466436 0 -0.00015115327974915535 0.035057297193914996 0 -0.00010619364175797375 0.035037882923329274 0 -0.00013815235536222985 0.035035729225518598 0 -0.00014335456524098349 0.035023984606345301 0 -0.00010619364175797375 0.035037882923329274 0 -0.00013815235536222985 0.035035729225518598 0 -0.00014335456524098349 0.035023984606345301 0 -0.00015569368581930268 0.035020276735634834 0 -0.00013815235536222985 0.035035729225518598 0 -7.3497125959896787e-05 0.035049316750466436 0 -6.8096799177903359e-05 0.035016498856802969 0 -1.6543169672035029e-08 0.035000127274627084 0 -0.00010619364175797375 0.035037882923329274 0 -7.3497125959896787e-05 0.035049316750466436 0 -6.8096799177903359e-05 0.035016498856802969 0 -0.00011057239371498818 0.034995015271485706 0 -0.00011803271687702661 0.035016246493665713 0 -6.8096799177903359e-05 0.035016498856802969 0 -6.8096799177903359e-05 0.035016498856802969 0 -4.3121350397142573e-08 0.034999978036748237 0 -1.6543169672035029e-08 0.035000127274627084 0 -4.5739766913647121e-05 0.034988097534705116 0 -6.8096799177903359e-05 0.035016498856802969 0 -4.3121350397142573e-08 0.034999978036748237 0 -8.0078981141963262e-05 0.035035278993046488 0 -2.3295741798991951e-08 0.034999971568017534 0 -2.6149196219701687e-10 0.034999884725716961 0 -2.4897865984401896e-05 0.034977322915301569 0 -1.0935152207618218e-08 0.035000004876803249 0 -5.4506278403409894e-05 0.034917597752002795 0 -2.6149196219701687e-10 0.034999884725716961 0 -2.4897865984401896e-05 0.034977322915301569 0 -5.4506278403409894e-05 0.034917597752002795 0 -2.4897865984401896e-05 0.034977322915301569 0 -8.2708398896889636e-05 0.034961031017434419 0 -2.4897865984401896e-05 0.034977322915301569 0 -4.1452611760098439e-05 0.035021569442010694 0 -8.2708398896889636e-05 0.034961031017434419 0 -2.4897865984401896e-05 0.034977322915301569 0 -1.0935152207618218e-08 0.035000004876803249 0 -4.1452611760098439e-05 0.035021569442010694 0 -1.061446717182424e-08 0.034999931353130981 0 -0.00024483671179055002 0.034606325802994241 0 -1.0935152207618218e-08 0.035000004876803249 0 -7.7178020658264986e-09 0.035000038783200689 0 -4.1452611760098439e-05 0.035021569442010694 0 1.1152344563827829e-07 0.034999185070308587 0 -0.00034158233451005252 0.034307017066580632 0 -0.00030974304455811704 0.034732055847722945 0 -0.00034158233451005252 0.034307017066580632 0 -0.00030974304455811704 0.034732055847722945 0 -0.00073581145712753413 0.034467787270955091 0 -0.00030974304455811704 0.034732055847722945 0 -0.00055833096188043988 0.034935109519993963 0 -0.00073581145712753413 0.034467787270955091 0 -0.00022801282598165255 0.03508836863109991 0 -0.00019338120427151998 0.034942682539809422 0 -0.00055833096188043988 0.034935109519993963 0 -0.00026572608237309829 0.035054601984586618 0 -0.00070678458882509623 0.034618811672412673 0 -0.00030974304455811704 0.034732055847722945 0 -0.00019338120427151998 0.034942682539809422 0 -0.00055833096188043988 0.034935109519993963 0 1.1152344563827829e-07 0.034999185070308587 0 -0.00030974304455811704 0.034732055847722945 0 -0.00019338120427151998 0.034942682539809422 0 -1.2990159004170879e-07 0.035000493462906027 0 1.1152344563827829e-07 0.034999185070308587 0 -0.00019338120427151998 0.034942682539809422 0 -0.00097781981466624093 0.026205422986034607 0 -0.001359257597436544 0.024746869347069485 0 -0.00012188863099280202 0.024203488649848611 0 -0.001359257597436544 0.024746869347069485 0 -0.00012188863099280202 0.024203488649848611 0 -0.0020442316721502288 0.023258406871362491 0 -0.00067221493150318565 0.034993586570577079 0 -0.0013029610109585633 0.03431432733654724 0 -0.00084488539324098684 0.034302115195626079 0 0.00036868860598904225 0.030210672205959244 0 -0.00072589419753264393 0.029272175880775044 0 -0.00070678458882509623 0.034618811672412673 0 -0.0013655476914325492 0.033981403376870084 0 -0.0013029610109585633 0.03431432733654724 0 -0.00084488539324098684 0.034302115195626079 0 -0.0014915942900669372 0.03369640355085101 0 -0.00055833096188043988 0.034935109519993963 0 -0.00073581145712753413 0.034467787270955091 0 -0.0012496428450384776 0.034283878967874527 0 -0.00072589419753264393 0.029272175880775044 0 -0.0017024192736147033 0.02844165435768654 0 -0.00012188863099280202 0.024203488649848611 0 -0.0016519772145940639 0.022826491964969824 0 -0.0020442316721502288 0.023258406871362491 0 -0.0013029610109585633 0.03431432733654724 0 -0.0014915942900669372 0.03369640355085101 0 -0.0017949622783142636 0.033783062522269446 0 -0.0013655476914325492 0.033981403376870084 0 -0.0018888553675677155 0.033401859261775524 0 -0.0014915942900669372 0.03369640355085101 0 -0.0017949622783142636 0.033783062522269446 0 -0.0019267796942476062 0.033351015479482153 0 -0.0012496428450384776 0.034283878967874527 0 -0.0012208663566819452 0.033517457295351154 0 -0.0019267796942476062 0.033351015479482153 0 -0.00073581145712753413 0.034467787270955091 0 -0.0012496428450384776 0.034283878967874527 0 -0.0012208663566819452 0.033517457295351154 0 -0.00024483671179055002 0.034606325802994241 0 -0.00065268786956989601 0.034564727575329308 0 -0.00034158233451005252 0.034307017066580632 0 -0.00073581145712753413 0.034467787270955091 0 -0.0012208663566819452 0.033517457295351154 0 -4.1452611760098439e-05 0.035021569442010694 0 -0.00020216702480449576 0.035003353756463969 0 -8.2708398896889636e-05 0.034961031017434419 0 -0.00020216702480449576 0.035003353756463969 0 -8.2708398896889636e-05 0.034961031017434419 0 -0.00016972828867996224 0.034915762895973194 0 -0.00016968369407904745 0.034872967624778851 0 -5.4506278403409894e-05 0.034917597752002795 0 -0.00016972828867996224 0.034915762895973194 0 -5.4506278403409894e-05 0.034917597752002795 0 -8.2708398896889636e-05 0.034961031017434419 0 -0.00016972828867996224 0.034915762895973194 0 -0.00020216702480449576 0.035003353756463969 0 -0.00016972828867996224 0.034915762895973194 0 -0.00090616030377137485 0.034602511419382947 0 -0.00065268786956989601 0.034564727575329308 0 -0.0015220925895482846 0.031790799690688744 0 -0.0002242809610409598 0.034483042334208777 0 -0.00016972828867996224 0.034915762895973194 0 -0.00090616030377137485 0.034602511419382947 0 -0.00011573709261604879 0.034455699199784175 0 -0.0001517546665507997 0.034937443990436669 0 -0.0015220925895482846 0.031790799690688744 0 -0.0017062596194193718 0.027322253049619657 0 -0.0012208663566819452 0.033517457295351154 0 -0.0019267796942476062 0.033351015479482153 0 -0.0021931005627323979 0.032850437908631132 0 -0.0014113769218902863 0.027367368549280825 0 -0.0016354222729582585 0.027438188719508864 0 -0.0015071774933814806 0.027876361760931299 0 -0.0019267796942476062 0.033351015479482153 0 -0.0021931005627323979 0.032850437908631132 0 -0.0022097230169906986 0.033473957935732795 0 -0.0018546527443695198 0.027530263110388271 0 -0.0022060419437170452 0.027164963941734201 0 -0.0016707201637114271 0.027198994506820989 0 -0.0014113769218902863 0.027367368549280825 0 -0.0016354222729582585 0.027438188719508864 0 -0.0016707201637114271 0.027198994506820989 0 -0.0016354222729582585 0.027438188719508864 0 -0.0018546527443695198 0.027530263110388271 0 -0.0016707201637114271 0.027198994506820989 0 -0.0016354222729582585 0.027438188719508864 0 -0.0018546527443695198 0.027530263110388271 0 -0.0015071774933814806 0.027876361760931299 0 -0.0020781906978983955 0.024873167215063757 0 -0.0017062596194193718 0.027322253049619657 0 -0.0015994830991983681 0.022619848017233143 0 -0.0022922691790399729 0.023722618728813896 0 -0.0019313836494010053 0.022559259784113685 0 -0.00197214017982647 0.022645366015980949 0 -0.0018615071260957678 0.022793220700793804 0 -0.001898590292440988 0.022856294975984317 0 -0.0018629898884150967 0.022931539172414958 0 -0.0015617250981458423 0.023017927681576497 0 -0.00197214017982647 0.022645366015980949 0 -0.001898590292440988 0.022856294975984317 0 -0.0018615071260957678 0.022793220700793804 0 -0.00197214017982647 0.022645366015980949 0 -0.001898590292440988 0.022856294975984317 0 -0.0020036989972473554 0.022567972901889995 0 -0.0019005568715696722 0.022881024713472836 0 -0.001898590292440988 0.022856294975984317 0 -0.0018629898884150967 0.022931539172414958 0 -0.0019005568715696722 0.022881024713472836 0 -0.001898590292440988 0.022856294975984317 0 -0.0018615071260957678 0.022793220700793804 0 -0.0017024192736147033 0.02844165435768654 0 -0.0017062596194193718 0.027322253049619657 0 -0.0017949622783142636 0.033783062522269446 0 -0.0019267796942476062 0.033351015479482153 0 -0.0022097230169906986 0.033473957935732795 0 -0.0019005568715696722 0.022881024713472836 0 -0.0019281973062360413 0.022847736280173142 0 -0.0019117975594684889 0.022942375131417721 0 -0.001410081229801153 0.023980070726051479 0 -0.0017062596194193718 0.027322253049619657 0 -0.0016519772145940639 0.022826491964969824 0 -0.0019281973062360413 0.022847736280173142 0 -0.0019117975594684889 0.022942375131417721 0 -0.0016519772145940639 0.022826491964969824 0 -0.0020442316721502288 0.023258406871362491 0 -0.0019117975594684889 0.022942375131417721 0 -0.0020442316721502288 0.023258406871362491 0 -0.0019117975594684889 0.022942375131417721 0 -0.0019378631502738909 0.022982266492167402 0 -0.0019117975594684889 0.022942375131417721 0 -0.0018629898884150967 0.022931539172414958 0 -0.0019378631502738909 0.022982266492167402 0 -0.0019005568715696722 0.022881024713472836 0 -0.0019117975594684889 0.022942375131417721 0 -0.0018629898884150967 0.022931539172414958 0 -0.0018629898884150967 0.022931539172414958 0 -0.0017353622404930353 0.022773466272203245 0 -0.0015617250981458423 0.023017927681576497 0 -0.0018629898884150967 0.022931539172414958 0 -0.0017353622404930353 0.022773466272203245 0 -0.0019378631502738909 0.022982266492167402 0 -0.0020827331647069311 0.022367916174109135 0 -0.0017353622404930353 0.022773466272203245 0 -0.0019378631502738909 0.022982266492167402 0 -0.0015834251235400576 0.022308097615945009 0 -0.0020827331647069311 0.022367916174109135 0 -0.0017353622404930353 0.022773466272203245 0 -0.0029737324499430652 0.02568771188370194 0 -0.001359257597436544 0.024746869347069485 0 -0.0020442316721502288 0.023258406871362491 0 -0.0024419907659917186 0.023895749804045938 0 -0.0021051580031366305 0.023317855703832407 0 -0.0020827331647069311 0.022367916174109135 0 -0.0020442316721502288 0.023258406871362491 0 -0.0019378631502738909 0.022982266492167402 0 0.00077007749485179938 0.013678578205699928 0 -0.00040674375785062638 0.013895293609917338 0 -0.0010278481138016008 0.022361060957812845 0 -0.0013903446697138935 0.022678590460777612 0 -0.0010072698644402328 0.022851141460494682 0 -0.0015834251235400576 0.022308097615945009 0 -0.0010278481138016008 0.022361060957812845 0 -0.0013903446697138935 0.022678590460777612 0 -0.0015834251235400576 0.022308097615945009 0 -0.0017353622404930353 0.022773466272203245 0 -0.0013903446697138935 0.022678590460777612 0 -0.0017353622404930353 0.022773466272203245 0 -0.0013903446697138935 0.022678590460777612 0 -0.0015617250981458423 0.023017927681576497 0 -0.0022922691790399729 0.023722618728813896 0 -0.00040674375785062638 0.013895293609917338 0 -0.0020036989972473554 0.022567972901889995 0 -0.002006700655866753 0.022492295387128207 0 -0.0019944033845947524 0.022426220057672183 0 -0.0013903446697138935 0.022678590460777612 0 -0.0015617250981458423 0.023017927681576497 0 -0.0010072698644402328 0.022851141460494682 0 -0.002006700655866753 0.022492295387128207 0 -0.002004201055551972 0.022515554098832369 0 -0.0020197984981550681 0.022450704599857457 0 -0.002006700655866753 0.022492295387128207 0 -0.0020197984981550681 0.022450704599857457 0 -0.0019944033845947524 0.022426220057672183 0 -0.0020036989972473554 0.022567972901889995 0 -0.002006700655866753 0.022492295387128207 0 -0.002004201055551972 0.022515554098832369 0 -0.00197214017982647 0.022645366015980949 0 -0.0020036989972473554 0.022567972901889995 0 -0.002004201055551972 0.022515554098832369 0 -0.00197214017982647 0.022645366015980949 0 -0.002004201055551972 0.022515554098832369 0 -0.0019856043388019186 0.022513631906053658 0 -0.0019313836494010053 0.022559259784113685 0 -0.00197214017982647 0.022645366015980949 0 -0.0019856043388019186 0.022513631906053658 0 -0.002004201055551972 0.022515554098832369 0 -0.0019856043388019186 0.022513631906053658 0 -0.0020012760990925555 0.022463657247316218 0 -0.0019856043388019186 0.022513631906053658 0 -0.0020012760990925555 0.022463657247316218 0 -0.001992600017157173 0.022454239036071442 0 -0.0019856043388019186 0.022513631906053658 0 -0.0019744451177263291 0.022462739975616035 0 -0.001992600017157173 0.022454239036071442 0 -0.0019313836494010053 0.022559259784113685 0 -0.0019856043388019186 0.022513631906053658 0 -0.0019744451177263291 0.022462739975616035 0 -0.0020781906978983955 0.024873167215063757 0 -0.0016651024668887112 0.024552141649676923 0 -0.002004201055551972 0.022515554098832369 0 -0.0020240944934440978 0.022432205514697528 0 -0.0020197984981550681 0.022450704599857457 0 -0.002004201055551972 0.022515554098832369 0 -0.0020240944934440978 0.022432205514697528 0 -0.0020012760990925555 0.022463657247316218 0 -0.0020012760990925555 0.022463657247316218 0 -0.0020127383986286297 0.022406200095794665 0 -0.001992600017157173 0.022454239036071442 0 -0.0020240944934440978 0.022432205514697528 0 -0.0020127383986286297 0.022406200095794665 0 -0.0020337706816159762 0.022396806042540657 0 -0.0020240944934440978 0.022432205514697528 0 -0.0020012760990925555 0.022463657247316218 0 -0.0020127383986286297 0.022406200095794665 0 -0.0016644449336908819 0.022630408509660662 0 -0.002287249723352204 0.016860457641973661 0 -0.0013478359689839008 0.020257893549268938 0 -0.0013576212034864974 0.020264723625411409 0 -0.0013267421462531013 0.020211877335682457 0 -0.0013478359689839008 0.020257893549268938 0 -0.0013357116859549518 0.020238701360420826 0 -0.0013267421462531013 0.020211877335682457 0 -0.0020127383986286297 0.022406200095794665 0 -0.0019220063502852045 0.022386187109569387 0 -0.0020422874459115462 0.022370704045684042 0 -0.0020127383986286297 0.022406200095794665 0 -0.0020422874459115462 0.022370704045684042 0 -0.0020337706816159762 0.022396806042540657 0 -0.0020500138283326744 0.022480324793545801 0 -0.0016644449336908819 0.022630408509660662 0 -0.0013478359689839008 0.020257893549268938 0 -0.0013439924731899 0.020268583786526292 0 -0.0013635131567165185 0.020274321029851654 0 -0.0013478359689839008 0.020257893549268938 0 -0.0013357116859549518 0.020238701360420826 0 -0.0013398291183200613 0.020263275326574185 0 -0.0013478359689839008 0.020257893549268938 0 -0.0013398291183200613 0.020263275326574185 0 -0.0013439924731899 0.020268583786526292 0 -0.0013235553601195645 0.020961055381325748 0 -0.0010394631538335954 0.023479411194142555 0 -0.0013357116859549518 0.020238701360420826 0 -0.0013398291183200613 0.020263275326574185 0 -0.001308596775793096 0.020200238679031403 0 -0.0013235553601195645 0.020961055381325748 0 -0.0011769043289201039 0.014946672074216126 0 -0.0011986458243835093 0.01978745994812852 0 -0.00096299849984405911 0.02043723857537914 0 -0.00044503875513484563 0.019899496492127414 0 0.00079732790152919572 0.032239437937544975 0 0.00085515877131461815 0.03263773102786692 0 0.0010547047890200323 0.032429529560755156 0 -0.00032984029228977238 0.024074419179532229 0 0.00020859699885581985 0.027092993124469108 0 -0.0011986458243835093 0.01978745994812852 0 -0.00096299849984405911 0.02043723857537914 0 -0.0014899038617587331 0.019918828674780589 0 -0.00032984029228977238 0.024074419179532229 0 -0.0010394631538335954 0.023479411194142555 0 -0.00029894271809382872 0.027991619217964368 0 6.0716874937328428e-06 0.028168708424942748 0 -0.00081426784016689951 0.028341007248394664 0 -0.00037881399257288562 0.025278567688918108 0 -0.00034022874627334893 0.025249409304677832 0 -0.00039350614234735044 0.025215883387004222 0 -0.00076206071552806557 0.024873077917948599 0 -0.0011482110064019047 0.025207043918098943 0 -0.0013055906088875881 0.025114978460426388 0 -0.0010394631538335954 0.023479411194142555 0 -0.00087328457840006005 0.026436637507493251 0 -0.0010394631538335954 0.023479411194142555 0 -0.0008079998137747957 0.026563429036800208 0 -0.0008079998137747957 0.026563429036800208 0 -0.00087328457840006005 0.026436637507493251 0 -0.00043473269395651195 0.025221810729434392 0 -0.00037881399257288562 0.025278567688918108 0 -0.00039350614234735044 0.025215883387004222 0 -0.0008079998137747957 0.026563429036800208 0 0.00020859699885581985 0.027092993124469108 0 0.00012894678376598119 0.025928733061095475 0 -0.0001592834310436849 0.025985525252391974 0 0.00069707438971127345 0.026492083670917061 0 0.00020859699885581985 0.027092993124469108 0 0.0011943698033422877 0.026323282916563828 0 -0.00032984029228977238 0.024074419179532229 0 0.0011943698033422877 0.026323282916563828 0 -0.00043428952244294733 0.030020279609547888 0 -0.00018093066383802184 0.029730297890642642 0 -0.00088958434571539101 0.029788630612709685 0 0.00020859699885581985 0.027092993124469108 0 -0.00048842027699044798 0.029935886881372813 0 0.00079732790152919572 0.032239437937544975 0 0.00045822146250635502 0.032295114182112603 0 0.00060065652924560413 0.032597765448694201 0 -0.0008079998137747957 0.026563429036800208 0 -0.00048842027699044798 0.029935886881372813 0 -1.9046217399677565e-05 0.029726258892052559 0 -0.00043428952244294733 0.030020279609547888 0 -0.00018093066383802184 0.029730297890642642 0 -0.00087328457840006005 0.026436637507493251 0 -0.00091256655253949188 0.026628687938603346 0 -1.9046217399677565e-05 0.029726258892052559 0 -8.9632067642777527e-05 0.029685971461890528 0 -0.00018093066383802184 0.029730297890642642 0 -0.00087328457840006005 0.026436637507493251 0 -0.0012556934605387376 0.028012776600422503 0 -0.00018093066383802184 0.029730297890642642 0 -0.00093263993873742533 0.029203306120897041 0 -0.00088958434571539101 0.029788630612709685 0 -8.9398104542280499e-05 0.029688211776496561 0 -0.00018093066383802184 0.029730297890642642 0 -0.00093263993873742533 0.029203306120897041 0 -0.0013513021104232701 0.025568027969470539 0 -0.001229267873397621 0.02582969163279214 0 -0.0010364207291864371 0.025773146185971412 0 -0.0010394631538335954 0.023479411194142555 0 -0.0016651024668887112 0.024552141649676923 0 -0.0014440045707880703 0.025603086871324367 0 -0.0013513021104232701 0.025568027969470539 0 -0.001229267873397621 0.02582969163279214 0 -0.0013478359689839008 0.020257893549268938 0 -0.0013635131567165185 0.020274321029851654 0 -0.0013576212034864974 0.020264723625411409 0 -0.0016651024668887112 0.024552141649676923 0 -0.0016644449336908819 0.022630408509660662 0 -0.0016651024668887112 0.024552141649676923 0 -0.0012556934605387376 0.028012776600422503 0 -0.00093263993873742533 0.029203306120897041 0 -0.0018016717963139624 0.029412455471172865 0 -0.00139948776499684 0.029777457332487201 0 -0.0013773121253975247 0.029936248284374245 0 -0.0014285374296788937 0.029912714638847763 0 -0.0015115360280185855 0.029984602968323344 0 -0.0014968342354618803 0.026930561665285933 0 -0.001478342008099038 0.026943400090799919 0 -0.0014672829513054431 0.026960934512913634 0 -0.0012556934605387376 0.028012776600422503 0 -0.0011880649579484113 0.031102052474170892 0 -0.0016651024668887112 0.024552141649676923 0 -0.0016828475108662227 0.028940191455204652 0 -0.0012556934605387376 0.028012776600422503 0 -0.0016828475108662227 0.028940191455204652 0 -0.0015220925895482846 0.031790799690688744 0 -0.0016828475108662227 0.028940191455204652 0 -0.0002242809610409598 0.034483042334208777 0 -0.00090616030377137485 0.034602511419382947 0 -0.00088009914621826326 0.03445207415790049 0 -0.00066508978761191135 0.032885587140969105 0 -0.00092980169498658213 0.033000931821064734 0 -0.00089346793970130722 0.032804717043623921 0 -0.0012325962618432748 0.030931029996061718 0 -0.0018545318230755881 0.030554942321015209 0 -0.0011673050401923562 0.030571544719196975 0 -0.0016828475108662227 0.028940191455204652 0 -0.0012542269114459107 0.03185282909324693 0 -0.0014285374296788937 0.029912714638847763 0 -0.0015007562343417209 0.029920583829442061 0 -0.0015115360280185855 0.029984602968323344 0 -0.0012542269114459107 0.03185282909324693 0 -0.0011880649579484113 0.031102052474170892 0 -0.0015220925895482846 0.031790799690688744 0 -0.0012542269114459107 0.03185282909324693 0 -0.0018016717963139624 0.029412455471172865 0 -0.0019741810592797202 0.030315411616178567 0 -0.00139948776499684 0.029777457332487201 0 -0.0011880649579484113 0.031102052474170892 0 -0.0012527640372754902 0.031301829935235947 0 -0.00069304957913281522 0.032287667042864406 0 -0.00047608949879228093 0.032042989948921477 0 -0.00055309480650023049 0.032506549529329833 0 -0.0019741810592797202 0.030315411616178567 0 -0.00139948776499684 0.029777457332487201 0 -0.0013446029435830904 0.030244753829688734 0 -0.00033268901929371886 0.03005068776755157 0 -0.0013446029435830904 0.030244753829688734 0 -0.0012488932511569952 0.030653711676385878 0 -0.00048842027699044798 0.029935886881372813 0 -0.0012380229371408706 0.030231280153413205 0 -0.00043428952244294733 0.030020279609547888 0 -0.00088958434571539101 0.029788630612709685 0 -0.0013446029435830904 0.030244753829688734 0 -0.00093263993873742533 0.029203306120897041 0 -0.00088958434571539101 0.029788630612709685 0 -0.00139948776499684 0.029777457332487201 0 -0.00088958434571539101 0.029788630612709685 0 -0.00139948776499684 0.029777457332487201 0 -0.0013446029435830904 0.030244753829688734 0 0.00045822146250635502 0.032295114182112603 0 -9.6062327940658142e-06 0.032593865751427593 0 0.00034178874852245093 0.032776137965951989 0 -0.00048842027699044798 0.029935886881372813 0 -0.0006262870656231071 0.031708217421249033 0 -0.0013446029435830904 0.030244753829688734 0 -0.0012488932511569952 0.030653711676385878 0 -0.0016346539761767651 0.030530885580533015 0 -9.6062327940658142e-06 0.032593865751427593 0 7.7241919833298994e-05 0.03301338578978124 0 0.00034178874852245093 0.032776137965951989 0 -9.6062327940658142e-06 0.032593865751427593 0 -0.00055911668382822941 0.032950559561320321 0 -0.00020632589077781632 0.033014459088932177 0 -0.0012527640372754902 0.031301829935235947 0 -0.0011547596496213552 0.032415741210203304 0 -0.0006262870656231071 0.031708217421249033 0 -0.0011547596496213552 0.032415741210203304 0 -0.0019741810592797202 0.030315411616178567 0 -0.0016346539761767651 0.030530885580533015 0 -0.0021392116659384257 0.031259390079955249 0 -0.0012488932511569952 0.030653711676385878 0 -0.0016346539761767651 0.030530885580533015 0 -0.0021392116659384257 0.031259390079955249 0 -0.0019741810592797202 0.030315411616178567 0 -0.0013446029435830904 0.030244753829688734 0 -0.0016346539761767651 0.030530885580533015 0 -0.00055911668382822941 0.032950559561320321 0 -0.00020632589077781632 0.033014459088932177 0 -0.00039311882439326386 0.033235878745381101 0 -0.00020632589077781632 0.033014459088932177 0 -0.0001647380011980103 0.033302982917339026 0 -0.00039311882439326386 0.033235878745381101 0 -0.0001647380011980103 0.033302982917339026 0 -0.00039311882439326386 0.033235878745381101 0 -0.00033732611332024342 0.033501160992969986 0 -0.0011547596496213552 0.032415741210203304 0 -0.00073265539646101205 0.033505711628063518 0 -0.00055911668382822941 0.032950559561320321 0 -0.00039311882439326386 0.033235878745381101 0 -0.00065012579976934395 0.033453464077641271 0 7.7241919833298994e-05 0.03301338578978124 0 0.00032219325632793801 0.03319222986486816 0 0.00034178874852245093 0.032776137965951989 0 -9.6062327940658142e-06 0.032593865751427593 0 -0.00020632589077781632 0.033014459088932177 0 7.7241919833298994e-05 0.03301338578978124 0 -0.00020632589077781632 0.033014459088932177 0 -0.0001647380011980103 0.033302982917339026 0 7.7241919833298994e-05 0.03301338578978124 0 -0.0001647380011980103 0.033302982917339026 0 7.7241919833298994e-05 0.03301338578978124 0 0.00010884233790589794 0.033422523844415755 0 7.7241919833298994e-05 0.03301338578978124 0 0.00032219325632793801 0.03319222986486816 0 0.00010884233790589794 0.033422523844415755 0 0.00032219325632793801 0.03319222986486816 0 0.0005148931830445475 0.033015941633981617 0 0.00034178874852245093 0.032776137965951989 0 0.0005148931830445475 0.033015941633981617 0 0.00067148259791008445 0.032849285633145944 0 0.00034178874852245093 0.032776137965951989 0 0.0005148931830445475 0.033015941633981617 0 0.00063263219907683558 0.033180800230512973 0 0.00067148259791008445 0.032849285633145944 0 0.00032219325632793801 0.03319222986486816 0 0.0005148931830445475 0.033015941633981617 0 0.00063263219907683558 0.033180800230512973 0 0.00063263219907683558 0.033180800230512973 0 0.00088223970663144254 0.032900744278194116 0 0.00090239566924336532 0.033104378212495317 0 0.00063263219907683558 0.033180800230512973 0 0.00088223970663144254 0.032900744278194116 0 0.00067148259791008445 0.032849285633145944 0 0.00088223970663144254 0.032900744278194116 0 0.001073776217583528 0.032914090269487155 0 0.00090239566924336532 0.033104378212495317 0 0.001073776217583528 0.032914090269487155 0 0.00106911364065464 0.033060580246572935 0 0.00090239566924336532 0.033104378212495317 0 0.00088223970663144254 0.032900744278194116 0 0.0010138279039495755 0.032814785355904895 0 0.001073776217583528 0.032914090269487155 0 0.00088223970663144254 0.032900744278194116 0 0.00067148259791008445 0.032849285633145944 0 0.00085515877131461815 0.03263773102786692 0 0.00079732790152919572 0.032239437937544975 0 0.00085515877131461815 0.03263773102786692 0 0.00060065652924560413 0.032597765448694201 0 0.00067148259791008445 0.032849285633145944 0 0.00085515877131461815 0.03263773102786692 0 0.00060065652924560413 0.032597765448694201 0 0.00088223970663144254 0.032900744278194116 0 0.00085515877131461815 0.03263773102786692 0 0.0010138279039495755 0.032814785355904895 0 0.00085515877131461815 0.03263773102786692 0 0.0010309061634610995 0.032639650268991807 0 0.0010138279039495755 0.032814785355904895 0 0.00085515877131461815 0.03263773102786692 0 0.0010309061634610995 0.032639650268991807 0 0.0010547047890200323 0.032429529560755156 0 0.00045822146250635502 0.032295114182112603 0 0.00060065652924560413 0.032597765448694201 0 0.00034178874852245093 0.032776137965951989 0 0.00067148259791008445 0.032849285633145944 0 0.00060065652924560413 0.032597765448694201 0 0.00034178874852245093 0.032776137965951989 0 0.0010840052292360684 0.017246293787304155 0 0.0023876270000104962 0.017858986321536017 0 0.0011197632446454356 0.016561116414960254 0 0.00070299473597748943 0.026476955914336325 0 0.00073109549344053774 0.023085916674716388 0 0.00049241220232321083 0.016284393860658296 0 0.00041426461634658772 0.020986155568640349 0 0.0010840052292360684 0.017246293787304155 0 0.0024252612511742235 0.018145116968461161 0 0.0023876270000104962 0.017858986321536017 0 4.319936582677428e-05 0.015933492263102103 0 9.9196429187904092e-05 0.016051145308100874 0 0.00026670948372694642 0.016092441056026821 0 9.9196429187904092e-05 0.016051145308100874 0 -3.4967346712624179e-05 0.0160394636794314 0 8.6647811890659641e-05 0.016130224099844166 0 4.319936582677428e-05 0.015933492263102103 0 9.9196429187904092e-05 0.016051145308100874 0 -3.4967346712624179e-05 0.0160394636794314 0 9.9196429187904092e-05 0.016051145308100874 0 0.00015619915978461657 0.01610833603016492 0 0.00026670948372694642 0.016092441056026821 0 9.9196429187904092e-05 0.016051145308100874 0 0.00015619915978461657 0.01610833603016492 0 8.6647811890659641e-05 0.016130224099844166 0 -0.00027412073742999845 0.02474096983312964 0 -0.00038729969084858924 0.024018392465668188 0 0.0012849099092945388 0.025649151919747499 0 0.00041426461634658772 0.020986155568640349 0 0.00070299473597748943 0.026476955914336325 0 0.00070299473597748943 0.026476955914336325 0 0.0011943698033422877 0.026323282916563828 0 0.0011905043970235677 0.032658081854811734 0 0.0010309061634610995 0.032639650268991807 0 0.0010547047890200323 0.032429529560755156 0 0.00041426461634658772 0.020986155568640349 0 0.0011943698033422877 0.026323282916563828 0 0.0011905043970235677 0.032658081854811734 0 0.0010138279039495755 0.032814785355904895 0 0.0010629390941485851 0.032912133119528876 0 0.0011905043970235677 0.032658081854811734 0 0.0010309061634610995 0.032639650268991807 0 0.0010138279039495755 0.032814785355904895 0 0.0011905043970235677 0.032658081854811734 0 0.0010629390941485851 0.032912133119528876 0 0.00089968553383057794 0.03299916036457938 0 0.00070299473597748943 0.026476955914336325 0 0.00060250448228001943 0.032569782466072957 0 0.0010138279039495755 0.032814785355904895 0 0.0010629390941485851 0.032912133119528876 0 0.001073776217583528 0.032914090269487155 0 0.0010629390941485851 0.032912133119528876 0 0.001073776217583528 0.032914090269487155 0 0.0012715183756534481 0.032800981033027067 0 0.001073776217583528 0.032914090269487155 0 0.00106911364065464 0.033060580246572935 0 0.0012715183756534481 0.032800981033027067 0 0.0010629390941485851 0.032912133119528876 0 0.00089968553383057794 0.03299916036457938 0 0.0012715183756534481 0.032800981033027067 0 -1.8301102415778142e-05 0.029684167280320525 0 8.9064977043052068e-05 0.030437739351362916 0 0.00051878902809740317 0.030340798996919396 0 8.9064977043052068e-05 0.030437739351362916 0 0.00035904070338081375 0.030524165041558794 0 0.00051878902809740317 0.030340798996919396 0 0.00035904070338081375 0.030524165041558794 0 0.00051878902809740317 0.030340798996919396 0 0.00044493297637843886 0.030620329974861971 0 0.0010840052292360684 0.017246293787304155 0 0.0011197632446454356 0.016561116414960254 0 9.2352085772796769e-05 0.016386272416815464 0 0.0011197632446454356 0.016561116414960254 0 9.2352085772796769e-05 0.016386272416815464 0 0.00012357608319797376 0.015716686882490071 0 0.00049241220232321083 0.016284393860658296 0 2.5537647526938833e-05 0.016125059973355279 0 2.5537647526938833e-05 0.016125059973355279 0 -0.00031302544521264987 0.01574593563799237 0 -0.00016423192814081749 0.01579280018170454 0 -0.00034769398011665553 0.015802542165767215 0 -0.0003206859809645621 0.015679131398596894 0 -0.00016423192814081749 0.01579280018170454 0 -0.00018383555207480276 0.016046384808660268 0 -0.00034769398011665553 0.015802542165767215 0 -0.0011005624820905886 0.014707293796059047 0 -0.00071837463875772329 0.015015888457179554 0 -0.0019874836155670127 0.013251010467354581 0 -0.00096611296705033357 0.013261766692283615 0 -0.0011469853020322437 0.014242291981166928 0 -0.00016423192814081749 0.01579280018170454 0 -0.00018383555207480276 0.016046384808660268 0 -3.4967346712624179e-05 0.0160394636794314 0 4.319936582677428e-05 0.015933492263102103 0 -0.00016423192814081749 0.01579280018170454 0 -3.4967346712624179e-05 0.0160394636794314 0 -0.0011005624820905886 0.014707293796059047 0 -0.001184742652716686 0.013921925639483735 0 -0.0019874836155670127 0.013251010467354581 0 -0.0020871141711727211 0.01215520651287348 0 -0.0028169737848531217 0.012312491975572703 0 -0.00018383555207480276 0.016046384808660268 0 -3.4967346712624179e-05 0.0160394636794314 0 2.3389888311926762e-05 0.016301518167560376 0 -0.0019874836155670127 0.013251010467354581 0 -0.0014148548497511897 0.012609623398680913 0 -0.00096611296705033357 0.013261766692283615 0 -0.0019874836155670127 0.013251010467354581 0 -0.0014148548497511897 0.012609623398680913 0 -0.0020871141711727211 0.01215520651287348 0 -0.00074696944512028286 0.008995525030006956 0 -0.0020387318880480099 0.0088021107452291338 0 -0.0013790810629153466 0.01176337310769663 0 -0.0020871141711727211 0.01215520651287348 0 -0.0022893072876782336 0.011818108851514885 0 -0.0014148548497511897 0.012609623398680913 0 -0.0013790810629153466 0.01176337310769663 0 -0.0020871141711727211 0.01215520651287348 0 -0.00064480714542667066 0.005899617880619692 0 -0.0011637337582652287 0.0059297654489951701 0 -0.00091471045887043709 0.0057267288506784673 0 -0.0011637337582652287 0.0059297654489951701 0 -0.0016979020721180713 0.0059842593302861678 0 -0.0012155600565026421 0.005697475169832926 0 -0.0020871141711727211 0.01215520651287348 0 -0.0022893072876782336 0.011818108851514885 0 -0.0026193215920774244 0.012212256098749753 0 -0.0024842308167560092 0.012381393447687374 0 -0.001184742652716686 0.013921925639483735 0 -0.0020387318880480099 0.0088021107452291338 0 -0.00093831860179217561 0.009950259872307337 0 -0.0022893072876782336 0.011818108851514885 0 -0.0029608294027037661 0.011812245296726457 0 -0.0026193215920774244 0.012212256098749753 0 -0.00085550046610277652 0.014712596637247721 0 -0.00046679416054654256 0.01485719800326935 0 -0.0010831971338825452 0.014999489609342343 0 -0.00093831860179217561 0.009950259872307337 0 -0.00011816510988952146 0.0072502425966230804 0 -0.00032458255912302584 0.0035230190254277082 0 -0.00050744549960376887 0.0033305519575548355 0 -0.00032316347648335479 0.0032000984951336816 0 -0.00078235575182847327 0.01451664587221593 0 -0.00085550046610277652 0.014712596637247721 0 -0.00046679416054654256 0.01485719800326935 0 -0.00093831860179217561 0.009950259872307337 0 -0.001184742652716686 0.013921925639483735 0 -3.4967346712624179e-05 0.0160394636794314 0 2.3389888311926762e-05 0.016301518167560376 0 8.6647811890659641e-05 0.016130224099844166 0 2.3389888311926762e-05 0.016301518167560376 0 0.00018155044986282326 0.016183184816887356 0 0.00029123598518110736 0.016277710018352039 0 -0.001184742652716686 0.013921925639483735 0 7.5174505738292196e-05 0.018191743735240264 0 0.00015619915978461657 0.01610833603016492 0 0.00026670948372694642 0.016092441056026821 0 0.00018155044986282326 0.016183184816887356 0 0.00015619915978461657 0.01610833603016492 0 0.00018155044986282326 0.016183184816887356 0 8.6647811890659641e-05 0.016130224099844166 0 2.3389888311926762e-05 0.016301518167560376 0 0.00018155044986282326 0.016183184816887356 0 8.6647811890659641e-05 0.016130224099844166 0 9.1266623789923148e-05 0.021940300468630113 0 0.00035383807534308933 0.022195925921121535 0 0.00052284237487638604 0.021839729547539766 0 0.00059583520568329783 0.022335638504537427 0 0.00035383807534308933 0.022195925921121535 0 0.00052284237487638604 0.021839729547539766 0 0.00026670948372694642 0.016092441056026821 0 0.00018155044986282326 0.016183184816887356 0 0.00029123598518110736 0.016277710018352039 0 0.00041426461634658772 0.020986155568640349 0 7.5174505738292196e-05 0.018191743735240264 0 -0.00096299849984405911 0.02043723857537914 0 0.00026624714834583486 0.020179555454332743 0 -0.00044503875513484563 0.019899496492127414 0 -0.00032984029228977238 0.024074419179532229 0 7.5174505738292196e-05 0.018191743735240264 0 -0.0011986458243835093 0.01978745994812852 0 -0.00044503875513484563 0.019899496492127414 0 0.00011628687576933256 0.019192884494865538 0 -0.0023849749437154784 0.01859120017041253 0 -0.00014118206682252281 0.017580787339520832 0 -0.00021284267582332304 0.017110751821784877 0 -0.0013235553601195645 0.020961055381325748 0 -0.00081149695124002998 0.015977121838980406 0 0.00026624714834583486 0.020179555454332743 0 -0.00044503875513484563 0.019899496492127414 0 0.00011628687576933256 0.019192884494865538 0 7.5174505738292196e-05 0.018191743735240264 0 -0.00081149695124002998 0.015977121838980406 0 -0.00085550046610277652 0.014712596637247721 0 -0.0010831971338825452 0.014999489609342343 0 -0.0011340231403519044 0.014671260995003703 0 -0.00093831860179217561 0.009950259872307337 0 -0.00053888163373722172 0.012232560354645167 0 -0.00079041142177010124 0.01053359299305494 0 -0.00030902722486053565 0.010547267330066832 0 -0.00060244380441736272 0.01073261934926965 0 -0.00037667919772236278 0.012753255220654148 0 -0.00098078375008537211 0.013019730612886835 0 -0.00086505167855690471 0.012766725930676473 0 -0.00078235575182847327 0.01451664587221593 0 -0.00085550046610277652 0.014712596637247721 0 -0.0011340231403519044 0.014671260995003703 0 -0.00093831860179217561 0.009950259872307337 0 -0.00081149695124002998 0.015977121838980406 0 -0.00098078375008537211 0.013019730612886835 0 -0.00086505167855690471 0.012766725930676473 0 -0.00100443393984556 0.012863938087916738 0 -0.00053888163373722172 0.012232560354645167 0 -0.0011769043289201039 0.014946672074216126 0 -0.00083603811498635821 0.0035928371912301352 0 -0.00089480904905688452 0.0034354967750602947 0 -0.00061911466081279167 0.0032697931063298885 0 -0.00053888163373722172 0.012232560354645167 0 -0.0012289076879182638 0.013490875183703354 0 -0.00083603811498635821 0.0035928371912301352 0 -0.00089480904905688452 0.0034354967750602947 0 -0.0010090528019559483 0.0036000078067657312 0 -0.00083603811498635821 0.0035928371912301352 0 -0.00061911466081279167 0.0032697931063298885 0 -0.00052154966314990495 0.003353546178566375 0 -0.00053888163373722172 0.012232560354645167 0 -0.00011816510988952146 0.0072502425966230804 0 -0.0013357116859549518 0.020238701360420826 0 -0.001308596775793096 0.020200238679031403 0 -0.0013267421462531013 0.020211877335682457 0 -0.001308596775793096 0.020200238679031403 0 -0.0013096010696745724 0.020193386548897015 0 -0.0013267421462531013 0.020211877335682457 0 -0.00081149695124002998 0.015977121838980406 0 -0.0011769043289201039 0.014946672074216126 0 -0.0016124770772317134 0.01328792169181792 0 -0.00035162158929385236 0.012461906118995034 0 -0.00022356454571049994 0.013307298249528799 0 -0.0011769043289201039 0.014946672074216126 0 -0.0012289076879182638 0.013490875183703354 0 -0.0012289076879182638 0.013490875183703354 0 -0.00058113742294575786 0.011348191736892133 0 -0.00091021436301368434 0.014578718756093411 0 -0.0018501055584716818 0.014582361059304999 0 -0.0010140237077184259 0.013879480860266514 0 -0.00089480904905688452 0.0034354967750602947 0 -0.0010090528019559483 0.0036000078067657312 0 -0.0010377692595783402 0.003304960465664608 0 -0.002287249723352204 0.016860457641973661 0 -0.00058113742294575786 0.011348191736892133 0 -0.0012289076879182638 0.013490875183703354 0 -0.002287249723352204 0.016860457641973661 0 -0.0020422874459115462 0.022370704045684042 0 -0.0020337706816159762 0.022396806042540657 0 -0.0020531261635571806 0.022371060409929294 0 -0.00058113742294575786 0.011348191736892133 0 -0.0008448017504441175 0.014035513389791397 0 -0.0020240944934440978 0.022432205514697528 0 -0.0020531261635571806 0.022371060409929294 0 -0.0020197984981550681 0.022450704599857457 0 -0.0010377692595783402 0.003304960465664608 0 -0.00061911466081279167 0.0032697931063298885 0 -9.6672624292657106e-05 0.0028330062848630666 0 -0.0020240944934440978 0.022432205514697528 0 -0.0020337706816159762 0.022396806042540657 0 -0.0020531261635571806 0.022371060409929294 0 0.00031801647281522514 0.0054138082280483016 0 0.0007925566254321603 0.0047695856305038052 0 0.00047765753121751213 0.0049370632484359196 0 0.00031801647281522514 0.0054138082280483016 0 0.00026803818165790081 0.004905778167423179 0 0.00047765753121751213 0.0049370632484359196 0 -0.00089480904905688452 0.0034354967750602947 0 -0.0010377692595783402 0.003304960465664608 0 -0.00061911466081279167 0.0032697931063298885 0 -0.00058113742294575786 0.011348191736892133 0 0.00081008625948348907 0.0024054878290471742 0 -0.00093831860179217561 0.009950259872307337 0 -0.0001026846855659058 0.0040174487149267947 0 -0.00032316347648335479 0.0032000984951336816 0 -9.6672624292657106e-05 0.0028330062848630666 0 0.00052272030711850691 0.002986924358301318 0 -0.0010377692595783402 0.003304960465664608 0 -9.6672624292657106e-05 0.0028330062848630666 0 0.00014312677709602423 0.0023976978603921961 0 -0.00032458255912302584 0.0035230190254277082 0 -0.00032316347648335479 0.0032000984951336816 0 0.00052272030711850691 0.002986924358301318 0 -0.00061911466081279167 0.0032697931063298885 0 -0.00032316347648335479 0.0032000984951336816 0 -9.6672624292657106e-05 0.0028330062848630666 0 -0.00061911466081279167 0.0032697931063298885 0 -0.00052154966314990495 0.003353546178566375 0 -0.00032316347648335479 0.0032000984951336816 0 -0.00011816510988952146 0.0072502425966230804 0 0.00040350262377439371 0.0061672863179324912 0 -9.6672624292657106e-05 0.0028330062848630666 0 0.00014312677709602423 0.0023976978603921961 0 0.00029726845383158164 0.0026205812155798212 0 0.0007925566254321603 0.0047695856305038052 0 0.00071418262047551065 0.0045494919723429068 0 0.00072632626675475545 0.0044536681537457271 0 0.0007925566254321603 0.0047695856305038052 0 0.00047765753121751213 0.0049370632484359196 0 0.00052120484248780201 0.0047046082174841443 0 0.0007925566254321603 0.0047695856305038052 0 0.00052120484248780201 0.0047046082174841443 0 0.00071418262047551065 0.0045494919723429068 0 -0.0008448017504441175 0.014035513389791397 0 -0.00040674375785062638 0.013895293609917338 0 0.00026803818165790081 0.004905778167423179 0 0.00052120484248780201 0.0047046082174841443 0 0.00026091297266314618 0.0045693546563198148 0 0.00026803818165790081 0.004905778167423179 0 0.00047765753121751213 0.0049370632484359196 0 0.00052120484248780201 0.0047046082174841443 0 -0.00040674375785062638 0.013895293609917338 0 0.0017681720766717329 0.0045690685727446259 0 0.0021617879923939475 0.0042151844908526878 0 0.001556708998291773 0.0043271254145891185 0 0.0018560332022030889 0.0047831418213356821 0 0.00052120484248780201 0.0047046082174841443 0 0.00026091297266314618 0.0045693546563198148 0 0.00056395296833881381 0.0044560236308201565 0 0.00052120484248780201 0.0047046082174841443 0 0.00056395296833881381 0.0044560236308201565 0 0.00071418262047551065 0.0045494919723429068 0 0.00071418262047551065 0.0045494919723429068 0 0.00085910142659014583 0.004469340753624991 0 0.00072632626675475545 0.0044536681537457271 0 0.00056395296833881381 0.0044560236308201565 0 0.00071418262047551065 0.0045494919723429068 0 0.00085910142659014583 0.004469340753624991 0 0.0017681720766717329 0.0045690685727446259 0 0.00069976267432689352 0.0045394121377523048 0 0.001556708998291773 0.0043271254145891185 0 0.00085910142659014583 0.004469340753624991 0 0.0013641147677856031 0.0048384844878397353 0 0.00085910142659014583 0.004469340753624991 0 0.0013641147677856031 0.0048384844878397353 0 0.0007817513937300566 0.004879298825846457 0 0.0012256030614146605 0.0052812875651450262 0 0.0013641147677856031 0.0048384844878397353 0 0.0007817513937300566 0.004879298825846457 0 0.0017897507126687362 0.00544017940507289 0 0.0013641147677856031 0.0048384844878397353 0 0.0018560332022030889 0.0047831418213356821 0 0.002389299626096299 0.0051464213340436391 0 0.0021617879923939475 0.0042151844908526878 0 0.0018560332022030889 0.0047831418213356821 0 0.0017897507126687362 0.00544017940507289 0 0.002389299626096299 0.0051464213340436391 0 0.0018560332022030889 0.0047831418213356821 0 0.001556708998291773 0.0043271254145891185 0 0.0013641147677856031 0.0048384844878397353 0 0.0018560332022030889 0.0047831418213356821 0 -0.00012063353214928907 0.0049450579410864094 0 0.00030265443692933724 0.0045375276556148033 0 -0.00046559829118475628 0.0040396022468333738 0 0.00030265443692933724 0.0045375276556148033 0 0.00056703053020153865 0.0042796249106565373 0 -0.00046559829118475628 0.0040396022468333738 0 0.00030265443692933724 0.0045375276556148033 0 0.0007817513937300566 0.004879298825846457 0 0.00063047296670286725 0.0044708931676821807 0 0.00039328596890941087 0.0052786786050940983 0 0.00030265443692933724 0.0045375276556148033 0 0.0007817513937300566 0.004879298825846457 0 0.00085910142659014583 0.004469340753624991 0 0.0007817513937300566 0.004879298825846457 0 0.00063047296670286725 0.0044708931676821807 0 0.00063047296670286725 0.0044708931676821807 0 0.00072632626675475545 0.0044536681537457271 0 0.00056703053020153865 0.0042796249106565373 0 0.00085910142659014583 0.004469340753624991 0 0.00063047296670286725 0.0044708931676821807 0 0.00072632626675475545 0.0044536681537457271 0 0.00030265443692933724 0.0045375276556148033 0 0.00063047296670286725 0.0044708931676821807 0 0.00056703053020153865 0.0042796249106565373 0 0.00030579865906996118 0.0036923985126217592 0 -0.00037919284027850881 0.0039687267531143414 0 0.00046605288352440306 0.0025325726723341344 0 -0.00010968264168380441 0.00235827689381405 0 -0.0003787248130260628 0.0025872427190024331 0 0.00046605288352440306 0.0025325726723341344 0 0.00017516892719427409 0.0023383149105966157 0 -0.00010968264168380441 0.00235827689381405 0 0.00046605288352440306 0.0025325726723341344 0 0.00017516892719427409 0.0023383149105966157 0 0.00031885309762195703 0.0024224257859219219 0 0.00017516892719427409 0.0023383149105966157 0 0.00031885309762195703 0.0024224257859219219 0 0.00019879705157384506 0.0022272543993946377 0 0.00017516892719427409 0.0023383149105966157 0 -5.1183119706171287e-05 0.0021880508455228071 0 -0.00010968264168380441 0.00235827689381405 0 0.00017516892719427409 0.0023383149105966157 0 0.00019879705157384506 0.0022272543993946377 0 -5.1183119706171287e-05 0.0021880508455228071 0 0.0007925566254321603 0.0047695856305038052 0 0.00072632626675475545 0.0044536681537457271 0 0.00056703053020153865 0.0042796249106565373 0 0.00014312677709602423 0.0023976978603921961 0 0.00046605288352440306 0.0025325726723341344 0 0.00031885309762195703 0.0024224257859219219 0 0.00081008625948348907 0.0024054878290471742 0 0.00030579865906996118 0.0036923985126217592 0 0.00014312677709602423 0.0023976978603921961 0 0.00031885309762195703 0.0024224257859219219 0 0.00029726845383158164 0.0026205812155798212 0 0.00056931897236761435 0.002427186694748147 0 0.00013259903368257369 0.0032468871392324597 0 0.00031885309762195703 0.0024224257859219219 0 0.00029726845383158164 0.0026205812155798212 0 0.00019879705157384506 0.0022272543993946377 0 0.00029726845383158164 0.0026205812155798212 0 0.00052272030711850691 0.002986924358301318 0 0.0013864320894125661 0.0026224370686501268 0 -9.6672624292657106e-05 0.0028330062848630666 0 0.00029726845383158164 0.0026205812155798212 0 0.00052272030711850691 0.002986924358301318 0 -0.0011637337582652287 0.0059297654489951701 0 -0.0012155600565026421 0.005697475169832926 0 -0.00091471045887043709 0.0057267288506784673 0 -0.00064480714542667066 0.005899617880619692 0 -0.00073798651725536771 0.0054553044659591994 0 -0.00091471045887043709 0.0057267288506784673 0 -0.0001026846855659058 0.0040174487149267947 0 0.00013259903368257369 0.0032468871392324597 0 -0.0012155600565026421 0.005697475169832926 0 -0.00073798651725536771 0.0054553044659591994 0 -0.00091471045887043709 0.0057267288506784673 0 0.00013259903368257369 0.0032468871392324597 0 0.00019938384710054739 0.0026317923639951842 0 -0.00064480714542667066 0.005899617880619692 0 -0.00023735625181796276 0.0054135421381634229 0 -0.00013276671676668239 0.0058856002364342779 0 -0.00064480714542667066 0.005899617880619692 0 -0.00073798651725536771 0.0054553044659591994 0 -0.00023735625181796276 0.0054135421381634229 0 0.00013259903368257369 0.0032468871392324597 0 -0.00075670548480994511 0.00089631548259814023 0 0.0001086113901642629 0.0021349370973050862 0 -0.00028111036275752573 0.0021103524450710649 0 -5.1183119706171287e-05 0.0021880508455228071 0 -0.0020788368203239959 -0.0018222113947749857 0 -0.0019248739552681024 -0.0017646242807908233 0 -0.0020254052894719417 -0.0015796696704396924 0 -0.00075670548480994511 0.00089631548259814023 0 -0.0028841247279763841 -0.0016052301878141829 0 -0.0020788368203239959 -0.0018222113947749857 0 -0.0019248739552681024 -0.0017646242807908233 0 -0.0017770655821529463 -0.0019087505621729426 0 -0.0019248739552681024 -0.0017646242807908233 0 -0.0018207796278267565 -0.0017408268743877703 0 -0.0020254052894719417 -0.0015796696704396924 0 -0.00075670548480994511 0.00089631548259814023 0 -0.0012816733890119699 0.0059666892277500296 0 -0.00069690513237390789 -0.00077780610496610897 0 -0.001371707523948739 0.0014435581474028228 0 -0.0020289431326739335 0.00065639960323387475 0 -0.00069690513237390789 -0.00077780610496610897 0 -0.0020289431326739335 0.00065639960323387475 0 -0.0028871988171521312 2.8829858547985738e-05 0 -0.00069690513237390789 -0.00077780610496610897 0 -0.0028871988171521312 2.8829858547985738e-05 0 -0.003828687028462811 -0.00079342144490959418 0 -0.001371707523948739 0.0014435581474028228 0 -0.0020289431326739335 0.00065639960323387475 0 -0.0022210297153984746 0.0014875892972936232 0 -0.0020289431326739335 0.00065639960323387475 0 -0.0022210297153984746 0.0014875892972936232 0 -0.0028872052481676885 0.00097699598162914454 0 -0.0020289431326739335 0.00065639960323387475 0 -0.0028872052481676885 0.00097699598162914454 0 -0.0028871988171521312 2.8829858547985738e-05 0 -0.00069690513237390789 -0.00077780610496610897 0 -0.001371707523948739 0.0014435581474028228 0 -0.0003787248130260628 0.0025872427190024331 0 -0.00028111036275752573 0.0021103524450710649 0 -0.00010968264168380441 0.00235827689381405 0 -0.0003787248130260628 0.0025872427190024331 0 -0.00075670548480994511 0.00089631548259814023 0 -0.00029442118504741002 0.0023716890343534109 0 -0.00028111036275752573 0.0021103524450710649 0 -5.1183119706171287e-05 0.0021880508455228071 0 -0.00010968264168380441 0.00235827689381405 0 0.00046605288352440306 0.0025325726723341344 0 -0.0003787248130260628 0.0025872427190024331 0 -0.00046559829118475628 0.0040396022468333738 0 -0.0003787248130260628 0.0025872427190024331 0 -0.0020793027209685139 0.0024624027181257722 0 -0.0015385431826765732 0.0035773827427673425 0 -0.001371707523948739 0.0014435581474028228 0 -0.0003787248130260628 0.0025872427190024331 0 -0.0020793027209685139 0.0024624027181257722 0 -0.0022210297153984746 0.0014875892972936232 0 -0.0020793027209685139 0.0024624027181257722 0 -0.0027747532284712892 0.0018434605359970266 0 -0.001371707523948739 0.0014435581474028228 0 -0.0022210297153984746 0.0014875892972936232 0 -0.0020793027209685139 0.0024624027181257722 0 -0.0022210297153984746 0.0014875892972936232 0 -0.0027747532284712892 0.0018434605359970266 0 -0.0028872052481676885 0.00097699598162914454 0 -0.0020793027209685139 0.0024624027181257722 0 -0.0015385431826765732 0.0035773827427673425 0 -0.003279136045976714 0.0033287844490582086 0 -0.002016025631559522 0.0045639786686939108 0 -0.0015385431826765732 0.0035773827427673425 0 -0.003279136045976714 0.0033287844490582086 0 -0.002016025631559522 0.0045639786686939108 0 -0.0015385431826765732 0.0035773827427673425 0 -0.00046559829118475628 0.0040396022468333738 0 -0.0003787248130260628 0.0025872427190024331 0 -0.0015385431826765732 0.0035773827427673425 0 -0.00046559829118475628 0.0040396022468333738 0 2.9821803281544754e-05 -0.0042770227920829402 0 0.00011716133360082432 -0.0041492838769817634 0 -3.4946404559017289e-05 -0.0039675306465708328 0 2.9821803281544754e-05 -0.0042770227920829402 0 0.00022697641366176789 -0.0043021344945534477 0 0.00011716133360082432 -0.0041492838769817634 0 -0.0038883845077135066 0.0045711798688834841 0 -0.003279136045976714 0.0033287844490582086 0 -0.0040530726631568563 0.0019036066262800189 0 -0.0038883845077135066 0.0045711798688834841 0 -0.002016025631559522 0.0045639786686939108 0 -0.003279136045976714 0.0033287844490582086 0 -0.002062046969618704 0.00052901138688134816 0 -0.0026071329286784656 -0.0010704160427782434 0 -0.003279136045976714 0.0033287844490582086 0 -0.0031859570464886611 0.0023985349030648901 0 -0.0040530726631568563 0.0019036066262800189 0 -0.0020793027209685139 0.0024624027181257722 0 -0.003279136045976714 0.0033287844490582086 0 -0.0031859570464886611 0.0023985349030648901 0 -0.0020793027209685139 0.0024624027181257722 0 -0.0031859570464886611 0.0023985349030648901 0 -0.0027747532284712892 0.0018434605359970266 0 -0.0031859570464886611 0.0023985349030648901 0 -0.0027747532284712892 0.0018434605359970266 0 -0.0034867829726583891 0.0016864185997493169 0 -0.0027747532284712892 0.0018434605359970266 0 -0.0034867829726583891 0.0016864185997493169 0 -0.0028872052481676885 0.00097699598162914454 0 -0.0031859570464886611 0.0023985349030648901 0 -0.0034867829726583891 0.0016864185997493169 0 -0.0040530726631568563 0.0019036066262800189 0 -0.0034867829726583891 0.0016864185997493169 0 -0.0045245334186238663 0.0018306982983746932 0 -0.0035571097296908973 0.0011717548017835353 0 -0.0037424557676376011 2.0492974930098105e-05 0 -0.0026071329286784656 -0.0010704160427782434 0 0.00028850850721138345 -0.0041045963020229928 0 0.00011716133360082432 -0.0041492838769817634 0 -3.4946404559017289e-05 -0.0039675306465708328 0 -0.0017730617247000617 -0.0035587923690789196 0 -0.0022173361440618361 -0.0026062587498404456 0 -0.0036481806843731623 -0.0029890341205957597 0 -0.00052515481126142664 -0.0041863859566334443 0 -0.0026071329286784656 -0.0010704160427782434 0 -0.0025093689103040375 -0.0017074430174283447 0 -0.0029975390005708112 -0.0021241995353322948 0 -0.0035747481160155609 -0.0010504124249022203 0 -0.0022173361440618361 -0.0026062587498404456 0 -0.0036481806843731623 -0.0029890341205957597 0 -0.0029975390005708112 -0.0021241995353322948 0 -0.0036481806843731623 -0.0029890341205957597 0 -0.0029975390005708112 -0.0021241995353322948 0 -0.0035747481160155609 -0.0010504124249022203 0 -0.0025093689103040375 -0.0017074430174283447 0 -0.0022173361440618361 -0.0026062587498404456 0 -0.0029975390005708112 -0.0021241995353322948 0 -0.0026071329286784656 -0.0010704160427782434 0 -0.0038559941684762782 -0.00075783190196812827 0 -0.0045245334186238663 0.0018306982983746932 0 -0.0035673426735026558 0.00023823852622569723 0 -0.0035747481160155609 -0.0010504124249022203 0 -0.0028872052481676885 0.00097699598162914454 0 -0.0035673426735026558 0.00023823852622569723 0 -0.0028871988171521312 2.8829858547985738e-05 0 -0.0028872052481676885 0.00097699598162914454 0 -0.0035571097296908973 0.0011717548017835353 0 -0.0035673426735026558 0.00023823852622569723 0 -0.0034867829726583891 0.0016864185997493169 0 -0.0028872052481676885 0.00097699598162914454 0 -0.0035571097296908973 0.0011717548017835353 0 -0.0045245334186238663 0.0018306982983746932 0 -0.0035571097296908973 0.0011717548017835353 0 -0.0035673426735026558 0.00023823852622569723 0 -0.0035673426735026558 0.00023823852622569723 0 -0.0035928177408904595 -0.00042688141465036216 0 -0.0035747481160155609 -0.0010504124249022203 0 -0.0035928177408904595 -0.00042688141465036216 0 -0.003828687028462811 -0.00079342144490959418 0 -0.0035747481160155609 -0.0010504124249022203 0 -0.0035673426735026558 0.00023823852622569723 0 -0.0035928177408904595 -0.00042688141465036216 0 -0.0028871988171521312 2.8829858547985738e-05 0 -0.0035928177408904595 -0.00042688141465036216 0 -0.0028871988171521312 2.8829858547985738e-05 0 -0.003828687028462811 -0.00079342144490959418 0 -0.0019248739552681024 -0.0017646242807908233 0 -0.0017770655821529463 -0.0019087505621729426 0 -0.0018207796278267565 -0.0017408268743877703 0 -0.0017770655821529463 -0.0019087505621729426 0 -0.0018207796278267565 -0.0017408268743877703 0 -0.0016394652537126185 -0.0018336169629654172 0 -0.0018207796278267565 -0.0017408268743877703 0 -0.0016394652537126185 -0.0018336169629654172 0 -0.0017131051887468967 -0.001626108002371285 0 -0.0016394652537126185 -0.0018336169629654172 0 -0.0014426024359298383 -0.0018781275658565047 0 -0.0017131051887468967 -0.001626108002371285 0 -0.0019638070538183579 -0.0018564056191775066 0 -0.0028841247279763841 -0.0016052301878141829 0 -0.0014161949864386104 -0.0020592141791381346 0 -0.0017770655821529463 -0.0019087505621729426 0 -0.0016394652537126185 -0.0018336169629654172 0 -0.0025093689103040375 -0.0017074430174283447 0 -0.003828687028462811 -0.00079342144490959418 0 -0.0035747481160155609 -0.0010504124249022203 0 -0.0014161949864386104 -0.0020592141791381346 0 -0.0016394652537126185 -0.0018336169629654172 0 -0.0014426024359298383 -0.0018781275658565047 0 -0.001278385682998609 -0.0016377570665396578 0 -0.0014426024359298383 -0.0018781275658565047 0 -0.0017131051887468967 -0.001626108002371285 0 0.00081134772741221957 0.0014717546230532904 0 -0.00046026471705110989 0.0025423527864632386 0 0.0037694626582990081 0.0071178140154541832 0 0.0028920413990529913 0.0087480832976863255 0 0.00091413221868986766 0.0070984245851657846 0 0.003546198643470954 0.010533059863893015 0 0.0028920413990529913 0.0087480832976863255 0 0.0013169440116980412 0.010196818855007497 0 0.0028920413990529913 0.0087480832976863255 0 0.0013169440116980412 0.010196818855007497 0 0.00091413221868986766 0.0070984245851657846 0 0.0013169440116980412 0.010196818855007497 0 0.00091413221868986766 0.0070984245851657846 0 -0.001321369742894216 0.0097692844450906497 0 -0.0018207796278267565 -0.0017408268743877703 0 -0.0017131051887468967 -0.001626108002371285 0 -0.0020254052894719417 -0.0015796696704396924 0 0.00091413221868986766 0.0070984245851657846 0 -0.001970001746138966 0.0070697768584863313 0 -0.001321369742894216 0.0097692844450906497 0 -0.00046026471705110989 0.0025423527864632386 0 -0.0012816733890119699 0.0059666892277500296 0 -0.00074696944512028286 0.008995525030006956 0 -0.0012816733890119699 0.0059666892277500296 0 -0.0014148548497511897 0.012609623398680913 0 -0.0013790810629153466 0.01176337310769663 0 -0.00077083868954744316 0.012443632653797365 0 -0.0013790810629153466 0.01176337310769663 0 -0.00035436447819773594 0.011728776930447462 0 -0.00077083868954744316 0.012443632653797365 0 -0.00077083868954744316 0.012443632653797365 0 -7.7090121702294898e-05 0.012899338395822633 0 -0.00096611296705033357 0.013261766692283615 0 -0.0014148548497511897 0.012609623398680913 0 -0.00077083868954744316 0.012443632653797365 0 -0.00096611296705033357 0.013261766692283615 0 -0.00035436447819773594 0.011728776930447462 0 -0.00077083868954744316 0.012443632653797365 0 -7.7090121702294898e-05 0.012899338395822633 0 -0.0012816733890119699 0.0059666892277500296 0 -0.00059435829164920665 0.012032982182156154 0 -7.7090121702294898e-05 0.012899338395822633 0 -0.00058978004912422458 0.013892682407270101 0 0.00016875350791922998 0.014104468779286878 0 -0.00059435829164920665 0.012032982182156154 0 -0.00024028781459281768 0.013148670494701198 0 -0.00096611296705033357 0.013261766692283615 0 -0.00058978004912422458 0.013892682407270101 0 -0.0011469853020322437 0.014242291981166928 0 -7.7090121702294898e-05 0.012899338395822633 0 -0.00096611296705033357 0.013261766692283615 0 -0.00058978004912422458 0.013892682407270101 0 -0.00058978004912422458 0.013892682407270101 0 -0.0011469853020322437 0.014242291981166928 0 -0.00026855874297048961 0.014555526972802909 0 -0.0011469853020322437 0.014242291981166928 0 -0.00026855874297048961 0.014555526972802909 0 -0.00025446578920820605 0.015307266107908352 0 0.00016875350791922998 0.014104468779286878 0 -0.00026855874297048961 0.014555526972802909 0 0.00032276882284757797 0.015064274321410838 0 -0.00058978004912422458 0.013892682407270101 0 0.00016875350791922998 0.014104468779286878 0 -0.00026855874297048961 0.014555526972802909 0 -0.00024028781459281768 0.013148670494701198 0 0.00027193174911293677 0.014982897741201297 0 -0.00062159672820594376 0.012488756965415054 0 0.00085705493033899486 0.013708667149973833 0 0.0018386252367320688 0.012418243795751576 0 -0.00062159672820594376 0.012488756965415054 0 0.00085705493033899486 0.013708667149973833 0 0.00032276882284757797 0.015064274321410838 0 0.0022017037380567561 0.0097534080000227195 0 0.00056446047732119236 0.010956831050524444 0 0.0039916564409917038 0.012589861124927383 0 0.0018386252367320688 0.012418243795751576 0 0.0018520062951418127 0.014723567039882529 0 0.00085705493033899486 0.013708667149973833 0 0.0018386252367320688 0.012418243795751576 0 0.0018520062951418127 0.014723567039882529 0 0.0039916564409917038 0.012589861124927383 0 0.003546198643470954 0.010533059863893015 0 0.0018386252367320688 0.012418243795751576 0 0.003546198643470954 0.010533059863893015 0 0.0013169440116980412 0.010196818855007497 0 0.0018386252367320688 0.012418243795751576 0 0.0013169440116980412 0.010196818855007497 0 -0.001321369742894216 0.0097692844450906497 0 -0.00062159672820594376 0.012488756965415054 0 0.0013169440116980412 0.010196818855007497 0 -0.00062159672820594376 0.012488756965415054 0 0.0018386252367320688 0.012418243795751576 0 -0.0011989869608309961 0.0078043769282151653 0 -0.00034730769570968153 0.0077153158476560542 0 -0.00083755113985628656 0.0084460256781086589 0 -0.0011989869608309961 0.0078043769282151653 0 -0.00034730769570968153 0.0077153158476560542 0 -0.0005393667317610362 0.0069878736141841336 0 0.0002746524519136015 0.0071073463081585799 0 -0.00034730769570968153 0.0077153158476560542 0 -0.0005393667317610362 0.0069878736141841336 0 -0.00017365737855738162 0.010700924271112413 0 0.00056446047732119236 0.010956831050524444 0 0.00021070496492839856 0.015826233343422289 0 0.0018520062951418127 0.014723567039882529 0 0.00032276882284757797 0.015064274321410838 0 0.00085705493033899486 0.013708667149973833 0 0.0018520062951418127 0.014723567039882529 0 0.00032276882284757797 0.015064274321410838 0 -0.00026855874297048961 0.014555526972802909 0 0.00032276882284757797 0.015064274321410838 0 -0.00025446578920820605 0.015307266107908352 0 0.00021070496492839856 0.015826233343422289 0 0.00032276882284757797 0.015064274321410838 0 -0.00025446578920820605 0.015307266107908352 0 -0.00071837463875772329 0.015015888457179554 0 -0.00028142137489583276 0.015330342514083925 0 -0.00025446578920820605 0.015307266107908352 0 -0.0003206859809645621 0.015679131398596894 0 -0.00031866383291734128 0.015565890029743294 0 -0.00034769398011665553 0.015802542165767215 0 -0.00025446578920820605 0.015307266107908352 0 -0.0003206859809645621 0.015679131398596894 0 -0.0003206859809645621 0.015679131398596894 0 -0.00031866383291734128 0.015565890029743294 0 -0.00031977086283207368 0.015607219158571264 0 -0.00022548750700898668 0.015709048160931546 0 -0.00022743543808887351 0.016006061333646626 0 -0.00031977086283207368 0.015607219158571264 0 -0.00031866383291734128 0.015565890029743294 0 -0.00022548750700898668 0.015709048160931546 0 -0.00031977086283207368 0.015607219158571264 0 0.00021070496492839856 0.015826233343422289 0 -0.00022548750700898668 0.015709048160931546 0 -0.00022743543808887351 0.016006061333646626 0 0.00021070496492839856 0.015826233343422289 0 -0.00025446578920820605 0.015307266107908352 0 -0.00022548750700898668 0.015709048160931546 0 -0.00025446578920820605 0.015307266107908352 0 -0.00031866383291734128 0.015565890029743294 0 -0.00022548750700898668 0.015709048160931546 0 -0.00017365737855738162 0.010700924271112413 0 -0.00039187358032986158 0.019293003418210459 0 -0.0011989869608309961 0.0078043769282151653 0 -0.0018339660921934853 0.0085971989419805512 0 -0.00083755113985628656 0.0084460256781086589 0 -0.00039187358032986158 0.019293003418210459 0 -0.00020305092649797743 0.023077353705476436 0 -0.0012453954419687769 0.028710838671992679 0 -0.00020218426830624276 0.028936927688691862 0 -0.00038236833763539746 0.029637626903614604 0 -0.0012453954419687769 0.028710838671992679 0 -0.00010111896046363249 0.028365086860866889 0 -0.00020218426830624276 0.028936927688691862 0 -0.00039187358032986158 0.019293003418210459 0 -6.1806004488553352e-05 0.02735747522200551 0 -0.0012453954419687769 0.028710838671992679 0 -0.00023523629898919137 0.027747842752260086 0 -0.00010111896046363249 0.028365086860866889 0 0.0010716935047479907 0.024288647464386023 0 0.0011337301516554283 0.024928168512460998 0 0.00071580508021542092 0.024730211485439538 0 -0.00039187358032986158 0.019293003418210459 0 1.1831879650845424e-05 0.016412208899903205 0 0.0010716935047479907 0.024288647464386023 0 0.0014366203366551196 0.02470431490759975 0 0.0011337301516554283 0.024928168512460998 0 -0.0010707778638483463 0.0092510190847824025 0 -0.00083755113985628656 0.0084460256781086589 0 -0.00045081201032268203 0.0089495273256871288 0 -0.0018339660921934853 0.0085971989419805512 0 -0.0010707778638483463 0.0092510190847824025 0 -0.00083755113985628656 0.0084460256781086589 0 -0.00034730769570968153 0.0077153158476560542 0 -0.00083755113985628656 0.0084460256781086589 0 -0.00010414100472094867 0.0083039810597331162 0 -0.00083755113985628656 0.0084460256781086589 0 -0.00010414100472094867 0.0083039810597331162 0 -0.00045081201032268203 0.0089495273256871288 0 0.0001871103131864566 0.0088296847761614259 0 -9.2874205240002719e-05 0.0093631523646760997 0 -0.00045081201032268203 0.0089495273256871288 0 0.0001871103131864566 0.0088296847761614259 0 -0.00010414100472094867 0.0083039810597331162 0 -0.00045081201032268203 0.0089495273256871288 0 -9.2874205240002719e-05 0.0093631523646760997 0 -0.00045081201032268203 0.0089495273256871288 0 -0.00038542164701250943 0.0098265124560859268 0 -0.0010707778638483463 0.0092510190847824025 0 -0.00045081201032268203 0.0089495273256871288 0 -0.00038542164701250943 0.0098265124560859268 0 -9.2874205240002719e-05 0.0093631523646760997 0 -0.000245456499885282 0.009877515512254258 0 -0.00038542164701250943 0.0098265124560859268 0 1.1831879650845424e-05 0.016412208899903205 0 0.00070960666754590863 0.017951106593276079 0 0.0014366203366551196 0.02470431490759975 0 0.001463962125628962 0.025155560417306017 0 0.0016907388725798918 0.025104614957654935 0 0.001463962125628962 0.025155560417306017 0 0.0015507033014007699 0.025307039794323239 0 0.001424956902854596 0.025492461715123042 0 0.001463962125628962 0.025155560417306017 0 0.001424956902854596 0.025492461715123042 0 0.0012567452776433392 0.025289824645988647 0 0.001463962125628962 0.025155560417306017 0 0.0015507033014007699 0.025307039794323239 0 0.0016253591207787347 0.025231388936305749 0 0.00033208431601344416 0.010520234351452344 0 -0.000245456499885282 0.009877515512254258 0 -0.00038542164701250943 0.0098265124560859268 0 0.001463962125628962 0.025155560417306017 0 0.0016907388725798918 0.025104614957654935 0 0.0016253591207787347 0.025231388936305749 0 0.0016907388725798918 0.025104614957654935 0 0.0016253591207787347 0.025231388936305749 0 0.0016867431633331815 0.025272332271946849 0 0.0015507033014007699 0.025307039794323239 0 0.0016253591207787347 0.025231388936305749 0 0.001616826067373613 0.025352650454802068 0 0.0016253591207787347 0.025231388936305749 0 0.0016867431633331815 0.025272332271946849 0 0.001616826067373613 0.025352650454802068 0 0.0016907388725798918 0.025104614957654935 0 0.0016867431633331815 0.025272332271946849 0 0.0017322332609212897 0.025327135782534822 0 0.0017634322285372769 0.02529916978648232 0 0.0016907388725798918 0.025104614957654935 0 0.0017322332609212897 0.025327135782534822 0 0.001672310647985625 0.025379165693710706 0 0.00171491115629908 0.025462914571763546 0 0.0016094453043214239 0.025478799285680719 0 0.0017322332609212897 0.025327135782534822 0 0.001672310647985625 0.025379165693710706 0 0.00171491115629908 0.025462914571763546 0 0.0016867431633331815 0.025272332271946849 0 0.0017322332609212897 0.025327135782534822 0 0.001672310647985625 0.025379165693710706 0 0.0016867431633331815 0.025272332271946849 0 0.001672310647985625 0.025379165693710706 0 0.001616826067373613 0.025352650454802068 0 0.00171491115629908 0.025462914571763546 0 0.0016094453043214239 0.025478799285680719 0 0.0016222484472198445 0.025579231941443709 0 0.0016094453043214239 0.025478799285680719 0 0.0015232797963138235 0.02567349394548113 0 0.0016222484472198445 0.025579231941443709 0 0.0016094453043214239 0.025478799285680719 0 0.001616826067373613 0.025352650454802068 0 0.0015313567360019232 0.025454245040092187 0 0.001672310647985625 0.025379165693710706 0 0.0016094453043214239 0.025478799285680719 0 0.001616826067373613 0.025352650454802068 0 0.0015507033014007699 0.025307039794323239 0 0.001616826067373613 0.025352650454802068 0 0.0015313567360019232 0.025454245040092187 0 0.0015507033014007699 0.025307039794323239 0 0.0015313567360019232 0.025454245040092187 0 0.001424956902854596 0.025492461715123042 0 0.0015313567360019232 0.025454245040092187 0 0.001424956902854596 0.025492461715123042 0 0.0015232797963138235 0.02567349394548113 0 0.0016094453043214239 0.025478799285680719 0 0.0015313567360019232 0.025454245040092187 0 0.0015232797963138235 0.02567349394548113 0 0.001424956902854596 0.025492461715123042 0 0.0015232797963138235 0.02567349394548113 0 0.001353488312510773 0.02579721984507144 0 0.0015232797963138235 0.02567349394548113 0 0.001353488312510773 0.02579721984507144 0 0.0014180298430417368 0.025905087495202057 0 0.0015232797963138235 0.02567349394548113 0 0.0016447443018468713 0.025676438899728007 0 0.0016222484472198445 0.025579231941443709 0 0.0015232797963138235 0.02567349394548113 0 0.0016447443018468713 0.025676438899728007 0 0.0015538500784338647 0.025824459368537288 0 0.00171491115629908 0.025462914571763546 0 0.0016447443018468713 0.025676438899728007 0 0.0016222484472198445 0.025579231941443709 0 0.001196466899606573 0.025920991167290016 0 0.0013361065146175698 0.02607247921605306 0 0.0013306903781866294 0.026069842796543043 0 0.001196466899606573 0.025920991167290016 0 0.0013361065146175698 0.02607247921605306 0 0.0013085585518878304 0.026024110340196874 0 0.001196466899606573 0.025920991167290016 0 0.001353488312510773 0.02579721984507144 0 0.0013085585518878304 0.026024110340196874 0 0.001353488312510773 0.02579721984507144 0 0.0013085585518878304 0.026024110340196874 0 0.0014180298430417368 0.025905087495202057 0 0.001196466899606573 0.025920991167290016 0 0.001353488312510773 0.02579721984507144 0 0.0012263223665739975 0.025552849419917659 0 0.001424956902854596 0.025492461715123042 0 0.001353488312510773 0.02579721984507144 0 0.0012263223665739975 0.025552849419917659 0 0.001424956902854596 0.025492461715123042 0 0.0012263223665739975 0.025552849419917659 0 0.0012567452776433392 0.025289824645988647 0 0.0012263223665739975 0.025552849419917659 0 0.00099134985821215291 0.025554718193815707 0 0.00098099208681493607 0.025296068821667978 0 0.001196466899606573 0.025920991167290016 0 0.0012263223665739975 0.025552849419917659 0 0.00099134985821215291 0.025554718193815707 0 0.001196466899606573 0.025920991167290016 0 0.00099134985821215291 0.025554718193815707 0 0.00078373134931509114 0.025609420345108758 0 0.00099134985821215291 0.025554718193815707 0 0.00080715855892637012 0.025447709589530198 0 0.00078373134931509114 0.025609420345108758 0 0.00099134985821215291 0.025554718193815707 0 0.00098099208681493607 0.025296068821667978 0 0.00080715855892637012 0.025447709589530198 0 0.00098099208681493607 0.025296068821667978 0 0.00065524247312810549 0.025308723839501616 0 0.00080715855892637012 0.025447709589530198 0 0.00098099208681493607 0.025296068821667978 0 0.0011337301516554283 0.024928168512460998 0 0.00077798925355365223 0.025064748671376268 0 0.00098099208681493607 0.025296068821667978 0 0.00077798925355365223 0.025064748671376268 0 0.00065524247312810549 0.025308723839501616 0 0.00098099208681493607 0.025296068821667978 0 0.0012567452776433392 0.025289824645988647 0 0.0011337301516554283 0.024928168512460998 0 0.001463962125628962 0.025155560417306017 0 0.0012567452776433392 0.025289824645988647 0 0.0011337301516554283 0.024928168512460998 0 0.0012263223665739975 0.025552849419917659 0 0.00098099208681493607 0.025296068821667978 0 0.0012567452776433392 0.025289824645988647 0 0.0014366203366551196 0.02470431490759975 0 0.001463962125628962 0.025155560417306017 0 0.0011337301516554283 0.024928168512460998 0 0.0011337301516554283 0.024928168512460998 0 0.00077798925355365223 0.025064748671376268 0 0.00071580508021542092 0.024730211485439538 0 0.00077798925355365223 0.025064748671376268 0 0.00033972302630971049 0.025139278214183835 0 0.00071580508021542092 0.024730211485439538 0 0.0003603158511922837 0.027523415038955255 0 0.00081505101580760784 0.026668422711031127 0 -0.00023523629898919137 0.027747842752260086 0 0.00080128238917910892 0.026345015782285808 0 -6.1806004488553352e-05 0.02735747522200551 0 0.00029999939548320967 0.027866393155660883 0 0.00065354100527756994 0.027830787588408377 0 0.00028928866739358811 0.028069494849999058 0 0.00029999939548320967 0.027866393155660883 0 0.00065354100527756994 0.027830787588408377 0 0.00050295187006567388 0.027586587380773988 0 0.0010237384589936868 0.027638797709810002 0 0.00028303095633681479 0.028071311932372882 0 0.0002461376155895044 0.027833918518212656 0 0.00080128238917910892 0.026345015782285808 0 0.00065354100527756994 0.027830787588408377 0 0.00050295187006567388 0.027586587380773988 0 0.00074111173592921907 0.02758174469503839 0 0.00080128238917910892 0.026345015782285808 0 0.00047101202436632941 0.027054545341170712 0 0.0011159383555263739 0.026689796898337885 0 0.00058544622837379448 0.027682581433603567 0 0.0002811815594724409 0.027545479317620906 0 0.00033972302630971049 0.025139278214183835 0 0.00044710290315224776 0.025405060729094181 0 0.00014619924257399015 0.025495548071850432 0 0.00050295187006567388 0.027586587380773988 0 0.00074817846464562466 0.027377915378634422 0 0.00074111173592921907 0.02758174469503839 0 0.00080128238917910892 0.026345015782285808 0 0.00068448566676959427 0.028356648115783169 0 0.00077798925355365223 0.025064748671376268 0 0.00033972302630971049 0.025139278214183835 0 0.00065524247312810549 0.025308723839501616 0 0.00044710290315224776 0.025405060729094181 0 0.00065524247312810549 0.025308723839501616 0 0.00061483929737512404 0.02548923248316156 0 0.00033972302630971049 0.025139278214183835 0 0.00044710290315224776 0.025405060729094181 0 0.00065524247312810549 0.025308723839501616 0 0.00065524247312810549 0.025308723839501616 0 0.00080715855892637012 0.025447709589530198 0 0.00061483929737512404 0.02548923248316156 0 0.00080715855892637012 0.025447709589530198 0 0.00078373134931509114 0.025609420345108758 0 0.00061483929737512404 0.02548923248316156 0 0.001196466899606573 0.025920991167290016 0 0.00078373134931509114 0.025609420345108758 0 0.00056113871986624884 0.025718268583339039 0 0.00078373134931509114 0.025609420345108758 0 0.00059929985867360268 0.025590442659239144 0 0.00061483929737512404 0.02548923248316156 0 0.00078373134931509114 0.025609420345108758 0 0.00056113871986624884 0.025718268583339039 0 0.00059929985867360268 0.025590442659239144 0 0.0013710872196432023 0.026159275687255571 0 0.0013650952978237817 0.026119710787362239 0 0.0013745102678105875 0.026139452862795315 0 0.00056113871986624884 0.025718268583339039 0 0.00047282251009992499 0.025538450918362088 0 0.00059929985867360268 0.025590442659239144 0 0.00047282251009992499 0.025538450918362088 0 0.00059929985867360268 0.025590442659239144 0 0.00061483929737512404 0.02548923248316156 0 0.00044710290315224776 0.025405060729094181 0 0.00047282251009992499 0.025538450918362088 0 0.00061483929737512404 0.02548923248316156 0 0.0008875105684550145 0.026265769785618603 0 0.00047101202436632941 0.027054545341170712 0 0.00074028951623702414 0.027124377160996666 0 0.00075346887276568164 0.027132183286085632 0 0.00074822745996970617 0.027131321807418497 0 0.0008875105684550145 0.026265769785618603 0 0.00087567810929510754 0.027612151422142094 0 0.0013710872196432023 0.026159275687255571 0 0.0013683367842346908 0.026136163823454742 0 0.0013725579731256822 0.02614266536555207 0 0.00044710290315224776 0.025405060729094181 0 0.00047282251009992499 0.025538450918362088 0 0.00014619924257399015 0.025495548071850432 0 0.00074028951623702414 0.027124377160996666 0 0.00075225781872387493 0.027139439400138337 0 0.00074822745996970617 0.027131321807418497 0 0.00056113871986624884 0.025718268583339039 0 0.00047282251009992499 0.025538450918362088 0 0.00014619924257399015 0.025495548071850432 0 0.00075225781872387493 0.027139439400138337 0 0.00074822745996970617 0.027131321807418497 0 0.00075546561475864837 0.027135723559423473 0 0.0013683367842346908 0.026136163823454742 0 0.0013725579731256822 0.02614266536555207 0 0.0013644506313972679 0.026133683135484979 0 0.0013725579731256822 0.02614266536555207 0 0.0013706505767939721 0.026139280638021914 0 0.0013644506313972679 0.026133683135484979 0 0.00075346887276568164 0.027132183286085632 0 0.00074822745996970617 0.027131321807418497 0 0.00075546561475864837 0.027135723559423473 0 0.0013710872196432023 0.026159275687255571 0 0.0013725579731256822 0.02614266536555207 0 0.0013745102678105875 0.026139452862795315 0 0.0013725579731256822 0.02614266536555207 0 0.0013764228883507523 0.026137542527254774 0 0.0013745102678105875 0.026139452862795315 0 0.0013793699823533875 0.026135379059385868 0 0.0013849680206490505 0.026145326531214878 0 0.0013732839331574158 0.026114480713734994 0 0.0013754036588310167 0.026129881950645074 0 0.0013764228883507523 0.026137542527254774 0 0.0013745102678105875 0.026139452862795315 0 0.0013754036588310167 0.026129881950645074 0 0.0013764228883507523 0.026137542527254774 0 0.0013793699823533875 0.026135379059385868 0 0.0013725579731256822 0.02614266536555207 0 0.0013756588287379731 0.026139116753301446 0 0.0013752993147307763 0.026139712635566813 0 0.0013725579731256822 0.02614266536555207 0 0.0013764228883507523 0.026137542527254774 0 0.0013756588287379731 0.026139116753301446 0 0.0013756588287379731 0.026139116753301446 0 0.0013793699823533875 0.026135379059385868 0 0.0013752993147307763 0.026139712635566813 0 0.0013764228883507523 0.026137542527254774 0 0.0013756588287379731 0.026139116753301446 0 0.0013793699823533875 0.026135379059385868 0 0.0013793699823533875 0.026135379059385868 0 0.0013752993147307763 0.026139712635566813 0 0.0013849680206490505 0.026145326531214878 0 0.0013754036588310167 0.026129881950645074 0 0.0013793699823533875 0.026135379059385868 0 0.0013732839331574158 0.026114480713734994 0 0.0013706505767939721 0.026139280638021914 0 0.0013752993147307763 0.026139712635566813 0 0.0013682952752307005 0.026144004498414555 0 0.0013725579731256822 0.02614266536555207 0 0.0013706505767939721 0.026139280638021914 0 0.0013752993147307763 0.026139712635566813 0 0.0013752993147307763 0.026139712635566813 0 0.0013779784204045646 0.026153281812570699 0 0.0013849680206490505 0.026145326531214878 0 0.0013752993147307763 0.026139712635566813 0 0.0013682952752307005 0.026144004498414555 0 0.0013779784204045646 0.026153281812570699 0 0.0013779784204045646 0.026153281812570699 0 0.0013849680206490505 0.026145326531214878 0 0.0013980590674175378 0.026188456250293941 0 0.0013779784204045646 0.026153281812570699 0 0.0013632832632443847 0.026166550263345051 0 0.0013980590674175378 0.026188456250293941 0 0.0013682952752307005 0.026144004498414555 0 0.0013779784204045646 0.026153281812570699 0 0.0013632832632443847 0.026166550263345051 0 0.0013849680206490505 0.026145326531214878 0 0.0013975120461224536 0.026156190471423226 0 0.0013980590674175378 0.026188456250293941 0 0.0013849680206490505 0.026145326531214878 0 0.0013732839331574158 0.026114480713734994 0 0.0013975120461224536 0.026156190471423226 0 0.0013361065146175698 0.02607247921605306 0 0.0013732839331574158 0.026114480713734994 0 0.0013975120461224536 0.026156190471423226 0 0.001196466899606573 0.025920991167290016 0 0.0013710872196432023 0.026159275687255571 0 0.0013306903781866294 0.026069842796543043 0 0.0011809143425633149 0.02588820279268236 0 0.0008875105684550145 0.026265769785618603 0 0.0013361065146175698 0.02607247921605306 0 0.0013306903781866294 0.026069842796543043 0 0.0013732839331574158 0.026114480713734994 0 0.0013710872196432023 0.026159275687255571 0 0.0013306903781866294 0.026069842796543043 0 0.0013650952978237817 0.026119710787362239 0 0.0013306903781866294 0.026069842796543043 0 0.0013650952978237817 0.026119710787362239 0 0.0013732839331574158 0.026114480713734994 0 0.0013754036588310167 0.026129881950645074 0 0.0013650952978237817 0.026119710787362239 0 0.0013732839331574158 0.026114480713734994 0 0.0013754036588310167 0.026129881950645074 0 0.0013650952978237817 0.026119710787362239 0 0.0013745102678105875 0.026139452862795315 0 -0.0005929763446560802 0.033753666821692084 0 -0.00059023523774580681 0.03376977554007389 0 -0.00058986434065547925 0.033742695675876913 0 -0.00010252134470577426 0.03195083847020385 0 -0.0002250210655260365 0.03185034329137372 0 -0.0005929763446560802 0.033753666821692084 0 -0.00059433546330958241 0.033756033052947054 0 -0.00058986434065547925 0.033742695675876913 0 0.00035958264545981553 0.029765307391794085 0 0.00030986426954498131 0.029821192285465425 0 0.00035213607149551119 0.029845450079060618 0 -0.00060365575479709281 0.033786983265566783 0 -0.00063639835743457666 0.033804451221868551 0 -0.0005929763446560802 0.033753666821692084 0 -0.00058978585851330559 0.033753483727157259 0 -0.00059433546330958241 0.033756033052947054 0 0.0013632832632443847 0.026166550263345051 0 0.0013464576900516477 0.026143625042747472 0 0.0013384301587405028 0.026207629157614525 0 0.00039141357090211667 0.029770559500000099 0 0.00035958264545981553 0.029765307391794085 0 0.00035213607149551119 0.029845450079060618 0 0.00084687014512909613 0.027713633680093781 0 0.0013222261826790315 0.02596434466168358 0 0.0013682952752307005 0.026144004498414555 0 0.0013464576900516477 0.026143625042747472 0 0.0013644506313972679 0.026133683135484979 0 0.0013682952752307005 0.026144004498414555 0 0.0013632832632443847 0.026166550263345051 0 0.0013464576900516477 0.026143625042747472 0 0.00084687014512909613 0.027713633680093781 0 0.0008294240081633367 0.028245928993315281 0 0.00058339758191003192 0.0283004035606109 0 0.00062232767073386883 0.028572875176687565 0 0.00043104044605105085 0.02858681695214162 0 0.0013706505767939721 0.026139280638021914 0 0.0013682952752307005 0.026144004498414555 0 0.0013644506313972679 0.026133683135484979 0 0.00039141357090211667 0.029770559500000099 0 0.00038891886885285092 0.029756805704127174 0 0.00035958264545981553 0.029765307391794085 0 0.00084687014512909613 0.027713633680093781 0 0.00053362518792321803 0.029388096064055191 0 0.00053362518792321803 0.029388096064055191 0 -0.00010252134470577426 0.03195083847020385 0 0.00019034231517503009 0.030980217148615936 0 -0.00010252134470577426 0.03195083847020385 0 0.00050504340100937018 0.030932288921298696 0 0.00045413650716578035 0.030576622579227102 0 6.762379048001017e-05 0.030968818690549117 0 -0.00019784514734108208 0.033933220214134037 0 -0.00014200540505849961 0.033947468896872821 0 -0.00024306910850908586 0.034055932443785387 0 0.00053362518792321803 0.029388096064055191 0 0.00019034231517503009 0.030980217148615936 0 0.00068415744632486359 0.029074432232797449 0 0.00054860691733362951 0.029370067235138998 0 0.00075677787544343805 0.029583459426752671 0 0.00087567810929510754 0.027612151422142094 0 0.0008294240081633367 0.028245928993315281 0 0.0008294240081633367 0.028245928993315281 0 0.00062391052612449074 0.028204526065322814 0 0.00081895356647470382 0.02797082538773427 0 0.00077769777955153242 0.027974660351455179 0 0.00079444321845354338 0.027943439424545455 0 0.00068415744632486359 0.029074432232797449 0 0.00042093538691896236 0.02909299572940361 0 0.00054860691733362951 0.029370067235138998 0 0.00053362518792321803 0.029388096064055191 0 0.0008294240081633367 0.028245928993315281 0 0.00042093538691896236 0.02909299572940361 0 0.00054860691733362951 0.029370067235138998 0 0.00027418237050550419 0.029364894685506768 0 0.00054860691733362951 0.029370067235138998 0 0.00027418237050550419 0.029364894685506768 0 0.00060729577317403011 0.029734978339363529 0 0.00087567810929510754 0.027612151422142094 0 0.00062391052612449074 0.028204526065322814 0 0.00058888542538180556 0.028345325149695014 0 0.00054436932505513077 0.028429446099049481 0 0.00053478617823928334 0.028322939722304243 0 0.00054436932505513077 0.028429446099049481 0 0.0004895177651705829 0.028370945290165536 0 0.00053478617823928334 0.028322939722304243 0 0.00047101202436632941 0.027054545341170712 0 0.00062391052612449074 0.028204526065322814 0 0.00054860691733362951 0.029370067235138998 0 0.00060729577317403011 0.029734978339363529 0 0.00075677787544343805 0.029583459426752671 0 0.00062391052612449074 0.028204526065322814 0 0.00048571206787387163 0.029782545037034452 0 0.00052915678756032254 0.029421556333769472 0 0.00038869178577990987 0.029561941026879306 0 0.0006357209632819388 0.029538770258280399 0 0.00048571206787387163 0.029782545037034452 0 0.00068448566676959427 0.028356648115783169 0 0.00047101202436632941 0.027054545341170712 0 0.00068448566676959427 0.028356648115783169 0 -0.00019784514734108208 0.033933220214134037 0 -0.00014200540505849961 0.033947468896872821 0 -0.00015328796846557415 0.033880739356936126 0 0.00019709417659744585 0.030345528365791661 0 0.00037613388384439531 0.030163894664913718 0 0.00044236930584801268 0.030614511172559769 0 0.00048571206787387163 0.029782545037034452 0 0.00019034231517503009 0.030980217148615936 0 0.00019034231517503009 0.030980217148615936 0 0.00045103456893486396 0.030958328094440501 0 0.00048571206787387163 0.029782545037034452 0 0.00045103456893486396 0.030958328094440501 0 -0.00019784514734108208 0.033933220214134037 0 -0.00015328796846557415 0.033880739356936126 0 -0.00023245331832365374 0.033880411986272042 0 -0.00023245331832365374 0.033880411986272042 0 -0.00029013426532488505 0.033913925106382498 0 -0.00025061491043066681 0.033944748099816673 0 -0.00019784514734108208 0.033933220214134037 0 -0.00023245331832365374 0.033880411986272042 0 -0.00025061491043066681 0.033944748099816673 0 -0.00029013426532488505 0.033913925106382498 0 -0.00030558068380913671 0.0339702442652337 0 -0.00025061491043066681 0.033944748099816673 0 -0.00030558068380913671 0.0339702442652337 0 -0.00024306910850908586 0.034055932443785387 0 -0.00037063192607677257 0.034005908325228471 0 -0.00019784514734108208 0.033933220214134037 0 -0.00025061491043066681 0.033944748099816673 0 -0.00024306910850908586 0.034055932443785387 0 -0.00030558068380913671 0.0339702442652337 0 -0.00025061491043066681 0.033944748099816673 0 -0.00024306910850908586 0.034055932443785387 0 -0.00040356530832384046 0.034077215341259362 0 -0.00024306910850908586 0.034055932443785387 0 -0.00037063192607677257 0.034005908325228471 0 -0.00040356530832384046 0.034077215341259362 0 -0.00037063192607677257 0.034005908325228471 0 -0.00042310474149800475 0.033985378162661402 0 -0.00063639835743457666 0.033804451221868551 0 -0.00010252134470577426 0.03195083847020385 0 -0.00037063192607677257 0.034005908325228471 0 -0.00035005588297258231 0.033926790155915036 0 -0.00042310474149800475 0.033985378162661402 0 -0.00029013426532488505 0.033913925106382498 0 -0.00030558068380913671 0.0339702442652337 0 -0.00035005588297258231 0.033926790155915036 0 -0.00030558068380913671 0.0339702442652337 0 -0.00037063192607677257 0.034005908325228471 0 -0.00035005588297258231 0.033926790155915036 0 -0.00029013426532488505 0.033913925106382498 0 -0.00035005588297258231 0.033926790155915036 0 -0.00031211987734391483 0.033846502086800949 0 -0.00035005588297258231 0.033926790155915036 0 -0.0004094287389580647 0.033895412409539374 0 -0.00042310474149800475 0.033985378162661402 0 -0.00035005588297258231 0.033926790155915036 0 -0.00031211987734391483 0.033846502086800949 0 -0.0004094287389580647 0.033895412409539374 0 -0.00031211987734391483 0.033846502086800949 0 -0.00034776496365021727 0.033758908272206956 0 -0.0004094287389580647 0.033895412409539374 0 -0.00023245331832365374 0.033880411986272042 0 -0.00029013426532488505 0.033913925106382498 0 -0.00031211987734391483 0.033846502086800949 0 -0.00031211987734391483 0.033846502086800949 0 -0.00022791424098553035 0.033806656440060347 0 -0.00034776496365021727 0.033758908272206956 0 -0.00023245331832365374 0.033880411986272042 0 -0.00031211987734391483 0.033846502086800949 0 -0.00022791424098553035 0.033806656440060347 0 0.00046949548939599314 0.030784480479243329 0 0.00040289677893897926 0.030714442788976656 0 0.00051086512538927285 0.030648793975030838 0 -0.00015486606640824921 0.032430412296012526 0 -3.7912947483574107e-05 0.032564941731906744 0 3.6794017277605338e-05 0.032524195900161257 0 -3.1220741918143623e-05 0.032334224710876644 0 0.00096964505523572354 0.029323329393552491 0 0.00027189804115079763 0.031767774435976948 0 -0.0005525071113369126 0.033300489666382445 0 0.00027189804115079763 0.031767774435976948 0 -3.1220741918143623e-05 0.032334224710876644 0 -0.00095230503455573964 0.034228201692826414 0 -0.00090862990025696716 0.034205406961924735 0 -0.00085000410305745993 0.034288644497651878 0 -3.1220741918143623e-05 0.032334224710876644 0 -0.0005525071113369126 0.033300489666382445 0 0.00074817846464562466 0.027377915378634422 0 0.00087707422445139815 0.027441452700636217 0 0.00074111173592921907 0.02758174469503839 0 0.00068448566676959427 0.028356648115783169 0 0.00034034116139680117 0.029854477854607254 0 0.00045103456893486396 0.030958328094440501 0 0.00034034116139680117 0.029854477854607254 0 0.00038869178577990987 0.029561941026879306 0 0.0006357209632819388 0.029538770258280399 0 0.00065721697396729014 0.029686945278338449 0 -0.00015328796846557415 0.033880739356936126 0 -0.00023245331832365374 0.033880411986272042 0 -0.00022791424098553035 0.033806656440060347 0 -1.2113407489922345e-05 0.03072437601840591 0 0.00041133470221501944 0.031188255393095735 0 2.9839366588749547e-05 0.031014435786798172 0 0.00045103456893486396 0.030958328094440501 0 0.00027189804115079763 0.031767774435976948 0 0.00027189804115079763 0.031767774435976948 0 0.00034034116139680117 0.029854477854607254 0 0.00034034116139680117 0.029854477854607254 0 0.00096964505523572354 0.029323329393552491 0 0.00046949548939599314 0.030784480479243329 0 0.00053091133313058823 0.030810069942632488 0 0.00051086512538927285 0.030648793975030838 0 0.00087707422445139815 0.027441452700636217 0 0.00074111173592921907 0.02758174469503839 0 0.00091529951779335513 0.027684974061228509 0 0.0010512665064562347 0.027666626659519987 0 0.0017788434356428775 0.027284473988780374 0 0.0018933067854765776 0.027997274745000286 0 0.00065354100527756994 0.027830787588408377 0 0.00074111173592921907 0.02758174469503839 0 0.00091529951779335513 0.027684974061228509 0 0.0010237384589936868 0.027638797709810002 0 0.00096964505523572354 0.029323329393552491 0 0.00096964505523572354 0.029323329393552491 0 0.0011224034798347953 0.029774339960367366 0 -3.1220741918143623e-05 0.032334224710876644 0 -0.00018565337019081722 0.03297891090345674 0 -0.00095230503455573964 0.034228201692826414 0 -0.0008110689627198849 0.034402426610297264 0 -0.00085000410305745993 0.034288644497651878 0 0.00038597357795788848 0.031484893480157261 0 0.00038758595964774524 0.031540444659597731 0 0.00043495715339640314 0.031553227526224567 0 0.00038597357795788848 0.031484893480157261 0 0.00034918986814937245 0.031499524332129984 0 0.00038758595964774524 0.031540444659597731 0 0.00034918986814937245 0.031499524332129984 0 0.00038758595964774524 0.031540444659597731 0 0.00035925025342197419 0.031566616891924887 0 0.00038758595964774524 0.031540444659597731 0 0.00040758242118959061 0.0315967011234803 0 0.00043495715339640314 0.031553227526224567 0 0.00040758242118959061 0.0315967011234803 0 0.00037068173003955088 0.031629840538197805 0 0.00042953523286286878 0.031649230962904971 0 0.00038758595964774524 0.031540444659597731 0 0.00040758242118959061 0.0315967011234803 0 0.00035925025342197419 0.031566616891924887 0 0.0011956387232999904 0.030335265889510344 0 0.0011224034798347953 0.029774339960367366 0 0.00040758242118959061 0.0315967011234803 0 0.00037068173003955088 0.031629840538197805 0 0.00035925025342197419 0.031566616891924887 0 0.0011956387232999904 0.030335265889510344 0 0.00042450910859741009 0.033155620983537686 0 0.0011838727677225393 0.03184430045832376 0 0.0011179033793518541 0.031380628757228524 0 0.00058624030139671685 0.031784582795508567 0 0.002029850513083509 0.028739323948576069 0 0.0021286757736277587 0.029385478842097457 0 0.0018479055855632645 0.028999792760290504 0 0.0011956387232999904 0.030335265889510344 0 0.001214928020035273 0.031359950892666209 0 0.0015045360699559647 0.034121709171367094 0 0.0011605752511941081 0.034089907419368091 0 0.0010184890004417894 0.034470099002716116 0 0.001214928020035273 0.031359950892666209 0 0.00042450910859741009 0.033155620983537686 0 0.0013959559566672113 0.029236348336461944 0 0.001016436984792945 0.029404829045377962 0 0.0014550191188079731 0.029492033521778559 0 0.0013959559566672113 0.029236348336461944 0 0.0015734179292992867 0.028933156980521017 0 0.0011755513277723147 0.02897745707486413 0 0.0013959559566672113 0.029236348336461944 0 0.0016580460225253787 0.02922213609664482 0 0.0015734179292992867 0.028933156980521017 0 0.0013959559566672113 0.029236348336461944 0 0.0016580460225253787 0.02922213609664482 0 0.0014550191188079731 0.029492033521778559 0 0.0021286757736277587 0.029385478842097457 0 0.0016580460225253787 0.02922213609664482 0 0.0018479055855632645 0.028999792760290504 0 0.0021286757736277587 0.029385478842097457 0 0.0016580460225253787 0.02922213609664482 0 0.0014550191188079731 0.029492033521778559 0 0.0016580460225253787 0.02922213609664482 0 0.0015734179292992867 0.028933156980521017 0 0.0018479055855632645 0.028999792760290504 0 0.0015734179292992867 0.028933156980521017 0 0.0018479055855632645 0.028999792760290504 0 0.0018471647371566251 0.028714090789235255 0 0.002029850513083509 0.028739323948576069 0 0.0018479055855632645 0.028999792760290504 0 0.0018471647371566251 0.028714090789235255 0 0.0011956387232999904 0.030335265889510344 0 0.0014242773605049705 0.030152086145458577 0 0.0015734179292992867 0.028933156980521017 0 0.0018471647371566251 0.028714090789235255 0 0.0015739294654059934 0.028693911856786894 0 0.0015734179292992867 0.028933156980521017 0 0.0013351606937001004 0.028690765320551013 0 0.0011755513277723147 0.02897745707486413 0 0.0015734179292992867 0.028933156980521017 0 0.0015739294654059934 0.028693911856786894 0 0.0013351606937001004 0.028690765320551013 0 0.0015390436824559526 0.028439743078229253 0 0.0012945324790773196 0.028157589660749559 0 0.0011475754197359956 0.028404336407890744 0 0.0013351606937001004 0.028690765320551013 0 0.0015390436824559526 0.028439743078229253 0 0.0011475754197359956 0.028404336407890744 0 0.0010512665064562347 0.027666626659519987 0 0.0018933067854765776 0.027997274745000286 0 0.0012945324790773196 0.028157589660749559 0 0.0015739294654059934 0.028693911856786894 0 0.0013351606937001004 0.028690765320551013 0 0.0015390436824559526 0.028439743078229253 0 0.0020188452854360173 0.028736874923136244 0 0.0018471647371566251 0.028714090789235255 0 0.0018933067854765776 0.027997274745000286 0 0.0018471647371566251 0.028714090789235255 0 0.0015390436824559526 0.028439743078229253 0 0.0018933067854765776 0.027997274745000286 0 0.0018471647371566251 0.028714090789235255 0 0.0015739294654059934 0.028693911856786894 0 0.0015390436824559526 0.028439743078229253 0 0.0015390436824559526 0.028439743078229253 0 0.0018933067854765776 0.027997274745000286 0 0.0012945324790773196 0.028157589660749559 0 0.0010512665064562347 0.027666626659519987 0 0.0009824089560882582 0.028142632952138608 0 0.00070766969176024009 0.028129997185472065 0 0.0010512665064562347 0.027666626659519987 0 0.0012945324790773196 0.028157589660749559 0 0.0009824089560882582 0.028142632952138608 0 0.0012945324790773196 0.028157589660749559 0 0.0009824089560882582 0.028142632952138608 0 0.0011475754197359956 0.028404336407890744 0 0.0009824089560882582 0.028142632952138608 0 0.00070766969176024009 0.028129997185472065 0 0.00079325132447302855 0.028374600734622304 0 0.0010512665064562347 0.027666626659519987 0 0.00070766969176024009 0.028129997185472065 0 0.00028928866739358811 0.028069494849999058 0 0.00070766969176024009 0.028129997185472065 0 0.00043158385498676105 0.028378932068242744 0 0.00028928866739358811 0.028069494849999058 0 0.00070766969176024009 0.028129997185472065 0 0.00079325132447302855 0.028374600734622304 0 0.00043158385498676105 0.028378932068242744 0 0.00043158385498676105 0.028378932068242744 0 0.00034014628569848326 0.028734143774400953 0 0.00065754664188503217 0.028618723767010325 0 0.00079325132447302855 0.028374600734622304 0 0.00043158385498676105 0.028378932068242744 0 0.00065754664188503217 0.028618723767010325 0 0.00079325132447302855 0.028374600734622304 0 0.0011475754197359956 0.028404336407890744 0 0.00096566823357018829 0.028670453067126879 0 0.00079325132447302855 0.028374600734622304 0 0.00096566823357018829 0.028670453067126879 0 0.00065754664188503217 0.028618723767010325 0 0.0013351606937001004 0.028690765320551013 0 0.0011475754197359956 0.028404336407890744 0 0.00096566823357018829 0.028670453067126879 0 0.0009824089560882582 0.028142632952138608 0 0.00079325132447302855 0.028374600734622304 0 0.0011475754197359956 0.028404336407890744 0 0.0003603158511922837 0.027523415038955255 0 -0.00023523629898919137 0.027747842752260086 0 -0.00010111896046363249 0.028365086860866889 0 0.00029999939548320967 0.027866393155660883 0 0.00028928866739358811 0.028069494849999058 0 -0.00010111896046363249 0.028365086860866889 0 0.0002461376155895044 0.027833918518212656 0 -1.9601264714336281e-05 0.028257776274649413 0 0.00043158385498676105 0.028378932068242744 0 -0.00010111896046363249 0.028365086860866889 0 0.00034014628569848326 0.028734143774400953 0 0.00043158385498676105 0.028378932068242744 0 0.00028928866739358811 0.028069494849999058 0 -0.00010111896046363249 0.028365086860866889 0 -0.00010111896046363249 0.028365086860866889 0 -0.00020218426830624276 0.028936927688691862 0 0.00034014628569848326 0.028734143774400953 0 -0.00020218426830624276 0.028936927688691862 0 0.00034014628569848326 0.028734143774400953 0 0.00034045507331955651 0.029242339008022207 0 -0.00020218426830624276 0.028936927688691862 0 0.00034045507331955651 0.029242339008022207 0 -0.00038236833763539746 0.029637626903614604 0 0.0011755513277723147 0.02897745707486413 0 0.00096566823357018829 0.028670453067126879 0 0.00075940258740375189 0.028941133508667428 0 0.0013351606937001004 0.028690765320551013 0 0.0011755513277723147 0.02897745707486413 0 0.00096566823357018829 0.028670453067126879 0 0.00096566823357018829 0.028670453067126879 0 0.00065754664188503217 0.028618723767010325 0 0.00075940258740375189 0.028941133508667428 0 0.00034014628569848326 0.028734143774400953 0 0.00065754664188503217 0.028618723767010325 0 0.00075940258740375189 0.028941133508667428 0 0.00034014628569848326 0.028734143774400953 0 0.00034045507331955651 0.029242339008022207 0 0.00075940258740375189 0.028941133508667428 0 0.00034045507331955651 0.029242339008022207 0 0.00075940258740375189 0.028941133508667428 0 0.001016436984792945 0.029404829045377962 0 0.0013959559566672113 0.029236348336461944 0 0.0011755513277723147 0.02897745707486413 0 0.001016436984792945 0.029404829045377962 0 0.0011755513277723147 0.02897745707486413 0 0.00075940258740375189 0.028941133508667428 0 0.001016436984792945 0.029404829045377962 0 0.0010728756750852581 0.029738182930977353 0 0.001016436984792945 0.029404829045377962 0 0.0014550191188079731 0.029492033521778559 0 0.0010728756750852581 0.029738182930977353 0 0.001016436984792945 0.029404829045377962 0 0.00061442124340519821 0.029727054774414639 0 0.00034045507331955651 0.029242339008022207 0 0.001016436984792945 0.029404829045377962 0 0.00061442124340519821 0.029727054774414639 0 0.00061442124340519821 0.029727054774414639 0 0.00056420915692242458 0.030172054519208406 0 0.00085392442254293894 0.030040848626302144 0 0.00085392442254293894 0.030040848626302144 0 0.00061460112295947582 0.030600768964820738 0 0.0014308447827244557 0.029949744527694829 0 0.0010728756750852581 0.029738182930977353 0 0.00061442124340519821 0.029727054774414639 0 0.00085392442254293894 0.030040848626302144 0 0.0010728756750852581 0.029738182930977353 0 0.00085392442254293894 0.030040848626302144 0 0.0014308447827244557 0.029949744527694829 0 0.00056420915692242458 0.030172054519208406 0 -0.00038236833763539746 0.029637626903614604 0 0.00058036966512004732 0.030601984819171979 0 -0.00020305092649797743 0.023077353705476436 0 0.00033646251553600147 0.023139930879895222 0 0.00061442124340519821 0.029727054774414639 0 0.00056420915692242458 0.030172054519208406 0 -0.00038236833763539746 0.029637626903614604 0 0.00034045507331955651 0.029242339008022207 0 0.00061442124340519821 0.029727054774414639 0 -0.00038236833763539746 0.029637626903614604 0 9.2352085772796769e-05 0.016386272416815464 0 -0.0003206859809645621 0.015679131398596894 0 0.00012357608319797376 0.015716686882490071 0 -0.0003206859809645621 0.015679131398596894 0 -0.00031977086283207368 0.015607219158571264 0 0.00012357608319797376 0.015716686882490071 0 0.00051878902809740317 0.030340798996919396 0 0.00061460112295947582 0.030600768964820738 0 0.00044493297637843886 0.030620329974861971 0 0.00051878902809740317 0.030340798996919396 0 0.00061460112295947582 0.030600768964820738 0 0.00058036966512004732 0.030601984819171979 0 0.00073109549344053774 0.023085916674716388 0 0.00033646251553600147 0.023139930879895222 0 0.00061460112295947582 0.030600768964820738 0 0.00040864230716661844 0.030809095070449571 0 0.00033778326247438888 0.030953005198371238 0 0.00061460112295947582 0.030600768964820738 0 0.00044493297637843886 0.030620329974861971 0 0.00040864230716661844 0.030809095070449571 0 0.00057558841298490239 0.030648976002103499 0 0.001026620869823874 0.030283955582589679 0 0.00056420915692242458 0.030172054519208406 0 0.00085392442254293894 0.030040848626302144 0 0.00061460112295947582 0.030600768964820738 0 0.00056420915692242458 0.030172054519208406 0 0.00061460112295947582 0.030600768964820738 0 0.00058036966512004732 0.030601984819171979 0 0.00060250448228001943 0.032569782466072957 0 0.00037035440273574648 0.030758913669160365 0 8.9064977043052068e-05 0.030437739351362916 0 0.00036318397956841124 0.030706039451072958 0 0.00042042098137099382 0.031062728142745341 0 0.00035904070338081375 0.030524165041558794 0 0.00044493297637843886 0.030620329974861971 0 0.00036318397956841124 0.030706039451072958 0 0.00044493297637843886 0.030620329974861971 0 0.00040864230716661844 0.030809095070449571 0 0.00036318397956841124 0.030706039451072958 0 0.00040864230716661844 0.030809095070449571 0 0.00036318397956841124 0.030706039451072958 0 0.00042042098137099382 0.031062728142745341 0 8.9064977043052068e-05 0.030437739351362916 0 0.00035904070338081375 0.030524165041558794 0 0.00036318397956841124 0.030706039451072958 0 0.00089968553383057794 0.03299916036457938 0 0.0012715183756534481 0.032800981033027067 0 0.00042042098137099382 0.031062728142745341 0 0.0012692189099445478 0.032697851038117363 0 0.0012532245809315093 0.032572772680683079 0 0.0012715183756534481 0.032800981033027067 0 0.0010328166435745888 0.031165190973106067 0 0.00042042098137099382 0.031062728142745341 0 0.0012715183756534481 0.032800981033027067 0 0.0011665760663045447 0.033278762847843743 0 0.0014651647905536168 0.033604603774290323 0 0.00106911364065464 0.033060580246572935 0 0.0012715183756534481 0.032800981033027067 0 0.0011665760663045447 0.033278762847843743 0 0.00106911364065464 0.033060580246572935 0 0.0011665760663045447 0.033278762847843743 0 0.00096733968083235718 0.033337764986412735 0 0.0011665760663045447 0.033278762847843743 0 0.0014651647905536168 0.033604603774290323 0 0.0011156673691158625 0.033608139497574782 0 0.0011665760663045447 0.033278762847843743 0 0.0011156673691158625 0.033608139497574782 0 0.00096733968083235718 0.033337764986412735 0 0.00071465118304792411 0.030459338510636213 0 0.0010328166435745888 0.031165190973106067 0 0.00042042098137099382 0.031062728142745341 0 0.0015045360699559647 0.034121709171367094 0 0.0014651647905536168 0.033604603774290323 0 0.0012763171440538844 0.03386684131800325 0 0.001214928020035273 0.031359950892666209 0 0.0012532245809315093 0.032572772680683079 0 0.0014651647905536168 0.033604603774290323 0 0.0011156673691158625 0.033608139497574782 0 0.0012763171440538844 0.03386684131800325 0 0.0011156673691158625 0.033608139497574782 0 0.0012763171440538844 0.03386684131800325 0 0.0010636889165841503 0.033858557895036757 0 0.0015045360699559647 0.034121709171367094 0 0.0012763171440538844 0.03386684131800325 0 0.0011605752511941081 0.034089907419368091 0 0.0012763171440538844 0.03386684131800325 0 0.0011605752511941081 0.034089907419368091 0 0.0010636889165841503 0.033858557895036757 0 0.001214928020035273 0.031359950892666209 0 0.001026620869823874 0.030283955582589679 0 0.0021286757736277587 0.029385478842097457 0 0.0014550191188079731 0.029492033521778559 0 0.0014308447827244557 0.029949744527694829 0 0.0010728756750852581 0.029738182930977353 0 0.0014550191188079731 0.029492033521778559 0 0.0014308447827244557 0.029949744527694829 0 0.00040864230716661844 0.030809095070449571 0 0.00033778326247438888 0.030953005198371238 0 0.00042042098137099382 0.031062728142745341 0 0.00071465118304792411 0.030459338510636213 0 0.00033778326247438888 0.030953005198371238 0 0.00042042098137099382 0.031062728142745341 0 0.00050271739163242199 0.033867489333930349 0 0.00081072059530858489 0.033726610544649531 0 0.00052642529083073424 0.03356178907504595 0 0.00050271739163242199 0.033867489333930349 0 0.00034421409832682923 0.033800719161254503 0 0.00052642529083073424 0.03356178907504595 0 0.00050271739163242199 0.033867489333930349 0 0.00034421409832682923 0.033800719161254503 0 0.0002527166844210327 0.034004426705716101 0 0.00050271739163242199 0.033867489333930349 0 0.0002527166844210327 0.034004426705716101 0 0.0003929470615254213 0.034135409062456282 0 0.0002527166844210327 0.034004426705716101 0 0.0003929470615254213 0.034135409062456282 0 0.00013380774535018335 0.03421356983243469 0 0.00050271739163242199 0.033867489333930349 0 0.0003929470615254213 0.034135409062456282 0 0.00067008910745670446 0.034123709943840286 0 0.00050271739163242199 0.033867489333930349 0 0.00067008910745670446 0.034123709943840286 0 0.00081072059530858489 0.033726610544649531 0 0.00067008910745670446 0.034123709943840286 0 0.00094061539253131334 0.034109500131359854 0 0.00081072059530858489 0.033726610544649531 0 0.00094061539253131334 0.034109500131359854 0 0.0010636889165841503 0.033858557895036757 0 0.00081072059530858489 0.033726610544649531 0 0.0011605752511941081 0.034089907419368091 0 0.00094061539253131334 0.034109500131359854 0 0.0010636889165841503 0.033858557895036757 0 0.0011156673691158625 0.033608139497574782 0 0.0010636889165841503 0.033858557895036757 0 0.00081072059530858489 0.033726610544649531 0 0.00081072059530858489 0.033726610544649531 0 0.0007473987232566575 0.033346868606492858 0 0.00052642529083073424 0.03356178907504595 0 0.00081072059530858489 0.033726610544649531 0 0.00096733968083235718 0.033337764986412735 0 0.0007473987232566575 0.033346868606492858 0 0.0011156673691158625 0.033608139497574782 0 0.00081072059530858489 0.033726610544649531 0 0.00096733968083235718 0.033337764986412735 0 0.00106911364065464 0.033060580246572935 0 0.00096733968083235718 0.033337764986412735 0 0.00090239566924336532 0.033104378212495317 0 0.00096733968083235718 0.033337764986412735 0 0.00090239566924336532 0.033104378212495317 0 0.0007473987232566575 0.033346868606492858 0 0.00063263219907683558 0.033180800230512973 0 0.00090239566924336532 0.033104378212495317 0 0.0007473987232566575 0.033346868606492858 0 0.00063263219907683558 0.033180800230512973 0 0.0007473987232566575 0.033346868606492858 0 0.00052642529083073424 0.03356178907504595 0 0.00063263219907683558 0.033180800230512973 0 0.00052642529083073424 0.03356178907504595 0 0.00040263538854153161 0.033400225367558684 0 0.00052642529083073424 0.03356178907504595 0 0.00040263538854153161 0.033400225367558684 0 0.00025505760318430881 0.033642056475430122 0 0.00034421409832682923 0.033800719161254503 0 0.00052642529083073424 0.03356178907504595 0 0.00025505760318430881 0.033642056475430122 0 0.00032219325632793801 0.03319222986486816 0 0.00063263219907683558 0.033180800230512973 0 0.00040263538854153161 0.033400225367558684 0 0.00032219325632793801 0.03319222986486816 0 0.00040263538854153161 0.033400225367558684 0 0.00010884233790589794 0.033422523844415755 0 0.00040263538854153161 0.033400225367558684 0 0.00010884233790589794 0.033422523844415755 0 0.00025505760318430881 0.033642056475430122 0 -0.0001647380011980103 0.033302982917339026 0 0.00010884233790589794 0.033422523844415755 0 -0.00014891400089701542 0.033631051177696394 0 0.00010884233790589794 0.033422523844415755 0 -9.9362499932717462e-06 0.033762921622345538 0 -0.00014891400089701542 0.033631051177696394 0 -9.9362499932717462e-06 0.033762921622345538 0 -0.00014891400089701542 0.033631051177696394 0 -0.0001767157526627281 0.033911062214217282 0 0.00010884233790589794 0.033422523844415755 0 -9.9362499932717462e-06 0.033762921622345538 0 0.00025505760318430881 0.033642056475430122 0 -9.9362499932717462e-06 0.033762921622345538 0 0.00025505760318430881 0.033642056475430122 0 0.00011416248396231305 0.033875218692679183 0 -0.00044937474378282585 0.033788215750010002 0 -0.00048315660306779849 0.034330837490604726 0 -0.00065012579976934395 0.033453464077641271 0 -0.00033732611332024342 0.033501160992969986 0 -0.00044937474378282585 0.033788215750010002 0 -0.00065012579976934395 0.033453464077641271 0 -0.00039311882439326386 0.033235878745381101 0 -0.00033732611332024342 0.033501160992969986 0 -0.00065012579976934395 0.033453464077641271 0 -0.0001647380011980103 0.033302982917339026 0 -0.00033732611332024342 0.033501160992969986 0 -0.00014891400089701542 0.033631051177696394 0 -0.00033732611332024342 0.033501160992969986 0 -0.00014891400089701542 0.033631051177696394 0 -0.0003237320032217103 0.033878405440582349 0 -0.00014891400089701542 0.033631051177696394 0 -0.0003237320032217103 0.033878405440582349 0 -0.0001767157526627281 0.033911062214217282 0 -0.0003237320032217103 0.033878405440582349 0 -0.00044937474378282585 0.033788215750010002 0 -0.00048315660306779849 0.034330837490604726 0 -0.00033732611332024342 0.033501160992969986 0 -0.0003237320032217103 0.033878405440582349 0 -0.00044937474378282585 0.033788215750010002 0 -0.0003237320032217103 0.033878405440582349 0 -0.00025371817301674926 0.034149399234729684 0 -0.00048315660306779849 0.034330837490604726 0 -0.0001767157526627281 0.033911062214217282 0 -0.00025371817301674926 0.034149399234729684 0 -4.905801438454926e-05 0.034083350165555436 0 -0.0003237320032217103 0.033878405440582349 0 -0.0001767157526627281 0.033911062214217282 0 -0.00025371817301674926 0.034149399234729684 0 -0.00025371817301674926 0.034149399234729684 0 -4.905801438454926e-05 0.034083350165555436 0 -0.00023028707277228364 0.03439064123854163 0 -0.00025371817301674926 0.034149399234729684 0 -0.00023028707277228364 0.03439064123854163 0 -0.00048315660306779849 0.034330837490604726 0 0.0002527166844210327 0.034004426705716101 0 0.00011416248396231305 0.033875218692679183 0 -4.905801438454926e-05 0.034083350165555436 0 0.00034421409832682923 0.033800719161254503 0 0.00025505760318430881 0.033642056475430122 0 0.00011416248396231305 0.033875218692679183 0 0.00034421409832682923 0.033800719161254503 0 0.0002527166844210327 0.034004426705716101 0 0.00011416248396231305 0.033875218692679183 0 -9.9362499932717462e-06 0.033762921622345538 0 -0.0001767157526627281 0.033911062214217282 0 -4.905801438454926e-05 0.034083350165555436 0 -9.9362499932717462e-06 0.033762921622345538 0 0.00011416248396231305 0.033875218692679183 0 -4.905801438454926e-05 0.034083350165555436 0 -4.905801438454926e-05 0.034083350165555436 0 0.00013380774535018335 0.03421356983243469 0 -0.00023028707277228364 0.03439064123854163 0 0.0002527166844210327 0.034004426705716101 0 -4.905801438454926e-05 0.034083350165555436 0 0.00013380774535018335 0.03421356983243469 0 0.00013380774535018335 0.03421356983243469 0 -0.00023028707277228364 0.03439064123854163 0 0.00036013954701474789 0.034414841166482316 0 -0.00030406970352135968 0.034531827365430798 0 -0.00010199500070163266 0.034639499277817898 0 -0.00050171134884199528 0.034622538280578645 0 -0.00038941978162407363 0.034699615288903543 0 -0.00055740639463578031 0.034623800887731461 0 -0.00050171134884199528 0.034622538280578645 0 -0.00038941978162407363 0.034699615288903543 0 -0.00045196346439145774 0.034579783594047217 0 -0.00038941978162407363 0.034699615288903543 0 -0.00027220122173947413 0.034631890216272145 0 -0.00020106737315431908 0.034738099307570179 0 -0.00030406970352135968 0.034531827365430798 0 -0.00030488188429418259 0.034588834910266583 0 -0.00023028707277228364 0.03439064123854163 0 -0.00040912952903217185 0.03440865130534191 0 -0.00048315660306779849 0.034330837490604726 0 -0.00038941978162407363 0.034699615288903543 0 -0.00036746172991636332 0.034606557240343019 0 -0.00045196346439145774 0.034579783594047217 0 -0.00038941978162407363 0.034699615288903543 0 -0.00036746172991636332 0.034606557240343019 0 -0.00027220122173947413 0.034631890216272145 0 -0.00036746172991636332 0.034606557240343019 0 -0.00034127759373942223 0.034517946837745783 0 -0.00027220122173947413 0.034631890216272145 0 -0.00036746172991636332 0.034606557240343019 0 -0.00034127759373942223 0.034517946837745783 0 -0.00045196346439145774 0.034579783594047217 0 -0.00034127759373942223 0.034517946837745783 0 -0.00025903113821374173 0.034504933793443743 0 -0.00027220122173947413 0.034631890216272145 0 -0.00045196346439145774 0.034579783594047217 0 -0.00050700265617898636 0.034531196654587107 0 -0.00053169820220842594 0.034590694768904681 0 -0.00050171134884199528 0.034622538280578645 0 -0.00045196346439145774 0.034579783594047217 0 -0.00053169820220842594 0.034590694768904681 0 -0.00034127759373942223 0.034517946837745783 0 -0.00045196346439145774 0.034579783594047217 0 -0.00045086841581138407 0.03446154855438871 0 -0.00045196346439145774 0.034579783594047217 0 -0.00050700265617898636 0.034531196654587107 0 -0.00045086841581138407 0.03446154855438871 0 -0.00050700265617898636 0.034531196654587107 0 -0.00053900059546142321 0.034463511721983808 0 -0.00045086841581138407 0.03446154855438871 0 -0.00038208789028296213 0.033605771437149129 0 -0.0007557551687612387 0.034644390163930561 0 -0.00050700265617898636 0.034531196654587107 0 -0.00055469055338863813 0.034549333739127039 0 -0.00053900059546142321 0.034463511721983808 0 -0.00062815453112778207 0.034554850959638533 0 -0.00055469055338863813 0.034549333739127039 0 -0.00053900059546142321 0.034463511721983808 0 -0.00068130485415350149 0.034549061712348096 0 -0.00053900059546142321 0.034463511721983808 0 -0.00067332193183822892 0.034426244324103794 0 -0.00038208789028296213 0.033605771437149129 0 -0.00032355694945575503 0.034564212799337385 0 -0.00062815453112778207 0.034554850959638533 0 -0.00055469055338863813 0.034549333739127039 0 -0.0005548391571949102 0.034624913037252722 0 -0.00055469055338863813 0.034549333739127039 0 -0.00053169820220842594 0.034590694768904681 0 -0.0005548391571949102 0.034624913037252722 0 -0.00050700265617898636 0.034531196654587107 0 -0.00055469055338863813 0.034549333739127039 0 -0.00053169820220842594 0.034590694768904681 0 -0.00050171134884199528 0.034622538280578645 0 -0.0005378552085565098 0.034617516439545915 0 -0.00055740639463578031 0.034623800887731461 0 -0.00055740639463578031 0.034623800887731461 0 -0.0005548391571949102 0.034624913037252722 0 -0.00044663319740140289 0.034592983087201525 0 -0.00053169820220842594 0.034590694768904681 0 -0.0005378552085565098 0.034617516439545915 0 -0.0005548391571949102 0.034624913037252722 0 -0.00050171134884199528 0.034622538280578645 0 -0.00053169820220842594 0.034590694768904681 0 -0.0005378552085565098 0.034617516439545915 0 -0.0005378552085565098 0.034617516439545915 0 -0.00055740639463578031 0.034623800887731461 0 -0.0005548391571949102 0.034624913037252722 0 0.0003929470615254213 0.034135409062456282 0 0.00067008910745670446 0.034123709943840286 0 0.00036013954701474789 0.034414841166482316 0 0.0003929470615254213 0.034135409062456282 0 0.00013380774535018335 0.03421356983243469 0 0.00036013954701474789 0.034414841166482316 0 0.00067008910745670446 0.034123709943840286 0 0.00036013954701474789 0.034414841166482316 0 0.0010184890004417894 0.034470099002716116 0 -0.00010199500070163266 0.034639499277817898 0 0.00042450910859741009 0.033155620983537686 0 0.0011605752511941081 0.034089907419368091 0 0.00094061539253131334 0.034109500131359854 0 0.0010184890004417894 0.034470099002716116 0 0.00067008910745670446 0.034123709943840286 0 0.00094061539253131334 0.034109500131359854 0 0.0010184890004417894 0.034470099002716116 0 0.00040758242118959061 0.0315967011234803 0 0.00047755817202915936 0.031620106097041134 0 0.00043495715339640314 0.031553227526224567 0 0.00040758242118959061 0.0315967011234803 0 0.00047755817202915936 0.031620106097041134 0 0.00042953523286286878 0.031649230962904971 0 -0.00051357431341014293 0.034653582593913726 0 -0.0005548391571949102 0.034624913037252722 0 -0.00044663319740140289 0.034592983087201525 0 -0.00038208789028296213 0.033605771437149129 0 0.00042450910859741009 0.033155620983537686 0 -0.00038208789028296213 0.033605771437149129 0 -0.00018565337019081722 0.03297891090345674 0 -0.00068130485415350149 0.034549061712348096 0 -0.0008110689627198849 0.034402426610297264 0 -0.00067332193183822892 0.034426244324103794 0 -0.0008110689627198849 0.034402426610297264 0 -0.00074105251546240742 0.034306103524850216 0 -0.00067332193183822892 0.034426244324103794 0 -0.0008110689627198849 0.034402426610297264 0 -0.00074105251546240742 0.034306103524850216 0 -0.00085000410305745993 0.034288644497651878 0 -0.00053900059546142321 0.034463511721983808 0 -0.00059506494183465515 0.034406951041663851 0 -0.00067332193183822892 0.034426244324103794 0 -0.00053900059546142321 0.034463511721983808 0 -0.00059506494183465515 0.034406951041663851 0 -0.00052765898520984922 0.034396994170037616 0 -0.00076331849574192876 0.03431182680932595 0 -0.00061925384960446269 0.034392056998254393 0 -0.00079928710830236825 0.034326295085910327 0 -0.00059506494183465515 0.034406951041663851 0 -0.00066427243661214513 0.034308738713145728 0 -0.00074105251546240742 0.034306103524850216 0 -0.00059506494183465515 0.034406951041663851 0 -0.00067332193183822892 0.034426244324103794 0 -0.00059506494183465515 0.034406951041663851 0 -0.00066427243661214513 0.034308738713145728 0 -0.00057537604777276312 0.034324280337321794 0 -0.00059506494183465515 0.034406951041663851 0 -0.00057537604777276312 0.034324280337321794 0 -0.00052765898520984922 0.034396994170037616 0 -0.00060565534372078553 0.03414015521887509 0 -0.00065638922945308778 0.034016037144811731 0 -0.00040954750392814115 0.03420610558870537 0 -0.00057537604777276312 0.034324280337321794 0 -0.00055303099030824181 0.034239964949649558 0 -0.00063544789970806416 0.034250034912524117 0 -0.00066427243661214513 0.034308738713145728 0 -0.00057537604777276312 0.034324280337321794 0 -0.00063544789970806416 0.034250034912524117 0 -0.00063544789970806416 0.034250034912524117 0 -0.00065825227285283322 0.034193774711204307 0 -0.00061361504178628361 0.034203703960381748 0 -0.00055303099030824181 0.034239964949649558 0 -0.00063544789970806416 0.034250034912524117 0 -0.00061361504178628361 0.034203703960381748 0 -0.00079928710830236825 0.034326295085910327 0 -0.00066427243661214513 0.034308738713145728 0 -0.00072473932825682999 0.034234046661088612 0 -0.00063544789970806416 0.034250034912524117 0 -0.00072473932825682999 0.034234046661088612 0 -0.00065825227285283322 0.034193774711204307 0 -0.00066427243661214513 0.034308738713145728 0 -0.00063544789970806416 0.034250034912524117 0 -0.00072473932825682999 0.034234046661088612 0 -0.00071105478496314768 0.034146319571557199 0 -0.00082968001870751661 0.034142514517473375 0 -0.00065652219590833121 0.034027791600897646 0 -0.00071105478496314768 0.034146319571557199 0 -0.00065825227285283322 0.034193774711204307 0 -0.00060565534372078553 0.03414015521887509 0 -0.00071105478496314768 0.034146319571557199 0 -0.00060565534372078553 0.03414015521887509 0 -0.00065652219590833121 0.034027791600897646 0 -0.00072473932825682999 0.034234046661088612 0 -0.00071105478496314768 0.034146319571557199 0 -0.00065825227285283322 0.034193774711204307 0 -0.00065825227285283322 0.034193774711204307 0 -0.00061361504178628361 0.034203703960381748 0 -0.00060565534372078553 0.03414015521887509 0 -0.00055303099030824181 0.034239964949649558 0 -0.00061361504178628361 0.034203703960381748 0 -0.00060565534372078553 0.03414015521887509 0 -0.00090862990025696716 0.034205406961924735 0 -0.00074105251546240742 0.034306103524850216 0 -0.00085000410305745993 0.034288644497651878 0 -0.0005525071113369126 0.033300489666382445 0 -0.00076331849574192876 0.03431182680932595 0 -0.00099052090509573268 0.034230968291689749 0 -0.00079928710830236825 0.034326295085910327 0 -0.00082968001870751661 0.034142514517473375 0 -0.00079928710830236825 0.034326295085910327 0 -0.00072473932825682999 0.034234046661088612 0 -0.00082968001870751661 0.034142514517473375 0 -0.00072473932825682999 0.034234046661088612 0 -0.00071105478496314768 0.034146319571557199 0 -0.00082968001870751661 0.034142514517473375 0 -0.00034776496365021727 0.033758908272206956 0 -0.0005107384771814254 0.033869903008505765 0 -0.0004094287389580647 0.033895412409539374 0 -0.0005525071113369126 0.033300489666382445 0 -0.00073514635484481661 0.034018436558784948 0 -0.00063639835743457666 0.033804451221868551 0 -0.00064569958651638105 0.034053426533880285 0 -0.0004094287389580647 0.033895412409539374 0 -0.00042310474149800475 0.033985378162661402 0 -0.00051373888784941727 0.033986380770892881 0 -0.00090576029737801905 0.033921737518822603 0 -0.00065355105832542396 0.034036835672418046 0 -0.00070160492238858694 0.033908086491392438 0 -0.00040356530832384046 0.034077215341259362 0 -0.00057705310762669478 0.034001729894660271 0 -0.00065638922945308778 0.034016037144811731 0 -0.0005107384771814254 0.033869903008505765 0 -0.0004094287389580647 0.033895412409539374 0 -0.00051373888784941727 0.033986380770892881 0 -0.00040356530832384046 0.034077215341259362 0 -0.00042310474149800475 0.033985378162661402 0 -0.00051373888784941727 0.033986380770892881 0 -0.00040356530832384046 0.034077215341259362 0 -0.00051373888784941727 0.033986380770892881 0 -0.00057705310762669478 0.034001729894660271 0 -0.00073514635484481661 0.034018436558784948 0 -0.00063882251301113297 0.034004411412275171 0 -0.0005107384771814254 0.033869903008505765 0 -0.00057705310762669478 0.034001729894660271 0 -0.00065652219590833121 0.034027791600897646 0 -0.0005107384771814254 0.033869903008505765 0 -0.00051373888784941727 0.033986380770892881 0 -0.00057705310762669478 0.034001729894660271 0 -0.00060565534372078553 0.03414015521887509 0 -0.00065638922945308778 0.034016037144811731 0 -0.00065652219590833121 0.034027791600897646 0 -0.00057705310762669478 0.034001729894660271 0 -0.00065638922945308778 0.034016037144811731 0 -0.00065652219590833121 0.034027791600897646 0 -0.00065355105832542396 0.034036835672418046 0 -0.00055992549983008115 0.033964028603555775 0 -0.00049680728632398355 0.034025138516200037 0 -0.00065355105832542396 0.034036835672418046 0 -0.00055992549983008115 0.033964028603555775 0 -0.00070160492238858694 0.033908086491392438 0 -0.00055241270127895218 0.033806878449243467 0 -0.00051699962987456546 0.03380202062030184 0 -0.00047642984892833778 0.033875374181292037 0 -0.00063926358140999973 0.033860568651430986 0 -0.00047922780169458391 0.033866590523017825 0 -0.00055992549983008115 0.033964028603555775 0 -0.00070160492238858694 0.033908086491392438 0 -0.00047642984892833778 0.033875374181292037 0 -0.00055241270127895218 0.033806878449243467 0 -0.00057220149853162033 0.033769012399087979 0 -0.0005416678019978232 0.033745726111113428 0 -0.00055241270127895218 0.033806878449243467 0 -0.00051699962987456546 0.03380202062030184 0 -0.0005416678019978232 0.033745726111113428 0 -0.00059023523774580681 0.03376977554007389 0 -0.00055241270127895218 0.033806878449243467 0 -0.00057220149853162033 0.033769012399087979 0 -0.00059023523774580681 0.03376977554007389 0 -0.00057220149853162033 0.033769012399087979 0 -0.00058986434065547925 0.033742695675876913 0 -0.00057220149853162033 0.033769012399087979 0 -0.00058986434065547925 0.033742695675876913 0 -0.0005416678019978232 0.033745726111113428 0 -0.00063639835743457666 0.033804451221868551 0 -0.00063926358140999973 0.033860568651430986 0 7.604992869941471e-05 0.033908282079929589 0 -0.00017270068795075249 0.034585928298403623 0 -0.00013931209427904846 0.034917504188375637 0 -7.7506430649332478e-05 0.034978115764140283 0 -7.2624517076971275e-05 0.034930294393748645 0 -0.00036705850689178768 0.033824347710338848 0 -0.00038095389904013884 0.033846322124294476 0 -0.00019570693396751094 0.034080418896342002 0 -0.00013931209427904846 0.034917504188375637 0 -7.2624517076971275e-05 0.034930294393748645 0 -0.00010832977361025122 0.034858097994165345 0 7.604992869941471e-05 0.033908282079929589 0 1.5105286617959669e-05 0.033129200916950062 0 -0.00037313601145203511 0.033824471969142608 0 -0.00046369201119573383 0.033804047901186879 0 -0.00042618305332704553 0.03384907418228187 0 7.604992869941471e-05 0.033908282079929589 0 4.2485017120503485e-05 0.033924507621992089 0 -0.00037313601145203511 0.033824471969142608 0 -0.00046369201119573383 0.033804047901186879 0 -0.00047285407750289552 0.033721492376621323 0 -0.00051699962987456546 0.03380202062030184 0 -0.00046369201119573383 0.033804047901186879 0 -0.00047285407750289552 0.033721492376621323 0 -0.00051699962987456546 0.03380202062030184 0 -0.00046369201119573383 0.033804047901186879 0 -0.00047642984892833778 0.033875374181292037 0 -0.00046369201119573383 0.033804047901186879 0 -0.00047642984892833778 0.033875374181292037 0 -0.00042618305332704553 0.03384907418228187 0 -0.00047642984892833778 0.033875374181292037 0 -0.00042654432575443927 0.033912752734693491 0 -0.00046674718716262123 0.033958231604172648 0 -0.00038095389904013884 0.033846322124294476 0 -0.00042654432575443927 0.033912752734693491 0 -0.00038325223537759122 0.034011856883162418 0 -0.00037313601145203511 0.033824471969142608 0 -0.00038095389904013884 0.033846322124294476 0 -0.00042618305332704553 0.03384907418228187 0 -0.00038095389904013884 0.033846322124294476 0 -0.00042618305332704553 0.03384907418228187 0 -0.00042654432575443927 0.033912752734693491 0 -0.00047642984892833778 0.033875374181292037 0 -0.00042618305332704553 0.03384907418228187 0 -0.00042654432575443927 0.033912752734693491 0 -0.00064569958651638105 0.034053426533880285 0 -0.00041482898346339287 0.034180730256738553 0 -0.00038325223537759122 0.034011856883162418 0 -0.00046674718716262123 0.033958231604172648 0 -0.00049680728632398355 0.034025138516200037 0 -0.00042654432575443927 0.033912752734693491 0 -0.00038325223537759122 0.034011856883162418 0 -0.00046674718716262123 0.033958231604172648 0 -0.00065355105832542396 0.034036835672418046 0 -0.00049680728632398355 0.034025138516200037 0 -0.00040361326544757406 0.034165352190004536 0 -0.00055992549983008115 0.033964028603555775 0 -0.00046674718716262123 0.033958231604172648 0 -0.00049680728632398355 0.034025138516200037 0 -0.00055992549983008115 0.033964028603555775 0 -0.00047642984892833778 0.033875374181292037 0 -0.00046674718716262123 0.033958231604172648 0 -0.00038325223537759122 0.034011856883162418 0 -0.00049680728632398355 0.034025138516200037 0 -0.00040361326544757406 0.034165352190004536 0 -0.00038325223537759122 0.034011856883162418 0 -0.00040361326544757406 0.034165352190004536 0 -0.00019570693396751094 0.034080418896342002 0 -0.00038095389904013884 0.033846322124294476 0 -0.00038325223537759122 0.034011856883162418 0 -0.00019570693396751094 0.034080418896342002 0 -0.00040361326544757406 0.034165352190004536 0 -0.00020495535088719088 0.034304267388747992 0 -0.00019570693396751094 0.034080418896342002 0 -0.00040954750392814115 0.03420610558870537 0 -0.0003588259243388372 0.034398862174426469 0 -0.00023645660798782511 0.034357764863610356 0 -0.00041482898346339287 0.034180730256738553 0 -0.0002182762430008685 0.03433617945802226 0 -0.00040954750392814115 0.03420610558870537 0 -0.00048431212896127876 0.034321939021548745 0 -0.0003588259243388372 0.034398862174426469 0 -0.00055303099030824181 0.034239964949649558 0 -0.00060565534372078553 0.03414015521887509 0 -0.00040954750392814115 0.03420610558870537 0 -0.00055303099030824181 0.034239964949649558 0 -0.00040954750392814115 0.03420610558870537 0 -0.00048431212896127876 0.034321939021548745 0 -0.00057537604777276312 0.034324280337321794 0 -0.00055303099030824181 0.034239964949649558 0 -0.00048431212896127876 0.034321939021548745 0 -0.00057537604777276312 0.034324280337321794 0 -0.00048431212896127876 0.034321939021548745 0 -0.00052765898520984922 0.034396994170037616 0 -0.00048431212896127876 0.034321939021548745 0 -0.00052765898520984922 0.034396994170037616 0 -0.00045086841581138407 0.03446154855438871 0 -0.00048431212896127876 0.034321939021548745 0 -0.00045086841581138407 0.03446154855438871 0 -0.0003588259243388372 0.034398862174426469 0 -0.00053900059546142321 0.034463511721983808 0 -0.00052765898520984922 0.034396994170037616 0 -0.00045086841581138407 0.03446154855438871 0 -0.0003588259243388372 0.034398862174426469 0 -0.00025903113821374173 0.034504933793443743 0 -0.00023645660798782511 0.034357764863610356 0 -0.00034127759373942223 0.034517946837745783 0 -0.00045086841581138407 0.03446154855438871 0 -0.0003588259243388372 0.034398862174426469 0 -0.00034127759373942223 0.034517946837745783 0 -0.0003588259243388372 0.034398862174426469 0 -0.00025903113821374173 0.034504933793443743 0 -0.00025903113821374173 0.034504933793443743 0 -0.00017692865713981565 0.034501000526706405 0 -0.00023645660798782511 0.034357764863610356 0 -0.00017692865713981565 0.034501000526706405 0 -7.1933408694878738e-05 0.034481798779137325 0 -0.00023645660798782511 0.034357764863610356 0 -7.1933408694878738e-05 0.034481798779137325 0 -8.2005851574676198e-05 0.034329219514607247 0 -0.00020495535088719088 0.034304267388747992 0 -7.1933408694878738e-05 0.034481798779137325 0 -8.2005851574676198e-05 0.034329219514607247 0 -6.266730440695132e-08 0.034593862742254067 0 -5.7277461728516038e-05 0.034653951220459007 0 -8.9479464145811336e-06 0.034800079331954746 0 -7.3473171419055172e-05 0.034463185256900883 0 -0.0002182762430008685 0.03433617945802226 0 -7.1933408694878738e-05 0.034481798779137325 0 -9.3459488473057739e-05 0.034645451812325326 0 -0.00013056371918144437 0.034553780503549729 0 -0.00017692865713981565 0.034501000526706405 0 -7.1933408694878738e-05 0.034481798779137325 0 -0.00013056371918144437 0.034553780503549729 0 -4.3809488646229613e-05 0.034993257291412311 0 -2.0254149449845982e-05 0.03498624589692461 0 -5.4129052950800011e-06 0.035000779501318288 0 -2.7152891263437507e-05 0.035003852641903983 0 -4.3809488646229613e-05 0.034993257291412311 0 -2.5278721978840323e-07 0.034997787263649917 0 -4.0206106033135134e-05 0.034993540367384272 0 -4.7526839449281029e-06 0.034999164763668475 0 -8.2005851574676198e-05 0.034329219514607247 0 -0.00020495535088719088 0.034304267388747992 0 -0.00019570693396751094 0.034080418896342002 0 -2.7152891263437507e-05 0.035003852641903983 0 -4.3809488646229613e-05 0.034993257291412311 0 -7.7506430649332478e-05 0.034978115764140283 0 -5.7277461728516038e-05 0.034653951220459007 0 -0.00017270068795075249 0.034585928298403623 0 -7.7506430649332478e-05 0.034978115764140283 0 -4.566619663048628e-05 0.034975330488537779 0 -7.2624517076971275e-05 0.034930294393748645 0 -4.3809488646229613e-05 0.034993257291412311 0 -7.7506430649332478e-05 0.034978115764140283 0 -4.566619663048628e-05 0.034975330488537779 0 -4.3809488646229613e-05 0.034993257291412311 0 -4.566619663048628e-05 0.034975330488537779 0 -2.0254149449845982e-05 0.03498624589692461 0 -4.566619663048628e-05 0.034975330488537779 0 -2.0254149449845982e-05 0.03498624589692461 0 -2.6417187321002837e-05 0.034960326616913978 0 -2.6417187321002837e-05 0.034960326616913978 0 -9.5486722811963264e-06 0.03492912029518782 0 -4.0237235972285963e-05 0.034882326992947348 0 -2.6417187321002837e-05 0.034960326616913978 0 -7.2624517076971275e-05 0.034930294393748645 0 -4.0237235972285963e-05 0.034882326992947348 0 -4.566619663048628e-05 0.034975330488537779 0 -2.6417187321002837e-05 0.034960326616913978 0 -7.2624517076971275e-05 0.034930294393748645 0 1.0926644294371336e-05 0.034973321600574953 0 1.8919454148647529e-06 0.034990800667671504 0 1.4773546421455186e-08 0.034999953634759273 0 1.0926644294371336e-05 0.034973321600574953 0 1.4773546421455186e-08 0.034999953634759273 0 -4.681504588444058e-09 0.034999989049833556 0 -2.6417187321002837e-05 0.034960326616913978 0 1.0926644294371336e-05 0.034973321600574953 0 -9.5486722811963264e-06 0.03492912029518782 0 -2.6417187321002837e-05 0.034960326616913978 0 1.0926644294371336e-05 0.034973321600574953 0 1.8919454148647529e-06 0.034990800667671504 0 -2.0254149449845982e-05 0.03498624589692461 0 -2.6417187321002837e-05 0.034960326616913978 0 1.8919454148647529e-06 0.034990800667671504 0 -2.0254149449845982e-05 0.03498624589692461 0 1.8919454148647529e-06 0.034990800667671504 0 -5.4129052950800011e-06 0.035000779501318288 0 1.8919454148647529e-06 0.034990800667671504 0 1.4773546421455186e-08 0.034999953634759273 0 -1.2241965602157192e-10 0.035000017549002144 0 1.1331245167631409e-09 0.035000000138858227 0 -4.7526839449281029e-06 0.034999164763668475 0 1.8919454148647529e-06 0.034990800667671504 0 -1.2241965602157192e-10 0.035000017549002144 0 -5.4129052950800011e-06 0.035000779501318288 0 -2.7152891263437507e-05 0.035003852641903983 0 -2.5278721978840323e-07 0.034997787263649917 0 5.8493258173069664e-06 0.035006946603186824 0 -7.1933408694878738e-05 0.034481798779137325 0 -6.266730440695132e-08 0.034593862742254067 0 -9.3459488473057739e-05 0.034645451812325326 0 7.4741408794012008e-09 0.035000102253257337 0 5.8493258173069664e-06 0.035006946603186824 0 5.4411893514635419e-09 0.034999814391643277 0 7.4741408794012008e-09 0.035000102253257337 0 -2.5278721978840323e-07 0.034997787263649917 0 5.8493258173069664e-06 0.035006946603186824 0 5.8493258173069664e-06 0.035006946603186824 0 5.4411893514635419e-09 0.034999814391643277 0 9.3126242732396289e-06 0.034958463363215259 0 -8.9479464145811336e-06 0.034800079331954746 0 8.4803010968373078e-06 0.034927602302869912 0 9.3126242732396289e-06 0.034958463363215259 0 -2.4547165771618374e-05 0.034871875681501227 0 -3.7499999558192924e-05 0.034787217345911878 0 9.3126242732396289e-06 0.034958463363215259 0 -2.4547165771618374e-05 0.034871875681501227 0 -3.0613171690553952e-09 0.034999726671581285 0 5.4411893514635419e-09 0.034999814391643277 0 9.3126242732396289e-06 0.034958463363215259 0 -3.0613171690553952e-09 0.034999726671581285 0 -2.4547165771618374e-05 0.034871875681501227 0 -9.0954043833901105e-05 0.034730701259285811 0 -3.7499999558192924e-05 0.034787217345911878 0 -9.0954043833901105e-05 0.034730701259285811 0 -3.7499999558192924e-05 0.034787217345911878 0 -8.7380618674775425e-05 0.034725525026206738 0 -6.266730440695132e-08 0.034593862742254067 0 -3.7499999558192924e-05 0.034787217345911878 0 -9.3459488473057739e-05 0.034645451812325326 0 -6.266730440695132e-08 0.034593862742254067 0 9.3126242732396289e-06 0.034958463363215259 0 -3.7499999558192924e-05 0.034787217345911878 0 -3.7499999558192924e-05 0.034787217345911878 0 -9.3459488473057739e-05 0.034645451812325326 0 -8.7380618674775425e-05 0.034725525026206738 0 -9.3459488473057739e-05 0.034645451812325326 0 -0.00013056371918144437 0.034553780503549729 0 -0.00018552980712770306 0.034592331370727113 0 -9.3459488473057739e-05 0.034645451812325326 0 -0.00018552980712770306 0.034592331370727113 0 -0.00014333406446863001 0.034690563710283638 0 -9.3459488473057739e-05 0.034645451812325326 0 -8.7380618674775425e-05 0.034725525026206738 0 -0.00014333406446863001 0.034690563710283638 0 -0.00018552980712770306 0.034592331370727113 0 -0.00027220122173947413 0.034631890216272145 0 -0.00014333406446863001 0.034690563710283638 0 -0.00025903113821374173 0.034504933793443743 0 -0.00018552980712770306 0.034592331370727113 0 -0.00027220122173947413 0.034631890216272145 0 -0.00025903113821374173 0.034504933793443743 0 -0.00017692865713981565 0.034501000526706405 0 -0.00018552980712770306 0.034592331370727113 0 -0.00017692865713981565 0.034501000526706405 0 -0.00013056371918144437 0.034553780503549729 0 -0.00018552980712770306 0.034592331370727113 0 -0.00027220122173947413 0.034631890216272145 0 -0.00020106737315431908 0.034738099307570179 0 -0.00014333406446863001 0.034690563710283638 0 -9.0954043833901105e-05 0.034730701259285811 0 -0.00020106737315431908 0.034738099307570179 0 -0.00014333406446863001 0.034690563710283638 0 -0.00012620266427838971 0.034694748737917704 0 -0.00030488188429418259 0.034588834910266583 0 -9.0954043833901105e-05 0.034730701259285811 0 -8.7380618674775425e-05 0.034725525026206738 0 -0.00014333406446863001 0.034690563710283638 0 -9.0954043833901105e-05 0.034730701259285811 0 -0.00040912952903217185 0.03440865130534191 0 -0.00030975653704825532 0.034543838442987945 0 -9.0954043833901105e-05 0.034730701259285811 0 -0.00030975653704825532 0.034543838442987945 0 -0.0001856081829072583 0.034726423141265159 0 -0.00040912952903217185 0.03440865130534191 0 -0.00030975653704825532 0.034543838442987945 0 -0.00048315660306779849 0.034330837490604726 0 -0.00030975653704825532 0.034543838442987945 0 -0.00032692801310988637 0.034641558340715681 0 -0.0001856081829072583 0.034726423141265159 0 -0.00030975653704825532 0.034543838442987945 0 -0.00048315660306779849 0.034330837490604726 0 -0.00032692801310988637 0.034641558340715681 0 -0.00080730875172665018 0.033358344864785498 0 -0.00048315660306779849 0.034330837490604726 0 -0.00065012579976934395 0.033453464077641271 0 -0.00036202023328557164 0.034888293504876024 0 -0.00048315660306779849 0.034330837490604726 0 -0.00032692801310988637 0.034641558340715681 0 -0.00056630874450942206 0.034116188048379369 0 -0.000505960038454373 0.034304368176675433 0 -0.00032692801310988637 0.034641558340715681 0 -0.00027956902457678453 0.034795759259285866 0 -0.0001856081829072583 0.034726423141265159 0 -0.000257325978366728 0.034909579632966536 0 -0.00027956902457678453 0.034795759259285866 0 -0.00020351400176779039 0.034846955398464302 0 -0.00036202023328557164 0.034888293504876024 0 -0.00032692801310988637 0.034641558340715681 0 -0.00027956902457678453 0.034795759259285866 0 -0.0001856081829072583 0.034726423141265159 0 -0.00011779034150761338 0.034862734708303068 0 -4.6349021798511231e-05 0.034878582436260033 0 -0.00027956902457678453 0.034795759259285866 0 -0.0001856081829072583 0.034726423141265159 0 -0.00020351400176779039 0.034846955398464302 0 -0.0001856081829072583 0.034726423141265159 0 -0.00020351400176779039 0.034846955398464302 0 -0.00011779034150761338 0.034862734708303068 0 -8.4876502834029167e-05 0.034946576486023215 0 -0.00011779034150761338 0.034862734708303068 0 -4.6349021798511231e-05 0.034878582436260033 0 -1.1939417791478739e-09 0.034999943105600083 0 -4.6349021798511231e-05 0.034878582436260033 0 -3.0613171690553952e-09 0.034999726671581285 0 -2.4547165771618374e-05 0.034871875681501227 0 -4.6349021798511231e-05 0.034878582436260033 0 -3.0613171690553952e-09 0.034999726671581285 0 -2.4547165771618374e-05 0.034871875681501227 0 -9.0954043833901105e-05 0.034730701259285811 0 -4.6349021798511231e-05 0.034878582436260033 0 -9.0954043833901105e-05 0.034730701259285811 0 -0.0001856081829072583 0.034726423141265159 0 -4.6349021798511231e-05 0.034878582436260033 0 -7.4728169225456897e-05 0.034542687870391144 0 1.9712530791108912e-05 0.034118472291960557 0 3.4680326410652332e-06 0.0349978411633061 0 1.4582073648141495e-05 0.034983961951706728 0 3.0642198790139121e-06 0.034992521479824991 0 -0.00028821560566836077 0.034248589436763163 0 0.00017660350924364468 0.033871452868647511 0 0.00015033914887998948 0.032831668358578384 0 3.4680326410652332e-06 0.0349978411633061 0 1.3586615306404718e-09 0.034999991379920818 0 8.6015505741546288e-10 0.0350000030741053 0 3.4680326410652332e-06 0.0349978411633061 0 1.3586615306404718e-09 0.034999991379920818 0 3.0642198790139121e-06 0.034992521479824991 0 -7.4728169225456897e-05 0.034542687870391144 0 -5.7264683212023231e-08 0.034999852246789497 0 -0.00028821560566836077 0.034248589436763163 0 -7.4074782695675676e-07 0.034999469026098337 0 -7.650679598941776e-05 0.034807273230214798 0 -0.00028821560566836077 0.034248589436763163 0 0.00034490640805478605 0.03459267619202009 0 -7.650679598941776e-05 0.034807273230214798 0 -0.00028821560566836077 0.034248589436763163 0 0.00034490640805478605 0.03459267619202009 0 0.00017660350924364468 0.033871452868647511 0 -0.00015537334128602634 0.031195921380736701 0 0.00068738348824004764 0.031231542966533268 0 0.00051943428439363867 0.030663022801730083 0 0.00068738348824004764 0.031231542966533268 0 0.00051943428439363867 0.030663022801730083 0 0.00069265188166633799 0.030189405111707684 0 0.00051943428439363867 0.030663022801730083 0 0.00059424086343959142 0.030453538754020397 0 0.00069265188166633799 0.030189405111707684 0 0.00051943428439363867 0.030663022801730083 0 0.00059424086343959142 0.030453538754020397 0 0.00056412842775305358 0.030435059216976607 0 0.00059424086343959142 0.030453538754020397 0 0.00053542607071557671 0.030853279082324606 0 0.00069265188166633799 0.030189405111707684 0 0.00011581789333659297 0.032890470137054748 0 0.000659034644672349 0.031949588113670338 0 0.00034490640805478605 0.03459267619202009 0 0.00017660350924364468 0.033871452868647511 0 0.0008410036024813994 0.033374685134804689 0 -0.00015537334128602634 0.031195921380736701 0 0.00051943428439363867 0.030663022801730083 0 0.00056412842775305358 0.030435059216976607 0 0.00017660350924364468 0.033871452868647511 0 0.0008410036024813994 0.033374685134804689 0 0.00015033914887998948 0.032831668358578384 0 0.0008410036024813994 0.033374685134804689 0 0.00015033914887998948 0.032831668358578384 0 0.00091272193088972405 0.031353654741263032 0 1.9712530791108912e-05 0.034118472291960557 0 0.00059811329551315599 0.03176199040801627 0 0.00056412842775305358 0.030435059216976607 0 0.00053542607071557671 0.030853279082324606 0 0.00091272193088972405 0.031353654741263032 0 0.000659034644672349 0.031949588113670338 0 0.00087939057846775858 0.03145208154014114 0 0.00035411434241526909 0.029748494813412536 0 0.00068038541054740807 0.03029756407810532 0 0.00059424086343959142 0.030453538754020397 0 0.00056412842775305358 0.030435059216976607 0 0.00053542607071557671 0.030853279082324606 0 0.00035411434241526909 0.029748494813412536 0 0.00059811329551315599 0.03176199040801627 0 0.00031788428623399017 0.029123548679558367 0 8.9985211966891372e-05 0.028428325538203219 0 0.00091274828503922357 0.028558077236509296 0 0.00053542607071557671 0.030853279082324606 0 0.00095681214112679257 0.031332788166863218 0 0.00091272193088972405 0.031353654741263032 0 0.00059811329551315599 0.03176199040801627 0 0.00090381028613101505 0.029636914610099985 0 1.4582073648141495e-05 0.034983961951706728 0 3.6999729690263917e-05 0.034955817966001362 0 1.0689681600966923e-05 0.034963140903687323 0 0.00015033914887998948 0.032831668358578384 0 0.00095681214112679257 0.031332788166863218 0 0.00091272193088972405 0.031353654741263032 0 1.4582073648141495e-05 0.034983961951706728 0 1.0689681600966923e-05 0.034963140903687323 0 4.8135127829860206e-06 0.034985432512021936 0 1.0689681600966923e-05 0.034963140903687323 0 4.8135127829860206e-06 0.034985432512021936 0 5.6037635677503502e-06 0.034987468290808163 0 1.4582073648141495e-05 0.034983961951706728 0 4.8135127829860206e-06 0.034985432512021936 0 3.0642198790139121e-06 0.034992521479824991 0 1.3586615306404718e-09 0.034999991379920818 0 3.0642198790139121e-06 0.034992521479824991 0 1.5625336608436826e-09 0.034999974302237606 0 4.8135127829860206e-06 0.034985432512021936 0 1.5625336608436826e-09 0.034999974302237606 0 5.6037635677503502e-06 0.034987468290808163 0 4.8135127829860206e-06 0.034985432512021936 0 3.0642198790139121e-06 0.034992521479824991 0 1.5625336608436826e-09 0.034999974302237606 0 5.6037635677503502e-06 0.034987468290808163 0 7.7827749790181632e-06 0.034986545398138433 0 1.1601893948568976e-08 0.034999990456595027 0 1.5625336608436826e-09 0.034999974302237606 0 5.6037635677503502e-06 0.034987468290808163 0 1.1601893948568976e-08 0.034999990456595027 0 1.0689681600966923e-05 0.034963140903687323 0 5.6037635677503502e-06 0.034987468290808163 0 7.7827749790181632e-06 0.034986545398138433 0 7.7827749790181632e-06 0.034986545398138433 0 5.8454813006176578e-06 0.034995794121821688 0 4.9177705339267043e-06 0.034992294964186585 0 7.7827749790181632e-06 0.034986545398138433 0 1.1601893948568976e-08 0.034999990456595027 0 5.8454813006176578e-06 0.034995794121821688 0 5.8454813006176578e-06 0.034995794121821688 0 1.0704901912526188e-05 0.034993441745124872 0 -4.681504588444058e-09 0.034999989049833556 0 1.1601893948568976e-08 0.034999990456595027 0 5.8454813006176578e-06 0.034995794121821688 0 -4.681504588444058e-09 0.034999989049833556 0 5.8454813006176578e-06 0.034995794121821688 0 1.0704901912526188e-05 0.034993441745124872 0 4.9177705339267043e-06 0.034992294964186585 0 5.8960303732114846e-06 0.034911478292683776 0 1.837093545357605e-05 0.034998647776245909 0 1.6608458677393075e-05 0.034972451547768027 0 5.8960303732114846e-06 0.034911478292683776 0 1.0926644294371336e-05 0.034973321600574953 0 2.1611569902168131e-05 0.034873947076159609 0 -9.5486722811963264e-06 0.03492912029518782 0 1.0926644294371336e-05 0.034973321600574953 0 1.0704901912526188e-05 0.034993441745124872 0 -4.681504588444058e-09 0.034999989049833556 0 -7.2624517076971275e-05 0.034930294393748645 0 -4.0237235972285963e-05 0.034882326992947348 0 -0.00010832977361025122 0.034858097994165345 0 2.1611569902168131e-05 0.034873947076159609 0 -9.5486722811963264e-06 0.03492912029518782 0 -4.0237235972285963e-05 0.034882326992947348 0 -4.0237235972285963e-05 0.034882326992947348 0 -7.6260033256908422e-05 0.034780829404187065 0 4.9203657080237161e-06 0.034784359474551579 0 2.1611569902168131e-05 0.034873947076159609 0 -4.0237235972285963e-05 0.034882326992947348 0 4.9203657080237161e-06 0.034784359474551579 0 -4.0237235972285963e-05 0.034882326992947348 0 -7.6260033256908422e-05 0.034780829404187065 0 -0.00010832977361025122 0.034858097994165345 0 0.00048070586832455283 0.03327268363128999 0 0.0003561036266742293 0.033580373570969484 0 0.0009216713571449848 0.03203275060387497 0 0.00085178528118419114 0.031942563243261717 0 0.00097476312233234989 0.031902601732517778 0 0.0009216713571449848 0.03203275060387497 0 0.00085178528118419114 0.031942563243261717 0 0.00079577919432145469 0.03201194625688928 0 0.00048070586832455283 0.03327268363128999 0 0.00031068893935990159 0.034084443501328547 0 1.837093545357605e-05 0.034998647776245909 0 0.00031068893935990159 0.034084443501328547 0 7.7827749790181632e-06 0.034986545398138433 0 4.9177705339267043e-06 0.034992294964186585 0 3.6949001674134337e-07 0.034975581859358534 0 -7.6260033256908422e-05 0.034780829404187065 0 4.9203657080237161e-06 0.034784359474551579 0 -2.6502590483495705e-05 0.034688379218561979 0 1.0689681600966923e-05 0.034963140903687323 0 7.7827749790181632e-06 0.034986545398138433 0 3.6949001674134337e-07 0.034975581859358534 0 3.6999729690263917e-05 0.034955817966001362 0 1.0689681600966923e-05 0.034963140903687323 0 2.5750918774537254e-05 0.034929947801440854 0 -0.00013145849112371387 0.035120609702594958 0 0.00031068893935990159 0.034084443501328547 0 0.00059811329551315599 0.03176199040801627 0 0.00031068893935990159 0.034084443501328547 0 0.00085178528118419114 0.031942563243261717 0 0.00097476312233234989 0.031902601732517778 0 0.00081760833530816095 0.031860582816857705 0 0.00091365392502402835 0.031766591334136993 0 0.00097476312233234989 0.031902601732517778 0 0.00081760833530816095 0.031860582816857705 0 0.00090381028613101505 0.029636914610099985 0 0.0011495293116119212 0.029550584261206759 0 0.00085181359755939399 0.027796572158314051 0 0.0014450538757904605 0.027341137737727492 0 0.001581950442981655 0.028145661094047869 0 0.0014450538757904605 0.027341137737727492 0 0.0018785055929738212 0.027695372988591781 0 0.001581950442981655 0.028145661094047869 0 0.0011495293116119212 0.029550584261206759 0 0.0010668437511682383 0.030299809381044415 0 0.00085178528118419114 0.031942563243261717 0 0.00073660790219071365 0.031954085952626186 0 0.00079577919432145469 0.03201194625688928 0 0.00085178528118419114 0.031942563243261717 0 0.00081760833530816095 0.031860582816857705 0 0.00073660790219071365 0.031954085952626186 0 0.00073660790219071365 0.031954085952626186 0 0.00079577919432145469 0.03201194625688928 0 0.00074333231696358611 0.031973776569605303 0 0.0009216713571449848 0.03203275060387497 0 0.00071451020784482578 0.032161203991402806 0 0.00080288767249066283 0.032311276437666112 0 0.0009216713571449848 0.03203275060387497 0 0.00079577919432145469 0.03201194625688928 0 0.00071451020784482578 0.032161203991402806 0 0.00079577919432145469 0.03201194625688928 0 0.00071451020784482578 0.032161203991402806 0 0.00055852462263977743 0.032063944048351563 0 0.00082459591963031137 0.031989833284261471 0 0.00049274100890332913 0.032025726452339004 0 0.00049274100890332913 0.032025726452339004 0 0.0010668437511682383 0.030299809381044415 0 0.00055852462263977743 0.032063944048351563 0 0.00047206439033367588 0.032232645862451982 0 0.00031476056029463098 0.032123411911485864 0 0.00073660790219071365 0.031954085952626186 0 0.00074333231696358611 0.031973776569605303 0 0.00074331976095539602 0.031959372072412076 0 0.00071451020784482578 0.032161203991402806 0 0.00047206439033367588 0.032232645862451982 0 0.00060776460018852107 0.032350216761707629 0 0.00071451020784482578 0.032161203991402806 0 0.00055852462263977743 0.032063944048351563 0 0.00047206439033367588 0.032232645862451982 0 0.00062377713933425502 0.032634983470088606 0 0.00060776460018852107 0.032350216761707629 0 0.00042196138287013517 0.032422198962717676 0 0.00047206439033367588 0.032232645862451982 0 0.00060776460018852107 0.032350216761707629 0 0.00042196138287013517 0.032422198962717676 0 7.604992869941471e-05 0.033908282079929589 0 0.0003561036266742293 0.033580373570969484 0 0.00062377713933425502 0.032634983470088606 0 0.00060776460018852107 0.032350216761707629 0 0.00080288767249066283 0.032311276437666112 0 0.00071451020784482578 0.032161203991402806 0 0.00060776460018852107 0.032350216761707629 0 0.00080288767249066283 0.032311276437666112 0 -0.0002250210655260365 0.03185034329137372 0 0.00031327894470967811 0.031272367465457654 0 -0.00058986434065547925 0.033742695675876913 0 -0.0005416678019978232 0.033745726111113428 0 -0.00052948329334938317 0.033651057797244033 0 0.00030986426954498131 0.029821192285465425 0 0.00026391540235344059 0.029876611293982013 0 0.00027396805945012248 0.029883118796250698 0 0.00030986426954498131 0.029821192285465425 0 0.00027396805945012248 0.029883118796250698 0 0.00035213607149551119 0.029845450079060618 0 -0.00047285407750289552 0.033721492376621323 0 -0.0005416678019978232 0.033745726111113428 0 -0.00052948329334938317 0.033651057797244033 0 0.00047206439033367588 0.032232645862451982 0 0.00042196138287013517 0.032422198962717676 0 0.00022492139873289674 0.032212816953811625 0 -0.00051699962987456546 0.03380202062030184 0 -0.00047285407750289552 0.033721492376621323 0 -0.0005416678019978232 0.033745726111113428 0 1.5105286617959669e-05 0.033129200916950062 0 0.00031327894470967811 0.031272367465457654 0 0.0021464533727120782 0.02689082025268907 0 0.001897907771863072 0.026953241683655555 0 0.0021137535150248985 0.027316371457009776 0 0.00071992379296620726 0.030042820965387757 0 0.00074201382524654376 0.030062840824869295 0 0.00068351642192361953 0.030079962676668286 0 0.00047206439033367588 0.032232645862451982 0 0.00022492139873289674 0.032212816953811625 0 0.00031476056029463098 0.032123411911485864 0 0.00081221811848174901 0.029405810751330291 0 0.0010668437511682383 0.030299809381044415 0 0.00031327894470967811 0.031272367465457654 0 0.00081221811848174901 0.029405810751330291 0 0.00031327894470967811 0.031272367465457654 0 0.0010668437511682383 0.030299809381044415 0 0.00081221811848174901 0.029405810751330291 0 0.00070653534767777925 0.027841839043028019 0 0.00081221811848174901 0.029405810751330291 0 0.0014533160996288597 0.027370706289141445 0 0.0011333849289591864 0.028227621241942662 0 0.00099094799893718302 0.028078147775313256 0 0.00087320550811347724 0.028292013800351606 0 0.0025731928771212261 0.02729650642959737 0 0.0021137535150248985 0.027316371457009776 0 0.002344449106444658 0.027760868906990765 0 0.0021464533727120782 0.02689082025268907 0 0.0025731928771212261 0.02729650642959737 0 0.0021137535150248985 0.027316371457009776 0 0.0014533160996288597 0.027370706289141445 0 0.0021931421319933502 0.02791972344858765 0 0.0014450538757904605 0.027341137737727492 0 0.001897907771863072 0.026953241683655555 0 0.0021137535150248985 0.027316371457009776 0 0.0014450538757904605 0.027341137737727492 0 0.0021137535150248985 0.027316371457009776 0 0.0018785055929738212 0.027695372988591781 0 0.0018785055929738212 0.027695372988591781 0 0.002344449106444658 0.027760868906990765 0 0.002137427475426665 0.028231255296688393 0 0.0021137535150248985 0.027316371457009776 0 0.0018785055929738212 0.027695372988591781 0 0.002344449106444658 0.027760868906990765 0 0.0021931421319933502 0.02791972344858765 0 0.0021223737477730994 0.028166683771240344 0 0.0019749878581518353 0.028024895368923677 0 0.002137427475426665 0.028231255296688393 0 0.0019661410446118817 0.028153374890349653 0 0.002590443962991159 0.028478717546070315 0 0.0017067914951582866 0.027809292116603407 0 0.0019661410446118817 0.028153374890349653 0 0.002590443962991159 0.028478717546070315 0 0.002137427475426665 0.028231255296688393 0 0.0019661410446118817 0.028153374890349653 0 0.002590443962991159 0.028478717546070315 0 0.0020490564833293436 0.028644726739423431 0 0.0017276083641391635 0.029926482717153539 0 0.002590443962991159 0.028478717546070315 0 0.0020490564833293436 0.028644726739423431 0 0.002137427475426665 0.028231255296688393 0 0.0020490564833293436 0.028644726739423431 0 0.002137427475426665 0.028231255296688393 0 0.001581950442981655 0.028145661094047869 0 0.0018785055929738212 0.027695372988591781 0 0.002137427475426665 0.028231255296688393 0 0.001581950442981655 0.028145661094047869 0 0.0020490564833293436 0.028644726739423431 0 0.001581950442981655 0.028145661094047869 0 0.0015046451216072427 0.028841750212042726 0 0.001581950442981655 0.028145661094047869 0 0.00091274828503922357 0.028558077236509296 0 0.0015046451216072427 0.028841750212042726 0 8.9985211966891372e-05 0.028428325538203219 0 0.00085181359755939399 0.027796572158314051 0 0.00091274828503922357 0.028558077236509296 0 0.00085181359755939399 0.027796572158314051 0 0.001581950442981655 0.028145661094047869 0 0.00091274828503922357 0.028558077236509296 0 0.00031788428623399017 0.029123548679558367 0 0.00091274828503922357 0.028558077236509296 0 0.0010284513376958603 0.029302239656068145 0 0.00091274828503922357 0.028558077236509296 0 0.0010284513376958603 0.029302239656068145 0 0.0015046451216072427 0.028841750212042726 0 0.00031788428623399017 0.029123548679558367 0 0.0010284513376958603 0.029302239656068145 0 0.00069265188166633799 0.030189405111707684 0 0.0010284513376958603 0.029302239656068145 0 0.0015046451216072427 0.028841750212042726 0 0.0017276083641391635 0.029926482717153539 0 0.0020490564833293436 0.028644726739423431 0 0.0015046451216072427 0.028841750212042726 0 0.0017276083641391635 0.029926482717153539 0 0.0017276083641391635 0.029926482717153539 0 0.00069265188166633799 0.030189405111707684 0 0.0011108753901764151 0.030723696832841017 0 0.0010284513376958603 0.029302239656068145 0 0.0017276083641391635 0.029926482717153539 0 0.00069265188166633799 0.030189405111707684 0 0.00068738348824004764 0.031231542966533268 0 0.0011108753901764151 0.030723696832841017 0 0.0014775286436558472 0.031527807806992589 0 0.00068738348824004764 0.031231542966533268 0 0.00069265188166633799 0.030189405111707684 0 0.0011108753901764151 0.030723696832841017 0 0.0017276083641391635 0.029926482717153539 0 0.0029270543303273385 0.030919189002358384 0 0.0014775286436558472 0.031527807806992589 0 0.0017276083641391635 0.029926482717153539 0 0.0011108753901764151 0.030723696832841017 0 0.0014775286436558472 0.031527807806992589 0 0.002672789172851442 0.028530773172122732 0 0.0029779140038011611 0.028856462528745425 0 0.002590443962991159 0.028478717546070315 0 0.0031434876733801324 0.026815561600633569 0 0.0017067914951582866 0.027809292116603407 0 0.002590443962991159 0.028478717546070315 0 0.0017276083641391635 0.029926482717153539 0 0.0029270543303273385 0.030919189002358384 0 0.0017067914951582866 0.027809292116603407 0 0.00096073429918783443 0.027556687412220914 0 0.0016121844534541896 0.02801011299205964 0 0.0017067914951582866 0.027809292116603407 0 0.0011692143052467788 0.026837555872805861 0 0.00096073429918783443 0.027556687412220914 0 0.0017067914951582866 0.027809292116603407 0 0.0017930794667306907 0.026643093115733527 0 0.0011692143052467788 0.026837555872805861 0 0.0031434876733801324 0.026815561600633569 0 0.0017067914951582866 0.027809292116603407 0 0.0017930794667306907 0.026643093115733527 0 0.0011692143052467788 0.026837555872805861 0 0.00096073429918783443 0.027556687412220914 0 0.00044293938830147083 0.025955038743342883 0 0.0017788366271729622 0.02418985414932354 0 0.0014268522260234902 0.02446199899918625 0 0.0020778917384256415 0.024526632566366457 0 0.0017788366271729622 0.02418985414932354 0 0.0020778917384256415 0.024526632566366457 0 0.0020680353183924216 0.023729046175850733 0 0.0015279908436264555 0.025993660311432635 0 0.0012605201795773129 0.024892362392514716 0 0.0010091169101761775 0.022740041345169389 0 0.0013198600474400813 0.02337161193940435 0 0.001241993628304505 0.02240729691114355 0 0.0017788366271729622 0.02418985414932354 0 0.0014268522260234902 0.02446199899918625 0 0.0017494511436398918 0.023765438318387139 0 0.0010091169101761775 0.022740041345169389 0 0.0013198600474400813 0.02337161193940435 0 0.00083349412793987305 0.022940976103599683 0 0.0013494568079449405 0.02396117367488617 0 0.0014987605107579462 0.023091588932874964 0 0.0014268522260234902 0.02446199899918625 0 0.0020778917384256415 0.024526632566366457 0 0.0016186307559046178 0.025011475148937326 0 0.0020778917384256415 0.024526632566366457 0 0.0016186307559046178 0.025011475148937326 0 0.0020924235167467178 0.025542447129294807 0 0.0015279908436264555 0.025993660311432635 0 0.0018084876832596577 0.026721063594300275 0 0.0016186307559046178 0.025011475148937326 0 0.0014943161189230852 0.025626109897881708 0 0.0020924235167467178 0.025542447129294807 0 0.0014268522260234902 0.02446199899918625 0 0.0016186307559046178 0.025011475148937326 0 0.0010031854542148573 0.025116121898761574 0 0.0016186307559046178 0.025011475148937326 0 0.0014943161189230852 0.025626109897881708 0 0.0010031854542148573 0.025116121898761574 0 0.0014943161189230852 0.025626109897881708 0 0.0020924235167467178 0.025542447129294807 0 0.0014732655333367355 0.026332775068897026 0 0.0014943161189230852 0.025626109897881708 0 0.0014732655333367355 0.026332775068897026 0 0.0011379960533281685 0.026074394846748655 0 0.0015900703585399914 0.027962489540208853 0 0.0016121844534541896 0.02801011299205964 0 0.0014582976477096642 0.02765414048138241 0 0.00096073429918783443 0.027556687412220914 0 0.0015900703585399914 0.027962489540208853 0 0.0016121844534541896 0.02801011299205964 0 0.0017067914951582866 0.027809292116603407 0 0.0016121844534541896 0.02801011299205964 0 0.0019661410446118817 0.028153374890349653 0 0.0016121844534541896 0.02801011299205964 0 0.0019661410446118817 0.028153374890349653 0 0.0014582976477096642 0.02765414048138241 0 0.0018055986261491773 0.028241909071455733 0 0.0019749878581518353 0.028024895368923677 0 0.0014582976477096642 0.02765414048138241 0 0.0019749878581518353 0.028024895368923677 0 0.0019661410446118817 0.028153374890349653 0 0.0014582976477096642 0.02765414048138241 0 0.0015900703585399914 0.027962489540208853 0 0.0014582976477096642 0.02765414048138241 0 0.0017724433565944923 0.026757357096411537 0 0.0014582976477096642 0.02765414048138241 0 0.0015479811629920668 0.026710909283303563 0 0.0017724433565944923 0.026757357096411537 0 0.0014582976477096642 0.02765414048138241 0 0.0015479811629920668 0.026710909283303563 0 0.0011990508427115469 0.02666266070727941 0 0.00064752971067950677 0.026839636731471328 0 0.0014582976477096642 0.02765414048138241 0 0.0011990508427115469 0.02666266070727941 0 0.0014533160996288597 0.027370706289141445 0 0.0013893092284377477 0.027699082621134557 0 0.0011990508427115469 0.02666266070727941 0 0.0012883053529073899 0.026415788433263202 0 0.0011007200162165545 0.026236768838192214 0 0.0014533160996288597 0.027370706289141445 0 0.00070653534767777925 0.027841839043028019 0 0.00064752971067950677 0.026839636731471328 0 0.0011990508427115469 0.02666266070727941 0 0.0011007200162165545 0.026236768838192214 0 0.0015479811629920668 0.026710909283303563 0 0.0011990508427115469 0.02666266070727941 0 0.0012883053529073899 0.026415788433263202 0 0.0015479811629920668 0.026710909283303563 0 0.0014429167935128555 0.026417642858038527 0 0.0012883053529073899 0.026415788433263202 0 0.0012883053529073899 0.026415788433263202 0 0.0013038629629616813 0.026260770372282551 0 0.0011007200162165545 0.026236768838192214 0 0.0014429167935128555 0.026417642858038527 0 0.0012883053529073899 0.026415788433263202 0 0.0013038629629616813 0.026260770372282551 0 0.00084687014512909613 0.027713633680093781 0 0.00070653534767777925 0.027841839043028019 0 0.0014429167935128555 0.026417642858038527 0 0.0013384301587405028 0.026207629157614525 0 0.0014245430743380857 0.026293990548450354 0 0.0014429167935128555 0.026417642858038527 0 0.0013038629629616813 0.026260770372282551 0 0.0013600688119569776 0.026213187016887112 0 0.0013395626982395025 0.026114938534004487 0 0.0013038629629616813 0.026260770372282551 0 0.0013600688119569776 0.026213187016887112 0 0.0013395626982395025 0.026114938534004487 0 0.0013038629629616813 0.026260770372282551 0 0.001233851980196823 0.026284953519448151 0 0.0014293643449813382 0.026474599988886627 0 0.0013222261826790315 0.02596434466168358 0 0.0013632832632443847 0.026166550263345051 0 0.0013384301587405028 0.026207629157614525 0 0.0013980590674175378 0.026188456250293941 0 0.0014830144977073189 0.026752449854733913 0 0.00070653534767777925 0.027841839043028019 0 0.0013361065146175698 0.02607247921605306 0 0.0014068247899172144 0.026213941323498687 0 0.0013975120461224536 0.026156190471423226 0 0.0014068247899172144 0.026213941323498687 0 0.0013975120461224536 0.026156190471423226 0 0.0014490833771878561 0.026257546049043567 0 0.0013975120461224536 0.026156190471423226 0 0.0013980590674175378 0.026188456250293941 0 0.0014490833771878561 0.026257546049043567 0 0.0013384301587405028 0.026207629157614525 0 0.0013980590674175378 0.026188456250293941 0 0.0014245430743380857 0.026293990548450354 0 0.0013980590674175378 0.026188456250293941 0 0.0014245430743380857 0.026293990548450354 0 0.0014490833771878561 0.026257546049043567 0 0.0014245430743380857 0.026293990548450354 0 0.0014490833771878561 0.026257546049043567 0 0.0015819953259310698 0.026495397723456708 0 0.0015479811629920668 0.026710909283303563 0 0.0014429167935128555 0.026417642858038527 0 0.0015819953259310698 0.026495397723456708 0 0.0014429167935128555 0.026417642858038527 0 0.0014245430743380857 0.026293990548450354 0 0.0015819953259310698 0.026495397723456708 0 0.0014068247899172144 0.026213941323498687 0 0.0014490833771878561 0.026257546049043567 0 0.0015819953259310698 0.026495397723456708 0 0.0014068247899172144 0.026213941323498687 0 0.0015819953259310698 0.026495397723456708 0 0.0013542046453308961 0.026274757323174438 0 0.0015819953259310698 0.026495397723456708 0 0.0014732655333367355 0.026332775068897026 0 0.0013542046453308961 0.026274757323174438 0 0.0015819953259310698 0.026495397723456708 0 0.0017724433565944923 0.026757357096411537 0 0.0014732655333367355 0.026332775068897026 0 0.0015479811629920668 0.026710909283303563 0 0.0015819953259310698 0.026495397723456708 0 0.0017724433565944923 0.026757357096411537 0 0.0018084876832596577 0.026721063594300275 0 0.001792561688971357 0.026748893533317556 0 0.0020924235167467178 0.025542447129294807 0 0.0017724433565944923 0.026757357096411537 0 0.0014732655333367355 0.026332775068897026 0 0.0014732655333367355 0.026332775068897026 0 0.0013542046453308961 0.026274757323174438 0 0.0011379960533281685 0.026074394846748655 0 0.0012499723812311617 0.026114557951836721 0 0.0013542046453308961 0.026274757323174438 0 0.0011379960533281685 0.026074394846748655 0 0.0012499723812311617 0.026114557951836721 0 0.0013302129156502879 0.026204167549069231 0 0.0011379960533281685 0.026074394846748655 0 0.0012499723812311617 0.026114557951836721 0 0.0013370562743946748 0.026100153262042465 0 0.0013302129156502879 0.026204167549069231 0 0.0012499723812311617 0.026114557951836721 0 0.0013258081771910489 0.026087788306006009 0 0.0013370562743946748 0.026100153262042465 0 0.0012499723812311617 0.026114557951836721 0 0.0013258081771910489 0.026087788306006009 0 0.0013542046453308961 0.026274757323174438 0 0.0013258081771910489 0.026087788306006009 0 0.0013542046453308961 0.026274757323174438 0 0.0013478527919137185 0.026070268835606487 0 0.0014068247899172144 0.026213941323498687 0 0.0013542046453308961 0.026274757323174438 0 0.0013478527919137185 0.026070268835606487 0 0.0013478527919137185 0.026070268835606487 0 0.0014180298430417368 0.025905087495202057 0 0.0014461792822429414 0.025922883757533568 0 0.0013258081771910489 0.026087788306006009 0 0.0013478527919137185 0.026070268835606487 0 0.0014461792822429414 0.025922883757533568 0 0.0013478527919137185 0.026070268835606487 0 0.0013085585518878304 0.026024110340196874 0 0.0014180298430417368 0.025905087495202057 0 0.0014068247899172144 0.026213941323498687 0 0.0013478527919137185 0.026070268835606487 0 0.0013085585518878304 0.026024110340196874 0 0.0013361065146175698 0.02607247921605306 0 0.0014068247899172144 0.026213941323498687 0 0.0013085585518878304 0.026024110340196874 0 0.0015538500784338647 0.025824459368537288 0 0.0015487696850110812 0.025715946678587336 0 0.0016390737964234003 0.025788424544000235 0 0.0016447443018468713 0.025676438899728007 0 0.0015538500784338647 0.025824459368537288 0 0.0016390737964234003 0.025788424544000235 0 0.0015232797963138235 0.02567349394548113 0 0.0015538500784338647 0.025824459368537288 0 0.0014180298430417368 0.025905087495202057 0 0.0015538500784338647 0.025824459368537288 0 0.0014180298430417368 0.025905087495202057 0 0.0014461792822429414 0.025922883757533568 0 0.0015538500784338647 0.025824459368537288 0 0.0014461792822429414 0.025922883757533568 0 0.0015487696850110812 0.025715946678587336 0 0.0014461792822429414 0.025922883757533568 0 0.0014366616463611496 0.02603069397512876 0 0.0015487696850110812 0.025715946678587336 0 0.0013258081771910489 0.026087788306006009 0 0.0013370562743946748 0.026100153262042465 0 0.0014366616463611496 0.02603069397512876 0 0.0013258081771910489 0.026087788306006009 0 0.0014461792822429414 0.025922883757533568 0 0.0014366616463611496 0.02603069397512876 0 0.0013370562743946748 0.026100153262042465 0 0.0014366616463611496 0.02603069397512876 0 0.0013302129156502879 0.026204167549069231 0 0.0014366616463611496 0.02603069397512876 0 0.0013302129156502879 0.026204167549069231 0 0.0016076086180365793 0.026259379500113009 0 0.0004749960679945219 0.026828541407949606 0 -0.00072281668253964529 0.019983345307561431 0 -0.00074080476342707705 0.025715980853276352 0 -0.0017439235893088618 0.023919226246058405 0 -0.0025279752815502939 0.025284979800719053 0 -0.0010640461622486506 0.019060516553998399 0 -0.00072281668253964529 0.019983345307561431 0 -0.00074080476342707705 0.025715980853276352 0 -0.00041406635397935921 0.024214631561572816 0 -0.0017439235893088618 0.023919226246058405 0 0.0004749960679945219 0.026828541407949606 0 0.0010055066321561527 0.025820713624927841 0 -0.00074080476342707705 0.025715980853276352 0 0.0011379960533281685 0.026074394846748655 0 0.00022331356331498263 0.025171197972447219 0 0.0014943161189230852 0.025626109897881708 0 0.0011379960533281685 0.026074394846748655 0 0.0010031854542148573 0.025116121898761574 0 0.0011379960533281685 0.026074394846748655 0 0.0010031854542148573 0.025116121898761574 0 0.00022331356331498263 0.025171197972447219 0 0.0010031854542148573 0.025116121898761574 0 0.00033455861301334922 0.024532647404961992 0 0.00066279990641160836 0.023521016457453876 0 0.0010031854542148573 0.025116121898761574 0 0.00022331356331498263 0.025171197972447219 0 0.00033455861301334922 0.024532647404961992 0 -0.00074080476342707705 0.025715980853276352 0 0.00022331356331498263 0.025171197972447219 0 -0.00041406635397935921 0.024214631561572816 0 0.00022331356331498263 0.025171197972447219 0 0.00033455861301334922 0.024532647404961992 0 -0.00041406635397935921 0.024214631561572816 0 0.00033455861301334922 0.024532647404961992 0 -0.00041406635397935921 0.024214631561572816 0 0.00066279990641160836 0.023521016457453876 0 -0.00041406635397935921 0.024214631561572816 0 0.00066279990641160836 0.023521016457453876 0 -0.00030802742972843231 0.022788611839406264 0 0.0013198600474400813 0.02337161193940435 0 0.0010031854542148573 0.025116121898761574 0 0.00066279990641160836 0.023521016457453876 0 0.0013494568079449405 0.02396117367488617 0 0.001001816495863109 0.025067836593646201 0 0.00066279990641160836 0.023521016457453876 0 0.00083349412793987305 0.022940976103599683 0 0.00043703434927327598 0.022528285644992548 0 0.00065837226704885574 0.02342117368836848 0 0.00048164798471276351 0.022175667540169908 0 0.0013198600474400813 0.02337161193940435 0 0.00066279990641160836 0.023521016457453876 0 0.00083349412793987305 0.022940976103599683 0 0.0010091169101761775 0.022740041345169389 0 0.00083349412793987305 0.022940976103599683 0 0.00077328422228271237 0.022615603948091471 0 -0.00030802742972843231 0.022788611839406264 0 -0.00090214511248747184 0.022454469721747382 0 0.00054318310654093572 0.021767998938219728 0 0.00066279990641160836 0.023521016457453876 0 -0.00030802742972843231 0.022788611839406264 0 0.00054318310654093572 0.021767998938219728 0 8.9149633117786641e-05 0.021885348888439175 0 -0.00058569623225599343 0.019413395225140091 0 -0.00030802742972843231 0.022788611839406264 0 -0.00093118285609425963 0.022485008398227632 0 -0.0017439235893088618 0.023919226246058405 0 0.00017011268900055484 0.013755913386116961 0 -0.00072457696491170891 0.014013328073448154 0 -0.00072106177340829504 0.013284213592785471 0 0.00017011268900055484 0.013755913386116961 0 -0.00027404662695246847 0.01450765788068813 0 -0.00072457696491170891 0.014013328073448154 0 -0.00041406635397935921 0.024214631561572816 0 -0.00030802742972843231 0.022788611839406264 0 -0.0017439235893088618 0.023919226246058405 0 -0.00058569623225599343 0.019413395225140091 0 -0.0010640461622486506 0.019060516553998399 0 0.0001533133100004319 0.020770685955302987 0 7.9878968727005429e-05 0.020915679145164005 0 6.1472433490999116e-05 0.020666431852375336 0 0.0001533133100004319 0.020770685955302987 0 7.9878968727005429e-05 0.020915679145164005 0 0.00017061961968128925 0.021026643892042857 0 7.9878968727005429e-05 0.020915679145164005 0 -0.00020630196549440902 0.020642192959492905 0 -0.00011182657084521169 0.020979791933645235 0 7.9878968727005429e-05 0.020915679145164005 0 6.1472433490999116e-05 0.020666431852375336 0 -0.00020630196549440902 0.020642192959492905 0 0.00011099616441758934 0.021037470555525385 0 7.9878968727005429e-05 0.020915679145164005 0 -0.00011182657084521169 0.020979791933645235 0 -0.00058569623225599343 0.019413395225140091 0 -0.00034135691010899789 0.01685088548996792 0 0.00011099616441758934 0.021037470555525385 0 7.9878968727005429e-05 0.020915679145164005 0 0.00017061961968128925 0.021026643892042857 0 -0.00090214511248747184 0.022454469721747382 0 0.00054318310654093572 0.021767998938219728 0 0.00017061961968128925 0.021026643892042857 0 -0.00058569623225599343 0.019413395225140091 0 2.1009895400691287e-05 0.021961660129100651 0 0.00043703434927327598 0.022528285644992548 0 0.00065183347806284202 0.022088573937840163 0 0.0008454146563371107 0.022329734477957438 0 0.00077328422228271237 0.022615603948091471 0 0.00043703434927327598 0.022528285644992548 0 0.0008454146563371107 0.022329734477957438 0 0.0010091169101761775 0.022740041345169389 0 0.00077328422228271237 0.022615603948091471 0 0.0008454146563371107 0.022329734477957438 0 0.00083349412793987305 0.022940976103599683 0 0.00077328422228271237 0.022615603948091471 0 0.00043703434927327598 0.022528285644992548 0 0.00043703434927327598 0.022528285644992548 0 0.00065183347806284202 0.022088573937840163 0 0.00029864858413213924 0.021884295826349869 0 0.00065183347806284202 0.022088573937840163 0 0.00084891735654492046 0.022126281559310904 0 0.0008454146563371107 0.022329734477957438 0 0.00065183347806284202 0.022088573937840163 0 0.00029864858413213924 0.021884295826349869 0 0.00066077903921146503 0.021832046395210476 0 0.00065183347806284202 0.022088573937840163 0 0.00066077903921146503 0.021832046395210476 0 0.0008596678495194351 0.021951867155094465 0 0.00054318310654093572 0.021767998938219728 0 0.00017061961968128925 0.021026643892042857 0 0.00027830422419757104 0.020679372043910661 0 0.0001533133100004319 0.020770685955302987 0 0.00017061961968128925 0.021026643892042857 0 0.00027830422419757104 0.020679372043910661 0 0.00048164798471276351 0.022175667540169908 0 0.00030326875486921638 0.021290458847912565 0 0.00029864858413213924 0.021884295826349869 0 0.00060977580065489873 0.021479469656109331 0 0.00028358368963410412 0.020922514227614975 0 0.00030326875486921638 0.021290458847912565 0 0.00027534811397682214 0.020950056674008222 0 0.0001533133100004319 0.020770685955302987 0 0.00027830422419757104 0.020679372043910661 0 0.00022604166851103856 0.020688009339439189 0 0.00027830422419757104 0.020679372043910661 0 0.00028358368963410412 0.020922514227614975 0 0.00022604166851103856 0.020688009339439189 0 0.00029864858413213924 0.021884295826349869 0 0.00066077903921146503 0.021832046395210476 0 0.00060977580065489873 0.021479469656109331 0 0.00066077903921146503 0.021832046395210476 0 0.00060977580065489873 0.021479469656109331 0 0.00081116795482019015 0.021744340730095658 0 0.00060977580065489873 0.021479469656109331 0 0.00028358368963410412 0.020922514227614975 0 0.00053150546087358782 0.021188530353809045 0 0.00060977580065489873 0.021479469656109331 0 0.00053150546087358782 0.021188530353809045 0 0.00078999051244527856 0.021596038225332709 0 0.00028358368963410412 0.020922514227614975 0 0.00022604166851103856 0.020688009339439189 0 0.0002281859121410345 0.020364592176989559 0 0.00022604166851103856 0.020688009339439189 0 -1.9618373364147793e-05 0.020358088966088168 0 0.0002281859121410345 0.020364592176989559 0 0.0001533133100004319 0.020770685955302987 0 0.00022604166851103856 0.020688009339439189 0 6.1472433490999116e-05 0.020666431852375336 0 6.1472433490999116e-05 0.020666431852375336 0 -1.9618373364147793e-05 0.020358088966088168 0 -0.00020630196549440902 0.020642192959492905 0 0.00022604166851103856 0.020688009339439189 0 6.1472433490999116e-05 0.020666431852375336 0 -1.9618373364147793e-05 0.020358088966088168 0 -1.9618373364147793e-05 0.020358088966088168 0 7.216485183232882e-06 0.019812349321450255 0 0.0002281859121410345 0.020364592176989559 0 3.2007412272027516e-06 0.018743771904057235 0 0.00033033752212484666 0.020708308517013066 0 0.00020940451408262822 0.024283781404193999 0 0.0002281859121410345 0.020364592176989559 0 0.00030384640945025233 0.020312827347976448 0 0.00038354797074817768 0.020779552200755065 0 0.00030384640945025233 0.020312827347976448 0 0.00019460584232934954 0.01959239377955754 0 0.00033033752212484666 0.020708308517013066 0 0.0002281859121410345 0.020364592176989559 0 0.00030384640945025233 0.020312827347976448 0 0.00019460584232934954 0.01959239377955754 0 7.216485183232882e-06 0.019812349321450255 0 0.0002281859121410345 0.020364592176989559 0 0.00019460584232934954 0.01959239377955754 0 7.216485183232882e-06 0.019812349321450255 0 0.00019460584232934954 0.01959239377955754 0 -9.8140805752923197e-05 0.019184444173355054 0 0.00019460584232934954 0.01959239377955754 0 3.2007412272027516e-06 0.018743771904057235 0 8.4455712054584122e-05 0.018219270494903551 0 0.00019460584232934954 0.01959239377955754 0 3.2007412272027516e-06 0.018743771904057235 0 0.00033033752212484666 0.020708308517013066 0 0.00033033752212484666 0.020708308517013066 0 0.00038204385953583258 0.021402114827782249 0 0.00038354797074817768 0.020779552200755065 0 0.00030384640945025233 0.020312827347976448 0 0.00033033752212484666 0.020708308517013066 0 0.00038354797074817768 0.020779552200755065 0 0.00028358368963410412 0.020922514227614975 0 0.00038354797074817768 0.020779552200755065 0 0.00053150546087358782 0.021188530353809045 0 0.00028358368963410412 0.020922514227614975 0 0.0002281859121410345 0.020364592176989559 0 0.00038354797074817768 0.020779552200755065 0 0.00038204385953583258 0.021402114827782249 0 0.00038354797074817768 0.020779552200755065 0 0.00053150546087358782 0.021188530353809045 0 0.00060076895995126746 0.021458268989882706 0 0.00085202028457144713 0.021774328175157464 0 0.00078999051244527856 0.021596038225332709 0 0.00038204385953583258 0.021402114827782249 0 0.00034887264995162536 0.022777289849718066 0 0.00020940451408262822 0.024283781404193999 0 0.00038204385953583258 0.021402114827782249 0 0.00053150546087358782 0.021188530353809045 0 0.00060076895995126746 0.021458268989882706 0 0.00053150546087358782 0.021188530353809045 0 0.00060076895995126746 0.021458268989882706 0 0.00078999051244527856 0.021596038225332709 0 0.00033033752212484666 0.020708308517013066 0 0.00038204385953583258 0.021402114827782249 0 0.00020940451408262822 0.024283781404193999 0 3.2007412272027516e-06 0.018743771904057235 0 0.00020940451408262822 0.024283781404193999 0 -1.5135304186828394e-06 0.026752919646625468 0 0.00085202028457144713 0.021774328175157464 0 0.00076678773966428924 0.021411377566565769 0 0.0012796999933338174 0.0216719077567426 0 0.00060076895995126746 0.021458268989882706 0 0.00085202028457144713 0.021774328175157464 0 0.00076678773966428924 0.021411377566565769 0 0.00038204385953583258 0.021402114827782249 0 0.00060076895995126746 0.021458268989882706 0 0.00076678773966428924 0.021411377566565769 0 0.00047060096603152886 0.02156845558065951 0 0.00061321328204014161 0.022067876961633311 0 0.00020940451408262822 0.024283781404193999 0 9.3643222094512023e-05 0.025891066991978479 0 -1.5135304186828394e-06 0.026752919646625468 0 0.00038344345347565028 0.02453992058075018 0 1.9295880968912546e-05 0.024151010315042812 0 0.00020940451408262822 0.024283781404193999 0 9.2748003753421063e-05 0.023669079211929751 0 5.3402092987143743e-05 0.023483713081830143 0 9.2748003753421063e-05 0.023669079211929751 0 0.00018531239632799855 0.023537595719370315 0 4.4058699976850073e-05 0.023470914160138908 0 0.00074287195650808051 0.022583306611977334 0 0.00079315334072999543 0.022844781585442057 0 0.0012796999933338174 0.0216719077567426 0 0.0015613524292899322 0.022004567969820883 0 0.0017605114917384778 0.022285703399981847 0 9.2748003753421063e-05 0.023669079211929751 0 4.4058699976850073e-05 0.023470914160138908 0 5.3402092987143743e-05 0.023483713081830143 0 0.00020940451408262822 0.024283781404193999 0 9.2748003753421063e-05 0.023669079211929751 0 0.00018531239632799855 0.023537595719370315 0 0.00034887264995162536 0.022777289849718066 0 0.00020940451408262822 0.024283781404193999 0 0.00018531239632799855 0.023537595719370315 0 0.00061321328204014161 0.022067876961633311 0 0.00074287195650808051 0.022583306611977334 0 0.00085202028457144713 0.021774328175157464 0 0.0012796999933338174 0.0216719077567426 0 0.0010089995199820464 0.022174765567009785 0 0.0012796999933338174 0.0216719077567426 0 0.0015613524292899322 0.022004567969820883 0 0.0010089995199820464 0.022174765567009785 0 0.0018322217051612213 0.022074829585568796 0 0.0015997916135751448 0.022337654819648556 0 0.0020331645807629868 0.022789695494444293 0 0.0018322217051612213 0.022074829585568796 0 0.0015613524292899322 0.022004567969820883 0 0.0017605114917384778 0.022285703399981847 0 0.0015613524292899322 0.022004567969820883 0 0.0015997916135751448 0.022337654819648556 0 0.0010089995199820464 0.022174765567009785 0 0.0018322217051612213 0.022074829585568796 0 0.0015613524292899322 0.022004567969820883 0 0.0015997916135751448 0.022337654819648556 0 0.0015997916135751448 0.022337654819648556 0 0.001501999346620981 0.022999469810473124 0 0.0010089995199820464 0.022174765567009785 0 0.0015997916135751448 0.022337654819648556 0 0.0020331645807629868 0.022789695494444293 0 0.001501999346620981 0.022999469810473124 0 0.0020331645807629868 0.022789695494444293 0 0.001501999346620981 0.022999469810473124 0 0.0020319951376321166 0.023682632614617879 0 0.001501999346620981 0.022999469810473124 0 0.0020319951376321166 0.023682632614617879 0 0.0012443574425831984 0.023992204746978614 0 0.0020319951376321166 0.023682632614617879 0 0.0012443574425831984 0.023992204746978614 0 0.0019588668518789264 0.024647166834371084 0 0.0020319951376321166 0.023682632614617879 0 0.0019588668518789264 0.024647166834371084 0 0.0026098054162884518 0.024409397106356059 0 0.00085571568904914787 0.02444010006364503 0 0.00020571298288318691 0.023864516167818126 0 0.0008305621139531558 0.025072019297585246 0 0.00085571568904914787 0.02444010006364503 0 0.00085005551696847265 0.023921217452685082 0 0.00020571298288318691 0.023864516167818126 0 0.00085571568904914787 0.02444010006364503 0 0.0012443574425831984 0.023992204746978614 0 0.001278636222201794 0.024993834185733612 0 0.00085571568904914787 0.02444010006364503 0 0.0012443574425831984 0.023992204746978614 0 0.00085005551696847265 0.023921217452685082 0 0.0012443574425831984 0.023992204746978614 0 0.00085005551696847265 0.023921217452685082 0 0.0010244163164263354 0.023340916881190339 0 0.001501999346620981 0.022999469810473124 0 0.0012443574425831984 0.023992204746978614 0 0.0010244163164263354 0.023340916881190339 0 0.00085005551696847265 0.023921217452685082 0 0.0010244163164263354 0.023340916881190339 0 0.00020571298288318691 0.023864516167818126 0 0.0010244163164263354 0.023340916881190339 0 0.0010089995199820464 0.022174765567009785 0 0.00020571298288318691 0.023864516167818126 0 0.00088749055561756368 0.02217042375621851 0 0.0011493149032864886 0.023100957330611824 0 0.001501999346620981 0.022999469810473124 0 0.0010244163164263354 0.023340916881190339 0 0.0010089995199820464 0.022174765567009785 0 0.00085202028457144713 0.021774328175157464 0 0.00097149214200206312 0.021844478305312595 0 0.00078999051244527856 0.021596038225332709 0 0.00085202028457144713 0.021774328175157464 0 0.0010089995199820464 0.022174765567009785 0 0.00097149214200206312 0.021844478305312595 0 0.0010089995199820464 0.022174765567009785 0 0.00097149214200206312 0.021844478305312595 0 0.0010003759175499312 0.021835162554889005 0 0.00097149214200206312 0.021844478305312595 0 0.00078999051244527856 0.021596038225332709 0 0.00092517877961445451 0.021776236325842302 0 0.00060977580065489873 0.021479469656109331 0 0.00078999051244527856 0.021596038225332709 0 0.00081116795482019015 0.021744340730095658 0 0.00081116795482019015 0.021744340730095658 0 0.00092517877961445451 0.021776236325842302 0 0.00092804430989422426 0.021839491706784377 0 0.00078999051244527856 0.021596038225332709 0 0.00081116795482019015 0.021744340730095658 0 0.00092517877961445451 0.021776236325842302 0 0.00092804430989422426 0.021839491706784377 0 0.0010077801077052924 0.021834738517873084 0 0.00099238114947614205 0.021939632926094955 0 0.00092804430989422426 0.021839491706784377 0 0.0008596678495194351 0.021951867155094465 0 0.00099238114947614205 0.021939632926094955 0 0.00092517877961445451 0.021776236325842302 0 0.00092804430989422426 0.021839491706784377 0 0.0010077801077052924 0.021834738517873084 0 0.00081116795482019015 0.021744340730095658 0 0.00092804430989422426 0.021839491706784377 0 0.0008596678495194351 0.021951867155094465 0 0.00066077903921146503 0.021832046395210476 0 0.00081116795482019015 0.021744340730095658 0 0.0008596678495194351 0.021951867155094465 0 0.00097149214200206312 0.021844478305312595 0 0.0010003759175499312 0.021835162554889005 0 0.0010675874690985894 0.021839409774418041 0 0.00097149214200206312 0.021844478305312595 0 0.0010077801077052924 0.021834738517873084 0 0.0010675874690985894 0.021839409774418041 0 0.00097149214200206312 0.021844478305312595 0 0.00092517877961445451 0.021776236325842302 0 0.0010077801077052924 0.021834738517873084 0 0.0010077801077052924 0.021834738517873084 0 0.0010620673736116055 0.022017061065763444 0 0.00099238114947614205 0.021939632926094955 0 0.0010077801077052924 0.021834738517873084 0 0.0010675874690985894 0.021839409774418041 0 0.0010620673736116055 0.022017061065763444 0 0.0011493149032864886 0.023100957330611824 0 0.0014865351723074073 0.022547327343483786 0 0.0011493149032864886 0.023100957330611824 0 0.0012605201795773129 0.024892362392514716 0 0.0010675874690985894 0.021839409774418041 0 0.0010620673736116055 0.022017061065763444 0 0.001241993628304505 0.02240729691114355 0 0.0014865351723074073 0.022547327343483786 0 0.0014987605107579462 0.023091588932874964 0 0.0020654754281711394 0.022983006690072638 0 0.0020106421680249004 0.023124271962798454 0 0.0020680353183924216 0.023729046175850733 0 0.0020106421680249004 0.023124271962798454 0 0.0017494511436398918 0.023765438318387139 0 0.0020680353183924216 0.023729046175850733 0 0.0010620673736116055 0.022017061065763444 0 0.0010250600787645445 0.022137530874068008 0 0.001241993628304505 0.02240729691114355 0 0.00065183347806284202 0.022088573937840163 0 0.0008596678495194351 0.021951867155094465 0 0.00084891735654492046 0.022126281559310904 0 0.0008596678495194351 0.021951867155094465 0 0.0010250600787645445 0.022137530874068008 0 0.00084891735654492046 0.022126281559310904 0 0.0010620673736116055 0.022017061065763444 0 0.00099238114947614205 0.021939632926094955 0 0.0010250600787645445 0.022137530874068008 0 0.0008596678495194351 0.021951867155094465 0 0.00099238114947614205 0.021939632926094955 0 0.0010250600787645445 0.022137530874068008 0 0.0010250600787645445 0.022137530874068008 0 0.00084891735654492046 0.022126281559310904 0 0.0008454146563371107 0.022329734477957438 0 0.0010250600787645445 0.022137530874068008 0 0.0008454146563371107 0.022329734477957438 0 0.001241993628304505 0.02240729691114355 0 0.0010091169101761775 0.022740041345169389 0 0.0008454146563371107 0.022329734477957438 0 0.001241993628304505 0.02240729691114355 0 0.0017788366271729622 0.02418985414932354 0 0.0017494511436398918 0.023765438318387139 0 0.0020680353183924216 0.023729046175850733 0 0.0017930794667306907 0.026643093115733527 0 0.0011692143052467788 0.026837555872805861 0 0.0012355709314486227 0.025885107219906275 0 0.0011692143052467788 0.026837555872805861 0 0.00044293938830147083 0.025955038743342883 0 0.0012355709314486227 0.025885107219906275 0 0.00044293938830147083 0.025955038743342883 0 0.0012355709314486227 0.025885107219906275 0 0.0008305621139531558 0.025072019297585246 0 0.0031434876733801324 0.026815561600633569 0 0.0017930794667306907 0.026643093115733527 0 0.0018393766798954826 0.025599488216841632 0 0.0017930794667306907 0.026643093115733527 0 0.0012355709314486227 0.025885107219906275 0 0.0018393766798954826 0.025599488216841632 0 0.0018393766798954826 0.025599488216841632 0 0.0019588668518789264 0.024647166834371084 0 0.001278636222201794 0.024993834185733612 0 0.0012355709314486227 0.025885107219906275 0 0.0018393766798954826 0.025599488216841632 0 0.001278636222201794 0.024993834185733612 0 0.0018393766798954826 0.025599488216841632 0 0.0019588668518789264 0.024647166834371084 0 0.0026133764955216794 0.025263729696143482 0 0.0012443574425831984 0.023992204746978614 0 0.0019588668518789264 0.024647166834371084 0 0.001278636222201794 0.024993834185733612 0 0.00020571298288318691 0.023864516167818126 0 0.00044293938830147083 0.025955038743342883 0 0.0008305621139531558 0.025072019297585246 0 0.00085571568904914787 0.02444010006364503 0 0.001278636222201794 0.024993834185733612 0 0.0008305621139531558 0.025072019297585246 0 0.0012355709314486227 0.025885107219906275 0 0.001278636222201794 0.024993834185733612 0 0.0008305621139531558 0.025072019297585246 0 0.0035767476019522341 0.024984206801207987 0 0.0026133764955216794 0.025263729696143482 0 0.0026098054162884518 0.024409397106356059 0 0.0019588668518789264 0.024647166834371084 0 0.0026133764955216794 0.025263729696143482 0 0.0026098054162884518 0.024409397106356059 0 0.0031434876733801324 0.026815561600633569 0 0.0018393766798954826 0.025599488216841632 0 0.0026133764955216794 0.025263729696143482 0 0.0031434876733801324 0.026815561600633569 0 0.0035767476019522341 0.024984206801207987 0 0.0026133764955216794 0.025263729696143482 0 0.0029270543303273385 0.030919189002358384 0 0.0027530142333631819 0.032642754640717912 0 0.0014775286436558472 0.031527807806992589 0 0.0029779140038011611 0.028856462528745425 0 0.0032950005027729133 0.028816295297388335 0 0.0014775286436558472 0.031527807806992589 0 0.00088500027030586476 0.033098424533038184 0 0.00041827431268403329 0.032260138975235518 0 0.0014775286436558472 0.031527807806992589 0 0.0016536947776311316 0.032664842643168157 0 0.00088500027030586476 0.033098424533038184 0 0.0016536947776311316 0.032664842643168157 0 0.0016569599368240877 0.033406569693569428 0 0.00088500027030586476 0.033098424533038184 0 0.0027530142333631819 0.032642754640717912 0 0.0016536947776311316 0.032664842643168157 0 0.0016569599368240877 0.033406569693569428 0 0.0027530142333631819 0.032642754640717912 0 0.0014775286436558472 0.031527807806992589 0 0.0016536947776311316 0.032664842643168157 0 0.0014846080788037254 0.033695965207512411 0 0.00092236382111320677 0.03418500977193329 0 0.00088500027030586476 0.033098424533038184 0 0.0019011806057945319 0.034260642661278227 0 0.00072653613148070302 0.032901781869935878 0 0.0014846080788037254 0.033695965207512411 0 0.00092236382111320677 0.03418500977193329 0 0.0014639039228279362 0.034338888009516816 0 0.0014846080788037254 0.033695965207512411 0 0.0014639039228279362 0.034338888009516816 0 0.0019671821033314164 0.034076825399423138 0 0.0019011806057945319 0.034260642661278227 0 0.0022116550361912244 0.028405710033673797 0 0.0038076364000475915 0.023074461115420178 0 0.0028774769725755296 0.023475531056928206 0 0.0028705193254008284 0.022465561671893775 0 0.0022116550361912244 0.028405710033673797 0 0.001380890181686614 0.021819932457833889 0 0.0027530142333631819 0.032642754640717912 0 0.0016569599368240877 0.033406569693569428 0 0.002511654291721684 0.033923560873957384 0 0.0035767476019522341 0.024984206801207987 0 0.0038076364000475915 0.023074461115420178 0 0.0028774769725755296 0.023475531056928206 0 0.0032950005027729133 0.028816295297388335 0 0.0022116550361912244 0.028405710033673797 0 0.0035767476019522341 0.024984206801207987 0 0.0026098054162884518 0.024409397106356059 0 0.0028774769725755296 0.023475531056928206 0 0.0020319951376321166 0.023682632614617879 0 0.0026098054162884518 0.024409397106356059 0 0.0028774769725755296 0.023475531056928206 0 0.0020331645807629868 0.022789695494444293 0 0.0028774769725755296 0.023475531056928206 0 0.0028705193254008284 0.022465561671893775 0 0.0020331645807629868 0.022789695494444293 0 0.0020319951376321166 0.023682632614617879 0 0.0028774769725755296 0.023475531056928206 0 0.001090021502506325 0.022256323491376344 0 7.3995425339627775e-05 0.022834704538380102 0 0.0017605114917384778 0.022285703399981847 0 0.0018322217051612213 0.022074829585568796 0 0.001049035873484082 0.021673891254112961 0 0.0014500468443126545 0.022157184348248808 0 -1.5135304186828394e-06 0.026752919646625468 0 -0.00013129493042049351 0.028887031534289224 0 6.1869545836415518e-07 0.034999169370726065 0 0.0018322217051612213 0.022074829585568796 0 0.0020331645807629868 0.022789695494444293 0 0.0028705193254008284 0.022465561671893775 0 0.0020474979935473951 0.022196923783874847 0 0.001380890181686614 0.021819932457833889 0 0.001049035873484082 0.021673891254112961 0 0.001090021502506325 0.022256323491376344 0 0.0014500468443126545 0.022157184348248808 0 0.001090021502506325 0.022256323491376344 0 0.0014500468443126545 0.022157184348248808 0 0.0017605114917384778 0.022285703399981847 0 0.0018322217051612213 0.022074829585568796 0 0.0014500468443126545 0.022157184348248808 0 0.0017605114917384778 0.022285703399981847 0 3.7074696613482736e-05 0.021170066381405742 0 0.001049035873484082 0.021673891254112961 0 7.3995425339627775e-05 0.022834704538380102 0 0.0022116550361912244 0.028405710033673797 0 -0.00017862263457701398 0.028816949290582903 0 3.7074696613482736e-05 0.021170066381405742 0 7.3995425339627775e-05 0.022834704538380102 0 -0.00016261717195832439 0.023163293097111196 0 0.001049035873484082 0.021673891254112961 0 0.001090021502506325 0.022256323491376344 0 7.3995425339627775e-05 0.022834704538380102 0 -0.00025428505759465928 0.026449291896142871 0 9.3643222094512023e-05 0.025891066991978479 0 -0.00022343902568944444 0.027140577575990268 0 -0.00016261717195832439 0.023163293097111196 0 3.9995753478448429e-05 0.023211123265938185 0 5.3402092987143743e-05 0.023483713081830143 0 -0.00017862263457701398 0.028816949290582903 0 1.9295880968912546e-05 0.024151010315042812 0 7.3995425339627775e-05 0.022834704538380102 0 -0.00016261717195832439 0.023163293097111196 0 3.9995753478448429e-05 0.023211123265938185 0 7.220413128055548e-05 0.022831221919914928 0 0.00079315334072999543 0.022844781585442057 0 7.3995425339627775e-05 0.022834704538380102 0 3.9995753478448429e-05 0.023211123265938185 0 4.4058699976850073e-05 0.023470914160138908 0 3.9995753478448429e-05 0.023211123265938185 0 4.4058699976850073e-05 0.023470914160138908 0 5.3402092987143743e-05 0.023483713081830143 0 9.3643222094512023e-05 0.025891066991978479 0 -1.5135304186828394e-06 0.026752919646625468 0 -0.00022343902568944444 0.027140577575990268 0 -1.5135304186828394e-06 0.026752919646625468 0 -0.00013129493042049351 0.028887031534289224 0 -0.00022343902568944444 0.027140577575990268 0 -0.00013129493042049351 0.028887031534289224 0 -0.00030154609513679197 0.03098129646485473 0 3.8729603417440961e-05 0.0318561887274341 0 -0.00032571887897543325 0.028898446110588508 0 -0.00072386309503922914 0.029343677838146641 0 -0.00013129493042049351 0.028887031534289224 0 -0.00030154609513679197 0.03098129646485473 0 -0.0013394190436625695 0.031259244143912651 0 -0.00030154609513679197 0.03098129646485473 0 -0.0013394190436625695 0.031259244143912651 0 -0.0003214036797413608 0.032032078152306832 0 -0.00030154609513679197 0.03098129646485473 0 -0.0003214036797413608 0.032032078152306832 0 3.8729603417440961e-05 0.0318561887274341 0 -0.0003214036797413608 0.032032078152306832 0 -0.0002681672334438229 0.033062040243546566 0 5.2721022126365519e-06 0.032941884630000029 0 -0.0015258307226943802 0.032504537083769693 0 -0.0013394190436625695 0.031259244143912651 0 -0.0003214036797413608 0.032032078152306832 0 -0.0015258307226943802 0.032504537083769693 0 -0.0003214036797413608 0.032032078152306832 0 -0.0002681672334438229 0.033062040243546566 0 -0.00017862263457701398 0.028816949290582903 0 -0.00072386309503922914 0.029343677838146641 0 -0.00017862263457701398 0.028816949290582903 0 0.00062895495304449113 0.034544210154216798 0 0.0014639039228279362 0.034338888009516816 0 0.0018024225476618314 0.03487403228215754 0 0.0011071312927036442 0.034747122434966547 0 0.0014639039228279362 0.034338888009516816 0 0.0019671821033314164 0.034076825399423138 0 0.0018024225476618314 0.03487403228215754 0 0.00092236382111320677 0.03418500977193329 0 0.0014639039228279362 0.034338888009516816 0 0.0011071312927036442 0.034747122434966547 0 0.00092236382111320677 0.03418500977193329 0 0.0011071312927036442 0.034747122434966547 0 0.00035260205900935793 0.034599246299292445 0 -0.0002681672334438229 0.033062040243546566 0 5.5211612422083956e-05 0.033764733858941062 0 5.2721022126365519e-06 0.032941884630000029 0 0.00062895495304449113 0.034544210154216798 0 0.0001607940026403152 0.034121812328354977 0 -0.00013129493042049351 0.028887031534289224 0 3.8729603417440961e-05 0.0318561887274341 0 6.1869545836415518e-07 0.034999169370726065 0 0.0001607940026403152 0.034121812328354977 0 4.0585448023316517e-05 0.034523882141728565 0 5.2721022126365519e-06 0.032941884630000029 0 3.8729603417440961e-05 0.0318561887274341 0 0.00014617894566826357 0.033884628776658571 0 5.5211612422083956e-05 0.033764733858941062 0 5.2721022126365519e-06 0.032941884630000029 0 0.00014617894566826357 0.033884628776658571 0 -0.0003214036797413608 0.032032078152306832 0 5.2721022126365519e-06 0.032941884630000029 0 3.8729603417440961e-05 0.0318561887274341 0 6.1869545836415518e-07 0.034999169370726065 0 0.00014617894566826357 0.033884628776658571 0 -1.5785787258886599e-08 0.034997997412579432 0 3.8729603417440961e-05 0.0318561887274341 0 6.1869545836415518e-07 0.034999169370726065 0 0.00014617894566826357 0.033884628776658571 0 0.00014617894566826357 0.033884628776658571 0 -1.5785787258886599e-08 0.034997997412579432 0 -5.6674606813903142e-05 0.034566563443759961 0 5.5211612422083956e-05 0.033764733858941062 0 0.00014617894566826357 0.033884628776658571 0 -5.6674606813903142e-05 0.034566563443759961 0 -1.5785787258886599e-08 0.034997997412579432 0 -5.6674606813903142e-05 0.034566563443759961 0 1.4846625581394167e-07 0.034999686543986039 0 -0.00020246860764235896 0.034420943023260847 0 -5.6674606813903142e-05 0.034566563443759961 0 1.4846625581394167e-07 0.034999686543986039 0 -0.00020246860764235896 0.034420943023260847 0 -5.6674606813903142e-05 0.034566563443759961 0 0.00027476628307945063 0.034077533460767209 0 0.00035260205900935793 0.034599246299292445 0 -5.6674606813903142e-05 0.034566563443759961 0 0.00027476628307945063 0.034077533460767209 0 0.00092236382111320677 0.03418500977193329 0 0.00035260205900935793 0.034599246299292445 0 0.00027476628307945063 0.034077533460767209 0 0.00092236382111320677 0.03418500977193329 0 0.00027476628307945063 0.034077533460767209 0 0.00088500027030586476 0.033098424533038184 0 0.00027476628307945063 0.034077533460767209 0 0.00018106749993650905 0.033355765929673077 0 0.00088500027030586476 0.033098424533038184 0 -0.00020246860764235896 0.034420943023260847 0 0.00027476628307945063 0.034077533460767209 0 0.00018106749993650905 0.033355765929673077 0 -0.00020246860764235896 0.034420943023260847 0 0.00018106749993650905 0.033355765929673077 0 -0.00048568615278347726 0.032648393583222746 0 0.00018106749993650905 0.033355765929673077 0 0.00041827431268403329 0.032260138975235518 0 -0.00048568615278347726 0.032648393583222746 0 0.00018106749993650905 0.033355765929673077 0 0.00088500027030586476 0.033098424533038184 0 0.00041827431268403329 0.032260138975235518 0 0.00068738348824004764 0.031231542966533268 0 0.0014775286436558472 0.031527807806992589 0 0.00041827431268403329 0.032260138975235518 0 -0.00015537334128602634 0.031195921380736701 0 0.00068738348824004764 0.031231542966533268 0 0.00041827431268403329 0.032260138975235518 0 0.00011581789333659297 0.032890470137054748 0 -0.0002268990274788055 0.033752142483165513 0 -0.00015537334128602634 0.031195921380736701 0 0.00041827431268403329 0.032260138975235518 0 -0.00048568615278347726 0.032648393583222746 0 0.00034490640805478605 0.03459267619202009 0 -7.650679598941776e-05 0.034807273230214798 0 -7.8007131894390389e-05 0.034920006841735213 0 -7.650679598941776e-05 0.034807273230214798 0 -4.8537584155873731e-05 0.034920638809131849 0 -7.8007131894390389e-05 0.034920006841735213 0 -7.4074782695675676e-07 0.034999469026098337 0 1.4846625581394167e-07 0.034999686543986039 0 -4.8537584155873731e-05 0.034920638809131849 0 -7.4074782695675676e-07 0.034999469026098337 0 -7.650679598941776e-05 0.034807273230214798 0 -4.8537584155873731e-05 0.034920638809131849 0 -0.00020246860764235896 0.034420943023260847 0 1.4846625581394167e-07 0.034999686543986039 0 -4.8537584155873731e-05 0.034920638809131849 0 -0.00023407246395531971 0.034304857106097611 0 -0.0002268990274788055 0.033752142483165513 0 -0.00020246860764235896 0.034420943023260847 0 -4.8537584155873731e-05 0.034920638809131849 0 -7.8007131894390389e-05 0.034920006841735213 0 -2.3172251768259613e-05 0.0032572004695811886 0 6.8180095806461954e-05 0.0031572896055994787 0 -5.0436424589642514e-05 0.0032198753573983228 0 -0.0002797257201390817 0.00021791594403118152 0 0.00019205451111621431 -0.00039329952199501606 0 0.00016588760667643333 -0.00063406582686125574 0 -0.00013115379091151942 0.0017049661741484995 0 0.00023178934885196065 0.0013632428656951095 0 0.00022320077076223461 -0.00037445831201167701 0 0.00031737533392713155 -0.00013121114640001706 0 0.00019205451111621431 -0.00039329952199501606 0 5.9682186219663159e-05 -0.0011393365591116126 0 -5.8141962401830217e-05 -0.00076075442861120468 0 -0.0002797257201390817 0.00021791594403118152 0 0.00019205451111621431 -0.00039329952199501606 0 0.00063474947316033892 0.00085209639868825981 0 0.00019205451111621431 -0.00039329952199501606 0 -5.8141962401830217e-05 -0.00076075442861120468 0 9.9969387731861057e-06 -0.00057566980693831804 0 0.00016588760667643333 -0.00063406582686125574 0 9.9969387731861057e-06 -0.00057566980693831804 0 -6.4456776359264278e-05 -0.00044082726639833902 0 0.00019205451111621431 -0.00039329952199501606 0 0.00016588760667643333 -0.00063406582686125574 0 9.9969387731861057e-06 -0.00057566980693831804 0 0.00028983014740307687 0.0031362926394194221 0 6.8180095806461954e-05 0.0031572896055994787 0 0.0001837680680085938 0.0030708288096155368 0 -2.3172251768259613e-05 0.0032572004695811886 0 0.00028983014740307687 0.0031362926394194221 0 6.8180095806461954e-05 0.0031572896055994787 0 6.8180095806461954e-05 0.0031572896055994787 0 0.0001837680680085938 0.0030708288096155368 0 5.5553831341032122e-05 0.0030454171908553943 0 -4.4093714980874229e-05 0.0031241863547667227 0 -0.00010186105331380771 0.0031941248644257671 0 -5.0436424589642514e-05 0.0032198753573983228 0 6.8180095806461954e-05 0.0031572896055994787 0 -4.4093714980874229e-05 0.0031241863547667227 0 -5.0436424589642514e-05 0.0032198753573983228 0 6.8180095806461954e-05 0.0031572896055994787 0 -4.4093714980874229e-05 0.0031241863547667227 0 5.5553831341032122e-05 0.0030454171908553943 0 -0.00010186105331380771 0.0031941248644257671 0 -0.00012805851102486591 0.0030921456961412346 0 -0.00016810252833902105 0.0031718763479846156 0 -4.4093714980874229e-05 0.0031241863547667227 0 -0.00010186105331380771 0.0031941248644257671 0 -0.00012805851102486591 0.0030921456961412346 0 -0.00010186105331380771 0.0031941248644257671 0 -9.759215227785757e-05 0.0032620867448159051 0 -0.00017475221852109881 0.003250383605685238 0 -0.00010186105331380771 0.0031941248644257671 0 -0.00017475221852109881 0.003250383605685238 0 -0.00016810252833902105 0.0031718763479846156 0 -0.00010186105331380771 0.0031941248644257671 0 -5.0436424589642514e-05 0.0032198753573983228 0 -9.759215227785757e-05 0.0032620867448159051 0 -5.0436424589642514e-05 0.0032198753573983228 0 -8.8696789919841878e-05 0.0032380608874578087 0 -9.759215227785757e-05 0.0032620867448159051 0 -2.3172251768259613e-05 0.0032572004695811886 0 -5.0436424589642514e-05 0.0032198753573983228 0 -8.8696789919841878e-05 0.0032380608874578087 0 -0.00017476707501348294 0.0031530117915413952 0 -9.759215227785757e-05 0.0032620867448159051 0 -0.00012035137282286472 0.0033176400193595905 0 -2.3172251768259613e-05 0.0032572004695811886 0 -0.00017476707501348294 0.0031530117915413952 0 -0.00027640095323969952 0.0030792400853150085 0 -2.3172251768259613e-05 0.0032572004695811886 0 -8.8696789919841878e-05 0.0032380608874578087 0 -0.00017476707501348294 0.0031530117915413952 0 -8.8696789919841878e-05 0.0032380608874578087 0 -0.00017476707501348294 0.0031530117915413952 0 -9.759215227785757e-05 0.0032620867448159051 0 -9.759215227785757e-05 0.0032620867448159051 0 -0.00017475221852109881 0.003250383605685238 0 -0.00018456969793206318 0.0033287983478748413 0 -9.759215227785757e-05 0.0032620867448159051 0 -0.00012035137282286472 0.0033176400193595905 0 -0.00018456969793206318 0.0033287983478748413 0 -0.00036666267732173366 0.002980430000015332 0 -0.00027640095323969952 0.0030792400853150085 0 -0.00036788261769125333 0.0029967045280941871 0 -0.00036666267732173366 0.002980430000015332 0 -0.00041123692529672264 0.0029910149287183134 0 -0.00036788261769125333 0.0029967045280941871 0 -0.00017030871355210093 0.0031392330079609886 0 -0.00032830320904537807 0.0032148098790453087 0 -0.00017476707501348294 0.0031530117915413952 0 -0.00036666267732173366 0.002980430000015332 0 -0.00027640095323969952 0.0030792400853150085 0 -0.00055522227634570106 0.0017690949566540675 0 7.5578578524402836e-06 0.0012742410478377155 0 -1.3533346761538165e-05 0.0019446646429234513 0 -0.0002797257201390817 0.00021791594403118152 0 7.5578578524402836e-06 0.0012742410478377155 0 0.00063474947316033892 0.00085209639868825981 0 -0.0002797257201390817 0.00021791594403118152 0 -0.00055522227634570106 0.0017690949566540675 0 7.5578578524402836e-06 0.0012742410478377155 0 -0.00013115379091151942 0.0017049661741484995 0 -0.00039277917144776723 0.0023994850757894544 0 7.5578578524402836e-06 0.0012742410478377155 0 0.00068869343750939632 0.0020208557812485136 0 -1.3533346761538165e-05 0.0019446646429234513 0 7.5578578524402836e-06 0.0012742410478377155 0 0.00063474947316033892 0.00085209639868825981 0 0.00068869343750939632 0.0020208557812485136 0 0.00031737533392713155 -0.00013121114640001706 0 0.00025265427043738949 0.00028631185477557576 0 5.9682186219663159e-05 -0.0011393365591116126 0 -0.00033901665082273694 -0.0013387368061459979 0 -0.00018156259609101194 -0.0014264183296844608 0 -0.00033901665082273694 -0.0013387368061459979 0 -0.00049629356731051429 -0.0015003216003489218 0 -0.00049778617618305096 -0.0011907726965414939 0 -0.00033901665082273694 -0.0013387368061459979 0 -0.00022892027500867027 -0.001046194279730223 0 -0.00049778617618305096 -0.0011907726965414939 0 5.9682186219663159e-05 -0.0011393365591116126 0 -0.00033901665082273694 -0.0013387368061459979 0 -0.00022892027500867027 -0.001046194279730223 0 5.9682186219663159e-05 -0.0011393365591116126 0 -0.00022892027500867027 -0.001046194279730223 0 -5.8141962401830217e-05 -0.00076075442861120468 0 -0.00049629356731051429 -0.0015003216003489218 0 -0.00052994302701316845 -0.0014131040858239667 0 -0.00059459485242517476 -0.0018276009120250507 0 -0.00049629356731051429 -0.0015003216003489218 0 -0.00049778617618305096 -0.0011907726965414939 0 -0.00052994302701316845 -0.0014131040858239667 0 -0.00049778617618305096 -0.0011907726965414939 0 -0.00052994302701316845 -0.0014131040858239667 0 -0.00051806876073976654 -0.0012870982775356531 0 -0.00052994302701316845 -0.0014131040858239667 0 -0.00051806876073976654 -0.0012870982775356531 0 -0.00064339052582122638 -0.0014128925563327284 0 -0.00051806876073976654 -0.0012870982775356531 0 -0.00053048481335875124 -0.0013287153134174466 0 -0.00055251245938120019 -0.0013088141344507771 0 -0.00049778617618305096 -0.0011907726965414939 0 -0.00051806876073976654 -0.0012870982775356531 0 -0.00056370407507237816 -0.0013190382947899074 0 -0.0004893535608729311 -0.0013071302068904365 0 -0.00058577156432776671 -0.00066743867829919504 0 -0.00056370407507237816 -0.0013190382947899074 0 -0.00053048481335875124 -0.0013287153134174466 0 -0.0005486189836675779 -0.0013618512831136606 0 -0.00051806876073976654 -0.0012870982775356531 0 -0.00056370407507237816 -0.0013190382947899074 0 -0.00053048481335875124 -0.0013287153134174466 0 -0.00053048481335875124 -0.0013287153134174466 0 -0.00052469834005390906 -0.001352828837621515 0 -0.00055251245938120019 -0.0013088141344507771 0 -0.00053048481335875124 -0.0013287153134174466 0 -0.00053244251418755608 -0.0013676607571563031 0 -0.0005486189836675779 -0.0013618512831136606 0 -0.00053048481335875124 -0.0013287153134174466 0 -0.00052469834005390906 -0.001352828837621515 0 -0.00053244251418755608 -0.0013676607571563031 0 -5.8141962401830217e-05 -0.00076075442861120468 0 -0.00023093483425275165 -0.00078263112617624653 0 9.9969387731861057e-06 -0.00057566980693831804 0 -0.00022892027500867027 -0.001046194279730223 0 -5.8141962401830217e-05 -0.00076075442861120468 0 -0.00023093483425275165 -0.00078263112617624653 0 -0.00022892027500867027 -0.001046194279730223 0 -0.00049778617618305096 -0.0011907726965414939 0 -0.00023093483425275165 -0.00078263112617624653 0 -0.00049778617618305096 -0.0011907726965414939 0 -0.00050357391983789075 -0.00059788707663452031 0 -0.00023093483425275165 -0.00078263112617624653 0 -0.00050357391983789075 -0.00059788707663452031 0 -0.00023093483425275165 -0.00078263112617624653 0 -0.00020719032714178352 -0.00054368486258207164 0 -0.00050357391983789075 -0.00059788707663452031 0 -0.00020719032714178352 -0.00054368486258207164 0 -0.00028322519044105725 -0.00037295605409821031 0 -0.00020719032714178352 -0.00054368486258207164 0 9.9969387731861057e-06 -0.00057566980693831804 0 -6.4456776359264278e-05 -0.00044082726639833902 0 -0.00023093483425275165 -0.00078263112617624653 0 -0.00020719032714178352 -0.00054368486258207164 0 9.9969387731861057e-06 -0.00057566980693831804 0 -6.4456776359264278e-05 -0.00044082726639833902 0 -0.00013495444447628145 -0.00028682709859726173 0 3.6573037666881086e-05 -0.00015764597276432836 0 -6.4456776359264278e-05 -0.00044082726639833902 0 -0.00013495444447628145 -0.00028682709859726173 0 -0.00028322519044105725 -0.00037295605409821031 0 -0.00013495444447628145 -0.00028682709859726173 0 -0.00028322519044105725 -0.00037295605409821031 0 -0.0002187281583552331 -0.00017321225021282231 0 -0.00020719032714178352 -0.00054368486258207164 0 -6.4456776359264278e-05 -0.00044082726639833902 0 -0.00028322519044105725 -0.00037295605409821031 0 -0.00050357391983789075 -0.00059788707663452031 0 -0.00028322519044105725 -0.00037295605409821031 0 -0.00047920153042486208 -0.00025137687458146052 0 0.00015814278850283866 -0.0030725310349411649 0 -0.00015565693511335112 -0.0031726894378724872 0 -0.00015804734749161711 -0.0030875365539000249 0 -6.6641672999921635e-05 -0.0023825068760477122 0 -8.8311543322785554e-05 -0.0021350974682513052 0 0.00083550333932146776 -0.0060586819460459957 0 0.00028588205708767448 -0.00543277675570027 0 0.0017626927522720465 -0.0054136127575554263 0 -6.6641672999921635e-05 -0.0023825068760477122 0 0.00072039025370207671 -0.0053173982532456259 0 -0.00028322519044105725 -0.00037295605409821031 0 -0.0002187281583552331 -0.00017321225021282231 0 -0.00047920153042486208 -0.00025137687458146052 0 0.00083550333932146776 -0.0060586819460459957 0 0.0017626927522720465 -0.0054136127575554263 0 0.0017891452105738275 -0.0060739250673747447 0 0.00083550333932146776 -0.0060586819460459957 0 0.00028588205708767448 -0.00543277675570027 0 -4.5777284561444023e-06 -0.0063372208042610399 0 -6.6641672999921635e-05 -0.0023825068760477122 0 0.00016840684567286592 0.00080388678824313132 0 0.00039402431788638332 -0.00082515004388411712 0 -0.00024734710855000869 -0.0010294094127612126 0 0.00047066546392746333 -0.0010001206298140704 0 -0.00013495444447628145 -0.00028682709859726173 0 -0.0002187281583552331 -0.00017321225021282231 0 3.6573037666881086e-05 -0.00015764597276432836 0 -0.00091406408075612414 -0.0057834169920921953 0 0.00028588205708767448 -0.00543277675570027 0 -4.5777284561444023e-06 -0.0063372208042610399 0 0.00018646509589619495 -0.00096695256741810749 0 -6.6641672999921635e-05 -0.0023825068760477122 0 0.00038691428460138833 -0.0079530930297157312 0 0.00059361036651702805 -0.0077482767360551961 0 0.00023183126161836748 -0.0079585339302731574 0 -0.00052469834005390906 -0.001352828837621515 0 -0.00051822923271801602 -0.00139574520688188 0 -0.00050372194308324415 -0.0013794546290833371 0 -0.00052469834005390906 -0.001352828837621515 0 -0.00051822923271801602 -0.00139574520688188 0 -0.00053244251418755608 -0.0013676607571563031 0 0.00013496833078414176 -0.0051824711733780837 0 0.00049904295484398285 -0.0068358721780786124 0 0.00013496833078414176 -0.0051824711733780837 0 -2.2769721728189164e-05 -0.0034398569691893189 0 -0.00051822923271801602 -0.00139574520688188 0 -0.00053244251418755608 -0.0013676607571563031 0 -0.00054242772546807434 -0.0013966786298945709 0 -0.00051822923271801602 -0.00139574520688188 0 -0.00054153022814496009 -0.0014084017639962878 0 -0.00054242772546807434 -0.0013966786298945709 0 0.00022001258814144495 -0.0052976370238351318 0 0.00052166497456082443 -0.0052138640195581922 0 0.0005190407642923562 -0.0050978633801846513 0 -0.00058577156432776671 -0.00066743867829919504 0 -8.8311543322785554e-05 -0.0021350974682513052 0 -0.00056370407507237816 -0.0013190382947899074 0 -0.0005486189836675779 -0.0013618512831136606 0 -0.00058069842165705057 -0.0014237478897436841 0 -0.00054082702249035085 -0.0014130881117533347 0 -0.00054242772546807434 -0.0013966786298945709 0 -0.00058069842165705057 -0.0014237478897436841 0 -0.00054242772546807434 -0.0013966786298945709 0 -0.0005486189836675779 -0.0013618512831136606 0 -0.00058069842165705057 -0.0014237478897436841 0 -2.2769721728189164e-05 -0.0034398569691893189 0 -0.00010262340084976833 -0.0026388710024637355 0 -0.00053244251418755608 -0.0013676607571563031 0 -0.00054242772546807434 -0.0013966786298945709 0 -0.0005486189836675779 -0.0013618512831136606 0 0.00055796868240324258 -0.0046680458233349523 0 0.00036897581129192303 -0.0045309934585754932 0 0.00020415538851439519 -0.0046083691255246959 0 0.00072039025370207671 -0.0053173982532456259 0 0.00069544891011610399 -0.0073120199912455365 0 0.00036897581129192303 -0.0045309934585754932 0 0.00055018918009159352 -0.0044158952177196127 0 0.00018390802886071651 -0.0044239026647602264 0 -8.8311543322785554e-05 -0.0021350974682513052 0 0.00072039025370207671 -0.0053173982532456259 0 0.00055796868240324258 -0.0046680458233349523 0 0.00036897581129192303 -0.0045309934585754932 0 0.00055018918009159352 -0.0044158952177196127 0 0.001294293677581232 -0.0071996743127910479 0 0.0013395338726924723 -0.0068988912690025423 0 0.00048150161496488398 -0.0074530898370964846 0 0.0013585177645783666 -0.0075451364825923507 0 0.001294293677581232 -0.0071996743127910479 0 0.0013395338726924723 -0.0068988912690025423 0 0.00072039025370207671 -0.0053173982532456259 0 0.0016005766326208286 -0.0065673794490049564 0 0.0013585177645783666 -0.0075451364825923507 0 0.001294293677581232 -0.0071996743127910479 0 0.00078815023526584798 -0.007551506364187186 0 0.0010231004234490227 -0.0072176582642081502 0 0.00069544891011610399 -0.0073120199912455365 0 0.0016799079425281558 -0.0067781873366558072 0 0.0021339245399811567 -0.0064728528237654528 0 0.0019374317125111433 -0.0071213818291709901 0 0.001294293677581232 -0.0071996743127910479 0 0.00048150161496488398 -0.0074530898370964846 0 0.00078185496046358227 -0.0075697811215843487 0 0.0016005766326208286 -0.0065673794490049564 0 0.0009640804367443414 -0.0098073406735550706 0 0.0009640804367443414 -0.0098073406735550706 0 0.00095246350133697353 -0.010341718821858078 0 -2.2769721728189164e-05 -0.0034398569691893189 0 -8.8311543322785554e-05 -0.0021350974682513052 0 0.00070662735701249068 -0.0088373068392229148 0 0.00095246350133697353 -0.010341718821858078 0 7.4973096653890041e-06 -0.0048297292819731172 0 0.00055796868240324258 -0.0046680458233349523 0 0.00020415538851439519 -0.0046083691255246959 0 0.0018427731348395848 -0.0095129143365270657 0 0.0018642437833297156 -0.010227602122400538 0 0.00069113755290362618 -0.010245492568573647 0 0.00063993300755582833 -0.0077472349134782327 0 0.00064044057156467855 -0.0077903462818362567 0 0.00059361036651702805 -0.0077482767360551961 0 0.0009640804367443414 -0.0098073406735550706 0 0.00070662735701249068 -0.0088373068392229148 0 0.00070662735701249068 -0.0088373068392229148 0 0.00049904295484398285 -0.0068358721780786124 0 0.00049904295484398285 -0.0068358721780786124 0 0.00069544891011610399 -0.0073120199912455365 0 0.00070662735701249068 -0.0088373068392229148 0 0.00069544891011610399 -0.0073120199912455365 0 0.00048150161496488398 -0.0074530898370964846 0 0.00048489352572964192 -0.007577115484289079 0 0.00078185496046358227 -0.0075697811215843487 0 -0.00034275532341123408 -0.0073133502167400692 0 -0.00031946942140495131 -0.0080903800126842229 0 0.00081286805824433992 -0.007296300184179638 0 1.3238926135229945e-08 -0.0045520015362377981 0 0.00018390802886071651 -0.0044239026647602264 0 0.00020415538851439519 -0.0046083691255246959 0 0.00036897581129192303 -0.0045309934585754932 0 0.00018390802886071651 -0.0044239026647602264 0 0.00020415538851439519 -0.0046083691255246959 0 7.4973096653890041e-06 -0.0048297292819731172 0 1.3238926135229945e-08 -0.0045520015362377981 0 0.00020415538851439519 -0.0046083691255246959 0 -2.2769721728189164e-05 -0.0034398569691893189 0 0.00049904295484398285 -0.0068358721780786124 0 0.00092706817444042561 -0.0120937845274088 0 0.0012198753565535803 -0.012010527754818279 0 0.0012254023263315763 -0.011923951553159326 0 0.0016173053271573035 -0.015281027817702721 0 0.0017750001206139605 -0.015496260187054155 0 0.0019846721404784265 -0.015339721273996122 0 0.00095246350133697353 -0.010341718821858078 0 0.00030047776676049305 -0.0091590502071700261 0 0.00038691428460138833 -0.0079530930297157312 0 0.00064044057156467855 -0.0077903462818362567 0 0.00059361036651702805 -0.0077482767360551961 0 0.0015848686389302968 -0.015298572591096168 0 0.0016173053271573035 -0.015281027817702721 0 0.0017750001206139605 -0.015496260187054155 0 0.0015848686389302968 -0.015298572591096168 0 0.0017750001206139605 -0.015496260187054155 0 0.0016184391704016066 -0.01564361788636949 0 0.0021339245399811567 -0.0064728528237654528 0 0.0019374317125111433 -0.0071213818291709901 0 0.0022710406250326608 -0.0076464255479328832 0 0.0016005766326208286 -0.0065673794490049564 0 0.0016608620654539321 -0.00748866359054401 0 0.0016799079425281558 -0.0067781873366558072 0 0.0019374317125111433 -0.0071213818291709901 0 0.0016499776664767713 -0.0076124162686836755 0 0.0016267726302305022 -0.0062398358301197342 0 0.0016499776664767713 -0.0076124162686836755 0 0.0011397352138784323 -0.0071064727500861451 0 0.0009640804367443414 -0.0098073406735550706 0 0.0020393141260283362 -0.011858159743431584 0 0.0019374317125111433 -0.0071213818291709901 0 0.0016499776664767713 -0.0076124162686836755 0 0.0022710406250326608 -0.0076464255479328832 0 0.0023687626148383846 -0.0092953082546326955 0 0.0016499776664767713 -0.0076124162686836755 0 0.0022710406250326608 -0.0076464255479328832 0 0.0020795334653376189 -0.012718359753079106 0 0.0020393141260283362 -0.011858159743431584 0 0.0017976517306304667 -0.015886650077191228 0 0.0016184391704016066 -0.01564361788636949 0 0.0018830236731975372 -0.01576595016301174 0 0.0017750001206139605 -0.015496260187054155 0 0.0016184391704016066 -0.01564361788636949 0 0.0018830236731975372 -0.01576595016301174 0 -0.00091406408075612414 -0.0057834169920921953 0 -4.5777284561444023e-06 -0.0063372208042610399 0 2.9254824561082419e-05 -0.0078681779552921705 0 -4.5777284561444023e-06 -0.0063372208042610399 0 0.00041093787491773532 -0.0069633123402900723 0 2.9254824561082419e-05 -0.0078681779552921705 0 0.0013091270926980144 0.0022227106605031536 0 0.0029914330266270178 -0.00087670755558269585 0 0.00094666651593293557 -0.00042687338942709466 0 0.00018646509589619495 -0.00096695256741810749 0 0.001491212897072736 -0.0044818028169021067 0 0.0012838294364455143 0.0028793789769954725 0 0.0013091270926980144 0.0022227106605031536 0 0.0029914330266270178 -0.00087670755558269585 0 0.00083550333932146776 -0.0060586819460459957 0 -4.5777284561444023e-06 -0.0063372208042610399 0 0.00041093787491773532 -0.0069633123402900723 0 0.0016267726302305022 -0.0062398358301197342 0 0.0011397352138784323 -0.0071064727500861451 0 0.00041093787491773532 -0.0069633123402900723 0 0.00083550333932146776 -0.0060586819460459957 0 0.0017891452105738275 -0.0060739250673747447 0 0.00041093787491773532 -0.0069633123402900723 0 0.0016005766326208286 -0.0065673794490049564 0 0.00059895651663339773 -0.006813790289895435 0 0.0011397352138784323 -0.0071064727500861451 0 0.00041093787491773532 -0.0069633123402900723 0 0.00086642132366253463 -0.007605685015830848 0 0.00041093787491773532 -0.0069633123402900723 0 0.00086642132366253463 -0.007605685015830848 0 2.9254824561082419e-05 -0.0078681779552921705 0 0.0010627217916512235 -0.008494313646717995 0 0.0016499776664767713 -0.0076124162686836755 0 0.00086642132366253463 -0.007605685015830848 0 0.0016499776664767713 -0.0076124162686836755 0 0.0011397352138784323 -0.0071064727500861451 0 0.00086642132366253463 -0.007605685015830848 0 0.0010627217916512235 -0.008494313646717995 0 0.00086642132366253463 -0.007605685015830848 0 2.9254824561082419e-05 -0.0078681779552921705 0 0.00067641548092582833 -0.0024127735009002887 0 0.0029914330266270178 -0.00087670755558269585 0 0.00094666651593293557 -0.00042687338942709466 0 0.00067641548092582833 -0.0024127735009002887 0 0.00094666651593293557 -0.00042687338942709466 0 -0.0011276333075797454 -0.00044616334248980162 0 -0.0033924663236445381 -0.0027850379564988881 0 -0.0014574217846689971 -0.0026090098275256515 0 -0.0011276333075797454 -0.00044616334248980162 0 -0.0014574217846689971 -0.0026090098275256515 0 0.00067641548092582833 -0.0024127735009002887 0 -0.0011276333075797454 -0.00044616334248980162 0 0.00017416887499656166 0.0023993896434690147 0 0.00017921151189130739 0.0025582754965593527 0 -5.6202980772347525e-06 0.0025049195534253611 0 0.00017416887499656166 0.0023993896434690147 0 0.00017921151189130739 0.0025582754965593527 0 0.00046245716299108839 0.0025122106867312044 0 0.00017921151189130739 0.0025582754965593527 0 0.00046245716299108839 0.0025122106867312044 0 0.00033967839495092911 0.002700546275603552 0 0.00017921151189130739 0.0025582754965593527 0 0.00033967839495092911 0.002700546275603552 0 0.0001052822008484587 0.0027488481073040102 0 0.0012116797620008194 0.0021855946702234522 0 -0.00031677191769000545 0.0010929955308823032 0 0.0013091270926980144 0.0022227106605031536 0 0.00094666651593293557 -0.00042687338942709466 0 -0.0011276333075797454 -0.00044616334248980162 0 0.0013091270926980144 0.0022227106605031536 0 0.00017416887499656166 0.0023993896434690147 0 0.00046245716299108839 0.0025122106867312044 0 0.00046245716299108839 0.0025122106867312044 0 0.00066174737669608802 0.0026115887252950837 0 0.00033967839495092911 0.002700546275603552 0 0.0013091270926980144 0.0022227106605031536 0 0.00046245716299108839 0.0025122106867312044 0 0.00066174737669608802 0.0026115887252950837 0 0.0008567490177162515 0.0026773599080302537 0 0.00081362122471636926 0.0027803245974356524 0 0.00066174737669608802 0.0026115887252950837 0 0.0012838294364455143 0.0028793789769954725 0 0.0013091270926980144 0.0022227106605031536 0 0.00066174737669608802 0.0026115887252950837 0 0.00018646509589619495 -0.00096695256741810749 0 0.0013151988778810043 0.0013830112686815065 0 0.00081362122471636926 0.0027803245974356524 0 0.00054455322840608715 0.0028028794172113309 0 0.00066174737669608802 0.0026115887252950837 0 0.00018646509589619495 -0.00096695256741810749 0 0.00016840684567286592 0.00080388678824313132 0 0.00064910741790106142 0.0028060303507056578 0 0.00047203200512535353 0.0028735038051130959 0 0.00054455322840608715 0.0028028794172113309 0 0.00016840684567286592 0.00080388678824313132 0 0.00061112939178813565 0.0017774142295399428 0 0.00047203200512535353 0.0028735038051130959 0 0.00054455322840608715 0.0028028794172113309 0 0.00029822660090422711 0.0028785672774014324 0 0.00064910741790106142 0.0028060303507056578 0 0.00047203200512535353 0.0028735038051130959 0 0.00035209472161803931 0.0030023793580712895 0 0.00054455322840608715 0.0028028794172113309 0 0.00066174737669608802 0.0026115887252950837 0 0.00033967839495092911 0.002700546275603552 0 0.00033967839495092911 0.002700546275603552 0 0.0001052822008484587 0.0027488481073040102 0 0.00029822660090422711 0.0028785672774014324 0 0.00054455322840608715 0.0028028794172113309 0 0.00033967839495092911 0.002700546275603552 0 0.00029822660090422711 0.0028785672774014324 0 0.0001052822008484587 0.0027488481073040102 0 0.00029822660090422711 0.0028785672774014324 0 6.6590273687560351e-05 0.0029163160036630577 0 0.00029822660090422711 0.0028785672774014324 0 0.00018239352917733939 0.0029850031650056129 0 0.00035209472161803931 0.0030023793580712895 0 0.00029822660090422711 0.0028785672774014324 0 0.00018239352917733939 0.0029850031650056129 0 6.6590273687560351e-05 0.0029163160036630577 0 0.00018239352917733939 0.0029850031650056129 0 5.5553831341032122e-05 0.0030454171908553943 0 6.6590273687560351e-05 0.0029163160036630577 0 0.00018239352917733939 0.0029850031650056129 0 0.0001837680680085938 0.0030708288096155368 0 5.5553831341032122e-05 0.0030454171908553943 0 0.00028983014740307687 0.0031362926394194221 0 0.0001837680680085938 0.0030708288096155368 0 0.00035209472161803931 0.0030023793580712895 0 0.00018239352917733939 0.0029850031650056129 0 0.0001837680680085938 0.0030708288096155368 0 0.00035209472161803931 0.0030023793580712895 0 0.00028983014740307687 0.0031362926394194221 0 0.00064910741790106142 0.0028060303507056578 0 0.00035209472161803931 0.0030023793580712895 0 0.00023178934885196065 0.0013632428656951095 0 0.00016840684567286592 0.00080388678824313132 0 0.00016588760667643333 -0.00063406582686125574 0 -6.4456776359264278e-05 -0.00044082726639833902 0 3.6573037666881086e-05 -0.00015764597276432836 0 0.00047203200512535353 0.0028735038051130959 0 0.00029822660090422711 0.0028785672774014324 0 0.00035209472161803931 0.0030023793580712895 0 -0.00012805851102486591 0.0030921456961412346 0 -8.0364621645527933e-05 0.0029869793393550261 0 -0.00020599409526400592 0.0030181483155294663 0 -4.4093714980874229e-05 0.0031241863547667227 0 -0.00012805851102486591 0.0030921456961412346 0 -8.0364621645527933e-05 0.0029869793393550261 0 -4.4093714980874229e-05 0.0031241863547667227 0 -8.0364621645527933e-05 0.0029869793393550261 0 5.5553831341032122e-05 0.0030454171908553943 0 -8.0364621645527933e-05 0.0029869793393550261 0 5.5553831341032122e-05 0.0030454171908553943 0 6.6590273687560351e-05 0.0029163160036630577 0 -8.0364621645527933e-05 0.0029869793393550261 0 6.6590273687560351e-05 0.0029163160036630577 0 -6.0164326760755357e-05 0.0028267128826416589 0 0.0001052822008484587 0.0027488481073040102 0 6.6590273687560351e-05 0.0029163160036630577 0 -6.0164326760755357e-05 0.0028267128826416589 0 -8.0364621645527933e-05 0.0029869793393550261 0 -0.00014804263220679977 0.0028931789486876728 0 -0.00020599409526400592 0.0030181483155294663 0 -6.0164326760755357e-05 0.0028267128826416589 0 -0.00014804263220679977 0.0028931789486876728 0 -0.00014990395248328509 0.002774416408493012 0 -8.0364621645527933e-05 0.0029869793393550261 0 -6.0164326760755357e-05 0.0028267128826416589 0 -0.00014804263220679977 0.0028931789486876728 0 -0.00014804263220679977 0.0028931789486876728 0 -0.00014990395248328509 0.002774416408493012 0 -0.00021122371362406066 0.0028661072329708779 0 -0.00014990395248328509 0.002774416408493012 0 -0.00020380973272104077 0.0027665616066479015 0 -0.00021122371362406066 0.0028661072329708779 0 -0.00014990395248328509 0.002774416408493012 0 -4.6572167110672889e-05 0.0026437445070858676 0 -0.00016339883398886791 0.00266095278189723 0 -0.00014990395248328509 0.002774416408493012 0 -0.00016339883398886791 0.00266095278189723 0 -0.00020380973272104077 0.0027665616066479015 0 0.00017921151189130739 0.0025582754965593527 0 0.0001052822008484587 0.0027488481073040102 0 -4.6572167110672889e-05 0.0026437445070858676 0 0.0001052822008484587 0.0027488481073040102 0 -6.0164326760755357e-05 0.0028267128826416589 0 -4.6572167110672889e-05 0.0026437445070858676 0 -6.0164326760755357e-05 0.0028267128826416589 0 -0.00014990395248328509 0.002774416408493012 0 -4.6572167110672889e-05 0.0026437445070858676 0 0.00017921151189130739 0.0025582754965593527 0 -4.6572167110672889e-05 0.0026437445070858676 0 -5.6202980772347525e-06 0.0025049195534253611 0 -0.00017822191645607815 0.0023169874313230094 0 0.00017416887499656166 0.0023993896434690147 0 -5.6202980772347525e-06 0.0025049195534253611 0 -0.00017822191645607815 0.0023169874313230094 0 -5.6202980772347525e-06 0.0025049195534253611 0 -0.00014163616588399081 0.0025163527291013192 0 -4.6572167110672889e-05 0.0026437445070858676 0 -5.6202980772347525e-06 0.0025049195534253611 0 -0.00014163616588399081 0.0025163527291013192 0 -4.6572167110672889e-05 0.0026437445070858676 0 -0.00014163616588399081 0.0025163527291013192 0 -0.00016339883398886791 0.00266095278189723 0 -0.002099138822477135 -0.00063676993648197793 0 -0.00031677191769000545 0.0010929955308823032 0 -0.00020290911134196259 0.0027133902008479511 0 -0.00016339883398886791 0.00266095278189723 0 -0.00020380973272104077 0.0027665616066479015 0 -0.00020290911134196259 0.0027133902008479511 0 -0.00016339883398886791 0.00266095278189723 0 -0.00019108606644366137 0.0026578382340948924 0 -0.00014163616588399081 0.0025163527291013192 0 -0.00016339883398886791 0.00266095278189723 0 -0.00019108606644366137 0.0026578382340948924 0 -0.00021165208765153016 0.0027375566124645252 0 -0.00020290911134196259 0.0027133902008479511 0 -0.00019108606644366137 0.0026578382340948924 0 -0.00020290911134196259 0.0027133902008479511 0 -0.00022557342653218207 0.0027795996270499499 0 -0.00025089802367296815 0.0028027959243575613 0 -0.00021165208765153016 0.0027375566124645252 0 -0.00020290911134196259 0.0027133902008479511 0 -0.00022557342653218207 0.0027795996270499499 0 -0.00020290911134196259 0.0027133902008479511 0 -0.00020380973272104077 0.0027665616066479015 0 -0.00025089802367296815 0.0028027959243575613 0 -0.00022557342653218207 0.0027795996270499499 0 -0.00025089802367296815 0.0028027959243575613 0 -0.000239684922117811 0.0028337772550174373 0 -0.00020380973272104077 0.0027665616066479015 0 -0.00025089802367296815 0.0028027959243575613 0 -0.00021122371362406066 0.0028661072329708779 0 -0.00025089802367296815 0.0028027959243575613 0 -0.00021122371362406066 0.0028661072329708779 0 -0.00027295617725054555 0.0029634719369130719 0 -0.00025089802367296815 0.0028027959243575613 0 -0.00025581419907208568 0.0027356661734882527 0 -0.00027295617725054555 0.0029634719369130719 0 -0.0001823881303842105 0.0030785898771330221 0 -0.00027940635440719153 0.0029682960602884813 0 -0.00025089802367296815 0.0028027959243575613 0 -0.00023293534966900824 0.0028563098731658213 0 -0.00025581419907208568 0.0027356661734882527 0 -0.00025089802367296815 0.0028027959243575613 0 -0.000239684922117811 0.0028337772550174373 0 -0.00023293534966900824 0.0028563098731658213 0 -0.00022563068565865972 0.0029174749051961617 0 -0.000239684922117811 0.0028337772550174373 0 -0.00023293534966900824 0.0028563098731658213 0 -0.00017896997591768045 0.0030152676432870754 0 -0.00023293534966900824 0.0028563098731658213 0 -0.00010132020044783093 0.0029148458641939097 0 -0.00023293534966900824 0.0028563098731658213 0 -0.00010132020044783093 0.0029148458641939097 0 -0.00025581419907208568 0.0027356661734882527 0 -0.00010132020044783093 0.0029148458641939097 0 0.00031283578130829288 0.0025695609077057541 0 -0.00025581419907208568 0.0027356661734882527 0 9.4262487893230896e-07 0.0032995182831263314 0 0.00048892477641503617 0.0030468946928512946 0 -0.00010132020044783093 0.0029148458641939097 0 0.00048892477641503617 0.0030468946928512946 0 -0.00010132020044783093 0.0029148458641939097 0 0.00031283578130829288 0.0025695609077057541 0 2.3899460344571513e-05 0.0026365265300134378 0 -0.0001823881303842105 0.0030785898771330221 0 -0.00011618035910585913 0.0035904566683603585 0 -0.00028608750849909626 0.0032968143879637205 0 -0.00016117873247886036 0.0032650742386099983 0 -0.00027470667455984336 0.0031405783994637106 0 -0.00016117873247886036 0.0032650742386099983 0 -0.00024252059592612556 0.00312809812527902 0 -0.00028608750849909626 0.0032968143879637205 0 -0.00027470667455984336 0.0031405783994637106 0 -0.00016117873247886036 0.0032650742386099983 0 -0.00028608750849909626 0.0032968143879637205 0 -0.00027470667455984336 0.0031405783994637106 0 -0.00027295617725054555 0.0029634719369130719 0 -0.00024252059592612556 0.00312809812527902 0 -8.0887257676036161e-05 0.0031775559460000009 0 -0.00016006533578161056 0.003098926434058276 0 -0.00016117873247886036 0.0032650742386099983 0 -0.00024252059592612556 0.00312809812527902 0 -8.0887257676036161e-05 0.0031775559460000009 0 -0.00027470667455984336 0.0031405783994637106 0 -0.00024252059592612556 0.00312809812527902 0 -0.0002732602103925673 0.0030971023711308964 0 -0.00024252059592612556 0.00312809812527902 0 -0.0002732602103925673 0.0030971023711308964 0 -0.00025160137850515241 0.0031651766683690086 0 -0.00012805851102486591 0.0030921456961412346 0 -0.00020599409526400592 0.0030181483155294663 0 -0.00023883561437533279 0.0031380873981710694 0 -0.0002732602103925673 0.0030971023711308964 0 -0.00020599409526400592 0.0030181483155294663 0 -0.00023883561437533279 0.0031380873981710694 0 -0.00021122371362406066 0.0028661072329708779 0 -0.00020599409526400592 0.0030181483155294663 0 -0.00027295617725054555 0.0029634719369130719 0 -0.00014804263220679977 0.0028931789486876728 0 -0.00021122371362406066 0.0028661072329708779 0 -0.00020599409526400592 0.0030181483155294663 0 -0.0002732602103925673 0.0030971023711308964 0 -0.00020599409526400592 0.0030181483155294663 0 -0.00027295617725054555 0.0029634719369130719 0 -0.00027470667455984336 0.0031405783994637106 0 -0.0002732602103925673 0.0030971023711308964 0 -0.00027295617725054555 0.0029634719369130719 0 0.0019521659043825307 0.025075833875800785 0 0.0015487696850110812 0.025715946678587336 0 0.001440652095653353 0.024453616062145463 0 0.0015576858599772724 0.025350736713666007 0 0.0015776561492684129 0.025865791504314877 0 0.0019521659043825307 0.025075833875800785 0 0.0015487696850110812 0.025715946678587336 0 0.002405993146631113 0.025521047997573952 0 0.0019521659043825307 0.025075833875800785 0 0.001440652095653353 0.024453616062145463 0 0.0023718944141240938 0.024496612022166062 0 0.0023411711810564766 0.023596926906468845 0 0.0025908431792434758 0.024022911203164774 0 0.0023718944141240938 0.024496612022166062 0 0.0023411711810564766 0.023596926906468845 0 0.001440652095653353 0.024453616062145463 0 0.0023718944141240938 0.024496612022166062 0 0.0019521659043825307 0.025075833875800785 0 0.0023718944141240938 0.024496612022166062 0 0.002405993146631113 0.025521047997573952 0 -0.00023588992912943634 0.01338702038302699 0 -0.00096414842172028192 0.0077259893035558479 0 -0.0014833333601978103 0.014001494404609459 0 -0.0015289109017521069 0.014069044940154606 0 -0.0015868596838124842 0.013958144742273141 0 0.00034323546008259317 0.020847427707931326 0 -0.00023588992912943634 0.01338702038302699 0 0.0025908431792434758 0.024022911203164774 0 0.0023718944141240938 0.024496612022166062 0 0.0031857230811452764 0.024327855308800952 0 0.0023718944141240938 0.024496612022166062 0 0.002405993146631113 0.025521047997573952 0 0.0031857230811452764 0.024327855308800952 0 0.0030616284462801112 0.023964874645846911 0 0.0025908431792434758 0.024022911203164774 0 0.0031857230811452764 0.024327855308800952 0 0.0019534025569860488 0.01308800967567841 0 -0.00023588992912943634 0.01338702038302699 0 0.0019534025569860488 0.01308800967567841 0 0.00076053188277949745 0.0076508596033654647 0 0.00070581601881627076 0.01134688775856957 0 5.2465355436479714e-05 0.011004053503196144 0 0.0003761758655476305 0.010453147661794948 0 0.00076053188277949745 0.0076508596033654647 0 -0.00023588992912943634 0.01338702038302699 0 -0.00011618035910585913 0.0035904566683603585 0 0.00022974664814442059 0.0038982060642408574 0 0.00027376430572919431 0.003815795471281116 0 0.00031283578130829288 0.0025695609077057541 0 0.0021336615641325699 0.0029950788015658029 0 0.0010267556219358193 0.0030348984038916496 0 2.3899460344571513e-05 0.0026365265300134378 0 0.00076053188277949745 0.0076508596033654647 0 0.0011849423240012573 0.0036871408854859244 0 0.0021336615641325699 0.0029950788015658029 0 0.0010267556219358193 0.0030348984038916496 0 0.00048892477641503617 0.0030468946928512946 0 0.00031283578130829288 0.0025695609077057541 0 0.0010267556219358193 0.0030348984038916496 0 0.0011849423240012573 0.0036871408854859244 0 0.00048892477641503617 0.0030468946928512946 0 0.0010267556219358193 0.0030348984038916496 0 -0.00011618035910585913 0.0035904566683603585 0 -0.00016117873247886036 0.0032650742386099983 0 9.1156512499069339e-05 0.0033827495162287342 0 -0.00011618035910585913 0.0035904566683603585 0 0.00027376430572919431 0.003815795471281116 0 9.1156512499069339e-05 0.0033827495162287342 0 -0.00016117873247886036 0.0032650742386099983 0 9.1156512499069339e-05 0.0033827495162287342 0 -8.0887257676036161e-05 0.0031775559460000009 0 -0.00096414842172028192 0.0077259893035558479 0 -0.00079860444809603235 0.0089117010237044821 0 -0.0015868596838124842 0.013958144742273141 0 -0.0016449134636365274 0.013825337857083602 0 -0.0015327074417404878 0.013872831852825302 0 -0.0016449134636365274 0.013825337857083602 0 -0.0015327074417404878 0.013872831852825302 0 -0.0015954474326351246 0.01375080812657181 0 -0.0014833333601978103 0.014001494404609459 0 -0.0015868596838124842 0.013958144742273141 0 -0.0015327074417404878 0.013872831852825302 0 0.00034323546008259317 0.020847427707931326 0 0.00039721833227699419 0.019754775009193704 0 -0.0014833333601978103 0.014001494404609459 0 -0.0015327074417404878 0.013872831852825302 0 -0.0014166843948720223 0.013920606469589245 0 -0.0015327074417404878 0.013872831852825302 0 -0.0014166843948720223 0.013920606469589245 0 -0.0014912635595176406 0.013732200760189129 0 0.0014366616463611496 0.02603069397512876 0 0.0018214208519561419 0.026077422175307455 0 0.0016076086180365793 0.026259379500113009 0 0.0015487696850110812 0.025715946678587336 0 0.002405993146631113 0.025521047997573952 0 0.0018214208519561419 0.026077422175307455 0 0.0014366616463611496 0.02603069397512876 0 0.0015487696850110812 0.025715946678587336 0 0.0018214208519561419 0.026077422175307455 0 -0.00027404662695246847 0.01450765788068813 0 -0.0011554131833323058 0.014787007985134437 0 -0.00073139455281416826 0.015312144511521823 0 -0.0011554131833323058 0.014787007985134437 0 -0.00073139455281416826 0.015312144511521823 0 -0.0017475594522249587 0.015068996568058013 0 0.00039721833227699419 0.019754775009193704 0 -0.00072281668253964529 0.019983345307561431 0 -0.00072281668253964529 0.019983345307561431 0 -0.0017738463269077291 0.013902304090120823 0 -0.0014166843948720223 0.013920606469589245 0 -0.0013457431725243283 0.013841735268052957 0 -0.0014912635595176406 0.013732200760189129 0 -0.0011554131833323058 0.014787007985134437 0 -0.0017475594522249587 0.015068996568058013 0 -0.0019650084664172263 0.014497547504728836 0 -0.0017738463269077291 0.013902304090120823 0 -0.0020413407555071811 0.012356369108988295 0 -0.0014912635595176406 0.013732200760189129 0 -0.0015954474326351246 0.01375080812657181 0 -0.0016508446313828005 0.013626700804022585 0 -0.0025174230350049238 0.013205173394687119 0 -0.0020314091426272404 0.014598274242152617 0 -0.0017475594522249587 0.015068996568058013 0 -0.0026598661710421161 0.014741768314971053 0 -0.0019650084664172263 0.014497547504728836 0 -0.0015327074417404878 0.013872831852825302 0 -0.0014912635595176406 0.013732200760189129 0 -0.0015954474326351246 0.01375080812657181 0 -0.0016449134636365274 0.013825337857083602 0 -0.0015954474326351246 0.01375080812657181 0 -0.0016951991653150246 0.013674970179857467 0 -0.00079860444809603235 0.0089117010237044821 0 -0.00059113997994298664 0.0072106221447716294 0 -0.0015954474326351246 0.01375080812657181 0 -0.0016508446313828005 0.013626700804022585 0 -0.0016951991653150246 0.013674970179857467 0 -0.0013147750025805673 0.0095556014015443121 0 -0.001940203069163794 0.0094418500800089074 0 -0.00061988354923103825 0.0075844143406680808 0 -0.0020413407555071811 0.012356369108988295 0 -0.00059113997994298664 0.0072106221447716294 0 -0.0017475594522249587 0.015068996568058013 0 -0.002732581938215105 0.014840483918190281 0 -0.0026598661710421161 0.014741768314971053 0 -0.0018886036717860293 0.013102131738626677 0 -0.0018955544461268913 0.013114461296143956 0 -0.0018884698834417224 0.013114573237318091 0 -0.0016936553059636709 0.010624924961524701 0 -0.0025174230350049238 0.013205173394687119 0 -0.0016936553059636709 0.010624924961524701 0 -0.0020413407555071811 0.012356369108988295 0 -0.0020413407555071811 0.012356369108988295 0 -0.0025174230350049238 0.013205173394687119 0 -0.0017389273196257216 0.011749900620361933 0 -0.0021989298872929909 0.011666400416082226 0 -0.0024565772174030584 0.012029210484791953 0 -0.0018955544461268913 0.013114461296143956 0 -0.0018800552433080279 0.013133955054742455 0 -0.0018339026244435107 0.0131771066410931 0 -0.0025174230350049238 0.013205173394687119 0 -0.0019803050091458142 0.01370505978545461 0 -0.0018800552433080279 0.013133955054742455 0 -0.0018940291435429035 0.013123001485562223 0 -0.0018339026244435107 0.0131771066410931 0 -0.0018955544461268913 0.013114461296143956 0 -0.0018800552433080279 0.013133955054742455 0 -0.0018884698834417224 0.013114573237318091 0 -0.0018800552433080279 0.013133955054742455 0 -0.0018884698834417224 0.013114573237318091 0 -0.0018909675725254907 0.013115658594195912 0 -0.0018800552433080279 0.013133955054742455 0 -0.0018940291435429035 0.013123001485562223 0 -0.0018909675725254907 0.013115658594195912 0 -0.0018940291435429035 0.013123001485562223 0 -0.0018285460092903856 0.01315742979011957 0 -0.0018339026244435107 0.0131771066410931 0 -0.0018940291435429035 0.013123001485562223 0 -0.0018285460092903856 0.01315742979011957 0 -0.0019236527073085514 0.013089715390886049 0 -0.0021568104507959183 0.014035592282984859 0 -0.0016235752515310596 0.013907565823394951 0 -0.0016250481320019331 0.013282413402996367 0 -0.0019803050091458142 0.01370505978545461 0 -0.0016448153288184612 0.0132470375604127 0 -0.0018285460092903856 0.01315742979011957 0 -0.0018339026244435107 0.0131771066410931 0 -0.0016250481320019331 0.013282413402996367 0 -0.0026076827525332944 0.014672683648696991 0 -0.0021568104507959183 0.014035592282984859 0 -0.001938555901871943 0.014438009861144626 0 -0.0021568104507959183 0.014035592282984859 0 -0.001938555901871943 0.014438009861144626 0 -0.0016235752515310596 0.013907565823394951 0 -0.0011554131833323058 0.014787007985134437 0 -0.0019650084664172263 0.014497547504728836 0 -0.0012354260656339169 0.014213811131779924 0 -0.0020314091426272404 0.014598274242152617 0 -0.0012468341284022151 0.014199813730788309 0 -0.001938555901871943 0.014438009861144626 0 -0.0016235752515310596 0.013907565823394951 0 -0.0012354260656339169 0.014213811131779924 0 -0.0016235752515310596 0.013907565823394951 0 -0.0011659516968693703 0.013593491908729065 0 -0.0016250481320019331 0.013282413402996367 0 -0.0016235752515310596 0.013907565823394951 0 -0.0011659516968693703 0.013593491908729065 0 -0.0012354260656339169 0.014213811131779924 0 -0.00072457696491170891 0.014013328073448154 0 -0.0011659516968693703 0.013593491908729065 0 -0.00072106177340829504 0.013284213592785471 0 -0.00072457696491170891 0.014013328073448154 0 -0.0011659516968693703 0.013593491908729065 0 -0.0012354260656339169 0.014213811131779924 0 -0.00027404662695246847 0.01450765788068813 0 -0.0011554131833323058 0.014787007985134437 0 -0.00072457696491170891 0.014013328073448154 0 -0.0011554131833323058 0.014787007985134437 0 -0.00072457696491170891 0.014013328073448154 0 -0.0012354260656339169 0.014213811131779924 0 -0.0004507970966391109 0.0033753890396831456 0 -0.00024948516925245659 0.0033325852547823622 0 -0.00026590985184780594 0.0032263781272872487 0 -0.00037248763120899296 0.0033111624327629287 0 -0.00026583637416884617 0.003314296284246883 0 -0.00026590985184780594 0.0032263781272872487 0 -0.00017475221852109881 0.003250383605685238 0 -0.00026583637416884617 0.003314296284246883 0 -0.00026590985184780594 0.0032263781272872487 0 -0.00017475221852109881 0.003250383605685238 0 -0.00016810252833902105 0.0031718763479846156 0 -0.00012805851102486591 0.0030921456961412346 0 -0.00023883561437533279 0.0031380873981710694 0 -0.00016810252833902105 0.0031718763479846156 0 -0.00026590985184780594 0.0032263781272872487 0 -0.00023883561437533279 0.0031380873981710694 0 -0.00016810252833902105 0.0031718763479846156 0 -0.00032231985141330309 0.0032029724806676612 0 -0.00014158974071623226 0.0029252936833634355 0 -0.00026590985184780594 0.0032263781272872487 0 -0.00023883561437533279 0.0031380873981710694 0 -0.00035702995460053981 0.0032066682652851408 0 -0.0002732602103925673 0.0030971023711308964 0 -0.00023883561437533279 0.0031380873981710694 0 -0.00025160137850515241 0.0031651766683690086 0 -0.00024252059592612556 0.00312809812527902 0 -0.00025160137850515241 0.0031651766683690086 0 -0.00027286694266093886 0.0031843110190027265 0 0.00030256739030754703 0.0018141990450657713 0 -0.00059113997994298664 0.0072106221447716294 0 -0.00024252059592612556 0.00312809812527902 0 -0.00027286694266093886 0.0031843110190027265 0 -0.000310232125412017 0.0032005021604698336 0 -0.00027286694266093886 0.0031843110190027265 0 -0.000310232125412017 0.0032005021604698336 0 -0.00029450045722409219 0.0032358128879782931 0 -0.00035702995460053981 0.0032066682652851408 0 -0.00048660454518051951 0.0032886544034292642 0 -0.00047575263318389228 0.0033166198534840376 0 -0.0013147750025805673 0.0095556014015443121 0 -0.00061988354923103825 0.0075844143406680808 0 -8.749323584039517e-05 0.0090781619948921977 0 -0.00059113997994298664 0.0072106221447716294 0 -0.00052383383575661303 0.0061807719590196968 0 -0.0016936553059636709 0.010624924961524701 0 -0.00052383383575661303 0.0061807719590196968 0 -0.0016936553059636709 0.010624924961524701 0 -0.00061530877648785097 0.0070556793724927784 0 -0.0018886036717860293 0.013102131738626677 0 -0.0018884698834417224 0.013114573237318091 0 -0.0018870830506125193 0.01309122556942267 0 -0.0012397401649962827 0.0084308340823912118 0 -0.00097947499915314947 0.0083228326892541872 0 -0.00092305779469722678 0.0084798090260937986 0 -0.00052383383575661303 0.0061807719590196968 0 -0.00061530877648785097 0.0070556793724927784 0 -0.00014158974071623226 0.0029252936833634355 0 -0.00052383383575661303 0.0061807719590196968 0 -0.00026590985184780594 0.0032263781272872487 0 -0.00035702995460053981 0.0032066682652851408 0 -0.00037248763120899296 0.0033111624327629287 0 -0.00061530877648785097 0.0070556793724927784 0 -0.0004507970966391109 0.0033753890396831456 0 -0.00025160137850515241 0.0031651766683690086 0 -0.00027286694266093886 0.0031843110190027265 0 -0.00029450045722409219 0.0032358128879782931 0 -0.00035702995460053981 0.0032066682652851408 0 -0.00047575263318389228 0.0033166198534840376 0 -0.00037248763120899296 0.0033111624327629287 0 -0.00040671038133563881 0.003386337984080401 0 -0.00034721037498053797 0.0033574588600596019 0 -0.00039179193702135634 0.0034360938431440198 0 -0.00034721037498053797 0.0033574588600596019 0 -0.0003255417202212071 0.0034114358939309635 0 -0.00039179193702135634 0.0034360938431440198 0 -0.00061530877648785097 0.0070556793724927784 0 -0.0011012415969241828 0.0084512588990325738 0 -0.0018870830506125193 0.01309122556942267 0 -0.0018909675725254907 0.013115658594195912 0 -0.0019049488341142773 0.013090823482332399 0 -0.0018940291435429035 0.013123001485562223 0 -0.0018909675725254907 0.013115658594195912 0 -0.0019049488341142773 0.013090823482332399 0 -0.0018884698834417224 0.013114573237318091 0 -0.0018870830506125193 0.01309122556942267 0 -0.0018909675725254907 0.013115658594195912 0 -0.0018940291435429035 0.013123001485562223 0 -0.0019049488341142773 0.013090823482332399 0 -0.0019231585367732403 0.013054703851591192 0 -0.0018940291435429035 0.013123001485562223 0 -0.0019231585367732403 0.013054703851591192 0 -0.0019236527073085514 0.013089715390886049 0 -0.0003255417202212071 0.0034114358939309635 0 -0.00039179193702135634 0.0034360938431440198 0 -0.0003726089581630802 0.0035311135480555335 0 -0.0011012415969241828 0.0084512588990325738 0 -0.0012107792057632185 0.0081447543063277918 0 -0.0012107792057632185 0.0081447543063277918 0 -9.5625767757211451e-05 0.0027015667894662925 0 -0.0003255417202212071 0.0034114358939309635 0 -0.0003726089581630802 0.0035311135480555335 0 -0.0002399441007252884 0.0034430717912263703 0 -0.0002399441007252884 0.0034430717912263703 0 -0.00026583637416884617 0.003314296284246883 0 -0.00018456969793206318 0.0033287983478748413 0 -0.0003255417202212071 0.0034114358939309635 0 -0.0002399441007252884 0.0034430717912263703 0 -0.00026583637416884617 0.003314296284246883 0 -0.00034721037498053797 0.0033574588600596019 0 -0.0003255417202212071 0.0034114358939309635 0 -0.00026583637416884617 0.003314296284246883 0 -0.00017475221852109881 0.003250383605685238 0 -0.00026583637416884617 0.003314296284246883 0 -0.00018456969793206318 0.0033287983478748413 0 -0.00036666267732173366 0.002980430000015332 0 -0.00048299049435081927 0.0029622518947851296 0 -0.00041123692529672264 0.0029910149287183134 0 -0.00032830320904537807 0.0032148098790453087 0 -9.5625767757211451e-05 0.0027015667894662925 0 -0.00012035137282286472 0.0033176400193595905 0 -0.0002399441007252884 0.0034430717912263703 0 -0.00018456969793206318 0.0033287983478748413 0 -0.00048299049435081927 0.0029622518947851296 0 -0.00041123692529672264 0.0029910149287183134 0 -0.00050564669548749811 0.0030218361845690844 0 -0.00041123692529672264 0.0029910149287183134 0 -0.00044544680064718793 0.0030314193017523449 0 -0.00050564669548749811 0.0030218361845690844 0 -0.00044544680064718793 0.0030314193017523449 0 -0.00050564669548749811 0.0030218361845690844 0 -0.00059173352551132683 0.0030893263645881981 0 -0.00058955782741794643 0.0030223241738011439 0 -0.00048299049435081927 0.0029622518947851296 0 -0.00050564669548749811 0.0030218361845690844 0 -0.00058955782741794643 0.0030223241738011439 0 -0.00050564669548749811 0.0030218361845690844 0 -0.00059173352551132683 0.0030893263645881981 0 -0.0012107792057632185 0.0081447543063277918 0 -0.0014130386515044705 0.0075512438179854086 0 -0.0022210156929800512 0.01309981475366904 0 -0.0020883338842893405 0.012848202789988128 0 -0.0023686119283832007 0.012750637091284512 0 -0.0012107792057632185 0.0081447543063277918 0 -0.0024970985424735627 0.014055677313747026 0 -0.0022210156929800512 0.01309981475366904 0 -0.0020883338842893405 0.012848202789988128 0 -0.0019236527073085514 0.013089715390886049 0 -0.0020883338842893405 0.012848202789988128 0 -0.0023686119283832007 0.012750637091284512 0 -0.0021591498483544526 0.012565811982850944 0 -0.0023686119283832007 0.012750637091284512 0 -0.0021591498483544526 0.012565811982850944 0 -0.0025283924305034601 0.012336435698667318 0 -0.0033338407950081585 0.016872527567576675 0 -0.0016097709761542023 0.016598105645421045 0 -0.0020883338842893405 0.012848202789988128 0 -0.0021591498483544526 0.012565811982850944 0 -0.0018641351967684696 0.012792647033310012 0 -0.0040291266348208878 0.019652377913758942 0 -0.0013346464762038221 0.020667729330917477 0 -0.0024359456066452342 0.019015526485443877 0 -0.0040291266348208878 0.019652377913758942 0 -0.0024359456066452342 0.019015526485443877 0 -0.0030659867405535509 0.016745952614168332 0 -0.0033338407950081585 0.016872527567576675 0 -0.0025470587537434679 0.0096504139535317519 0 -0.0040291266348208878 0.019652377913758942 0 -0.0052546765535049023 0.017357103123883097 0 -0.0030659867405535509 0.016745952614168332 0 -0.0040291266348208878 0.019652377913758942 0 -0.0067677574065809921 0.018227915973424172 0 -0.0052546765535049023 0.017357103123883097 0 -0.0067677574065809921 0.018227915973424172 0 -0.0072918707401518155 0.016672024492695649 0 -0.0052546765535049023 0.017357103123883097 0 -0.00064219727826158614 0.0033888033240552333 0 -0.00056943630817038124 0.0035065558075886298 0 -0.00047970900825221232 0.0032238625903846228 0 -0.0025470587537434679 0.0096504139535317519 0 -0.0020891068323627342 0.010257261310730263 0 -0.00078310473265015275 0.0034312615721267333 0 -0.00056943630817038124 0.0035065558075886298 0 -0.00061534806202433753 0.0038967979561313477 0 -0.0025470587537434679 0.0096504139535317519 0 -0.0021718292529934319 0.0071679429586129608 0 -0.00056943630817038124 0.0035065558075886298 0 -0.00047970900825221232 0.0032238625903846228 0 -3.7238202528298492e-05 0.0035560808488914312 0 -0.00056943630817038124 0.0035065558075886298 0 -0.00061534806202433753 0.0038967979561313477 0 -3.7238202528298492e-05 0.0035560808488914312 0 -0.00047970900825221232 0.0032238625903846228 0 -0.00038122642468994659 0.0032231207307459359 0 -0.00039140000584472881 0.003189794120988243 0 -0.00047970900825221232 0.0032238625903846228 0 -0.00039140000584472881 0.003189794120988243 0 -0.00040695189547283761 0.0031634575528610297 0 -0.00053410334624485578 0.0031621554462762211 0 5.6419926703800018e-05 0.0035622496855613893 0 -0.00044544680064718793 0.0030314193017523449 0 -0.00047970900825221232 0.0032238625903846228 0 -0.00040695189547283761 0.0031634575528610297 0 -0.00044544680064718793 0.0030314193017523449 0 -0.00059173352551132683 0.0030893263645881981 0 -0.00047970900825221232 0.0032238625903846228 0 -0.0014130386515044705 0.0075512438179854086 0 -0.0025470587537434679 0.0096504139535317519 0 -0.00059173352551132683 0.0030893263645881981 0 -0.00064219727826158614 0.0033888033240552333 0 -0.00047970900825221232 0.0032238625903846228 0 -0.00020630196549440902 0.020642192959492905 0 -0.00011182657084521169 0.020979791933645235 0 -0.00052998847020373685 0.020830175211956455 0 -0.00034135691010899789 0.01685088548996792 0 -0.0010497364914521237 0.016937187573404747 0 -0.0011659516968693703 0.013593491908729065 0 -0.00072106177340829504 0.013284213592785471 0 -0.0015585147086573489 0.012919934944736962 0 -0.0011659516968693703 0.013593491908729065 0 -0.0016250481320019331 0.013282413402996367 0 -0.0015585147086573489 0.012919934944736962 0 -0.00020630196549440902 0.020642192959492905 0 -0.00052998847020373685 0.020830175211956455 0 -0.00062424914409457981 0.020329886247913629 0 -0.00052998847020373685 0.020830175211956455 0 -0.0013346464762038221 0.020667729330917477 0 -0.00062424914409457981 0.020329886247913629 0 -0.0010497364914521237 0.016937187573404747 0 -0.0016097709761542023 0.016598105645421045 0 -0.0015585147086573489 0.012919934944736962 0 -0.0017985617766044025 0.01301710986675121 0 -0.0018641351967684696 0.012792647033310012 0 -0.0016250481320019331 0.013282413402996367 0 -0.0015585147086573489 0.012919934944736962 0 -0.0017985617766044025 0.01301710986675121 0 -0.0018285460092903856 0.01315742979011957 0 -0.0016250481320019331 0.013282413402996367 0 -0.0017985617766044025 0.01301710986675121 0 -0.0018285460092903856 0.01315742979011957 0 -0.0017985617766044025 0.01301710986675121 0 -0.0019236527073085514 0.013089715390886049 0 -0.0020883338842893405 0.012848202789988128 0 -0.0019236527073085514 0.013089715390886049 0 -0.0018641351967684696 0.012792647033310012 0 -0.0017985617766044025 0.01301710986675121 0 -0.0019236527073085514 0.013089715390886049 0 -0.0018641351967684696 0.012792647033310012 0 -0.0013346464762038221 0.020667729330917477 0 -0.0024359456066452342 0.019015526485443877 0 -0.00095867105518164151 0.019920264442326995 0 -0.0024359456066452342 0.019015526485443877 0 -0.00095867105518164151 0.019920264442326995 0 -0.00015502970200574539 0.016660888977191726 0 -0.00091845249035172694 0.019816950503194639 0 -0.00068691126993374822 0.018199229987477722 0 -0.00077342191450721198 0.020011308697583826 0 -0.00095867105518164151 0.019920264442326995 0 -0.0011045342081124597 0.019780200317296753 0 -0.00077342191450721198 0.020011308697583826 0 -0.00095867105518164151 0.019920264442326995 0 -0.00062424914409457981 0.020329886247913629 0 -0.0013346464762038221 0.020667729330917477 0 -0.00095867105518164151 0.019920264442326995 0 -0.00062424914409457981 0.020329886247913629 0 -0.00020630196549440902 0.020642192959492905 0 -0.00062424914409457981 0.020329886247913629 0 -0.00039535039008597328 0.020228562920541947 0 -0.00077342191450721198 0.020011308697583826 0 -0.00039535039008597328 0.020228562920541947 0 -0.00063407043164713083 0.01987650841522276 0 -0.00077342191450721198 0.020011308697583826 0 -0.00062424914409457981 0.020329886247913629 0 -0.00039535039008597328 0.020228562920541947 0 -0.00039535039008597328 0.020228562920541947 0 -0.00028884771122098018 0.019915613538706474 0 -0.00063407043164713083 0.01987650841522276 0 -1.9618373364147793e-05 0.020358088966088168 0 -0.00039535039008597328 0.020228562920541947 0 -0.00028884771122098018 0.019915613538706474 0 -1.9618373364147793e-05 0.020358088966088168 0 -0.00020630196549440902 0.020642192959492905 0 -0.00039535039008597328 0.020228562920541947 0 -9.8140805752923197e-05 0.019184444173355054 0 -0.00028884771122098018 0.019915613538706474 0 -0.00051114106232183465 0.019395774122079545 0 7.216485183232882e-06 0.019812349321450255 0 -9.8140805752923197e-05 0.019184444173355054 0 -0.00028884771122098018 0.019915613538706474 0 -1.9618373364147793e-05 0.020358088966088168 0 7.216485183232882e-06 0.019812349321450255 0 -0.00028884771122098018 0.019915613538706474 0 -0.00028884771122098018 0.019915613538706474 0 -0.00063407043164713083 0.01987650841522276 0 -0.00051114106232183465 0.019395774122079545 0 -0.00063407043164713083 0.01987650841522276 0 -0.00051114106232183465 0.019395774122079545 0 -0.0011045342081124597 0.019780200317296753 0 -0.00087989554710227473 0.019089211422752356 0 -0.0013883836825048237 0.018461476318734005 0 -0.0003607086374797477 0.018560167932723835 0 -9.8140805752923197e-05 0.019184444173355054 0 -0.00051114106232183465 0.019395774122079545 0 -0.0003607086374797477 0.018560167932723835 0 -0.00087989554710227473 0.019089211422752356 0 -0.00051114106232183465 0.019395774122079545 0 -0.0011045342081124597 0.019780200317296753 0 -0.00087989554710227473 0.019089211422752356 0 -0.00051114106232183465 0.019395774122079545 0 -0.0003607086374797477 0.018560167932723835 0 -0.00087989554710227473 0.019089211422752356 0 -0.0011045342081124597 0.019780200317296753 0 -0.0013883836825048237 0.018461476318734005 0 -0.00015502970200574539 0.016660888977191726 0 -0.0010812037254151637 0.01488687532602832 0 -7.3451986571264677e-05 0.013487979209055419 0 -0.00068691126993374822 0.018199229987477722 0 -0.00062967497191726508 0.016025251824090675 0 -0.00077342191450721198 0.020011308697583826 0 -0.00063407043164713083 0.01987650841522276 0 -0.0011045342081124597 0.019780200317296753 0 -0.0024359456066452342 0.019015526485443877 0 -0.00015502970200574539 0.016660888977191726 0 -0.0030659867405535509 0.016745952614168332 0 -0.00015502970200574539 0.016660888977191726 0 -0.0010812037254151637 0.01488687532602832 0 -0.0030659867405535509 0.016745952614168332 0 -0.0010812037254151637 0.01488687532602832 0 -0.00019335717421395184 0.013377143785663521 0 -0.0027293548050711541 0.014284029159035663 0 -0.0010812037254151637 0.01488687532602832 0 -0.0030659867405535509 0.016745952614168332 0 -0.0027293548050711541 0.014284029159035663 0 7.2950209980136006e-05 0.012905391098752045 0 -1.9829569469248285e-06 0.015184561904746546 0 1.8907450108567986e-06 0.012609639458507075 0 7.2950209980136006e-05 0.012905391098752045 0 -0.00019335717421395184 0.013377143785663521 0 0.00015840467037518601 0.012202722271052437 0 -0.00033833803009715072 0.013300078707087413 0 -0.0011014335509893719 0.013190803495646695 0 7.2950209980136006e-05 0.012905391098752045 0 -1.9829569469248285e-06 0.015184561904746546 0 -0.00019335717421395184 0.013377143785663521 0 -0.00013069885126794069 0.015227075806575865 0 -0.00062967497191726508 0.016025251824090675 0 -1.9829569469248285e-06 0.015184561904746546 0 -0.00019335717421395184 0.013377143785663521 0 -7.3451986571264677e-05 0.013487979209055419 0 -0.0010812037254151637 0.01488687532602832 0 -0.00019335717421395184 0.013377143785663521 0 -7.3451986571264677e-05 0.013487979209055419 0 3.2007412272027516e-06 0.018743771904057235 0 -4.2461083941480534e-06 0.015193464165774169 0 8.4455712054584122e-05 0.018219270494903551 0 -4.2461083941480534e-06 0.015193464165774169 0 -0.0013883836825048237 0.018461476318734005 0 -0.0003607086374797477 0.018560167932723835 0 -4.2461083941480534e-06 0.015193464165774169 0 -0.0003607086374797477 0.018560167932723835 0 8.4455712054584122e-05 0.018219270494903551 0 0.00019460584232934954 0.01959239377955754 0 -9.8140805752923197e-05 0.019184444173355054 0 8.4455712054584122e-05 0.018219270494903551 0 -9.8140805752923197e-05 0.019184444173355054 0 -0.0003607086374797477 0.018560167932723835 0 8.4455712054584122e-05 0.018219270494903551 0 6.4941249845895241e-06 0.011695650161773265 0 -0.00018482449436379027 0.012098885661145141 0 0.00021151681957070747 0.01186836094582166 0 6.4941249845895241e-06 0.011695650161773265 0 -0.00018482449436379027 0.012098885661145141 0 -0.00037723008764147908 0.011285643377728916 0 -0.0020891068323627342 0.010257261310730263 0 -0.00029951587999243822 0.0088422641254676856 0 -0.00099328562672231142 0.0060900404734970824 0 -0.00075896783630684467 0.0068602067424222337 0 -0.00039891328853450551 0.0063680103333581435 0 -0.0020891068323627342 0.010257261310730263 0 5.6419926703800018e-05 0.0035622496855613893 0 -0.00099328562672231142 0.0060900404734970824 0 -0.00039891328853450551 0.0063680103333581435 0 -0.00043788397400818137 0.0058017527557633836 0 -0.0020891068323627342 0.010257261310730263 0 -0.0029378927088216673 0.014288436047754033 0 -0.0072918707401518155 0.016672024492695649 0 -0.0052546765535049023 0.017357103123883097 0 -0.005067372843579168 0.015538101310709523 0 -0.0052546765535049023 0.017357103123883097 0 -0.0030659867405535509 0.016745952614168332 0 -0.005067372843579168 0.015538101310709523 0 -0.0030659867405535509 0.016745952614168332 0 -0.0027293548050711541 0.014284029159035663 0 -0.005067372843579168 0.015538101310709523 0 -0.0011014335509893719 0.013190803495646695 0 -0.0029378927088216673 0.014288436047754033 0 0.00015840467037518601 0.012202722271052437 0 0.00021151681957070747 0.01186836094582166 0 0.00026393952525349584 0.01160131191360763 0 6.4941249845895241e-06 0.011695650161773265 0 0.00021151681957070747 0.01186836094582166 0 0.00026393952525349584 0.01160131191360763 0 0.00026393952525349584 0.01160131191360763 0 1.8907450108567986e-06 0.012609639458507075 0 0.00012453758955166376 0.010822977653284533 0 7.2950209980136006e-05 0.012905391098752045 0 0.00015840467037518601 0.012202722271052437 0 0.00026393952525349584 0.01160131191360763 0 7.2950209980136006e-05 0.012905391098752045 0 0.00026393952525349584 0.01160131191360763 0 1.8907450108567986e-06 0.012609639458507075 0 1.8907450108567986e-06 0.012609639458507075 0 0.00012453758955166376 0.010822977653284533 0 -2.0574332998537692e-06 0.0085091499796371428 0 6.4941249845895241e-06 0.011695650161773265 0 0.00026393952525349584 0.01160131191360763 0 -0.00037723008764147908 0.011285643377728916 0 0.00026393952525349584 0.01160131191360763 0 0.00012453758955166376 0.010822977653284533 0 -0.00037723008764147908 0.011285643377728916 0 -0.00029951587999243822 0.0088422641254676856 0 -0.00014262083977330955 0.0087013674721090617 0 0.00012453758955166376 0.010822977653284533 0 -0.00037723008764147908 0.011285643377728916 0 -2.0574332998537692e-06 0.0085091499796371428 0 1.2781450239799962e-06 0.0081633253233592828 0 0.00010106550277869281 0.0068498905312385627 0 8.4962481164011403e-05 0.0050688732758338833 0 1.2781450239799962e-06 0.0081633253233592828 0 8.4962481164011403e-05 0.0050688732758338833 0 -7.6149537362292029e-07 0.0029583638541621203 0 1.2781450239799962e-06 0.0081633253233592828 0 -1.8062243662672002e-06 0.0085023167175916452 0 0.00010106550277869281 0.0068498905312385627 0 -0.00075896783630684467 0.0068602067424222337 0 -1.8062243662672002e-06 0.0085023167175916452 0 0.00010106550277869281 0.0068498905312385627 0 0.00010106550277869281 0.0068498905312385627 0 0.0001259474550534541 0.0062552804462689994 0 8.4962481164011403e-05 0.0050688732758338833 0 0.00015619584384706715 0.0047754195815360367 0 0.0001961777390555138 0.0041338672298077599 0 0.00014114026280022908 0.0033813482967981058 0 0.0001758285103717369 0.0033106478911394035 0 0.00019605986936144888 0.0032106373046183138 0 0.00014114026280022908 0.0033813482967981058 0 7.4748879921547745e-05 0.0033187070978099001 0 0.0001933644362011738 0.0033174379986710824 0 0.00014114026280022908 0.0033813482967981058 0 0.0001933644362011738 0.0033174379986710824 0 0.0001758285103717369 0.0033106478911394035 0 0.00014114026280022908 0.0033813482967981058 0 7.4748879921547745e-05 0.0033187070978099001 0 -0.00012026834335073949 0.0033780953348729317 0 0.00015619584384706715 0.0047754195815360367 0 -6.9439601291773571e-05 0.0049313658543460037 0 7.4748879921547745e-05 0.0033187070978099001 0 -0.00012026834335073949 0.0033780953348729317 0 -1.689956984822607e-05 0.0032471032863721611 0 7.4748879921547745e-05 0.0033187070978099001 0 -1.689956984822607e-05 0.0032471032863721611 0 0.00013529451455673519 0.0032276148880542224 0 7.4748879921547745e-05 0.0033187070978099001 0 0.0001933644362011738 0.0033174379986710824 0 0.00013529451455673519 0.0032276148880542224 0 0.0001933644362011738 0.0033174379986710824 0 0.00013529451455673519 0.0032276148880542224 0 0.00028067253654259484 0.003240823410763091 0 0.00010106550277869281 0.0068498905312385627 0 -0.00039891328853450551 0.0063680103333581435 0 7.2810255730316171e-05 0.0062612736546036 0 -0.00075896783630684467 0.0068602067424222337 0 0.00010106550277869281 0.0068498905312385627 0 -0.00039891328853450551 0.0063680103333581435 0 0.00010106550277869281 0.0068498905312385627 0 0.0001259474550534541 0.0062552804462689994 0 7.2810255730316171e-05 0.0062612736546036 0 -0.00012026834335073949 0.0033780953348729317 0 -0.00015607821527142667 0.0031968787309326332 0 -1.689956984822607e-05 0.0032471032863721611 0 -0.00012026834335073949 0.0033780953348729317 0 -0.00040067522236644928 0.003242430841986436 0 -0.00034340927632574758 0.0032103338117308636 0 -0.00039891328853450551 0.0063680103333581435 0 7.2810255730316171e-05 0.0062612736546036 0 -0.00043788397400818137 0.0058017527557633836 0 -6.9439601291773571e-05 0.0049313658543460037 0 5.6419926703800018e-05 0.0035622496855613893 0 5.6419926703800018e-05 0.0035622496855613893 0 -0.00013313761548598832 0.003511860796465139 0 -0.00038122642468994659 0.0032231207307459359 0 -0.00034340927632574758 0.0032103338117308636 0 -0.00039140000584472881 0.003189794120988243 0 -0.00034340927632574758 0.0032103338117308636 0 -0.00034507916391265486 0.0031266631974689722 0 -0.00025387773774869878 0.003190884163535853 0 -0.00034507916391265486 0.0031266631974689722 0 -0.00030295222510107493 0.0030422202489074901 0 -0.00025387773774869878 0.003190884163535853 0 -0.00034340927632574758 0.0032103338117308636 0 -0.00039140000584472881 0.003189794120988243 0 -0.00034507916391265486 0.0031266631974689722 0 -0.00039140000584472881 0.003189794120988243 0 -0.00040695189547283761 0.0031634575528610297 0 -0.00034507916391265486 0.0031266631974689722 0 -0.00044544680064718793 0.0030314193017523449 0 -0.00034507916391265486 0.0031266631974689722 0 -0.00030295222510107493 0.0030422202489074901 0 -0.00044544680064718793 0.0030314193017523449 0 -0.00040695189547283761 0.0031634575528610297 0 -0.00034507916391265486 0.0031266631974689722 0 -0.00030295222510107493 0.0030422202489074901 0 -3.6058039618140351e-05 0.0031192130346689613 0 -9.442315661877146e-05 0.0029041320349926466 0 -0.00030295222510107493 0.0030422202489074901 0 -9.442315661877146e-05 0.0029041320349926466 0 -0.00044474589914141331 0.0028583438403929394 0 -0.00012026834335073949 0.0033780953348729317 0 -0.00025387773774869878 0.003190884163535853 0 -0.00015607821527142667 0.0031968787309326332 0 -0.00012026834335073949 0.0033780953348729317 0 -0.00034340927632574758 0.0032103338117308636 0 -0.00025387773774869878 0.003190884163535853 0 -0.00030295222510107493 0.0030422202489074901 0 -0.00015607821527142667 0.0031968787309326332 0 -3.6058039618140351e-05 0.0031192130346689613 0 -0.00030295222510107493 0.0030422202489074901 0 -0.00025387773774869878 0.003190884163535853 0 -0.00015607821527142667 0.0031968787309326332 0 -0.00015607821527142667 0.0031968787309326332 0 -1.689956984822607e-05 0.0032471032863721611 0 -3.6058039618140351e-05 0.0031192130346689613 0 -3.6058039618140351e-05 0.0031192130346689613 0 0.00013529451455673519 0.0032276148880542224 0 0.0002354655316813888 0.003043742843691567 0 -1.689956984822607e-05 0.0032471032863721611 0 -3.6058039618140351e-05 0.0031192130346689613 0 0.00013529451455673519 0.0032276148880542224 0 0.00013529451455673519 0.0032276148880542224 0 0.0002354655316813888 0.003043742843691567 0 0.00028067253654259484 0.003240823410763091 0 0.0002354655316813888 0.003043742843691567 0 0.00019468038680803393 0.0028044007855039478 0 0.00058833275062863467 0.00268874728454516 0 0.0002354655316813888 0.003043742843691567 0 -9.442315661877146e-05 0.0029041320349926466 0 0.00019468038680803393 0.0028044007855039478 0 -3.6058039618140351e-05 0.0031192130346689613 0 0.0002354655316813888 0.003043742843691567 0 -9.442315661877146e-05 0.0029041320349926466 0 -9.442315661877146e-05 0.0029041320349926466 0 0.00019468038680803393 0.0028044007855039478 0 -2.2312506712742982e-05 0.0024901036052356815 0 0.00019468038680803393 0.0028044007855039478 0 0.00068869343750939632 0.0020208557812485136 0 0.00058833275062863467 0.00268874728454516 0 0.00019468038680803393 0.0028044007855039478 0 0.00068869343750939632 0.0020208557812485136 0 -2.2312506712742982e-05 0.0024901036052356815 0 0.00068869343750939632 0.0020208557812485136 0 -1.3533346761538165e-05 0.0019446646429234513 0 -2.2312506712742982e-05 0.0024901036052356815 0 -0.00055522227634570106 0.0017690949566540675 0 -1.3533346761538165e-05 0.0019446646429234513 0 -2.2312506712742982e-05 0.0024901036052356815 0 -0.00027640095323969952 0.0030792400853150085 0 -0.00036788261769125333 0.0029967045280941871 0 -0.00044474589914141331 0.0028583438403929394 0 -0.00055522227634570106 0.0017690949566540675 0 -2.2312506712742982e-05 0.0024901036052356815 0 -0.00044474589914141331 0.0028583438403929394 0 -0.00039277917144776723 0.0023994850757894544 0 -0.0004473381325455296 0.0028014161049911804 0 -0.00041123692529672264 0.0029910149287183134 0 -0.00036788261769125333 0.0029967045280941871 0 -0.00044474589914141331 0.0028583438403929394 0 -0.00044544680064718793 0.0030314193017523449 0 -0.00030295222510107493 0.0030422202489074901 0 -0.00044474589914141331 0.0028583438403929394 0 -0.00041123692529672264 0.0029910149287183134 0 -0.00044544680064718793 0.0030314193017523449 0 -0.00044474589914141331 0.0028583438403929394 0 -9.442315661877146e-05 0.0029041320349926466 0 -2.2312506712742982e-05 0.0024901036052356815 0 -0.00044474589914141331 0.0028583438403929394 0 -0.00052648119933345749 -0.0015701597364075864 0 -0.00043194670245389404 -0.0015040736623257681 0 -0.00049366797606089144 -0.0015063373145099265 0 -0.00052648119933345749 -0.0015701597364075864 0 -0.00049366797606089144 -0.0015063373145099265 0 -0.00047242128286652046 -0.0014734456153738826 0 -0.00052648119933345749 -0.0015701597364075864 0 -0.00047242128286652046 -0.0014734456153738826 0 -0.00044265952081573204 -0.0015187350450932701 0 -0.00049629356731051429 -0.0015003216003489218 0 -0.00052648119933345749 -0.0015701597364075864 0 -0.00059459485242517476 -0.0018276009120250507 0 -0.00049629356731051429 -0.0015003216003489218 0 -0.00052648119933345749 -0.0015701597364075864 0 -0.00043194670245389404 -0.0015040736623257681 0 -0.00033901665082273694 -0.0013387368061459979 0 -0.00049629356731051429 -0.0015003216003489218 0 -0.00043194670245389404 -0.0015040736623257681 0 -0.00018156259609101194 -0.0014264183296844608 0 -0.00043194670245389404 -0.0015040736623257681 0 -0.00036304603417173777 -0.0014984569331941335 0 0.00025265427043738949 0.00028631185477557576 0 0.00011425189817166325 0.00060341929676286819 0 -0.00033901665082273694 -0.0013387368061459979 0 -0.00018156259609101194 -0.0014264183296844608 0 -0.00043194670245389404 -0.0015040736623257681 0 -0.00043194670245389404 -0.0015040736623257681 0 -0.00036304603417173777 -0.0014984569331941335 0 -0.00047239101798041583 -0.0014850029594596691 0 -0.00043194670245389404 -0.0015040736623257681 0 -0.00047239101798041583 -0.0014850029594596691 0 -0.00049366797606089144 -0.0015063373145099265 0 0.0002354655316813888 0.003043742843691567 0 0.00058833275062863467 0.00268874728454516 0 0.0004601243944645756 0.0030845522239831614 0 -0.00036304603417173777 -0.0014984569331941335 0 -0.00047239101798041583 -0.0014850029594596691 0 -0.00048559516483933333 -0.0014534006515407303 0 0.00011425189817166325 0.00060341929676286819 0 6.0375008807362953e-06 0.00074114173924196491 0 6.0375008807362953e-06 0.00074114173924196491 0 -0.00021355477726207818 0.0013679183788476905 0 0.0004601243944645756 0.0030845522239831614 0 0.00028067253654259484 0.003240823410763091 0 0.00046505525120377428 0.0033920590159051962 0 -0.00048559516483933333 -0.0014534006515407303 0 -0.00050814465059464389 -0.0014270647964336118 0 -0.00054541844510944983 -0.0013764384243361532 0 0.0002354655316813888 0.003043742843691567 0 0.0004601243944645756 0.0030845522239831614 0 0.00028067253654259484 0.003240823410763091 0 -0.00047239101798041583 -0.0014850029594596691 0 -0.00050814465059464389 -0.0014270647964336118 0 -0.00049761268313918859 -0.0014370387146387701 0 -0.00047239101798041583 -0.0014850029594596691 0 -0.00048559516483933333 -0.0014534006515407303 0 -0.00050814465059464389 -0.0014270647964336118 0 -0.00050814465059464389 -0.0014270647964336118 0 -0.00049761268313918859 -0.0014370387146387701 0 -0.00053042978492313464 -0.0013820146172616129 0 -0.00049761268313918859 -0.0014370387146387701 0 -0.00048836730897951067 -0.0014696496760358674 0 -0.00047074736159714457 -0.0014420918494080859 0 -0.00049761268313918859 -0.0014370387146387701 0 -0.00047074736159714457 -0.0014420918494080859 0 -0.000463556338954717 -0.0014171166920633413 0 -0.00049366797606089144 -0.0015063373145099265 0 -0.00048836730897951067 -0.0014696496760358674 0 -0.00047074736159714457 -0.0014420918494080859 0 -0.00047239101798041583 -0.0014850029594596691 0 -0.00049761268313918859 -0.0014370387146387701 0 -0.00048836730897951067 -0.0014696496760358674 0 -0.00047239101798041583 -0.0014850029594596691 0 -0.00049366797606089144 -0.0015063373145099265 0 -0.00048836730897951067 -0.0014696496760358674 0 -0.00049366797606089144 -0.0015063373145099265 0 -0.00047242128286652046 -0.0014734456153738826 0 -0.00047074736159714457 -0.0014420918494080859 0 -0.00047242128286652046 -0.0014734456153738826 0 -0.00044865355088818476 -0.0014311436534576066 0 -0.00047074736159714457 -0.0014420918494080859 0 -0.00046110462264607608 -0.0014200754131308794 0 -0.00036019204075101011 -0.0015238793576027145 0 -0.00047074736159714457 -0.0014420918494080859 0 -0.000463556338954717 -0.0014171166920633413 0 -0.00043690023370955713 -0.0014071712603935512 0 -0.00044865355088818476 -0.0014311436534576066 0 -0.00047074736159714457 -0.0014420918494080859 0 -0.00043690023370955713 -0.0014071712603935512 0 -0.000463556338954717 -0.0014171166920633413 0 -0.00053042978492313464 -0.0013820146172616129 0 -0.00053848198127401782 -0.0013086281757068491 0 -0.00049761268313918859 -0.0014370387146387701 0 -0.000463556338954717 -0.0014171166920633413 0 -0.00053042978492313464 -0.0013820146172616129 0 -0.00053848198127401782 -0.0013086281757068491 0 -0.00057186480921072918 -0.001315331292241737 0 -0.00067047211164129037 -0.0011577419960598441 0 -0.00053042978492313464 -0.0013820146172616129 0 -0.00053848198127401782 -0.0013086281757068491 0 -0.00057186480921072918 -0.001315331292241737 0 -0.000463556338954717 -0.0014171166920633413 0 -0.00053848198127401782 -0.0013086281757068491 0 -0.00030955807439229292 -0.0012734561275974268 0 -0.00053848198127401782 -0.0013086281757068491 0 -0.00047138237288294979 -0.0012061130411486823 0 -0.00030955807439229292 -0.0012734561275974268 0 0.0001933644362011738 0.0033174379986710824 0 0.00028067253654259484 0.003240823410763091 0 0.00019384988659197093 0.0033136505078073288 0 0.00068991180556098031 0.0037019625229197375 0 -0.00021355477726207818 0.0013679183788476905 0 -0.00050814465059464389 -0.0014270647964336118 0 -0.00053042978492313464 -0.0013820146172616129 0 -0.00054541844510944983 -0.0013764384243361532 0 -0.00053042978492313464 -0.0013820146172616129 0 -0.00054541844510944983 -0.0013764384243361532 0 -0.00057186480921072918 -0.001315331292241737 0 -0.00021355477726207818 0.0013679183788476905 0 -0.00051832120507823475 -0.0004911633769154681 0 -0.00057674124658450507 0.00043352150473319396 0 -9.912994861874476e-05 0.00086038306858067981 0 -0.00046497349309293978 0.0011496385815968858 0 -0.00021355477726207818 0.0013679183788476905 0 -0.00017472503837303877 0.0023033112474087529 0 0.00019384988659197093 0.0033136505078073288 0 0.0001758285103717369 0.0033106478911394035 0 5.8862004231002227e-05 0.0032558007355206185 0 0.0001933644362011738 0.0033174379986710824 0 0.00019384988659197093 0.0033136505078073288 0 0.0001758285103717369 0.0033106478911394035 0 0.0001758285103717369 0.0033106478911394035 0 0.00019605986936144888 0.0032106373046183138 0 5.8862004231002227e-05 0.0032558007355206185 0 -9.912994861874476e-05 0.00086038306858067981 0 -0.00046497349309293978 0.0011496385815968858 0 0.00010603486855990295 0.0014575159877897714 0 -0.00046497349309293978 0.0011496385815968858 0 -8.3108191439569844e-07 0.0026046220851742969 0 0.00010603486855990295 0.0014575159877897714 0 5.8862004231002227e-05 0.0032558007355206185 0 4.6111994673666308e-07 0.0029494830801019539 0 -4.2790400758229692e-07 0.002612726951169069 0 -0.00017472503837303877 0.0023033112474087529 0 -1.0106680676938904e-07 0.0026072737880654295 0 0.00019605986936144888 0.0032106373046183138 0 5.8862004231002227e-05 0.0032558007355206185 0 4.6111994673666308e-07 0.0029494830801019539 0 0.0001961777390555138 0.0041338672298077599 0 -4.9456136151969115e-07 0.0031600870606856672 0 -0.0004390749938012156 -0.00085783881736163875 0 -0.00047138237288294979 -0.0012061130411486823 0 -0.00030955807439229292 -0.0012734561275974268 0 -0.00044684555198064958 -0.00093041480510374166 0 -0.00022498664805382183 -0.0014159825685102557 0 -0.00053848198127401782 -0.0013086281757068491 0 -0.00067047211164129037 -0.0011577419960598441 0 -0.00047138237288294979 -0.0012061130411486823 0 -0.00067047211164129037 -0.0011577419960598441 0 -0.0004390749938012156 -0.00085783881736163875 0 -0.00047138237288294979 -0.0012061130411486823 0 -0.00051832120507823475 -0.0004911633769154681 0 -0.0001662626300885337 5.1041123552259591e-05 0 -9.912994861874476e-05 0.00086038306858067981 0 0.00013582553381516799 0.0012071017194940417 0 0.00010603486855990295 0.0014575159877897714 0 -8.3108191439569844e-07 0.0026046220851742969 0 0.00010603486855990295 0.0014575159877897714 0 3.4702118370696181e-07 0.00086867625889563657 0 0.00013582553381516799 0.0012071017194940417 0 0.00010603486855990295 0.0014575159877897714 0 3.4702118370696181e-07 0.00086867625889563657 0 0.00013582553381516799 0.0012071017194940417 0 3.4702118370696181e-07 0.00086867625889563657 0 -8.6986930266592068e-05 -0.00019550964010692177 0 -0.0001662626300885337 5.1041123552259591e-05 0 -9.3223380397264305e-05 -0.0001028724367524421 0 -0.00067047211164129037 -0.0011577419960598441 0 -0.0004390749938012156 -0.00085783881736163875 0 -8.6986930266592068e-05 -0.00019550964010692177 0 -0.0004390749938012156 -0.00085783881736163875 0 -8.6986930266592068e-05 -0.00019550964010692177 0 -0.00013804439835502367 -0.0010447123175706429 0 3.4702118370696181e-07 0.00086867625889563657 0 -8.6986930266592068e-05 -0.00019550964010692177 0 9.8385032272726677e-08 -0.00087207523986648761 0 -8.6986930266592068e-05 -0.00019550964010692177 0 9.8385032272726677e-08 -0.00087207523986648761 0 7.8418672480622193e-05 -0.001271512243918222 0 -8.6986930266592068e-05 -0.00019550964010692177 0 -0.00013804439835502367 -0.0010447123175706429 0 7.8418672480622193e-05 -0.001271512243918222 0 -0.00013804439835502367 -0.0010447123175706429 0 7.8418672480622193e-05 -0.001271512243918222 0 -0.00015685244260061452 -0.0015857403597482863 0 -0.0004390749938012156 -0.00085783881736163875 0 -0.00013804439835502367 -0.0010447123175706429 0 -0.00015685244260061452 -0.0015857403597482863 0 7.8418672480622193e-05 -0.001271512243918222 0 5.8494666768737749e-05 -0.0016439437936292493 0 -0.00015685244260061452 -0.0015857403597482863 0 7.8418672480622193e-05 -0.001271512243918222 0 5.8494666768737749e-05 -0.0016439437936292493 0 0.00014594421400369666 -0.0016839204994154736 0 9.8385032272726677e-08 -0.00087207523986648761 0 0.00014594421400369666 -0.0016839204994154736 0 -1.3649365970142458e-07 -0.0026076312734886198 0 9.8385032272726677e-08 -0.00087207523986648761 0 7.8418672480622193e-05 -0.001271512243918222 0 0.00014594421400369666 -0.0016839204994154736 0 0.00014594421400369666 -0.0016839204994154736 0 -1.3649365970142458e-07 -0.0026076312734886198 0 -5.6139328411898166e-05 -0.0016699220385593531 0 3.2198091011348839e-08 -0.0026110843842805649 0 -3.348568575907898e-05 -0.0033319818719077373 0 -0.00019434603364431726 -0.0048976410573293681 0 9.8607243275184415e-07 -0.004388624604735737 0 0.00017634554973116934 -0.0053814406121559548 0 -1.8097395520472995e-06 -0.0026134800303284833 0 -0.00019434603364431726 -0.0048976410573293681 0 9.8607243275184415e-07 -0.004388624604735737 0 -0.00019434603364431726 -0.0048976410573293681 0 0.00031394466771893909 -0.0057786676928536238 0 0.00017634554973116934 -0.0053814406121559548 0 -3.348568575907898e-05 -0.0033319818719077373 0 0.00028036341293716168 -0.0038127241120557353 0 5.8494666768737749e-05 -0.0016439437936292493 0 0.00014594421400369666 -0.0016839204994154736 0 -5.6139328411898166e-05 -0.0016699220385593531 0 5.8494666768737749e-05 -0.0016439437936292493 0 -5.6139328411898166e-05 -0.0016699220385593531 0 2.754138680927918e-05 -0.0019482517226558046 0 5.8494666768737749e-05 -0.0016439437936292493 0 2.754138680927918e-05 -0.0019482517226558046 0 -3.5251477442936517e-05 -0.0018438923006275445 0 2.754138680927918e-05 -0.0019482517226558046 0 -8.9888716575262171e-05 -0.0020407868535478875 0 -3.5251477442936517e-05 -0.0018438923006275445 0 -5.6139328411898166e-05 -0.0016699220385593531 0 2.754138680927918e-05 -0.0019482517226558046 0 0.00025895040156497212 -0.0019541097194397065 0 2.754138680927918e-05 -0.0019482517226558046 0 0.00025895040156497212 -0.0019541097194397065 0 0.00022141077467653194 -0.0022499382564976815 0 2.754138680927918e-05 -0.0019482517226558046 0 0.00022141077467653194 -0.0022499382564976815 0 0.00012481523572457277 -0.0023707795324337797 0 0.00022141077467653194 -0.0022499382564976815 0 0.00012481523572457277 -0.0023707795324337797 0 0.00025892428177040405 -0.0025074776835557352 0 -8.9888716575262171e-05 -0.0020407868535478875 0 -2.4416420672187864e-05 -0.0023052580036003545 0 -0.00020206803683649771 -0.0025270918159313025 0 -0.0001032345085027335 -0.0021686376576837631 0 -6.3593774728888978e-05 -0.0020453618948627979 0 2.754138680927918e-05 -0.0019482517226558046 0 -8.9888716575262171e-05 -0.0020407868535478875 0 -2.4416420672187864e-05 -0.0023052580036003545 0 2.754138680927918e-05 -0.0019482517226558046 0 0.00012481523572457277 -0.0023707795324337797 0 -2.4416420672187864e-05 -0.0023052580036003545 0 0.00012481523572457277 -0.0023707795324337797 0 -2.4416420672187864e-05 -0.0023052580036003545 0 5.6936638794619216e-05 -0.0025855941556799616 0 -8.9888716575262171e-05 -0.0020407868535478875 0 -0.00012069646502665802 -0.0019698787288845061 0 -8.8420770837046697e-05 -0.0020904783532136721 0 -0.00015561443595980815 -0.0016550623461275376 0 -6.3593774728888978e-05 -0.0020453618948627979 0 -0.00019173581999809715 -0.001397232289528413 0 -0.00020834098811195456 -0.0015308877775891498 0 -3.1635764183414198e-05 -0.0015705621486818582 0 -8.9888716575262171e-05 -0.0020407868535478875 0 -0.00012069646502665802 -0.0019698787288845061 0 -3.5251477442936517e-05 -0.0018438923006275445 0 -0.000463556338954717 -0.0014171166920633413 0 -0.00031319484440235764 -0.0014266166499492319 0 -0.00030955807439229292 -0.0012734561275974268 0 -0.000463556338954717 -0.0014171166920633413 0 -0.00031319484440235764 -0.0014266166499492319 0 -0.00032077063151967689 -0.001617027378335777 0 -0.00019173581999809715 -0.001397232289528413 0 -0.00031319484440235764 -0.0014266166499492319 0 -0.00020834098811195456 -0.0015308877775891498 0 -0.00019173581999809715 -0.001397232289528413 0 -0.00031319484440235764 -0.0014266166499492319 0 -0.00030955807439229292 -0.0012734561275974268 0 -0.00015561443595980815 -0.0016550623461275376 0 -0.00022498664805382183 -0.0014159825685102557 0 -0.00012069646502665802 -0.0019698787288845061 0 -0.00015685244260061452 -0.0015857403597482863 0 -3.5251477442936517e-05 -0.0018438923006275445 0 5.8494666768737749e-05 -0.0016439437936292493 0 -0.00015685244260061452 -0.0015857403597482863 0 -3.5251477442936517e-05 -0.0018438923006275445 0 8.8503308210543909e-05 -0.0067187540501819024 0 3.8846707048228017e-05 -0.0073182997322066914 0 0.00023144498223247561 -0.0066616702468655425 0 -0.00014419172678424374 -0.0068735142121016408 0 8.8503308210543909e-05 -0.0067187540501819024 0 -0.00021432777664300492 -0.0068298423388579669 0 -0.00014419172678424374 -0.0068735142121016408 0 8.8503308210543909e-05 -0.0067187540501819024 0 3.8846707048228017e-05 -0.0073182997322066914 0 -0.00014419172678424374 -0.0068735142121016408 0 3.8846707048228017e-05 -0.0073182997322066914 0 -0.00029246763822461609 -0.0073465912715771197 0 3.8846707048228017e-05 -0.0073182997322066914 0 -5.7759566923628682e-05 -0.0080467543628575579 0 -0.00029246763822461609 -0.0073465912715771197 0 3.8846707048228017e-05 -0.0073182997322066914 0 9.3981746509705528e-07 -0.0079447437135076095 0 0.00023144498223247561 -0.0066616702468655425 0 3.8846707048228017e-05 -0.0073182997322066914 0 9.3981746509705528e-07 -0.0079447437135076095 0 -5.7759566923628682e-05 -0.0080467543628575579 0 9.3981746509705528e-07 -0.0079447437135076095 0 0.00023144498223247561 -0.0066616702468655425 0 2.9674642428798639e-07 -0.006166826869303468 0 0.00023144498223247561 -0.0066616702468655425 0 0.00031301558447494184 -0.0060187357923546783 0 0.00022728494044344286 -0.0062179620163091689 0 8.8503308210543909e-05 -0.0067187540501819024 0 0.00023144498223247561 -0.0066616702468655425 0 0.00022728494044344286 -0.0062179620163091689 0 0.00023144498223247561 -0.0066616702468655425 0 0.00027684664258036058 -0.0058079820733900221 0 0.00031301558447494184 -0.0060187357923546783 0 0.00027684664258036058 -0.0058079820733900221 0 0.00033129751805111729 -0.005761359093106838 0 0.00031301558447494184 -0.0060187357923546783 0 0.00023144498223247561 -0.0066616702468655425 0 0.00027684664258036058 -0.0058079820733900221 0 2.9674642428798639e-07 -0.006166826869303468 0 0.00027684664258036058 -0.0058079820733900221 0 2.9674642428798639e-07 -0.006166826869303468 0 9.8607243275184415e-07 -0.004388624604735737 0 0.00027684664258036058 -0.0058079820733900221 0 9.8607243275184415e-07 -0.004388624604735737 0 0.00017634554973116934 -0.0053814406121559548 0 0.00027684664258036058 -0.0058079820733900221 0 0.00017634554973116934 -0.0053814406121559548 0 0.00033129751805111729 -0.005761359093106838 0 0.00031394466771893909 -0.0057786676928536238 0 0.00033129751805111729 -0.005761359093106838 0 0.00032301015857223221 -0.0056278090790397445 0 0.00031394466771893909 -0.0057786676928536238 0 0.00017634554973116934 -0.0053814406121559548 0 0.00033129751805111729 -0.005761359093106838 0 0.00031394466771893909 -0.0057786676928536238 0 0.00032301015857223221 -0.0056278090790397445 0 0.00063385968245281341 -0.004994912955469959 0 0.00025895040156497212 -0.0019541097194397065 0 0.00022141077467653194 -0.0022499382564976815 0 0.00043165811818580811 -0.002527292677968087 0 0.00028036341293716168 -0.0038127241120557353 0 0.00045310116704115318 -0.0037101719913001418 0 0.00022141077467653194 -0.0022499382564976815 0 0.00025892428177040405 -0.0025074776835557352 0 0.00043165811818580811 -0.002527292677968087 0 0.00032301015857223221 -0.0056278090790397445 0 -0.00022247037310407504 -0.0046747219745000984 0 -0.00085083077580256922 -0.0051679709694029867 0 0.00032301015857223221 -0.0056278090790397445 0 0.00063385968245281341 -0.004994912955469959 0 -0.00022247037310407504 -0.0046747219745000984 0 0.00032301015857223221 -0.0056278090790397445 0 -0.0012380147517226543 -0.006150840798035578 0 -0.00085083077580256922 -0.0051679709694029867 0 0.00032301015857223221 -0.0056278090790397445 0 0.00031301558447494184 -0.0060187357923546783 0 0.00022728494044344286 -0.0062179620163091689 0 0.00031763374126692929 -0.0057199075610407128 0 -0.00051282243162534789 -0.0060311900349416664 0 0.00033129751805111729 -0.005761359093106838 0 0.00032301015857223221 -0.0056278090790397445 0 0.00031301558447494184 -0.0060187357923546783 0 -0.00022247037310407504 -0.0046747219745000984 0 -0.00085083077580256922 -0.0051679709694029867 0 -0.0011133632669831342 -0.0039652307345174774 0 -0.00097038840449626513 -0.0083328555473281586 0 -9.9097430623432532e-05 -0.0073517331156368404 0 -0.0012380147517226543 -0.006150840798035578 0 -0.00085083077580256922 -0.0051679709694029867 0 -0.0021074070254354683 -0.0053063291912766623 0 -0.00085083077580256922 -0.0051679709694029867 0 -0.0021074070254354683 -0.0053063291912766623 0 -0.0011133632669831342 -0.0039652307345174774 0 0.00035639538843197307 -0.011270360411803768 0 0.00014271196372693025 -0.010967881277924038 0 0.00084727923664759555 -0.010757366475219715 0 0.00035639538843197307 -0.011270360411803768 0 0.00014271196372693025 -0.010967881277924038 0 7.050239300453557e-06 -0.011331533075172257 0 0.00035639538843197307 -0.011270360411803768 0 -4.8607819822425052e-05 -0.011701663447707802 0 7.050239300453557e-06 -0.011331533075172257 0 -0.00051282243162534789 -0.0060311900349416664 0 -0.0012225991352351089 -0.0078825588848074855 0 -0.00097038840449626513 -0.0083328555473281586 0 -0.00089834264157419481 -0.0090157532841568296 0 -0.0021074070254354683 -0.0053063291912766623 0 -0.0028662034005802858 -0.0066855894030628639 0 -0.0030644331601842843 -0.0065258914271361951 0 -0.0012380147517226543 -0.006150840798035578 0 -0.0021074070254354683 -0.0053063291912766623 0 -0.0028662034005802858 -0.0066855894030628639 0 8.8503308210543909e-05 -0.0067187540501819024 0 0.00022728494044344286 -0.0062179620163091689 0 -0.00021432777664300492 -0.0068298423388579669 0 0.00043517592989531661 -0.010124430951179918 0 0.00021390152997001238 -0.010568145016743717 0 -9.3455410866956118e-05 -0.010324915288383196 0 0.00043517592989531661 -0.010124430951179918 0 0.00021390152997001238 -0.010568145016743717 0 0.00084727923664759555 -0.010757366475219715 0 0.00021390152997001238 -0.010568145016743717 0 0.00014271196372693025 -0.010967881277924038 0 0.00084727923664759555 -0.010757366475219715 0 0.00043517592989531661 -0.010124430951179918 0 0.00084727923664759555 -0.010757366475219715 0 0.0013505957213535646 -0.010157454054659058 0 -9.9097430623432532e-05 -0.0073517331156368404 0 0.00065818850466093683 -0.006498660096507662 0 -0.0011133632669831342 -0.0039652307345174774 0 9.0994984176095387e-05 -0.0028102436601847767 0 0.00013200308264901743 -0.0032420313386898603 0 9.0994984176095387e-05 -0.0028102436601847767 0 0.00013200308264901743 -0.0032420313386898603 0 0.00023189198762204151 -0.002904554448007959 0 -0.00022247037310407504 -0.0046747219745000984 0 -0.0011133632669831342 -0.0039652307345174774 0 0.00013200308264901743 -0.0032420313386898603 0 0.00063385968245281341 -0.004994912955469959 0 -0.00022247037310407504 -0.0046747219745000984 0 0.00013200308264901743 -0.0032420313386898603 0 0.00045310116704115318 -0.0037101719913001418 0 0.00015253300925564489 -0.0032250222776053026 0 0.00043165811818580811 -0.002527292677968087 0 0.00025831377384948187 -0.0029521770907711062 0 0.00022285679120987502 -0.0027584508023500991 0 0.00043165811818580811 -0.002527292677968087 0 0.00013200308264901743 -0.0032420313386898603 0 0.00025831377384948187 -0.0029521770907711062 0 0.00025892428177040405 -0.0025074776835557352 0 0.00043165811818580811 -0.002527292677968087 0 0.00022285679120987502 -0.0027584508023500991 0 0.00025831377384948187 -0.0029521770907711062 0 0.00024147535041027198 -0.0029107577104745563 0 0.00022285679120987502 -0.0027584508023500991 0 0.00013200308264901743 -0.0032420313386898603 0 0.00025831377384948187 -0.0029521770907711062 0 0.00023189198762204151 -0.002904554448007959 0 0.00025831377384948187 -0.0029521770907711062 0 0.00023189198762204151 -0.002904554448007959 0 0.00024147535041027198 -0.0029107577104745563 0 0.00024147535041027198 -0.0029107577104745563 0 0.00026164337897349022 -0.0029224547495941148 0 0.0002472705773383836 -0.0029354454407557982 0 0.00065818850466093683 -0.006498660096507662 0 0.0013696391387740057 -0.0064711084539560478 0 0.00023189198762204151 -0.002904554448007959 0 0.00024147535041027198 -0.0029107577104745563 0 0.00026164337897349022 -0.0029224547495941148 0 9.0994984176095387e-05 -0.0028102436601847767 0 0.00023189198762204151 -0.002904554448007959 0 0.00026164337897349022 -0.0029224547495941148 0 0.0012115304539022838 -0.0047994022357352607 0 0.00088775529944637064 -0.0045899290421022821 0 0.0015794828844104547 -0.0054138585566575678 0 0.0013696391387740057 -0.0064711084539560478 0 0.00075128961404947992 -0.0035816869528957026 0 0.0016270649012449935 -0.0023958793653724633 0 0.002017347129812943 -0.0028659169668515602 0 0.0014060992262859571 -0.0028098945246890382 0 0.002075724101125294 -0.0036201055664988446 0 0.0014503180562421257 -0.0027759475427127718 0 0.0021243217608462196 -0.0028760258960537129 0 0.0014060992262859571 -0.0028098945246890382 0 0.0016104110398115848 -0.0031710305823153158 0 0.0012115304539022838 -0.0047994022357352607 0 0.0015794828844104547 -0.0054138585566575678 0 0.0022456715018512262 -0.0054709150281175402 0 0.00075128961404947992 -0.0035816869528957026 0 0.002075724101125294 -0.0036201055664988446 0 0.0021243217608462196 -0.0028760258960537129 0 0.0016104110398115848 -0.0031710305823153158 0 0.002032110775695341 -0.0032843083995908718 0 0.0021243217608462196 -0.0028760258960537129 0 0.002032110775695341 -0.0032843083995908718 0 0.0024490950853760201 -0.003304835794279262 0 0.0013696391387740057 -0.0064711084539560478 0 0.0018963274591264443 -0.0063718688471629216 0 0.002075724101125294 -0.0036201055664988446 0 0.0018963274591264443 -0.0063718688471629216 0 0.0021674903451362401 -0.0029753375402085109 0 0.0025594920940810412 -0.002999285312919315 0 0.0024490950853760201 -0.003304835794279262 0 0.002075724101125294 -0.0036201055664988446 0 0.0022425603490012075 -0.0032143060920424163 0 0.0013505957213535646 -0.010157454054659058 0 0.0018356930410600373 -0.0095515366760011988 0 0.0012714894116770262 -0.0092081990857006222 0 0.0013505957213535646 -0.010157454054659058 0 0.0012714894116770262 -0.0092081990857006222 0 0.00085951897581632161 -0.0096659059769590387 0 0.00043517592989531661 -0.010124430951179918 0 0.0013505957213535646 -0.010157454054659058 0 0.00085951897581632161 -0.0096659059769590387 0 0.0018963274591264443 -0.0063718688471629216 0 0.00085323654968057834 -0.010246125050798 0 0.0012714894116770262 -0.0092081990857006222 0 0.00085951897581632161 -0.0096659059769590387 0 0.00037396101430265408 -0.0091686652571253881 0 0.0018963274591264443 -0.0063718688471629216 0 0.0025244535490983235 -0.0064233119708251678 0 0.0019367625932549342 -0.0078002665431217101 0 0.0014724118115182546 -0.0077926187540195155 0 0.0016299569808789782 -0.0076179078292160389 0 0.00085323654968057834 -0.010246125050798 0 0.00082608005425992498 -0.015277900613640589 0 0.0019485543057542985 -0.011568293893234981 0 1.0670745700131265e-05 -0.011150422218619583 0 -7.9511990394405503e-05 -0.011434060238401916 0 0.00043517592989531661 -0.010124430951179918 0 0.00037396101430265408 -0.0091686652571253881 0 -0.00028558302819819791 -0.0098889303400105759 0 0.00043517592989531661 -0.010124430951179918 0 0.00085951897581632161 -0.0096659059769590387 0 0.00037396101430265408 -0.0091686652571253881 0 -0.0001630097922199793 -0.001818949440340155 0 -8.4328403468470582e-08 -0.0017603990793923375 0 1.7239661482697324e-05 -0.0020343949813603312 0 -0.0001630097922199793 -0.001818949440340155 0 -0.00032077063151967689 -0.001617027378335777 0 -0.00017149756634944841 -0.0016572047256768856 0 -0.0001630097922199793 -0.001818949440340155 0 -0.00017149756634944841 -0.0016572047256768856 0 -8.4328403468470582e-08 -0.0017603990793923375 0 -0.00022434524975000589 -0.0016223769957013224 0 0.00021422219945956418 -0.0019074881533928897 0 -0.00025313058619488892 -0.0015398960364137247 0 -0.00036019204075101011 -0.0015238793576027145 0 -0.00027479504380336403 -0.0013698559144884992 0 -0.00041627749485164263 -0.0014222676395091488 0 -0.00044265952081573204 -0.0015187350450932701 0 -0.00027479504380336403 -0.0013698559144884992 0 -0.00041627749485164263 -0.0014222676395091488 0 -0.00043690023370955713 -0.0014071712603935512 0 -0.00047242128286652046 -0.0014734456153738826 0 -0.00041627749485164263 -0.0014222676395091488 0 -0.00044265952081573204 -0.0015187350450932701 0 -0.00044865355088818476 -0.0014311436534576066 0 -0.00041627749485164263 -0.0014222676395091488 0 -0.00043690023370955713 -0.0014071712603935512 0 -0.00047242128286652046 -0.0014734456153738826 0 -0.00044865355088818476 -0.0014311436534576066 0 -0.00041627749485164263 -0.0014222676395091488 0 -0.00031319484440235764 -0.0014266166499492319 0 -0.00032077063151967689 -0.001617027378335777 0 -0.00020834098811195456 -0.0015308877775891498 0 -0.00032077063151967689 -0.001617027378335777 0 -0.00020834098811195456 -0.0015308877775891498 0 -0.00017149756634944841 -0.0016572047256768856 0 -0.00017149756634944841 -0.0016572047256768856 0 -3.1635764183414198e-05 -0.0015705621486818582 0 -2.0335300658778877e-05 -0.0017566536591003834 0 -0.00020834098811195456 -0.0015308877775891498 0 -0.00017149756634944841 -0.0016572047256768856 0 -3.1635764183414198e-05 -0.0015705621486818582 0 -0.00020206803683649771 -0.0025270918159313025 0 5.6936638794619216e-05 -0.0025855941556799616 0 0.00010555890838626991 -0.0028908222141507782 0 -6.3593774728888978e-05 -0.0020453618948627979 0 0.00021422219945956418 -0.0019074881533928897 0 -6.3593774728888978e-05 -0.0020453618948627979 0 0.00022902856764567064 -0.0026065937238740748 0 -2.4416420672187864e-05 -0.0023052580036003545 0 -0.00020206803683649771 -0.0025270918159313025 0 5.6936638794619216e-05 -0.0025855941556799616 0 5.6936638794619216e-05 -0.0025855941556799616 0 0.00022285679120987502 -0.0027584508023500991 0 0.00010555890838626991 -0.0028908222141507782 0 0.00012481523572457277 -0.0023707795324337797 0 0.00025892428177040405 -0.0025074776835557352 0 0.00022285679120987502 -0.0027584508023500991 0 0.00012481523572457277 -0.0023707795324337797 0 5.6936638794619216e-05 -0.0025855941556799616 0 0.00022285679120987502 -0.0027584508023500991 0 0.00024147535041027198 -0.0029107577104745563 0 0.00022285679120987502 -0.0027584508023500991 0 0.00010555890838626991 -0.0028908222141507782 0 0.00024147535041027198 -0.0029107577104745563 0 0.0002472705773383836 -0.0029354454407557982 0 0.00010555890838626991 -0.0028908222141507782 0 -4.7360264353695673e-05 -0.0018861964877792702 0 0.00045829890262845884 -0.0024890331081872238 0 -2.0920183633639039e-05 -0.0024549927598866979 0 0.00045829890262845884 -0.0024890331081872238 0 -2.0920183633639039e-05 -0.0024549927598866979 0 0.00047135362499093274 -0.0027777110355169336 0 0.00021422219945956418 -0.0019074881533928897 0 0.00083228142733793959 -0.0024385466673413122 0 0.00021422219945956418 -0.0019074881533928897 0 0.00036845018699931153 -0.0021221180070042623 0 0.00063335971593089584 -0.0017556483662894903 0 0.00067038406563322194 -0.0024932275860759605 0 0.0011303618377504663 -0.0020734711951737985 0 0.00067038406563322194 -0.0024932275860759605 0 0.0011303618377504663 -0.0020734711951737985 0 0.001156959947244412 -0.002517321952924353 0 0.00075128961404947992 -0.0035816869528957026 0 0.00022902856764567064 -0.0026065937238740748 0 0.0009661293977656824 -0.0031042549059349818 0 0.00045829890262845884 -0.0024890331081872238 0 0.00047135362499093274 -0.0027777110355169336 0 0.00075128961404947992 -0.0035816869528957026 0 0.00083228142733793959 -0.0024385466673413122 0 0.0016270649012449935 -0.0023958793653724633 0 0.0011303618377504663 -0.0020734711951737985 0 0.001156959947244412 -0.002517321952924353 0 0.0016270649012449935 -0.0023958793653724633 0 0.001156959947244412 -0.002517321952924353 0 0.0014060992262859571 -0.0028098945246890382 0 0.001156959947244412 -0.002517321952924353 0 0.0014060992262859571 -0.0028098945246890382 0 0.00098733308120406535 -0.0028759322286922443 0 0.0014060992262859571 -0.0028098945246890382 0 0.001168429643605284 -0.0030755055475287073 0 0.00098733308120406535 -0.0028759322286922443 0 0.0014060992262859571 -0.0028098945246890382 0 0.001168429643605284 -0.0030755055475287073 0 0.0016104110398115848 -0.0031710305823153158 0 0.00066949134521342168 -0.0024905467129238664 0 0.00098733308120406535 -0.0028759322286922443 0 0.00070306264531445482 -0.0031280466550109324 0 0.00021704144117136478 -0.00154185734307888 0 -9.3654749578133601e-06 -0.0018720221020765264 0 0.0005382480203224299 -0.0023055834718322451 0 0.00036845018699931153 -0.0021221180070042623 0 0.00060500419045666565 -0.0027412796389343435 0 0.00067038406563322194 -0.0024932275860759605 0 0.001156959947244412 -0.002517321952924353 0 0.00098733308120406535 -0.0028759322286922443 0 0.00036845018699931153 -0.0021221180070042623 0 0.0010289666553543373 -0.0029257739256446967 0 0.001168429643605284 -0.0030755055475287073 0 0.00098733308120406535 -0.0028759322286922443 0 0.00070306264531445482 -0.0031280466550109324 0 -9.3654749578133601e-06 -0.0018720221020765264 0 -0.00059459485242517476 -0.0018276009120250507 0 -8.513219711860468e-05 -0.0028106227539329005 0 -9.3654749578133601e-06 -0.0018720221020765264 0 -0.00021273886180789251 -0.0015781777302667111 0 -0.00059459485242517476 -0.0018276009120250507 0 0.00021704144117136478 -0.00154185734307888 0 -9.3654749578133601e-06 -0.0018720221020765264 0 -0.00021273886180789251 -0.0015781777302667111 0 -0.00027479504380336403 -0.0013698559144884992 0 -0.00021273886180789251 -0.0015781777302667111 0 -0.00044265952081573204 -0.0015187350450932701 0 -0.00027479504380336403 -0.0013698559144884992 0 0.00021704144117136478 -0.00154185734307888 0 -0.00021273886180789251 -0.0015781777302667111 0 -0.00025313058619488892 -0.0015398960364137247 0 0.00036845018699931153 -0.0021221180070042623 0 -0.00021273886180789251 -0.0015781777302667111 0 -0.00044265952081573204 -0.0015187350450932701 0 -0.00059459485242517476 -0.0018276009120250507 0 -0.00052648119933345749 -0.0015701597364075864 0 -0.00044265952081573204 -0.0015187350450932701 0 -0.00059459485242517476 -0.0018276009120250507 0 -0.00052994302701316845 -0.0014131040858239667 0 -0.00059459485242517476 -0.0018276009120250507 0 -0.00064339052582122638 -0.0014128925563327284 0 -0.00063065165424909032 -0.0018524481544796773 0 -0.000748746948617768 -0.0024664419469707455 0 -0.00059459485242517476 -0.0018276009120250507 0 -8.513219711860468e-05 -0.0028106227539329005 0 -0.00090924474707866935 -0.0034257133298623774 0 -9.3654749578133601e-06 -0.0018720221020765264 0 -8.513219711860468e-05 -0.0028106227539329005 0 0.0005382480203224299 -0.0023055834718322451 0 -8.513219711860468e-05 -0.0028106227539329005 0 -0.00024065388320132239 -0.0040619976984933946 0 0.00067048466793757997 -0.0036347057147827415 0 -0.00024065388320132239 -0.0040619976984933946 0 0.00027130285539933151 -0.0044330775066377054 0 0.00067048466793757997 -0.0036347057147827415 0 -8.513219711860468e-05 -0.0028106227539329005 0 -0.00024065388320132239 -0.0040619976984933946 0 -0.00090924474707866935 -0.0034257133298623774 0 -0.000748746948617768 -0.0024664419469707455 0 -0.00078116656832529581 -0.0027915029330484596 0 -0.00024065388320132239 -0.0040619976984933946 0 -0.00090924474707866935 -0.0034257133298623774 0 -0.00093210757458123616 -0.0047452318604046615 0 -0.00051806876073976654 -0.0012870982775356531 0 -0.00064339052582122638 -0.0014128925563327284 0 -0.00055251245938120019 -0.0013088141344507771 0 -0.00093210757458123616 -0.0047452318604046615 0 -0.00030627054316783453 -0.0048035751352533979 0 -0.00053922390934388136 -0.0051547165875281123 0 -0.00024065388320132239 -0.0040619976984933946 0 -0.00093210757458123616 -0.0047452318604046615 0 -0.00030627054316783453 -0.0048035751352533979 0 -0.00024065388320132239 -0.0040619976984933946 0 0.00027130285539933151 -0.0044330775066377054 0 -0.00030627054316783453 -0.0048035751352533979 0 0.00027130285539933151 -0.0044330775066377054 0 -0.00030627054316783453 -0.0048035751352533979 0 8.0750007174250002e-05 -0.0051585997523528144 0 8.0750007174250002e-05 -0.0051585997523528144 0 -0.00053922390934388136 -0.0051547165875281123 0 -0.0010027764101595421 -0.0059079188172205706 0 -0.00030627054316783453 -0.0048035751352533979 0 8.0750007174250002e-05 -0.0051585997523528144 0 -0.00053922390934388136 -0.0051547165875281123 0 0.00031644360216510301 -0.0053755403291463767 0 0.00017051685485772389 -0.0051645541664039609 0 -0.00045184813972098606 -0.0058782796121742125 0 0.00031644360216510301 -0.0053755403291463767 0 0.00064080631264760686 -0.0055700213900156496 0 -0.00054178695167444633 -0.0059926082025546041 0 0.00025259484017544107 -0.00506277278883999 0 0.00013794353281384105 -0.0077607301030038723 0 -2.4993766873832865e-05 -0.0053473774377684755 0 -0.00028261540242810533 -0.0047926052467090899 0 0.00017051685485772389 -0.0051645541664039609 0 -0.00045184813972098606 -0.0058782796121742125 0 -0.00068041961450446449 -0.0057973417536448238 0 -0.00093210757458123616 -0.0047452318604046615 0 -0.00053922390934388136 -0.0051547165875281123 0 -0.0010027764101595421 -0.0059079188172205706 0 -0.00078116656832529581 -0.0027915029330484596 0 -0.00028261540242810533 -0.0047926052467090899 0 -0.00052469834005390906 -0.001352828837621515 0 -0.00055251245938120019 -0.0013088141344507771 0 -0.00050372194308324415 -0.0013794546290833371 0 0.0017024834834463206 -0.01182021565825943 0 0.0020528518515724619 -0.011775800514695104 0 0.0017941445761076758 -0.011980746048102097 0 0.00064080631264760686 -0.0055700213900156496 0 0.0011091970546966024 -0.0044637743401657595 0 0.001736725774115454 -0.0051945987274454597 0 0.0011849363792581836 -0.0088539762258416903 0 0.0019032916859309035 -0.0084552952141771966 0 0.00031644360216510301 -0.0053755403291463767 0 0.00064080631264760686 -0.0055700213900156496 0 0.0011091970546966024 -0.0044637743401657595 0 0.00031644360216510301 -0.0053755403291463767 0 0.00017051685485772389 -0.0051645541664039609 0 0.0011091970546966024 -0.0044637743401657595 0 -2.4993766873832865e-05 -0.0053473774377684755 0 0.0011328679792647846 -0.0044297134116373493 0 0.00027130285539933151 -0.0044330775066377054 0 8.0750007174250002e-05 -0.0051585997523528144 0 0.0011091970546966024 -0.0044637743401657595 0 0.0011091970546966024 -0.0044637743401657595 0 0.0017162038857416189 -0.00426506529180979 0 0.001736725774115454 -0.0051945987274454597 0 0.0011091970546966024 -0.0044637743401657595 0 0.0012094895340221976 -0.0038520134732232848 0 0.0017162038857416189 -0.00426506529180979 0 0.0012094895340221976 -0.0038520134732232848 0 0.0017398712649979023 -0.0035644149257664961 0 0.0017162038857416189 -0.00426506529180979 0 0.0011091970546966024 -0.0044637743401657595 0 0.0012094895340221976 -0.0038520134732232848 0 0.00067048466793757997 -0.0036347057147827415 0 0.00027130285539933151 -0.0044330775066377054 0 0.0011091970546966024 -0.0044637743401657595 0 0.00067048466793757997 -0.0036347057147827415 0 0.0012094895340221976 -0.0038520134732232848 0 0.00067048466793757997 -0.0036347057147827415 0 0.0011814095376736632 -0.0033934325549084122 0 -8.513219711860468e-05 -0.0028106227539329005 0 0.00067048466793757997 -0.0036347057147827415 0 0.0005382480203224299 -0.0023055834718322451 0 0.00066559918843536498 -0.0035538374228729049 0 0.00060500419045666565 -0.0027412796389343435 0 0.00067048466793757997 -0.0036347057147827415 0 0.00070306264531445482 -0.0031280466550109324 0 0.0011814095376736632 -0.0033934325549084122 0 0.001168429643605284 -0.0030755055475287073 0 0.00070306264531445482 -0.0031280466550109324 0 0.0011814095376736632 -0.0033934325549084122 0 0.0012094895340221976 -0.0038520134732232848 0 0.0011814095376736632 -0.0033934325549084122 0 0.0017398712649979023 -0.0035644149257664961 0 0.001168429643605284 -0.0030755055475287073 0 0.0011814095376736632 -0.0033934325549084122 0 0.0016104110398115848 -0.0031710305823153158 0 0.0011814095376736632 -0.0033934325549084122 0 0.0016104110398115848 -0.0031710305823153158 0 0.0017398712649979023 -0.0035644149257664961 0 0.0016104110398115848 -0.0031710305823153158 0 0.0017398712649979023 -0.0035644149257664961 0 0.002032110775695341 -0.0032843083995908718 0 0.0017398712649979023 -0.0035644149257664961 0 0.0022062339809949061 -0.0035747315360134249 0 0.0022368962381481622 -0.003999625356998545 0 0.0017398712649979023 -0.0035644149257664961 0 0.0022062339809949061 -0.0035747315360134249 0 0.002032110775695341 -0.0032843083995908718 0 0.0022062339809949061 -0.0035747315360134249 0 0.002032110775695341 -0.0032843083995908718 0 0.0024490950853760201 -0.003304835794279262 0 0.0025594920940810412 -0.002999285312919315 0 0.0024490950853760201 -0.003304835794279262 0 0.002761228806898771 -0.0034537925726226058 0 0.0024490950853760201 -0.003304835794279262 0 0.002761228806898771 -0.0034537925726226058 0 0.0025708841598038952 -0.0037157463586251467 0 0.002761228806898771 -0.0034537925726226058 0 0.0025708841598038952 -0.0037157463586251467 0 0.0029717491509543897 -0.0038003253595479168 0 0.0022062339809949061 -0.0035747315360134249 0 0.0025708841598038952 -0.0037157463586251467 0 0.0022368962381481622 -0.003999625356998545 0 0.0022062339809949061 -0.0035747315360134249 0 0.0024490950853760201 -0.003304835794279262 0 0.0025708841598038952 -0.0037157463586251467 0 0.0025708841598038952 -0.0037157463586251467 0 0.0022368962381481622 -0.003999625356998545 0 0.002825828366740152 -0.0043096301979098839 0 0.0022368962381481622 -0.003999625356998545 0 0.002825828366740152 -0.0043096301979098839 0 0.0022104451599532686 -0.0045765347509986055 0 0.0025708841598038952 -0.0037157463586251467 0 0.0029717491509543897 -0.0038003253595479168 0 0.002825828366740152 -0.0043096301979098839 0 0.0017398712649979023 -0.0035644149257664961 0 0.0022368962381481622 -0.003999625356998545 0 0.0017162038857416189 -0.00426506529180979 0 0.0022368962381481622 -0.003999625356998545 0 0.0017162038857416189 -0.00426506529180979 0 0.0022104451599532686 -0.0045765347509986055 0 0.0040536621340956699 -0.010804647273127934 0 0.0020608703785334193 -0.0095234961311264424 0 0.00080974169419449204 -0.013430598797854975 0 0.0027796007847645382 -0.0083334304072706852 0 0.0031079209921739902 -0.0098497914318392034 0 0.0019485543057542985 -0.011568293893234981 0 0.0022615454795112061 -0.0093111596525373326 0 1.0670745700131265e-05 -0.011150422218619583 0 0.0027796007847645382 -0.0083334304072706852 0 0.0010703343057403745 -0.015348371159264839 0 0.00085323654968057834 -0.010246125050798 0 0.0025244535490983235 -0.0064233119708251678 0 0.0019485543057542985 -0.011568293893234981 0 0.0022615454795112061 -0.0093111596525373326 0 0.0033886728703134516 -0.010030133772623908 0 0.0034997116966923947 -0.0037349181663972669 0 0.0033200743794163661 -0.0038670810757839833 0 0.0032357215501083139 -0.0035689437672325208 0 0.0034997116966923947 -0.0037349181663972669 0 0.0033200743794163661 -0.0038670810757839833 0 0.0038373726474959778 -0.0039641713729210454 0 0.0027796007847645382 -0.0083334304072706852 0 0.0025244535490983235 -0.0064233119708251678 0 0.0025594920940810412 -0.002999285312919315 0 0.002761228806898771 -0.0034537925726226058 0 0.0032739144656846186 -0.0034715409809009229 0 0.0025244535490983235 -0.0064233119708251678 0 0.0036520553498564749 -0.0037562982151639426 0 0.0033200743794163661 -0.0038670810757839833 0 0.0032357215501083139 -0.0035689437672325208 0 0.0029717491509543897 -0.0038003253595479168 0 0.002761228806898771 -0.0034537925726226058 0 0.0032739144656846186 -0.0034715409809009229 0 0.0029717491509543897 -0.0038003253595479168 0 0.0029717491509543897 -0.0038003253595479168 0 0.002825828366740152 -0.0043096301979098839 0 0.0032665964960103331 -0.0041513001203270011 0 0.002825828366740152 -0.0043096301979098839 0 0.0032671108136815585 -0.0044716129313547908 0 0.0032665964960103331 -0.0041513001203270011 0 0.0032671108136815585 -0.0044716129313547908 0 0.0032665964960103331 -0.0041513001203270011 0 0.0034703466119290656 -0.0043362444951630351 0 0.0033200743794163661 -0.0038670810757839833 0 0.0029717491509543897 -0.0038003253595479168 0 0.0032665964960103331 -0.0041513001203270011 0 0.0034703466119290656 -0.0043362444951630351 0 0.0038373726474959778 -0.0039641713729210454 0 0.0035964808651414255 -0.0046295879332809526 0 0.0031079209921739902 -0.0098497914318392034 0 0.0041590211108149949 -0.0029563066121516572 0 0.0033200743794163661 -0.0038670810757839833 0 0.0032665964960103331 -0.0041513001203270011 0 0.0038373726474959778 -0.0039641713729210454 0 0.0032665964960103331 -0.0041513001203270011 0 0.0034703466119290656 -0.0043362444951630351 0 0.0038373726474959778 -0.0039641713729210454 0 0.0032671108136815585 -0.0044716129313547908 0 0.0034703466119290656 -0.0043362444951630351 0 0.0035964808651414255 -0.0046295879332809526 0 0.0032671108136815585 -0.0044716129313547908 0 0.0035964808651414255 -0.0046295879332809526 0 0.0035989224968357263 -0.0046498732349070006 0 0.0032563676042062476 -0.0076006811194779108 0 0.0024668782243128877 -0.0084218115017598866 0 0.0032671108136815585 -0.0044716129313547908 0 0.0035989224968357263 -0.0046498732349070006 0 0.0027053955048533945 -0.0049118698139031056 0 0.002825828366740152 -0.0043096301979098839 0 0.0032671108136815585 -0.0044716129313547908 0 0.0027053955048533945 -0.0049118698139031056 0 0.0025187839659306099 -0.011922586377522184 0 0.0023456850478882712 -0.011751071484109393 0 0.002287912943918842 -0.01199712077912821 0 0.0025640244790759567 -0.011753932807082819 0 0.0025187839659306099 -0.011922586377522184 0 0.0023456850478882712 -0.011751071484109393 0 0.0025640244790759567 -0.011753932807082819 0 0.0025187839659306099 -0.011922586377522184 0 0.002680704318316642 -0.011883117105943902 0 0.0023134517097285852 -0.01475838074636834 0 0.0024150490608126443 -0.014582422742562256 0 0.0017162038857416189 -0.00426506529180979 0 0.0022104451599532686 -0.0045765347509986055 0 0.001736725774115454 -0.0051945987274454597 0 0.0022104451599532686 -0.0045765347509986055 0 0.0027053955048533945 -0.0049118698139031056 0 0.001736725774115454 -0.0051945987274454597 0 0.002825828366740152 -0.0043096301979098839 0 0.0022104451599532686 -0.0045765347509986055 0 0.0027053955048533945 -0.0049118698139031056 0 0.0023456850478882712 -0.011751071484109393 0 0.0021263982398617618 -0.011949746362129091 0 0.002287912943918842 -0.01199712077912821 0 0.0024668782243128877 -0.0084218115017598866 0 0.0019032916859309035 -0.0084552952141771966 0 0.0023456850478882712 -0.011751071484109393 0 0.0020528518515724619 -0.011775800514695104 0 0.0021263982398617618 -0.011949746362129091 0 0.002258727797498247 -0.014753851397618235 0 0.0022199993629510241 -0.014765566076716346 0 0.0021263982398617618 -0.011949746362129091 0 0.002287912943918842 -0.01199712077912821 0 0.0019992126309307592 -0.012098330220077679 0 0.0020528518515724619 -0.011775800514695104 0 0.0021263982398617618 -0.011949746362129091 0 0.0019612796601943443 -0.012016759713119421 0 0.0022486050446485933 -0.017510273094408873 0 0.0022525917883228406 -0.017455517965055244 0 0.0021724581988192887 -0.017491741885806121 0 0.0026911503697432176 -0.015653706739123335 0 0.0025555246957446446 -0.015371786492499784 0 0.0025438405310181343 -0.015293350777017781 0 0.0025934977046990597 -0.016860727898407962 0 0.0022199993629510241 -0.014765566076716346 0 0.0022486050446485933 -0.017510273094408873 0 0.0022525917883228406 -0.017455517965055244 0 0.0023327296660880939 -0.017460597588187004 0 0.0022525917883228406 -0.017455517965055244 0 0.0023091489940586934 -0.017414023790208955 0 0.0023327296660880939 -0.017460597588187004 0 0.002134999279000729 -0.017551727425884137 0 0.0021724581988192887 -0.017491741885806121 0 0.0020586418556067933 -0.017497483467348238 0 0.002134999279000729 -0.017551727425884137 0 0.0022486050446485933 -0.017510273094408873 0 0.0021724581988192887 -0.017491741885806121 0 0.0023134517097285852 -0.01475838074636834 0 0.002258727797498247 -0.014753851397618235 0 0.0022525917883228406 -0.017455517965055244 0 0.0021724581988192887 -0.017491741885806121 0 0.0021641440535913967 -0.017447014895171649 0 0.0021724581988192887 -0.017491741885806121 0 0.0021641440535913967 -0.017447014895171649 0 0.0020586418556067933 -0.017497483467348238 0 0.0021641440535913967 -0.017447014895171649 0 0.0019886232236218122 -0.017460722428828419 0 0.0020586418556067933 -0.017497483467348238 0 0.0021641440535913967 -0.017447014895171649 0 0.0022520584461184073 -0.017404029044482114 0 0.002144671254162062 -0.0173417625787953 0 0.0022520584461184073 -0.017404029044482114 0 0.0023248045620861886 -0.017331613776826904 0 0.002144671254162062 -0.0173417625787953 0 0.0021641440535913967 -0.017447014895171649 0 0.0019886232236218122 -0.017460722428828419 0 0.002144671254162062 -0.0173417625787953 0 0.0026911503697432176 -0.015653706739123335 0 0.0025842633758755506 -0.015895883561712773 0 0.0024978220692289535 -0.015712778336587727 0 0.0022525917883228406 -0.017455517965055244 0 0.0023091489940586934 -0.017414023790208955 0 0.0022520584461184073 -0.017404029044482114 0 0.0022525917883228406 -0.017455517965055244 0 0.0021641440535913967 -0.017447014895171649 0 0.0022520584461184073 -0.017404029044482114 0 0.0023091489940586934 -0.017414023790208955 0 0.0022520584461184073 -0.017404029044482114 0 0.0023248045620861886 -0.017331613776826904 0 0.0025934977046990597 -0.016860727898407962 0 0.0025159443969943844 -0.016611799081230449 0 0.0026911503697432176 -0.015653706739123335 0 0.0027734912261915667 -0.016046883370345912 0 0.0025842633758755506 -0.015895883561712773 0 0.0025842633758755506 -0.015895883561712773 0 0.0024121320551406512 -0.015844459156884667 0 0.0024745866537374734 -0.016062741058070068 0 0.0024121320551406512 -0.015844459156884667 0 0.0024745866537374734 -0.016062741058070068 0 0.0023806083367346902 -0.015980276822543122 0 0.0025842633758755506 -0.015895883561712773 0 0.0024121320551406512 -0.015844459156884667 0 0.0024978220692289535 -0.015712778336587727 0 0.0026911503697432176 -0.015653706739123335 0 0.0024978220692289535 -0.015712778336587727 0 0.0024554134425949716 -0.015514882907946091 0 0.0024121320551406512 -0.015844459156884667 0 0.0024978220692289535 -0.015712778336587727 0 0.0023641855509092969 -0.015647128621256497 0 0.0024978220692289535 -0.015712778336587727 0 0.0023641855509092969 -0.015647128621256497 0 0.0024554134425949716 -0.015514882907946091 0 0.0023223629939991392 -0.015509955071954372 0 0.0023641855509092969 -0.015647128621256497 0 0.0024554134425949716 -0.015514882907946091 0 0.0023223629939991392 -0.015509955071954372 0 0.0022266196104238018 -0.01560883545516501 0 0.0022217835606815534 -0.015408436141244826 0 0.0023223629939991392 -0.015509955071954372 0 0.0023641855509092969 -0.015647128621256497 0 0.0022266196104238018 -0.01560883545516501 0 0.0023641855509092969 -0.015647128621256497 0 0.0022266196104238018 -0.01560883545516501 0 0.0022975911767765715 -0.015738192072522771 0 0.0022266196104238018 -0.01560883545516501 0 0.00219506173807649 -0.015760539840544426 0 0.0022975911767765715 -0.015738192072522771 0 0.00219506173807649 -0.015760539840544426 0 0.0022975911767765715 -0.015738192072522771 0 0.0022701061464645879 -0.015905958983768124 0 0.0024121320551406512 -0.015844459156884667 0 0.0023641855509092969 -0.015647128621256497 0 0.0022975911767765715 -0.015738192072522771 0 0.0024121320551406512 -0.015844459156884667 0 0.0022701061464645879 -0.015905958983768124 0 0.0023806083367346902 -0.015980276822543122 0 0.0024121320551406512 -0.015844459156884667 0 0.0022975911767765715 -0.015738192072522771 0 0.0022701061464645879 -0.015905958983768124 0 0.00219506173807649 -0.015760539840544426 0 0.0022701061464645879 -0.015905958983768124 0 0.0021219669923542954 -0.015820394198795662 0 0.0022701061464645879 -0.015905958983768124 0 0.0021219669923542954 -0.015820394198795662 0 0.0021450493437182904 -0.015927120054045313 0 0.0021219669923542954 -0.015820394198795662 0 0.0020080780885162039 -0.01575869330560218 0 0.0020231948969178072 -0.015890743192861007 0 0.0020080780885162039 -0.01575869330560218 0 0.0020921367807846532 -0.015679874854536948 0 0.001952520790244812 -0.015618076237648878 0 0.0021219669923542954 -0.015820394198795662 0 0.0020080780885162039 -0.01575869330560218 0 0.0020921367807846532 -0.015679874854536948 0 0.00219506173807649 -0.015760539840544426 0 0.0021219669923542954 -0.015820394198795662 0 0.0020921367807846532 -0.015679874854536948 0 0.0020080780885162039 -0.01575869330560218 0 0.0018830236731975372 -0.01576595016301174 0 0.0020231948969178072 -0.015890743192861007 0 0.0020080780885162039 -0.01575869330560218 0 0.0018830236731975372 -0.01576595016301174 0 0.001952520790244812 -0.015618076237648878 0 0.0017750001206139605 -0.015496260187054155 0 0.0018830236731975372 -0.01576595016301174 0 0.001952520790244812 -0.015618076237648878 0 0.0017750001206139605 -0.015496260187054155 0 0.001952520790244812 -0.015618076237648878 0 0.0019846721404784265 -0.015339721273996122 0 0.001952520790244812 -0.015618076237648878 0 0.0020906550694308268 -0.015533892848626418 0 0.0019846721404784265 -0.015339721273996122 0 0.0022266196104238018 -0.01560883545516501 0 0.0020921367807846532 -0.015679874854536948 0 0.0020906550694308268 -0.015533892848626418 0 0.0022266196104238018 -0.01560883545516501 0 0.00219506173807649 -0.015760539840544426 0 0.0020921367807846532 -0.015679874854536948 0 0.0020921367807846532 -0.015679874854536948 0 0.001952520790244812 -0.015618076237648878 0 0.0020906550694308268 -0.015533892848626418 0 0.0022266196104238018 -0.01560883545516501 0 0.0020906550694308268 -0.015533892848626418 0 0.0022217835606815534 -0.015408436141244826 0 0.0020906550694308268 -0.015533892848626418 0 0.0019846721404784265 -0.015339721273996122 0 0.0022217835606815534 -0.015408436141244826 0 0.0013804957140016887 -0.012130648965930571 0 0.0015593670964232408 -0.011997759936993271 0 0.0018064133764535816 -0.012162977947006819 0 0.0017180943893067094 -0.01410590400684142 0 0.002217143521077485 -0.01450778025209633 0 0.0013804957140016887 -0.012130648965930571 0 0.0013424501507789976 -0.012006882687566651 0 0.0015593670964232408 -0.011997759936993271 0 0.00092706817444042561 -0.0120937845274088 0 0.0013804957140016887 -0.012130648965930571 0 0.0012198753565535803 -0.012010527754818279 0 0.00095246350133697353 -0.010341718821858078 0 0.0017180943893067094 -0.01410590400684142 0 0.0013804957140016887 -0.012130648965930571 0 0.0012198753565535803 -0.012010527754818279 0 0.0013424501507789976 -0.012006882687566651 0 0.00038691428460138833 -0.0079530930297157312 0 0.00023183126161836748 -0.0079585339302731574 0 0.00022794254940377103 -0.00799625692251291 0 0.0012198753565535803 -0.012010527754818279 0 0.0012272123885454669 -0.011933983825331661 0 0.0013424501507789976 -0.012006882687566651 0 0.00013496833078414176 -0.0051824711733780837 0 5.3981791777537398e-05 -0.0071135078275181242 0 0.00043769377241065465 -0.011009684952552144 0 0.00030047776676049305 -0.0091590502071700261 0 0.00030047776676049305 -0.0091590502071700261 0 5.3981791777537398e-05 -0.0071135078275181242 0 0.0012272123885454669 -0.011933983825331661 0 0.0013424501507789976 -0.012006882687566651 0 0.0013192705104938672 -0.011882858822786902 0 0.00013794353281384105 -0.0077607301030038723 0 5.3981791777537398e-05 -0.0071135078275181242 0 0.00030047776676049305 -0.0091590502071700261 0 0.00013794353281384105 -0.0077607301030038723 0 0.00013496833078414176 -0.0051824711733780837 0 -0.00028261540242810533 -0.0047926052467090899 0 0.00018212801001273558 -0.0053180772358083781 0 -0.0005799591628131884 -0.0055394681748506067 0 -0.00060802020052961149 -0.0058684719139437021 0 -0.00045184813972098606 -0.0058782796121742125 0 -0.00069079557314637803 -0.0059511084704477381 0 -0.00068041961450446449 -0.0057973417536448238 0 0.00079601305670859803 -0.0077592364103503076 0 5.526769318215449e-05 -0.0082231865169548109 0 0.0007741192015218543 -0.008017353762307845 0 5.3981791777537398e-05 -0.0071135078275181242 0 -0.00028261540242810533 -0.0047926052467090899 0 0.0011849363792581836 -0.0088539762258416903 0 0.00013794353281384105 -0.0077607301030038723 0 0.0017024834834463206 -0.01182021565825943 0 0.0013192705104938672 -0.011882858822786902 0 0.0015593670964232408 -0.011997759936993271 0 0.0013424501507789976 -0.012006882687566651 0 0.0013192705104938672 -0.011882858822786902 0 0.0015593670964232408 -0.011997759936993271 0 0.0015593670964232408 -0.011997759936993271 0 0.0017941445761076758 -0.011980746048102097 0 0.0018064133764535816 -0.012162977947006819 0 0.0017024834834463206 -0.01182021565825943 0 0.0015593670964232408 -0.011997759936993271 0 0.0017941445761076758 -0.011980746048102097 0 0.0020528518515724619 -0.011775800514695104 0 0.0017941445761076758 -0.011980746048102097 0 0.0019612796601943443 -0.012016759713119421 0 0.0021263982398617618 -0.011949746362129091 0 0.0019612796601943443 -0.012016759713119421 0 0.0019992126309307592 -0.012098330220077679 0 0.0016221582950733207 -0.012717160429286173 0 0.0022199993629510241 -0.014765566076716346 0 0.0017941445761076758 -0.011980746048102097 0 0.0019612796601943443 -0.012016759713119421 0 0.0018064133764535816 -0.012162977947006819 0 0.0019612796601943443 -0.012016759713119421 0 0.0019998309059779881 -0.012104114297981687 0 0.0018064133764535816 -0.012162977947006819 0 0.0025559348941394267 -0.015305104800744462 0 0.002217143521077485 -0.01450778025209633 0 0.0026911503697432176 -0.015653706739123335 0 0.0025555246957446446 -0.015371786492499784 0 0.0024554134425949716 -0.015514882907946091 0 0.0022199993629510241 -0.014765566076716346 0 0.002217143521077485 -0.01450778025209633 0 0.0025555246957446446 -0.015371786492499784 0 0.0025438405310181343 -0.015293350777017781 0 0.0023130664554882091 -0.01536105184520184 0 0.0025555246957446446 -0.015371786492499784 0 0.0024554134425949716 -0.015514882907946091 0 0.0023479755836799013 -0.015374788188367265 0 0.0023223629939991392 -0.015509955071954372 0 0.0024554134425949716 -0.015514882907946091 0 0.0023479755836799013 -0.015374788188367265 0 0.0019846721404784265 -0.015339721273996122 0 0.0022217835606815534 -0.015408436141244826 0 0.0023467790336083368 -0.01537279536427651 0 0.0023223629939991392 -0.015509955071954372 0 0.0022217835606815534 -0.015408436141244826 0 0.0023479755836799013 -0.015374788188367265 0 0.0021334970637133621 -0.015143964939454994 0 0.002217143521077485 -0.01450778025209633 0 0.0013757053100373513 -0.017684370544534578 0 0.001538384151157595 -0.017754011565130554 0 0.0014400289872808561 -0.017839687790036158 0 0.0013757053100373513 -0.017684370544534578 0 0.0014400289872808561 -0.017839687790036158 0 0.0013260757725545968 -0.017814211978368629 0 0.0013757053100373513 -0.017684370544534578 0 0.001538384151157595 -0.017754011565130554 0 0.0015358686865282372 -0.017568426722228601 0 0.001538384151157595 -0.017754011565130554 0 0.0015316543140010725 -0.017881704608867087 0 0.0014400289872808561 -0.017839687790036158 0 0.0015316543140010725 -0.017881704608867087 0 0.0014400289872808561 -0.017839687790036158 0 0.0014533908843924383 -0.017923881448673393 0 0.0014400289872808561 -0.017839687790036158 0 0.0014054086208384136 -0.017893420412648381 0 0.0014533908843924383 -0.017923881448673393 0 0.0014400289872808561 -0.017839687790036158 0 0.0013520504169679739 -0.017878436639018086 0 0.0013260757725545968 -0.017814211978368629 0 0.0014400289872808561 -0.017839687790036158 0 0.0014054086208384136 -0.017893420412648381 0 0.0013520504169679739 -0.017878436639018086 0 0.0014054086208384136 -0.017893420412648381 0 0.0013520504169679739 -0.017878436639018086 0 0.0013662122726964575 -0.01793111053005278 0 0.0012660902073279151 -0.017879396016175754 0 0.0013260757725545968 -0.017814211978368629 0 0.0011363664046320405 -0.017832311029093648 0 0.0013520504169679739 -0.017878436639018086 0 0.0012993593810690499 -0.017926599839009162 0 0.0012660902073279151 -0.017879396016175754 0 0.0013520504169679739 -0.017878436639018086 0 0.0012993593810690499 -0.017926599839009162 0 0.0013662122726964575 -0.01793111053005278 0 0.0012993593810690499 -0.017926599839009162 0 0.0012660902073279151 -0.017879396016175754 0 0.0011854056135930141 -0.017960324403061494 0 0.0013520504169679739 -0.017878436639018086 0 0.0012660902073279151 -0.017879396016175754 0 0.0013260757725545968 -0.017814211978368629 0 0.0010804292146835716 -0.017914915606757748 0 0.0011854056135930141 -0.017960324403061494 0 0.001227391092928238 -0.018208484778047623 0 0.0010804292146835716 -0.017914915606757748 0 0.001227391092928238 -0.018208484778047623 0 0.0009410100766532 -0.017900798265623619 0 0.0012660902073279151 -0.017879396016175754 0 0.0011854056135930141 -0.017960324403061494 0 0.0011363664046320405 -0.017832311029093648 0 0.0010804292146835716 -0.017914915606757748 0 0.0011854056135930141 -0.017960324403061494 0 0.0011363664046320405 -0.017832311029093648 0 0.0010804292146835716 -0.017914915606757748 0 0.0011363664046320405 -0.017832311029093648 0 0.0009410100766532 -0.017900798265623619 0 0.0011363664046320405 -0.017832311029093648 0 0.0011389870683573967 -0.017737130366897585 0 0.0009410100766532 -0.017900798265623619 0 -0.0014209589213283564 -0.021693515472828197 0 -0.0015651743731763901 -0.021588020612816734 0 -0.0016353643085526364 -0.021704437743926892 0 -0.0014209589213283564 -0.021693515472828197 0 -0.0016154585399277177 -0.021889119304090592 0 -0.0016353643085526364 -0.021704437743926892 0 -5.7301493939569522e-05 -0.019520821286645413 0 -0.0005397957157527209 -0.020916475762074047 0 0.0013757053100373513 -0.017684370544534578 0 0.0013260757725545968 -0.017814211978368629 0 0.0011363664046320405 -0.017832311029093648 0 0.001288041937196996 -0.017734719895617798 0 0.0011363664046320405 -0.017832311029093648 0 0.0011389870683573967 -0.017737130366897585 0 0.0013295337958523525 -0.017711428250664803 0 0.0011455785438630247 -0.017825061075034256 0 0.001288041937196996 -0.017734719895617798 0 0.0011389870683573967 -0.017737130366897585 0 0.0012276904609537947 -0.017594218470669155 0 -0.0014209589213283564 -0.021693515472828197 0 -0.0014905788104904868 -0.021428343357387521 0 -0.0011353639002793486 -0.021426824699082178 0 -5.7301493939569522e-05 -0.019520821286645413 0 2.6992530471975579e-05 -0.019543991926548661 0 -0.0014209589213283564 -0.021693515472828197 0 -0.0015651743731763901 -0.021588020612816734 0 -0.0014905788104904868 -0.021428343357387521 0 -0.0014905788104904868 -0.021428343357387521 0 -0.0017123902291005036 -0.021252178070550125 0 -0.0013584329822691815 -0.020975230435316017 0 -0.0014905788104904868 -0.021428343357387521 0 -0.0011353639002793486 -0.021426824699082178 0 -0.0013584329822691815 -0.020975230435316017 0 0.0012276904609537947 -0.017594218470669155 0 0.0015012666881081536 -0.017612447193752791 0 0.0013714159781198602 -0.017399645159136626 0 2.6992530471975579e-05 -0.019543991926548661 0 0.00031498441277900139 -0.0192003836391825 0 0.001288041937196996 -0.017734719895617798 0 0.0012276904609537947 -0.017594218470669155 0 0.0015012666881081536 -0.017612447193752791 0 0.0013295337958523525 -0.017711428250664803 0 0.0015209592199239795 -0.017586101872137546 0 0.0015012666881081536 -0.017612447193752791 0 0.0015675109281760239 -0.017380847808030366 0 0.0013714159781198602 -0.017399645159136626 0 0.0015012666881081536 -0.017612447193752791 0 0.0017154963266818777 -0.017440099888323572 0 0.0015675109281760239 -0.017380847808030366 0 0.0015209592199239795 -0.017586101872137546 0 0.0017061807777689682 -0.017452253952912045 0 0.0017154963266818777 -0.017440099888323572 0 0.0018320735668206833 -0.01768127960870643 0 0.0016605020801623615 -0.017659254256822216 0 0.0015358686865282372 -0.017568426722228601 0 0.0017154963266818777 -0.017440099888323572 0 0.0016605020801623615 -0.017659254256822216 0 0.0019886232236218122 -0.017460722428828419 0 0.002144671254162062 -0.0173417625787953 0 0.001872446584553221 -0.017344047236319195 0 0.0017154963266818777 -0.017440099888323572 0 0.0019886232236218122 -0.017460722428828419 0 0.001872446584553221 -0.017344047236319195 0 0.0017154963266818777 -0.017440099888323572 0 0.0019886232236218122 -0.017460722428828419 0 0.0018320735668206833 -0.01768127960870643 0 0.0019843695124791435 -0.017468544864919999 0 0.001902079099395621 -0.017573029149616299 0 0.0019886232236218122 -0.017460722428828419 0 0.0020586418556067933 -0.017497483467348238 0 0.0019763487998567227 -0.017469153482722519 0 0.0020586418556067933 -0.017497483467348238 0 0.0019763487998567227 -0.017469153482722519 0 0.0019832796733632828 -0.017520218998549792 0 0.0019763487998567227 -0.017469153482722519 0 0.0019832796733632828 -0.017520218998549792 0 0.0018851921469258473 -0.01750390595879046 0 0.0020586418556067933 -0.017497483467348238 0 0.0019832796733632828 -0.017520218998549792 0 0.0020363615160533879 -0.017578524211349505 0 0.002134999279000729 -0.017551727425884137 0 0.0020586418556067933 -0.017497483467348238 0 0.0020363615160533879 -0.017578524211349505 0 0.001538384151157595 -0.017754011565130554 0 0.0016605020801623615 -0.017659254256822216 0 0.0016892100598513888 -0.017844735181929399 0 0.001538384151157595 -0.017754011565130554 0 0.0015358686865282372 -0.017568426722228601 0 0.0016605020801623615 -0.017659254256822216 0 0.001902079099395621 -0.017573029149616299 0 0.0017830819094582884 -0.017675214432608315 0 0.0018320735668206833 -0.01768127960870643 0 0.0016605020801623615 -0.017659254256822216 0 0.0016892100598513888 -0.017844735181929399 0 0.0019832796733632828 -0.017520218998549792 0 0.0018851921469258473 -0.01750390595879046 0 0.0019376942104504138 -0.01756980376155649 0 0.001538384151157595 -0.017754011565130554 0 0.0015316543140010725 -0.017881704608867087 0 0.0016892100598513888 -0.017844735181929399 0 0.0015316543140010725 -0.017881704608867087 0 0.0016892100598513888 -0.017844735181929399 0 0.001546639069281641 -0.017960477752430388 0 0.0018851921469258473 -0.01750390595879046 0 0.0017066655476580652 -0.017615662064500593 0 0.0018254970094956835 -0.017617318871910384 0 0.0017830819094582884 -0.017675214432608315 0 0.0016312915557958588 -0.017792954774882734 0 0.0018851921469258473 -0.01750390595879046 0 0.0018254970094956835 -0.017617318871910384 0 0.0019376942104504138 -0.01756980376155649 0 0.0018254970094956835 -0.017617318871910384 0 0.0019376942104504138 -0.01756980376155649 0 0.0019034932261035472 -0.017645049554916477 0 0.0022102354928985228 -0.01730250153200568 0 0.0022516840459451508 -0.015827331263034872 0 0.0018894053598802064 -0.017662900143120809 0 0.00185489821361329 -0.01775853129598419 0 0.0020643438892164476 -0.017730940079628221 0 0.0022516840459451508 -0.015827331263034872 0 0.0014946313193801184 -0.017566390883717913 0 0.0018254970094956835 -0.017617318871910384 0 0.0019335597073597442 -0.017677421426073904 0 0.0017848423709098697 -0.017737221899897251 0 0.0018894053598802064 -0.017662900143120809 0 0.00185489821361329 -0.01775853129598419 0 0.0017848423709098697 -0.017737221899897251 0 0.00185489821361329 -0.01775853129598419 0 0.0017848423709098697 -0.017737221899897251 0 0.0017510049207852786 -0.017849744514289459 0 0.0017848423709098697 -0.017737221899897251 0 0.0016611305971813213 -0.01780774205854389 0 0.0016813436414695173 -0.017850757918188034 0 0.0017066655476580652 -0.017615662064500593 0 0.0017848423709098697 -0.017737221899897251 0 0.0016611305971813213 -0.01780774205854389 0 0.0017066655476580652 -0.017615662064500593 0 0.0018254970094956835 -0.017617318871910384 0 0.0017848423709098697 -0.017737221899897251 0 0.0019376942104504138 -0.01756980376155649 0 0.0019034932261035472 -0.017645049554916477 0 0.0020363615160533879 -0.017578524211349505 0 0.0019832796733632828 -0.017520218998549792 0 0.0019376942104504138 -0.01756980376155649 0 0.0020363615160533879 -0.017578524211349505 0 0.0028133122263589608 -0.011875185964627775 0 0.002680704318316642 -0.011883117105943902 0 0.0027169263414324025 -0.011769317947918627 0 0.0022516840459451508 -0.015827331263034872 0 0.0026410170280721399 -0.012664276561865634 0 0.0022516840459451508 -0.015827331263034872 0 0.0024150490608126443 -0.014582422742562256 0 0.0032563676042062476 -0.0076006811194779108 0 0.0026410170280721399 -0.012664276561865634 0 0.0035964808651414255 -0.0046295879332809526 0 0.0035989224968357263 -0.0046498732349070006 0 0.0032738221572951006 -0.0047773243023482093 0 0.0025640244790759567 -0.011753932807082819 0 0.002680704318316642 -0.011883117105943902 0 0.0027169263414324025 -0.011769317947918627 0 0.0031079209921739902 -0.0098497914318392034 0 0.0026410170280721399 -0.012664276561865634 0 0.0035356094163929404 -0.0049296330680417303 0 0.0035964808651414255 -0.0046295879332809526 0 0.0032738221572951006 -0.0047773243023482093 0 0.0023059294474868227 -0.017763880141670556 0 0.0020808065118971164 -0.017664465788487699 0 0.002095992028180576 -0.017852811426639654 0 0.0020808065118971164 -0.017664465788487699 0 0.0019591869420208423 -0.017866144145326179 0 0.0018233416514447831 -0.017853025634270072 0 0.0020808065118971164 -0.017664465788487699 0 0.0019591869420208423 -0.017866144145326179 0 0.002095992028180576 -0.017852811426639654 0 0.0019591869420208423 -0.017866144145326179 0 0.0020047023424273002 -0.017947227825786196 0 0.002095992028180576 -0.017852811426639654 0 0.0019591869420208423 -0.017866144145326179 0 0.0020047023424273002 -0.017947227825786196 0 0.0019042209411879543 -0.018011920003818224 0 0.0020047023424273002 -0.017947227825786196 0 0.0019042209411879543 -0.018011920003818224 0 0.0019931724943590134 -0.018033001019035634 0 0.0020047023424273002 -0.017947227825786196 0 0.0020957781158237698 -0.017953214235095053 0 0.0019931724943590134 -0.018033001019035634 0 0.0020047023424273002 -0.017947227825786196 0 0.0020957781158237698 -0.017953214235095053 0 0.002095992028180576 -0.017852811426639654 0 0.0023059294474868227 -0.017763880141670556 0 0.002095992028180576 -0.017852811426639654 0 0.0021720911942128317 -0.017929675511476065 0 0.0031079209921739902 -0.0098497914318392034 0 0.0010703343057403745 -0.015348371159264839 0 0.0023059294474868227 -0.017763880141670556 0 0.0021720911942128317 -0.017929675511476065 0 0.0022400357142974806 -0.017982007645602836 0 0.0020957781158237698 -0.017953214235095053 0 0.0021720911942128317 -0.017929675511476065 0 0.0022154314409625129 -0.018002855674001471 0 0.0020957781158237698 -0.017953214235095053 0 0.002095992028180576 -0.017852811426639654 0 0.0021720911942128317 -0.017929675511476065 0 0.0017510049207852786 -0.017849744514289459 0 0.0018233416514447831 -0.017853025634270072 0 0.0017459123887449367 -0.017972995461169611 0 0.0016604287686192703 -0.017938124541287896 0 0.0017510049207852786 -0.017849744514289459 0 0.0017459123887449367 -0.017972995461169611 0 0.0016604287686192703 -0.017938124541287896 0 0.0016813436414695173 -0.017850757918188034 0 0.001608126843956857 -0.017929162763154406 0 0.0016604287686192703 -0.017938124541287896 0 0.0016813436414695173 -0.017850757918188034 0 0.0017510049207852786 -0.017849744514289459 0 0.0017848423709098697 -0.017737221899897251 0 0.0016813436414695173 -0.017850757918188034 0 0.0017510049207852786 -0.017849744514289459 0 0.00185489821361329 -0.01775853129598419 0 0.0017510049207852786 -0.017849744514289459 0 0.0018233416514447831 -0.017853025634270072 0 0.0026410170280721399 -0.012664276561865634 0 0.0013557096769477486 -0.019174004809530645 0 0.00185489821361329 -0.01775853129598419 0 0.0020643438892164476 -0.017730940079628221 0 0.0018233416514447831 -0.017853025634270072 0 0.0019591869420208423 -0.017866144145326179 0 0.0018233416514447831 -0.017853025634270072 0 0.0018435296615096192 -0.017955770735192396 0 0.0018233416514447831 -0.017853025634270072 0 0.0018435296615096192 -0.017955770735192396 0 0.0017459123887449367 -0.017972995461169611 0 0.0019042209411879543 -0.018011920003818224 0 0.0017917399148837095 -0.018072485548089323 0 0.0019931724943590134 -0.018033001019035634 0 0.0019591869420208423 -0.017866144145326179 0 0.0018435296615096192 -0.017955770735192396 0 0.0019042209411879543 -0.018011920003818224 0 0.0020794096497044568 -0.018481026335571155 0 0.0019605732529229649 -0.020156711771534209 0 0.0018435296615096192 -0.017955770735192396 0 0.0019042209411879543 -0.018011920003818224 0 0.0017852749576057782 -0.018081258873675184 0 0.0019605732529229649 -0.020156711771534209 0 0.0014864502844556622 -0.022415122866990184 0 0.0018435296615096192 -0.017955770735192396 0 0.0017852749576057782 -0.018081258873675184 0 0.0017459123887449367 -0.017972995461169611 0 0.0017852749576057782 -0.018081258873675184 0 0.0017104603846014529 -0.018032439491584992 0 0.0016968647950316993 -0.018093289987042606 0 0.0017852749576057782 -0.018081258873675184 0 0.0017459123887449367 -0.017972995461169611 0 0.0017104603846014529 -0.018032439491584992 0 0.0016604287686192703 -0.017938124541287896 0 0.0017459123887449367 -0.017972995461169611 0 0.0016651338238276292 -0.018006541751760974 0 0.0017459123887449367 -0.017972995461169611 0 0.0016651338238276292 -0.018006541751760974 0 0.0017104603846014529 -0.018032439491584992 0 0.0016651338238276292 -0.018006541751760974 0 0.0017104603846014529 -0.018032439491584992 0 0.0016968647950316993 -0.018093289987042606 0 0.0014864502844556622 -0.022415122866990184 0 0.00067416577193911604 -0.022505059399662217 0 0.0014864502844556622 -0.022415122866990184 0 0.00076787499903203374 -0.025225669962326287 0 0.0010530206337624371 -0.024682869064288127 0 0.00087770568251476953 -0.024582455241384252 0 0.00075604256392890559 -0.024432528634295909 0 0.0010530206337624371 -0.024682869064288127 0 0.00087770568251476953 -0.024582455241384252 0 0.00072906374801680524 -0.024590865740143786 0 0.0010530206337624371 -0.024682869064288127 0 0.00072906374801680524 -0.024590865740143786 0 0.00052043819169143054 -0.024689829309442978 0 0.00072906374801680524 -0.024590865740143786 0 0.00075770389615263483 -0.024449741791075494 0 0.00058516264184053934 -0.024537087811586745 0 0.0016651338238276292 -0.018006541751760974 0 0.0016968647950316993 -0.018093289987042606 0 0.0015577000946340798 -0.017986765064858221 0 0.0016604287686192703 -0.017938124541287896 0 0.0016651338238276292 -0.018006541751760974 0 0.0015577000946340798 -0.017986765064858221 0 0.0012857016563131768 -0.024283628851270021 0 0.00067416577193911604 -0.022505059399662217 0 0.00087770568251476953 -0.024582455241384252 0 0.00072906374801680524 -0.024590865740143786 0 0.00075770389615263483 -0.024449741791075494 0 0.00052043819169143054 -0.024689829309442978 0 0.00035121849468067824 -0.024551264837621722 0 -7.1952699289728003e-05 -0.024700168841867685 0 0.00072906374801680524 -0.024590865740143786 0 0.00052043819169143054 -0.024689829309442978 0 0.00058516264184053934 -0.024537087811586745 0 0.00052043819169143054 -0.024689829309442978 0 0.00058516264184053934 -0.024537087811586745 0 0.00035121849468067824 -0.024551264837621722 0 0.00058516264184053934 -0.024537087811586745 0 0.00035121849468067824 -0.024551264837621722 0 0.00048139371075701123 -0.02439528212556474 0 0.00075770389615263483 -0.024449741791075494 0 0.00058516264184053934 -0.024537087811586745 0 0.00048139371075701123 -0.02439528212556474 0 0.00035121849468067824 -0.024551264837621722 0 0.00048139371075701123 -0.02439528212556474 0 0.00022533283106197698 -0.024443811696225646 0 0.00023196249523909406 -0.023729379363600509 0 0.0001669771640644442 -0.023731585610588204 0 0.0001549346437069138 -0.02371200816583318 0 0.00067416577193911604 -0.022505059399662217 0 0.0012102011095588745 -0.01950575079325343 0 0.00075770389615263483 -0.024449741791075494 0 0.00048139371075701123 -0.02439528212556474 0 0.00040073419508380943 -0.024119555948588112 0 0.0015477584661544471 -0.017952756603996051 0 0.0015153234560364289 -0.017946398474845825 0 0.0014298379542585105 -0.017979053285855796 0 0.0014190975648997995 -0.017592095397245044 0 0.0012102011095588745 -0.01950575079325343 0 0.00067416577193911604 -0.022505059399662217 0 0.00034772491163759988 -0.024134954177069352 0 0.00032127973906003187 -0.024286957440218294 0 0.00048139371075701123 -0.02439528212556474 0 0.00040073419508380943 -0.024119555948588112 0 0.00032127973906003187 -0.024286957440218294 0 0.00048139371075701123 -0.02439528212556474 0 0.00022533283106197698 -0.024443811696225646 0 0.00032127973906003187 -0.024286957440218294 0 0.00040073419508380943 -0.024119555948588112 0 0.00021277459943592412 -0.024175873219509213 0 0.0015577000946340798 -0.017986765064858221 0 0.0015477584661544471 -0.017952756603996051 0 0.0014830534079958025 -0.017940807852644 0 0.0016604287686192703 -0.017938124541287896 0 0.0015577000946340798 -0.017986765064858221 0 0.001608126843956857 -0.017929162763154406 0 0.0015577000946340798 -0.017986765064858221 0 0.001608126843956857 -0.017929162763154406 0 0.0015477584661544471 -0.017952756603996051 0 0.0015477584661544471 -0.017952756603996051 0 0.0015153234560364289 -0.017946398474845825 0 0.0016087380243745039 -0.017889112080224256 0 0.0016611305971813213 -0.01780774205854389 0 0.0015153234560364289 -0.017946398474845825 0 0.0016087380243745039 -0.017889112080224256 0 0.001608126843956857 -0.017929162763154406 0 0.0015477584661544471 -0.017952756603996051 0 0.0016087380243745039 -0.017889112080224256 0 0.0016813436414695173 -0.017850757918188034 0 0.001608126843956857 -0.017929162763154406 0 0.0016087380243745039 -0.017889112080224256 0 0.0016611305971813213 -0.01780774205854389 0 0.0016813436414695173 -0.017850757918188034 0 0.0016087380243745039 -0.017889112080224256 0 0.0016312915557958588 -0.017792954774882734 0 0.001522801228273915 -0.017931393373619334 0 0.0017066655476580652 -0.017615662064500593 0 0.0016611305971813213 -0.01780774205854389 0 0.0015153234560364289 -0.017946398474845825 0 0.001546639069281641 -0.017960477752430388 0 0.0015153234560364289 -0.017946398474845825 0 0.001491510833886547 -0.017956112955063757 0 0.0015153234560364289 -0.017946398474845825 0 0.001491510833886547 -0.017956112955063757 0 0.0014739201075957033 -0.01796125191198486 0 0.0015153234560364289 -0.017946398474845825 0 0.0014739201075957033 -0.01796125191198486 0 0.0014298379542585105 -0.017979053285855796 0 0.0014739201075957033 -0.01796125191198486 0 0.0014298379542585105 -0.017979053285855796 0 0.0014559707805916497 -0.017961078263341441 0 0.0014298379542585105 -0.017979053285855796 0 0.0014096566234311626 -0.017955893111712591 0 0.0013300485193898594 -0.01796905557718383 0 0.0014298379542585105 -0.017979053285855796 0 0.0014559707805916497 -0.017961078263341441 0 0.0014096566234311626 -0.017955893111712591 0 0.0014559707805916497 -0.017961078263341441 0 0.0014638679977102055 -0.01794725441859428 0 0.0014096566234311626 -0.017955893111712591 0 0.001491510833886547 -0.017956112955063757 0 0.0014739201075957033 -0.01796125191198486 0 0.0014559707805916497 -0.017961078263341441 0 0.001491510833886547 -0.017956112955063757 0 0.0014559707805916497 -0.017961078263341441 0 0.0014638679977102055 -0.01794725441859428 0 0.0014638679977102055 -0.01794725441859428 0 0.0014096566234311626 -0.017955893111712591 0 0.0014533908843924383 -0.017923881448673393 0 0.0014096566234311626 -0.017955893111712591 0 0.0013662122726964575 -0.01793111053005278 0 0.0014533908843924383 -0.017923881448673393 0 0.0014054086208384136 -0.017893420412648381 0 0.0013662122726964575 -0.01793111053005278 0 0.0014533908843924383 -0.017923881448673393 0 0.001546639069281641 -0.017960477752430388 0 0.001491510833886547 -0.017956112955063757 0 0.0015059907113879512 -0.017941078928532618 0 0.0015316543140010725 -0.017881704608867087 0 0.0014533908843924383 -0.017923881448673393 0 0.0015059907113879512 -0.017941078928532618 0 0.0015316543140010725 -0.017881704608867087 0 0.001546639069281641 -0.017960477752430388 0 0.0015059907113879512 -0.017941078928532618 0 0.0014638679977102055 -0.01794725441859428 0 0.0014533908843924383 -0.017923881448673393 0 0.0015059907113879512 -0.017941078928532618 0 0.001491510833886547 -0.017956112955063757 0 0.0014638679977102055 -0.01794725441859428 0 0.0015059907113879512 -0.017941078928532618 0 0.00071051739816343693 -0.02108259940329715 0 -0.0005397957157527209 -0.020916475762074047 0 -5.9917361300360251e-05 -0.023556502111943968 0 -0.00046454128337814892 -0.023379441969491731 0 -0.00055969988211837757 -0.022979338763538283 0 -5.9917361300360251e-05 -0.023556502111943968 0 -0.00032013183215181878 -0.023560394175446812 0 -0.00046454128337814892 -0.023379441969491731 0 -5.9917361300360251e-05 -0.023556502111943968 0 -0.00032013183215181878 -0.023560394175446812 0 -0.00024301503911920122 -0.023728410916072137 0 -5.9917361300360251e-05 -0.023556502111943968 0 -1.5530464355815137e-05 -0.023687207349615092 0 -0.00024301503911920122 -0.023728410916072137 0 -0.00032013183215181878 -0.023560394175446812 0 -0.00024301503911920122 -0.023728410916072137 0 -0.0005206645738403214 -0.023650278864355369 0 -0.00032013183215181878 -0.023560394175446812 0 -0.00046454128337814892 -0.023379441969491731 0 -0.0005206645738403214 -0.023650278864355369 0 0.0016258791907338181 -0.01863255609979076 0 0.001227391092928238 -0.018208484778047623 0 0.0013992193207493827 -0.018268643677635102 0 0.0012993593810690499 -0.017926599839009162 0 0.0011854056135930141 -0.017960324403061494 0 0.0013300485193898594 -0.01796905557718383 0 0.0011854056135930141 -0.017960324403061494 0 0.001227391092928238 -0.018208484778047623 0 0.0013992193207493827 -0.018268643677635102 0 0.0012355401882182468 -0.018005632511852096 0 0.0012864345386536284 -0.0179814795881224 0 0.0012993593810690499 -0.017926599839009162 0 0.0013662122726964575 -0.01793111053005278 0 0.0013300485193898594 -0.01796905557718383 0 0.0014096566234311626 -0.017955893111712591 0 0.0013662122726964575 -0.01793111053005278 0 0.0013300485193898594 -0.01796905557718383 0 0.0001549346437069138 -0.02371200816583318 0 -5.9917361300360251e-05 -0.023556502111943968 0 -1.5530464355815137e-05 -0.023687207349615092 0 0.00034772491163759988 -0.024134954177069352 0 -4.3755139721753451e-05 -0.023628816713708017 0 0.0012102011095588745 -0.01950575079325343 0 0.00071051739816343693 -0.02108259940329715 0 0.00040073419508380943 -0.024119555948588112 0 -1.5530464355815137e-05 -0.023687207349615092 0 9.4767184561075674e-05 -0.024029712438394336 0 0.0001669771640644442 -0.023731585610588204 0 0.0001549346437069138 -0.02371200816583318 0 -1.5530464355815137e-05 -0.023687207349615092 0 0.0012102011095588745 -0.01950575079325343 0 0.0012864345386536284 -0.0179814795881224 0 -1.5530464355815137e-05 -0.023687207349615092 0 9.4767184561075674e-05 -0.024029712438394336 0 -0.00010072212771410245 -0.023947773115030269 0 -0.00010072212771410245 -0.023947773115030269 0 -0.00024301503911920122 -0.023728410916072137 0 -0.00032335538582474292 -0.023967093051726097 0 -0.00010072212771410245 -0.023947773115030269 0 -0.00032335538582474292 -0.023967093051726097 0 -0.00033499730908558402 -0.024231231431411902 0 -1.5530464355815137e-05 -0.023687207349615092 0 -0.00010072212771410245 -0.023947773115030269 0 -0.00024301503911920122 -0.023728410916072137 0 -0.00024301503911920122 -0.023728410916072137 0 -0.00032335538582474292 -0.023967093051726097 0 -0.00052102434558761596 -0.023868524411222562 0 -0.00024301503911920122 -0.023728410916072137 0 -0.0005206645738403214 -0.023650278864355369 0 -0.00052102434558761596 -0.023868524411222562 0 -0.00032335538582474292 -0.023967093051726097 0 -0.00033499730908558402 -0.024231231431411902 0 -0.00067131907448755488 -0.024132330524813044 0 -0.00010072212771410245 -0.023947773115030269 0 -0.00033499730908558402 -0.024231231431411902 0 -2.9632849990716335e-05 -0.024224083587367412 0 -0.00033499730908558402 -0.024231231431411902 0 -2.9632849990716335e-05 -0.024224083587367412 0 -0.00025756403557557802 -0.024453595731616561 0 -0.00033499730908558402 -0.024231231431411902 0 -0.00025756403557557802 -0.024453595731616561 0 -0.00052345772943420516 -0.024421248294669216 0 0.00021277459943592412 -0.024175873219509213 0 -2.9632849990716335e-05 -0.024224083587367412 0 0.00017948978424962909 -0.024305034893909491 0 0.00040073419508380943 -0.024119555948588112 0 9.4767184561075674e-05 -0.024029712438394336 0 0.00021277459943592412 -0.024175873219509213 0 9.4767184561075674e-05 -0.024029712438394336 0 0.00021277459943592412 -0.024175873219509213 0 -2.9632849990716335e-05 -0.024224083587367412 0 9.4767184561075674e-05 -0.024029712438394336 0 -0.00010072212771410245 -0.023947773115030269 0 -2.9632849990716335e-05 -0.024224083587367412 0 -2.9632849990716335e-05 -0.024224083587367412 0 2.1719066348072157e-06 -0.024422082521392548 0 -0.00025756403557557802 -0.024453595731616561 0 -2.9632849990716335e-05 -0.024224083587367412 0 2.1719066348072157e-06 -0.024422082521392548 0 0.00017948978424962909 -0.024305034893909491 0 2.1719066348072157e-06 -0.024422082521392548 0 0.00017948978424962909 -0.024305034893909491 0 0.00022533283106197698 -0.024443811696225646 0 0.00032127973906003187 -0.024286957440218294 0 0.00017948978424962909 -0.024305034893909491 0 0.00022533283106197698 -0.024443811696225646 0 0.00032127973906003187 -0.024286957440218294 0 0.00021277459943592412 -0.024175873219509213 0 0.00017948978424962909 -0.024305034893909491 0 0.00076787499903203374 -0.025225669962326287 0 -0.00011282102420252603 -0.024865501121550001 0 0.00035121849468067824 -0.024551264837621722 0 0.00022533283106197698 -0.024443811696225646 0 -7.1952699289728003e-05 -0.024700168841867685 0 0.00096108076823352411 -0.025199195629866163 0 -9.4137313943629431e-05 -0.025123535180460132 0 0.00046497006394195637 -0.025492057681193427 0 2.1719066348072157e-06 -0.024422082521392548 0 0.00022533283106197698 -0.024443811696225646 0 -7.1952699289728003e-05 -0.024700168841867685 0 -0.00011282102420252603 -0.024865501121550001 0 -0.00086881808227617127 -0.024970134791052364 0 -7.1952699289728003e-05 -0.024700168841867685 0 -0.00025756403557557802 -0.024453595731616561 0 -0.00069001012625473888 -0.024678088536923999 0 -9.4137313943629431e-05 -0.025123535180460132 0 -0.00076016392230326729 -0.025660128362506574 0 -0.0012121570271204985 -0.025031140703505882 0 2.1719066348072157e-06 -0.024422082521392548 0 -7.1952699289728003e-05 -0.024700168841867685 0 -0.00025756403557557802 -0.024453595731616561 0 -0.00076016392230326729 -0.025660128362506574 0 -5.1985018343205025e-05 -0.025992459969600253 0 -0.0012081737773072096 -0.026355568024231436 0 -9.4137313943629431e-05 -0.025123535180460132 0 -0.00076016392230326729 -0.025660128362506574 0 -5.1985018343205025e-05 -0.025992459969600253 0 -7.0573138443805397e-06 -0.026028243266870921 0 -0.00048111348647644862 -0.026787550572405894 0 -0.0012081737773072096 -0.026355568024231436 0 -3.6053059679579219e-05 -0.025971638020472056 0 -0.0011537858049748123 -0.026345131034584197 0 -7.0573138443805397e-06 -0.026028243266870921 0 -0.00048111348647644862 -0.026787550572405894 0 0.00021104067310235663 -0.026903265406118117 0 -7.0573138443805397e-06 -0.026028243266870921 0 0.00070372519512232866 -0.026333928194582943 0 0.00021104067310235663 -0.026903265406118117 0 -5.1985018343205025e-05 -0.025992459969600253 0 0.00046497006394195637 -0.025492057681193427 0 0.0010348395820623645 -0.025653746099577473 0 -9.4137313943629431e-05 -0.025123535180460132 0 -5.1985018343205025e-05 -0.025992459969600253 0 0.00046497006394195637 -0.025492057681193427 0 -3.6053059679579219e-05 -0.025971638020472056 0 0.001090344751434699 -0.025992628592928682 0 -7.0573138443805397e-06 -0.026028243266870921 0 0.0011578686855717741 -0.02568762631976863 0 0.00070372519512232866 -0.026333928194582943 0 0.00096108076823352411 -0.025199195629866163 0 0.00046497006394195637 -0.025492057681193427 0 0.0010348395820623645 -0.025653746099577473 0 0.0019634780550840032 -0.025237254700732872 0 0.00096108076823352411 -0.025199195629866163 0 0.0010348395820623645 -0.025653746099577473 0 0.0011578686855717741 -0.02568762631976863 0 0.0022959487483145955 -0.025352641970127293 0 0.0021906148829426209 -0.025973985516020075 0 0.001090344751434699 -0.025992628592928682 0 0.0019338955660189695 -0.022831313402105688 0 0.0019634780550840032 -0.025237254700732872 0 0.0010348395820623645 -0.025653746099577473 0 0.002069427232651131 -0.025328864667921676 0 0.0011578686855717741 -0.02568762631976863 0 0.0018006724457291397 -0.026350584574854917 0 0.0021906148829426209 -0.025973985516020075 0 0.0011578686855717741 -0.02568762631976863 0 0.0018006724457291397 -0.026350584574854917 0 0.0012387507810365285 -0.026440575338656076 0 0.0018006724457291397 -0.026350584574854917 0 0.0012387507810365285 -0.026440575338656076 0 0.0016018976903199569 -0.02695036686094382 0 0.0011578686855717741 -0.02568762631976863 0 0.00070372519512232866 -0.026333928194582943 0 0.0012387507810365285 -0.026440575338656076 0 0.00070372519512232866 -0.026333928194582943 0 0.0012387507810365285 -0.026440575338656076 0 0.00087970799582308488 -0.026882666011403294 0 0.00070372519512232866 -0.026333928194582943 0 0.00087970799582308488 -0.026882666011403294 0 0.00021104067310235663 -0.026903265406118117 0 0.0012387507810365285 -0.026440575338656076 0 0.00087970799582308488 -0.026882666011403294 0 0.0016018976903199569 -0.02695036686094382 0 0.00087970799582308488 -0.026882666011403294 0 0.0016018976903199569 -0.02695036686094382 0 0.0013426433867860543 -0.0279950076204145 0 0.0018006724457291397 -0.026350584574854917 0 0.0016018976903199569 -0.02695036686094382 0 0.0023493543013555279 -0.027102890311449527 0 0.0016018976903199569 -0.02695036686094382 0 0.0013426433867860543 -0.0279950076204145 0 0.0023493543013555279 -0.027102890311449527 0 -0.00069776507789542322 -0.017608520959563473 0 -0.00082068206207834289 -0.017616465430664949 0 -0.00081527626977460823 -0.017622567197831909 0 -0.00069776507789542322 -0.017608520959563473 0 -0.00081527626977460823 -0.017622567197831909 0 -0.00086619249988034329 -0.017525937627498663 0 0.00031356367669562005 -0.022788023764015883 0 0.00079886926606170046 -0.022505517955785342 0 0.00087970799582308488 -0.026882666011403294 0 0.0013426433867860543 -0.0279950076204145 0 0.00050977123810732998 -0.027724846223959158 0 0.00050977123810732998 -0.027724846223959158 0 -0.00036162218396205509 -0.027673049627582384 0 0.00027163647883165088 -0.028882992601155122 0 -0.00036162218396205509 -0.027673049627582384 0 -0.00081612163654706923 -0.028656730919349456 0 -0.001119451782392413 -0.027868454999241461 0 -0.00036162218396205509 -0.027673049627582384 0 -0.00048111348647644862 -0.026787550572405894 0 -0.0010325929238113336 -0.02712119561789916 0 -0.00036162218396205509 -0.027673049627582384 0 -0.00048111348647644862 -0.026787550572405894 0 0.00021104067310235663 -0.026903265406118117 0 0.00050977123810732998 -0.027724846223959158 0 -0.00036162218396205509 -0.027673049627582384 0 0.00021104067310235663 -0.026903265406118117 0 0.00087970799582308488 -0.026882666011403294 0 0.00050977123810732998 -0.027724846223959158 0 0.00021104067310235663 -0.026903265406118117 0 0.00085323654968057834 -0.010246125050798 0 -0.00019619827189469764 -0.012533227883889417 0 -0.00019619827189469764 -0.012533227883889417 0 0.00082608005425992498 -0.015277900613640589 0 0.00028980142022309543 -0.017096112758436005 0 0.00051518493544714132 -0.016292758984470149 0 5.9042242535022253e-05 -0.016662592682836073 0 0.00028980142022309543 -0.017096112758436005 0 0.00051518493544714132 -0.016292758984470149 0 0.00057203194929461955 -0.016295836327117855 0 0.00065473187463325306 -0.012284508755785326 0 9.7317686260904796e-05 -0.012867673372892819 0 0.00029849946004545613 -0.0122660074806331 0 0.001160156242783711 -0.016370540745871666 0 0.00082608005425992498 -0.015277900613640589 0 0.001160156242783711 -0.016370540745871666 0 0.0010703343057403745 -0.015348371159264839 0 0.0021720911942128317 -0.017929675511476065 0 0.0022154314409625129 -0.018002855674001471 0 0.0022400357142974806 -0.017982007645602836 0 0.00099673897012769134 -0.016311772412248359 0 0.0015137314533002399 -0.015901820612625364 0 0.0013732039799362562 -0.016340168591183073 0 0.0010703343057403745 -0.015348371159264839 0 0.00082608005425992498 -0.015277900613640589 0 0.001160156242783711 -0.016370540745871666 0 0.00091194356432601996 -0.01835870529344278 0 0.001160156242783711 -0.016370540745871666 0 0.0021044037878610923 -0.019225236120294274 0 0.0020957781158237698 -0.017953214235095053 0 0.0022154314409625129 -0.018002855674001471 0 0.0019931724943590134 -0.018033001019035634 0 0.0016100085272018137 -0.020108859696928837 0 0.0017695967341444928 -0.020014070406204856 0 0.0018818287947816024 -0.020174706907361662 0 0.0017695967341444928 -0.020014070406204856 0 0.0018818287947816024 -0.020174706907361662 0 0.0019211205018989943 -0.020034494908560626 0 0.00091194356432601996 -0.01835870529344278 0 0.0011638600444910964 -0.020724936572898107 0 0.0017695967341444928 -0.020014070406204856 0 0.0019211205018989943 -0.020034494908560626 0 0.0019344192738194846 -0.019898909826792294 0 5.9042242535022253e-05 -0.016662592682836073 0 -0.0003565189301211722 -0.017025147582516671 0 -2.5050314206451177e-05 -0.017009734999388654 0 0.00028980142022309543 -0.017096112758436005 0 5.9042242535022253e-05 -0.016662592682836073 0 -2.5050314206451177e-05 -0.017009734999388654 0 0.00028980142022309543 -0.017096112758436005 0 -2.5050314206451177e-05 -0.017009734999388654 0 -8.9393662132511813e-05 -0.017249287592981877 0 -0.0003565189301211722 -0.017025147582516671 0 -2.5050314206451177e-05 -0.017009734999388654 0 -8.9393662132511813e-05 -0.017249287592981877 0 -0.00031162421232187128 -0.017105164773155868 0 -8.9393662132511813e-05 -0.017249287592981877 0 -0.00042781863147991968 -0.017438878396879434 0 0.0011638600444910964 -0.020724936572898107 0 -0.00091291419514139287 -0.017285998773876397 0 0.0033181172383462852 -0.026254849729703083 0 0.0028107638356334656 -0.025812788499615245 0 0.0023493543013555279 -0.027102890311449527 0 0.0019211205018989943 -0.020034494908560626 0 0.0019344192738194846 -0.019898909826792294 0 0.0021042028972007125 -0.020051568953413632 0 0.0011638600444910964 -0.020724936572898107 0 0.002800462798820394 -0.023227205535699284 0 0.0018818287947816024 -0.020174706907361662 0 0.0019211205018989943 -0.020034494908560626 0 0.0021042028972007125 -0.020051568953413632 0 0.0021820127056816781 -0.020232887275635051 0 0.0018818287947816024 -0.020174706907361662 0 0.0021042028972007125 -0.020051568953413632 0 0.0019605732529229649 -0.020156711771534209 0 0.0021044037878610923 -0.019225236120294274 0 0.0028107638356334656 -0.025812788499615245 0 0.0022959487483145955 -0.025352641970127293 0 0.0021906148829426209 -0.025973985516020075 0 0.0018706839506323777 -0.021455961541149329 0 0.0018885679215154706 -0.021464764110435804 0 0.00188349538582226 -0.021457989271573729 0 0.002800462798820394 -0.023227205535699284 0 0.0019338955660189695 -0.022831313402105688 0 0.0021820127056816781 -0.020232887275635051 0 0.0021042028972007125 -0.020051568953413632 0 0.0022763364316310333 -0.020216478737879583 0 0.0019605732529229649 -0.020156711771534209 0 0.0019338955660189695 -0.022831313402105688 0 0.0014864502844556622 -0.022415122866990184 0 0.0019338955660189695 -0.022831313402105688 0 0.0018006724457291397 -0.026350584574854917 0 0.0021906148829426209 -0.025973985516020075 0 0.0023493543013555279 -0.027102890311449527 0 0.0028107638356334656 -0.025812788499615245 0 0.0021906148829426209 -0.025973985516020075 0 0.0023493543013555279 -0.027102890311449527 0 -0.00082068206207834289 -0.017616465430664949 0 -0.00081527626977460823 -0.017622567197831909 0 -0.0006025212871721145 -0.017628181945940211 0 -0.00081527626977460823 -0.017622567197831909 0 -0.00098603509140590445 -0.017543639973403344 0 -0.00086619249988034329 -0.017525937627498663 0 -0.00081527626977460823 -0.017622567197831909 0 -0.00061083991551069705 -0.017868568790491254 0 -0.0006025212871721145 -0.017628181945940211 0 -0.00040932210247283018 -0.018083370595832433 0 -0.0011518943237887927 -0.015491664851147146 0 -0.0017297947482173622 -0.011309764021839764 0 -0.00093438726496525781 -0.01049709261415567 0 -0.001154713507028538 -0.011302579861894254 0 -0.0011518943237887927 -0.015491664851147146 0 -0.00056357716842267967 -0.014040562943096684 0 -0.00061083991551069705 -0.017868568790491254 0 -0.0006025212871721145 -0.017628181945940211 0 -0.00024025545274191843 -0.017584483805528746 0 -0.0006025212871721145 -0.017628181945940211 0 -0.00042781863147991968 -0.017438878396879434 0 -0.00024025545274191843 -0.017584483805528746 0 0.0011638600444910964 -0.020724936572898107 0 0.00079886926606170046 -0.022505517955785342 0 -0.00031162421232187128 -0.017105164773155868 0 -0.00082068206207834289 -0.017616465430664949 0 -0.00042781863147991968 -0.017438878396879434 0 -0.00082068206207834289 -0.017616465430664949 0 -0.0006025212871721145 -0.017628181945940211 0 -0.00042781863147991968 -0.017438878396879434 0 -0.00028542807058424928 -0.0099094328049420758 0 -0.00052286398656527667 -0.010590019883258332 0 -0.00093438726496525781 -0.01049709261415567 0 -0.00019619827189469764 -0.012533227883889417 0 -0.00056357716842267967 -0.014040562943096684 0 0.00028980142022309543 -0.017096112758436005 0 -8.9393662132511813e-05 -0.017249287592981877 0 -0.00024025545274191843 -0.017584483805528746 0 -8.9393662132511813e-05 -0.017249287592981877 0 -0.00042781863147991968 -0.017438878396879434 0 -0.00024025545274191843 -0.017584483805528746 0 -0.00052286398656527667 -0.010590019883258332 0 -0.00093438726496525781 -0.01049709261415567 0 -0.00074821947441780642 -0.010855384984053773 0 -0.00093438726496525781 -0.01049709261415567 0 -0.001154713507028538 -0.011302579861894254 0 -0.00074821947441780642 -0.010855384984053773 0 -0.001154713507028538 -0.011302579861894254 0 -0.00056748775287446349 -0.011112733688831398 0 -0.00074821947441780642 -0.010855384984053773 0 -0.001154713507028538 -0.011302579861894254 0 -0.00056748775287446349 -0.011112733688831398 0 -0.00070882822464609133 -0.01165820940286162 0 -0.00056748775287446349 -0.011112733688831398 0 -0.00074821947441780642 -0.010855384984053773 0 -0.00051492571984100902 -0.010810480843547427 0 -0.00052286398656527667 -0.010590019883258332 0 -0.00074821947441780642 -0.010855384984053773 0 -0.00051492571984100902 -0.010810480843547427 0 0.00014271196372693025 -0.010967881277924038 0 -0.00022100226313223292 -0.01069253925832552 0 -0.00019768876824222839 -0.01112643106727503 0 -0.00052286398656527667 -0.010590019883258332 0 -0.00051492571984100902 -0.010810480843547427 0 -0.00022100226313223292 -0.01069253925832552 0 -0.00056748775287446349 -0.011112733688831398 0 -0.00022100226313223292 -0.01069253925832552 0 -0.00019888058714987513 -0.011632353492050792 0 -0.00056748775287446349 -0.011112733688831398 0 -0.00051492571984100902 -0.010810480843547427 0 -0.00022100226313223292 -0.01069253925832552 0 -0.00020639957172081423 -0.010751235962255043 0 -0.00020659759539156831 -0.011417137446067396 0 0.00021390152997001238 -0.010568145016743717 0 0.00014271196372693025 -0.010967881277924038 0 -0.00022100226313223292 -0.01069253925832552 0 -0.00019619827189469764 -0.012533227883889417 0 -0.00030552928529497674 -0.0096120773895015024 0 0.00021390152997001238 -0.010568145016743717 0 -0.00022100226313223292 -0.01069253925832552 0 -9.3455410866956118e-05 -0.010324915288383196 0 -0.00028558302819819791 -0.0098889303400105759 0 -0.00052286398656527667 -0.010590019883258332 0 -9.3455410866956118e-05 -0.010324915288383196 0 0.00043517592989531661 -0.010124430951179918 0 -0.00028558302819819791 -0.0098889303400105759 0 -9.3455410866956118e-05 -0.010324915288383196 0 -0.00052286398656527667 -0.010590019883258332 0 -0.00022100226313223292 -0.01069253925832552 0 -9.3455410866956118e-05 -0.010324915288383196 0 -0.0012225991352351089 -0.0078825588848074855 0 -0.00089834264157419481 -0.0090157532841568296 0 -0.00089834264157419481 -0.0090157532841568296 0 -0.00060334780406663354 -0.0091917363059614132 0 -0.00072010479043628788 -0.0085878127073200604 0 -0.00082749124778342992 -0.0085011264979729904 0 -0.00096043463413887208 -0.0086640013874739862 0 -0.00031566647472867633 -0.011764366901309598 0 -0.00064906976181261706 -0.010563315735525464 0 -0.00079308360928409224 -0.012639825676845125 0 -0.00040738804312895663 -0.011818976061858938 0 -0.00076010705750717653 -0.011924482328349955 0 -0.00080598292588354291 -0.010252373172871223 0 -0.00039186635304730357 -0.010593542720115966 0 -0.00057937392538412696 -0.0099787717226656331 0 -0.00039186635304730357 -0.010593542720115966 0 -0.00036134758383775628 -0.0099133124430428772 0 -0.00057937392538412696 -0.0099787717226656331 0 -0.00089834264157419481 -0.0090157532841568296 0 -0.00031566647472867633 -0.011764366901309598 0 -4.8607819822425052e-05 -0.011701663447707802 0 -0.00021236385917052905 -0.011570893029414556 0 7.050239300453557e-06 -0.011331533075172257 0 -0.00021236385917052905 -0.011570893029414556 0 7.050239300453557e-06 -0.011331533075172257 0 -0.00019768876824222839 -0.01112643106727503 0 -0.00024041532684087433 -0.012521132769908629 0 -0.00019888058714987513 -0.011632353492050792 0 -0.0006481825278540856 -0.012190922006176811 0 -0.00031566647472867633 -0.011764366901309598 0 -0.00020659759539156831 -0.011417137446067396 0 0.00014271196372693025 -0.010967881277924038 0 7.050239300453557e-06 -0.011331533075172257 0 -0.00019768876824222839 -0.01112643106727503 0 -0.001154713507028538 -0.011302579861894254 0 -0.00070882822464609133 -0.01165820940286162 0 -0.00064832666167476409 -0.012192333246633352 0 -0.00019888058714987513 -0.011632353492050792 0 -0.00070882822464609133 -0.01165820940286162 0 -0.0006481825278540856 -0.012190922006176811 0 -0.00075249430388879318 -0.011551291519782214 0 -0.00056322953872325443 -0.013805348039131745 0 -0.00056748775287446349 -0.011112733688831398 0 -0.00019888058714987513 -0.011632353492050792 0 -0.00070882822464609133 -0.01165820940286162 0 -0.00056322953872325443 -0.013805348039131745 0 -0.00092615698899266188 -0.012877897032532799 0 -0.0010977493812880758 -0.01690984312722554 0 -0.0010015355878393714 -0.01690069828132746 0 -0.001110667270883709 -0.016794824833879035 0 -0.00079308360928409224 -0.012639825676845125 0 -0.00026469574309724602 -0.013074932876876943 0 -0.00040738804312895663 -0.011818976061858938 0 -0.00031566647472867633 -0.011764366901309598 0 -0.00056322953872325443 -0.013805348039131745 0 -0.0011518943237887927 -0.015491664851147146 0 -0.00056322953872325443 -0.013805348039131745 0 -0.0017297947482173622 -0.011309764021839764 0 -0.001154713507028538 -0.011302579861894254 0 -0.00064832666167476409 -0.012192333246633352 0 -0.00098185980885037889 -0.017020636329970279 0 -0.0010977493812880758 -0.01690984312722554 0 -0.0010015355878393714 -0.01690069828132746 0 -0.0011518943237887927 -0.015491664851147146 0 -0.00096276915043124183 -0.017435445138365247 0 -0.00098603509140590445 -0.017543639973403344 0 -0.00088104617273664716 -0.017357626395884479 0 -0.00086619249988034329 -0.017525937627498663 0 -0.00098185980885037889 -0.017020636329970279 0 -0.0010015355878393714 -0.01690069828132746 0 -0.00089353604897608871 -0.016975221016441312 0 -0.0010015355878393714 -0.01690069828132746 0 -0.00089353604897608871 -0.016975221016441312 0 -0.00091921381512704919 -0.016887380686213635 0 -0.00091921381512704919 -0.016887380686213635 0 -0.0008916992410079879 -0.016728355890712383 0 -0.0010059581957802281 -0.016790428684162174 0 -0.00034795608064196106 -0.01469960486287019 0 -0.00038126504913275081 -0.014331515421917572 0 3.6088776290252665e-05 -0.012687439465131846 0 8.4303114598680844e-07 -0.01190532989020595 0 -2.1511906206078223e-07 -0.013997710224673559 0 3.6088776290252665e-05 -0.012687439465131846 0 8.4303114598680844e-07 -0.01190532989020595 0 0.00019291503897900662 -0.011607558881703152 0 8.4303114598680844e-07 -0.01190532989020595 0 0.00019291503897900662 -0.011607558881703152 0 -1.1155761734657646e-06 -0.0097264467879806821 0 -0.0010015355878393714 -0.01690069828132746 0 -0.00091921381512704919 -0.016887380686213635 0 -0.0010059581957802281 -0.016790428684162174 0 -0.0010015355878393714 -0.01690069828132746 0 -0.0010059581957802281 -0.016790428684162174 0 -0.001110667270883709 -0.016794824833879035 0 -0.00038126504913275081 -0.014331515421917572 0 -0.00092615698899266188 -0.012877897032532799 0 0.00019291503897900662 -0.011607558881703152 0 -0.00033785966690981891 -0.011443631421980597 0 -1.1155761734657646e-06 -0.0097264467879806821 0 -0.00092615698899266188 -0.012877897032532799 0 -0.00048250225349173655 -0.0091058434782636307 0 -0.00048250225349173655 -0.0091058434782636307 0 -0.00061119908790213152 -0.0093569657892460488 0 9.3981746509705528e-07 -0.0079447437135076095 0 -2.3763337988552365e-06 -0.0097199643808296727 0 -5.7759566923628682e-05 -0.0080467543628575579 0 -2.3763337988552365e-06 -0.0097199643808296727 0 -5.7759566923628682e-05 -0.0080467543628575579 0 -0.00094102536555319401 -0.007123044477486646 0 -0.00047217766534228209 -0.011208948668780642 0 -0.00080419450557554122 -0.0091714677532616969 0 -0.00089139478981401529 -0.011068000832414391 0 -5.7759566923628682e-05 -0.0080467543628575579 0 -0.00029246763822461609 -0.0073465912715771197 0 -0.00094102536555319401 -0.007123044477486646 0 -0.00099384450169025295 -0.0098061259669600855 0 -0.00098222178081482201 -0.0095756721621554543 0 -0.00073980963847018906 -0.0095020139389081215 0 -0.00061119908790213152 -0.0093569657892460488 0 -0.00060334780406663354 -0.0091917363059614132 0 -0.00029246763822461609 -0.0073465912715771197 0 -0.00094102536555319401 -0.007123044477486646 0 -0.00065646486210956141 -0.0068300702656613468 0 -0.00047217766534228209 -0.011208948668780642 0 -0.00089139478981401529 -0.011068000832414391 0 -0.00090319367734990094 -0.011337666421745518 0 -0.00092615698899266188 -0.012877897032532799 0 -0.00064906976181261706 -0.010563315735525464 0 -0.00061119908790213152 -0.0093569657892460488 0 -0.00064906976181261706 -0.010563315735525464 0 -0.00064906976181261706 -0.010563315735525464 0 -0.00060334780406663354 -0.0091917363059614132 0 -0.00025623266679003753 -0.0067623097000254458 0 -0.00065646486210956141 -0.0068300702656613468 0 -0.00032267860319957456 -0.0069504007018460455 0 -0.0012225991352351089 -0.0078825588848074855 0 -0.00060334780406663354 -0.0091917363059614132 0 -0.00014419172678424374 -0.0068735142121016408 0 -0.00025623266679003753 -0.0067623097000254458 0 -0.00032267860319957456 -0.0069504007018460455 0 -0.0010162401016785047 -0.0077463133760483846 0 -0.0012225991352351089 -0.0078825588848074855 0 -0.00014419172678424374 -0.0068735142121016408 0 -0.00029246763822461609 -0.0073465912715771197 0 -0.00032267860319957456 -0.0069504007018460455 0 -0.00029246763822461609 -0.0073465912715771197 0 -0.00065646486210956141 -0.0068300702656613468 0 -0.00032267860319957456 -0.0069504007018460455 0 -0.00030280813629976071 -0.017359671855969976 0 -0.00039122282801047381 -0.0170788382350106 0 1.3145172837840501e-05 -0.017093780478453408 0 1.9393554354085594e-05 -0.023048130233724748 0 -0.00050698316581120691 -0.023735939952292593 0 -0.00081612163654706923 -0.028656730919349456 0 0.00027163647883165088 -0.028882992601155122 0 -0.00080420115128283667 -0.029626950534439488 0 -0.00036162218396205509 -0.027673049627582384 0 -0.00081612163654706923 -0.028656730919349456 0 0.00027163647883165088 -0.028882992601155122 0 0.0013426433867860543 -0.0279950076204145 0 0.00050977123810732998 -0.027724846223959158 0 0.00027163647883165088 -0.028882992601155122 0 -0.00069776507789542322 -0.017608520959563473 0 -0.00030280813629976071 -0.017359671855969976 0 -0.00067899021215418775 -0.017348452378727734 0 0.00031356367669562005 -0.022788023764015883 0 1.9393554354085594e-05 -0.023048130233724748 0 -0.00088104617273664716 -0.017357626395884479 0 -0.00086619249988034329 -0.017525937627498663 0 -0.00067899021215418775 -0.017348452378727734 0 -0.00069776507789542322 -0.017608520959563473 0 -0.00086619249988034329 -0.017525937627498663 0 -0.00067899021215418775 -0.017348452378727734 0 -0.00088104617273664716 -0.017357626395884479 0 -0.00067899021215418775 -0.017348452378727734 0 -0.00072681250319688473 -0.016995565682109613 0 -0.00096276915043124183 -0.017435445138365247 0 -0.00067126354633346194 -0.016901723256818449 0 -0.00089353604897608871 -0.016975221016441312 0 -0.00091921381512704919 -0.016887380686213635 0 -0.00072681250319688473 -0.016995565682109613 0 -0.00030280813629976071 -0.017359671855969976 0 -0.00067899021215418775 -0.017348452378727734 0 -0.00039122282801047381 -0.0170788382350106 0 -0.00067899021215418775 -0.017348452378727734 0 -0.00039122282801047381 -0.0170788382350106 0 -0.00072681250319688473 -0.016995565682109613 0 -0.00039122282801047381 -0.0170788382350106 0 -0.00065544103153001632 -0.016562141633562028 0 -0.00019548799937920037 -0.016878110147704788 0 -0.00039122282801047381 -0.0170788382350106 0 -0.00072681250319688473 -0.016995565682109613 0 -0.00065544103153001632 -0.016562141633562028 0 -0.00091921381512704919 -0.016887380686213635 0 -0.0008916992410079879 -0.016728355890712383 0 -0.00072681250319688473 -0.016995565682109613 0 -0.0008916992410079879 -0.016728355890712383 0 -0.00072681250319688473 -0.016995565682109613 0 -0.00065544103153001632 -0.016562141633562028 0 -0.00034795608064196106 -0.01469960486287019 0 -0.00022195429669784799 -0.015391540133348139 0 3.6088776290252665e-05 -0.012687439465131846 0 -2.1511906206078223e-07 -0.013997710224673559 0 -4.1772390208067382e-05 -0.01429522987641133 0 -2.1511906206078223e-07 -0.013997710224673559 0 -4.1772390208067382e-05 -0.01429522987641133 0 -1.7959768513186872e-07 -0.016089050076595616 0 -0.00022195429669784799 -0.015391540133348139 0 1.8696424645535557e-07 -0.016089428738995361 0 -0.00065544103153001632 -0.016562141633562028 0 -7.2323661050292681e-07 -0.016092786047940871 0 -0.00019548799937920037 -0.016878110147704788 0 -0.00039122282801047381 -0.0170788382350106 0 -0.00019548799937920037 -0.016878110147704788 0 1.3145172837840501e-05 -0.017093780478453408 0 -0.00019548799937920037 -0.016878110147704788 0 1.3145172837840501e-05 -0.017093780478453408 0 2.3240652261031862e-06 -0.017014624152502975 0 -0.00024733491390295552 -0.017012102990751819 0 0.00033771770128606429 -0.016926680951247153 0 -7.2323661050292681e-07 -0.016092786047940871 0 0.00014326807863604478 -0.01741407519194978 0 7.6605182706771141e-07 -0.017997245638409827 0 -7.2323661050292681e-07 -0.016092786047940871 0 -0.00019548799937920037 -0.016878110147704788 0 0.00014326807863604478 -0.01741407519194978 0 0.00014326807863604478 -0.01741407519194978 0 7.6605182706771141e-07 -0.017997245638409827 0 -4.3172414109961233e-05 -0.018514049274474666 0 0.00033771770128606429 -0.016926680951247153 0 -0.00070293396684467516 -0.021422233864921831 0 7.6605182706771141e-07 -0.017997245638409827 0 -4.3172414109961233e-05 -0.018514049274474666 0 -8.3117641750315809e-07 -0.019905173568100953 0 -0.00070293396684467516 -0.021422233864921831 0 1.2299085442185296e-06 -0.019904950848703536 0 -0.0016911280624919483 -0.029646927339115434 0 -0.0021510136229321076 -0.029697297439873139 0 -0.0019019544857082011 -0.029978124329073715 0 -0.0016842056452216641 -0.030069670318240583 0 -0.0016911280624919483 -0.029646927339115434 0 -0.0019019544857082011 -0.029978124329073715 0 -0.00080420115128283667 -0.029626950534439488 0 -0.0016842056452216641 -0.030069670318240583 0 -0.0016911280624919483 -0.029646927339115434 0 1.3145172837840501e-05 -0.017093780478453408 0 2.3240652261031862e-06 -0.017014624152502975 0 3.8457727253273819e-05 -0.017070419273620512 0 -0.00050698316581120691 -0.023735939952292593 0 -0.00070293396684467516 -0.021422233864921831 0 -0.00080420115128283667 -0.029626950534439488 0 -0.0016911280624919483 -0.029646927339115434 0 -0.0013897456707173421 -0.02915605314953329 0 -0.00081612163654706923 -0.028656730919349456 0 -0.00080420115128283667 -0.029626950534439488 0 -0.0013897456707173421 -0.02915605314953329 0 -0.0016911280624919483 -0.029646927339115434 0 -0.0013897456707173421 -0.02915605314953329 0 -0.0020770041707045836 -0.029357526461182122 0 -0.0013897456707173421 -0.02915605314953329 0 -0.0016897759083818109 -0.028602607198286886 0 -0.0020770041707045836 -0.029357526461182122 0 -0.00081612163654706923 -0.028656730919349456 0 -0.0013897456707173421 -0.02915605314953329 0 -0.0016897759083818109 -0.028602607198286886 0 -0.00081612163654706923 -0.028656730919349456 0 -0.0016897759083818109 -0.028602607198286886 0 -0.001119451782392413 -0.027868454999241461 0 -0.0027075819855748116 -0.029168668295987174 0 -0.0021925812778329492 -0.028859747851024957 0 -0.0024672222651750059 -0.029300777067500401 0 -0.0016897759083818109 -0.028602607198286886 0 -0.0021925812778329492 -0.028859747851024957 0 -0.0020770041707045836 -0.029357526461182122 0 -0.0021925812778329492 -0.028859747851024957 0 -0.0020770041707045836 -0.029357526461182122 0 -0.0024672222651750059 -0.029300777067500401 0 -0.0020770041707045836 -0.029357526461182122 0 -0.0024424033004726781 -0.02956997121175798 0 -0.0024672222651750059 -0.029300777067500401 0 -0.0020770041707045836 -0.029357526461182122 0 -0.0024424033004726781 -0.02956997121175798 0 -0.0021510136229321076 -0.029697297439873139 0 -0.0027075819855748116 -0.029168668295987174 0 -0.0024672222651750059 -0.029300777067500401 0 -0.0027802983113511892 -0.029526965689940728 0 -0.0024424033004726781 -0.02956997121175798 0 -0.0024672222651750059 -0.029300777067500401 0 -0.0027802983113511892 -0.029526965689940728 0 -0.0024424033004726781 -0.02956997121175798 0 -0.0027802983113511892 -0.029526965689940728 0 -0.0026059039047616 -0.029886080601826129 0 -0.0026059039047616 -0.029886080601826129 0 -0.0021510136229321076 -0.029697297439873139 0 -0.0019019544857082011 -0.029978124329073715 0 -0.0016911280624919483 -0.029646927339115434 0 -0.0020770041707045836 -0.029357526461182122 0 -0.0021510136229321076 -0.029697297439873139 0 -0.0024122310439826456 -0.029823807275046098 0 -0.0019544603410855421 -0.029966156664200525 0 -0.0024424033004726781 -0.02956997121175798 0 -0.0026059039047616 -0.029886080601826129 0 -0.0021510136229321076 -0.029697297439873139 0 -0.00022436199932393712 -0.019923765401422027 0 -5.9936261418088637e-07 -0.019908177449100315 0 5.4951053977001345e-05 -0.020657055555104619 0 -5.9936261418088637e-07 -0.019908177449100315 0 5.3697945664280475e-07 -0.021183502475473914 0 5.4951053977001345e-05 -0.020657055555104619 0 -0.0022290657684853172 -0.029767637011757105 0 -0.0019019544857082011 -0.029978124329073715 0 -0.0021445386779262747 -0.029959543761699091 0 -0.0016842056452216641 -0.030069670318240583 0 -0.0019019544857082011 -0.029978124329073715 0 -0.0021445386779262747 -0.029959543761699091 0 -0.00070293396684467516 -0.021422233864921831 0 -0.0012505404690123386 -0.026009203397482829 0 5.3697945664280475e-07 -0.021183502475473914 0 5.4951053977001345e-05 -0.020657055555104619 0 -1.2864447291992957e-05 -0.022546009697233776 0 -0.0022290657684853172 -0.029767637011757105 0 -0.0021445386779262747 -0.029959543761699091 0 -0.0024012388427025657 -0.029884102324994444 0 -0.0012505404690123386 -0.026009203397482829 0 -0.00038820409147387287 -0.024308764464449451 0 5.3697945664280475e-07 -0.021183502475473914 0 -1.2864447291992957e-05 -0.022546009697233776 0 -5.2637000192086762e-07 -0.022461592991923941 0 -2.8620697118068264e-06 -0.022466099092729733 0 -4.7497557013062583e-05 -0.022908459075785471 0 -1.9215440342333039e-07 -0.027033550198268429 0 -3.6233763883722034e-05 -0.022746104733746889 0 -2.8620697118068264e-06 -0.022466099092729733 0 -4.7497557013062583e-05 -0.022908459075785471 0 -0.00038820409147387287 -0.024308764464449451 0 -0.00029983298486062262 -0.02423307362558292 0 -0.00038820409147387287 -0.024308764464449451 0 -2.5564043322429945e-06 -0.022467355809618651 0 -0.00038820409147387287 -0.024308764464449451 0 -0.0015051218084163067 -0.028268785618526835 0 -9.7509528815858417e-05 -0.022840836574758969 0 -4.7497557013062583e-05 -0.022908459075785471 0 -0.00057683716038825484 -0.026051507075554887 0 -0.0024384499640484835 -0.029678590928011814 0 -0.0025381155212899817 -0.029690779553369614 0 -0.0025254458754706706 -0.029722627399513743 0 -0.0024012388427025657 -0.029884102324994444 0 -0.0024384499640484835 -0.029678590928011814 0 -0.0025381155212899817 -0.029690779553369614 0 -0.0022290657684853172 -0.029767637011757105 0 -0.0024012388427025657 -0.029884102324994444 0 -0.0024384499640484835 -0.029678590928011814 0 -0.0024122310439826456 -0.029823807275046098 0 -0.002768479623281968 -0.029681879360266061 0 -0.0027802983113511892 -0.029526965689940728 0 -0.0026059039047616 -0.029886080601826129 0 -0.003128830829995492 -0.029685025789932235 0 -4.7497557013062583e-05 -0.022908459075785471 0 -0.00057683716038825484 -0.026051507075554887 0 -0.00032515808407655592 -0.026876306485197076 0 -4.7497557013062583e-05 -0.022908459075785471 0 -0.00032515808407655592 -0.026876306485197076 0 -1.9215440342333039e-07 -0.027033550198268429 0 -0.00057683716038825484 -0.026051507075554887 0 -0.00032515808407655592 -0.026876306485197076 0 -0.00077468043771346728 -0.02876845641333339 0 -0.0015051218084163067 -0.028268785618526835 0 -0.0014808291288883663 -0.02926651788909701 0 -0.0022438837637265069 -0.029924673548956494 0 -0.0023197660416566668 -0.029768732478554577 0 -0.0025254458754706706 -0.029722627399513743 0 -0.0022438837637265069 -0.029924673548956494 0 -0.0029952399434975286 -0.029547184566628599 0 -0.0028806497862195251 -0.029778890098046427 0 -0.0025381155212899817 -0.029690779553369614 0 -0.0023197660416566668 -0.029768732478554577 0 -0.0025254458754706706 -0.029722627399513743 0 -0.0022850362941721557 -0.029882144046330411 0 -0.0027339282829534389 -0.02966513509727229 0 -0.0029952399434975286 -0.029547184566628599 0 -0.0028806497862195251 -0.029778890098046427 0 -0.0030752582911934725 -0.029715166564520407 0 -0.0028806497862195251 -0.029778890098046427 0 -0.0029620789443305169 -0.030131342210980079 0 -0.0021833242134366589 -0.030434778020442813 0 -0.0028806497862195251 -0.029778890098046427 0 -0.0029620789443305169 -0.030131342210980079 0 -0.0030752582911934725 -0.029715166564520407 0 -0.0028402902183908315 -0.029851553476620996 0 -0.0022891050082523502 -0.030588595525736641 0 -0.0022438837637265069 -0.029924673548956494 0 -0.0028806497862195251 -0.029778890098046427 0 -0.0023839415968503665 -0.030741104571395228 0 -0.0027802983113511892 -0.029526965689940728 0 -0.003128830829995492 -0.029685025789932235 0 -0.0030761095363826874 -0.029501943742768426 0 -0.003128830829995492 -0.029685025789932235 0 -0.0030761095363826874 -0.029501943742768426 0 -0.0031459972398633893 -0.029613843829823999 0 -0.0027075819855748116 -0.029168668295987174 0 -0.0027802983113511892 -0.029526965689940728 0 -0.0030761095363826874 -0.029501943742768426 0 -0.002768479623281968 -0.029681879360266061 0 -0.0027339282829534389 -0.02966513509727229 0 -0.003128830829995492 -0.029685025789932235 0 -0.0029952399434975286 -0.029547184566628599 0 -0.0031459972398633893 -0.029613843829823999 0 -0.0029952399434975286 -0.029547184566628599 0 -0.0030752582911934725 -0.029715166564520407 0 -0.0031459972398633893 -0.029613843829823999 0 -0.0030752582911934725 -0.029715166564520407 0 -0.0031459972398633893 -0.029613843829823999 0 -0.0032145269480505132 -0.029553322570892503 0 -0.0030761095363826874 -0.029501943742768426 0 -0.0031459972398633893 -0.029613843829823999 0 -0.0032145269480505132 -0.029553322570892503 0 -0.0032145269480505132 -0.029553322570892503 0 -0.0031966774313331248 -0.029295339330700755 0 -0.0028960452037190914 -0.029697090057918995 0 -0.0029620789443305169 -0.030131342210980079 0 -0.0032145269480505132 -0.029553322570892503 0 -0.0031848562807251378 -0.030770355979711884 0 -0.0032078510372412793 -0.029642897616000984 0 -0.003013211546309603 -0.030252510120035044 0 -0.0029620789443305169 -0.030131342210980079 0 -0.0030752582911934725 -0.029715166564520407 0 -0.0032145269480505132 -0.029553322570892503 0 -0.0030761095363826874 -0.029501943742768426 0 -0.0032145269480505132 -0.029553322570892503 0 -0.0031966774313331248 -0.029295339330700755 0 -0.0027075819855748116 -0.029168668295987174 0 -0.0030761095363826874 -0.029501943742768426 0 -0.0031966774313331248 -0.029295339330700755 0 -0.0027075819855748116 -0.029168668295987174 0 -0.0031966774313331248 -0.029295339330700755 0 -0.0027597253817631608 -0.02887978879181784 0 -0.0031966774313331248 -0.029295339330700755 0 -0.0028266224705326567 -0.028336086849846877 0 -0.0027597253817631608 -0.02887978879181784 0 -0.0032328473523390447 -0.029315420288351397 0 -0.003474885378264795 -0.029096865354781613 0 -0.0031966774313331248 -0.029295339330700755 0 -0.0028266224705326567 -0.028336086849846877 0 -0.0035845494910517724 -0.02779835306594557 0 -0.0031966774313331248 -0.029295339330700755 0 -0.0028960452037190914 -0.029697090057918995 0 -0.0034235482347207951 -0.030343955803807533 0 -0.0028960452037190914 -0.029697090057918995 0 -0.0034235482347207951 -0.030343955803807533 0 -0.0023426375252630798 -0.030731833011066328 0 -0.0028266224705326567 -0.028336086849846877 0 -0.0035845494910517724 -0.02779835306594557 0 -0.0029900591738121996 -0.027186356009432845 0 -0.0021833242134366589 -0.030434778020442813 0 -0.0025326478764093902 -0.031075684539537823 0 -0.0015638259895036683 -0.031412072551659058 0 -0.0029620789443305169 -0.030131342210980079 0 -0.0031848562807251378 -0.030770355979711884 0 -0.0025326478764093902 -0.031075684539537823 0 -0.0029620789443305169 -0.030131342210980079 0 -0.0021833242134366589 -0.030434778020442813 0 -0.0025326478764093902 -0.031075684539537823 0 -0.0031848562807251378 -0.030770355979711884 0 -0.0025326478764093902 -0.031075684539537823 0 -0.0027313999290456701 -0.031827575287074708 0 -0.003013211546309603 -0.030252510120035044 0 -0.0025397296129887263 -0.031271795119378998 0 -0.0025326478764093902 -0.031075684539537823 0 -0.0019680548693018947 -0.032028312658401947 0 -0.0015638259895036683 -0.031412072551659058 0 -0.0025326478764093902 -0.031075684539537823 0 -0.0019680548693018947 -0.032028312658401947 0 -0.0027313999290456701 -0.031827575287074708 0 -0.0025397296129887263 -0.031271795119378998 0 -0.0020451147695292908 -0.032281462925574329 0 -0.0019680548693018947 -0.032028312658401947 0 -0.0027313999290456701 -0.031827575287074708 0 -0.0021818566663005146 -0.032649928911208062 0 -0.0023426375252630798 -0.030731833011066328 0 -0.0018733254009703553 -0.031939262965201574 0 -0.0031592673915151366 -0.031860348465934663 0 -0.0018733254009703553 -0.031939262965201574 0 -0.0031592673915151366 -0.031860348465934663 0 -0.0022644593968357174 -0.032652590184760945 0 -0.0029900591738121996 -0.027186356009432845 0 -0.0029550925494758488 -0.026257321571763415 0 -0.0023858254783559224 -0.026821014016116543 0 -0.0035845494910517724 -0.02779835306594557 0 -0.0029900591738121996 -0.027186356009432845 0 -0.0038406290571866533 -0.026406123160541233 0 -0.003474885378264795 -0.029096865354781613 0 -0.0034879837771588963 -0.029137382050748981 0 -0.0034235482347207951 -0.030343955803807533 0 -0.0023426375252630798 -0.030731833011066328 0 -0.0031592673915151366 -0.031860348465934663 0 -0.0038406290571866533 -0.026406123160541233 0 -0.0029550925494758488 -0.026257321571763415 0 -0.0033619050834588038 -0.025606442341594277 0 -0.0029900591738121996 -0.027186356009432845 0 -0.0038406290571866533 -0.026406123160541233 0 -0.0029550925494758488 -0.026257321571763415 0 -0.0029550925494758488 -0.026257321571763415 0 -0.0021624685428565699 -0.026149839870874679 0 -0.0023858254783559224 -0.026821014016116543 0 -0.0021624685428565699 -0.026149839870874679 0 -0.0023858254783559224 -0.026821014016116543 0 -0.0016248063284224859 -0.026696636538945929 0 -0.0029900591738121996 -0.027186356009432845 0 -0.0023858254783559224 -0.026821014016116543 0 -0.0021700258630004085 -0.02759432432931035 0 -0.0023858254783559224 -0.026821014016116543 0 -0.0016248063284224859 -0.026696636538945929 0 -0.0021700258630004085 -0.02759432432931035 0 -0.0016248063284224859 -0.026696636538945929 0 -0.0021700258630004085 -0.02759432432931035 0 -0.0012870903864531016 -0.027525392513980639 0 -0.0021624685428565699 -0.026149839870874679 0 -0.0012617419542610992 -0.026104241589554784 0 -0.0016248063284224859 -0.026696636538945929 0 -0.0013770113931883216 -0.026458941181502195 0 -0.0010011070508097143 -0.025322215762831064 0 -0.0012617419542610992 -0.026104241589554784 0 -0.0006947811960552777 -0.026581267180912048 0 -0.00069941064499559375 -0.025618360262778653 0 -0.0012617419542610992 -0.026104241589554784 0 -0.0016248063284224859 -0.026696636538945929 0 -0.0006947811960552777 -0.026581267180912048 0 -0.0017847316484714928 -0.025891755769648288 0 -0.0012412429671313724 -0.025730937678810722 0 -0.0012121570271204985 -0.025031140703505882 0 -0.0013770113931883216 -0.026458941181502195 0 -0.00086881808227617127 -0.024970134791052364 0 -0.00076016392230326729 -0.025660128362506574 0 -0.0012412429671313724 -0.025730937678810722 0 -0.0012121570271204985 -0.025031140703505882 0 -0.0017847316484714928 -0.025891755769648288 0 -0.0012412429671313724 -0.025730937678810722 0 -0.0012081737773072096 -0.026355568024231436 0 -0.00076016392230326729 -0.025660128362506574 0 -0.0012412429671313724 -0.025730937678810722 0 -0.0012081737773072096 -0.026355568024231436 0 -0.00048111348647644862 -0.026787550572405894 0 -0.0012081737773072096 -0.026355568024231436 0 -0.0010325929238113336 -0.02712119561789916 0 -0.0017847316484714928 -0.025891755769648288 0 -0.0012081737773072096 -0.026355568024231436 0 -0.0018017014955077606 -0.027168125582382449 0 -0.0016248063284224859 -0.026696636538945929 0 -0.0006947811960552777 -0.026581267180912048 0 -0.0012870903864531016 -0.027525392513980639 0 -0.0016483825866020099 -0.027155899754093542 0 -0.0016698652521668408 -0.027963348087754226 0 -0.0020158494019502245 -0.027735087484960785 0 -0.0013770113931883216 -0.026458941181502195 0 -0.0016529090981222681 -0.027686242733024075 0 -0.0013770113931883216 -0.026458941181502195 0 -0.0017702743586245802 -0.027589984005236941 0 -0.0016698652521668408 -0.027963348087754226 0 -0.0019694808356271322 -0.028285742216060113 0 -0.0020158494019502245 -0.027735087484960785 0 -0.0012081737773072096 -0.026355568024231436 0 -0.0018017014955077606 -0.027168125582382449 0 -0.0010325929238113336 -0.02712119561789916 0 -0.0018017014955077606 -0.027168125582382449 0 -0.0010325929238113336 -0.02712119561789916 0 -0.001119451782392413 -0.027868454999241461 0 -0.00036162218396205509 -0.027673049627582384 0 -0.0010325929238113336 -0.02712119561789916 0 -0.001119451782392413 -0.027868454999241461 0 -0.0016897759083818109 -0.028602607198286886 0 -0.0016698652521668408 -0.027963348087754226 0 -0.0019694808356271322 -0.028285742216060113 0 -0.0016899391978612269 -0.028530970020796673 0 -0.0017702743586245802 -0.027589984005236941 0 -0.0016897759083818109 -0.028602607198286886 0 -0.0021925812778329492 -0.028859747851024957 0 -0.0019694808356271322 -0.028285742216060113 0 -0.0016897759083818109 -0.028602607198286886 0 -0.0018017014955077606 -0.027168125582382449 0 -0.001119451782392413 -0.027868454999241461 0 -0.0021925812778329492 -0.028859747851024957 0 -0.0019694808356271322 -0.028285742216060113 0 -0.0023731406268162969 -0.028299051431815634 0 -0.0027075819855748116 -0.029168668295987174 0 -0.0019599776743862199 -0.028503547696028336 0 -0.0027597253817631608 -0.02887978879181784 0 -0.0028266224705326567 -0.028336086849846877 0 -0.0019599776743862199 -0.028503547696028336 0 -0.0027597253817631608 -0.02887978879181784 0 -0.0027075819855748116 -0.029168668295987174 0 -0.0021925812778329492 -0.028859747851024957 0 -0.0023731406268162969 -0.028299051431815634 0 -0.0026472961606260961 -0.029093421503825819 0 -0.0021663680075594788 -0.028390249290824291 0 -0.0028266224705326567 -0.028336086849846877 0 -0.0019599776743862199 -0.028503547696028336 0 -0.0021700258630004085 -0.02759432432931035 0 -0.0028266224705326567 -0.028336086849846877 0 -0.0029900591738121996 -0.027186356009432845 0 -0.0021700258630004085 -0.02759432432931035 0 -0.0019599776743862199 -0.028503547696028336 0 -0.0021700258630004085 -0.02759432432931035 0 -0.0012870903864531016 -0.027525392513980639 0 -0.0021663680075594788 -0.028390249290824291 0 -0.0016529090981222681 -0.027686242733024075 0 -0.0019694808356271322 -0.028285742216060113 0 -0.0023731406268162969 -0.028299051431815634 0 -0.0020158494019502245 -0.027735087484960785 0 2.7132702066482464e-07 -0.034998464386347315 0 0.00032273440651744257 -0.03239540002468861 0 8.7222296075776822e-07 -0.030467286840704114 0 2.7357605880322995e-07 -0.034995619178671604 0 0.00025551187761634503 -0.033806520625990169 0 2.7132702066482464e-07 -0.034998464386347315 0 -3.8461321733001861e-08 -0.035000102691891057 0 0.00017714144997804622 -0.034589621054348575 0 6.6192112754959198e-05 -0.034774908480082363 0 2.3182179517473699e-07 -0.034999602999007791 0 0.00028069829253035689 -0.034033904267327622 0 0.00036074764484996988 -0.033488851296174425 0 0.00025551187761634503 -0.033806520625990169 0 0.00041847942393531939 -0.033058219712149936 0 2.7357605880322995e-07 -0.034995619178671604 0 0.00036074764484996988 -0.033488851296174425 0 0.00025551187761634503 -0.033806520625990169 0 0.00025551187761634503 -0.033806520625990169 0 2.7132702066482464e-07 -0.034998464386347315 0 0.00032273440651744257 -0.03239540002468861 0 0.00032273440651744257 -0.03239540002468861 0 0.00017162304222059524 -0.031188560250424616 0 8.7222296075776822e-07 -0.030467286840704114 0 0.00032273440651744257 -0.03239540002468861 0 0.00041847942393531939 -0.033058219712149936 0 0.00030842789086859629 -0.032265490637562254 0 0.00032273440651744257 -0.03239540002468861 0 0.00030842789086859629 -0.032265490637562254 0 0.00017162304222059524 -0.031188560250424616 0 0.00025551187761634503 -0.033806520625990169 0 0.00032273440651744257 -0.03239540002468861 0 0.00041847942393531939 -0.033058219712149936 0 0.00036074764484996988 -0.033488851296174425 0 0.00041847942393531939 -0.033058219712149936 0 0.00035823920626194285 -0.033286864751549711 0 0.00041847942393531939 -0.033058219712149936 0 0.00029124505411036683 -0.032679831043914163 0 0.00035823920626194285 -0.033286864751549711 0 0.00041847942393531939 -0.033058219712149936 0 0.00029124505411036683 -0.032679831043914163 0 0.00030842789086859629 -0.032265490637562254 0 0.00029124505411036683 -0.032679831043914163 0 0.00012963492605596517 -0.031884983108901407 0 0.00019877979621656276 -0.032583695139859634 0 0.00029124505411036683 -0.032679831043914163 0 0.00030842789086859629 -0.032265490637562254 0 0.00012963492605596517 -0.031884983108901407 0 0.00012963492605596517 -0.031884983108901407 0 -0.00017937402610404267 -0.03179619083418829 0 -0.00020432823918021959 -0.030560624135954673 0 0.00012963492605596517 -0.031884983108901407 0 -0.00017937402610404267 -0.03179619083418829 0 0.00019877979621656276 -0.032583695139859634 0 0.00017162304222059524 -0.031188560250424616 0 -7.5272799972198534e-06 -0.029208086288510689 0 -0.00020432823918021959 -0.030560624135954673 0 0.00012963492605596517 -0.031884983108901407 0 0.00017162304222059524 -0.031188560250424616 0 -0.00020432823918021959 -0.030560624135954673 0 0.00030842789086859629 -0.032265490637562254 0 0.00012963492605596517 -0.031884983108901407 0 0.00017162304222059524 -0.031188560250424616 0 0.00017162304222059524 -0.031188560250424616 0 8.7222296075776822e-07 -0.030467286840704114 0 -7.5272799972198534e-06 -0.029208086288510689 0 8.7222296075776822e-07 -0.030467286840704114 0 -1.9215440342333039e-07 -0.027033550198268429 0 -7.5272799972198534e-06 -0.029208086288510689 0 -0.00032515808407655592 -0.026876306485197076 0 -0.00077468043771346728 -0.02876845641333339 0 -7.5272799972198534e-06 -0.029208086288510689 0 -0.00032515808407655592 -0.026876306485197076 0 -1.9215440342333039e-07 -0.027033550198268429 0 -7.5272799972198534e-06 -0.029208086288510689 0 -0.0022438837637265069 -0.029924673548956494 0 -0.0023197660416566668 -0.029768732478554577 0 -0.0016362499555152516 -0.030592883684100118 0 -0.00077468043771346728 -0.02876845641333339 0 -7.5272799972198534e-06 -0.029208086288510689 0 -0.00020432823918021959 -0.030560624135954673 0 -0.00077468043771346728 -0.02876845641333339 0 -0.00020432823918021959 -0.030560624135954673 0 -0.00067844893265663726 -0.031077576685171734 0 -0.00017937402610404267 -0.03179619083418829 0 -0.00020432823918021959 -0.030560624135954673 0 -0.00067844893265663726 -0.031077576685171734 0 -0.0022438837637265069 -0.029924673548956494 0 -0.0023839415968503665 -0.030741104571395228 0 -0.0016362499555152516 -0.030592883684100118 0 -0.0014808291288883663 -0.02926651788909701 0 -0.0011041697706555571 -0.030867382821425031 0 -0.0022891050082523502 -0.030588595525736641 0 -0.0016868534971087776 -0.031512771841218958 0 -0.0023839415968503665 -0.030741104571395228 0 -0.0016362499555152516 -0.030592883684100118 0 -0.0018009867499975581 -0.031611571553359932 0 -0.0016362499555152516 -0.030592883684100118 0 -0.0018009867499975581 -0.031611571553359932 0 -0.0009415118593241429 -0.031529732908919382 0 -0.0011041697706555571 -0.030867382821425031 0 -0.00059073493068694351 -0.032237467752328199 0 -0.00017937402610404267 -0.03179619083418829 0 -0.00067844893265663726 -0.031077576685171734 0 -0.00028246880286456625 -0.032945947921254028 0 -0.0018009867499975581 -0.031611571553359932 0 -0.0012131106255408605 -0.032299477906950647 0 -0.0009415118593241429 -0.031529732908919382 0 -0.0016868534971087776 -0.031512771841218958 0 -0.0012336317324355335 -0.032223606491321902 0 -0.0019680548693018947 -0.032028312658401947 0 -0.0015638259895036683 -0.031412072551659058 0 -0.0012131106255408605 -0.032299477906950647 0 -0.0019680548693018947 -0.032028312658401947 0 -0.0021818566663005146 -0.032649928911208062 0 -0.0016067034092438223 -0.032649778859229303 0 -0.0019680548693018947 -0.032028312658401947 0 -0.0016067034092438223 -0.032649778859229303 0 -0.0012131106255408605 -0.032299477906950647 0 -0.0021818566663005146 -0.032649928911208062 0 -0.0016067034092438223 -0.032649778859229303 0 -0.0017133011958020855 -0.033092579544818354 0 -0.0016067034092438223 -0.032649778859229303 0 -0.0012641671026289312 -0.032727302235477373 0 -0.0012131106255408605 -0.032299477906950647 0 -0.0016067034092438223 -0.032649778859229303 0 -0.0012641671026289312 -0.032727302235477373 0 -0.0013648368771909563 -0.033057739611421694 0 -0.0012131106255408605 -0.032299477906950647 0 -0.00089235256199386324 -0.032870951044400416 0 -0.000542719767701523 -0.032313301855388533 0 -0.0012641671026289312 -0.032727302235477373 0 -0.00089235256199386324 -0.032870951044400416 0 -0.0013648368771909563 -0.033057739611421694 0 -0.0012641671026289312 -0.032727302235477373 0 -0.0012131106255408605 -0.032299477906950647 0 -0.00089235256199386324 -0.032870951044400416 0 -0.00089235256199386324 -0.032870951044400416 0 -0.00063176337488774382 -0.033128076855829511 0 -0.00061074785887546925 -0.032782607542253976 0 -0.00089235256199386324 -0.032870951044400416 0 -0.00061074785887546925 -0.032782607542253976 0 -0.000542719767701523 -0.032313301855388533 0 -0.00025030986071744495 -0.033194975270476393 0 -0.00059073493068694351 -0.032237467752328199 0 3.0697625849789556e-05 -0.034091398104131712 0 0.00015074408144011075 -0.033610818140110479 0 -0.00028246880286456625 -0.032945947921254028 0 -0.0012131106255408605 -0.032299477906950647 0 -0.000542719767701523 -0.032313301855388533 0 -0.0009415118593241429 -0.031529732908919382 0 -0.00017937402610404267 -0.03179619083418829 0 -0.00028246880286456625 -0.032945947921254028 0 0.00017543884017815788 -0.0330629909437637 0 -0.00021907625905310065 -0.031978689797855286 0 0.00016986788242749512 -0.032801994682710271 0 0.00015074408144011075 -0.033610818140110479 0 -0.00028246880286456625 -0.032945947921254028 0 0.00017543884017815788 -0.0330629909437637 0 0.00015074408144011075 -0.033610818140110479 0 0.00017543884017815788 -0.0330629909437637 0 0.00028918245085513136 -0.03392594024011561 0 0.00029124505411036683 -0.032679831043914163 0 0.00019877979621656276 -0.032583695139859634 0 0.00035823920626194285 -0.033286864751549711 0 0.00019877979621656276 -0.032583695139859634 0 0.00035823920626194285 -0.033286864751549711 0 0.00037454763640289726 -0.033660470524867661 0 0.00016986788242749512 -0.032801994682710271 0 0.00034511739914853045 -0.033787187361595569 0 0.00034511739914853045 -0.033787187361595569 0 0.0001925158491077314 -0.034513725928425075 0 0.00017714144997804622 -0.034589621054348575 0 0.00037454763640289726 -0.033660470524867661 0 0.00012856711118455232 -0.034534761543371185 0 0.00017714144997804622 -0.034589621054348575 0 0.00035823920626194285 -0.033286864751549711 0 0.00037454763640289726 -0.033660470524867661 0 0.00028069829253035689 -0.034033904267327622 0 0.00030759870007875041 -0.033426883163912083 0 0.00025416050437469421 -0.034215563664122858 0 0.0002328890328162532 -0.034374627414097213 0 0.00023203157941627771 -0.034540709970419838 0 0.00028918245085513136 -0.03392594024011561 0 0.00025416050437469421 -0.034215563664122858 0 0.00023203157941627771 -0.034540709970419838 0 0.00028918245085513136 -0.03392594024011561 0 0.00025416050437469421 -0.034215563664122858 0 0.00021880613722324507 -0.034029641011276666 0 0.00025416050437469421 -0.034215563664122858 0 0.0002328890328162532 -0.034374627414097213 0 0.00021880613722324507 -0.034029641011276666 0 3.0697625849789556e-05 -0.034091398104131712 0 0.00015074408144011075 -0.033610818140110479 0 0.00021880613722324507 -0.034029641011276666 0 0.00015074408144011075 -0.033610818140110479 0 0.00028918245085513136 -0.03392594024011561 0 0.00021880613722324507 -0.034029641011276666 0 3.0697625849789556e-05 -0.034091398104131712 0 0.0002328890328162532 -0.034374627414097213 0 0.00021880613722324507 -0.034029641011276666 0 3.0697625849789556e-05 -0.034091398104131712 0 0.0002328890328162532 -0.034374627414097213 0 0.00013834646352250027 -0.034633895767784473 0 -0.00025030986071744495 -0.033194975270476393 0 -7.7081984122454267e-05 -0.033858793335261705 0 -0.000542719767701523 -0.032313301855388533 0 -0.00043317211659735488 -0.033038629449992828 0 -0.00026840705964955154 -0.033081833705213608 0 -0.00061074785887546925 -0.032782607542253976 0 -0.000542719767701523 -0.032313301855388533 0 -0.00043317211659735488 -0.033038629449992828 0 -0.00063176337488774382 -0.033128076855829511 0 -0.00061074785887546925 -0.032782607542253976 0 -0.00043317211659735488 -0.033038629449992828 0 -0.00063176337488774382 -0.033128076855829511 0 -0.00043317211659735488 -0.033038629449992828 0 -0.00050670031849881978 -0.033445302523280186 0 -0.00043317211659735488 -0.033038629449992828 0 -0.00026840705964955154 -0.033081833705213608 0 -0.0002539788090294556 -0.034144803007720305 0 -7.7081984122454267e-05 -0.033858793335261705 0 3.7692849611670396e-05 -0.034533690919844609 0 -0.00043969499123047316 -0.033140474641126613 0 -0.00020273306191177082 -0.033816471318901267 0 0.0002328890328162532 -0.034374627414097213 0 0.00013834646352250027 -0.034633895767784473 0 0.00017437876320207572 -0.034710224014680775 0 0.00013834646352250027 -0.034633895767784473 0 0.00017437876320207572 -0.034710224014680775 0 0.00011127482099941257 -0.034850403478552804 0 0.00013834646352250027 -0.034633895767784473 0 0.00011127482099941257 -0.034850403478552804 0 8.2942396695549178e-05 -0.034904452974661444 0 0.00011127482099941257 -0.034850403478552804 0 6.6624963533596135e-08 -0.034999771396574945 0 1.0387093879706175e-07 -0.03499986558774406 0 0.00017437876320207572 -0.034710224014680775 0 0.00011127482099941257 -0.034850403478552804 0 6.6624963533596135e-08 -0.034999771396574945 0 0.00017437876320207572 -0.034710224014680775 0 6.6624963533596135e-08 -0.034999771396574945 0 2.4496936995944543e-07 -0.034999564664424145 0 0.00017437876320207572 -0.034710224014680775 0 2.4496936995944543e-07 -0.034999564664424145 0 0.00023203157941627771 -0.034540709970419838 0 5.3263866150958486e-08 -0.034999809222031102 0 0.0001925158491077314 -0.034513725928425075 0 -1.9356543514854673e-08 -0.034999839828390993 0 0.00012856711118455232 -0.034534761543371185 0 6.6192112754959198e-05 -0.034774908480082363 0 0.0002328890328162532 -0.034374627414097213 0 0.00017437876320207572 -0.034710224014680775 0 0.00023203157941627771 -0.034540709970419838 0 0.00017714144997804622 -0.034589621054348575 0 0.00012856711118455232 -0.034534761543371185 0 6.6192112754959198e-05 -0.034774908480082363 0 -3.8461321733001861e-08 -0.035000102691891057 0 6.6192112754959198e-05 -0.034774908480082363 0 7.8895827225843099e-08 -0.034999575221024294 0 -1.9356543514854673e-08 -0.034999839828390993 0 6.6192112754959198e-05 -0.034774908480082363 0 7.8895827225843099e-08 -0.034999575221024294 0 -6.4357082342526116e-05 -0.034686495071729447 0 3.6618837317712894e-07 -0.034998618549421712 0 -5.2379994862968842e-05 -0.034873947683082343 0 3.6618837317712894e-07 -0.034998618549421712 0 -1.2122876284548491e-07 -0.035000017298869451 0 -5.2379994862968842e-05 -0.034873947683082343 0 -6.4357082342526116e-05 -0.034686495071729447 0 -0.00015105877388659657 -0.034704932308497721 0 -5.2379994862968842e-05 -0.034873947683082343 0 -6.4357082342526116e-05 -0.034686495071729447 0 -0.00015105877388659657 -0.034704932308497721 0 -0.00017879640992554541 -0.034381763171254999 0 -0.00015105877388659657 -0.034704932308497721 0 -0.00017879640992554541 -0.034381763171254999 0 -0.00029986001656646943 -0.034510884890137317 0 -0.00015105877388659657 -0.034704932308497721 0 -0.00029986001656646943 -0.034510884890137317 0 -0.00029944464797623181 -0.0346272280731173 0 -6.4357082342526116e-05 -0.034686495071729447 0 -0.00017879640992554541 -0.034381763171254999 0 2.2418690288342513e-05 -0.034111757910823111 0 -2.325765377561912e-07 -0.035000351613471668 0 4.5822613921467771e-07 -0.034999312786607353 0 -4.7454811953914772e-05 -0.034862494690560061 0 -2.2988997892087573e-08 -0.034999776307983108 0 -3.363073629693247e-05 -0.034472195308284104 0 -6.4357082342526116e-05 -0.034686495071729447 0 3.6618837317712894e-07 -0.034998618549421712 0 2.2418690288342513e-05 -0.034111757910823111 0 4.5822613921467771e-07 -0.034999312786607353 0 3.4211956215847993e-05 -0.034218193624675763 0 -4.7454811953914772e-05 -0.034862494690560061 0 0.00011127482099941257 -0.034850403478552804 0 1.0387093879706175e-07 -0.03499986558774406 0 8.2942396695549178e-05 -0.034904452974661444 0 -4.5508374214737979e-08 -0.034999987760962352 0 1.0387093879706175e-07 -0.03499986558774406 0 8.2942396695549178e-05 -0.034904452974661444 0 -8.3807271378172786e-10 -0.034999835709612688 0 3.7692849611670396e-05 -0.034533690919844609 0 3.4211956215847993e-05 -0.034218193624675763 0 -4.7454811953914772e-05 -0.034862494690560061 0 -0.0002539788090294556 -0.034144803007720305 0 -3.363073629693247e-05 -0.034472195308284104 0 -0.00020273306191177082 -0.033816471318901267 0 -0.00017879640992554541 -0.034381763171254999 0 2.2418690288342513e-05 -0.034111757910823111 0 -0.00024551534093435163 -0.033921597159712484 0 2.2418690288342513e-05 -0.034111757910823111 0 -0.00024551534093435163 -0.033921597159712484 0 -0.00018538349577446679 -0.033498406796095767 0 -0.00036514418979453406 -0.033690668222152498 0 -0.00024551534093435163 -0.033921597159712484 0 -0.00050169442867593092 -0.033908612050596157 0 -0.00036514418979453406 -0.033690668222152498 0 -0.00024551534093435163 -0.033921597159712484 0 -0.00018538349577446679 -0.033498406796095767 0 -0.00026840705964955154 -0.033081833705213608 0 3.4211956215847993e-05 -0.034218193624675763 0 -0.0002539788090294556 -0.034144803007720305 0 -0.00036514418979453406 -0.033690668222152498 0 -0.00018538349577446679 -0.033498406796095767 0 -0.00050670031849881978 -0.033445302523280186 0 -0.00043317211659735488 -0.033038629449992828 0 -0.00018538349577446679 -0.033498406796095767 0 -0.00050670031849881978 -0.033445302523280186 0 -0.00050670031849881978 -0.033445302523280186 0 -0.00050169442867593092 -0.033908612050596157 0 -0.00088580058938252787 -0.033498062690617302 0 -0.00036514418979453406 -0.033690668222152498 0 -0.00050670031849881978 -0.033445302523280186 0 -0.00050169442867593092 -0.033908612050596157 0 -0.00053090762653905366 -0.03384110397999289 0 -0.00044852715605000256 -0.034250142813571006 0 -0.00079215404061443108 -0.033952521865590196 0 -0.00017879640992554541 -0.034381763171254999 0 -0.00024551534093435163 -0.033921597159712484 0 -0.00050169442867593092 -0.033908612050596157 0 -0.00018243912568934631 -0.034319673361544262 0 -0.00051708240136699908 -0.033893128158967827 0 -0.00017879640992554541 -0.034381763171254999 0 -0.00053090762653905366 -0.03384110397999289 0 -0.00044852715605000256 -0.034250142813571006 0 -0.00017879640992554541 -0.034381763171254999 0 -0.00044852715605000256 -0.034250142813571006 0 -0.00029986001656646943 -0.034510884890137317 0 -0.00044852715605000256 -0.034250142813571006 0 -0.00029986001656646943 -0.034510884890137317 0 -0.00045628420556588072 -0.034488616098378035 0 -0.00029986001656646943 -0.034510884890137317 0 -0.00045628420556588072 -0.034488616098378035 0 -0.00029944464797623181 -0.0346272280731173 0 -0.00044852715605000256 -0.034250142813571006 0 -0.00063582164243921929 -0.034321056388573849 0 -0.00079215404061443108 -0.033952521865590196 0 -0.00044852715605000256 -0.034250142813571006 0 -0.00063582164243921929 -0.034321056388573849 0 -0.00045628420556588072 -0.034488616098378035 0 -0.0011574700322918362 -0.03396153615791133 0 -0.00079215404061443108 -0.033952521865590196 0 -0.00089624848609451088 -0.034334734281981756 0 -0.00063582164243921929 -0.034321056388573849 0 -0.00079215404061443108 -0.033952521865590196 0 -0.00089624848609451088 -0.034334734281981756 0 -0.0011574700322918362 -0.03396153615791133 0 -0.0011916563372252494 -0.034340642097545684 0 -0.00089624848609451088 -0.034334734281981756 0 -0.0011574700322918362 -0.03396153615791133 0 -0.00079215404061443108 -0.033952521865590196 0 -0.00092860821066904496 -0.033441230207162609 0 -0.00051708240136699908 -0.033893128158967827 0 -0.00091318483137829655 -0.033462310979403331 0 -0.00053090762653905366 -0.03384110397999289 0 -0.00079215404061443108 -0.033952521865590196 0 -0.00092860821066904496 -0.033441230207162609 0 -0.00089235256199386324 -0.032870951044400416 0 -0.00063176337488774382 -0.033128076855829511 0 -0.00088580058938252787 -0.033498062690617302 0 -0.00063176337488774382 -0.033128076855829511 0 -0.00050670031849881978 -0.033445302523280186 0 -0.00088580058938252787 -0.033498062690617302 0 -0.00089235256199386324 -0.032870951044400416 0 -0.00088580058938252787 -0.033498062690617302 0 -0.0013648368771909563 -0.033057739611421694 0 -0.00091318483137829655 -0.033462310979403331 0 -0.0013476705512031283 -0.033097960072759058 0 -0.00092860821066904496 -0.033441230207162609 0 -0.0013304697178525662 -0.033515364551239116 0 -0.0013648368771909563 -0.033057739611421694 0 -0.0011574700322918362 -0.03396153615791133 0 -0.00092860821066904496 -0.033441230207162609 0 -0.0013304697178525662 -0.033515364551239116 0 -0.0013304697178525662 -0.033515364551239116 0 -0.0013648368771909563 -0.033057739611421694 0 -0.0017133011958020855 -0.033092579544818354 0 -0.0016067034092438223 -0.032649778859229303 0 -0.0013648368771909563 -0.033057739611421694 0 -0.0017133011958020855 -0.033092579544818354 0 -0.0017133011958020855 -0.033092579544818354 0 -0.001620268926781185 -0.033487454396746177 0 -0.0018983711177973795 -0.033531362244271223 0 -0.0013304697178525662 -0.033515364551239116 0 -0.0017133011958020855 -0.033092579544818354 0 -0.001620268926781185 -0.033487454396746177 0 -0.0013304697178525662 -0.033515364551239116 0 -0.001620268926781185 -0.033487454396746177 0 -0.0015608983306614459 -0.03380465055253374 0 -0.0015608983306614459 -0.03380465055253374 0 -0.0018983711177973795 -0.033531362244271223 0 -0.001870759100949566 -0.033806029560518716 0 -0.001620268926781185 -0.033487454396746177 0 -0.0015608983306614459 -0.03380465055253374 0 -0.0018983711177973795 -0.033531362244271223 0 -0.0011574700322918362 -0.03396153615791133 0 -0.0013304697178525662 -0.033515364551239116 0 -0.0015608983306614459 -0.03380465055253374 0 -0.0011574700322918362 -0.03396153615791133 0 -0.0014368015059795089 -0.034135919235889531 0 -0.0011916563372252494 -0.034340642097545684 0 -0.0011574700322918362 -0.03396153615791133 0 -0.0015608983306614459 -0.03380465055253374 0 -0.0014368015059795089 -0.034135919235889531 0 -0.0015608983306614459 -0.03380465055253374 0 -0.0014368015059795089 -0.034135919235889531 0 -0.0018156739917068176 -0.034035645929074057 0 -0.0015608983306614459 -0.03380465055253374 0 -0.001870759100949566 -0.033806029560518716 0 -0.0018156739917068176 -0.034035645929074057 0 -0.0014368015059795089 -0.034135919235889531 0 -0.0014919615583967056 -0.034411186406840752 0 -0.0018156739917068176 -0.034035645929074057 0 -0.0014368015059795089 -0.034135919235889531 0 -0.0014919615583967056 -0.034411186406840752 0 -0.0011916563372252494 -0.034340642097545684 0 -0.0014919615583967056 -0.034411186406840752 0 -0.0012060803289865489 -0.03457439673721191 0 -0.0011916563372252494 -0.034340642097545684 0 -0.0014919615583967056 -0.034411186406840752 0 -0.0013903823241003005 -0.034619350785567604 0 -0.0012060803289865489 -0.03457439673721191 0 -0.0014919615583967056 -0.034411186406840752 0 -0.0013903823241003005 -0.034619350785567604 0 -0.0015835125443518097 -0.034576031430866731 0 -0.0014024017199985976 -0.034597077582522347 0 -0.0013903823241003005 -0.034619350785567604 0 -0.0015835125443518097 -0.034576031430866731 0 -0.0014024017199985976 -0.034597077582522347 0 -0.0015835125443518097 -0.034576031430866731 0 -0.0012877683918318433 -0.034528851274661522 0 -0.0027898010383073987 -0.028501491513497939 0 -0.0024332148230329833 -0.028415310578287899 0 -0.0014024017199985976 -0.034597077582522347 0 -0.0014216160817132953 -0.034591679589761989 0 -0.0012877683918318433 -0.034528851274661522 0 -0.0013903823241003005 -0.034619350785567604 0 -0.0011518207230535467 -0.034781902251045126 0 -0.0014216160817132953 -0.034591679589761989 0 -0.0014024017199985976 -0.034597077582522347 0 -0.0013903823241003005 -0.034619350785567604 0 -0.0014216160817132953 -0.034591679589761989 0 -0.0013903823241003005 -0.034619350785567604 0 -0.0011518207230535467 -0.034781902251045126 0 -0.0012060803289865489 -0.03457439673721191 0 -0.0011518207230535467 -0.034781902251045126 0 -0.00097160741020036422 -0.034682120070341813 0 -0.0012060803289865489 -0.03457439673721191 0 -0.0014179128231200408 -0.034701388914028727 0 -0.0014071433993473959 -0.034608475269054903 0 -0.0017496445971771132 -0.034656653520239777 0 -0.0016558700508567767 -0.034488051583342422 0 -0.0014216160817132953 -0.034591679589761989 0 -0.0017496445971771132 -0.034656653520239777 0 -0.0019598258984184352 -0.034718501735735936 0 -0.0020144979347434988 -0.034622849668323144 0 -0.0014179128231200408 -0.034701388914028727 0 -0.0014209947789310018 -0.034797951220532829 0 -0.0017496445971771132 -0.034656653520239777 0 -0.0020144979347434988 -0.034622849668323144 0 -0.0018978540210417177 -0.034362040705753806 0 -0.0011518207230535467 -0.034781902251045126 0 -0.00097160741020036422 -0.034682120070341813 0 -0.00076440441152627995 -0.034840458146407786 0 -0.00097160741020036422 -0.034682120070341813 0 -0.00079672796108122958 -0.034703168843801938 0 -0.00076440441152627995 -0.034840458146407786 0 -0.00097160741020036422 -0.034682120070341813 0 -0.00083024557914615927 -0.034575736452709324 0 -0.001043929716029257 -0.034495310929281382 0 -0.00097160741020036422 -0.034682120070341813 0 -0.00079672796108122958 -0.034703168843801938 0 -0.00083024557914615927 -0.034575736452709324 0 -0.00097160741020036422 -0.034682120070341813 0 -0.001043929716029257 -0.034495310929281382 0 -0.0012060803289865489 -0.03457439673721191 0 -0.001043929716029257 -0.034495310929281382 0 -0.0012060803289865489 -0.03457439673721191 0 -0.0011916563372252494 -0.034340642097545684 0 -0.001043929716029257 -0.034495310929281382 0 -0.0011916563372252494 -0.034340642097545684 0 -0.00089624848609451088 -0.034334734281981756 0 -0.00083024557914615927 -0.034575736452709324 0 -0.001043929716029257 -0.034495310929281382 0 -0.00089624848609451088 -0.034334734281981756 0 -0.00083024557914615927 -0.034575736452709324 0 -0.00089624848609451088 -0.034334734281981756 0 -0.00064329505826822813 -0.034509433407842252 0 -0.00063582164243921929 -0.034321056388573849 0 -0.00089624848609451088 -0.034334734281981756 0 -0.00064329505826822813 -0.034509433407842252 0 -0.00064329505826822813 -0.034509433407842252 0 -0.00045628420556588072 -0.034488616098378035 0 -0.00043528269590205467 -0.034651994155981115 0 -0.00063582164243921929 -0.034321056388573849 0 -0.00064329505826822813 -0.034509433407842252 0 -0.00045628420556588072 -0.034488616098378035 0 -0.00029944464797623181 -0.0346272280731173 0 -0.00043528269590205467 -0.034651994155981115 0 -0.00018558145227004212 -0.034748300719404331 0 -0.00045628420556588072 -0.034488616098378035 0 -0.00029944464797623181 -0.0346272280731173 0 -0.00043528269590205467 -0.034651994155981115 0 -0.00039981766876056386 -0.034673165836188714 0 -0.00021998972695614393 -0.034800415829240164 0 -0.00043528269590205467 -0.034651994155981115 0 -0.00028524411295251283 -0.034707780319828012 0 -0.00020414120895590214 -0.034715855189457641 0 -0.00043528269590205467 -0.034651994155981115 0 -0.000437356378884465 -0.03470463568578927 0 -0.00062740734887242495 -0.034673040793991645 0 -0.00043528269590205467 -0.034651994155981115 0 -0.00028524411295251283 -0.034707780319828012 0 -0.000437356378884465 -0.03470463568578927 0 -0.00028524411295251283 -0.034707780319828012 0 -0.00038968191681468332 -0.034744926620864328 0 -0.000437356378884465 -0.03470463568578927 0 -0.00038968191681468332 -0.034744926620864328 0 -0.00043733887471086283 -0.034752391544100467 0 -0.00038534339660383307 -0.034811959952955288 0 -0.00028524411295251283 -0.034707780319828012 0 -0.00038968191681468332 -0.034744926620864328 0 -0.00038534339660383307 -0.034811959952955288 0 -0.00028524411295251283 -0.034707780319828012 0 -0.00024529555656284337 -0.0347317450623131 0 -0.0002406020730395144 -0.034725336215294708 0 -0.00048369770076176437 -0.034570754732936762 0 -0.00090812426125126981 -0.034709731110938426 0 -0.00028524411295251283 -0.034707780319828012 0 -0.00023341981376866563 -0.034740460723369219 0 -0.00024529555656284337 -0.0347317450623131 0 -0.00043733887471086283 -0.034752391544100467 0 -0.00053226540896293771 -0.034757495893887116 0 -0.00038534339660383307 -0.034811959952955288 0 -0.000437356378884465 -0.03470463568578927 0 -0.00043733887471086283 -0.034752391544100467 0 -0.00053226540896293771 -0.034757495893887116 0 -0.00038968191681468332 -0.034744926620864328 0 -0.000437356378884465 -0.03470463568578927 0 -0.00043733887471086283 -0.034752391544100467 0 -0.00064329505826822813 -0.034509433407842252 0 -0.00043528269590205467 -0.034651994155981115 0 -0.00062740734887242495 -0.034673040793991645 0 -0.000437356378884465 -0.03470463568578927 0 -0.00062740734887242495 -0.034673040793991645 0 -0.00053226540896293771 -0.034757495893887116 0 -0.00083024557914615927 -0.034575736452709324 0 -0.00064329505826822813 -0.034509433407842252 0 -0.00062740734887242495 -0.034673040793991645 0 -0.00079672796108122958 -0.034703168843801938 0 -0.00083024557914615927 -0.034575736452709324 0 -0.00062740734887242495 -0.034673040793991645 0 -0.00079672796108122958 -0.034703168843801938 0 -0.00062740734887242495 -0.034673040793991645 0 -0.00076440441152627995 -0.034840458146407786 0 -0.0014209947789310018 -0.034797951220532829 0 -0.00090812426125126981 -0.034709731110938426 0 -0.00076440441152627995 -0.034840458146407786 0 -0.00053226540896293771 -0.034757495893887116 0 -0.00038534339660383307 -0.034811959952955288 0 -0.00062740734887242495 -0.034673040793991645 0 -0.00076440441152627995 -0.034840458146407786 0 -0.00053226540896293771 -0.034757495893887116 0 -0.0019598258984184352 -0.034718501735735936 0 -0.0020144979347434988 -0.034622849668323144 0 -0.0020843959086813998 -0.034781211387007363 0 -0.00022341408576470037 -0.034790056523791413 0 -0.00020958623227201935 -0.034789290305435504 0 -0.00020046556254790088 -0.034809379377722348 0 -0.00019463475972939821 -0.034789050476245184 0 -0.00020958623227201935 -0.034789290305435504 0 -0.00020046556254790088 -0.034809379377722348 0 -0.00022341408576470037 -0.034790056523791413 0 -0.00020958623227201935 -0.034789290305435504 0 -0.0002182512888255243 -0.034768000563722853 0 -0.00019463475972939821 -0.034789050476245184 0 -0.00020958623227201935 -0.034789290305435504 0 -0.0002182512888255243 -0.034768000563722853 0 -0.00019463475972939821 -0.034789050476245184 0 -0.00020366517815696516 -0.034767673218531414 0 -0.0001817750913422134 -0.034772140858525945 0 -0.00019463475972939821 -0.034789050476245184 0 -0.0002182512888255243 -0.034768000563722853 0 -0.00020366517815696516 -0.034767673218531414 0 -0.0011691969218248512 -0.034741694299455859 0 -0.00090812426125126981 -0.034709731110938426 0 -0.00020366517815696516 -0.034767673218531414 0 -0.0002170073590380521 -0.034753422633657771 0 -0.00020491053683077058 -0.034754183024553673 0 -0.0002182512888255243 -0.034768000563722853 0 -0.0002170073590380521 -0.034753422633657771 0 -0.00023094790914302631 -0.034736923441905959 0 -0.00022341408576470037 -0.034790056523791413 0 -0.0002182512888255243 -0.034768000563722853 0 -0.00023094790914302631 -0.034736923441905959 0 -0.0002182512888255243 -0.034768000563722853 0 -0.00020366517815696516 -0.034767673218531414 0 -0.0002170073590380521 -0.034753422633657771 0 -0.0002170073590380521 -0.034753422633657771 0 -0.00022470150901689846 -0.034742920114408479 0 -0.00020491053683077058 -0.034754183024553673 0 -0.0002170073590380521 -0.034753422633657771 0 -0.00022470150901689846 -0.034742920114408479 0 -0.00023094790914302631 -0.034736923441905959 0 -0.00090812426125126981 -0.034709731110938426 0 -0.00068998830354445909 -0.034647893562684037 0 -0.00022470150901689846 -0.034742920114408479 0 -0.00023094790914302631 -0.034736923441905959 0 -0.00024529555656284337 -0.0347317450623131 0 -0.00022470150901689846 -0.034742920114408479 0 -0.00024529555656284337 -0.0347317450623131 0 -0.00021806360038527541 -0.034739191607530355 0 -0.00021806360038527541 -0.034739191607530355 0 -0.00017946625624472973 -0.034750899340973355 0 -0.00020491053683077058 -0.034754183024553673 0 -0.00021806360038527541 -0.034739191607530355 0 -0.00017946625624472973 -0.034750899340973355 0 -0.00020414120895590214 -0.034715855189457641 0 -6.6330437728439579e-05 -0.034920328321249722 0 -0.00021998972695614393 -0.034800415829240164 0 -7.6307161733348854e-05 -0.034993309700979212 0 -0.00012879679335178352 -0.034897139178895448 0 -0.00020470585303142502 -0.034908725853840375 0 -0.00021806360038527541 -0.034739191607530355 0 -0.0002406020730395144 -0.034725336215294708 0 -0.00020414120895590214 -0.034715855189457641 0 -0.00017946625624472973 -0.034750899340973355 0 -0.00013293202163864554 -0.034755786029372959 0 -0.00020414120895590214 -0.034715855189457641 0 -0.00024529555656284337 -0.0347317450623131 0 -0.00021806360038527541 -0.034739191607530355 0 -0.0002406020730395144 -0.034725336215294708 0 -0.00022470150901689846 -0.034742920114408479 0 -0.00021806360038527541 -0.034739191607530355 0 -0.00020491053683077058 -0.034754183024553673 0 -0.00017946625624472973 -0.034750899340973355 0 -0.0001817750913422134 -0.034772140858525945 0 -0.00015381198671787983 -0.034768404886155714 0 -0.00017946625624472973 -0.034750899340973355 0 -0.00015381198671787983 -0.034768404886155714 0 -0.00013293202163864554 -0.034755786029372959 0 -0.00017946625624472973 -0.034750899340973355 0 -0.00020491053683077058 -0.034754183024553673 0 -0.0001817750913422134 -0.034772140858525945 0 -0.00020366517815696516 -0.034767673218531414 0 -0.00020491053683077058 -0.034754183024553673 0 -0.0001817750913422134 -0.034772140858525945 0 -0.0001817750913422134 -0.034772140858525945 0 -0.00015381198671787983 -0.034768404886155714 0 -0.00015934314809812333 -0.034789264706127164 0 -0.00015934314809812333 -0.034789264706127164 0 -0.00013421238567047937 -0.034786052920301597 0 -0.0001356989796317287 -0.034804402571120607 0 -0.00015381198671787983 -0.034768404886155714 0 -0.00015934314809812333 -0.034789264706127164 0 -0.00013421238567047937 -0.034786052920301597 0 -0.00019463475972939821 -0.034789050476245184 0 -0.00015934314809812333 -0.034789264706127164 0 -0.00015730070098917318 -0.034811628903206861 0 -0.00019463475972939821 -0.034789050476245184 0 -0.0001817750913422134 -0.034772140858525945 0 -0.00015934314809812333 -0.034789264706127164 0 -0.00013421238567047937 -0.034786052920301597 0 -0.00013293202163864554 -0.034755786029372959 0 -9.7384514841138812e-05 -0.034811706168876584 0 -6.6330437728439579e-05 -0.034920328321249722 0 -4.660335536422464e-05 -0.034900856988191571 0 1.1845814784586165e-08 -0.035000011572244194 0 -1.7111962332311043e-06 -0.034998714991202835 0 4.2336276868367308e-06 -0.035002365952129307 0 -0.00015381198671787983 -0.034768404886155714 0 -0.00013421238567047937 -0.034786052920301597 0 -0.00013293202163864554 -0.034755786029372959 0 -6.6330437728439579e-05 -0.034920328321249722 0 -4.7971628880813499e-05 -0.034933972165682517 0 -7.6307161733348854e-05 -0.034993309700979212 0 -9.1525063500612201e-05 -0.034833491800531517 0 -0.00012879679335178352 -0.034897139178895448 0 3.6823231282578995e-08 -0.035000022519573661 0 -6.6330437728439579e-05 -0.034920328321249722 0 -1.0427002879649625e-08 -0.034999993889493888 0 -1.254431702906669e-06 -0.035000601760074294 0 1.7831313359762911e-08 -0.035000016272634236 0 1.7831313359762911e-08 -0.035000016272634236 0 -1.0118331025430412e-05 -0.035006254277580466 0 -1.2122876284548491e-07 -0.035000017298869451 0 -1.254431702906669e-06 -0.035000601760074294 0 1.7831313359762911e-08 -0.035000016272634236 0 -1.0118331025430412e-05 -0.035006254277580466 0 -0.00012879679335178352 -0.034897139178895448 0 -0.00020470585303142502 -0.034908725853840375 0 -0.00016115808599529935 -0.034822079101150018 0 -9.1525063500612201e-05 -0.034833491800531517 0 -0.00012879679335178352 -0.034897139178895448 0 -0.00016115808599529935 -0.034822079101150018 0 -0.00043528269590205467 -0.034651994155981115 0 -0.00020470585303142502 -0.034908725853840375 0 -0.00016115808599529935 -0.034822079101150018 0 -0.00028524411295251283 -0.034707780319828012 0 -0.0002406020730395144 -0.034725336215294708 0 -0.00020414120895590214 -0.034715855189457641 0 -9.1525063500612201e-05 -0.034833491800531517 0 -0.00016115808599529935 -0.034822079101150018 0 -0.00010427294221543189 -0.034815958082645662 0 -0.00043528269590205467 -0.034651994155981115 0 -0.00016115808599529935 -0.034822079101150018 0 -0.00018558145227004212 -0.034748300719404331 0 -0.00016115808599529935 -0.034822079101150018 0 -0.00010427294221543189 -0.034815958082645662 0 -0.00018558145227004212 -0.034748300719404331 0 -0.00010427294221543189 -0.034815958082645662 0 -0.00018558145227004212 -0.034748300719404331 0 -0.00011203006597894955 -0.034792981497882972 0 -0.00015105877388659657 -0.034704932308497721 0 -0.00029944464797623181 -0.0346272280731173 0 -0.00018558145227004212 -0.034748300719404331 0 -0.00015105877388659657 -0.034704932308497721 0 -0.00018558145227004212 -0.034748300719404331 0 -0.00011203006597894955 -0.034792981497882972 0 -0.00015105877388659657 -0.034704932308497721 0 -0.00011203006597894955 -0.034792981497882972 0 -5.2379994862968842e-05 -0.034873947683082343 0 -1.0118331025430412e-05 -0.035006254277580466 0 -1.2122876284548491e-07 -0.035000017298869451 0 -5.2379994862968842e-05 -0.034873947683082343 0 -4.7971628880813499e-05 -0.034933972165682517 0 -5.2428700291362036e-05 -0.034865705712127978 0 -0.00010427294221543189 -0.034815958082645662 0 -0.00011203006597894955 -0.034792981497882972 0 -5.2379994862968842e-05 -0.034873947683082343 0 -9.1525063500612201e-05 -0.034833491800531517 0 -0.00010427294221543189 -0.034815958082645662 0 -5.2379994862968842e-05 -0.034873947683082343 0 -0.0018396389821676554 -0.024417020272256434 0 -0.0016773219787795969 -0.023724433769592081 0 -0.0010306537618232506 -0.023945706193755373 0 -0.0018396389821676554 -0.024417020272256434 0 -0.002220553121343422 -0.023940466930621566 0 -0.0016773219787795969 -0.023724433769592081 0 -0.0018396389821676554 -0.024417020272256434 0 -0.0023397045730839034 -0.024944133140173182 0 -0.0027455430004376005 -0.024294963489522453 0 -0.0018396389821676554 -0.024417020272256434 0 -0.002220553121343422 -0.023940466930621566 0 -0.0027455430004376005 -0.024294963489522453 0 -0.0024623878888218823 -0.023459516529746025 0 -0.0027295454102562234 -0.024227478339318816 0 -0.002220553121343422 -0.023940466930621566 0 -0.0024492597750390439 -0.023299987569145794 0 -0.0027455430004376005 -0.024294963489522453 0 -0.0024492597750390439 -0.023299987569145794 0 -0.0016773219787795969 -0.023724433769592081 0 -0.0016367651602534003 -0.023105580716923101 0 -0.002220553121343422 -0.023940466930621566 0 -0.0024492597750390439 -0.023299987569145794 0 -0.0016773219787795969 -0.023724433769592081 0 -0.0016773219787795969 -0.023724433769592081 0 -0.001048494532292442 -0.023458935611065143 0 -0.0016367651602534003 -0.023105580716923101 0 -0.0016773219787795969 -0.023724433769592081 0 -0.001048494532292442 -0.023458935611065143 0 -0.0010306537618232506 -0.023945706193755373 0 -0.001048494532292442 -0.023458935611065143 0 -0.00085205077498018487 -0.023256133592502583 0 -0.0010527960140391676 -0.022986465775280605 0 -0.001048494532292442 -0.023458935611065143 0 -0.00073457955036004634 -0.023777700459002241 0 -0.0010306537618232506 -0.023945706193755373 0 -0.00046454128337814892 -0.023379441969491731 0 -0.00069329176893399174 -0.023433138397970767 0 -0.00065948263567568318 -0.023095553362977327 0 -0.00046454128337814892 -0.023379441969491731 0 -0.00069329176893399174 -0.023433138397970767 0 -0.0005206645738403214 -0.023650278864355369 0 -0.00069329176893399174 -0.023433138397970767 0 -0.00085205077498018487 -0.023256133592502583 0 -0.00065948263567568318 -0.023095553362977327 0 -0.001048494532292442 -0.023458935611065143 0 -0.00069329176893399174 -0.023433138397970767 0 -0.00085205077498018487 -0.023256133592502583 0 -0.001048494532292442 -0.023458935611065143 0 -0.00069329176893399174 -0.023433138397970767 0 -0.00073457955036004634 -0.023777700459002241 0 -0.00069329176893399174 -0.023433138397970767 0 -0.0005206645738403214 -0.023650278864355369 0 -0.00073457955036004634 -0.023777700459002241 0 -0.00052102434558761596 -0.023868524411222562 0 -0.00073457955036004634 -0.023777700459002241 0 -0.00067131907448755488 -0.024132330524813044 0 -0.0005206645738403214 -0.023650278864355369 0 -0.00052102434558761596 -0.023868524411222562 0 -0.00073457955036004634 -0.023777700459002241 0 -0.00073457955036004634 -0.023777700459002241 0 -0.0010306537618232506 -0.023945706193755373 0 -0.00067131907448755488 -0.024132330524813044 0 -0.00032335538582474292 -0.023967093051726097 0 -0.00052102434558761596 -0.023868524411222562 0 -0.00067131907448755488 -0.024132330524813044 0 -0.0010306537618232506 -0.023945706193755373 0 -0.00097558291156233864 -0.024265369337428139 0 -0.00067131907448755488 -0.024132330524813044 0 -0.0018396389821676554 -0.024417020272256434 0 -0.0010306537618232506 -0.023945706193755373 0 -0.0010098953177798647 -0.024777037126640294 0 -0.0010178702204829409 -0.024023497211701911 0 -0.00099954048482104783 -0.024467637430694501 0 -0.00097558291156233864 -0.024265369337428139 0 -0.00076851792006334477 -0.024431450473196951 0 -0.00097661618173915045 -0.024665594506843632 0 -0.0014541448614547453 -0.025157605264868963 0 -0.0010098953177798647 -0.024777037126640294 0 -0.0010167466392655478 -0.025520709236250938 0 -0.00099954048482104783 -0.024467637430694501 0 -0.0010011070508097143 -0.025322215762831064 0 -0.0018396389821676554 -0.024417020272256434 0 -0.0014541448614547453 -0.025157605264868963 0 -0.0010098953177798647 -0.024777037126640294 0 -0.00033499730908558402 -0.024231231431411902 0 -0.00067131907448755488 -0.024132330524813044 0 -0.00052345772943420516 -0.024421248294669216 0 -0.00097558291156233864 -0.024265369337428139 0 -0.00067131907448755488 -0.024132330524813044 0 -0.00076851792006334477 -0.024431450473196951 0 -0.00067131907448755488 -0.024132330524813044 0 -0.00076851792006334477 -0.024431450473196951 0 -0.00052345772943420516 -0.024421248294669216 0 -0.00025756403557557802 -0.024453595731616561 0 -0.00052345772943420516 -0.024421248294669216 0 -0.00069001012625473888 -0.024678088536923999 0 -0.00076851792006334477 -0.024431450473196951 0 -0.00052345772943420516 -0.024421248294669216 0 -0.00069162782160225541 -0.02468821215583861 0 -0.00051309937945665191 -0.024408140286169812 0 -0.00086881808227617127 -0.024970134791052364 0 -0.00076851792006334477 -0.024431450473196951 0 -0.00069162782160225541 -0.02468821215583861 0 -0.00097661618173915045 -0.024665594506843632 0 -0.00086881808227617127 -0.024970134791052364 0 -0.0010011070508097143 -0.025322215762831064 0 -0.0012972044073772991 -0.026216940383098686 0 -0.00071538947265326232 -0.025309413190468102 0 -0.0012938103913138763 -0.025265974987546486 0 -0.0012617419542610992 -0.026104241589554784 0 -0.00069941064499559375 -0.025618360262778653 0 -0.0017605011494710001 -0.025539486118922879 0 -0.0010011070508097143 -0.025322215762831064 0 -0.0018274013247353569 -0.02551898035279301 0 -0.0021624685428565699 -0.026149839870874679 0 -0.0012617419542610992 -0.026104241589554784 0 -0.0017605011494710001 -0.025539486118922879 0 -0.0014541448614547453 -0.025157605264868963 0 -0.0010167466392655478 -0.025520709236250938 0 -0.0019310400260182875 -0.025455792432079231 0 -0.0018396389821676554 -0.024417020272256434 0 -0.0014541448614547453 -0.025157605264868963 0 -0.0023397045730839034 -0.024944133140173182 0 -0.0014541448614547453 -0.025157605264868963 0 -0.0019310400260182875 -0.025455792432079231 0 -0.0023397045730839034 -0.024944133140173182 0 -0.0019310400260182875 -0.025455792432079231 0 -0.0023397045730839034 -0.024944133140173182 0 -0.0027931823321679112 -0.025441621679987279 0 -0.0018274013247353569 -0.02551898035279301 0 -0.0027394705334138252 -0.025438802002508257 0 -0.0021624685428565699 -0.026149839870874679 0 -0.0017605011494710001 -0.025539486118922879 0 -0.0027931823321679112 -0.025441621679987279 0 -0.0029550925494758488 -0.026257321571763415 0 -0.0021624685428565699 -0.026149839870874679 0 -0.0027931823321679112 -0.025441621679987279 0 -0.0027931823321679112 -0.025441621679987279 0 -0.0033619050834588038 -0.025606442341594277 0 -0.003209644994618603 -0.024886517989208552 0 -0.0029550925494758488 -0.026257321571763415 0 -0.0027931823321679112 -0.025441621679987279 0 -0.0033619050834588038 -0.025606442341594277 0 -0.0038406290571866533 -0.026406123160541233 0 -0.0033619050834588038 -0.025606442341594277 0 -0.0039643331427294667 -0.025142342557114141 0 -0.0034879837771588963 -0.029137382050748981 0 -0.0033219810156536775 -0.029134096884733077 0 -0.0033619050834588038 -0.025606442341594277 0 -0.003209644994618603 -0.024886517989208552 0 -0.0039643331427294667 -0.025142342557114141 0 -0.003209644994618603 -0.024886517989208552 0 -0.0039643331427294667 -0.025142342557114141 0 -0.0036200393116611325 -0.024267090737613215 0 -0.0023397045730839034 -0.024944133140173182 0 -0.0027931823321679112 -0.025441621679987279 0 -0.003209644994618603 -0.024886517989208552 0 -0.0023397045730839034 -0.024944133140173182 0 -0.003209644994618603 -0.024886517989208552 0 -0.0027455430004376005 -0.024294963489522453 0 -0.0018733254009703553 -0.031939262965201574 0 -0.0017133011958020855 -0.033092579544818354 0 -0.0022644593968357174 -0.032652590184760945 0 -0.0017133011958020855 -0.033092579544818354 0 -0.0022644593968357174 -0.032652590184760945 0 -0.0021319269057254843 -0.033130736933284534 0 -0.0020451147695292908 -0.032281462925574329 0 -0.0017339862549799335 -0.03300751438191471 0 -0.0022644593968357174 -0.032652590184760945 0 -0.0026906790803732541 -0.033120856257109477 0 -0.0021319269057254843 -0.033130736933284534 0 -0.0031592673915151366 -0.031860348465934663 0 -0.0022644593968357174 -0.032652590184760945 0 -0.0026906790803732541 -0.033120856257109477 0 -0.0026906790803732541 -0.033120856257109477 0 -0.0021319269057254843 -0.033130736933284534 0 -0.002254412469088642 -0.033851735337741884 0 -0.0017133011958020855 -0.033092579544818354 0 -0.0021319269057254843 -0.033130736933284534 0 -0.0018983711177973795 -0.033531362244271223 0 -0.0018983711177973795 -0.033531362244271223 0 -0.001870759100949566 -0.033806029560518716 0 -0.002254412469088642 -0.033851735337741884 0 -0.0021319269057254843 -0.033130736933284534 0 -0.0018983711177973795 -0.033531362244271223 0 -0.002254412469088642 -0.033851735337741884 0 -0.0033219810156536775 -0.029134096884733077 0 -0.0031144570582768896 -0.029015898529615933 0 -0.0039643331427294667 -0.025142342557114141 0 -0.0039688104062789529 -0.024182836616609717 0 -0.0036200393116611325 -0.024267090737613215 0 -0.0039688104062789529 -0.024182836616609717 0 -0.0036200393116611325 -0.024267090737613215 0 -0.0034314587665942716 -0.023521634875087519 0 -0.0031144570582768896 -0.029015898529615933 0 -0.0029431191497543371 -0.028829465464282011 0 -0.001870759100949566 -0.033806029560518716 0 -0.002254412469088642 -0.033851735337741884 0 -0.0018156739917068176 -0.034035645929074057 0 -0.002254412469088642 -0.033851735337741884 0 -0.0018156739917068176 -0.034035645929074057 0 -0.0018894441973202581 -0.034289159282532615 0 -0.0027455430004376005 -0.024294963489522453 0 -0.0036200393116611325 -0.024267090737613215 0 -0.0030844125869598864 -0.023735807812706226 0 -0.003209644994618603 -0.024886517989208552 0 -0.0027455430004376005 -0.024294963489522453 0 -0.0036200393116611325 -0.024267090737613215 0 -0.003598024223485059 -0.024208171798180318 0 -0.0035175241000481691 -0.023448915119699602 0 -0.0036200393116611325 -0.024267090737613215 0 -0.0030844125869598864 -0.023735807812706226 0 -0.0035974219002435168 -0.023361855320228855 0 -0.0024681559952867333 -0.023595963307014418 0 -0.0027455430004376005 -0.024294963489522453 0 -0.0030844125869598864 -0.023735807812706226 0 -0.0024681559952867333 -0.023595963307014418 0 -0.0030844125869598864 -0.023735807812706226 0 -0.0029464135552332476 -0.022970090727017525 0 -0.0030844125869598864 -0.023735807812706226 0 -0.0035974219002435168 -0.023361855320228855 0 -0.0029464135552332476 -0.022970090727017525 0 -0.0029464135552332476 -0.022970090727017525 0 -0.0030563512390979859 -0.022261800383945218 0 -0.0035181055409621285 -0.02258003938159929 0 -0.0035175241000481691 -0.023448915119699602 0 -0.0034309716381429457 -0.022650202539695418 0 -0.0035974219002435168 -0.023361855320228855 0 -0.0029464135552332476 -0.022970090727017525 0 -0.0035181055409621285 -0.02258003938159929 0 -0.0014919615583967056 -0.034411186406840752 0 -0.0018156739917068176 -0.034035645929074057 0 -0.0018894441973202581 -0.034289159282532615 0 -0.0039688104062789529 -0.024182836616609717 0 -0.0034314587665942716 -0.023521634875087519 0 -0.0039984693551402195 -0.023359990853433533 0 -0.0039984693551402195 -0.023359990853433533 0 -0.0036620739779281834 -0.022457626414101064 0 -0.0033294703391386457 -0.022723218142264311 0 -0.0034314587665942716 -0.023521634875087519 0 -0.0039984693551402195 -0.023359990853433533 0 -0.0033294703391386457 -0.022723218142264311 0 -0.0039984693551402195 -0.023359990853433533 0 -0.0040058193542066431 -0.0224866048175855 0 -0.0036620739779281834 -0.022457626414101064 0 -0.0014919615583967056 -0.034411186406840752 0 -0.0018894441973202581 -0.034289159282532615 0 -0.0015835125443518097 -0.034576031430866731 0 -0.0029431191497543371 -0.028829465464282011 0 -0.0027898010383073987 -0.028501491513497939 0 -0.0040058193542066431 -0.0224866048175855 0 -0.0036620739779281834 -0.022457626414101064 0 -0.0037456935934913611 -0.022109939619424354 0 -0.0036620739779281834 -0.022457626414101064 0 -0.0033294703391386457 -0.022723218142264311 0 -0.0034141640904300826 -0.022020837207271386 0 -0.0036620739779281834 -0.022457626414101064 0 -0.0037456935934913611 -0.022109939619424354 0 -0.0034141640904300826 -0.022020837207271386 0 -0.0037456935934913611 -0.022109939619424354 0 -0.0034141640904300826 -0.022020837207271386 0 -0.0037372538170534039 -0.021865547968666511 0 -0.0040058193542066431 -0.0224866048175855 0 -0.0037456935934913611 -0.022109939619424354 0 -0.0036549974117619779 -0.0219949879982273 0 -0.0029464135552332476 -0.022970090727017525 0 -0.0030563512390979859 -0.022261800383945218 0 -0.0025947235555332966 -0.022445894413443166 0 -0.0030563512390979859 -0.022261800383945218 0 -0.0026598476456689748 -0.021960778817501591 0 -0.0025947235555332966 -0.022445894413443166 0 -0.0034309716381429457 -0.022650202539695418 0 -0.0034156442491624891 -0.022068268547094223 0 -0.0030563512390979859 -0.022261800383945218 0 -0.0035181055409621285 -0.02258003938159929 0 -0.0034141640904300826 -0.022020837207271386 0 -0.0030563512390979859 -0.022261800383945218 0 -0.0034141640904300826 -0.022020837207271386 0 -0.0029781031851079573 -0.021741091300174566 0 -0.0030563512390979859 -0.022261800383945218 0 -0.0026598476456689748 -0.021960778817501591 0 -0.0029781031851079573 -0.021741091300174566 0 -0.0026598476456689748 -0.021960778817501591 0 -0.0022872205158099316 -0.02173024068988396 0 -0.0025159291560080091 -0.021509179973731557 0 -0.0026598476456689748 -0.021960778817501591 0 -0.0025159291560080091 -0.021509179973731557 0 -0.0029781031851079573 -0.021741091300174566 0 -0.0026598476456689748 -0.021960778817501591 0 -0.0022872205158099316 -0.02173024068988396 0 -0.0023737197666851111 -0.022160844400932817 0 -0.0019794575833386669 -0.021881532808068115 0 -0.0019006296200498719 -0.021459947545949883 0 -0.0022872205158099316 -0.02173024068988396 0 -0.002024912605003227 -0.022226536935132012 0 -0.0023737197666851111 -0.022160844400932817 0 -0.0022872205158099316 -0.02173024068988396 0 -0.002024912605003227 -0.022226536935132012 0 -0.0019104872233391887 -0.021416145501787748 0 -0.002024912605003227 -0.022226536935132012 0 -0.0023078192036277961 -0.022433961675823583 0 -0.00223575910330326 -0.022903887414116541 0 -0.0019169498539152406 -0.021525026608431624 0 -0.0019306377976451884 -0.021720054004185557 0 -0.0021450096330250718 -0.022376112649244731 0 -0.002024912605003227 -0.022226536935132012 0 -0.0023737197666851111 -0.022160844400932817 0 -0.0023078192036277961 -0.022433961675823583 0 -0.0019169498539152406 -0.021525026608431624 0 -0.0019306377976451884 -0.021720054004185557 0 -0.0018136048673971657 -0.021625107941254867 0 -0.0026598476456689748 -0.021960778817501591 0 -0.0023737197666851111 -0.022160844400932817 0 -0.0025947235555332966 -0.022445894413443166 0 -0.0023737197666851111 -0.022160844400932817 0 -0.0023078192036277961 -0.022433961675823583 0 -0.0025947235555332966 -0.022445894413443166 0 -0.0029464135552332476 -0.022970090727017525 0 -0.0025947235555332966 -0.022445894413443166 0 -0.00223575910330326 -0.022903887414116541 0 -0.0023078192036277961 -0.022433961675823583 0 -0.0025947235555332966 -0.022445894413443166 0 -0.00223575910330326 -0.022903887414116541 0 -0.0019306377976451884 -0.021720054004185557 0 -0.0016941886734451637 -0.022279128099467405 0 -0.0021450096330250718 -0.022376112649244731 0 -0.0019794575833386669 -0.021881532808068115 0 -0.0021911056073610877 -0.02263454945674916 0 -0.0016941886734451637 -0.022279128099467405 0 -0.0021450096330250718 -0.022376112649244731 0 -0.001535679579064214 -0.022641381607033162 0 -0.0021450096330250718 -0.022376112649244731 0 -0.0016367651602534003 -0.023105580716923101 0 -0.001535679579064214 -0.022641381607033162 0 -0.0024492597750390439 -0.023299987569145794 0 -0.0021450096330250718 -0.022376112649244731 0 -0.0016367651602534003 -0.023105580716923101 0 -0.0024681559952867333 -0.023595963307014418 0 -0.0029464135552332476 -0.022970090727017525 0 -0.00223575910330326 -0.022903887414116541 0 -0.0024623878888218823 -0.023459516529746025 0 -0.0021911056073610877 -0.02263454945674916 0 -0.0005397957157527209 -0.020916475762074047 0 -0.0014607988246020753 -0.022188911227150672 0 -0.00051538055389101732 -0.022917586517946401 0 -0.0010527960140391676 -0.022986465775280605 0 -0.00115017579736133 -0.022311178464820242 0 -0.00046454128337814892 -0.023379441969491731 0 -0.00055969988211837757 -0.022979338763538283 0 -0.00065948263567568318 -0.023095553362977327 0 -0.0005397957157527209 -0.020916475762074047 0 -0.0010114727307236828 -0.021998723487098821 0 -0.00085205077498018487 -0.023256133592502583 0 -0.00065948263567568318 -0.023095553362977327 0 -0.0010527960140391676 -0.022986465775280605 0 -0.00051538055389101732 -0.022917586517946401 0 -0.00065948263567568318 -0.023095553362977327 0 -0.0010527960140391676 -0.022986465775280605 0 -0.0010527960140391676 -0.022986465775280605 0 -0.001535679579064214 -0.022641381607033162 0 -0.00115017579736133 -0.022311178464820242 0 -0.001048494532292442 -0.023458935611065143 0 -0.0016367651602534003 -0.023105580716923101 0 -0.0010527960140391676 -0.022986465775280605 0 -0.0016367651602534003 -0.023105580716923101 0 -0.0010527960140391676 -0.022986465775280605 0 -0.001535679579064214 -0.022641381607033162 0 -0.0019306377976451884 -0.021720054004185557 0 -0.0016941886734451637 -0.022279128099467405 0 -0.00115017579736133 -0.022311178464820242 0 -0.0019122961751822313 -0.021693520974981964 0 -0.0014607988246020753 -0.022188911227150672 0 -0.0017838522639403785 -0.021748404140299112 0 -0.0016353643085526364 -0.021704437743926892 0 -0.0018136048673971657 -0.021625107941254867 0 -0.0016941886734451637 -0.022279128099467405 0 -0.001535679579064214 -0.022641381607033162 0 -0.00115017579736133 -0.022311178464820242 0 -0.0016154585399277177 -0.021889119304090592 0 -0.0017838522639403785 -0.021748404140299112 0 -0.0016353643085526364 -0.021704437743926892 0 -0.0015651743731763901 -0.021588020612816734 0 -0.0016353643085526364 -0.021704437743926892 0 -0.0016995103615066068 -0.021521696166105508 0 -0.0016353643085526364 -0.021704437743926892 0 -0.0016995103615066068 -0.021521696166105508 0 -0.0018136048673971657 -0.021625107941254867 0 -0.0015651743731763901 -0.021588020612816734 0 -0.0014905788104904868 -0.021428343357387521 0 -0.0016995103615066068 -0.021521696166105508 0 -0.0019306377976451884 -0.021720054004185557 0 -0.0017838522639403785 -0.021748404140299112 0 -0.0018136048673971657 -0.021625107941254867 0 -0.0016995103615066068 -0.021521696166105508 0 -0.0018136048673971657 -0.021625107941254867 0 -0.0018417053134647048 -0.021474563767502824 0 -0.0019169498539152406 -0.021525026608431624 0 -0.0018136048673971657 -0.021625107941254867 0 -0.0018417053134647048 -0.021474563767502824 0 -0.0019169498539152406 -0.021525026608431624 0 -0.0018417053134647048 -0.021474563767502824 0 -0.0019104872233391887 -0.021416145501787748 0 -0.0018417053134647048 -0.021474563767502824 0 -0.0017123902291005036 -0.021252178070550125 0 -0.0019104872233391887 -0.021416145501787748 0 -0.0014905788104904868 -0.021428343357387521 0 -0.0016995103615066068 -0.021521696166105508 0 -0.0017123902291005036 -0.021252178070550125 0 -0.0016995103615066068 -0.021521696166105508 0 -0.0018417053134647048 -0.021474563767502824 0 -0.0017123902291005036 -0.021252178070550125 0 -0.0017123902291005036 -0.021252178070550125 0 -0.0018359777908736113 -0.02108568166909976 0 -0.001647837765235134 -0.020820989657312359 0 -0.0017123902291005036 -0.021252178070550125 0 -0.0019104872233391887 -0.021416145501787748 0 -0.0018359777908736113 -0.02108568166909976 0 -0.0019104872233391887 -0.021416145501787748 0 -0.0018359777908736113 -0.02108568166909976 0 -0.0021526788715730172 -0.021172030582361001 0 -0.0018359777908736113 -0.02108568166909976 0 -0.0018581287170001371 -0.020791939335837124 0 -0.0021526788715730172 -0.021172030582361001 0 -0.0018359777908736113 -0.02108568166909976 0 -0.0018581287170001371 -0.020791939335837124 0 -0.001647837765235134 -0.020820989657312359 0 -0.002030501589755694 -0.02059928898814194 0 -0.0016634893547968189 -0.020818667079344287 0 -0.0022136188393348829 -0.020408608036733424 0 -0.0018251189813720068 -0.020106517664569622 0 -0.001647837765235134 -0.020820989657312359 0 -0.0022136188393348829 -0.020408608036733424 0 -0.0020622001654586582 -0.019947348316768688 0 -0.0023613290323620801 -0.020105527033424241 0 -0.0022136188393348829 -0.020408608036733424 0 -0.0018251189813720068 -0.020106517664569622 0 -0.0020622001654586582 -0.019947348316768688 0 -0.0018251189813720068 -0.020106517664569622 0 -0.0020622001654586582 -0.019947348316768688 0 -0.0017357331942461248 -0.019746938093920131 0 -0.0024342221044995143 -0.020409513159523485 0 -0.0026513342602839623 -0.020502656796750892 0 -0.0025306494202134056 -0.020493702364009166 0 -0.002307903363549176 -0.020485744491097208 0 -0.0026818035795789217 -0.020542158602251843 0 -0.0022136188393348829 -0.020408608036733424 0 -0.0025349787388929466 -0.020289488048194061 0 -0.0023613290323620801 -0.020105527033424241 0 -0.002030501589755694 -0.02059928898814194 0 -0.0024342221044995143 -0.020409513159523485 0 -0.0018581287170001371 -0.020791939335837124 0 -0.002307903363549176 -0.020485744491097208 0 -0.0023055850257312121 -0.020840667752434063 0 -0.0025306494202134056 -0.020493702364009166 0 -0.0023055850257312121 -0.020840667752434063 0 -0.0026531379561569308 -0.021106550573487873 0 -0.0025306494202134056 -0.020493702364009166 0 -0.002307903363549176 -0.020485744491097208 0 -0.0023055850257312121 -0.020840667752434063 0 -0.0023055850257312121 -0.020840667752434063 0 -0.0026531379561569308 -0.021106550573487873 0 -0.0021526788715730172 -0.021172030582361001 0 -0.0018581287170001371 -0.020791939335837124 0 -0.0023055850257312121 -0.020840667752434063 0 -0.0021526788715730172 -0.021172030582361001 0 -0.0022872205158099316 -0.02173024068988396 0 -0.0021526788715730172 -0.021172030582361001 0 -0.0025159291560080091 -0.021509179973731557 0 -0.0022872205158099316 -0.02173024068988396 0 -0.0019104872233391887 -0.021416145501787748 0 -0.0021526788715730172 -0.021172030582361001 0 -0.0026531379561569308 -0.021106550573487873 0 -0.0021526788715730172 -0.021172030582361001 0 -0.0025159291560080091 -0.021509179973731557 0 -0.0026531379561569308 -0.021106550573487873 0 -0.0025159291560080091 -0.021509179973731557 0 -0.0029781031851079573 -0.021741091300174566 0 -0.0026531379561569308 -0.021106550573487873 0 -0.0029781031851079573 -0.021741091300174566 0 -0.0032357253954373917 -0.021481258920947932 0 -0.0034141640904300826 -0.022020837207271386 0 -0.0029781031851079573 -0.021741091300174566 0 -0.0032357253954373917 -0.021481258920947932 0 -0.0032357253954373917 -0.021481258920947932 0 -0.0034262865974352551 -0.021214407357925603 0 -0.0031034567423919223 -0.021049906625288099 0 -0.0026531379561569308 -0.021106550573487873 0 -0.0032357253954373917 -0.021481258920947932 0 -0.0031034567423919223 -0.021049906625288099 0 -0.0037456935934913611 -0.022109939619424354 0 -0.0037372538170534039 -0.021865547968666511 0 -0.0036549974117619779 -0.0219949879982273 0 -0.0037372538170534039 -0.021865547968666511 0 -0.003619625986925893 -0.0222881495250975 0 -0.0036549974117619779 -0.0219949879982273 0 -0.0034141640904300826 -0.022020837207271386 0 -0.0032357253954373917 -0.021481258920947932 0 -0.0037372538170534039 -0.021865547968666511 0 -0.0037372538170534039 -0.021865547968666511 0 -0.0037357066583392075 -0.021295454659716315 0 -0.0034262865974352551 -0.021214407357925603 0 -0.0032357253954373917 -0.021481258920947932 0 -0.0037372538170534039 -0.021865547968666511 0 -0.0034262865974352551 -0.021214407357925603 0 -0.0037372538170534039 -0.021865547968666511 0 -0.003619625986925893 -0.0222881495250975 0 -0.0039033269883531809 -0.022733345874224858 0 -0.0037723465363902605 -0.021860574981659508 0 -0.0037334069678263658 -0.022182086772611936 0 -0.0037334069678263658 -0.022182086772611936 0 -0.0037873510963360316 -0.021906860507990317 0 -0.0037357066583392075 -0.021295454659716315 0 -0.0035611128594118138 -0.021122774563523565 0 -0.0035926465127616232 -0.021102806046691021 0 -0.0034262865974352551 -0.021214407357925603 0 -0.0035611128594118138 -0.021122774563523565 0 -0.0034268819802845112 -0.021013153587533636 0 -0.0037357066583392075 -0.021295454659716315 0 -0.0034262865974352551 -0.021214407357925603 0 -0.0035611128594118138 -0.021122774563523565 0 -0.0035611128594118138 -0.021122774563523565 0 -0.0034268819802845112 -0.021013153587533636 0 -0.003561036771878251 -0.021097255340588424 0 -0.0035611128594118138 -0.021122774563523565 0 -0.003561036771878251 -0.021097255340588424 0 -0.0035926465127616232 -0.021102806046691021 0 -0.0025306494202134056 -0.020493702364009166 0 -0.0026531379561569308 -0.021106550573487873 0 -0.0025752717281281004 -0.020497938381118481 0 -0.0026332338823494791 -0.021107252972230595 0 -0.0027912143769221135 -0.020796585050410214 0 -0.0034262865974352551 -0.021214407357925603 0 -0.0031034567423919223 -0.021049906625288099 0 -0.0034268819802845112 -0.021013153587533636 0 -0.0027912143769221135 -0.020796585050410214 0 -0.0025213640784658158 -0.020766307192631322 0 -0.0025752717281281004 -0.020497938381118481 0 -0.0017719129220386443 -0.02027642998590333 0 -0.0024278811689304822 -0.020460362890638531 0 -0.0025306494202134056 -0.020493702364009166 0 -0.0025752717281281004 -0.020497938381118481 0 -0.0024278811689304822 -0.020460362890638531 0 -0.0025306494202134056 -0.020493702364009166 0 -0.0024278811689304822 -0.020460362890638531 0 -0.0026818035795789217 -0.020542158602251843 0 -0.0026818035795789217 -0.020542158602251843 0 -0.002877445533611312 -0.020721792992594735 0 -0.0025072081066050181 -0.020736080234386445 0 -0.0026818035795789217 -0.020542158602251843 0 -0.002877445533611312 -0.020721792992594735 0 -0.0026594480473195489 -0.020404574003246974 0 -0.0025072081066050181 -0.020736080234386445 0 -0.0021020695133394415 -0.020814159402606912 0 -0.0024620091190440739 -0.021159189552008 0 -0.002877445533611312 -0.020721792992594735 0 -0.0025072081066050181 -0.020736080234386445 0 -0.0024620091190440739 -0.021159189552008 0 -0.0024278811689304822 -0.020460362890638531 0 -0.0026818035795789217 -0.020542158602251843 0 -0.0025072081066050181 -0.020736080234386445 0 -0.0024278811689304822 -0.020460362890638531 0 -0.0025072081066050181 -0.020736080234386445 0 -0.0021020695133394415 -0.020814159402606912 0 -0.0017719129220386443 -0.02027642998590333 0 -0.0024278811689304822 -0.020460362890638531 0 -0.0021020695133394415 -0.020814159402606912 0 -0.0017719129220386443 -0.02027642998590333 0 -0.0014357894795328644 -0.021112108689004132 0 -0.0021020695133394415 -0.020814159402606912 0 -0.0021020695133394415 -0.020814159402606912 0 -0.0019974341685751861 -0.021323520167833839 0 -0.0024620091190440739 -0.021159189552008 0 -0.0014357894795328644 -0.021112108689004132 0 -0.0021020695133394415 -0.020814159402606912 0 -0.0019974341685751861 -0.021323520167833839 0 -0.0019974341685751861 -0.021323520167833839 0 -0.0016232817814935247 -0.021799630354396062 0 -0.0023779042769825464 -0.021876624172486391 0 -0.0014357894795328644 -0.021112108689004132 0 -0.0019974341685751861 -0.021323520167833839 0 -0.0016232817814935247 -0.021799630354396062 0 -0.0014357894795328644 -0.021112108689004132 0 -0.0016232817814935247 -0.021799630354396062 0 -0.00097416545622836838 -0.021794170515292196 0 -0.0016232817814935247 -0.021799630354396062 0 -0.0010814819079785684 -0.022690450494092112 0 -0.0020278903877412532 -0.022636237021098942 0 -0.0016232817814935247 -0.021799630354396062 0 -0.00097416545622836838 -0.021794170515292196 0 -0.0010814819079785684 -0.022690450494092112 0 -0.0016232817814935247 -0.021799630354396062 0 -0.0023779042769825464 -0.021876624172486391 0 -0.0020278903877412532 -0.022636237021098942 0 -0.0023779042769825464 -0.021876624172486391 0 -0.0028577337577385589 -0.021781815615781994 0 -0.0029092164681848586 -0.02258305704874029 0 -0.0023779042769825464 -0.021876624172486391 0 -0.0029092164681848586 -0.02258305704874029 0 -0.0020278903877412532 -0.022636237021098942 0 -0.0028577337577385589 -0.021781815615781994 0 -0.0033368723070460265 -0.022302324739026907 0 -0.0029092164681848586 -0.02258305704874029 0 -0.002877445533611312 -0.020721792992594735 0 -0.0028577337577385589 -0.021781815615781994 0 -0.0024620091190440739 -0.021159189552008 0 -0.002877445533611312 -0.020721792992594735 0 -0.0028577337577385589 -0.021781815615781994 0 -0.0033368723070460265 -0.022302324739026907 0 -0.0019974341685751861 -0.021323520167833839 0 -0.0023779042769825464 -0.021876624172486391 0 -0.0024620091190440739 -0.021159189552008 0 -0.0023779042769825464 -0.021876624172486391 0 -0.0028577337577385589 -0.021781815615781994 0 -0.0024620091190440739 -0.021159189552008 0 -0.003561036771878251 -0.021097255340588424 0 -0.0035926465127616232 -0.021102806046691021 0 -0.0035168991209582668 -0.0211567851293171 0 -0.0035155359757118865 -0.021164648309310224 0 -0.003561036771878251 -0.021097255340588424 0 -0.0035168991209582668 -0.0211567851293171 0 -0.0035155359757118865 -0.021164648309310224 0 -0.003561036771878251 -0.021097255340588424 0 -0.0035602661687993203 -0.021120941864927037 0 -0.0034268819802845112 -0.021013153587533636 0 -0.003561036771878251 -0.021097255340588424 0 -0.0035602661687993203 -0.021120941864927037 0 -0.0017719129220386443 -0.02027642998590333 0 -0.0014357894795328644 -0.021112108689004132 0 -0.00029938453767516717 -0.021084633169979855 0 -0.0025213640784658158 -0.020766307192631322 0 -0.0020254409052583764 -0.020763298605358149 0 -0.00029938453767516717 -0.021084633169979855 0 -0.00097416545622836838 -0.021794170515292196 0 -0.00026281857011814855 -0.022382516437744054 0 -0.0014357894795328644 -0.021112108689004132 0 -0.00029938453767516717 -0.021084633169979855 0 -0.00097416545622836838 -0.021794170515292196 0 -0.00097416545622836838 -0.021794170515292196 0 -0.00026281857011814855 -0.022382516437744054 0 -0.0010814819079785684 -0.022690450494092112 0 -0.0020254409052583764 -0.020763298605358149 0 -0.0016443301202568165 -0.024488366887317915 0 -0.00029938453767516717 -0.021084633169979855 0 -0.00026281857011814855 -0.022382516437744054 0 0.0010547393852770529 -0.022438272064678199 0 -0.0035155359757118865 -0.021164648309310224 0 -0.0035602661687993203 -0.021120941864927037 0 -0.0034913681183060016 -0.021330695877885397 0 -0.0014719552255963431 -0.027528102499615119 0 -0.0012530836691579726 -0.02710696850563668 0 -0.0014909199185540783 -0.027214953782661828 0 -0.00026281857011814855 -0.022382516437744054 0 0.0010547393852770529 -0.022438272064678199 0 1.9143290050749538e-05 -0.02408785671532639 0 -0.0016443301202568165 -0.024488366887317915 0 -0.00047533952634699601 -0.025623644507832808 0 -0.00026281857011814855 -0.022382516437744054 0 -0.0010814819079785684 -0.022690450494092112 0 1.9143290050749538e-05 -0.02408785671532639 0 -0.0010814819079785684 -0.022690450494092112 0 1.9143290050749538e-05 -0.02408785671532639 0 -0.0015514648687659023 -0.023509845905648714 0 1.9143290050749538e-05 -0.02408785671532639 0 -0.0015514648687659023 -0.023509845905648714 0 -0.0017369115663847892 -0.024699231067131937 0 -0.0012530836691579726 -0.02710696850563668 0 -0.0012646568946308692 -0.026169176269008745 0 -0.0013934202974237955 -0.02682121486489367 0 1.9143290050749538e-05 -0.02408785671532639 0 -0.0017369115663847892 -0.024699231067131937 0 -0.0012646568946308692 -0.026169176269008745 0 -0.00047533952634699601 -0.025623644507832808 0 -0.0012786237855060409 -0.026200738486728943 0 -0.0012530836691579726 -0.02710696850563668 0 -0.0014909199185540783 -0.027214953782661828 0 -0.0013934202974237955 -0.02682121486489367 0 -0.0014909199185540783 -0.027214953782661828 0 -0.0015542224103402879 -0.027052389579955007 0 -0.0013934202974237955 -0.02682121486489367 0 -0.0025964970363509896 -0.023546827458383032 0 -0.0034689267619025257 -0.023185237339223938 0 -0.0037595584036544259 -0.023912822270166924 0 -0.0033368723070460265 -0.022302324739026907 0 -0.0029092164681848586 -0.02258305704874029 0 -0.0034689267619025257 -0.023185237339223938 0 -0.0025964970363509896 -0.023546827458383032 0 -0.0029092164681848586 -0.02258305704874029 0 -0.0034689267619025257 -0.023185237339223938 0 -0.0025964970363509896 -0.023546827458383032 0 -0.0029092164681848586 -0.02258305704874029 0 -0.0020278903877412532 -0.022636237021098942 0 -0.0010814819079785684 -0.022690450494092112 0 -0.0020278903877412532 -0.022636237021098942 0 -0.0015514648687659023 -0.023509845905648714 0 -0.0025964970363509896 -0.023546827458383032 0 -0.0020278903877412532 -0.022636237021098942 0 -0.0015514648687659023 -0.023509845905648714 0 -0.0025964970363509896 -0.023546827458383032 0 -0.0015514648687659023 -0.023509845905648714 0 -0.0017369115663847892 -0.024699231067131937 0 -0.0017369115663847892 -0.024699231067131937 0 -0.0024689953405604486 -0.025159441552957466 0 -0.0019850778228044856 -0.025789964053494974 0 -0.0017369115663847892 -0.024699231067131937 0 -0.0024689953405604486 -0.025159441552957466 0 -0.0028143006481881712 -0.02444670615035472 0 -0.0024689953405604486 -0.025159441552957466 0 -0.0028143006481881712 -0.02444670615035472 0 -0.0031356039605603711 -0.025225558531071758 0 -0.0025964970363509896 -0.023546827458383032 0 -0.0017369115663847892 -0.024699231067131937 0 -0.0028143006481881712 -0.02444670615035472 0 -0.0025964970363509896 -0.023546827458383032 0 -0.0028143006481881712 -0.02444670615035472 0 -0.0037595584036544259 -0.023912822270166924 0 -0.0028143006481881712 -0.02444670615035472 0 -0.0036662851597401023 -0.024806261481962799 0 -0.0037595584036544259 -0.023912822270166924 0 -0.0028143006481881712 -0.02444670615035472 0 -0.0036662851597401023 -0.024806261481962799 0 -0.0031356039605603711 -0.025225558531071758 0 -0.0036662851597401023 -0.024806261481962799 0 -0.0042263043961789778 -0.024569794951004666 0 -0.0041920577456602236 -0.025272483381169841 0 -0.0042263043961789778 -0.024569794951004666 0 -0.0047184355597979614 -0.023801802443023878 0 -0.0048316532372596867 -0.025067361549667079 0 -0.0042263043961789778 -0.024569794951004666 0 -0.0048316532372596867 -0.025067361549667079 0 -0.0041920577456602236 -0.025272483381169841 0 -0.0042263043961789778 -0.024569794951004666 0 -0.0037595584036544259 -0.023912822270166924 0 -0.0047184355597979614 -0.023801802443023878 0 -0.0036662851597401023 -0.024806261481962799 0 -0.0042263043961789778 -0.024569794951004666 0 -0.0037595584036544259 -0.023912822270166924 0 -0.0034689267619025257 -0.023185237339223938 0 -0.0037595584036544259 -0.023912822270166924 0 -0.0046211991867167544 -0.023137407783736449 0 -0.0037595584036544259 -0.023912822270166924 0 -0.0046211991867167544 -0.023137407783736449 0 -0.0047184355597979614 -0.023801802443023878 0 -0.0033368723070460265 -0.022302324739026907 0 -0.0034689267619025257 -0.023185237339223938 0 -0.0046211991867167544 -0.023137407783736449 0 -0.0025934382453431304 -0.019682170095309579 0 -0.002464649976662063 -0.019691736224366919 0 -0.0024546695098270513 -0.019673432455267481 0 -0.0025934382453431304 -0.019682170095309579 0 -0.002464649976662063 -0.019691736224366919 0 -0.0024889328443581868 -0.019928983274413579 0 -0.0046211991867167544 -0.023137407783736449 0 -0.0047184355597979614 -0.023801802443023878 0 -0.0052886179408944802 -0.024395041994029247 0 -0.002464649976662063 -0.019691736224366919 0 -0.0024546695098270513 -0.019673432455267481 0 -0.0024501046662333231 -0.019690184677633449 0 -0.0045201037413121108 -0.02363149103311768 0 -0.0062226884907973937 -0.025554031334227078 0 -0.0047184355597979614 -0.023801802443023878 0 -0.0052886179408944802 -0.024395041994029247 0 -0.0053316070563933548 -0.024606806824103187 0 -0.0035569591029348839 -0.021414669813700268 0 -0.0039288688687455194 -0.021949493506516284 0 -0.0047184355597979614 -0.023801802443023878 0 -0.0059216783669473515 -0.025260707179592539 0 -0.0048316532372596867 -0.025067361549667079 0 -0.0024546695098270513 -0.019673432455267481 0 -0.0024421731113593408 -0.019683001906753768 0 -0.0024447843983137919 -0.019675249579998534 0 -0.0024421731113593408 -0.019683001906753768 0 -0.0024358553022086719 -0.019675046424200874 0 -0.0024447843983137919 -0.019675249579998534 0 -0.0024546695098270513 -0.019673432455267481 0 -0.0024421731113593408 -0.019683001906753768 0 -0.0024501046662333231 -0.019690184677633449 0 -0.0024421731113593408 -0.019683001906753768 0 -0.0024208933270781358 -0.019689537504022872 0 -0.0024314875105446087 -0.019712776129409942 0 -0.0024208933270781358 -0.019689537504022872 0 -0.0024135486411159764 -0.019672094434989382 0 -0.0023842798897700393 -0.019690299323043944 0 -0.0024208933270781358 -0.019689537504022872 0 -0.0024358553022086719 -0.019675046424200874 0 -0.0024135486411159764 -0.019672094434989382 0 -0.0024421731113593408 -0.019683001906753768 0 -0.0024208933270781358 -0.019689537504022872 0 -0.0024358553022086719 -0.019675046424200874 0 -0.0022184304788156113 -0.019531855673288721 0 -0.0020129105608735938 -0.019411546139197391 0 -0.0020535555017171681 -0.019345211726061247 0 -0.0018622627017608271 -0.019527979468528599 0 -0.0015994475059011386 -0.019056853714710265 0 -0.0024208933270781358 -0.019689537504022872 0 -0.0024314875105446087 -0.019712776129409942 0 -0.0023726259932925339 -0.019727409864914437 0 -0.002464649976662063 -0.019691736224366919 0 -0.0024314875105446087 -0.019712776129409942 0 -0.0024501046662333231 -0.019690184677633449 0 -0.0024421731113593408 -0.019683001906753768 0 -0.0024314875105446087 -0.019712776129409942 0 -0.0024501046662333231 -0.019690184677633449 0 -0.0024351224468992993 -0.019656399482928556 0 -0.0022184304788156113 -0.019531855673288721 0 -0.002464649976662063 -0.019691736224366919 0 -0.0020535555017171681 -0.019345211726061247 0 -0.0022799657490974188 -0.019819640732167559 0 -0.0020535555017171681 -0.019345211726061247 0 -0.0022799657490974188 -0.019819640732167559 0 -0.0018622627017608271 -0.019527979468528599 0 -0.0022799657490974188 -0.019819640732167559 0 -0.0018622627017608271 -0.019527979468528599 0 -0.0020622001654586582 -0.019947348316768688 0 -0.0018622627017608271 -0.019527979468528599 0 -0.0020622001654586582 -0.019947348316768688 0 -0.0017357331942461248 -0.019746938093920131 0 -0.0022799657490974188 -0.019819640732167559 0 -0.0020622001654586582 -0.019947348316768688 0 -0.0023613290323620801 -0.020105527033424241 0 -0.0022799657490974188 -0.019819640732167559 0 -0.0023613290323620801 -0.020105527033424241 0 -0.0025122116072082267 -0.020171871481917885 0 -0.0025349787388929466 -0.020289488048194061 0 -0.0023613290323620801 -0.020105527033424241 0 -0.0025122116072082267 -0.020171871481917885 0 -0.0025349787388929466 -0.020289488048194061 0 -0.0026818035795789217 -0.020542158602251843 0 -0.0026594480473195489 -0.020404574003246974 0 -0.002877445533611312 -0.020721792992594735 0 -0.0026594480473195489 -0.020404574003246974 0 -0.0026164509503595408 -0.020214055678916296 0 -0.0025349787388929466 -0.020289488048194061 0 -0.0025122116072082267 -0.020171871481917885 0 -0.0026594480473195489 -0.020404574003246974 0 -0.0025122116072082267 -0.020171871481917885 0 -0.0026594480473195489 -0.020404574003246974 0 -0.0026164509503595408 -0.020214055678916296 0 -0.0029150626981898735 -0.020716156651335638 0 -0.0035569591029348839 -0.021414669813700268 0 -0.0025934382453431304 -0.019682170095309579 0 -0.0026164509503595408 -0.020214055678916296 0 -0.0024889328443581868 -0.019928983274413579 0 -0.002877445533611312 -0.020721792992594735 0 -0.0033368723070460265 -0.022302324739026907 0 -0.0046211991867167544 -0.023137407783736449 0 -0.002877445533611312 -0.020721792992594735 0 -0.0025934382453431304 -0.019682170095309579 0 -0.0026164509503595408 -0.020214055678916296 0 -0.0022799657490974188 -0.019819640732167559 0 -0.0025122116072082267 -0.020171871481917885 0 -0.0024889328443581868 -0.019928983274413579 0 -0.002464649976662063 -0.019691736224366919 0 -0.0022799657490974188 -0.019819640732167559 0 -0.0024889328443581868 -0.019928983274413579 0 -0.0025122116072082267 -0.020171871481917885 0 -0.0026164509503595408 -0.020214055678916296 0 -0.0024889328443581868 -0.019928983274413579 0 -4.7137122986952632e-05 -0.034964662848089335 0 -4.9943482021179537e-08 -0.034999864524438762 0 -3.4165873198938869e-08 -0.034999971509369981 0 -4.7137122986952632e-05 -0.034964662848089335 0 -0.00012194030576906465 -0.034913217541411669 0 -9.3102199903427745e-05 -0.034925915056534827 0 -4.7137122986952632e-05 -0.034964662848089335 0 -0.00012194030576906465 -0.034913217541411669 0 -6.4966582501112464e-05 -0.034958090402001978 0 -0.00012194030576906465 -0.034913217541411669 0 -0.00012825285299056683 -0.034915172826383289 0 -6.4966582501112464e-05 -0.034958090402001978 0 -0.00012194030576906465 -0.034913217541411669 0 -9.3102199903427745e-05 -0.034925915056534827 0 -0.00014516397611365789 -0.034884441217565038 0 -9.3102199903427745e-05 -0.034925915056534827 0 -0.00010980531232044568 -0.03490061534876026 0 -0.00014516397611365789 -0.034884441217565038 0 -9.3102199903427745e-05 -0.034925915056534827 0 -0.00010980531232044568 -0.03490061534876026 0 -2.8831605618823508e-05 -0.034962440361618052 0 -4.7137122986952632e-05 -0.034964662848089335 0 -2.8831605618823508e-05 -0.034962440361618052 0 -4.9943482021179537e-08 -0.034999864524438762 0 -4.7137122986952632e-05 -0.034964662848089335 0 -9.3102199903427745e-05 -0.034925915056534827 0 -2.8831605618823508e-05 -0.034962440361618052 0 -2.8831605618823508e-05 -0.034962440361618052 0 -4.9943482021179537e-08 -0.034999864524438762 0 -1.4032034212952281e-08 -0.034999986107848206 0 -2.8831605618823508e-05 -0.034962440361618052 0 -1.4032034212952281e-08 -0.034999986107848206 0 4.2336276868367308e-06 -0.035002365952129307 0 -2.8831605618823508e-05 -0.034962440361618052 0 -9.7384514841138812e-05 -0.034811706168876584 0 -0.00011205275451721497 -0.03486709773069107 0 -3.1443334063978578e-05 -0.034968973253478426 0 -4.660335536422464e-05 -0.034900856988191571 0 1.1845814784586165e-08 -0.035000011572244194 0 -1.4032034212952281e-08 -0.034999986107848206 0 4.2336276868367308e-06 -0.035002365952129307 0 -0.00013421238567047937 -0.034786052920301597 0 -9.7384514841138812e-05 -0.034811706168876584 0 -0.0001356989796317287 -0.034804402571120607 0 -0.00015934314809812333 -0.034789264706127164 0 -0.00015730070098917318 -0.034811628903206861 0 -0.0001356989796317287 -0.034804402571120607 0 -0.00015730070098917318 -0.034811628903206861 0 -0.0001356989796317287 -0.034804402571120607 0 -0.00013058654018759211 -0.034825610565506301 0 -9.7384514841138812e-05 -0.034811706168876584 0 -0.00013058654018759211 -0.034825610565506301 0 -0.00011205275451721497 -0.03486709773069107 0 -9.7384514841138812e-05 -0.034811706168876584 0 -0.0001356989796317287 -0.034804402571120607 0 -0.00013058654018759211 -0.034825610565506301 0 -0.00015730070098917318 -0.034811628903206861 0 -0.00013058654018759211 -0.034825610565506301 0 -0.00015283356954526965 -0.034839242752955732 0 -0.00015730070098917318 -0.034811628903206861 0 -0.00015283356954526965 -0.034839242752955732 0 -0.00017734372789480555 -0.034820049443346532 0 -0.00015283356954526965 -0.034839242752955732 0 -0.00011205275451721497 -0.03486709773069107 0 -0.0001420169828238211 -0.034866345001144695 0 -0.00013058654018759211 -0.034825610565506301 0 -0.00015283356954526965 -0.034839242752955732 0 -0.00011205275451721497 -0.03486709773069107 0 -0.00010980531232044568 -0.03490061534876026 0 -2.8831605618823508e-05 -0.034962440361618052 0 -0.00011205275451721497 -0.03486709773069107 0 -0.00010980531232044568 -0.03490061534876026 0 -0.00011205275451721497 -0.03486709773069107 0 -0.0001420169828238211 -0.034866345001144695 0 -0.00010980531232044568 -0.03490061534876026 0 -0.0001420169828238211 -0.034866345001144695 0 -0.00014516397611365789 -0.034884441217565038 0 -0.00017828461803107932 -0.034842693645328306 0 -0.00018635459419519894 -0.034857149373618113 0 -0.00014516397611365789 -0.034884441217565038 0 -0.0001420169828238211 -0.034866345001144695 0 -0.00017828461803107932 -0.034842693645328306 0 -0.00014516397611365789 -0.034884441217565038 0 -0.00017828461803107932 -0.034842693645328306 0 -0.00020830709988410733 -0.034830509543647505 0 -0.00018635459419519894 -0.034857149373618113 0 -0.00015283356954526965 -0.034839242752955732 0 -0.0001420169828238211 -0.034866345001144695 0 -0.00017828461803107932 -0.034842693645328306 0 -0.00015283356954526965 -0.034839242752955732 0 -0.00017828461803107932 -0.034842693645328306 0 -0.00017734372789480555 -0.034820049443346532 0 -0.00017828461803107932 -0.034842693645328306 0 -0.00020046556254790088 -0.034809379377722348 0 -0.00020830709988410733 -0.034830509543647505 0 -0.00017828461803107932 -0.034842693645328306 0 -0.00017734372789480555 -0.034820049443346532 0 -0.00020046556254790088 -0.034809379377722348 0 -0.00019463475972939821 -0.034789050476245184 0 -0.00015730070098917318 -0.034811628903206861 0 -0.00017734372789480555 -0.034820049443346532 0 -0.00019463475972939821 -0.034789050476245184 0 -0.00017734372789480555 -0.034820049443346532 0 -0.00020046556254790088 -0.034809379377722348 0 -0.00022341408576470037 -0.034790056523791413 0 -0.00020046556254790088 -0.034809379377722348 0 -0.00020830709988410733 -0.034830509543647505 0 -0.00022341408576470037 -0.034790056523791413 0 -0.00020830709988410733 -0.034830509543647505 0 -0.00022414039732768497 -0.034833070403524943 0 -0.0011691969218248512 -0.034741694299455859 0 -0.001018611283336453 -0.034488315860209923 0 -0.00020830709988410733 -0.034830509543647505 0 -0.00020856149155758455 -0.034842067599626776 0 -0.00018635459419519894 -0.034857149373618113 0 -0.00020830709988410733 -0.034830509543647505 0 -0.00020856149155758455 -0.034842067599626776 0 -0.00022414039732768497 -0.034833070403524943 0 -0.00019951151069093741 -0.034853756884410281 0 -0.0002061662671366334 -0.034838816821553313 0 -0.00021217977974603326 -0.034832865759349178 0 -0.00020856149155758455 -0.034842067599626776 0 -0.00019951151069093741 -0.034853756884410281 0 -0.00021217977974603326 -0.034832865759349178 0 -0.00020856149155758455 -0.034842067599626776 0 -0.00019951151069093741 -0.034853756884410281 0 -0.00018635459419519894 -0.034857149373618113 0 -0.00018635459419519894 -0.034857149373618113 0 -0.00014516397611365789 -0.034884441217565038 0 -0.00016999605674731182 -0.034877463708181518 0 -0.00012194030576906465 -0.034913217541411669 0 -0.00014516397611365789 -0.034884441217565038 0 -0.00016999605674731182 -0.034877463708181518 0 -0.00019951151069093741 -0.034853756884410281 0 -0.00018635459419519894 -0.034857149373618113 0 -0.00016999605674731182 -0.034877463708181518 0 -0.00016999605674731182 -0.034877463708181518 0 -0.00016019202883958155 -0.034889477363056622 0 -0.00018936231299493503 -0.034866667590335049 0 -0.00012194030576906465 -0.034913217541411669 0 -0.00016999605674731182 -0.034877463708181518 0 -0.00016019202883958155 -0.034889477363056622 0 -0.00016019202883958155 -0.034889477363056622 0 -0.00018069834531164516 -0.034881189283012676 0 -0.00012825285299056683 -0.034915172826383289 0 -0.00012194030576906465 -0.034913217541411669 0 -0.00016019202883958155 -0.034889477363056622 0 -0.00012825285299056683 -0.034915172826383289 0 -0.00016019202883958155 -0.034889477363056622 0 -0.00018069834531164516 -0.034881189283012676 0 -0.00018936231299493503 -0.034866667590335049 0 -0.00018069834531164516 -0.034881189283012676 0 -0.00020107340640643055 -0.034858445872471278 0 -0.00018936231299493503 -0.034866667590335049 0 -0.00020107340640643055 -0.034858445872471278 0 -0.0002061662671366334 -0.034838816821553313 0 -0.00018936231299493503 -0.034866667590335049 0 -0.00019951151069093741 -0.034853756884410281 0 -0.0002061662671366334 -0.034838816821553313 0 -0.00018936231299493503 -0.034866667590335049 0 -0.00019951151069093741 -0.034853756884410281 0 -0.00016999605674731182 -0.034877463708181518 0 -0.00018936231299493503 -0.034866667590335049 0 -0.00020584077641404384 -0.034795341532204989 0 -0.00020273210160556734 -0.034789143318070676 0 -0.00021217977974603326 -0.034832865759349178 0 -0.0002061662671366334 -0.034838816821553313 0 -0.00020584077641404384 -0.034795341532204989 0 -0.00021217977974603326 -0.034832865759349178 0 -0.0002061662671366334 -0.034838816821553313 0 -0.00020584077641404384 -0.034795341532204989 0 -0.00020333273631248616 -0.034820269489385838 0 -0.00020273210160556734 -0.034789143318070676 0 -0.00016759278593967927 -0.034742237980365624 0 -0.00020142492447598151 -0.034736214130914829 0 -0.00020273210160556734 -0.034789143318070676 0 -0.00020209671171931572 -0.034826719759512507 0 -0.00016759278593967927 -0.034742237980365624 0 -0.00020584077641404384 -0.034795341532204989 0 -0.00020273210160556734 -0.034789143318070676 0 -0.00020142492447598151 -0.034736214130914829 0 -0.00020273210160556734 -0.034789143318070676 0 -0.00020209671171931572 -0.034826719759512507 0 -0.00021217977974603326 -0.034832865759349178 0 -0.00020209671171931572 -0.034826719759512507 0 -0.00021217977974603326 -0.034832865759349178 0 -0.00022414039732768497 -0.034833070403524943 0 -0.00020856149155758455 -0.034842067599626776 0 -0.00021217977974603326 -0.034832865759349178 0 -0.00022414039732768497 -0.034833070403524943 0 -0.0018978540210417177 -0.034362040705753806 0 -0.0016558700508567767 -0.034488051583342422 0 -0.0015452850479086781 -0.034280771354068998 0 -0.0017496445971771132 -0.034656653520239777 0 -0.0018978540210417177 -0.034362040705753806 0 -0.0016558700508567767 -0.034488051583342422 0 -0.0017073739463073731 -0.03394762742305496 0 -0.0018978540210417177 -0.034362040705753806 0 -0.0015452850479086781 -0.034280771354068998 0 -0.0010082372628717751 -0.034877795786744784 0 -0.001018611283336453 -0.034488315860209923 0 -0.0015452850479086781 -0.034280771354068998 0 -0.0012877683918318433 -0.034528851274661522 0 -0.0012972762220314848 -0.03401644908136571 0 -0.0017073739463073731 -0.03394762742305496 0 -0.0015452850479086781 -0.034280771354068998 0 -0.0012972762220314848 -0.03401644908136571 0 -0.0016558700508567767 -0.034488051583342422 0 -0.0015452850479086781 -0.034280771354068998 0 -0.0014216160817132953 -0.034591679589761989 0 -0.0015452850479086781 -0.034280771354068998 0 -0.0014216160817132953 -0.034591679589761989 0 -0.0012877683918318433 -0.034528851274661522 0 -0.003619625986925893 -0.0222881495250975 0 -0.0036549974117619779 -0.0219949879982273 0 -0.0029498487592537798 -0.022770714860805823 0 -0.003619625986925893 -0.0222881495250975 0 -0.0039033269883531809 -0.022733345874224858 0 -0.0029498487592537798 -0.022770714860805823 0 -0.0024332148230329833 -0.028415310578287899 0 -0.0023009349651824744 -0.027831886270051977 0 -0.0039033269883531809 -0.022733345874224858 0 -0.0029498487592537798 -0.022770714860805823 0 -0.0035720778624520307 -0.023932911552529947 0 -0.0023009349651824744 -0.027831886270051977 0 -0.0012085780114019712 -0.031442678697043751 0 -0.0017073739463073731 -0.03394762742305496 0 -0.0012972762220314848 -0.03401644908136571 0 -0.001421264443184555 -0.033482059942524775 0 -0.0010082372628717751 -0.034877795786744784 0 -0.0012085780114019712 -0.031442678697043751 0 -0.0029498487592537798 -0.022770714860805823 0 -0.0023858803523114898 -0.024327913457558744 0 -0.0035720778624520307 -0.023932911552529947 0 -0.0035926465127616232 -0.021102806046691021 0 -0.003472930710625894 -0.021185154387932194 0 -0.0035168991209582668 -0.0211567851293171 0 -0.0037873510963360316 -0.021906860507990317 0 -0.0025463878250267537 -0.026260266985701126 0 -0.0023858803523114898 -0.024327913457558744 0 -0.0035720778624520307 -0.023932911552529947 0 -0.0030605649653283489 -0.025255457585807498 0 -0.00038636214231459594 -0.034588217011520164 0 -0.00030285971144137396 -0.034578680518060248 0 -0.00036201940722646998 -0.034616202555589733 0 -0.0025463878250267537 -0.026260266985701126 0 -0.0012064896325884714 -0.027624436189799515 0 -0.0025463878250267537 -0.026260266985701126 0 -0.0025069390550401223 -0.025262975903712438 0 -0.0027073553011225039 -0.026331773642435708 0 -0.0023290817908587103 -0.025822968359986185 0 -0.0029663888569577404 -0.025705981211790383 0 -0.0035155359757118865 -0.021164648309310224 0 -0.0034856618848990435 -0.021196848477463132 0 -0.0035168991209582668 -0.0211567851293171 0 -0.0040092157741581872 -0.021974582080004763 0 -0.0025069390550401223 -0.025262975903712438 0 -0.003472930710625894 -0.021185154387932194 0 -0.0034856618848990435 -0.021196848477463132 0 -0.0035168991209582668 -0.0211567851293171 0 -0.0012085780114019712 -0.031442678697043751 0 0.00010799073636045161 -0.035702081296156395 0 -0.00027045708680820634 -0.034383629718982921 0 -0.00038636214231459594 -0.034588217011520164 0 -0.00030285971144137396 -0.034578680518060248 0 -0.00016759278593967927 -0.034742237980365624 0 -0.00021779246632847021 -0.03465563764092381 0 -0.00020142492447598151 -0.034736214130914829 0 -0.0012085780114019712 -0.031442678697043751 0 -0.0025463878250267537 -0.026260266985701126 0 -0.00021779246632847021 -0.03465563764092381 0 -0.00030285971144137396 -0.034578680518060248 0 -0.00036201940722646998 -0.034616202555589733 0 -0.00027045708680820634 -0.034383629718982921 0 -0.00021779246632847021 -0.03465563764092381 0 -0.00030285971144137396 -0.034578680518060248 0 -0.0012064896325884714 -0.027624436189799515 0 -0.0007378181485479682 -0.031637157673932118 0 -0.0016678580071171592 -0.027532977561061857 0 -0.0016268389341101029 -0.027555818206197798 0 -0.0017120810215289983 -0.027566088489458546 0 -0.00021779246632847021 -0.03465563764092381 0 -0.00036201940722646998 -0.034616202555589733 0 -0.00017454865438599936 -0.034716637360061427 0 -0.001696218776551678 -0.027529936996058567 0 -0.0016678580071171592 -0.027532977561061857 0 -0.0017120810215289983 -0.027566088489458546 0 -0.001696218776551678 -0.027529936996058567 0 -0.0016678580071171592 -0.027532977561061857 0 -0.0016793718449401632 -0.027496466919135085 0 -0.0016678580071171592 -0.027532977561061857 0 -0.0016484659450827432 -0.027499776462816782 0 -0.0016793718449401632 -0.027496466919135085 0 -0.0016678580071171592 -0.027532977561061857 0 -0.0016484659450827432 -0.027499776462816782 0 -0.0016366877574911425 -0.027531746348201238 0 -0.0035155359757118865 -0.021164648309310224 0 -0.0034913681183060016 -0.021330695877885397 0 -0.0033870357493857037 -0.021209873101130153 0 -0.0016484659450827432 -0.027499776462816782 0 -0.0016122116772680753 -0.02750075444537415 0 -0.0016142696333013293 -0.027469531886279423 0 -0.0016122116772680753 -0.02750075444537415 0 -0.0016366877574911425 -0.027531746348201238 0 -0.0016076619999076198 -0.027528619608210791 0 -0.0016484659450827432 -0.027499776462816782 0 -0.0016122116772680753 -0.02750075444537415 0 -0.0016366877574911425 -0.027531746348201238 0 -0.0016678580071171592 -0.027532977561061857 0 -0.0016366877574911425 -0.027531746348201238 0 -0.0016268389341101029 -0.027555818206197798 0 -0.0016366877574911425 -0.027531746348201238 0 -0.0016243059058515701 -0.027560978779135294 0 -0.0016076619999076198 -0.027528619608210791 0 -0.001609499705965851 -0.027563436160580736 0 -0.0016243059058515701 -0.027560978779135294 0 -0.0016076619999076198 -0.027528619608210791 0 -0.0025069390550401223 -0.025262975903712438 0 -0.0012064896325884714 -0.027624436189799515 0 -0.0014007114192585175 -0.027489199645501165 0 -0.0012064896325884714 -0.027624436189799515 0 -0.0016443301202568165 -0.024488366887317915 0 -0.0025069390550401223 -0.025262975903712438 0 -0.0015384119101270299 -0.027474106621734405 0 -0.001609499705965851 -0.027563436160580736 0 -0.0016076619999076198 -0.027528619608210791 0 -0.0015384119101270299 -0.027474106621734405 0 -0.0016122116772680753 -0.02750075444537415 0 -0.0016142696333013293 -0.027469531886279423 0 -0.0015384119101270299 -0.027474106621734405 0 -0.0016122116772680753 -0.02750075444537415 0 -0.0016076619999076198 -0.027528619608210791 0 -0.0016443301202568165 -0.024488366887317915 0 -0.00094681786435593695 -0.027598249619569869 0 -0.0014719552255963431 -0.027528102499615119 0 -0.0014909199185540783 -0.027214953782661828 0 -0.0016006798266294273 -0.027402833030866991 0 -0.0015384119101270299 -0.027474106621734405 0 -0.0016142696333013293 -0.027469531886279423 0 -0.0016006798266294273 -0.027402833030866991 0 -0.0016484659450827432 -0.027499776462816782 0 -0.0016142696333013293 -0.027469531886279423 0 -0.0016480425857808938 -0.027462648642595747 0 -0.0016142696333013293 -0.027469531886279423 0 -0.0016480425857808938 -0.027462648642595747 0 -0.0016006798266294273 -0.027402833030866991 0 -0.0016620748089149926 -0.027436196946234649 0 -0.0016006798266294273 -0.027402833030866991 0 -0.0015965316252708145 -0.027269860510915921 0 -0.0016480425857808938 -0.027462648642595747 0 -0.0016620748089149926 -0.027436196946234649 0 -0.0016006798266294273 -0.027402833030866991 0 -0.0014909199185540783 -0.027214953782661828 0 -0.0016006798266294273 -0.027402833030866991 0 -0.0015965316252708145 -0.027269860510915921 0 -0.0014909199185540783 -0.027214953782661828 0 -0.0015965316252708145 -0.027269860510915921 0 -0.0015542224103402879 -0.027052389579955007 0 -0.0016620748089149926 -0.027436196946234649 0 -0.0015965316252708145 -0.027269860510915921 0 -0.0017003973911484569 -0.027219807915718004 0 -0.0015965316252708145 -0.027269860510915921 0 -0.0015542224103402879 -0.027052389579955007 0 -0.0017003973911484569 -0.027219807915718004 0 -0.0016620748089149926 -0.027436196946234649 0 -0.0019318283958634276 -0.027451061247084543 0 -0.0017003973911484569 -0.027219807915718004 0 -0.0019318283958634276 -0.027451061247084543 0 -0.0017003973911484569 -0.027219807915718004 0 -0.0018519062678338568 -0.027122762586792609 0 -0.0016620748089149926 -0.027436196946234649 0 -0.0016793718449401632 -0.027496466919135085 0 -0.0017191053800300993 -0.027516049052571951 0 -0.0016620748089149926 -0.027436196946234649 0 -0.0019318283958634276 -0.027451061247084543 0 -0.0020590472333445083 -0.027893567208973794 0 -0.0016768121488540282 -0.027548280976360275 0 -0.0019532453668515363 -0.027397489967093486 0 -0.0016480425857808938 -0.027462648642595747 0 -0.0016620748089149926 -0.027436196946234649 0 -0.0016793718449401632 -0.027496466919135085 0 -0.0016484659450827432 -0.027499776462816782 0 -0.0016480425857808938 -0.027462648642595747 0 -0.0016793718449401632 -0.027496466919135085 0 -0.001696218776551678 -0.027529936996058567 0 -0.0016793718449401632 -0.027496466919135085 0 -0.0017191053800300993 -0.027516049052571951 0 -0.0019318283958634276 -0.027451061247084543 0 -0.0020590472333445083 -0.027893567208973794 0 -0.0022560699684317791 -0.027658670874218055 0 -0.0019318283958634276 -0.027451061247084543 0 -0.0020971092229579509 -0.027352878391681289 0 -0.0018519062678338568 -0.027122762586792609 0 -0.0019318283958634276 -0.027451061247084543 0 -0.0022560699684317791 -0.027658670874218055 0 -0.0020971092229579509 -0.027352878391681289 0 -0.0022560699684317791 -0.027658670874218055 0 -0.0025559213089369126 -0.02781135713948036 0 -0.0023571827637287584 -0.027382291938837008 0 -0.0022560699684317791 -0.027658670874218055 0 -0.0023571827637287584 -0.027382291938837008 0 -0.0020971092229579509 -0.027352878391681289 0 -0.0022560699684317791 -0.027658670874218055 0 -0.0024254329077437534 -0.027904497303115318 0 -0.0025559213089369126 -0.02781135713948036 0 -0.0020590472333445083 -0.027893567208973794 0 -0.0024254329077437534 -0.027904497303115318 0 -0.0025392698043046609 -0.028176253772092305 0 -0.0020590472333445083 -0.027893567208973794 0 -0.0022560699684317791 -0.027658670874218055 0 -0.0024254329077437534 -0.027904497303115318 0 -0.0024254329077437534 -0.027904497303115318 0 -0.0025392698043046609 -0.028176253772092305 0 -0.0026628517245271149 -0.027999912105006432 0 -0.00021000290966581364 -0.034757627396052315 0 -0.00017454865438599936 -0.034716637360061427 0 -0.00019760525310098315 -0.034768596319611371 0 -0.0019532453668515363 -0.027397489967093486 0 -0.0014308901499607532 -0.03046641786196122 0 -0.0014308901499607532 -0.03046641786196122 0 -0.0007378181485479682 -0.031637157673932118 0 -0.0017191053800300993 -0.027516049052571951 0 -0.0017850473578041024 -0.027598164336351969 0 -0.0017120810215289983 -0.027566088489458546 0 -0.001696218776551678 -0.027529936996058567 0 -0.0017191053800300993 -0.027516049052571951 0 -0.0017120810215289983 -0.027566088489458546 0 -0.00017454865438599936 -0.034716637360061427 0 -0.00020142492447598151 -0.034736214130914829 0 -0.00019760525310098315 -0.034768596319611371 0 -0.00021779246632847021 -0.03465563764092381 0 -0.00017454865438599936 -0.034716637360061427 0 -0.00020142492447598151 -0.034736214130914829 0 -0.00021000290966581364 -0.034757627396052315 0 -0.00019760525310098315 -0.034768596319611371 0 -0.00020333273631248616 -0.034820269489385838 0 -0.00020584077641404384 -0.034795341532204989 0 -0.00020142492447598151 -0.034736214130914829 0 -0.00019760525310098315 -0.034768596319611371 0 -0.00020584077641404384 -0.034795341532204989 0 -0.00019760525310098315 -0.034768596319611371 0 -0.00020333273631248616 -0.034820269489385838 0 -0.00020333273631248616 -0.034820269489385838 0 -0.00020967026016164848 -0.034873431620439641 0 -0.00022756743974022101 -0.034830571959182148 0 -0.00020107340640643055 -0.034858445872471278 0 -0.0002061662671366334 -0.034838816821553313 0 -0.00020333273631248616 -0.034820269489385838 0 -0.00020107340640643055 -0.034858445872471278 0 -0.00020333273631248616 -0.034820269489385838 0 -0.00020967026016164848 -0.034873431620439641 0 -0.00018069834531164516 -0.034881189283012676 0 -0.00020967026016164848 -0.034873431620439641 0 -0.0001496027345312576 -0.034917240840355364 0 -0.00018069834531164516 -0.034881189283012676 0 -0.00020107340640643055 -0.034858445872471278 0 -0.00020967026016164848 -0.034873431620439641 0 -0.00018069834531164516 -0.034881189283012676 0 -0.00012825285299056683 -0.034915172826383289 0 -0.0001496027345312576 -0.034917240840355364 0 -0.00012825285299056683 -0.034915172826383289 0 -0.0001496027345312576 -0.034917240840355364 0 -9.3788532872038369e-05 -0.034957257374377174 0 -0.00063027534645536897 -0.034445969570726105 0 -0.00013446047210396796 -0.034755948802046903 0 -0.0001496027345312576 -0.034917240840355364 0 -0.00017450248646131266 -0.034977299858382722 0 -9.3788532872038369e-05 -0.034957257374377174 0 -0.00020967026016164848 -0.034873431620439641 0 -0.0001496027345312576 -0.034917240840355364 0 -0.00017450248646131266 -0.034977299858382722 0 -0.0002273508160281603 -0.034974782036258333 0 -0.00063027534645536897 -0.034445969570726105 0 -0.00011898412055789357 -0.034957711846046409 0 -6.7693799864958464e-05 -0.034977341228771178 0 -9.3788532872038369e-05 -0.034957257374377174 0 -0.00011898412055789357 -0.034957711846046409 0 -9.1703431469783322e-05 -0.034985879653523982 0 -6.7693799864958464e-05 -0.034977341228771178 0 -0.00063027534645536897 -0.034445969570726105 0 -0.0013238691759766001 -0.032320686395404391 0 -0.0023204171875154962 -0.030028490082370522 0 -0.0013238691759766001 -0.032320686395404391 0 -0.001379957266547528 -0.03201743545033206 0 -0.0013562873666599685 -0.031964746530351321 0 -0.0014096518164378271 -0.031960212995199577 0 -0.0014308901499607532 -0.03046641786196122 0 -0.00063027534645536897 -0.034445969570726105 0 -0.0013030329644858076 -0.031964468426431275 0 -0.001379957266547528 -0.03201743545033206 0 -0.0013562873666599685 -0.031964746530351321 0 -0.00021000290966581364 -0.034757627396052315 0 -0.00020333273631248616 -0.034820269489385838 0 -0.00022756743974022101 -0.034830571959182148 0 -0.0025392698043046609 -0.028176253772092305 0 -0.0028074225623776314 -0.028040568284322016 0 -0.0026628517245271149 -0.027999912105006432 0 -0.0014308901499607532 -0.03046641786196122 0 -0.0023204171875154962 -0.030028490082370522 0 -0.0028074225623776314 -0.028040568284322016 0 -0.0026628517245271149 -0.027999912105006432 0 -0.0028062966667230576 -0.028046838125125165 0 -0.0026628517245271149 -0.027999912105006432 0 -0.0028062966667230576 -0.028046838125125165 0 -0.0025559213089369126 -0.02781135713948036 0 -0.0024254329077437534 -0.027904497303115318 0 -0.0026628517245271149 -0.027999912105006432 0 -0.0025559213089369126 -0.02781135713948036 0 -0.0028062966667230576 -0.028046838125125165 0 -0.0027126203947351736 -0.027774189195445314 0 -0.0025559213089369126 -0.02781135713948036 0 -0.0027126203947351736 -0.027774189195445314 0 -0.0025559213089369126 -0.02781135713948036 0 -0.0023571827637287584 -0.027382291938837008 0 -0.0028062966667230576 -0.028046838125125165 0 -0.0027126203947351736 -0.027774189195445314 0 -0.0029709331492370041 -0.028377593439064455 0 -0.0027126203947351736 -0.027774189195445314 0 -0.0029709331492370041 -0.028377593439064455 0 -0.0031619254865590052 -0.027518869242231934 0 -0.0030225702153353811 -0.028539404517018942 0 -0.002938971177663161 -0.029556505165908093 0 -0.0028074225623776314 -0.028040568284322016 0 -0.0028062966667230576 -0.028046838125125165 0 -0.0028587386362116307 -0.028054939926970637 0 -0.0028062966667230576 -0.028046838125125165 0 -0.0029709331492370041 -0.028377593439064455 0 -0.0028587386362116307 -0.028054939926970637 0 -0.0028074225623776314 -0.028040568284322016 0 -0.0028587386362116307 -0.028054939926970637 0 -0.0027093970773743922 -0.027775224817005603 0 -0.0028587386362116307 -0.028054939926970637 0 -0.0027093970773743922 -0.027775224817005603 0 -0.0017106662199369428 -0.028555952954579095 0 -7.5792942156871612e-05 -0.034955353411655767 0 -4.2255861534104129e-05 -0.034982651547775218 0 -3.842410144254063e-05 -0.034985334386288189 0 -0.0013238691759766001 -0.032320686395404391 0 0.00045992968791927664 -0.034772664798341291 0 -0.0013238691759766001 -0.032320686395404391 0 -0.00093642756073875684 -0.031671551941599006 0 -4.2255861534104129e-05 -0.034982651547775218 0 -3.842410144254063e-05 -0.034985334386288189 0 -1.7429351673467943e-05 -0.034994113377785609 0 -0.0029709331492370041 -0.028377593439064455 0 -0.0017106662199369428 -0.028555952954579095 0 -0.0028496128546622208 -0.031621044078742798 0 -0.00093642756073875684 -0.031671551941599006 0 -0.00019881398905686172 -0.033423540358114151 0 -0.0029709331492370041 -0.028377593439064455 0 -0.0028587386362116307 -0.028054939926970637 0 -0.0017106662199369428 -0.028555952954579095 0 -3.842410144254063e-05 -0.034985334386288189 0 -1.4944571472171518e-05 -0.034994162354042652 0 -8.1470581323307414e-06 -0.034996787276765334 0 -1.7429351673467943e-05 -0.034994113377785609 0 -2.9225258230385227e-08 -0.034999978652437751 0 -1.6749433406576912e-08 -0.034999991026581675 0 -1.4944571472171518e-05 -0.034994162354042652 0 -1.7429351673467943e-05 -0.034994113377785609 0 -1.6749433406576912e-08 -0.034999991026581675 0 -3.842410144254063e-05 -0.034985334386288189 0 -1.4944571472171518e-05 -0.034994162354042652 0 -1.7429351673467943e-05 -0.034994113377785609 0 -4.2255861534104129e-05 -0.034982651547775218 0 -1.7429351673467943e-05 -0.034994113377785609 0 -2.9225258230385227e-08 -0.034999978652437751 0 -2.9225258230385227e-08 -0.034999978652437751 0 -3.9269645752882441e-05 -0.034984343405583554 0 -3.4165873198938869e-08 -0.034999971509369981 0 -4.2255861534104129e-05 -0.034982651547775218 0 -2.9225258230385227e-08 -0.034999978652437751 0 -3.9269645752882441e-05 -0.034984343405583554 0 -4.2255861534104129e-05 -0.034982651547775218 0 -3.9269645752882441e-05 -0.034984343405583554 0 -6.7693799864958464e-05 -0.034977341228771178 0 -9.1703431469783322e-05 -0.034985879653523982 0 -4.2255861534104129e-05 -0.034982651547775218 0 -6.7693799864958464e-05 -0.034977341228771178 0 -3.9269645752882441e-05 -0.034984343405583554 0 -6.7693799864958464e-05 -0.034977341228771178 0 -9.3788532872038369e-05 -0.034957257374377174 0 -3.9269645752882441e-05 -0.034984343405583554 0 -9.3788532872038369e-05 -0.034957257374377174 0 -6.4966582501112464e-05 -0.034958090402001978 0 -0.00012825285299056683 -0.034915172826383289 0 -9.3788532872038369e-05 -0.034957257374377174 0 -6.4966582501112464e-05 -0.034958090402001978 0 -4.7137122986952632e-05 -0.034964662848089335 0 -6.4966582501112464e-05 -0.034958090402001978 0 -3.4165873198938869e-08 -0.034999971509369981 0 -3.9269645752882441e-05 -0.034984343405583554 0 -6.4966582501112464e-05 -0.034958090402001978 0 -3.4165873198938869e-08 -0.034999971509369981 0 -4.6644120137503038e-09 -0.034999924035388735 0 -3.2118425991042345e-06 -0.034982394699791516 0 -1.5416314785034291e-05 -0.034950610725252268 0 -3.2118425991042345e-06 -0.034982394699791516 0 -1.5416314785034291e-05 -0.034950610725252268 0 -2.7442224101609872e-06 -0.034977238520666212 0 -4.6644120137503038e-09 -0.034999924035388735 0 -3.2118425991042345e-06 -0.034982394699791516 0 -1.889531782041803e-09 -0.034999961707784272 0 -3.1691641503500652e-07 -0.035001188699870928 0 -0.00062923208917353766 -0.030751102852651216 0 -0.00062923208917353766 -0.030751102852651216 0 0.0011627553615758059 -0.030506741664834761 0 -0.0011858842433089825 -0.035589495343747883 0 -0.00060957265296139465 -0.034914530615076586 0 -0.0019989057020640272 -0.03430133623684721 0 -0.00062923208917353766 -0.030751102852651216 0 -0.0026767040083687773 -0.030643541569141324 0 -9.4226007741776309e-07 -0.035002787562512822 0 -0.0011858842433089825 -0.035589495343747883 0 -0.00060957265296139465 -0.034914530615076586 0 -9.4226007741776309e-07 -0.035002787562512822 0 -0.00060957265296139465 -0.034914530615076586 0 1.1172400458236436e-06 -0.034996420252219315 0 -1.0399300476826796e-08 -0.034999362467436658 0 -0.00019881398905686172 -0.033423540358114151 0 1.1172400458236436e-06 -0.034996420252219315 0 -0.00077619629940349141 -0.033817915531888315 0 -0.00024676299231399197 -0.031887476638660407 0 -0.00060957265296139465 -0.034914530615076586 0 1.1172400458236436e-06 -0.034996420252219315 0 -0.00077619629940349141 -0.033817915531888315 0 4.0440185929365656e-09 -0.034999999618666185 0 -8.1470581323307414e-06 -0.034996787276765334 0 -1.6749433406576912e-08 -0.034999991026581675 0 -1.4944571472171518e-05 -0.034994162354042652 0 -8.1470581323307414e-06 -0.034996787276765334 0 -1.6749433406576912e-08 -0.034999991026581675 0 -0.0017106662199369428 -0.028555952954579095 0 -0.00024676299231399197 -0.031887476638660407 0 -0.0028496128546622208 -0.031621044078742798 0 -0.00077619629940349141 -0.033817915531888315 0 -0.00024676299231399197 -0.031887476638660407 0 -0.0028496128546622208 -0.031621044078742798 0 -0.00077619629940349141 -0.033817915531888315 0 -0.0028496128546622208 -0.031621044078742798 0 -0.0019989057020640272 -0.03430133623684721 0 -0.002938971177663161 -0.029556505165908093 0 -0.0026767040083687773 -0.030643541569141324 0 -0.00060957265296139465 -0.034914530615076586 0 -0.00077619629940349141 -0.033817915531888315 0 -0.0019989057020640272 -0.03430133623684721 0 -0.0031619254865590052 -0.027518869242231934 0 -0.0031921701314290953 -0.027053206391703079 0 -0.0027293421171477312 -0.027198348536376551 0 -0.0027126203947351736 -0.027774189195445314 0 -0.0031619254865590052 -0.027518869242231934 0 -0.0027293421171477312 -0.027198348536376551 0 -0.0027126203947351736 -0.027774189195445314 0 -0.0027293421171477312 -0.027198348536376551 0 -0.0023571827637287584 -0.027382291938837008 0 -0.0027293421171477312 -0.027198348536376551 0 -0.0023977237420475354 -0.026945104465619672 0 -0.0023571827637287584 -0.027382291938837008 0 -0.0027293421171477312 -0.027198348536376551 0 -0.0027114085011572123 -0.026607637443429727 0 -0.0023977237420475354 -0.026945104465619672 0 -0.0027114085011572123 -0.026607637443429727 0 -0.0022067575120949196 -0.026577246575698144 0 -0.0023977237420475354 -0.026945104465619672 0 -0.003247787930269697 -0.026668444948375905 0 -0.0031921701314290953 -0.027053206391703079 0 -0.0027114085011572123 -0.026607637443429727 0 -0.0031921701314290953 -0.027053206391703079 0 -0.0027293421171477312 -0.027198348536376551 0 -0.0027114085011572123 -0.026607637443429727 0 0.0011454963252955637 -0.025556916100359522 0 0.0010386194858450989 -0.025937328446451566 0 0.0016114795839263214 -0.025923004178573461 0 -0.00062923208917353766 -0.030751102852651216 0 -0.00080659036880169409 -0.025530241785034664 0 0.0017330447447895813 -0.025605044234525549 0 0.0011454963252955637 -0.025556916100359522 0 0.0016114795839263214 -0.025923004178573461 0 0.0011454963252955637 -0.025556916100359522 0 0.00052935392419667252 -0.025529658546358636 0 0.0010386194858450989 -0.025937328446451566 0 -0.00080659036880169409 -0.025530241785034664 0 -0.0008353014379935571 -0.026120986872258164 0 0.00052935392419667252 -0.025529658546358636 0 0.00060934317861337825 -0.025984814345865206 0 0.0010386194858450989 -0.025937328446451566 0 -0.0008353014379935571 -0.026120986872258164 0 -0.00092775120674261531 -0.026024790146083023 0 0.00052935392419667252 -0.025529658546358636 0 0.00018920133941939887 -0.025892710812389218 0 0.00060934317861337825 -0.025984814345865206 0 0.00052935392419667252 -0.025529658546358636 0 -6.9726832354279566e-05 -0.025522404263888323 0 0.00018920133941939887 -0.025892710812389218 0 -0.0022067575120949196 -0.026577246575698144 0 -0.0020326489517482147 -0.026971460048388591 0 -0.0017863665041630043 -0.026548536163933347 0 -0.0022067575120949196 -0.026577246575698144 0 -0.0023977237420475354 -0.026945104465619672 0 -0.0020326489517482147 -0.026971460048388591 0 -0.0023977237420475354 -0.026945104465619672 0 -0.0023571827637287584 -0.027382291938837008 0 -0.0020326489517482147 -0.026971460048388591 0 -0.0023571827637287584 -0.027382291938837008 0 -0.0020971092229579509 -0.027352878391681289 0 -0.0020326489517482147 -0.026971460048388591 0 -0.0020971092229579509 -0.027352878391681289 0 -0.0020326489517482147 -0.026971460048388591 0 -0.0018519062678338568 -0.027122762586792609 0 -0.0020326489517482147 -0.026971460048388591 0 -0.0017201590760263449 -0.026844531905636779 0 -0.0018519062678338568 -0.027122762586792609 0 -0.0017201590760263449 -0.026844531905636779 0 -0.0018519062678338568 -0.027122762586792609 0 -0.0016427085982315453 -0.026980537673630508 0 -0.0017003973911484569 -0.027219807915718004 0 -0.0018519062678338568 -0.027122762586792609 0 -0.0016427085982315453 -0.026980537673630508 0 -0.0015542224103402879 -0.027052389579955007 0 -0.0016427085982315453 -0.026980537673630508 0 -0.0014896338411934586 -0.026811221522293215 0 -0.0015542224103402879 -0.027052389579955007 0 -0.0017003973911484569 -0.027219807915718004 0 -0.0016427085982315453 -0.026980537673630508 0 -0.0016427085982315453 -0.026980537673630508 0 -0.0014896338411934586 -0.026811221522293215 0 -0.0014863838041542807 -0.026758964852877962 0 -0.0017201590760263449 -0.026844531905636779 0 -0.0016427085982315453 -0.026980537673630508 0 -0.0014863838041542807 -0.026758964852877962 0 -0.0016112471214142913 -0.026676983426821128 0 -0.0014863838041542807 -0.026758964852877962 0 -0.0014721977351720202 -0.026551603190204085 0 -0.0016112471214142913 -0.026676983426821128 0 -0.0017863665041630043 -0.026548536163933347 0 -0.0014721977351720202 -0.026551603190204085 0 -0.0017201590760263449 -0.026844531905636779 0 -0.0016112471214142913 -0.026676983426821128 0 -0.0014863838041542807 -0.026758964852877962 0 -0.0020326489517482147 -0.026971460048388591 0 -0.0017201590760263449 -0.026844531905636779 0 -0.0017863665041630043 -0.026548536163933347 0 -0.0017201590760263449 -0.026844531905636779 0 -0.0016112471214142913 -0.026676983426821128 0 -0.0017863665041630043 -0.026548536163933347 0 -6.9726832354279566e-05 -0.025522404263888323 0 -0.00029173798019606361 -0.025859403442564516 0 0.00018920133941939887 -0.025892710812389218 0 -6.9726832354279566e-05 -0.025522404263888323 0 -0.00029173798019606361 -0.025859403442564516 0 -0.00063179807314261006 -0.025533254598368967 0 -0.00092775120674261531 -0.026024790146083023 0 -0.0010593034253990113 -0.026083276917036668 0 -0.00029173798019606361 -0.025859403442564516 0 -0.00063179807314261006 -0.025533254598368967 0 -0.00062681203158425651 -0.025950057269163294 0 -0.00029173798019606361 -0.025859403442564516 0 -0.00038645029350847538 -0.026159427160495942 0 -0.00062681203158425651 -0.025950057269163294 0 -0.00029173798019606361 -0.025859403442564516 0 -6.4418244081102991e-05 -0.026184157046524475 0 0.00018920133941939887 -0.025892710812389218 0 -0.00029173798019606361 -0.025859403442564516 0 -6.4418244081102991e-05 -0.026184157046524475 0 -0.00038645029350847538 -0.026159427160495942 0 -6.4418244081102991e-05 -0.026184157046524475 0 -0.00038645029350847538 -0.026159427160495942 0 -0.00025933758884672079 -0.026511573744113576 0 0.00010108946642360125 -0.026469751205351878 0 -6.4418244081102991e-05 -0.026184157046524475 0 -0.00025933758884672079 -0.026511573744113576 0 -0.00038645029350847538 -0.026159427160495942 0 -0.00062681203158425651 -0.025950057269163294 0 -0.00065783994957028928 -0.026316414995764582 0 -0.00038645029350847538 -0.026159427160495942 0 -0.00025933758884672079 -0.026511573744113576 0 -0.00065783994957028928 -0.026316414995764582 0 -0.00025933758884672079 -0.026511573744113576 0 -0.00055193104545976787 -0.0267910037431025 0 -0.00065783994957028928 -0.026316414995764582 0 -0.00025933758884672079 -0.026511573744113576 0 -0.00055193104545976787 -0.0267910037431025 0 -0.00022989266358897298 -0.026932060358745992 0 -0.00073844888917197525 -0.027271158293112892 0 -0.00055193104545976787 -0.0267910037431025 0 -0.00043818791641201836 -0.027114096655472934 0 -0.00055193104545976787 -0.0267910037431025 0 -0.00043818791641201836 -0.027114096655472934 0 -0.00022989266358897298 -0.026932060358745992 0 -0.00018775212495516832 -0.027245366648633078 0 -0.00043818791641201836 -0.027114096655472934 0 -0.00022989266358897298 -0.026932060358745992 0 -0.00018775212495516832 -0.027245366648633078 0 8.2389907603264679e-05 -0.027175172087749853 0 -0.00022989266358897298 -0.026932060358745992 0 8.2389907603264679e-05 -0.027175172087749853 0 -0.00022989266358897298 -0.026932060358745992 0 9.1293806738419281e-05 -0.026836414917367813 0 0.00010108946642360125 -0.026469751205351878 0 -0.00025933758884672079 -0.026511573744113576 0 9.1293806738419281e-05 -0.026836414917367813 0 -0.00025933758884672079 -0.026511573744113576 0 -0.00022989266358897298 -0.026932060358745992 0 9.1293806738419281e-05 -0.026836414917367813 0 0.00010108946642360125 -0.026469751205351878 0 9.1293806738419281e-05 -0.026836414917367813 0 0.00037066126336115541 -0.026635723636649497 0 9.1293806738419281e-05 -0.026836414917367813 0 0.00037066126336115541 -0.026635723636649497 0 0.00050902116560006168 -0.026991496869809454 0 8.2389907603264679e-05 -0.027175172087749853 0 9.1293806738419281e-05 -0.026836414917367813 0 0.00050902116560006168 -0.026991496869809454 0 0.00084164166376897605 -0.027342363821893374 0 0.00050902116560006168 -0.026991496869809454 0 0.00098144065155345256 -0.026876669313380813 0 0.00037066126336115541 -0.026635723636649497 0 0.00050902116560006168 -0.026991496869809454 0 0.00071920150565549191 -0.026592735557751518 0 0.00050902116560006168 -0.026991496869809454 0 0.00071920150565549191 -0.026592735557751518 0 0.00098144065155345256 -0.026876669313380813 0 0.00037066126336115541 -0.026635723636649497 0 0.00071920150565549191 -0.026592735557751518 0 0.00039047752055073611 -0.026258519326150524 0 0.00071920150565549191 -0.026592735557751518 0 0.00039047752055073611 -0.026258519326150524 0 0.00090667404909898779 -0.026307422842382147 0 0.00010108946642360125 -0.026469751205351878 0 -6.4418244081102991e-05 -0.026184157046524475 0 0.00039047752055073611 -0.026258519326150524 0 0.00010108946642360125 -0.026469751205351878 0 0.00037066126336115541 -0.026635723636649497 0 0.00039047752055073611 -0.026258519326150524 0 -6.4418244081102991e-05 -0.026184157046524475 0 0.00039047752055073611 -0.026258519326150524 0 0.00018920133941939887 -0.025892710812389218 0 0.00039047752055073611 -0.026258519326150524 0 0.00018920133941939887 -0.025892710812389218 0 0.00060934317861337825 -0.025984814345865206 0 0.00039047752055073611 -0.026258519326150524 0 0.00060934317861337825 -0.025984814345865206 0 0.00090667404909898779 -0.026307422842382147 0 0.0010386194858450989 -0.025937328446451566 0 0.0013780322757049686 -0.026311700466655718 0 0.00090667404909898779 -0.026307422842382147 0 0.00060934317861337825 -0.025984814345865206 0 0.0010386194858450989 -0.025937328446451566 0 0.00090667404909898779 -0.026307422842382147 0 0.0010386194858450989 -0.025937328446451566 0 0.0013780322757049686 -0.026311700466655718 0 0.0016114795839263214 -0.025923004178573461 0 0.0013780322757049686 -0.026311700466655718 0 0.0014225989417832796 -0.026587911857799445 0 0.0016534581526743673 -0.026600313394260357 0 0.0013780322757049686 -0.026311700466655718 0 0.0014225989417832796 -0.026587911857799445 0 0.0011762421979204837 -0.026606838831762545 0 0.00071920150565549191 -0.026592735557751518 0 0.00090667404909898779 -0.026307422842382147 0 0.0011762421979204837 -0.026606838831762545 0 0.0013780322757049686 -0.026311700466655718 0 0.00090667404909898779 -0.026307422842382147 0 0.0011762421979204837 -0.026606838831762545 0 0.00071920150565549191 -0.026592735557751518 0 0.0011762421979204837 -0.026606838831762545 0 0.00098144065155345256 -0.026876669313380813 0 0.0011762421979204837 -0.026606838831762545 0 0.00098144065155345256 -0.026876669313380813 0 0.0013117156309807999 -0.026837043182338188 0 0.00098144065155345256 -0.026876669313380813 0 0.0012736864778652042 -0.027212158886379553 0 0.0013117156309807999 -0.026837043182338188 0 0.00084164166376897605 -0.027342363821893374 0 0.00098144065155345256 -0.026876669313380813 0 0.0012736864778652042 -0.027212158886379553 0 0.0012736864778652042 -0.027212158886379553 0 0.001496164227862577 -0.027041936480170004 0 0.0013117156309807999 -0.026837043182338188 0 0.0015780376315642692 -0.027261092502630559 0 0.0012736864778652042 -0.027212158886379553 0 0.001496164227862577 -0.027041936480170004 0 0.001496164227862577 -0.027041936480170004 0 0.0013117156309807999 -0.026837043182338188 0 0.001541283044685328 -0.026792059758225135 0 0.001496164227862577 -0.027041936480170004 0 0.001541283044685328 -0.026792059758225135 0 0.001664581899878731 -0.026964929357825001 0 0.0014225989417832796 -0.026587911857799445 0 0.0011762421979204837 -0.026606838831762545 0 0.0013117156309807999 -0.026837043182338188 0 0.0014225989417832796 -0.026587911857799445 0 0.0013117156309807999 -0.026837043182338188 0 0.001541283044685328 -0.026792059758225135 0 0.0014225989417832796 -0.026587911857799445 0 0.001541283044685328 -0.026792059758225135 0 0.0016534581526743673 -0.026600313394260357 0 0.0018285530153850944 -0.026753848618731573 0 0.0017129089756762271 -0.026826202668241556 0 0.0016534581526743673 -0.026600313394260357 0 0.001541283044685328 -0.026792059758225135 0 0.0017129089756762271 -0.026826202668241556 0 0.0016534581526743673 -0.026600313394260357 0 0.0018285530153850944 -0.026753848618731573 0 0.0018437390052024097 -0.026957002787720032 0 0.0017129089756762271 -0.026826202668241556 0 0.0018285530153850944 -0.026753848618731573 0 0.001920080014953196 -0.026804035620580698 0 0.0018437390052024097 -0.026957002787720032 0 0.0018437390052024097 -0.026957002787720032 0 0.0017129089756762271 -0.026826202668241556 0 0.001664581899878731 -0.026964929357825001 0 0.001541283044685328 -0.026792059758225135 0 0.0017129089756762271 -0.026826202668241556 0 0.001664581899878731 -0.026964929357825001 0 0.0018437390052024097 -0.026957002787720032 0 0.001664581899878731 -0.026964929357825001 0 0.0017272086843727384 -0.027161126514384057 0 0.001496164227862577 -0.027041936480170004 0 0.001664581899878731 -0.026964929357825001 0 0.0017272086843727384 -0.027161126514384057 0 0.0018437390052024097 -0.026957002787720032 0 0.0019028070082335433 -0.02714049354191787 0 0.0017272086843727384 -0.027161126514384057 0 0.0018111013888525375 -0.027353165061583817 0 0.0019028070082335433 -0.02714049354191787 0 0.0020365737780704855 -0.027293933706711015 0 0.0018111013888525375 -0.027353165061583817 0 0.0019028070082335433 -0.02714049354191787 0 0.0017272086843727384 -0.027161126514384057 0 0.0018111013888525375 -0.027353165061583817 0 0.0015780376315642692 -0.027261092502630559 0 0.0017272086843727384 -0.027161126514384057 0 0.0015780376315642692 -0.027261092502630559 0 0.001496164227862577 -0.027041936480170004 0 0.0017272086843727384 -0.027161126514384057 0 0.00083100060690960637 -0.032542941093934755 0 0.001182569708701808 -0.031361064390169897 0 0.002264339193551785 -0.027577286444537281 0 0.0020365737780704855 -0.027293933706711015 0 0.0020567154998023026 -0.026959894837762861 0 0.0026454806788986079 -0.02964800211422745 0 0.0022891966886070649 -0.027796276687738139 0 0.0022341826175590741 -0.028164538273730541 0 0.0015409624500623573 -0.029971818274178445 0 0.0022254060193765725 -0.027303273073088458 0 3.5583817510497179e-06 -0.034994133441016227 0 1.8843072866762557e-08 -0.034999924464818019 0 9.9653063271348619e-07 -0.034988786843633268 0 0.0019028070082335433 -0.02714049354191787 0 0.0020365737780704855 -0.027293933706711015 0 0.0020567154998023026 -0.026959894837762861 0 0.0018437390052024097 -0.026957002787720032 0 0.0019028070082335433 -0.02714049354191787 0 0.0020567154998023026 -0.026959894837762861 0 0.0022254060193765725 -0.027303273073088458 0 0.0019422061835764905 -0.026733734126350418 0 0.0022891966886070649 -0.027796276687738139 0 0.0022341826175590741 -0.028164538273730541 0 0.0019412284588465997 -0.026571735412554406 0 0.001920080014953196 -0.026804035620580698 0 0.0020567154998023026 -0.026959894837762861 0 0.0019412284588465997 -0.026571735412554406 0 1.8843072866762557e-08 -0.034999924464818019 0 -1.421362376894978e-09 -0.034999979173316022 0 9.9653063271348619e-07 -0.034988786843633268 0 0.001920080014953196 -0.026804035620580698 0 0.0018437390052024097 -0.026957002787720032 0 0.0020567154998023026 -0.026959894837762861 0 -1.421362376894978e-09 -0.034999979173316022 0 9.9653063271348619e-07 -0.034988786843633268 0 -2.7442224101609872e-06 -0.034977238520666212 0 0.0022891966886070649 -0.027796276687738139 0 0.0019412284588465997 -0.026571735412554406 0 0.0019553140331492486 -0.026141009135347545 0 -1.421362376894978e-09 -0.034999979173316022 0 -1.889531782041803e-09 -0.034999961707784272 0 -2.7442224101609872e-06 -0.034977238520666212 0 0.001182569708701808 -0.031361064390169897 0 0.0011627553615758059 -0.030506741664834761 0 0.0018285530153850944 -0.026753848618731573 0 0.001920080014953196 -0.026804035620580698 0 0.0019412284588465997 -0.026571735412554406 0 0.0018285530153850944 -0.026753848618731573 0 0.0019412284588465997 -0.026571735412554406 0 0.0016534581526743673 -0.026600313394260357 0 0.0013780322757049686 -0.026311700466655718 0 0.0016534581526743673 -0.026600313394260357 0 0.0016830296413808587 -0.026301869692718426 0 0.0019412284588465997 -0.026571735412554406 0 0.0016830296413808587 -0.026301869692718426 0 0.0019553140331492486 -0.026141009135347545 0 0.0019412284588465997 -0.026571735412554406 0 0.0016534581526743673 -0.026600313394260357 0 0.0016830296413808587 -0.026301869692718426 0 0.0017330447447895813 -0.025605044234525549 0 0.0016114795839263214 -0.025923004178573461 0 0.0019553140331492486 -0.026141009135347545 0 0.0016830296413808587 -0.026301869692718426 0 0.0016114795839263214 -0.025923004178573461 0 0.0019553140331492486 -0.026141009135347545 0 0.0013780322757049686 -0.026311700466655718 0 0.0016830296413808587 -0.026301869692718426 0 0.0016114795839263214 -0.025923004178573461 0 -3.2118425991042345e-06 -0.034982394699791516 0 -1.889531782041803e-09 -0.034999961707784272 0 -2.7442224101609872e-06 -0.034977238520666212 0 -0.0055403556556994984 -0.027700966325759215 0 -0.0039130332234494566 -0.02877820768716477 0 -0.0046386278828930887 -0.027291855503361995 0 -0.0041420017561914603 -0.024937928832625775 0 -0.0023922437454722526 -0.02261842241514361 0 -0.0024627755733316755 -0.021375007937248638 0 -0.0031688536914565818 -0.020897301652210164 0 -0.0023830232299888367 -0.020853464235252795 0 -0.0037229948887523064 -0.027816693583909511 0 -0.0039130332234494566 -0.02877820768716477 0 -0.0046386278828930887 -0.027291855503361995 0 -0.0037229948887523064 -0.027816693583909511 0 -0.0035062435913103449 -0.028770232201538876 0 -0.0039130332234494566 -0.02877820768716477 0 -0.0007873099492839991 -0.017561688606356266 0 -0.00082491826971589697 -0.017539241608535497 0 -0.00069598509901451239 -0.017461167162117711 0 -0.00082491826971589697 -0.017539241608535497 0 -0.00069598509901451239 -0.017461167162117711 0 -0.00069180668018248867 -0.01735552501053915 0 -0.0029220854646184284 -0.024807714107518215 0 -0.0023922437454722526 -0.02261842241514361 0 -0.0023922437454722526 -0.02261842241514361 0 -0.0020692450212057402 -0.021566131154250386 0 -0.0013616676079810299 -0.023198209238057682 0 -0.0027816247757032537 -0.023211755286568984 0 -0.001782028734754116 -0.023890620054538573 0 -0.0029220854646184284 -0.024807714107518215 0 -0.0020692450212057402 -0.021566131154250386 0 -0.00060226774964553561 -0.017497971524946761 0 -0.00069598509901451239 -0.017461167162117711 0 -0.00060280151353587455 -0.017364312059799093 0 -0.0007873099492839991 -0.017561688606356266 0 -0.00060226774964553561 -0.017497971524946761 0 -0.00069598509901451239 -0.017461167162117711 0 -0.0023922437454722526 -0.02261842241514361 0 -0.0014179127569223004 -0.018841445410022899 0 -0.00060226774964553561 -0.017497971524946761 0 -0.00046232787409099008 -0.017431259757344383 0 -0.00051538930300097576 -0.017361554298108255 0 -0.0014179127569223004 -0.018841445410022899 0 -0.00093614102141625379 -0.019224796093547811 0 -0.0023830232299888367 -0.020853464235252795 0 -0.001538314717508596 -0.020795110855684241 0 -0.0018605095130546532 -0.021253138473452917 0 -0.00046232787409099008 -0.017431259757344383 0 -0.00051538930300097576 -0.017361554298108255 0 -0.00039325883801635407 -0.01732972042695979 0 -0.001538314717508596 -0.020795110855684241 0 -0.0018605095130546532 -0.021253138473452917 0 -0.0011765479906709112 -0.021351573844712413 0 -0.0018605095130546532 -0.021253138473452917 0 -0.0017468605077009386 -0.021949865822115784 0 -0.0011765479906709112 -0.021351573844712413 0 -0.0024627755733316755 -0.021375007937248638 0 -0.0018605095130546532 -0.021253138473452917 0 -0.0017468605077009386 -0.021949865822115784 0 -0.0024627755733316755 -0.021375007937248638 0 -0.0023830232299888367 -0.020853464235252795 0 -0.0018605095130546532 -0.021253138473452917 0 -0.0041420017561914603 -0.024937928832625775 0 -0.0036877150758946246 -0.022917521919078577 0 -0.0055403556556994984 -0.027700966325759215 0 -0.0059714647483213043 -0.026760640632836109 0 -0.0070546585728707562 -0.026494824409046411 0 -0.0059714647483213043 -0.026760640632836109 0 -0.0070546585728707562 -0.026494824409046411 0 -0.0061612964837952609 -0.026193291916337333 0 -0.0059714647483213043 -0.026760640632836109 0 -0.0061612964837952609 -0.026193291916337333 0 -0.0052561564571542039 -0.026298224718298662 0 -0.0025019919371663782 -0.019630193236752552 0 -0.0024142145260265509 -0.019651156292569263 0 -0.0023784042624045397 -0.019591695406183017 0 -0.0025019919371663782 -0.019630193236752552 0 -0.002408220293293625 -0.019514401272708641 0 -0.0023784042624045397 -0.019591695406183017 0 -0.0036877150758946246 -0.022917521919078577 0 -0.0016345782453589478 -0.020304797096544421 0 -0.0036877150758946246 -0.022917521919078577 0 -0.0026749392305121964 -0.019838591194681451 0 -0.0024417344049900988 -0.01967577083412422 0 -0.0024341146090451227 -0.019667973983584403 0 -0.0024142145260265509 -0.019651156292569263 0 -0.0024341146090451227 -0.019667973983584403 0 -0.0024135486411159764 -0.019672094434989382 0 -0.0024142145260265509 -0.019651156292569263 0 -0.0024417344049900988 -0.01967577083412422 0 -0.0024341146090451227 -0.019667973983584403 0 -0.0024430297330386894 -0.019673274742686493 0 -0.0024341146090451227 -0.019667973983584403 0 -0.0024358553022086719 -0.019675046424200874 0 -0.0024135486411159764 -0.019672094434989382 0 -0.0024341146090451227 -0.019667973983584403 0 -0.0024358553022086719 -0.019675046424200874 0 -0.0024430297330386894 -0.019673274742686493 0 -0.0039288688687455194 -0.021949493506516284 0 -0.0036877150758946246 -0.022917521919078577 0 -0.0036877150758946246 -0.022917521919078577 0 -0.0062226884907973937 -0.025554031334227078 0 -0.0024546695098270513 -0.019673432455267481 0 -0.0024417344049900988 -0.01967577083412422 0 -0.0024430297330386894 -0.019673274742686493 0 -0.0052886179408944802 -0.024395041994029247 0 -0.0057636980114931262 -0.025220919961660981 0 -0.0053316070563933548 -0.024606806824103187 0 -0.0070546585728707562 -0.026494824409046411 0 -0.0061612964837952609 -0.026193291916337333 0 -0.0059216783669473515 -0.025260707179592539 0 -0.0061612964837952609 -0.026193291916337333 0 -0.0059216783669473515 -0.025260707179592539 0 -0.0056590649130427986 -0.025848342041056859 0 -0.0024546695098270513 -0.019673432455267481 0 -0.0024430297330386894 -0.019673274742686493 0 -0.0024447843983137919 -0.019675249579998534 0 -0.0024358553022086719 -0.019675046424200874 0 -0.0024430297330386894 -0.019673274742686493 0 -0.0024447843983137919 -0.019675249579998534 0 -0.0059216783669473515 -0.025260707179592539 0 -0.0052926513425964267 -0.025643041578977951 0 -0.0056590649130427986 -0.025848342041056859 0 -0.0059216783669473515 -0.025260707179592539 0 -0.0052926513425964267 -0.025643041578977951 0 -0.0048316532372596867 -0.025067361549667079 0 -0.0052926513425964267 -0.025643041578977951 0 -0.0048316532372596867 -0.025067361549667079 0 -0.0046548879102292148 -0.02578629248233447 0 -0.0046548879102292148 -0.02578629248233447 0 -0.0052561564571542039 -0.026298224718298662 0 -0.0043768846058828111 -0.026457705195859969 0 -0.0052926513425964267 -0.025643041578977951 0 -0.0046548879102292148 -0.02578629248233447 0 -0.0052561564571542039 -0.026298224718298662 0 -0.0052926513425964267 -0.025643041578977951 0 -0.0056590649130427986 -0.025848342041056859 0 -0.0052561564571542039 -0.026298224718298662 0 -0.0061612964837952609 -0.026193291916337333 0 -0.0056590649130427986 -0.025848342041056859 0 -0.0052561564571542039 -0.026298224718298662 0 -0.0059714647483213043 -0.026760640632836109 0 -0.0052561564571542039 -0.026298224718298662 0 -0.0046386278828930887 -0.027291855503361995 0 -0.0055403556556994984 -0.027700966325759215 0 -0.0059714647483213043 -0.026760640632836109 0 -0.0046386278828930887 -0.027291855503361995 0 -0.0052561564571542039 -0.026298224718298662 0 -0.0046386278828930887 -0.027291855503361995 0 -0.0043768846058828111 -0.026457705195859969 0 -0.0037229948887523064 -0.027816693583909511 0 -0.0039408373442475549 -0.027034803276199022 0 -0.0032923860164233592 -0.027154670252713176 0 -0.0039408373442475549 -0.027034803276199022 0 -0.0036048766071790556 -0.026477653325576386 0 -0.0032923860164233592 -0.027154670252713176 0 -0.0037229948887523064 -0.027816693583909511 0 -0.0046386278828930887 -0.027291855503361995 0 -0.0039408373442475549 -0.027034803276199022 0 -0.0046386278828930887 -0.027291855503361995 0 -0.0039408373442475549 -0.027034803276199022 0 -0.0043768846058828111 -0.026457705195859969 0 -0.0039408373442475549 -0.027034803276199022 0 -0.0043768846058828111 -0.026457705195859969 0 -0.0036048766071790556 -0.026477653325576386 0 -0.0043768846058828111 -0.026457705195859969 0 -0.0036048766071790556 -0.026477653325576386 0 -0.0039652110804431475 -0.025903308300313403 0 -0.0036048766071790556 -0.026477653325576386 0 -0.0039652110804431475 -0.025903308300313403 0 -0.0032745931029346644 -0.025916762690419034 0 -0.0039652110804431475 -0.025903308300313403 0 -0.0036681215990006567 -0.0254598947377466 0 -0.0032745931029346644 -0.025916762690419034 0 -0.0046548879102292148 -0.02578629248233447 0 -0.0043768846058828111 -0.026457705195859969 0 -0.0039652110804431475 -0.025903308300313403 0 -0.0048316532372596867 -0.025067361549667079 0 -0.0046548879102292148 -0.02578629248233447 0 -0.0041920577456602236 -0.025272483381169841 0 -0.0046548879102292148 -0.02578629248233447 0 -0.0039652110804431475 -0.025903308300313403 0 -0.0041920577456602236 -0.025272483381169841 0 -0.0036662851597401023 -0.024806261481962799 0 -0.0036681215990006567 -0.0254598947377466 0 -0.0031356039605603711 -0.025225558531071758 0 -0.0036662851597401023 -0.024806261481962799 0 -0.0041920577456602236 -0.025272483381169841 0 -0.0036681215990006567 -0.0254598947377466 0 -0.0039652110804431475 -0.025903308300313403 0 -0.0041920577456602236 -0.025272483381169841 0 -0.0036681215990006567 -0.0254598947377466 0 -0.0031356039605603711 -0.025225558531071758 0 -0.0032745931029346644 -0.025916762690419034 0 -0.002646165267869907 -0.025639524853807532 0 -0.0036681215990006567 -0.0254598947377466 0 -0.0031356039605603711 -0.025225558531071758 0 -0.0032745931029346644 -0.025916762690419034 0 -0.0032745931029346644 -0.025916762690419034 0 -0.0025180628464795208 -0.026123901502221984 0 -0.0028756397099577919 -0.026617220673135624 0 -0.0025180628464795208 -0.026123901502221984 0 -0.002646165267869907 -0.025639524853807532 0 -0.0019850778228044856 -0.025789964053494974 0 -0.0032745931029346644 -0.025916762690419034 0 -0.0025180628464795208 -0.026123901502221984 0 -0.002646165267869907 -0.025639524853807532 0 -0.0024689953405604486 -0.025159441552957466 0 -0.0031356039605603711 -0.025225558531071758 0 -0.002646165267869907 -0.025639524853807532 0 -0.0024689953405604486 -0.025159441552957466 0 -0.002646165267869907 -0.025639524853807532 0 -0.0019850778228044856 -0.025789964053494974 0 -0.0012646568946308692 -0.026169176269008745 0 -0.0018589915796140585 -0.026404317471700897 0 -0.0015957996074393264 -0.026555344949493413 0 -0.0017369115663847892 -0.024699231067131937 0 -0.0019850778228044856 -0.025789964053494974 0 -0.0012646568946308692 -0.026169176269008745 0 -0.0019850778228044856 -0.025789964053494974 0 -0.0012646568946308692 -0.026169176269008745 0 -0.0018589915796140585 -0.026404317471700897 0 -0.0025180628464795208 -0.026123901502221984 0 -0.0019850778228044856 -0.025789964053494974 0 -0.0018589915796140585 -0.026404317471700897 0 -0.0018589915796140585 -0.026404317471700897 0 -0.0015957996074393264 -0.026555344949493413 0 -0.0017882052344019559 -0.026577974097726512 0 -0.0015957996074393264 -0.026555344949493413 0 -0.0017882052344019559 -0.026577974097726512 0 -0.0015370224871817581 -0.026669927744211678 0 -0.0018589915796140585 -0.026404317471700897 0 -0.0028756397099577919 -0.026617220673135624 0 -0.0027445507658612005 -0.027584802347679547 0 -0.0018021310861232398 -0.026293862868732257 0 -0.0024761775131304457 -0.027557302431509816 0 -0.0018589915796140585 -0.026404317471700897 0 -0.0017882052344019559 -0.026577974097726512 0 -0.0018574737585709386 -0.0266591161499065 0 -0.0032923860164233592 -0.027154670252713176 0 -0.0028756397099577919 -0.026617220673135624 0 -0.0027445507658612005 -0.027584802347679547 0 -0.0036048766071790556 -0.026477653325576386 0 -0.0032745931029346644 -0.025916762690419034 0 -0.0028756397099577919 -0.026617220673135624 0 -0.0036048766071790556 -0.026477653325576386 0 -0.0032923860164233592 -0.027154670252713176 0 -0.0028756397099577919 -0.026617220673135624 0 -0.0025180628464795208 -0.026123901502221984 0 -0.0018589915796140585 -0.026404317471700897 0 -0.0028756397099577919 -0.026617220673135624 0 -0.0015542224103402879 -0.027052389579955007 0 -0.0014896338411934586 -0.026811221522293215 0 -0.0013934202974237955 -0.02682121486489367 0 -0.0014896338411934586 -0.026811221522293215 0 -0.0013934202974237955 -0.02682121486489367 0 -0.0013407239716920125 -0.026568918403350315 0 -0.0014896338411934586 -0.026811221522293215 0 -0.0013407239716920125 -0.026568918403350315 0 -0.0013549648976057828 -0.026603915193844023 0 -0.0012646568946308692 -0.026169176269008745 0 -0.0013934202974237955 -0.02682121486489367 0 -0.0013407239716920125 -0.026568918403350315 0 -0.0012646568946308692 -0.026169176269008745 0 -0.0013407239716920125 -0.026568918403350315 0 -0.0013906583027702652 -0.026563545392353144 0 -0.0012646568946308692 -0.026169176269008745 0 -0.0015957996074393264 -0.026555344949493413 0 -0.0013906583027702652 -0.026563545392353144 0 -0.0013906583027702652 -0.026563545392353144 0 -0.0013946942141317424 -0.026663741513024572 0 -0.0015370224871817581 -0.026669927744211678 0 -0.0015957996074393264 -0.026555344949493413 0 -0.0013906583027702652 -0.026563545392353144 0 -0.0015370224871817581 -0.026669927744211678 0 -0.0013906583027702652 -0.026563545392353144 0 -0.0013549648976057828 -0.026603915193844023 0 -0.0013946942141317424 -0.026663741513024572 0 -0.0013407239716920125 -0.026568918403350315 0 -0.0013906583027702652 -0.026563545392353144 0 -0.0013549648976057828 -0.026603915193844023 0 -0.0014896338411934586 -0.026811221522293215 0 -0.0013549648976057828 -0.026603915193844023 0 -0.0013608779846219408 -0.026612100716339328 0 -0.0014696658458084855 -0.026765004241572212 0 -0.001442281778722667 -0.026810748271472732 0 -0.0013549648976057828 -0.026603915193844023 0 -0.0013608779846219408 -0.026612100716339328 0 -0.0013946942141317424 -0.026663741513024572 0 -0.0013608779846219408 -0.026612100716339328 0 -0.0013946942141317424 -0.026663741513024572 0 -0.0013039286273170971 -0.02675821336481107 0 -0.001442281778722667 -0.026810748271472732 0 -0.0010593034253990113 -0.026083276917036668 0 -0.0013946942141317424 -0.026663741513024572 0 -0.0015050876067730112 -0.026829579791913537 0 -0.0013039286273170971 -0.02675821336481107 0 -0.0013946942141317424 -0.026663741513024572 0 -0.0015050876067730112 -0.026829579791913537 0 -0.0015370224871817581 -0.026669927744211678 0 -0.0010388088284560969 -0.025551124409317776 0 -0.00087568305108952935 -0.025774342132074766 0 -0.0010224738517050495 -0.025678802597138128 0 -0.0010388088284560969 -0.025551124409317776 0 -0.0010808100815776292 -0.025654054040100925 0 -0.0010224738517050495 -0.025678802597138128 0 -0.0010593034253990113 -0.026083276917036668 0 -0.00064231547873635922 -0.025786664590398391 0 -0.0010388088284560969 -0.025551124409317776 0 -0.00073305917066413613 -0.025530443945755758 0 -0.00087568305108952935 -0.025774342132074766 0 -0.0011916085799274197 -0.026241223475393777 0 -0.0010593034253990113 -0.026083276917036668 0 -0.0019604162772993128 -0.026801233467085475 0 -0.0018574737585709386 -0.0266591161499065 0 -0.0018637024490695863 -0.026806863832822121 0 -0.0018468852819921713 -0.027001687009698103 0 -0.0018625489067374717 -0.02579444818319597 0 -0.0017882052344019559 -0.026577974097726512 0 -0.0018574737585709386 -0.0266591161499065 0 -0.0018637024490695863 -0.026806863832822121 0 -0.0037229948887523064 -0.027816693583909511 0 -0.0035062435913103449 -0.028770232201538876 0 -0.0027445507658612005 -0.027584802347679547 0 -0.0029220854646184284 -0.024807714107518215 0 -0.0024761775131304457 -0.027557302431509816 0 -0.0037229948887523064 -0.027816693583909511 0 -0.0032923860164233592 -0.027154670252713176 0 -0.0027445507658612005 -0.027584802347679547 0 -0.0017882052344019559 -0.026577974097726512 0 -0.0016747821155056329 -0.026762192585555778 0 -0.0018242289692471697 -0.026870365060026411 0 -0.0017882052344019559 -0.026577974097726512 0 -0.0015370224871817581 -0.026669927744211678 0 -0.0016747821155056329 -0.026762192585555778 0 -0.0015050876067730112 -0.026829579791913537 0 -0.0015370224871817581 -0.026669927744211678 0 -0.0016747821155056329 -0.026762192585555778 0 -0.0015050876067730112 -0.026829579791913537 0 -0.0016747821155056329 -0.026762192585555778 0 -0.0018242289692471697 -0.026870365060026411 0 -0.0011916085799274197 -0.026241223475393777 0 -0.0018625489067374717 -0.02579444818319597 0 -0.0010388088284560969 -0.025551124409317776 0 -0.0011317477078681573 -0.02560633431959343 0 -0.0010808100815776292 -0.025654054040100925 0 -0.0010388088284560969 -0.025551124409317776 0 -0.0011317477078681573 -0.02560633431959343 0 -0.0011879508569456467 -0.025566477544459475 0 -0.0011317477078681573 -0.02560633431959343 0 -0.001131114519160298 -0.025653150808605616 0 -0.0010808100815776292 -0.025654054040100925 0 -0.0011317477078681573 -0.02560633431959343 0 -0.0012021263919027973 -0.025609735224154127 0 -0.001131114519160298 -0.025653150808605616 0 -0.0011317477078681573 -0.02560633431959343 0 -0.0011879508569456467 -0.025566477544459475 0 -0.0012021263919027973 -0.025609735224154127 0 -0.0029220854646184284 -0.024807714107518215 0 -0.0018625489067374717 -0.02579444818319597 0 -0.0020828860493417585 -0.023777408198959311 0 -0.0022950472812590496 -0.023894793498368337 0 -0.0022046859297859172 -0.02411777519255846 0 -0.0024860054720067699 -0.023774754246565267 0 -0.0020828860493417585 -0.023777408198959311 0 -0.0022950472812590496 -0.023894793498368337 0 -0.0024860054720067699 -0.023774754246565267 0 -0.0025519995596203766 -0.023881659231424775 0 -0.0022950472812590496 -0.023894793498368337 0 -0.0025519995596203766 -0.023881659231424775 0 -0.0022950472812590496 -0.023894793498368337 0 -0.0022046859297859172 -0.02411777519255846 0 -0.0021587387038063187 -0.020470108146291164 0 -0.0028366161843527554 -0.020017296397522491 0 -0.0021461963052604718 -0.019500215584835674 0 -0.0020692450212057402 -0.021566131154250386 0 -0.0018485983003478678 -0.023467767311130126 0 -0.0018625489067374717 -0.02579444818319597 0 -0.0018485983003478678 -0.023467767311130126 0 -0.001143155114306192 -0.025633210009232143 0 -0.0011349430451905503 -0.025660071364062651 0 -0.0011281206979765035 -0.025647642028301415 0 -0.0018485983003478678 -0.023467767311130126 0 -0.0016505108227682903 -0.021800466330026063 0 -0.0028366161843527554 -0.020017296397522491 0 -0.0021461963052604718 -0.019500215584835674 0 -0.0023509110762366839 -0.018670492819598428 0 -0.001143155114306192 -0.025633210009232143 0 -0.0011349430451905503 -0.025660071364062651 0 -0.001131114519160298 -0.025653150808605616 0 -0.0018485983003478678 -0.023467767311130126 0 -0.00065086444180757199 -0.025552027263135189 0 -0.0011349430451905503 -0.025660071364062651 0 -0.001131114519160298 -0.025653150808605616 0 -0.0010682796409342205 -0.025728566562572816 0 -0.001131114519160298 -0.025653150808605616 0 -0.0010808100815776292 -0.025654054040100925 0 -0.0010682796409342205 -0.025728566562572816 0 -0.0015099503704493237 -0.026292775547355544 0 -0.0012584740916113863 -0.026046690609249974 0 -0.0012981350591279057 -0.02636502085764399 0 -0.0011349430451905503 -0.025660071364062651 0 -0.0011331617549501074 -0.025664150293091541 0 -0.0010682796409342205 -0.025728566562572816 0 -0.0014652691067490063 -0.026194844757450347 0 -0.001100289089868869 -0.025855525656250333 0 -0.0014652691067490063 -0.026194844757450347 0 -0.00066116900812041143 -0.023460220636880299 0 -0.0011331617549501074 -0.025664150293091541 0 -0.0011068953285117561 -0.025608112209609152 0 -0.0011281206979765035 -0.025647642028301415 0 -0.0015099503704493237 -0.026292775547355544 0 -0.0015042737639989457 -0.026178341558917878 0 -0.00083443219810286297 -0.026357414083550197 0 -0.0011349430451905503 -0.025660071364062651 0 -0.0011331617549501074 -0.025664150293091541 0 -0.0011281206979765035 -0.025647642028301415 0 -0.00073305917066413613 -0.025530443945755758 0 -0.00069227565689143871 -0.025818808273455267 0 -0.00087568305108952935 -0.025774342132074766 0 -0.00069227565689143871 -0.025818808273455267 0 -0.00087568305108952935 -0.025774342132074766 0 -0.00081215516043075674 -0.025995730835273075 0 -0.00087568305108952935 -0.025774342132074766 0 -0.00081215516043075674 -0.025995730835273075 0 -0.0009835870137908521 -0.026142935614434582 0 -0.00087568305108952935 -0.025774342132074766 0 -0.0010224738517050495 -0.025678802597138128 0 -0.0010682796409342205 -0.025728566562572816 0 -0.00087568305108952935 -0.025774342132074766 0 -0.0012584740916113863 -0.026046690609249974 0 -0.0009835870137908521 -0.026142935614434582 0 -0.00090830928072311082 -0.025785006566414533 0 -0.001100289089868869 -0.025855525656250333 0 -0.0010808100815776292 -0.025654054040100925 0 -0.0010224738517050495 -0.025678802597138128 0 -0.0010682796409342205 -0.025728566562572816 0 -0.0012584740916113863 -0.026046690609249974 0 -0.0009835870137908521 -0.026142935614434582 0 -0.0012981350591279057 -0.02636502085764399 0 -0.0009835870137908521 -0.026142935614434582 0 -0.00065783994957028928 -0.026316414995764582 0 -0.00089352864307117551 -0.026554604336380714 0 -0.00064231547873635922 -0.025786664590398391 0 -0.00066056114197974767 -0.026323210012174206 0 -0.00069227565689143871 -0.025818808273455267 0 -0.00081215516043075674 -0.025995730835273075 0 -0.00065783994957028928 -0.026316414995764582 0 -0.00081215516043075674 -0.025995730835273075 0 -0.0009835870137908521 -0.026142935614434582 0 -0.00065783994957028928 -0.026316414995764582 0 -0.00055193104545976787 -0.0267910037431025 0 -0.00065783994957028928 -0.026316414995764582 0 -0.00089352864307117551 -0.026554604336380714 0 -0.00089352864307117551 -0.026554604336380714 0 -0.0011832158002033576 -0.026701295146993095 0 -0.0012981350591279057 -0.02636502085764399 0 -0.0009835870137908521 -0.026142935614434582 0 -0.00089352864307117551 -0.026554604336380714 0 -0.0012981350591279057 -0.02636502085764399 0 -0.0012130745907114116 -0.02684747483367643 0 -0.0011832158002033576 -0.026701295146993095 0 -0.001346352035398603 -0.026618249625561613 0 -0.00073844888917197525 -0.027271158293112892 0 -0.00055193104545976787 -0.0267910037431025 0 -0.00089352864307117551 -0.026554604336380714 0 -0.00073844888917197525 -0.027271158293112892 0 -0.00089352864307117551 -0.026554604336380714 0 -0.0011832158002033576 -0.026701295146993095 0 -0.0009301200103901101 -0.027046311863046898 0 -0.0011747120938542888 -0.026732973040472379 0 -0.0015042737639989457 -0.026178341558917878 0 -0.0010776453306809957 -0.024291162052799454 0 -0.00088274832005736834 -0.025543261463702338 0 -0.0015042737639989457 -0.026178341558917878 0 -0.0012981350591279057 -0.02636502085764399 0 -0.001346352035398603 -0.026618249625561613 0 -0.0015099503704493237 -0.026292775547355544 0 -0.0015042737639989457 -0.026178341558917878 0 -0.0012981350591279057 -0.02636502085764399 0 -0.0011832158002033576 -0.026701295146993095 0 -0.0012981350591279057 -0.02636502085764399 0 -0.001346352035398603 -0.026618249625561613 0 -0.0013487655582870481 -0.026878193428228645 0 -0.001346352035398603 -0.026618249625561613 0 -0.0016704205097852738 -0.026628767963268619 0 -0.0015218267414940773 -0.02610622761900331 0 -0.0013366261636861387 -0.02538284436150854 0 -0.0015042737639989457 -0.026178341558917878 0 -0.001346352035398603 -0.026618249625561613 0 -0.0016704205097852738 -0.026628767963268619 0 0.0002860199030421384 -0.0233740393604309 0 -0.0010776453306809957 -0.024291162052799454 0 -0.00014893227896699664 -0.025113161551214697 0 0.00031069631950775284 -0.023412583592621317 0 -5.9818322478563196e-05 -0.024625100794325866 0 -0.0010776453306809957 -0.024291162052799454 0 -0.00014893227896699664 -0.025113161551214697 0 -0.00088274832005736834 -0.025543261463702338 0 0.0002860199030421384 -0.0233740393604309 0 0.00024054486672029076 -0.023676850080108051 0 0.00047975407268251142 -0.023579915971174713 0 0.0006175198123154151 -0.023351795749690377 0 0.00047975407268251142 -0.023579915971174713 0 0.0007729721610016117 -0.023471069257768182 0 0.0002860199030421384 -0.0233740393604309 0 0.0006175198123154151 -0.023351795749690377 0 0.00047975407268251142 -0.023579915971174713 0 0.00024054486672029076 -0.023676850080108051 0 0.00047975407268251142 -0.023579915971174713 0 0.00036908812822767723 -0.023767102283849935 0 0.00047975407268251142 -0.023579915971174713 0 0.00057718930652211355 -0.023705302236968172 0 0.00036908812822767723 -0.023767102283849935 0 0.00047975407268251142 -0.023579915971174713 0 0.00069911522969285061 -0.02360948550521955 0 0.0007729721610016117 -0.023471069257768182 0 0.00047975407268251142 -0.023579915971174713 0 0.00057718930652211355 -0.023705302236968172 0 0.00069911522969285061 -0.02360948550521955 0 0.00048204066180862888 -0.023891622136936033 0 0.00036908812822767723 -0.023767102283849935 0 9.3553608299639532e-05 -0.024048447212417598 0 -0.00075828456237706388 -0.017097783352492287 0 -0.0011147111166278328 -0.017444337022578797 0 -0.0018656993874551235 -0.017442926249274036 0 -0.00075828456237706388 -0.017097783352492287 0 -0.00060274780062802161 -0.01730467141954976 0 -0.00044142356690982261 -0.017106651955981392 0 0.00057718930652211355 -0.023705302236968172 0 0.00048204066180862888 -0.023891622136936033 0 0.00089142786532209444 -0.023680258014001039 0 0.00057718930652211355 -0.023705302236968172 0 0.00048204066180862888 -0.023891622136936033 0 0.00036908812822767723 -0.023767102283849935 0 -0.00075828456237706388 -0.017097783352492287 0 -0.0011147111166278328 -0.017444337022578797 0 -0.00060274780062802161 -0.01730467141954976 0 -5.9818322478563196e-05 -0.024625100794325866 0 -0.00066116900812041143 -0.023460220636880299 0 0.00024054486672029076 -0.023676850080108051 0 0.00036908812822767723 -0.023767102283849935 0 9.3553608299639532e-05 -0.024048447212417598 0 -0.00014893227896699664 -0.025113161551214697 0 -0.00088274832005736834 -0.025543261463702338 0 -0.00083443219810286297 -0.026357414083550197 0 -4.9557440077571078e-05 -0.020363187398268076 0 -0.00066116900812041143 -0.023460220636880299 0 -0.0015042737639989457 -0.026178341558917878 0 -0.00088274832005736834 -0.025543261463702338 0 -0.00083443219810286297 -0.026357414083550197 0 -0.0018656993874551235 -0.017442926249274036 0 -0.0013205190979721016 -0.01792755563611562 0 -0.0023509110762366839 -0.018670492819598428 0 -0.00066116900812041143 -0.023460220636880299 0 -0.0016505108227682903 -0.021800466330026063 0 -0.0013205190979721016 -0.01792755563611562 0 -0.0023509110762366839 -0.018670492819598428 0 -0.0012468597527629979 -0.018852820286365646 0 -0.0011147111166278328 -0.017444337022578797 0 -0.0018656993874551235 -0.017442926249274036 0 -0.0013205190979721016 -0.01792755563611562 0 -0.00060274780062802161 -0.01730467141954976 0 -0.0013205190979721016 -0.01792755563611562 0 -0.0012468597527629979 -0.018852820286365646 0 -0.00060274780062802161 -0.01730467141954976 0 -0.00069180668018248867 -0.01735552501053915 0 -0.00057984262364741616 -0.017321987079362045 0 -0.00072575857708668482 -0.017581438171727644 0 -0.00076200997463567361 -0.017585552227590937 0 -0.0011147111166278328 -0.017444337022578797 0 -0.00060274780062802161 -0.01730467141954976 0 -0.0013205190979721016 -0.01792755563611562 0 -0.00060280151353587455 -0.017364312059799093 0 -0.00069180668018248867 -0.01735552501053915 0 -0.00057984262364741616 -0.017321987079362045 0 -0.00069598509901451239 -0.017461167162117711 0 -0.00060280151353587455 -0.017364312059799093 0 -0.00069180668018248867 -0.01735552501053915 0 -0.0021587387038063187 -0.020470108146291164 0 -0.0021461963052604718 -0.019500215584835674 0 -0.0012468597527629979 -0.018852820286365646 0 -0.0020692450212057402 -0.021566131154250386 0 -0.00076200997463567361 -0.017585552227590937 0 -0.0021461963052604718 -0.019500215584835674 0 -0.0023509110762366839 -0.018670492819598428 0 -0.0012468597527629979 -0.018852820286365646 0 -0.00044410314735494492 -0.017260650675691529 0 -0.00051538930300097576 -0.017361554298108255 0 -0.00039325883801635407 -0.01732972042695979 0 -0.00044410314735494492 -0.017260650675691529 0 -0.00051538930300097576 -0.017361554298108255 0 -0.00052828599386347153 -0.017307657968271162 0 -0.00060226774964553561 -0.017497971524946761 0 -0.00060280151353587455 -0.017364312059799093 0 -0.00051538930300097576 -0.017361554298108255 0 -0.00060280151353587455 -0.017364312059799093 0 -0.00052828599386347153 -0.017307657968271162 0 -0.00057984262364741616 -0.017321987079362045 0 -0.00060280151353587455 -0.017364312059799093 0 -0.00051538930300097576 -0.017361554298108255 0 -0.00052828599386347153 -0.017307657968271162 0 -0.00057984262364741616 -0.017321987079362045 0 -0.00047713945715369073 -0.01722732636426362 0 -0.0004355344849448169 -0.017087318815337614 0 -0.00052828599386347153 -0.017307657968271162 0 -0.00057984262364741616 -0.017321987079362045 0 -0.00047713945715369073 -0.01722732636426362 0 -0.00044410314735494492 -0.017260650675691529 0 -0.00052828599386347153 -0.017307657968271162 0 -0.00047713945715369073 -0.01722732636426362 0 -0.00044410314735494492 -0.017260650675691529 0 -0.00047713945715369073 -0.01722732636426362 0 -0.00039328347554623701 -0.017171693187926194 0 -0.00047713945715369073 -0.01722732636426362 0 -0.00039328347554623701 -0.017171693187926194 0 -0.0004355344849448169 -0.017087318815337614 0 0.0013940066274321019 -0.01842293238488401 0 0.00057238681166608388 -0.021109322025221554 0 0.00048204066180862888 -0.023891622136936033 0 0.00089142786532209444 -0.023680258014001039 0 0.00096264525037378858 -0.023705641675210321 0 -0.0010993377697060787 -0.017005841403701528 0 0.0013940066274321019 -0.01842293238488401 0 -0.00060274780062802161 -0.01730467141954976 0 -0.00057984262364741616 -0.017321987079362045 0 -0.00044142356690982261 -0.017106651955981392 0 -0.00057984262364741616 -0.017321987079362045 0 -0.00028582682351194975 -0.017166527885906578 0 -0.00044142356690982261 -0.017106651955981392 0 -4.9557440077571078e-05 -0.020363187398268076 0 0.00057238681166608388 -0.021109322025221554 0 0.00082478460403528713 -0.02357087169115624 0 0.0010278353897030968 -0.023438964592170472 0 0.0007729721610016117 -0.023471069257768182 0 0.00057718930652211355 -0.023705302236968172 0 0.00069911522969285061 -0.02360948550521955 0 0.00089142786532209444 -0.023680258014001039 0 0.00069911522969285061 -0.02360948550521955 0 0.00082478460403528713 -0.02357087169115624 0 0.0007729721610016117 -0.023471069257768182 0 0.00069911522969285061 -0.02360948550521955 0 0.00089142786532209444 -0.023680258014001039 0 0.00082478460403528713 -0.02357087169115624 0 0.00080161441278384083 -0.02137024981107 0 0.00057238681166608388 -0.021109322025221554 0 0.00089142786532209444 -0.023680258014001039 0 0.00082478460403528713 -0.02357087169115624 0 0.0010278353897030968 -0.023438964592170472 0 0.00089142786532209444 -0.023680258014001039 0 0.00098705714771046599 -0.023705064054977628 0 0.0010278353897030968 -0.023438964592170472 0 0.0008863367249295033 -0.023243672718528681 0 0.0011822289646044363 -0.023152830105836339 0 0.0010278353897030968 -0.023438964592170472 0 0.0008863367249295033 -0.023243672718528681 0 0.0010278353897030968 -0.023438964592170472 0 0.0007729721610016117 -0.023471069257768182 0 0.0008863367249295033 -0.023243672718528681 0 0.0006175198123154151 -0.023351795749690377 0 0.0007729721610016117 -0.023471069257768182 0 0.0017048964678690534 -0.020989270934561637 0 0.0014060150906761509 -0.020883887598398827 0 0.0018558888677207563 -0.020698638096370226 0 0.0011822289646044363 -0.023152830105836339 0 0.0010278353897030968 -0.023438964592170472 0 0.0016091393062360926 -0.023245596528161085 0 0.00098705714771046599 -0.023705064054977628 0 0.0010278353897030968 -0.023438964592170472 0 0.0016091393062360926 -0.023245596528161085 0 0.00057238681166608388 -0.021109322025221554 0 0.001723136310158601 -0.022085325948665736 0 0.0013940066274321019 -0.01842293238488401 0 0.0036032919973806206 -0.020142666795074524 0 0.0017048964678690534 -0.020989270934561637 0 0.0018558888677207563 -0.020698638096370226 0 0.0019988259439818095 -0.020752614439313068 0 0.002281415104153649 -0.020546224185183874 0 0.0018558888677207563 -0.020698638096370226 0 0.0019988259439818095 -0.020752614439313068 0 0.0023023446310422415 -0.021605332271461272 0 0.001723136310158601 -0.022085325948665736 0 0.0023023446310422415 -0.021605332271461272 0 0.0036032919973806206 -0.020142666795074524 0 0.0033181927811551807 -0.021145483884872508 0 0.0046613964592370216 -0.019854321408138555 0 0.0029719738512807058 -0.019472026222762798 0 0.0033181927811551807 -0.021145483884872508 0 0.0022352779523728155 -0.020397516038618016 0 0.0029719738512807058 -0.019472026222762798 0 0.0022352779523728155 -0.020397516038618016 0 0.0029719738512807058 -0.019472026222762798 0 0.0014423161734585226 -0.019666088667153726 0 0.0029719738512807058 -0.019472026222762798 0 0.0014423161734585226 -0.019666088667153726 0 0.0021000743786183632 -0.01827236512958982 0 0.003774278041546209 -0.017794896897131735 0 0.0021000743786183632 -0.01827236512958982 0 0.0014345164186684144 -0.016911606109197671 0 0.0029719738512807058 -0.019472026222762798 0 0.003774278041546209 -0.017794896897131735 0 0.0021000743786183632 -0.01827236512958982 0 0.0013940066274321019 -0.01842293238488401 0 0.00199743472721338 -0.017429120318778607 0 0.0046613964592370216 -0.019854321408138555 0 0.0029719738512807058 -0.019472026222762798 0 0.003774278041546209 -0.017794896897131735 0 0.0059866243703236644 -0.018654236044859326 0 0.0046613964592370216 -0.019854321408138555 0 0.003774278041546209 -0.017794896897131735 0 -0.00039328347554623701 -0.017171693187926194 0 -0.0004355344849448169 -0.017087318815337614 0 -0.00029677899786919644 -0.017094785952598422 0 0.00023532649384880148 -0.020977658961915686 0 0.00035934500936865294 -0.019057143812772865 0 -0.0011875973418178079 -0.01986620848489298 0 0.00023532649384880148 -0.020977658961915686 0 0.0014423161734585226 -0.019666088667153726 0 0.00035934500936865294 -0.019057143812772865 0 0.0012146662998572784 -0.020990776721734453 0 0.00023532649384880148 -0.020977658961915686 0 0.0014423161734585226 -0.019666088667153726 0 0.0012146662998572784 -0.020990776721734453 0 0.0022352779523728155 -0.020397516038618016 0 0.0014423161734585226 -0.019666088667153726 0 0.0014423161734585226 -0.019666088667153726 0 0.0021000743786183632 -0.01827236512958982 0 0.0010841198038359426 -0.018591413960389675 0 0.0021000743786183632 -0.01827236512958982 0 0.0012470096530994164 -0.017818668547727165 0 0.0014345164186684144 -0.016911606109197671 0 0.0021000743786183632 -0.01827236512958982 0 0.0012470096530994164 -0.017818668547727165 0 0.0010841198038359426 -0.018591413960389675 0 0.0012470096530994164 -0.017818668547727165 0 0.00057221809805707135 -0.01788568733486038 0 0.00086851184429044494 -0.017406853762640614 0 0.0012470096530994164 -0.017818668547727165 0 0.0010841198038359426 -0.018591413960389675 0 0.00057221809805707135 -0.01788568733486038 0 0.0010841198038359426 -0.018591413960389675 0 0.00035934500936865294 -0.019057143812772865 0 0.00057221809805707135 -0.01788568733486038 0 0.0014423161734585226 -0.019666088667153726 0 0.0010841198038359426 -0.018591413960389675 0 0.00035934500936865294 -0.019057143812772865 0 -8.1063276767156481e-05 -0.018071461063240066 0 -0.00065334002342071825 -0.016919416266192866 0 -0.0011875973418178079 -0.01986620848489298 0 0.00035934500936865294 -0.019057143812772865 0 -8.1063276767156481e-05 -0.018071461063240066 0 -0.0011875973418178079 -0.01986620848489298 0 0.00035934500936865294 -0.019057143812772865 0 0.00057221809805707135 -0.01788568733486038 0 -8.1063276767156481e-05 -0.018071461063240066 0 0.00057221809805707135 -0.01788568733486038 0 -8.1063276767156481e-05 -0.018071461063240066 0 0.00024341802927687326 -0.017023091505598633 0 -0.00043199822972579395 -0.016563226945893319 0 0.00024341802927687326 -0.017023091505598633 0 0.0014345164186684144 -0.016911606109197671 0 -0.00030851152647809536 -0.016604524641025145 0 0.0005625027044597491 -0.016948042018028051 0 -0.00043199822972579395 -0.016563226945893319 0 -0.00029054951176302635 -0.016804337456004091 0 -0.00021223280934910124 -0.016980376862980023 0 -0.00043199822972579395 -0.016563226945893319 0 0.00024341802927687326 -0.017023091505598633 0 -0.00065334002342071825 -0.016919416266192866 0 -8.1063276767156481e-05 -0.018071461063240066 0 0.00024341802927687326 -0.017023091505598633 0 -0.00065334002342071825 -0.016919416266192866 0 0.00057221809805707135 -0.01788568733486038 0 0.00024341802927687326 -0.017023091505598633 0 0.00086851184429044494 -0.017406853762640614 0 -0.00029054951176302635 -0.016804337456004091 0 -0.00021223280934910124 -0.016980376862980023 0 -0.0002086330225424103 -0.01716262568193215 0 0.00024341802927687326 -0.017023091505598633 0 0.00086851184429044494 -0.017406853762640614 0 0.0014345164186684144 -0.016911606109197671 0 0.0012470096530994164 -0.017818668547727165 0 0.00086851184429044494 -0.017406853762640614 0 0.0014345164186684144 -0.016911606109197671 0 -0.00029054951176302635 -0.016804337456004091 0 -0.00013705428696053753 -0.016552174998004855 0 -0.00038720383932707044 -0.016513911532281694 0 -0.00036221084793385406 -0.016929976154084786 0 3.7699508087225544e-06 -0.01661971053126873 0 -0.00043199822972579395 -0.016563226945893319 0 -0.00029054951176302635 -0.016804337456004091 0 -0.00038720383932707044 -0.016513911532281694 0 -0.00043199822972579395 -0.016563226945893319 0 -0.00038720383932707044 -0.016513911532281694 0 -0.00050852236770417925 -0.016494610655668922 0 -0.00044410314735494492 -0.017260650675691529 0 -0.00039328347554623701 -0.017171693187926194 0 -0.00033212222961326613 -0.017191982472650941 0 -0.00039328347554623701 -0.017171693187926194 0 -0.00029677899786919644 -0.017094785952598422 0 -0.00033212222961326613 -0.017191982472650941 0 0.00199743472721338 -0.017429120318778607 0 0.0005625027044597491 -0.016948042018028051 0 -0.00029677899786919644 -0.017094785952598422 0 -0.00026635977601486345 -0.017098112952944819 0 -0.00033212222961326613 -0.017191982472650941 0 -0.00029677899786919644 -0.017094785952598422 0 -0.00021223280934910124 -0.016980376862980023 0 -0.00026635977601486345 -0.017098112952944819 0 -0.00021223280934910124 -0.016980376862980023 0 -0.0002086330225424103 -0.01716262568193215 0 -0.00026635977601486345 -0.017098112952944819 0 -0.0002086330225424103 -0.01716262568193215 0 -0.00033212222961326613 -0.017191982472650941 0 -0.00031248075388132511 -0.017357548229208753 0 -0.0002086330225424103 -0.01716262568193215 0 -0.00026635977601486345 -0.017098112952944819 0 -0.00033212222961326613 -0.017191982472650941 0 -0.00033212222961326613 -0.017191982472650941 0 -0.00039325883801635407 -0.01732972042695979 0 -0.00031248075388132511 -0.017357548229208753 0 -0.00044410314735494492 -0.017260650675691529 0 -0.00033212222961326613 -0.017191982472650941 0 -0.00039325883801635407 -0.01732972042695979 0 -0.00046232787409099008 -0.017431259757344383 0 -0.00039325883801635407 -0.01732972042695979 0 -0.00031031599071133147 -0.017371669656770755 0 -0.00093614102141625379 -0.019224796093547811 0 -0.00087774796135244059 -0.018226520658483937 0 -0.00039325883801635407 -0.01732972042695979 0 -0.00031248075388132511 -0.017357548229208753 0 -0.00031031599071133147 -0.017371669656770755 0 -0.001538314717508596 -0.020795110855684241 0 -0.0011765479906709112 -0.021351573844712413 0 -0.00064662036924334465 -0.020748096718350765 0 -0.002408220293293625 -0.019514401272708641 0 -0.0023090343490315308 -0.019399359818659638 0 -0.0023021664600886911 -0.01956800966010537 0 -0.0016345782453589478 -0.020304797096544421 0 -0.00087774796135244059 -0.018226520658483937 0 -0.0012664974695764269 -0.017501599843121871 0 -0.0014737939835821 -0.017308217009883137 0 -0.0013857879487950621 -0.017762187570369879 0 -0.00087774796135244059 -0.018226520658483937 0 -0.0019565498381837573 -0.018666705264865829 0 -0.00087774796135244059 -0.018226520658483937 0 -0.0005945667036517259 -0.016659684400053009 0 -0.00013705428696053753 -0.016552174998004855 0 6.8391960756782453e-07 -0.016415157414732946 0 -0.00028543298333568926 -0.016391246262998392 0 -0.0002086330225424103 -0.01716262568193215 0 -0.00031248075388132511 -0.017357548229208753 0 -0.00030619922148329796 -0.017380714792685693 0 -0.0012664974695764269 -0.017501599843121871 0 -0.0014737939835821 -0.017308217009883137 0 -0.00096192744540612735 -0.017285214487617207 0 -0.00087076291038080521 -0.018108972847393063 0 -0.00087774796135244059 -0.018226520658483937 0 3.7699508087225544e-06 -0.01661971053126873 0 -0.00087774796135244059 -0.018226520658483937 0 -0.00013705428696053753 -0.016552174998004855 0 -0.00038720383932707044 -0.016513911532281694 0 -0.00028543298333568926 -0.016391246262998392 0 -0.0005945667036517259 -0.016659684400053009 0 -0.00046292652275016537 -0.016831884866424642 0 -0.00038720383932707044 -0.016513911532281694 0 -0.00028543298333568926 -0.016391246262998392 0 -0.0005113083226409421 -0.016405390565095272 0 -0.00096192744540612735 -0.017285214487617207 0 -0.00061474520309468092 -0.017580590428788689 0 -0.00045817988008208752 -0.017256161689850898 0 -0.00096192744540612735 -0.017285214487617207 0 -0.00094501129772758417 -0.017741798359677107 0 -0.00061474520309468092 -0.017580590428788689 0 -0.0012664974695764269 -0.017501599843121871 0 -0.00094501129772758417 -0.017741798359677107 0 -0.0013857879487950621 -0.017762187570369879 0 -0.0012664974695764269 -0.017501599843121871 0 -0.00096192744540612735 -0.017285214487617207 0 -0.00094501129772758417 -0.017741798359677107 0 -0.00094501129772758417 -0.017741798359677107 0 -0.0010429704088414757 -0.018041089902165873 0 -0.0013857879487950621 -0.017762187570369879 0 -0.00094501129772758417 -0.017741798359677107 0 -0.00067439822355659586 -0.018159272343858369 0 -0.00061474520309468092 -0.017580590428788689 0 -0.00067439822355659586 -0.018159272343858369 0 -0.0010429704088414757 -0.018041089902165873 0 -0.00097007324093086717 -0.018356800053186219 0 -0.00094501129772758417 -0.017741798359677107 0 -0.00067439822355659586 -0.018159272343858369 0 -0.0010429704088414757 -0.018041089902165873 0 -0.0010429704088414757 -0.018041089902165873 0 -0.0012923241733892258 -0.018216254385016551 0 -0.00097007324093086717 -0.018356800053186219 0 -0.0010429704088414757 -0.018041089902165873 0 -0.0012923241733892258 -0.018216254385016551 0 -0.0013857879487950621 -0.017762187570369879 0 -0.0018072428714570633 -0.018947859707548375 0 -0.0019565498381837573 -0.018666705264865829 0 -0.0023122047288872223 -0.019662942188055296 0 -0.0023661380744355335 -0.01965671023040776 0 -0.0023021664600886911 -0.01956800966010537 0 -0.0023661380744355335 -0.01965671023040776 0 -0.0024142145260265509 -0.019651156292569263 0 -0.0023784042624045397 -0.019591695406183017 0 -0.0024135486411159764 -0.019672094434989382 0 -0.0023661380744355335 -0.01965671023040776 0 -0.0024142145260265509 -0.019651156292569263 0 -0.0024135486411159764 -0.019672094434989382 0 -0.0023661380744355335 -0.01965671023040776 0 -0.0023842798897700393 -0.019690299323043944 0 -0.002408220293293625 -0.019514401272708641 0 -0.0023784042624045397 -0.019591695406183017 0 -0.0023021664600886911 -0.01956800966010537 0 -0.0023661380744355335 -0.01965671023040776 0 -0.0023784042624045397 -0.019591695406183017 0 -0.0023021664600886911 -0.01956800966010537 0 0.00032164773413721916 -0.017682987627447865 0 2.9875932488361671e-05 -0.018157793947977632 0 -0.0002823614531606188 -0.017762888759605831 0 0.00064067301428597911 -0.016681839852129513 0 0.00014397153649972614 -0.017335413987938461 0 0.00087366622197743334 -0.015516201620891831 0 0.00026105270291963201 -0.01654233684026301 0 0.0012905002220140547 -0.016778884677716793 0 2.9875932488361671e-05 -0.018157793947977632 0 -0.0002823614531606188 -0.017762888759605831 0 -0.00033987031847358207 -0.018260114714752682 0 -0.00067439822355659586 -0.018159272343858369 0 -0.0002823614531606188 -0.017762888759605831 0 -0.00033987031847358207 -0.018260114714752682 0 -0.00067439822355659586 -0.018159272343858369 0 -0.0002823614531606188 -0.017762888759605831 0 -0.00061474520309468092 -0.017580590428788689 0 -0.0002823614531606188 -0.017762888759605831 0 -0.00045817988008208752 -0.017256161689850898 0 6.4938272149398768e-05 -0.017222132031710892 0 -0.0002823614531606188 -0.017762888759605831 0 -0.00061474520309468092 -0.017580590428788689 0 -0.00045817988008208752 -0.017256161689850898 0 -0.00046292652275016537 -0.016831884866424642 0 -0.00033513815315117232 -0.016959020125160578 0 -0.0005113083226409421 -0.016405390565095272 0 -0.00051229831025272228 -0.016383704872606264 0 -0.00052243505227570137 -0.016422761551165392 0 0.00032164773413721916 -0.017682987627447865 0 -0.0002823614531606188 -0.017762888759605831 0 6.4938272149398768e-05 -0.017222132031710892 0 0.00064067301428597911 -0.016681839852129513 0 0.00060966341415553071 -0.015484298516772424 0 0.00032164773413721916 -0.017682987627447865 0 6.4938272149398768e-05 -0.017222132031710892 0 0.00061301744265147623 -0.017190527607432112 0 -0.00033513815315117232 -0.016959020125160578 0 0.00060966341415553071 -0.015484298516772424 0 -0.00051229831025272228 -0.016383704872606264 0 -0.00044546437882076736 -0.016223217492749579 0 -0.00037782755731837273 -0.016297406522653192 0 -0.00051229831025272228 -0.016383704872606264 0 -0.00049586237626272618 -0.016359752131432665 0 -0.00052243505227570137 -0.016422761551165392 0 -0.00051229831025272228 -0.016383704872606264 0 -0.00044546437882076736 -0.016223217492749579 0 -0.00049586237626272618 -0.016359752131432665 0 -0.00049586237626272618 -0.016359752131432665 0 -0.00043000833620104639 -0.016287528679254131 0 -0.00052189300686692245 -0.016497803263276826 0 -0.00044546437882076736 -0.016223217492749579 0 -0.00049586237626272618 -0.016359752131432665 0 -0.00043000833620104639 -0.016287528679254131 0 -0.00044546437882076736 -0.016223217492749579 0 -0.00043000833620104639 -0.016287528679254131 0 -0.00038997571679480123 -0.016014917741778024 0 -0.00038720383932707044 -0.016513911532281694 0 -0.0005113083226409421 -0.016405390565095272 0 -0.00050852236770417925 -0.016494610655668922 0 -0.0005113083226409421 -0.016405390565095272 0 -0.00050852236770417925 -0.016494610655668922 0 -0.00052243505227570137 -0.016422761551165392 0 -0.00043199822972579395 -0.016563226945893319 0 -0.00050852236770417925 -0.016494610655668922 0 -0.00055822193822474575 -0.016630830510638749 0 -0.00050852236770417925 -0.016494610655668922 0 -0.00052189300686692245 -0.016497803263276826 0 -0.00055822193822474575 -0.016630830510638749 0 -0.00049586237626272618 -0.016359752131432665 0 -0.00052243505227570137 -0.016422761551165392 0 -0.00052189300686692245 -0.016497803263276826 0 -0.00050852236770417925 -0.016494610655668922 0 -0.00052243505227570137 -0.016422761551165392 0 -0.00052189300686692245 -0.016497803263276826 0 -0.00052189300686692245 -0.016497803263276826 0 -0.00052270405124842719 -0.016658644033985988 0 -0.00045259586382794952 -0.016484439133871688 0 -0.00043000833620104639 -0.016287528679254131 0 -0.00052189300686692245 -0.016497803263276826 0 -0.00045259586382794952 -0.016484439133871688 0 -0.00052189300686692245 -0.016497803263276826 0 -0.00055822193822474575 -0.016630830510638749 0 -0.00052270405124842719 -0.016658644033985988 0 -0.00055822193822474575 -0.016630830510638749 0 -0.00052270405124842719 -0.016658644033985988 0 -0.00065334002342071825 -0.016919416266192866 0 -0.00043199822972579395 -0.016563226945893319 0 -0.00055822193822474575 -0.016630830510638749 0 -0.00065334002342071825 -0.016919416266192866 0 -0.00069557867270881484 -0.016995918833102718 0 -0.00082428869826853561 -0.018182976647472059 0 -0.00052270405124842719 -0.016658644033985988 0 -0.00045259586382794952 -0.016484439133871688 0 -0.00054986639933242041 -0.016400197492278643 0 -0.00052270405124842719 -0.016658644033985988 0 -0.00065334002342071825 -0.016919416266192866 0 -0.00054986639933242041 -0.016400197492278643 0 -0.00045259586382794952 -0.016484439133871688 0 -0.00045204654778466382 -0.016382448529813756 0 -0.00040950284643684456 -0.016352292199933834 0 -0.00040731983177104067 -0.01634001291974738 0 -0.00045204654778466382 -0.016382448529813756 0 -0.00040950284643684456 -0.016352292199933834 0 -0.00045259586382794952 -0.016484439133871688 0 -0.00045204654778466382 -0.016382448529813756 0 -0.00054986639933242041 -0.016400197492278643 0 -0.00043657546407880189 -0.016364935656613986 0 -0.00045204654778466382 -0.016382448529813756 0 -0.00054986639933242041 -0.016400197492278643 0 -0.000414692962714104 -0.016353521390603375 0 -0.00036546651859074213 -0.016246902825020264 0 -0.00037596342025528239 -0.016279931857167522 0 -0.00043000833620104639 -0.016287528679254131 0 -0.00036546651859074213 -0.016246902825020264 0 -0.00038997571679480123 -0.016014917741778024 0 -0.00043000833620104639 -0.016287528679254131 0 -0.00040950284643684456 -0.016352292199933834 0 -0.00036546651859074213 -0.016246902825020264 0 -0.00043000833620104639 -0.016287528679254131 0 -0.00045259586382794952 -0.016484439133871688 0 -0.00040950284643684456 -0.016352292199933834 0 -0.00040731983177104067 -0.01634001291974738 0 -0.00040950284643684456 -0.016352292199933834 0 -0.00036546651859074213 -0.016246902825020264 0 -0.00036546651859074213 -0.016246902825020264 0 -0.00037596342025528239 -0.016279931857167522 0 -0.00038060166035650076 -0.015999964070783367 0 -0.0011919520631620971 -0.016601359920419567 0 -0.00037596342025528239 -0.016279931857167522 0 -0.00073455533789574406 -0.015955296074715315 0 -0.00036546651859074213 -0.016246902825020264 0 -0.00038060166035650076 -0.015999964070783367 0 -0.00038997571679480123 -0.016014917741778024 0 -0.00073455533789574406 -0.015955296074715315 0 -0.00092189584828360227 -0.015533185854479535 0 -0.00033816766318956062 -0.015543448498505578 0 -0.00038060166035650076 -0.015999964070783367 0 -0.00073455533789574406 -0.015955296074715315 0 -0.00033816766318956062 -0.015543448498505578 0 -0.00037596342025528239 -0.016279931857167522 0 -0.00038060166035650076 -0.015999964070783367 0 -0.00073455533789574406 -0.015955296074715315 0 -0.0011919520631620971 -0.016601359920419567 0 -0.00073455533789574406 -0.015955296074715315 0 -0.0014067236692940253 -0.015860664724106403 0 -0.0011919520631620971 -0.016601359920419567 0 -0.0017441893209304686 -0.016294617370065843 0 -0.0014067236692940253 -0.015860664724106403 0 -0.0017441893209304686 -0.016294617370065843 0 -0.0014067236692940253 -0.015860664724106403 0 -0.0022296771873273912 -0.015947208400391041 0 -0.0019588410191157708 -0.015312898930953849 0 -0.0014067236692940253 -0.015860664724106403 0 -0.0022296771873273912 -0.015947208400391041 0 -0.0019588410191157708 -0.015312898930953849 0 -0.0014067236692940253 -0.015860664724106403 0 -0.0013813826210758631 -0.014854355845482824 0 -0.00073455533789574406 -0.015955296074715315 0 -0.0014067236692940253 -0.015860664724106403 0 -0.00092189584828360227 -0.015533185854479535 0 -0.0014067236692940253 -0.015860664724106403 0 -0.00092189584828360227 -0.015533185854479535 0 -0.0013813826210758631 -0.014854355845482824 0 -0.00092189584828360227 -0.015533185854479535 0 -0.0013813826210758631 -0.014854355845482824 0 -0.00075361154402946867 -0.014564179612531937 0 -0.0019588410191157708 -0.015312898930953849 0 -0.0013813826210758631 -0.014854355845482824 0 -0.0022660457350460392 -0.013898737715317395 0 -0.0014018390357120427 -0.014049298478121771 0 -0.0022660457350460392 -0.013898737715317395 0 -0.0018711118846945522 -0.013364242722849544 0 -0.0013813826210758631 -0.014854355845482824 0 -0.0014018390357120427 -0.014049298478121771 0 -0.0022660457350460392 -0.013898737715317395 0 -0.0014018390357120427 -0.014049298478121771 0 -0.00075361154402946867 -0.014564179612531937 0 -0.00061843445750456739 -0.013493800563038011 0 -0.0013813826210758631 -0.014854355845482824 0 -0.0014018390357120427 -0.014049298478121771 0 -0.00075361154402946867 -0.014564179612531937 0 -0.00075361154402946867 -0.014564179612531937 0 0.00036482239612626872 -0.014406180717150868 0 -0.00033816766318956062 -0.015543448498505578 0 3.5064309376970525e-06 -0.015192140218511056 0 -0.00029916266753018212 -0.015569062778828097 0 -0.00075361154402946867 -0.014564179612531937 0 0.00036482239612626872 -0.014406180717150868 0 -0.00061843445750456739 -0.013493800563038011 0 -0.00044546437882076736 -0.016223217492749579 0 -0.00033010608911815994 -0.016097540828527719 0 -0.00037782755731837273 -0.016297406522653192 0 -0.00044546437882076736 -0.016223217492749579 0 -0.00033010608911815994 -0.016097540828527719 0 -0.00038997571679480123 -0.016014917741778024 0 -0.00038060166035650076 -0.015999964070783367 0 -0.00038997571679480123 -0.016014917741778024 0 -0.00033816766318956062 -0.015543448498505578 0 -0.00033010608911815994 -0.016097540828527719 0 -0.00038997571679480123 -0.016014917741778024 0 -0.00033816766318956062 -0.015543448498505578 0 -0.00092189584828360227 -0.015533185854479535 0 -0.00075361154402946867 -0.014564179612531937 0 -0.00033816766318956062 -0.015543448498505578 0 -0.003857738005180716 -0.013349978528350522 0 -0.004228029942394268 -0.013414846794716507 0 -0.0041319809269603968 -0.012671554055801953 0 -0.003857738005180716 -0.013349978528350522 0 -0.0033455205291794722 -0.013373291772066802 0 -0.0041319809269603968 -0.012671554055801953 0 -0.0042704936063903227 -0.013965997389773202 0 -0.004228029942394268 -0.013414846794716507 0 -0.0039047932002295232 -0.01377920952501629 0 -0.0037973143832396761 -0.01420903815516087 0 -0.0042704936063903227 -0.013965997389773202 0 -0.0039047932002295232 -0.01377920952501629 0 -0.003857738005180716 -0.013349978528350522 0 -0.004228029942394268 -0.013414846794716507 0 -0.0039047932002295232 -0.01377920952501629 0 -0.0038348654691527273 -0.015006530361929029 0 -0.0034254122288959162 -0.014305009567961848 0 -0.0032308310774143358 -0.014497640892741071 0 -0.003857738005180716 -0.013349978528350522 0 -0.0039047932002295232 -0.01377920952501629 0 -0.0033455205291794722 -0.013373291772066802 0 -0.0037973143832396761 -0.01420903815516087 0 -0.0039047932002295232 -0.01377920952501629 0 -0.0033455205291794722 -0.013373291772066802 0 -0.003812500991754334 -0.014574275293501242 0 -0.0033389040471121113 -0.014024552177445974 0 -0.0033389040471121113 -0.014024552177445974 0 -0.0030443007219401121 -0.014998527424136987 0 -0.0031358302931636037 -0.014617476086838235 0 -0.0029294815146568179 -0.014272148285703425 0 -0.0031570383179287463 -0.013885030085529231 0 -0.0033389040471121113 -0.014024552177445974 0 -0.0040118051492098964 -0.013231206895598259 0 -0.0029294815146568179 -0.014272148285703425 0 -0.0029083769780321712 -0.014829896998575237 0 -0.0025674112358694957 -0.014123849864789225 0 -0.0031358302931636037 -0.014617476086838235 0 -0.0029294815146568179 -0.014272148285703425 0 -0.0029083769780321712 -0.014829896998575237 0 -0.0030926194050895253 -0.016034439880847864 0 -0.0022296771873273912 -0.015947208400391041 0 -0.0027548241793165953 -0.015153349195688387 0 -0.0030443007219401121 -0.014998527424136987 0 -0.0026612149026683189 -0.014705508085397495 0 -0.0023952805634737577 -0.015937084128009902 0 -0.0030443007219401121 -0.014998527424136987 0 -0.0021898594298755008 -0.016743764469564909 0 -0.0030926194050895253 -0.016034439880847864 0 -0.0022296771873273912 -0.015947208400391041 0 -0.0021898594298755008 -0.016743764469564909 0 -0.0017441893209304686 -0.016294617370065843 0 -0.0022296771873273912 -0.015947208400391041 0 -0.0019588410191157708 -0.015312898930953849 0 -0.0022296771873273912 -0.015947208400391041 0 -0.0027548241793165953 -0.015153349195688387 0 -0.0019588410191157708 -0.015312898930953849 0 -0.0022660457350460392 -0.013898737715317395 0 -0.0027548241793165953 -0.015153349195688387 0 -0.0022745346514029909 -0.013899425810718773 0 -0.0026612149026683189 -0.014705508085397495 0 -0.0027826293277782646 -0.013627303145391382 0 -0.0032796622587680456 -0.013266810541220241 0 -0.0027725155318853753 -0.01297650235734679 0 -0.0022660457350460392 -0.013898737715317395 0 -0.0027826293277782646 -0.013627303145391382 0 -0.0027725155318853753 -0.01297650235734679 0 -0.0027826293277782646 -0.013627303145391382 0 -0.0025674112358694957 -0.014123849864789225 0 -0.0031570383179287463 -0.013885030085529231 0 -0.0029294815146568179 -0.014272148285703425 0 -0.0025674112358694957 -0.014123849864789225 0 -0.0031570383179287463 -0.013885030085529231 0 -0.0022660457350460392 -0.013898737715317395 0 -0.0027826293277782646 -0.013627303145391382 0 -0.0025674112358694957 -0.014123849864789225 0 -0.0049115998672440535 -0.012271865006309651 0 -0.0039347860316063885 -0.013809111598304632 0 -0.0038123911512446965 -0.01231071508505144 0 -0.0032796622587680456 -0.013266810541220241 0 -0.0039347860316063885 -0.013809111598304632 0 -0.0038123911512446965 -0.01231071508505144 0 -0.0031358302931636037 -0.014617476086838235 0 -0.0031570383179287463 -0.013885030085529231 0 -0.0039347860316063885 -0.013809111598304632 0 -0.0031570383179287463 -0.013885030085529231 0 -0.0032796622587680456 -0.013266810541220241 0 -0.0039347860316063885 -0.013809111598304632 0 -0.0027826293277782646 -0.013627303145391382 0 -0.0031570383179287463 -0.013885030085529231 0 -0.0032796622587680456 -0.013266810541220241 0 0.00036059045169014225 -0.014204689853039479 0 0.00062838266907508378 -0.014831715284600887 0 0.00088860041087140918 -0.014348139169321128 0 -0.0032796622587680456 -0.013266810541220241 0 -0.0038123911512446965 -0.01231071508505144 0 -0.0027725155318853753 -0.01297650235734679 0 0.00062838266907508378 -0.014831715284600887 0 0.00088860041087140918 -0.014348139169321128 0 0.0014679227877185507 -0.015026745202046842 0 -0.0016190311482091463 -0.013579088126790749 0 -0.00066331376710416048 -0.013982306956243978 0 0.00088860041087140918 -0.014348139169321128 0 0.0014679227877185507 -0.015026745202046842 0 0.0014003124690605267 -0.014127368530882384 0 0.0014679227877185507 -0.015026745202046842 0 0.0021699963331774084 -0.014866093308194663 0 0.0014003124690605267 -0.014127368530882384 0 0.0014679227877185507 -0.015026745202046842 0 0.0021699963331774084 -0.014866093308194663 0 0.0023079023918835336 -0.01504757272629031 0 -0.0022660457350460392 -0.013898737715317395 0 -0.0027725155318853753 -0.01297650235734679 0 -0.0018711118846945522 -0.013364242722849544 0 -0.00066331376710416048 -0.013982306956243978 0 0.00016687720345389933 -0.014212540165552266 0 0.0021699963331774084 -0.014866093308194663 0 0.0021260111392087775 -0.014804810799473996 0 0.0017118532557189117 -0.014845780851376944 0 0.0021237773551693625 -0.014843908766276686 0 0.0015544018597900336 -0.014482910646105534 0 0.0021260111392087775 -0.014804810799473996 0 0.0020332289563458751 -0.014571957908249894 0 0.0023232522600494824 -0.014749300878618525 0 0.0021260111392087775 -0.014804810799473996 0 0.0020332289563458751 -0.014571957908249894 0 0.0017118532557189117 -0.014845780851376944 0 0.0020332289563458751 -0.014571957908249894 0 0.0023335554591804703 -0.014553070288344992 0 0.0019393570851641314 -0.014138463098868868 0 0.0020332289563458751 -0.014571957908249894 0 0.0023232522600494824 -0.014749300878618525 0 0.0023335554591804703 -0.014553070288344992 0 0.0020332289563458751 -0.014571957908249894 0 0.0017118532557189117 -0.014845780851376944 0 0.0014966635058873095 -0.014116940178520629 0 0.0020332289563458751 -0.014571957908249894 0 0.0014966635058873095 -0.014116940178520629 0 0.0019393570851641314 -0.014138463098868868 0 0.0015544018597900336 -0.014482910646105534 0 0.00083141824107163564 -0.013964358969888792 0 0.00088860041087140918 -0.014348139169321128 0 0.0014003124690605267 -0.014127368530882384 0 0.0007068608872898769 -0.013666606279787923 0 0.0017118532557189117 -0.014845780851376944 0 0.00093584144408280793 -0.014280842866213251 0 0.0014966635058873095 -0.014116940178520629 0 0.00036059045169014225 -0.014204689853039479 0 0.00088860041087140918 -0.014348139169321128 0 0.0007068608872898769 -0.013666606279787923 0 0.0018681822562319561 -0.015161953923201884 0 0.0024200435704560615 -0.01497882495963635 0 0.0020124056831336049 -0.015849072424722374 0 0.0018681822562319561 -0.015161953923201884 0 0.0022598262555454242 -0.014800033204965594 0 0.0024200435704560615 -0.01497882495963635 0 0.00087366622197743334 -0.015516201620891831 0 0.0018681822562319561 -0.015161953923201884 0 0.0014090431892183237 -0.014714474113439228 0 3.5064309376970525e-06 -0.015192140218511056 0 0.00060966341415553071 -0.015484298516772424 0 0.00036482239612626872 -0.014406180717150868 0 0.0009081973420466394 -0.01351333114623853 0 -0.00061843445750456739 -0.013493800563038011 0 0.0018681822562319561 -0.015161953923201884 0 0.0014090431892183237 -0.014714474113439228 0 0.0022598262555454242 -0.014800033204965594 0 0.00060966341415553071 -0.015484298516772424 0 0.00093004384328243582 -0.013964658382732897 0 0.00093004384328243582 -0.013964658382732897 0 0.00016687720345389933 -0.014212540165552266 0 -0.0014018390357120427 -0.014049298478121771 0 -0.00061843445750456739 -0.013493800563038011 0 -0.0018711118846945522 -0.013364242722849544 0 0.0022598262555454242 -0.014800033204965594 0 0.0023079023918835336 -0.01504757272629031 0 0.0023552968734062308 -0.014960866165032527 0 0.0021699963331774084 -0.014866093308194663 0 0.0021260111392087775 -0.014804810799473996 0 0.0023029488924774101 -0.014868827916399645 0 0.0021699963331774084 -0.014866093308194663 0 0.0023552968734062308 -0.014960866165032527 0 0.0023029488924774101 -0.014868827916399645 0 0.0021699963331774084 -0.014866093308194663 0 0.0023079023918835336 -0.01504757272629031 0 0.0023552968734062308 -0.014960866165032527 0 0.0023552968734062308 -0.014960866165032527 0 0.0023029488924774101 -0.014868827916399645 0 0.0024200435704560615 -0.01497882495963635 0 0.0022598262555454242 -0.014800033204965594 0 0.0023552968734062308 -0.014960866165032527 0 0.0024200435704560615 -0.01497882495963635 0 0.0023029488924774101 -0.014868827916399645 0 0.0024200435704560615 -0.01497882495963635 0 0.0024636710979443971 -0.014811054066164611 0 0.0024200435704560615 -0.01497882495963635 0 0.0024636710979443971 -0.014811054066164611 0 0.0023660009940637545 -0.014771735345223986 0 0.0023029488924774101 -0.014868827916399645 0 0.0024636710979443971 -0.014811054066164611 0 0.0023232522600494824 -0.014749300878618525 0 0.0021260111392087775 -0.014804810799473996 0 0.0023029488924774101 -0.014868827916399645 0 0.0023232522600494824 -0.014749300878618525 0 0.0023232522600494824 -0.014749300878618525 0 0.0023335554591804703 -0.014553070288344992 0 0.0026606222645227896 -0.014857788244611658 0 0.0024636710979443971 -0.014811054066164611 0 0.0023232522600494824 -0.014749300878618525 0 0.0026606222645227896 -0.014857788244611658 0 0.0024636710979443971 -0.014811054066164611 0 0.0023660009940637545 -0.014771735345223986 0 0.0026606222645227896 -0.014857788244611658 0 0.0023660009940637545 -0.014771735345223986 0 0.0022670744325071967 -0.015500396598271795 0 0.0018716386595231625 -0.015305960712683394 0 0.00087366622197743334 -0.015516201620891831 0 0.0018681822562319561 -0.015161953923201884 0 0.0020124056831336049 -0.015849072424722374 0 0.0023660009940637545 -0.014771735345223986 0 0.0022670744325071967 -0.015500396598271795 0 0.0026606222645227896 -0.014857788244611658 0 0.00087366622197743334 -0.015516201620891831 0 0.0020124056831336049 -0.015849072424722374 0 0.0012905002220140547 -0.016778884677716793 0 0.002400007768684992 -0.015014303163699231 0 0.0021722226530350467 -0.015326362723178187 0 0.0021722226530350467 -0.015326362723178187 0 0.0015850424994091374 -0.016045950839010434 0 0.0022670744325071967 -0.015500396598271795 0 0.0026606222645227896 -0.014857788244611658 0 0.0025438351323054148 -0.01601750967108986 0 0.0022670744325071967 -0.015500396598271795 0 0.0018716386595231625 -0.015305960712683394 0 0.0019348073978011887 -0.015896164364581172 0 0.0022670744325071967 -0.015500396598271795 0 0.002195760291632536 -0.016264705563341472 0 0.0019348073978011887 -0.015896164364581172 0 0.0022670744325071967 -0.015500396598271795 0 0.0025438351323054148 -0.01601750967108986 0 0.002195760291632536 -0.016264705563341472 0 0.0026606222645227896 -0.014857788244611658 0 0.0029331114604640397 -0.015704073120056783 0 0.0025438351323054148 -0.01601750967108986 0 0.0023335554591804703 -0.014553070288344992 0 0.0026606222645227896 -0.014857788244611658 0 0.0025340007353659021 -0.013758508684508921 0 0.0026671081403385364 -0.014808163544589425 0 0.002696808616556958 -0.014719170563122221 0 0.0023335554591804703 -0.014553070288344992 0 0.0025340007353659021 -0.013758508684508921 0 0.0019393570851641314 -0.014138463098868868 0 0.0025438351323054148 -0.01601750967108986 0 0.0025672909808096534 -0.016453007961349748 0 0.0028951789328233897 -0.016262173772342584 0 0.0029331114604640397 -0.015704073120056783 0 0.0025438351323054148 -0.01601750967108986 0 0.0028951789328233897 -0.016262173772342584 0 0.002696808616556958 -0.014719170563122221 0 0.0025263832553534928 -0.014588501821213256 0 0.0025672909808096534 -0.016453007961349748 0 0.0028951789328233897 -0.016262173772342584 0 0.0026816053230204347 -0.016499760304966953 0 0.0025672909808096534 -0.016453007961349748 0 0.0022966789881428591 -0.016602162611559678 0 0.002195760291632536 -0.016264705563341472 0 0.0022966789881428591 -0.016602162611559678 0 0.002195760291632536 -0.016264705563341472 0 0.0019642863842030344 -0.016847245689156604 0 0.0025438351323054148 -0.01601750967108986 0 0.0025672909808096534 -0.016453007961349748 0 0.002195760291632536 -0.016264705563341472 0 0.00094457716753047923 -0.01347071649069159 0 0.0010758904800914223 -0.01300556048306975 0 0.00062949551513283026 -0.012911218227324916 0 0.00024309064033718465 -0.013388516636244348 0 0.00094457716753047923 -0.01347071649069159 0 0.00062949551513283026 -0.012911218227324916 0 0.00027253747277401817 -0.013436760474434159 0 0.00083141824107163564 -0.013964358969888792 0 0.00024309064033718465 -0.013388516636244348 0 0.00093584144408280793 -0.014280842866213251 0 0.00094457716753047923 -0.01347071649069159 0 0.00093584144408280793 -0.014280842866213251 0 0.00094457716753047923 -0.01347071649069159 0 0.0014966635058873095 -0.014116940178520629 0 0.00094457716753047923 -0.01347071649069159 0 0.0013996042773913627 -0.013403195801458687 0 0.0014966635058873095 -0.014116940178520629 0 0.00094457716753047923 -0.01347071649069159 0 0.0013996042773913627 -0.013403195801458687 0 0.0010758904800914223 -0.01300556048306975 0 0.0013996042773913627 -0.013403195801458687 0 0.0019393570851641314 -0.014138463098868868 0 0.0019521687616361005 -0.013513803468945635 0 0.0013996042773913627 -0.013403195801458687 0 0.0019521687616361005 -0.013513803468945635 0 0.0014748628048064029 -0.012813334054356171 0 0.0013996042773913627 -0.013403195801458687 0 0.0014966635058873095 -0.014116940178520629 0 0.0019393570851641314 -0.014138463098868868 0 0.0025340007353659021 -0.013758508684508921 0 0.0019521687616361005 -0.013513803468945635 0 0.0021977972754198254 -0.012958458815951857 0 0.0025340007353659021 -0.013758508684508921 0 0.0019393570851641314 -0.014138463098868868 0 0.0019521687616361005 -0.013513803468945635 0 0.0019521687616361005 -0.013513803468945635 0 0.0021977972754198254 -0.012958458815951857 0 0.0014748628048064029 -0.012813334054356171 0 0.0028951789328233897 -0.016262173772342584 0 0.0026488386332394749 -0.016479769199215396 0 0.0026816053230204347 -0.016499760304966953 0 0.0025263832553534928 -0.014588501821213256 0 0.0022376059704025237 -0.014453714327540057 0 0.0021977972754198254 -0.012958458815951857 0 0.0014748628048064029 -0.012813334054356171 0 0.0017998995490932969 -0.012380020583134439 0 0.0014748628048064029 -0.012813334054356171 0 0.0011928405030179117 -0.012231737540328436 0 0.0017998995490932969 -0.012380020583134439 0 0.0014748628048064029 -0.012813334054356171 0 0.0010758904800914223 -0.01300556048306975 0 0.00093970838238932532 -0.012486759612643505 0 0.0013996042773913627 -0.013403195801458687 0 0.0014748628048064029 -0.012813334054356171 0 0.0010758904800914223 -0.01300556048306975 0 0.0014748628048064029 -0.012813334054356171 0 0.00093970838238932532 -0.012486759612643505 0 0.0011928405030179117 -0.012231737540328436 0 0.0007572980248595375 -0.012304920201197826 0 0.00093970838238932532 -0.012486759612643505 0 0.00091991904537885502 -0.012270454438978864 0 0.00054251624585702066 -0.012228800764310868 0 0.0009281831237888538 -0.01244558459075977 0 0.00049067259873247511 -0.012500916267237887 0 0.00093970838238932532 -0.012486759612643505 0 0.00062949551513283026 -0.012911218227324916 0 0.0010758904800914223 -0.01300556048306975 0 0.00093970838238932532 -0.012486759612643505 0 0.00062949551513283026 -0.012911218227324916 0 0.00093063763721142761 -0.012071403280632491 0 0.0011928405030179117 -0.012231737540328436 0 0.001153559506397741 -0.011953017876168788 0 0.00093063763721142761 -0.012071403280632491 0 0.001153559506397741 -0.011953017876168788 0 0.00092903459968216159 -0.011839050054200457 0 0.00078682440035655779 -0.012170263254337602 0 0.00093063763721142761 -0.012071403280632491 0 0.00091991904537885502 -0.012270454438978864 0 0.00093063763721142761 -0.012071403280632491 0 0.00091991904537885502 -0.012270454438978864 0 0.0011928405030179117 -0.012231737540328436 0 0.00093970838238932532 -0.012486759612643505 0 0.00091991904537885502 -0.012270454438978864 0 0.0011928405030179117 -0.012231737540328436 0 0.0011928405030179117 -0.012231737540328436 0 0.001153559506397741 -0.011953017876168788 0 0.0014652788232598739 -0.011987841162789876 0 0.001153559506397741 -0.011953017876168788 0 0.0014652788232598739 -0.011987841162789876 0 0.0012311819177975682 -0.011696208003603721 0 0.0023832887531346899 -0.016416060754245714 0 0.0025862233472723614 -0.016447277124514267 0 0.0023729746656822757 -0.016273865085643165 0 0.0018852740118019584 -0.014020409531419966 0 0.0022376059704025237 -0.014453714327540057 0 0.0011928405030179117 -0.012231737540328436 0 0.0014652788232598739 -0.011987841162789876 0 0.0017998995490932969 -0.012380020583134439 0 0.0026488386332394749 -0.016479769199215396 0 0.0025862233472723614 -0.016447277124514267 0 0.0026816053230204347 -0.016499760304966953 0 0.0023832887531346899 -0.016416060754245714 0 0.0026488386332394749 -0.016479769199215396 0 0.0025862233472723614 -0.016447277124514267 0 0.0025862233472723614 -0.016447277124514267 0 0.0024690172483907528 -0.016222422784621552 0 0.0023729746656822757 -0.016273865085643165 0 0.0025862233472723614 -0.016447277124514267 0 0.0024690172483907528 -0.016222422784621552 0 0.0026265248297386058 -0.01627857673354598 0 0.0024690172483907528 -0.016222422784621552 0 0.0024745866537374734 -0.016062741058070068 0 0.0026265248297386058 -0.01627857673354598 0 0.0024745866537374734 -0.016062741058070068 0 0.0023715432221401056 -0.01607625687333333 0 0.0023806083367346902 -0.015980276822543122 0 0.0024690172483907528 -0.016222422784621552 0 0.0024745866537374734 -0.016062741058070068 0 0.0023715432221401056 -0.01607625687333333 0 0.0024690172483907528 -0.016222422784621552 0 0.0023715432221401056 -0.01607625687333333 0 0.002338805971962888 -0.016163935767238902 0 0.0022701061464645879 -0.015905958983768124 0 0.0023715432221401056 -0.01607625687333333 0 0.0023806083367346902 -0.015980276822543122 0 0.0022701061464645879 -0.015905958983768124 0 0.0023715432221401056 -0.01607625687333333 0 0.0022370798196762981 -0.016034762336256503 0 0.0022701061464645879 -0.015905958983768124 0 0.0022370798196762981 -0.016034762336256503 0 0.0021450493437182904 -0.015927120054045313 0 0.0022370798196762981 -0.016034762336256503 0 0.002338805971962888 -0.016163935767238902 0 0.002186760458254233 -0.01613100949962102 0 0.0023715432221401056 -0.01607625687333333 0 0.0022370798196762981 -0.016034762336256503 0 0.002338805971962888 -0.016163935767238902 0 0.002338805971962888 -0.016163935767238902 0 0.0023729746656822757 -0.016273865085643165 0 0.002186760458254233 -0.01613100949962102 0 0.0023832887531346899 -0.016416060754245714 0 0.0023729746656822757 -0.016273865085643165 0 0.0021118460844654209 -0.016176439969233899 0 0.0024690172483907528 -0.016222422784621552 0 0.002338805971962888 -0.016163935767238902 0 0.0023729746656822757 -0.016273865085643165 0 0.0023729746656822757 -0.016273865085643165 0 0.0021118460844654209 -0.016176439969233899 0 0.002186760458254233 -0.01613100949962102 0 0.0018852740118019584 -0.014020409531419966 0 0.0016137237310051011 -0.014901427091130013 0 0.0016137237310051011 -0.014901427091130013 0 0.0020653056395274179 -0.015844457857646516 0 0.0020638144112486633 -0.016172445154836346 0 0.0020923344181659363 -0.016073108729475986 0 0.0020023849853021193 -0.01601163137573015 0 0.0020638144112486633 -0.016172445154836346 0 0.002186760458254233 -0.01613100949962102 0 0.0020923344181659363 -0.016073108729475986 0 0.0016137237310051011 -0.014901427091130013 0 0.0017762828679170602 -0.015347033377544563 0 0.0022370798196762981 -0.016034762336256503 0 0.002186760458254233 -0.01613100949962102 0 0.0021133661455558978 -0.016004017478535543 0 0.002186760458254233 -0.01613100949962102 0 0.0020923344181659363 -0.016073108729475986 0 0.0021133661455558978 -0.016004017478535543 0 0.0022370798196762981 -0.016034762336256503 0 0.0021133661455558978 -0.016004017478535543 0 0.0021450493437182904 -0.015927120054045313 0 0.0021219669923542954 -0.015820394198795662 0 0.0021450493437182904 -0.015927120054045313 0 0.0020231948969178072 -0.015890743192861007 0 0.0021133661455558978 -0.016004017478535543 0 0.0021450493437182904 -0.015927120054045313 0 0.0020231948969178072 -0.015890743192861007 0 0.0021133661455558978 -0.016004017478535543 0 0.0020231948969178072 -0.015890743192861007 0 0.0020023849853021193 -0.01601163137573015 0 0.0020923344181659363 -0.016073108729475986 0 0.0021133661455558978 -0.016004017478535543 0 0.0020023849853021193 -0.01601163137573015 0 0.0017976517306304667 -0.015886650077191228 0 0.0019084204126513832 -0.015938035059815378 0 0.0018552632040504614 -0.01606423694046745 0 0.0020231948969178072 -0.015890743192861007 0 0.0020023849853021193 -0.01601163137573015 0 0.0019084204126513832 -0.015938035059815378 0 0.0018830236731975372 -0.01576595016301174 0 0.0020231948969178072 -0.015890743192861007 0 0.0019084204126513832 -0.015938035059815378 0 0.0017976517306304667 -0.015886650077191228 0 0.0018830236731975372 -0.01576595016301174 0 0.0019084204126513832 -0.015938035059815378 0 0.001153559506397741 -0.011953017876168788 0 0.0012311819177975682 -0.011696208003603721 0 0.00092903459968216159 -0.011839050054200457 0 0.0020200106100551098 -0.016043299217657798 0 0.0020023849853021193 -0.01601163137573015 0 0.0018552632040504614 -0.01606423694046745 0 0.0016137237310051011 -0.014901427091130013 0 0.0013441507321889749 -0.013983872003694279 0 0.0020023849853021193 -0.01601163137573015 0 0.0019084204126513832 -0.015938035059815378 0 0.0018552632040504614 -0.01606423694046745 0 0.0024068496857942122 -0.016740482365990444 0 0.0025245790101822048 -0.016802436053075 0 0.0024010832785579896 -0.016781460946077732 0 0.0023536361464865014 -0.017182126304503775 0 0.0021470076447945192 -0.01714464239431995 0 0.0024010832785579896 -0.016781460946077732 0 0.0020076910958941839 -0.017029633978027824 0 0.0021470076447945192 -0.01714464239431995 0 0.0024010832785579896 -0.016781460946077732 0 0.0020076910958941839 -0.017029633978027824 0 0.0019642863842030344 -0.016847245689156604 0 0.0022966789881428591 -0.016602162611559678 0 0.0024010832785579896 -0.016781460946077732 0 0.0019642863842030344 -0.016847245689156604 0 0.0025672909808096534 -0.016453007961349748 0 0.0022966789881428591 -0.016602162611559678 0 0.0024010832785579896 -0.016781460946077732 0 0.0025672909808096534 -0.016453007961349748 0 0.0024010832785579896 -0.016781460946077732 0 0.0026191123850133283 -0.016590690752141476 0 0.0025672909808096534 -0.016453007961349748 0 0.0026816053230204347 -0.016499760304966953 0 0.0026191123850133283 -0.016590690752141476 0 0.0025862233472723614 -0.016447277124514267 0 0.0026816053230204347 -0.016499760304966953 0 0.0026191123850133283 -0.016590690752141476 0 0.0025862233472723614 -0.016447277124514267 0 0.0026191123850133283 -0.016590690752141476 0 0.0026265248297386058 -0.01627857673354598 0 0.0024010832785579896 -0.016781460946077732 0 0.0026191123850133283 -0.016590690752141476 0 0.0027201215716303809 -0.016441456020119014 0 0.0026191123850133283 -0.016590690752141476 0 0.0027201215716303809 -0.016441456020119014 0 0.0026265248297386058 -0.01627857673354598 0 0.0025842633758755506 -0.015895883561712773 0 0.0024745866537374734 -0.016062741058070068 0 0.0026265248297386058 -0.01627857673354598 0 0.0027734912261915667 -0.016046883370345912 0 0.0025842633758755506 -0.015895883561712773 0 0.0026265248297386058 -0.01627857673354598 0 0.0025159443969943844 -0.016611799081230449 0 0.0025245790101822048 -0.016802436053075 0 0.0027734912261915667 -0.016046883370345912 0 0.0027201215716303809 -0.016441456020119014 0 0.0026265248297386058 -0.01627857673354598 0 0.0023248045620861886 -0.017331613776826904 0 0.0023536361464865014 -0.017182126304503775 0 0.002144671254162062 -0.0173417625787953 0 0.0023536361464865014 -0.017182126304503775 0 0.0021470076447945192 -0.01714464239431995 0 0.002144671254162062 -0.0173417625787953 0 0.0021470076447945192 -0.01714464239431995 0 0.002144671254162062 -0.0173417625787953 0 0.0019176098059393238 -0.017207335440448526 0 0.0020076910958941839 -0.017029633978027824 0 0.0021470076447945192 -0.01714464239431995 0 0.0019176098059393238 -0.017207335440448526 0 0.002144671254162062 -0.0173417625787953 0 0.001872446584553221 -0.017344047236319195 0 0.0019176098059393238 -0.017207335440448526 0 0.001872446584553221 -0.017344047236319195 0 0.0019176098059393238 -0.017207335440448526 0 0.0017228139143204402 -0.017242018942567796 0 0.0019176098059393238 -0.017207335440448526 0 0.0017491125252406653 -0.017111183916681462 0 0.0017228139143204402 -0.017242018942567796 0 0.0020076910958941839 -0.017029633978027824 0 0.0019176098059393238 -0.017207335440448526 0 0.0017491125252406653 -0.017111183916681462 0 0.0017491125252406653 -0.017111183916681462 0 0.0019642863842030344 -0.016847245689156604 0 0.0015856408259422466 -0.017306575652003574 0 0.0020076910958941839 -0.017029633978027824 0 0.0017491125252406653 -0.017111183916681462 0 0.0019642863842030344 -0.016847245689156604 0 0.00056232960576194611 -0.019495149962223984 0 -0.00067034551673808291 -0.018959180738784689 0 0.00039649381448892752 -0.018201205276134787 0 0.00056232960576194611 -0.019495149962223984 0 -0.00060095785160915358 -0.019811374216136064 0 -0.00067034551673808291 -0.018959180738784689 0 0.0010976171949549449 -0.018289212415659447 0 0.0015663148929408164 -0.01742489681844275 0 0.00056232960576194611 -0.019495149962223984 0 0.0015856408259422466 -0.017306575652003574 0 0.00039649381448892752 -0.018201205276134787 0 0.0017491125252406653 -0.017111183916681462 0 0.0016792346642308701 -0.017144188039877377 0 0.0015856408259422466 -0.017306575652003574 0 0.0017491125252406653 -0.017111183916681462 0 0.0016792346642308701 -0.017144188039877377 0 0.0017228139143204402 -0.017242018942567796 0 0.00056232960576194611 -0.019495149962223984 0 -0.00027115512651477546 -0.020454577594146071 0 -0.00060095785160915358 -0.019811374216136064 0 0.0010976171949549449 -0.018289212415659447 0 0.0006395056614199756 -0.018848338636155371 0 0.0016792346642308701 -0.017144188039877377 0 0.0017228139143204402 -0.017242018942567796 0 0.0015398021721564812 -0.017234946463006148 0 0.0017228139143204402 -0.017242018942567796 0 0.0015675109281760239 -0.017380847808030366 0 0.0015398021721564812 -0.017234946463006148 0 0.0017154963266818777 -0.017440099888323572 0 0.0017228139143204402 -0.017242018942567796 0 0.0015675109281760239 -0.017380847808030366 0 0.0017154963266818777 -0.017440099888323572 0 0.001872446584553221 -0.017344047236319195 0 0.0017228139143204402 -0.017242018942567796 0 0.0015675109281760239 -0.017380847808030366 0 0.0013714159781198602 -0.017399645159136626 0 0.0015398021721564812 -0.017234946463006148 0 -0.00075490460123255618 -0.021019593638479082 0 -0.0013584329822691815 -0.020975230435316017 0 -0.0010377652425340076 -0.020292742417176751 0 0.00031498441277900139 -0.0192003836391825 0 0.0006395056614199756 -0.018848338636155371 0 -0.00075490460123255618 -0.021019593638479082 0 -0.00027115512651477546 -0.020454577594146071 0 -0.0010377652425340076 -0.020292742417176751 0 -0.0017123902291005036 -0.021252178070550125 0 -0.0013584329822691815 -0.020975230435316017 0 -0.001647837765235134 -0.020820989657312359 0 -0.0011353639002793486 -0.021426824699082178 0 -0.00075490460123255618 -0.021019593638479082 0 -0.0013584329822691815 -0.020975230435316017 0 -0.0013584329822691815 -0.020975230435316017 0 -0.001463715838413844 -0.020342827919219739 0 -0.0010377652425340076 -0.020292742417176751 0 -0.0013584329822691815 -0.020975230435316017 0 -0.001647837765235134 -0.020820989657312359 0 -0.001463715838413844 -0.020342827919219739 0 -0.0018251189813720068 -0.020106517664569622 0 -0.001647837765235134 -0.020820989657312359 0 -0.001463715838413844 -0.020342827919219739 0 -0.001463715838413844 -0.020342827919219739 0 -0.0014231133407043072 -0.019774391054424592 0 -0.0010377652425340076 -0.020292742417176751 0 -0.0014231133407043072 -0.019774391054424592 0 -0.0010377652425340076 -0.020292742417176751 0 -0.0010075449755771813 -0.019594160198247161 0 -0.0014231133407043072 -0.019774391054424592 0 -0.0010075449755771813 -0.019594160198247161 0 -0.0012055804287988256 -0.019421924145789981 0 -0.0018251189813720068 -0.020106517664569622 0 -0.001463715838413844 -0.020342827919219739 0 -0.0014231133407043072 -0.019774391054424592 0 -0.0018251189813720068 -0.020106517664569622 0 -0.0014231133407043072 -0.019774391054424592 0 -0.0017357331942461248 -0.019746938093920131 0 -0.00027115512651477546 -0.020454577594146071 0 -0.00060095785160915358 -0.019811374216136064 0 -0.0010377652425340076 -0.020292742417176751 0 -0.00060095785160915358 -0.019811374216136064 0 -0.0010377652425340076 -0.020292742417176751 0 -0.0010075449755771813 -0.019594160198247161 0 -0.0010075449755771813 -0.019594160198247161 0 -0.00067034551673808291 -0.018959180738784689 0 -0.00092073239061751756 -0.019193599244888396 0 -0.00060095785160915358 -0.019811374216136064 0 -0.0010075449755771813 -0.019594160198247161 0 -0.00067034551673808291 -0.018959180738784689 0 -0.00067034551673808291 -0.018959180738784689 0 -0.00073601764526433735 -0.018979452704574934 0 -0.00059915470571621774 -0.018876008092054055 0 -0.00067034551673808291 -0.018959180738784689 0 -0.00092073239061751756 -0.019193599244888396 0 -0.00073601764526433735 -0.018979452704574934 0 -0.0010075449755771813 -0.019594160198247161 0 -0.00092073239061751756 -0.019193599244888396 0 -0.0012055804287988256 -0.019421924145789981 0 -0.00092073239061751756 -0.019193599244888396 0 -0.0012055804287988256 -0.019421924145789981 0 -0.0011625640997942254 -0.019190515126553714 0 -0.00092073239061751756 -0.019193599244888396 0 -0.00093467784491790015 -0.019021672060331164 0 -0.0011625640997942254 -0.019190515126553714 0 -0.00092073239061751756 -0.019193599244888396 0 -0.00093467784491790015 -0.019021672060331164 0 -0.00073601764526433735 -0.018979452704574934 0 -0.00093467784491790015 -0.019021672060331164 0 -0.0011427551521095407 -0.018982391574438057 0 -0.0011625640997942254 -0.019190515126553714 0 -0.00093467784491790015 -0.019021672060331164 0 -0.0011427551521095407 -0.018982391574438057 0 -0.00094169416128396391 -0.018852829853669296 0 -0.00093467784491790015 -0.019021672060331164 0 -0.00078808465479481503 -0.01886933191791865 0 -0.00094169416128396391 -0.018852829853669296 0 -0.00078808465479481503 -0.01886933191791865 0 -0.00067166151637498188 -0.018847318284005894 0 -0.00071462545524257138 -0.01873648556805424 0 -0.00078808465479481503 -0.01886933191791865 0 -0.00067166151637498188 -0.018847318284005894 0 -0.00073601764526433735 -0.018979452704574934 0 -0.00067166151637498188 -0.018847318284005894 0 -0.00073601764526433735 -0.018979452704574934 0 -0.00059915470571621774 -0.018876008092054055 0 -0.00093467784491790015 -0.019021672060331164 0 -0.00078808465479481503 -0.01886933191791865 0 -0.00073601764526433735 -0.018979452704574934 0 -0.0018622627017608271 -0.019527979468528599 0 -0.0017357331942461248 -0.019746938093920131 0 -0.0014905938605408104 -0.019391981489600942 0 -0.0014231133407043072 -0.019774391054424592 0 -0.0017357331942461248 -0.019746938093920131 0 -0.0014905938605408104 -0.019391981489600942 0 -0.0014231133407043072 -0.019774391054424592 0 -0.0012055804287988256 -0.019421924145789981 0 -0.0014905938605408104 -0.019391981489600942 0 -0.0012055804287988256 -0.019421924145789981 0 -0.0011625640997942254 -0.019190515126553714 0 -0.0014905938605408104 -0.019391981489600942 0 -0.0011625640997942254 -0.019190515126553714 0 -0.001318695085746985 -0.019101359957746089 0 -0.0014905938605408104 -0.019391981489600942 0 -0.0011427551521095407 -0.018982391574438057 0 -0.0011625640997942254 -0.019190515126553714 0 -0.001318695085746985 -0.019101359957746089 0 -0.0018622627017608271 -0.019527979468528599 0 -0.0014905938605408104 -0.019391981489600942 0 -0.0015994475059011386 -0.019056853714710265 0 -0.001318695085746985 -0.019101359957746089 0 -0.0014905938605408104 -0.019391981489600942 0 -0.0015994475059011386 -0.019056853714710265 0 -0.0020129105608735938 -0.019411546139197391 0 -0.0015598439357304285 -0.019139709807880299 0 -0.0023726259932925339 -0.019727409864914437 0 -0.0023386673249380903 -0.019699803526131581 0 -0.0023003519245595508 -0.019724122174178595 0 -0.001318695085746985 -0.019101359957746089 0 -0.0015994475059011386 -0.019056853714710265 0 -0.0011867626946702829 -0.018882417512222811 0 -0.0011427551521095407 -0.018982391574438057 0 -0.001318695085746985 -0.019101359957746089 0 -0.0011867626946702829 -0.018882417512222811 0 -0.0023122047288872223 -0.019662942188055296 0 -0.0023386673249380903 -0.019699803526131581 0 -0.0023003519245595508 -0.019724122174178595 0 -0.0018072428714570633 -0.018947859707548375 0 -0.0015598439357304285 -0.019139709807880299 0 -0.0023122047288872223 -0.019662942188055296 0 -0.0023661380744355335 -0.01965671023040776 0 -0.0023386673249380903 -0.019699803526131581 0 -0.0023726259932925339 -0.019727409864914437 0 -0.0023386673249380903 -0.019699803526131581 0 -0.0023842798897700393 -0.019690299323043944 0 -0.0024208933270781358 -0.019689537504022872 0 -0.0023726259932925339 -0.019727409864914437 0 -0.0023842798897700393 -0.019690299323043944 0 -0.0023661380744355335 -0.01965671023040776 0 -0.0023386673249380903 -0.019699803526131581 0 -0.0023842798897700393 -0.019690299323043944 0 -0.00083437865303707362 -0.01867370494752809 0 -0.00093594470855329381 -0.018532310307729716 0 -0.00071864724973422917 -0.018540940668363821 0 -0.00083437865303707362 -0.01867370494752809 0 -0.00071462545524257138 -0.01873648556805424 0 -0.00071864724973422917 -0.018540940668363821 0 -0.00071462545524257138 -0.01873648556805424 0 -0.00071864724973422917 -0.018540940668363821 0 -0.00057400454315863604 -0.018722115499862694 0 -0.00067166151637498188 -0.018847318284005894 0 -0.00071462545524257138 -0.01873648556805424 0 -0.00057400454315863604 -0.018722115499862694 0 -0.00078808465479481503 -0.01886933191791865 0 -0.00083437865303707362 -0.01867370494752809 0 -0.00071462545524257138 -0.01873648556805424 0 -0.00078808465479481503 -0.01886933191791865 0 -0.00083437865303707362 -0.01867370494752809 0 -0.00094169416128396391 -0.018852829853669296 0 -0.00083437865303707362 -0.01867370494752809 0 -0.00094169416128396391 -0.018852829853669296 0 -0.0010356145970559067 -0.018665404456332271 0 -0.0013058043431492608 -0.018924358570898095 0 -0.0015598439357304285 -0.019139709807880299 0 -0.0011427551521095407 -0.018982391574438057 0 -0.0012291860013030184 -0.018685251654155494 0 -0.0010356145970559067 -0.018665404456332271 0 -0.0011427551521095407 -0.018982391574438057 0 -0.00094169416128396391 -0.018852829853669296 0 -0.0010356145970559067 -0.018665404456332271 0 -0.0011875550167188601 -0.018674585803251608 0 -0.0010356145970559067 -0.018665404456332271 0 -0.00093594470855329381 -0.018532310307729716 0 -0.0015598439357304285 -0.019139709807880299 0 -0.0011128100439720451 -0.018921586599995082 0 -0.00083437865303707362 -0.01867370494752809 0 -0.0010356145970559067 -0.018665404456332271 0 -0.00093594470855329381 -0.018532310307729716 0 -0.0011875550167188601 -0.018674585803251608 0 -0.00093594470855329381 -0.018532310307729716 0 -0.00097007324093086717 -0.018356800053186219 0 -0.0012923241733892258 -0.018216254385016551 0 -0.0011875550167188601 -0.018674585803251608 0 -0.00097007324093086717 -0.018356800053186219 0 -0.00067439822355659586 -0.018159272343858369 0 -0.00097007324093086717 -0.018356800053186219 0 -0.00071864724973422917 -0.018540940668363821 0 -0.00067439822355659586 -0.018159272343858369 0 -0.00071864724973422917 -0.018540940668363821 0 -0.00051975295364241586 -0.018467705136566363 0 -0.00093594470855329381 -0.018532310307729716 0 -0.00097007324093086717 -0.018356800053186219 0 -0.00071864724973422917 -0.018540940668363821 0 -0.00067439822355659586 -0.018159272343858369 0 -0.00051975295364241586 -0.018467705136566363 0 -0.00033987031847358207 -0.018260114714752682 0 -0.00051975295364241586 -0.018467705136566363 0 -0.00029058446067352546 -0.018614650833705282 0 -0.00033987031847358207 -0.018260114714752682 0 -0.00071864724973422917 -0.018540940668363821 0 -0.00051975295364241586 -0.018467705136566363 0 -0.00057400454315863604 -0.018722115499862694 0 -0.00051975295364241586 -0.018467705136566363 0 -0.00057400454315863604 -0.018722115499862694 0 -0.00029058446067352546 -0.018614650833705282 0 -0.00057400454315863604 -0.018722115499862694 0 -0.00029058446067352546 -0.018614650833705282 0 -0.00059915470571621774 -0.018876008092054055 0 -0.00033732885717044781 -0.01774940231379149 0 0.0004200263212979463 -0.017832861151936479 0 -0.00041659259856848956 -0.018822623969024392 0 2.9875932488361671e-05 -0.018157793947977632 0 -0.00029058446067352546 -0.018614650833705282 0 -0.00033987031847358207 -0.018260114714752682 0 0.00014397153649972614 -0.017335413987938461 0 -0.00030055475998637507 -0.01817928023581631 0 0.00026105270291963201 -0.01654233684026301 0 0.0012905002220140547 -0.016778884677716793 0 0.0004200263212979463 -0.017832861151936479 0 0.00026105270291963201 -0.01654233684026301 0 -0.00033732885717044781 -0.01774940231379149 0 0.0004200263212979463 -0.017832861151936479 0 0.0015850424994091374 -0.016045950839010434 0 0.00092910426637714922 -0.01686994666778794 0 0.0018716386595231625 -0.015305960712683394 0 0.0019348073978011887 -0.015896164364581172 0 0.0014642400207894621 -0.015913580389381527 0 0.0019348073978011887 -0.015896164364581172 0 0.0014642400207894621 -0.015913580389381527 0 0.0018107523822847151 -0.016530848405532504 0 0.0014642400207894621 -0.015913580389381527 0 0.001377040266967426 -0.016653648109526763 0 0.0018107523822847151 -0.016530848405532504 0 0.002195760291632536 -0.016264705563341472 0 0.0019348073978011887 -0.015896164364581172 0 0.0018107523822847151 -0.016530848405532504 0 0.0019642863842030344 -0.016847245689156604 0 0.0018107523822847151 -0.016530848405532504 0 0.0015856408259422466 -0.017306575652003574 0 0.002195760291632536 -0.016264705563341472 0 0.0019642863842030344 -0.016847245689156604 0 0.0018107523822847151 -0.016530848405532504 0 0.001377040266967426 -0.016653648109526763 0 0.0018107523822847151 -0.016530848405532504 0 0.0015856408259422466 -0.017306575652003574 0 0.001377040266967426 -0.016653648109526763 0 0.0015856408259422466 -0.017306575652003574 0 0.0010659943476410995 -0.017163463215566263 0 0.0015856408259422466 -0.017306575652003574 0 0.0010659943476410995 -0.017163463215566263 0 0.00039649381448892752 -0.018201205276134787 0 0.0010659943476410995 -0.017163463215566263 0 0.00039649381448892752 -0.018201205276134787 0 0.00063788655440461688 -0.016699642583031405 0 -0.00063016107980000196 -0.018842582909990864 0 0.00012660919192421648 -0.01778548020924909 0 -0.00067034551673808291 -0.018959180738784689 0 0.00039649381448892752 -0.018201205276134787 0 0.00063788655440461688 -0.016699642583031405 0 -0.00067034551673808291 -0.018959180738784689 0 -0.00059915470571621774 -0.018876008092054055 0 -0.00041659259856848956 -0.018822623969024392 0 -0.00030055475998637507 -0.01817928023581631 0 -0.00058572761043743874 -0.018813638225944604 0 -0.00033732885717044781 -0.01774940231379149 0 -0.00059915470571621774 -0.018876008092054055 0 -0.00041659259856848956 -0.018822623969024392 0 -0.00067166151637498188 -0.018847318284005894 0 -0.00057400454315863604 -0.018722115499862694 0 -0.00059915470571621774 -0.018876008092054055 0 0.0014642400207894621 -0.015913580389381527 0 0.001377040266967426 -0.016653648109526763 0 0.00063788655440461688 -0.016699642583031405 0 0.00092910426637714922 -0.01686994666778794 0 0.00012660919192421648 -0.01778548020924909 0 0.001377040266967426 -0.016653648109526763 0 0.0010659943476410995 -0.017163463215566263 0 0.00063788655440461688 -0.016699642583031405 0 
</DataArray>
</PointData>
<CellData Scalars="region_id,cross_section_updated," Vectors="" Tensors="stress,">
<DataArray type="Float64" Name="region_id" format="ascii">
5 5 5 6 5 5 5 5 6 5 5 6 5 5 5 5 5 5 5 5 5 5 5 5 5 5 5 5 5 5 5 5 5 5 5 6 5 5 5 5 5 5 5 5 5 5 5 5 5 5 5 5 5 5 5 5 5 5 6 5 5 5 5 5 5 5 5 5 6 5 5 5 6 6 5 5 6 5 5 6 5 5 5 6 5 6 6 5 5 5 5 6 5 5 5 5 5 5 5 5 6 5 5 5 5 5 5 5 6 5 5 5 6 5 5 6 5 5 6 5 5 5 5 5 5 5 5 5 6 5 5 5 5 5 5 5 5 5 5 5 5 5 5 6 5 5 5 5 5 5 5 5 5 5 5 5 5 5 5 5 5 5 5 5 5 5 5 6 5 5 6 5 5 5 5 5 5 5 5 5 5 5 5 5 5 5 5 5 5 5 5 5 5 5 5 5 5 5 5 5 5 5 5 5 5 5 5 5 5 5 5 5 5 5 5 5 6 5 5 5 5 5 5 5 5 5 5 6 5 5 6 5 5 6 5 5 6 5 5 5 6 6 5 5 6 5 6 5 5 5 5 6 5 6 5 5 6 5 6 5 5 5 5 5 5 5 6 5 5 5 5 6 6 5 5 5 6 5 5 5 5 5 6 6 5 5 6 5 5 5 5 6 5 5 5 5 6 5 5 5 5 5 6 5 5 6 5 5 5 6 5 5 5 5 5 5 5 5 5 5 5 5 5 5 5 5 5 5 5 5 5 5 5 5 5 5 5 5 5 5 5 5 5 5 5 5 5 5 5 5 5 5 5 5 5 5 5 5 5 5 5 5 5 5 5 5 5 5 5 5 5 5 5 6 5 5 5 6 5 5 5 5 5 5 5 5 5 5 6 5 5 5 5 5 5 5 5 5 5 5 5 5 5 5 5 5 6 5 5 5 5 5 5 5 5 5 5 5 5 5 5 6 5 5 5 6 5 5 5 5 5 5 5 5 5 5 5 5 5 5 5 5 6 5 5 5 6 5 5 6 5 5 5 5 5 5 5 5 5 5 5 6 5 5 5 5 6 5 5 5 5 5 6 5 5 5 5 6 5 5 5 5 5 5 5 5 5 5 5 5 5 5 5 5 5 5 5 5 5 5 5 5 5 5 5 5 5 5 5 5 5 5 5 5 5 5 6 5 6 5 5 5 5 5 5 5 5 5 5 5 5 5 5 6 5 5 5 5 5 5 6 5 5 5 5 5 5 5 6 5 5 5 5 5 5 5 5 5 5 5 5 5 5 5 5 6 5 5 5 5 5 5 6 5 5 5 5 5 5 5 5 5 5 5 5 5 5 5 5 5 6 5 5 5 6 5 5 5 5 5 5 5 5 5 5 5 5 5 5 5 5 5 5 5 5 5 5 5 5 5 5 5 5 5 5 5 5 5 5 5 5 5 5 5 5 5 5 5 5 5 5 5 5 5 5 5 5 5 5 5 5 5 6 5 6 5 6 6 5 5 5 5 5 5 5 5 5 5 6 5 5 6 6 5 5 5 5 6 5 5 6 5 5 5 5 5 5 5 5 5 5 6 6 5 6 5 6 5 5 5 5 5 5 5 5 6 6 6 5 5 5 5 5 5 5 5 5 5 5 5 5 5 5 5 5 5 5 5 5 5 5 5 5 5 5 5 5 5 5 5 5 5 5 5 5 5 5 5 6 5 5 5 5 5 5 5 5 5 6 5 5 5 6 5 6 5 5 5 5 6 5 5 5 5 6 5 5 5 5 5 5 5 6 6 5 5 5 6 5 5 5 5 6 5 5 5 5 5 5 6 5 5 5 5 5 6 5 5 5 5 5 5 5 5 5 5 5 5 6 5 5 5 5 6 5 5 5 5 5 5 5 5 5 5 6 5 5 5 5 5 5 5 5 5 5 5 5 5 5 5 5 5 5 5 6 5 5 5 6 5 5 5 5 5 5 6 5 5 6 5 5 5 5 5 5 5 5 5 5 5 5 6 6 5 5 5 5 5 5 6 5 5 5 5 5 5 5 5 5 5 5 5 5 5 5 5 6 5 5 5 5 5 5 5 5 5 5 5 5 5 6 5 5 6 5 5 5 6 5 5 5 5 5 5 6 5 5 5 5 5 5 5 5 6 5 5 5 5 5 5 6 5 5 5 5 5 5 5 5 5 5 5 5 5 5 5 6 5 5 5 5 5 5 5 5 5 5 5 5 5 5 5 5 5 5 5 5 5 5 5 5 5 5 5 6 5 6 5 6 6 5 5 5 5 5 5 5 5 5 5 5 5 6 5 6 5 6 6 5 6 6 5 5 5 5 6 6 5 6 6 5 5 6 5 5 6 5 5 5 5 5 5 5 5 6 5 5 6 5 5 5 5 6 5 5 5 5 6 5 6 5 5 5 5 5 6 5 5 5 5 5 5 6 5 5 6 5 5 5 5 5 5 5 5 5 6 5 5 6 5 5 5 5 6 5 5 6 5 5 5 5 5 5 5 5 5 5 5 5 5 5 5 5 5 6 5 5 5 6 5 5 5 5 5 5 6 5 5 5 6 5 5 5 5 5 5 5 5 5 5 5 5 5 5 5 5 5 6 5 5 5 5 6 5 5 6 5 5 5 5 5 6 5 5 5 5 5 6 5 5 6 6 5 5 5 5 5 5 5 6 5 5 5 5 5 5 5 6 5 5 5 5 5 5 5 5 5 5 5 5 5 5 5 5 5 5 5 5 5 5 6 6 5 5 5 5 6 5 5 5 5 5 5 5 5 5 5 5 5 6 5 6 5 5 5 5 5 5 5 5 6 5 5 5 5 6 5 5 5 5 5 5 6 5 5 5 5 6 5 6 5 5 5 5 6 5 5 5 6 5 5 5 5 5 5 5 5 5 6 5 5 5 5 6 5 5 5 6 5 5 5 6 5 6 5 5 5 5 5 5 5 5 5 5 5 6 6 5 5 5 5 5 6 5 5 5 5 5 5 5 5 5 5 5 5 5 5 5 5 6 5 5 5 5 6 5 5 5 5 5 5 5 5 5 6 5 5 5 5 5 5 5 6 5 5 5 5 5 5 5 5 6 5 6 6 5 5 5 5 5 5 5 5 5 5 5 5 5 5 5 5 5 5 5 5 5 6 5 5 5 5 5 5 5 5 5 5 6 5 5 6 5 5 5 6 5 5 5 5 5 6 6 5 5 6 5 5 5 5 5 6 5 5 5 6 6 5 5 5 6 5 5 6 6 5 5 5 5 5 5 5 5 5 5 5 5 5 5 5 6 5 5 5 5 5 6 5 5 5 5 6 5 5 5 5 5 5 6 5 5 5 6 5 5 6 6 5 5 5 5 5 5 5 5 6 5 5 5 5 5 5 6 5 5 5 5 5 5 5 5 5 5 5 5 5 5 5 5 5 5 5 5 5 5 5 5 5 5 5 5 5 5 5 5 5 5 6 5 5 6 5 5 5 5 5 5 5 5 5 5 5 5 5 5 5 5 6 5 5 5 5 5 5 5 5 5 5 6 5 5 5 5 5 6 5 5 5 5 5 6 5 5 6 5 5 6 5 5 6 5 5 6 5 5 5 5 5 5 5 5 5 5 5 5 5 5 5 5 5 5 6 5 5 5 5 5 5 5 5 5 6 5 5 5 5 5 6 6 5 5 5 5 5 5 5 5 5 5 5 5 5 5 5 6 5 5 5 5 5 5 5 5 5 5 5 5 5 6 5 5 5 5 5 5 6 5 5 5 5 6 5 5 5 6 5 5 5 5 5 6 5 5 5 5 5 5 5 5 5 5 5 5 5 5 5 5 5 5 5 5 5 5 6 5 5 5 5 6 5 5 5 5 5 5 5 5 5 6 5 5 5 5 5 5 5 5 5 5 6 5 5 5 5 5 6 5 5 5 5 5 5 5 5 6 5 5 6 5 5 5 5 5 5 6 5 5 5 5 5 5 5 5 5 5 6 6 5 5 5 6 5 6 5 5 6 5 5 5 5 5 6 5 6 5 5 6 6 6 5 6 5 5 5 6 5 5 6 5 6 5 5 5 6 5 6 5 5 5 5 6 5 5 5 6 5 5 6 6 6 5 6 5 6 6 5 5 5 5 6 5 5 5 5 5 5 5 5 6 5 6 5 5 5 5 5 5 5 5 5 5 5 5 5 5 6 5 6 5 5 5 5 5 5 5 5 5 6 5 5 6 5 5 5 5 5 5 5 6 5 5 6 5 6 5 6 5 6 5 5 5 5 6 5 6 5 5 5 5 5 5 5 5 5 5 5 5 5 5 5 5 5 5 5 5 5 5 5 5 5 5 5 5 5 6 5 5 5 5 5 5 5 5 5 5 5 6 5 5 6 5 5 5 6 5 5 5 5 6 6 5 5 6 5 5 5 5 5 5 6 5 5 5 5 5 5 5 6 5 5 5 5 5 5 5 6 5 5 5 6 5 5 5 5 5 5 6 5 5 5 5 6 5 5 5 6 5 5 5 5 5 5 5 5 5 5 5 5 5 5 5 5 5 5 5 5 5 5 5 6 5 5 5 5 5 6 5 5 5 5 5 5 5 5 5 5 5 5 5 5 5 5 5 5 5 5 5 5 5 5 5 5 5 5 5 5 5 5 5 5 5 5 5 5 5 5 5 5 5 5 5 5 5 5 6 5 5 5 6 5 5 5 5 6 5 5 5 5 6 5 5 5 5 5 5 5 5 5 5 6 5 5 5 6 5 6 5 5 5 5 5 5 5 5 5 5 5 5 5 5 5 6 5 5 6 6 5 5 5 5 5 6 5 5 6 5 5 5 5 5 5 5 5 5 5 5 5 5 5 5 5 5 5 5 5 5 5 5 5 5 5 5 5 5 5 5 5 5 5 5 5 5 5 5 5 5 6 5 5 5 5 5 5 5 5 5 5 5 5 5 5 5 5 5 5 5 5 5 5 5 5 5 5 5 5 5 5 5 5 5 5 5 6 5 5 5 5 5 5 5 5 5 5 5 6 5 5 5 6 5 6 6 6 6 5 5 5 5 5 5 5 5 5 5 6 5 5 5 6 5 5 5 5 5 5 5 5 5 5 5 5 5 5 5 6 5 6 5 5 6 5 5 6 5 6 6 5 5 6 5 5 5 5 5 5 5 5 5 5 5 5 5 5 5 6 5 5 5 5 5 5 5 6 5 5 5 5 5 5 5 6 5 5 5 5 6 6 5 5 5 5 5 5 5 5 5 5 5 5 5 5 5 5 5 5 5 6 5 5 5 5 5 5 5 5 5 6 5 5 5 5 5 5 6 5 5 5 5 5 5 5 5 5 5 5 5 5 5 5 5 5 5 5 5 5 5 5 5 5 5 5 5 5 5 5 5 6 5 5 5 5 6 5 5 5 5 5 5 5 5 5 5 5 5 5 5 5 5 5 5 5 5 5 5 5 5 5 5 5 5 5 5 5 5 5 5 5 6 5 5 5 5 6 5 5 5 5 5 5 5 6 5 5 5 5 5 5 5 5 5 5 5 5 5 5 5 5 5 6 5 5 5 5 5 5 5 5 5 5 5 5 5 5 5 5 5 5 5 5 5 5 5 6 5 6 5 5 5 5 5 5 5 5 6 5 6 5 5 5 6 5 5 5 5 5 5 5 6 5 5 6 5 5 5 6 5 5 5 5 5 5 5 5 5 5 5 5 5 5 5 5 5 5 6 5 5 5 5 5 5 5 5 5 5 5 5 5 6 5 5 5 5 5 5 5 5 5 5 5 5 5 5 5 5 5 5 5 5 5 6 5 5 6 5 5 5 5 5 5 5 5 6 5 6 6 5 5 5 5 5 5 5 5 6 5 5 5 5 5 5 5 5 5 5 6 5 5 6 5 6 5 6 5 6 6 5 5 6 6 5 5 5 5 5 5 5 5 5 6 5 5 5 5 6 5 5 5 5 5 5 6 5 5 6 5 6 5 5 6 5 6 5 6 5 5 6 5 6 5 5 5 5 5 6 6 5 6 5 5 5 5 6 5 5 5 5 5 5 5 6 5 5 5 6 5 5 5 6 5 5 5 5 5 5 5 5 5 6 5 5 6 6 5 5 5 5 5 5 5 6 5 5 5 5 5 5 5 5 5 5 5 5 5 5 5 5 5 5 5 5 5 5 5 5 5 5 5 5 5 5 5 5 5 5 5 5 5 5 5 5 5 5 5 5 5 5 5 5 5 5 5 5 5 5 5 5 5 5 5 5 5 5 5 5 5 5 5 5 5 5 6 5 5 6 5 5 5 5 5 6 5 5 5 5 5 5 5 5 5 5 5 5 5 5 5 5 5 5 5 5 5 5 5 5 5 5 5 5 5 5 5 5 5 5 5 5 5 5 5 5 5 6 5 6 5 5 5 6 5 5 5 5 5 5 6 5 6 5 5 5 5 5 5 5 5 5 5 5 6 5 5 5 5 5 5 5 5 5 5 5 5 5 5 5 5 5 6 5 5 5 5 5 5 5 5 5 5 6 5 6 5 5 5 5 5 5 5 5 5 5 5 5 5 5 5 5 6 5 5 5 5 5 5 5 5 5 5 5 5 5 5 5 5 5 5 5 5 5 6 5 5 5 5 5 6 5 5 5 6 5 5 6 5 5 5 5 5 6 5 5 5 5 5 5 6 5 5 5 5 5 5 5 6 6 5 5 5 5 5 5 5 5 6 5 5 5 5 5 5 5 5 5 5 5 6 5 5 5 5 5 6 5 6 5 5 5 6 5 5 5 6 6 5 5 5 5 6 5 6 5 5 5 5 6 5 5 5 5 5 5 5 6 5 5 5 6 5 5 5 5 5 5 5 5 5 5 5 5 5 5 5 5 5 5 5 5 5 5 6 5 5 5 6 5 5 6 5 5 5 5 5 5 5 5 5 5 5 5 5 5 5 5 5 5 5 5 6 5 5 5 6 5 5 5 5 5 5 5 5 5 5 5 5 5 5 5 5 5 5 5 5 5 5 5 6 5 6 5 5 5 5 5 5 6 5 5 5 5 5 5 5 5 5 5 5 5 5 5 5 5 5 5 5 5 5 5 5 5 5 5 5 5 5 6 5 5 5 5 5 5 5 5 5 5 5 6 5 5 5 5 6 5 6 5 6 6 5 5 5 5 5 5 5 5 5 5 5 5 5 5 5 5 5 5 5 5 5 5 5 5 5 5 5 5 5 5 5 5 5 6 5 5 6 5 5 6 5 5 6 6 6 5 5 6 5 5 6 5 6 5 5 5 5 6 5 5 5 5 6 5 5 5 5 5 6 5 5 5 5 5 5 5 6 6 5 5 5 5 5 5 5 5 5 5 5 6 5 5 5 5 5 6 5 5 5 5 5 5 6 5 5 5 5 5 5 6 5 5 5 5 5 5 5 5 5 5 5 5 6 5 5 5 5 5 5 6 5 5 6 5 6 5 5 5 6 5 5 6 5 5 5 5 5 6 5 5 5 5 5 5 5 5 5 5 6 5 5 5 5 5 5 6 5 5 5 5 5 5 5 5 5 5 5 5 5 5 5 5 5 5 6 5 5 5 5 5 5 5 5 6 5 5 5 5 5 5 5 5 6 5 5 5 5 6 6 5 5 5 5 5 5 5 6 5 6 5 5 5 5 5 6 5 6 6 5 5 5 6 5 6 6 5 5 5 6 5 6 5 5 5 5 5 5 5 5 6 5 5 6 5 5 6 6 5 5 6 5 6 6 5 6 5 6 5 5 6 6 6 5 5 5 6 5 5 6 5 5 5 5 5 5 5 6 5 5 5 6 6 5 6 5 5 5 5 5 5 5 5 5 5 6 5 5 6 5 5 6 5 5 5 6 6 6 5 5 6 5 6 5 5 5 5 5 5 5 5 6 5 5 5 5 5 5 5 5 5 5 5 5 5 5 5 5 6 5 5 5 5 5 5 5 6 5 5 5 5 6 5 5 6 5 5 6 6 5 5 5 5 5 5 5 5 5 6 5 6 5 6 5 6 6 5 6 5 5 5 6 5 5 5 5 5 5 6 5 5 5 5 5 5 5 5 5 5 6 6 5 5 5 5 5 5 5 5 5 5 6 5 5 5 5 5 5 5 5 5 5 5 5 5 5 5 5 5 5 5 5 6 5 5 5 5 5 6 5 5 5 5 5 5 5 5 5 5 5 5 5 5 5 5 5 5 5 5 6 5 5 5 5 6 5 5 6 5 5 6 6 5 6 5 5 6 5 5 5 5 5 5 5 5 5 5 5 5 5 5 5 5 5 5 5 5 5 5 5 5 5 5 5 5 5 5 5 5 5 5 5 6 5 5 5 5 6 5 5 5 5 5 5 6 6 5 5 5 6 5 6 5 6 5 5 5 5 5 5 5 5 5 5 5 5 5 5 6 5 5 5 5 6 5 5 6 6 5 5 5 6 5 5 5 5 5 6 5 5 6 5 5 6 5 5 5 6 5 5 6 5 5 5 5 5 5 5 5 6 5 5 6 6 5 5 6 5 5 5 5 6 5 5 5 5 5 5 5 5 5 5 5 5 5 5 5 5 6 5 5 5 5 6 5 5 5 5 5 6 6 5 6 5 6 5 5 6 5 5 5 5 5 6 5 5 6 5 5 5 5 5 5 5 5 5 5 6 5 5 5 6 5 5 5 5 6 5 6 5 5 5 5 5 5 5 6 5 5 5 5 5 5 5 5 5 5 5 5 6 5 5 5 5 5 5 5 5 5 5 6 5 6 5 5 6 5 5 5 5 6 5 6 5 6 5 5 5 6 5 6 5 5 6 6 5 5 5 6 6 5 6 5 5 5 5 5 6 5 5 5 5 5 5 6 5 5 5 5 6 5 5 6 5 6 5 5 5 5 5 5 5 5 5 5 5 5 5 5 5 5 5 5 5 5 5 5 5 5 5 5 5 5 5 5 5 5 5 5 5 5 5 5 5 6 5 5 5 5 5 5 5 5 5 6 5 5 5 6 5 5 5 5 5 5 5 5 5 5 5 5 5 5 5 5 5 5 5 5 5 5 5 5 5 5 5 5 5 5 5 6 5 6 5 5 5 5 5 5 5 5 5 5 5 5 5 5 5 5 5 5 5 5 5 5 5 5 5 5 5 5 5 5 5 5 5 5 6 5 5 6 5 5 6 5 6 5 5 6 5 5 6 6 5 5 5 5 5 6 5 5 5 5 5 6 5 5 5 5 5 5 5 5 5 5 5 5 5 5 5 5 5 5 5 5 5 5 5 5 5 5 5 5 5 5 6 5 5 5 5 5 6 5 5 5 5 5 5 5 6 5 5 6 5 5 5 6 6 6 5 5 5 5 6 6 5 5 6 6 5 5 6 5 5 5 6 5 5 6 5 6 5 5 5 5 5 5 5 5 6 6 5 6 5 5 5 5 5 6 5 6 5 6 5 5 5 6 6 5 6 6 5 5 5 5 6 6 5 6 5 6 5 5 5 5 5 5 5 5 5 6 6 5 5 5 5 5 5 5 6 5 5 5 5 6 5 5 5 5 5 5 5 5 5 5 5 5 5 5 6 5 6 6 5 5 5 5 6 5 5 5 6 5 5 5 5 6 6 5 5 6 5 5 6 5 5 5 5 5 6 5 5 5 5 5 5 6 5 6 5 5 5 6 5 5 5 5 5 5 5 5 5 5 5 5 5 5 5 5 5 5 5 5 5 5 5 5 5 5 5 5 5 5 5 5 5 5 5 5 6 6 5 5 5 5 5 5 5 5 5 5 5 5 5 6 5 5 6 5 5 6 5 5 6 5 5 5 5 5 6 5 6 5 5 5 5 5 5 5 5 5 5 5 5 5 5 6 5 5 5 6 5 6 5 5 5 5 5 5 5 5 5 5 5 5 5 5 5 5 5 5 5 5 5 5 5 6 5 5 5 5 5 5 5 5 5 5 5 5 5 5 5 5 5 5 5 5 5 5 6 6 5 5 5 5 5 5 5 5 5 5 5 5 6 5 5 5 5 5 5 5 5 5 6 5 5 5 5 6 5 5 6 5 5 5 5 5 5 5 5 6 5 6 5 5 5 5 5 5 5 5 5 5 5 5 5 6 5 5 5 5 5 5 5 5 5 5 5 5 5 5 5 5 5 5 5 5 6 5 5 5 5 5 5 6 5 5 5 5 5 5 5 5 5 5 5 5 5 5 5 5 5 5 5 5 5 5 5 5 5 5 5 5 6 5 6 5 5 5 5 5 5 5 6 5 5 5 5 6 6 5 6 5 5 5 5 6 5 5 5 5 5 5 5 5 5 6 5 6 6 5 5 5 5 5 5 5 5 5 5 6 5 5 5 5 5 5 5 5 5 5 5 6 5 6 5 5 5 5 5 5 6 5 6 5 5 5 5 5 5 5 5 5 5 5 6 5 5 6 6 5 5 5 5 6 5 6 6 5 5 5 5 6 5 6 5 5 5 5 5 5 5 5 5 5 5 5 5 5 5 5 5 5 5 5 5 6 5 6 5 6 5 6 5 5 5 5 5 5 5 5 5 5 5 5 5 5 5 5 5 5 5 5 5 5 5 5 5 5 5 5 5 5 5 5 5 5 5 5 5 5 5 5 5 5 5 5 5 5 5 5 5 5 5 5 5 5 5 5 5 5 6 5 5 5 5 5 5 5 5 6 5 5 5 5 5 5 6 5 5 5 5 5 5 5 5 5 5 5 6 5 5 5 5 5 5 5 6 6 5 5 6 5 5 5 6 6 6 6 5 5 5 5 5 5 6 5 5 5 5 6 5 5 5 6 5 5 6 6 5 5 5 5 5 5 5 6 5 5 5 5 5 5 5 5 5 5 5 5 5 6 5 5 5 5 5 5 6 5 5 5 5 5 5 5 6 5 5 5 5 5 5 5 5 6 5 5 5 6 5 5 6 5 6 5 5 5 5 5 5 5 5 5 5 6 5 6 5 6 5 5 5 5 5 5 6 5 5 5 5 5 5 6 5 5 5 5 5 5 5 5 5 5 5 5 5 6 6 5 5 5 5 6 5 5 5 6 5 5 6 5 5 6 5 5 5 5 5 6 5 5 5 5 5 6 5 5 5 5 5 6 5 6 5 6 5 5 5 5 5 5 5 5 5 5 6 5 5 5 5 5 5 5 5 5 5 5 5 5 5 6 5 5 5 5 5 6 5 5 6 5 5 5 6 5 5 5 6 5 5 5 5 5 5 5 5 5 5 5 5 5 5 6 5 5 5 5 5 5 5 5 5 5 5 5 5 5 5 5 5 5 5 5 5 5 5 6 6 6 5 5 5 5 6 5 5 5 5 5 5 5 5 5 5 5 5 5 5 5 5 5 5 5 5 5 5 5 5 5 5 5 5 5 5 5 5 5 5 5 5 5 5 6 6 5 5 6 5 5 5 5 5 6 5 5 5 5 6 5 5 5 5 5 6 5 6 5 5 5 6 5 6 5 5 6 6 5 5 5 5 5 5 5 6 5 5 5 5 6 5 5 5 5 5 5 6 5 5 5 5 5 5 5 5 5 6 5 5 5 5 5 5 5 5 5 5 5 5 5 5 5 5 5 6 5 5 5 5 5 5 6 5 5 5 5 5 5 5 6 5 5 5 5 6 5 5 5 5 5 6 5 5 5 5 5 5 6 5 5 6 5 5 5 5 6 5 5 5 5 6 5 5 5 5 5 5 5 5 5 5 5 5 5 5 5 5 5 5 5 5 5 5 5 5 5 5 6 5 5 5 5 6 5 5 5 5 5 5 6 6 5 5 5 5 5 5 5 5 5 6 6 5 5 5 5 5 6 5 5 5 5 5 5 6 5 5 5 6 5 5 6 5 5 6 6 5 5 5 6 6 5 5 5 6 5 5 5 5 5 5 5 5 5 5 5 5 5 5 5 5 5 5 5 5 5 6 5 5 5 5 5 6 6 5 6 5 5 5 6 5 5 5 5 5 5 5 5 5 5 5 5 5 5 5 5 5 5 5 5 5 5 5 5 5 5 5 5 5 5 5 6 5 5 6 5 5 5 5 5 5 5 5 5 5 5 5 5 5 5 5 5 5 5 6 6 5 6 5 5 5 5 5 5 5 5 5 5 5 5 5 5 5 6 5 6 6 5 5 6 5 6 5 6 5 5 5 6 5 5 5 6 6 6 5 5 5 6 5 5 6 5 5 5 6 5 5 5 5 6 5 5 5 5 6 5 5 5 6 6 6 5 5 5 5 5 5 5 5 5 6 5 5 5 5 5 5 5 5 5 5 5 5 5 5 5 5 5 5 6 5 5 5 5 6 5 5 5 5 5 5 5 5 5 6 5 5 5 5 5 5 5 5 5 5 5 5 5 5 5 5 5 5 5 5 6 5 5 5 5 6 5 6 5 5 5 5 5 5 5 5 6 5 5 5 5 5 5 5 5 5 5 5 5 5 5 5 5 5 5 5 5 5 6 5 5 6 5 5 5 5 5 5 5 5 5 5 5 5 5 5 5 5 5 5 5 5 6 5 5 5 5 6 6 5 5 5 5 5 5 5 5 6 5 5 6 5 6 5 5 5 6 6 5 5 6 6 5 5 5 5 6 5 6 5 5 5 5 5 5 5 5 5 5 5 5 5 5 5 5 5 6 5 5 5 6 5 5 5 5 5 6 5 5 5 5 5 5 5 5 6 5 5 5 6 5 5 5 5 5 6 5 6 6 6 5 5 5 5 6 5 5 5 6 5 5 5 5 6 6 5 5 6 5 6 5 6 5 5 5 5 5 5 5 5 5 5 5 6 5 5 6 5 6 6 5 6 6 5 5 6 5 5 5 6 5 6 5 5 5 6 5 5 6 5 6 5 5 5 5 5 5 5 5 5 5 5 5 5 5 5 5 5 5 5 5 5 5 5 5 5 5 5 5 5 6 5 5 5 5 5 6 6 6 5 5 5 5 6 5 5 5 5 5 5 5 5 5 5 5 5 5 5 5 5 5 5 5 5 5 5 5 5 5 5 5 5 5 5 5 5 5 5 5 5 5 5 5 5 6 5 5 5 5 6 5 5 5 5 5 5 5 5 5 5 5 6 6 5 5 5 5 5 5 6 5 6 5 5 5 5 5 5 5 5 5 5 5 5 5 5 5 5 5 5 5 5 6 5 5 5 5 6 6 5 6 5 5 5 5 5 5 5 5 5 5 5 5 5 5 5 5 5 5 5 5 5 5 5 5 6 5 5 5 5 5 5 5 5 5 5 5 5 5 5 5 5 5 5 5 5 5 5 5 5 5 5 5 5 6 5 5 5 5 5 5 5 5 5 5 5 5 6 5 5 5 5 5 5 6 5 5 5 5 6 6 6 5 5 5 5 5 5 5 5 5 5 6 5 5 5 5 5 5 5 5 5 5 5 5 5 5 5 6 5 5 5 5 6 5 5 5 6 5 5 5 5 5 5 5 6 5 5 5 6 5 5 5 5 5 6 6 5 5 5 6 6 5 5 5 5 6 5 6 5 6 5 6 5 5 6 6 5 6 5 5 6 5 5 6 5 5 6 5 6 5 6 5 5 6 5 5 6 5 6 6 5 6 5 5 5 6 5 5 5 5 5 5 5 5 5 5 5 6 5 5 5 5 5 5 5 5 5 5 5 5 5 5 5 5 5 5 6 5 5 5 6 5 5 6 5 6 5 5 5 6 5 6 5 6 5 5 6 5 5 5 5 5 6 5 6 5 5 5 5 5 5 5 5 5 5 6 5 6 5 5 5 5 6 5 5 6 5 6 6 5 5 5 5 5 5 6 5 5 6 5 5 5 5 6 5 5 5 6 6 5 5 5 6 5 6 5 5 5 5 5 5 5 5 5 6 5 5 6 5 5 5 5 5 5 5 5 5 5 5 5 5 5 5 5 5 5 5 5 5 5 5 5 5 5 5 5 5 5 5 5 5 5 5 5 5 5 5 5 5 5 5 5 5 5 5 5 5 5 5 5 5 5 5 5 5 5 5 5 5 5 5 5 5 5 5 5 5 5 5 5 5 5 5 5 5 5 5 5 5 5 5 5 5 5 5 6 5 5 5 5 5 5 5 5 5 6 5 6 5 5 5 5 5 5 5 5 5 5 5 5 5 5 5 5 5 5 5 5 5 5 5 5 5 5 5 5 5 5 5 5 5 5 5 5 5 5 5 5 5 5 5 5 5 5 5 5 6 5 5 5 6 5 6 5 6 5 5 5 5 5 5 5 5 5 5 5 5 5 5 6 6 6 5 5 6 5 5 5 5 5 5 5 5 6 5 6 5 6 5 5 5 6 5 5 5 5 6 5 5 5 5 5 5 5 5 5 5 5 5 5 5 5 5 5 5 5 5 6 5 5 6 5 5 5 5 5 5 5 5 5 5 6 6 5 5 5 5 5 5 5 5 5 5 5 5 5 5 6 5 5 5 5 6 5 5 5 5 5 5 5 5 5 5 5 6 5 5 5 5 5 5 5 5 5 5 5 5 5 5 5 5 5 5 5 5 6 5 5 5 5 5 6 6 5 5 5 5 5 5 5 5 5 5 5 5 5 5 5 5 5 6 6 5 6 5 5 5 5 5 5 5 5 5 6 5 6 5 6 5 5 6 6 6 5 5 6 5 5 6 5 6 5 5 5 5 5 5 6 5 5 5 5 6 5 5 5 5 5 5 5 5 5 5 5 5 5 5 5 5 5 5 5 5 5 5 5 5 5 5 5 5 5 5 5 5 5 5 5 5 5 5 5 5 5 5 5 5 6 5 5 5 6 5 5 5 5 5 5 5 5 5 5 5 5 5 5 5 5 5 5 5 6 5 5 5 5 6 5 5 5 5 5 5 5 5 5 5 6 5 5 5 5 6 6 6 5 5 6 5 5 6 5 5 5 5 5 5 5 5 5 6 5 5 5 5 5 6 5 5 5 5 5 6 5 5 5 5 5 5 6 6 5 5 6 5 5 6 5 5 5 6 5 5 5 5 5 5 6 5 6 6 5 5 5 5 5 5 5 6 6 5 5 5 5 5 5 6 5 5 6 5 5 5 5 5 5 5 5 5 5 6 5 6 5 5 5 5 6 5 5 5 5 5 5 5 5 5 5 5 5 6 5 5 5 5 5 6 5 5 5 5 6 5 5 5 6 5 6 5 5 6 5 6 5 5 5 6 6 6 5 6 5 6 6 5 6 5 6 5 6 5 6 5 5 5 6 5 5 6 6 5 5 5 6 6 6 6 5 5 5 6 5 6 6 5 6 5 5 5 6 5 5 5 5 6 5 5 5 6 6 5 5 5 5 5 5 6 5 5 5 5 5 5 5 5 5 5 5 5 5 5 5 5 5 5 5 5 5 5 5 5 6 6 5 5 5 5 5 5 5 6 6 5 6 5 5 5 6 5 5 5 5 5 5 5 5 5 6 6 5 5 6 5 5 5 6 5 5 5 5 6 5 5 5 5 5 6 6 5 5 6 5 5 6 5 5 6 5 5 5 5 5 5 6 5 6 5 5 6 5 6 5 6 5 5 5 6 5 6 5 6 5 5 6 5 5 6 5 6 6 5 5 6 6 5 6 5 5 5 5 5 5 6 6 5 5 5 5 5 6 5 5 5 5 6 5 5 6 5 5 5 5 5 6 5 5 5 5 5 5 5 5 5 5 5 5 5 5 5 6 5 5 5 5 5 5 5 5 6 5 6 5 5 5 5 5 6 5 6 5 5 6 5 5 6 5 5 6 5 5 5 5 5 5 5 5 6 5 5 5 5 5 5 5 5 5 5 5 5 5 5 5 6 5 5 5 5 5 5 5 6 5 5 6 5 5 5 5 6 5 5 5 5 5 5 5 5 5 5 5 5 5 6 5 5 5 5 6 5 5 5 5 5 5 6 6 5 5 5 5 5 6 5 6 5 5 5 5 5 5 6 5 5 6 5 5 5 5 5 5 5 5 5 6 5 5 5 5 6 5 5 5 5 5 5 5 5 6 5 6 5 5 6 5 5 6 5 5 5 5 5 5 5 5 5 5 6 5 5 5 5 5 5 5 5 5 5 5 5 5 5 5 5 5 5 5 5 5 5 5 5 5 5 5 5 5 5 5 5 5 5 5 5 5 5 5 5 5 5 5 5 5 5 5 5 5 5 6 5 5 6 6 5 6 5 5 5 6 5 5 5 5 5 5 5 5 5 5 5 5 6 5 6 5 5 5 5 5 5 5 5 5 5 5 5 5 5 5 5 5 5 5 5 5 5 5 5 5 5 5 5 5 5 6 5 5 5 5 5 5 6 5 5 6 5 5 5 6 5 5 6 5 5 5 6 6 6 5 5 6 5 6 6 5 5 6 5 5 6 5 5 6 5 6 5 6 6 5 5 6 6 6 5 5 5 5 5 5 5 5 5 6 5 5 5 5 5 5 5 5 5 5 5 5 6 6 6 5 6 5 6 6 5 5 5 6 6 6 5 5 5 5 6 6 6 5 5 5 5 5 5 5 6 5 6 5 5 6 5 6 5 5 5 5 5 5 5 5 5 6 5 5 5 5 5 5 5 5 5 5 5 5 5 5 5 5 5 5 5 5 5 5 5 5 5 5 6 5 5 5 5 5 5 5 5 5 5 5 5 5 5 5 5 5 5 5 5 5 6 5 5 5 5 5 5 6 5 5 6 5 5 6 5 5 5 5 5 5 6 5 5 5 5 5 5 5 5 6 5 5 5 5 6 5 5 5 5 5 5 5 5 5 5 5 5 5 5 5 5 5 5 5 5 5 5 5 5 5 5 5 5 5 5 5 5 5 5 5 5 5 5 5 5 5 5 5 5 5 5 5 5 5 5 5 5 5 5 6 5 5 5 6 5 5 5 5 5 5 5 5 5 5 5 6 5 5 5 6 5 5 5 5 5 5 5 5 5 5 5 6 5 5 5 5 5 6 6 5 5 5 5 5 6 5 5 5 5 5 5 5 5 5 5 5 5 5 5 5 5 5 5 5 6 5 5 5 5 6 6 5 5 5 5 5 5 6 5 5 5 5 5 5 5 6 5 5 5 5 5 5 6 6 5 5 5 6 5 6 5 5 5 5 5 5 5 5 5 6 5 5 5 5 5 5 5 5 5 5 6 5 5 5 5 5 5 5 5 5 5 5 5 5 5 5 6 6 5 5 5 5 6 5 5 6 5 5 5 5 5 5 5 5 5 5 5 5 5 5 6 5 5 5 5 5 5 6 5 5 5 5 5 5 5 5 5 5 5 5 5 5 5 5 5 6 5 5 5 5 5 5 5 5 6 5 5 5 5 5 5 5 5 5 5 5 6 5 5 5 5 6 5 5 5 5 5 5 5 5 6 5 5 5 5 6 5 6 6 5 6 5 5 6 5 5 5 5 5 5 5 5 5 5 5 5 5 5 5 5 6 6 5 5 5 5 5 5 5 6 5 5 6 6 5 5 5 5 6 6 5 5 6 5 5 6 5 5 5 5 5 5 6 6 5 5 5 5 5 5 6 5 5 6 5 5 5 5 5 5 6 5 5 5 6 6 6 6 6 5 5 5 6 5 5 5 5 6 5 5 5 5 5 5 5 5 5 5 5 5 5 5 5 5 5 5 5 5 5 5 6 5 5 5 5 5 5 5 5 5 6 5 5 5 6 5 5 6 5 5 5 5 5 5 5 5 5 5 5 5 5 5 5 6 5 6 5 5 5 5 5 6 5 5 5 5 6 5 6 5 5 5 5 5 5 5 5 5 5 5 5 5 6 5 5 5 5 5 5 5 5 5 5 5 5 5 5 5 5 5 5 5 5 5 5 5 5 6 5 6 5 6 5 5 5 5 5 5 5 5 5 5 6 5 6 5 5 5 5 6 5 5 5 5 6 5 5 5 5 5 6 5 5 6 5 5 5 5 5 5 5 5 5 5 6 5 6 5 5 5 5 5 5 5 5 5 5 5 5 5 5 5 5 5 5 5 5 5 5 5 5 5 5 5 5 5 5 5 5 5 5 6 5 6 5 5 6 5 5 5 5 6 5 5 5 5 5 5 5 5 5 5 5 5 5 5 5 5 5 5 5 5 6 5 5 5 5 5 5 5 5 5 5 5 5 5 5 5 5 5 5 6 6 5 6 5 5 5 5 5 5 5 5 5 5 5 5 5 5 5 5 5 5 5 5 5 5 5 5 5 5 5 5 6 5 5 5 5 5 5 6 5 5 6 5 6 5 5 6 5 5 5 5 5 5 5 5 6 5 5 5 5 6 5 5 5 5 6 5 6 5 5 5 5 5 6 5 5 5 5 5 5 6 6 5 5 5 5 5 6 5 6 5 5 5 5 5 5 5 5 5 5 5 5 5 5 5 5 5 5 5 5 6 5 5 5 5 5 5 6 5 5 5 6 6 5 5 5 5 5 5 5 5 5 5 5 5 5 5 5 5 5 5 5 5 5 5 5 5 5 5 6 5 5 5 5 6 5 5 6 5 5 5 5 5 5 5 5 5 5 5 6 5 5 5 5 5 5 5 5 5 5 5 5 5 5 5 5 5 5 5 6 5 6 5 5 5 6 5 5 5 6 5 5 5 6 6 5 5 5 6 5 5 5 6 5 5 6 5 6 5 5 5 6 5 6 5 5 6 6 6 6 5 5 5 6 6 6 6 5 5 5 5 5 6 5 5 6 5 5 5 5 6 5 5 6 5 5 6 5 5 5 5 5 6 5 5 5 5 6 5 5 5 5 5 5 5 5 5 5 5 5 5 6 5 5 5 5 5 5 6 5 6 5 6 5 5 5 5 5 5 5 5 5 5 5 5 5 6 5 5 5 5 5 5 5 5 5 5 5 5 5 5 5 5 5 5 5 5 5 5 5 6 5 5 5 5 5 5 5 5 5 5 5 6 5 5 5 5 5 5 5 5 6 5 5 5 5 5 5 5 5 5 5 5 5 5 5 5 6 5 5 5 5 5 6 5 6 5 5 5 6 6 5 6 5 5 6 5 5 5 5 5 5 6 5 5 5 6 5 5 5 5 5 5 5 6 6 5 5 6 5 6 5 5 5 6 5 5 6 5 5 6 6 6 5 5 6 5 5 5 5 5 5 5 6 5 5 5 5 6 5 5 5 5 5 5 5 6 5 5 5 5 5 6 5 5 5 6 5 5 5 5 6 6 6 5 5 6 6 5 6 5 5 5 5 6 5 5 5 5 5 5 6 6 5 5 5 5 5 5 6 5 5 5 5 5 5 6 5 6 5 5 5 6 5 5 5 6 5 5 5 5 6 5 6 5 5 5 5 6 5 5 6 5 5 6 5 5 5 5 6 5 5 5 5 5 5 5 5 6 5 5 5 5 5 5 5 5 5 5 5 5 5 5 5 5 5 5 5 5 6 5 5 5 5 5 5 5 6 5 6 5 5 5 5 5 5 5 5 5 6 5 6 5 6 5 5 5 6 5 5 5 5 5 5 5 5 6 5 5 5 5 5 5 6 5 5 5 5 6 5 5 5 5 5 5 5 5 5 5 6 6 5 5 5 5 5 5 5 5 5 5 5 5 5 5 5 5 5 5 5 5 5 5 5 5 5 5 5 6 5 5 5 5 5 5 5 5 5 5 5 6 5 5 5 5 5 6 6 5 5 5 5 5 5 5 5 5 5 5 5 5 6 5 5 5 5 5 5 5 5 5 6 5 5 6 5 6 5 5 5 5 5 5 6 5 6 5 6 5 5 6 5 5 5 5 6 5 5 5 5 5 5 5 5 5 5 5 5 6 5 5 5 6 5 5 5 5 5 5 5 5 5 6 5 5 5 5 6 5 5 5 5 5 5 6 5 5 5 5 5 5 5 5 5 5 5 5 5 5 5 5 5 5 5 5 5 5 6 5 5 5 5 5 6 5 5 6 5 5 5 5 5 6 6 5 5 5 5 5 5 5 6 5 5 5 5 6 5 5 5 5 5 5 5 6 5 5 5 6 5 6 5 5 6 5 5 6 6 5 6 5 5 5 6 5 6 5 6 5 5 5 5 5 5 6 6 5 5 5 5 5 5 5 5 5 5 6 6 5 5 5 5 5 5 5 5 6 6 5 5 6 5 6 5 5 5 5 5 5 5 6 5 6 5 5 5 5 5 5 6 5 5 5 6 5 5 5 5 5 6 5 5 5 5 5 5 5 5 5 5 6 6 5 5 6 5 5 5 6 5 5 6 5 5 5 5 5 5 5 5 6 5 5 5 5 5 5 5 5 5 5 5 5 5 5 5 5 5 5 5 5 6 5 6 6 5 5 5 6 5 6 5 5 5 5 5 5 5 6 5 5 5 5 6 5 5 5 5 5 6 5 5 5 5 6 5 6 5 5 5 5 6 5 5 5 5 6 5 5 5 5 5 5 5 5 5 5 6 5 5 5 5 5 5 5 5 5 5 5 5 5 5 5 5 5 5 5 5 5 5 5 5 5 5 5 5 5 5 5 5 5 6 5 5 6 5 5 5 6 6 6 5 6 6 6 5 5 5 6 6 5 5 5 5 5 5 6 5 5 6 5 6 5 5 5 5 5 6 5 5 5 5 5 5 5 5 5 5 5 5 5 5 5 5 5 5 5 5 5 5 6 5 5 6 5 5 6 5 5 5 5 6 5 6 5 5 6 5 5 5 5 5 6 5 5 5 5 5 5 5 6 5 5 5 5 5 6 5 5 6 5 6 5 5 5 5 5 5 5 5 5 6 6 6 5 5 6 5 5 5 5 5 5 5 5 5 5 6 5 5 5 5 5 5 5 5 5 6 5 5 5 5 5 6 5 6 5 5 5 5 5 5 6 6 5 5 5 5 5 5 6 5 5 5 5 5 5 5 5 6 5 5 6 6 5 5 5 5 5 5 5 5 5 5 5 6 5 5 5 5 5 5 5 5 5 5 5 5 5 5 5 5 5 5 6 5 5 5 5 5 5 5 5 5 6 5 5 5 6 6 5 5 6 5 5 5 5 5 5 5 5 5 5 5 5 5 5 5 5 5 5 5 6 5 5 5 6 5 5 5 5 5 5 6 5 5 5 5 6 5 5 5 5 6 5 5 5 5 5 5 5 5 5 5 5 5 5 6 5 5 5 5 5 5 5 6 6 5 5 5 6 6 5 5 6 6 6 5 5 5 6 5 5 5 5 5 5 6 5 5 6 5 5 6 5 5 6 5 6 6 5 5 5 5 5 6 5 6 5 5 6 5 5 5 6 5 5 5 5 5 5 5 5 5 5 5 5 6 5 6 5 5 5 5 6 6 5 6 5 5 5 6 5 5 5 6 5 5 5 6 5 6 5 5 6 6 5 5 6 5 5 5 5 6 5 5 5 5 5 6 5 6 6 5 5 5 5 5 6 5 5 6 6 6 5 6 5 6 5 5 5 6 5 5 5 5 6 5 5 5 6 5 5 5 5 5 5 5 6 5 5 6 5 5 5 6 5 5 5 6 5 6 5 5 5 5 6 5 5 5 5 5 5 5 5 5 5 5 5 5 5 5 5 6 5 5 5 5 5 6 5 5 6 5 5 5 6 6 6 5 5 5 5 6 5 5 5 5 6 5 5 5 6 5 5 5 6 5 5 5 5 6 5 5 5 5 5 5 6 5 5 5 5 5 6 5 5 5 5 5 5 5 5 6 5 5 6 5 5 5 5 5 6 5 5 5 5 5 5 5 5 5 6 5 5 5 6 5 5 5 5 5 5 5 6 6 5 5 5 5 5 6 5 5 5 5 5 5 6 5 5 5 6 5 5 5 5 6 5 5 5 5 5 5 5 5 5 5 5 5 5 5 5 5 5 5 5 5 5 5 5 5 5 5 6 6 5 5 6 5 5 6 5 5 5 5 5 5 5 5 5 5 5 6 5 5 5 6 5 5 5 5 6 6 5 5 6 5 5 5 5 5 5 5 5 6 5 5 5 5 5 6 6 5 5 5 5 5 5 5 6 5 5 5 5 5 5 5 5 5 5 5 5 5 6 5 5 5 5 6 5 6 5 5 5 5 5 5 5 5 5 5 5 6 5 5 5 5 5 5 5 5 5 5 6 5 5 5 5 6 5 5 5 5 5 5 5 5 5 5 5 5 5 5 5 5 5 5 5 5 5 6 5 5 5 5 5 6 5 5 6 5 5 5 5 5 5 5 5 5 5 5 5 5 5 5 6 5 5 5 5 5 5 5 6 5 5 5 5 5 5 5 5 5 6 5 5 5 5 5 5 5 5 5 6 5 5 5 5 5 5 6 5 5 5 5 6 5 5 5 5 5 5 5 5 5 5 5 5 5 5 5 6 5 5 6 5 6 5 5 5 5 5 5 5 5 5 5 5 5 5 5 5 6 5 5 5 5 5 5 6 5 5 5 5 5 5 5 5 5 5 5 5 5 5 5 5 5 5 5 6 5 5 6 5 5 5 5 5 5 6 5 6 5 5 6 5 5 5 5 5 6 5 5 5 5 5 6 5 5 5 5 5 5 6 5 5 5 5 5 5 6 5 5 6 5 5 5 5 6 5 5 5 5 5 6 5 5 5 5 5 5 5 6 5 5 5 5 5 5 5 6 5 5 5 5 5 5 6 5 5 5 5 5 5 5 5 5 5 5 6 5 5 5 5 6 6 5 5 6 5 5 5 5 5 5 6 5 5 5 5 5 5 5 5 5 5 5 5 5 5 5 5 5 5 6 5 5 5 5 6 5 5 6 5 5 5 5 5 5 5 5 5 5 5 5 5 5 5 5 5 5 5 6 6 5 5 5 5 5 5 6 5 6 5 5 5 5 5 5 5 5 5 5 5 5 5 5 5 5 5 5 5 5 5 5 5 5 5 5 5 5 5 5 5 6 5 5 5 6 5 5 5 5 6 5 5 5 5 5 6 5 5 5 5 5 5 5 5 5 5 5 5 5 5 5 5 5 5 5 5 5 5 5 5 5 5 5 5 6 5 6 5 5 5 5 5 5 5 5 6 5 5 5 5 6 5 5 5 5 5 5 5 5 5 5 5 6 5 5 5 5 5 5 5 5 5 5 5 5 5 5 5 5 5 5 6 5 5 5 5 5 5 5 5 5 5 5 5 5 5 5 5 5 5 5 5 5 5 5 5 6 5 5 5 5 5 5 5 5 5 5 5 5 5 5 5 5 5 5 5 5 5 5 5 5 5 5 5 5 5 6 5 5 5 5 5 5 6 5 6 5 6 5 5 6 5 5 6 6 5 5 6 5 6 5 5 6 5 5 6 5 5 5 5 5 5 5 5 5 5 5 5 5 6 6 6 5 5 5 6 5 5 5 5 5 5 5 5 5 5 5 5 5 5 6 5 5 5 5 5 5 5 5 5 5 5 5 5 6 6 5 5 5 5 5 5 5 5 5 5 5 5 5 5 6 5 5 6 5 5 6 6 5 6 5 5 5 6 5 5 5 5 5 5 5 6 5 5 5 5 5 6 6 5 5 6 5 5 5 5 5 5 5 5 5 5 5 5 5 5 5 5 5 5 6 6 5 6 5 5 6 5 5 5 5 5 5 5 6 5 5 5 5 5 5 5 5 5 5 6 5 5 6 5 6 5 5 5 5 5 5 5 5 5 5 5 5 5 5 5 5 5 5 5 5 5 6 5 5 5 5 5 5 5 5 5 5 5 5 5 5 5 5 5 5 5 5 5 5 5 5 5 5 5 5 5 5 5 5 5 5 5 5 5 5 5 5 5 5 5 5 5 5 5 5 5 5 5 5 5 5 5 5 5 5 5 5 5 6 5 5 6 5 5 5 6 5 5 5 5 5 5 5 6 5 5 5 5 5 5 5 5 5 5 6 5 5 5 5 5 6 6 5 6 5 5 6 5 6 5 5 5 5 5 5 6 5 5 5 5 5 6 6 5 5 5 5 5 6 6 5 5 5 5 5 5 5 5 5 5 5 5 5 5 5 5 5 5 5 5 5 5 5 5 5 5 5 5 5 5 5 5 5 5 5 5 5 5 5 5 5 5 5 5 6 5 5 5 5 5 5 5 5 5 5 5 5 5 5 5 5 6 5 5 6 5 5 5 5 6 5 6 5 6 5 5 6 5 5 5 5 5 6 5 5 5 5 5 6 5 5 5 5 5 6 6 5 6 5 5 6 5 5 5 5 6 6 5 5 5 5 5 5 5 5 6 5 5 5 6 5 5 5 5 5 5 5 5 6 5 5 5 5 5 6 5 5 6 5 5 5 5 5 5 5 5 5 5 5 5 5 5 6 5 5 6 5 5 6 5 5 5 5 6 5 5 5 5 6 5 5 5 5 5 5 5 5 5 5 5 6 5 6 5 5 6 5 5 5 5 6 5 5 5 5 5 5 5 5 6 6 5 5 6 6 5 5 5 5 5 5 6 5 5 5 5 5 5 5 5 5 5 5 5 5 5 5 5 5 5 5 6 5 5 5 5 5 5 5 5 6 5 5 5 5 6 5 5 5 5 5 5 5 5 6 5 5 5 6 5 6 6 5 5 5 6 6 5 6 5 5 5 5 5 5 5 5 5 5 5 6 5 5 5 5 5 5 5 6 5 5 5 5 5 5 6 5 5 6 5 6 5 5 5 5 5 5 5 5 5 5 5 5 5 5 5 5 5 6 5 5 5 5 5 5 5 5 5 5 5 5 5 5 5 5 5 5 5 5 5 5 5 5 5 5 5 5 5 5 5 6 5 5 5 5 5 5 5 5 5 5 5 5 5 5 6 6 5 6 5 5 5 6 6 5 5 5 5 6 5 5 5 5 5 5 5 5 5 5 5 5 5 6 5 5 5 5 6 5 6 5 5 5 5 5 5 6 5 5 5 5 5 5 6 5 5 6 6 5 5 5 5 5 5 5 5 5 5 5 5 5 5 5 5 5 5 6 6 5 5 5 5 5 5 6 5 5 5 6 5 5 5 5 5 5 6 5 5 5 5 5 5 5 5 5 5 5 6 5 5 5 5 5 5 6 5 5 5 5 5 5 5 5 5 5 6 5 5 5 5 5 5 5 5 5 5 5 5 5 5 5 5 5 5 6 6 5 5 6 5 5 5 5 5 5 5 5 5 5 5 5 5 6 5 6 5 5 5 5 5 5 5 5 5 5 5 5 5 6 5 5 5 5 5 5 5 5 5 5 5 5 5 6 5 5 5 5 6 5 5 5 5 5 5 6 5 5 5 5 5 5 5 5 5 5 5 5 5 5 5 5 5 5 5 5 5 5 5 5 5 5 5 5 5 5 5 5 5 5 5 5 6 5 5 5 5 6 5 5 5 5 5 5 5 5 5 5 5 6 5 5 5 6 5 5 5 5 5 5 5 5 5 5 5 5 5 6 5 5 6 5 5 5 5 5 5 5 5 5 5 6 5 5 6 5 5 5 6 5 
</DataArray>
<DataArray type="Float64" Name="stress" NumberOfComponents="9" format="ascii">
0.35450794420497034 -9.3726286789606092 0 -9.3726286789606092 1220.1548903644216 0 0 0 0 85.951044649618865 28.649399844041909 0 28.649399844041909 535.59286396342941 0 0 0 0 -189.57907456180331 -1612.6428355314492 0 -1612.6428355314492 3477.8160320546917 0 0 0 0 -0.56823005697271989 -0.19469116077598869 0 -0.19469116077598869 18.818436346635281 0 0 0 0 -83.004861575681304 -425.30433013498077 0 -425.30433013498077 201.05357840946817 0 0 0 0 1125.5719076706623 278.4703683376174 0 278.4703683376174 2953.3738461114262 0 0 0 0 832.35025732061558 -665.11094906080689 0 -665.11094906080689 65.965279615658801 0 0 0 0 -1199.6510650681403 -2106.0618968466952 0 -2106.0618968466952 2696.5931617014357 0 0 0 0 -0.25240754182958636 -4.5060201725436144 0 -4.5060201725436144 20.847643646125789 0 0 0 0 342.66181871094579 1220.8581242205873 0 1220.8581242205873 1551.1096841452163 0 0 0 0 -1012.6986610304966 470.91933048140709 0 470.91933048140709 1505.1915962064231 0 0 0 0 -2.0459502977605935 -5.1889835423747854 0 -5.1889835423747854 39.425684483933082 0 0 0 0 38.864586505754232 1209.4131522884927 0 1209.4131522884927 568.25905083446378 0 0 0 0 849.46401719611708 453.70777468295 0 453.70777468295 1133.3758968459588 0 0 0 0 54.930907580190834 947.27653778789318 0 947.27653778789318 1303.9698469991999 0 0 0 0 809.19282288325121 2358.5990316307889 0 2358.5990316307889 3493.2452844040308 0 0 0 0 112.68727769688333 1348.8190597848989 0 1348.8190597848989 2081.1768621466399 0 0 0 0 193.44887322523587 462.64426312381693 0 462.64426312381693 2188.3148308861782 0 0 0 0 231.22814800740827 145.60050914652311 0 145.60050914652311 2713.0592602406978 0 0 0 0 51.685455738073358 929.56542922713015 0 929.56542922713015 3501.118055567691 0 0 0 0 -261.63205182288539 -235.75093446097526 0 -235.75093446097526 2981.4570516181921 0 0 0 0 -526.42394098810439 -318.32952913162808 0 -318.32952913162808 3499.4261876079836 0 0 0 0 -209.78957780123642 -42.244355110022298 0 -42.244355110022298 3498.5778045214297 0 0 0 0 -269.43082388088112 -529.76573148635362 0 -529.76573148635362 2654.4634004356922 0 0 0 0 -229.10215799350419 -170.71998504934163 0 -170.71998504934163 2443.2653282392057 0 0 0 0 -96.313896796513177 -156.91824150701905 0 -156.91824150701905 2415.4104833366946 0 0 0 0 108.5085672673622 -408.2915323476409 0 -408.2915323476409 2543.5420057423762 0 0 0 0 243.87210531061936 -251.61845920100131 0 -251.61845920100131 2383.287992152138 0 0 0 0 59.246186251473603 -424.30502249076017 0 -424.30502249076017 2814.2980999126448 0 0 0 0 -177.07583214058653 -80.127671945723705 0 -80.127671945723705 2487.9611697864066 0 0 0 0 -96.585762739609208 -89.523104585694455 0 -89.523104585694455 2044.6996868280912 0 0 0 0 729.48330765526771 -158.88648075248057 0 -158.88648075248057 1832.3528673883993 0 0 0 0 791.83605463915751 246.60398521802335 0 246.60398521802335 2167.2252950908878 0 0 0 0 788.79840352218878 -412.25903128106438 0 -412.25903128106438 2383.3557288697775 0 0 0 0 2136.1031887868853 -1209.8905779439228 0 -1209.8905779439228 2497.777211681263 0 0 0 0 2.1082237596055018 5.375139929416072 0 5.375139929416072 24.502482870767153 0 0 0 0 -234.70526731205155 -491.22884141351096 0 -491.22884141351096 4454.2503768253227 0 0 0 0 1071.2450665686774 1321.996882856718 0 1321.996882856718 748.65993655228522 0 0 0 0 -79.472741413871063 857.38470664165652 0 857.38470664165652 4055.105018939239 0 0 0 0 -5.4661061522995453 -270.07418714732376 0 -270.07418714732376 3170.8295875704644 0 0 0 0 -242.68431589626678 167.47784909032271 0 167.47784909032271 2382.5716961917205 0 0 0 0 69.941834500314144 1064.4812242683111 0 1064.4812242683111 2010.6717189271949 0 0 0 0 44.846424227609077 595.1143840577497 0 595.1143840577497 1029.5282949972461 0 0 0 0 288.70235037933776 309.19823405971692 0 309.19823405971692 305.86379147842672 0 0 0 0 -2.0310784778632645 301.25046800757184 0 301.25046800757184 1267.071434134079 0 0 0 0 -74.600800116508253 -260.27000261309149 0 -260.27000261309149 557.04212558121071 0 0 0 0 368.10295147547504 -286.1080227098646 0 -286.1080227098646 83.167519757393165 0 0 0 0 -153.30489829747773 156.089526378757 0 156.089526378757 2085.4905564442815 0 0 0 0 -26.799277093239766 79.86692614009371 0 79.86692614009371 1658.1587181523646 0 0 0 0 -111.57586926463028 93.864425695690443 0 93.864425695690443 2209.0839716272967 0 0 0 0 -89.868693742419907 299.528063654172 0 299.528063654172 1699.7440975959325 0 0 0 0 -105.1614623999364 363.20100486466254 0 363.20100486466254 1444.0942789033288 0 0 0 0 -110.12722208272601 32.746780737405061 0 32.746780737405061 1069.8816209012875 0 0 0 0 5.3870543801319766 602.31322274148624 0 602.31322274148624 1573.177763067215 0 0 0 0 73.537403339393904 306.14067768502719 0 306.14067768502719 1241.3978410866257 0 0 0 0 7.9371443471698058 190.20653330587811 0 190.20653330587811 1595.6065695020297 0 0 0 0 63.159796764513203 223.03214193111489 0 223.03214193111489 1386.3459712810873 0 0 0 0 -0.055197944936082877 285.68251432867692 0 285.68251432867692 1447.4409339776466 0 0 0 0 -2.123480489237215 1.3755330861636139 0 1.3755330861636139 1.1114489764841196 0 0 0 0 -132.75097193738156 104.28365702841256 0 104.28365702841256 72.773157311035902 0 0 0 0 -322.12284483342728 -218.11505597488576 0 -218.11505597488576 483.89685015223222 0 0 0 0 -48.612215325430498 338.12094755316502 0 338.12094755316502 330.98660148037015 0 0 0 0 -24.524776488837176 -28.610822248565455 0 -28.610822248565455 166.80170523526613 0 0 0 0 16.310089204371252 39.854462810049881 0 39.854462810049881 96.952255963384232 0 0 0 0 33.886906519060176 -33.36960645068757 0 -33.36960645068757 215.18643883393088 0 0 0 0 25.920993971991265 -8.9430798535686336 0 -8.9430798535686336 333.0914079608192 0 0 0 0 -124.39054981121467 -133.9381641832224 0 -133.9381641832224 -47.024643883392855 0 0 0 0 -95.088341270239653 -49.280176370695699 0 -49.280176370695699 465.94876910747553 0 0 0 0 -2.9539159153443064 0.22489758673327742 0 0.22489758673327742 0.48943817363287678 0 0 0 0 -106.23978792547359 -129.66629591186211 0 -129.66629591186211 383.86642136337468 0 0 0 0 123.28221457361269 -72.480226053550723 0 -72.480226053550723 -95.258097572579572 0 0 0 0 -14.661071133758639 -13.307191404311197 0 -13.307191404311197 136.04038099871832 0 0 0 0 -21.766045971313961 1.4265856660634029 0 1.4265856660634029 17.362655033619752 0 0 0 0 -8.5380673477052831 2.1143337321867364 0 2.1143337321867364 -1.1281898307258271 0 0 0 0 -1.5826810673897853 3.6400869142235024 0 3.6400869142235024 101.64740544473898 0 0 0 0 -8.2381747870222171 -33.744355559923861 0 -33.744355559923861 208.48106903562439 0 0 0 0 -8.7367305251447451 0.33543579473294471 0 0.33543579473294471 -1.5537975544166667 0 0 0 0 7.4479079727839235 -45.20350144148324 0 -45.20350144148324 216.45019178910297 0 0 0 0 0.29633268557972769 -12.650794049914111 0 -12.650794049914111 107.02748936888838 0 0 0 0 -14.953878222789834 -1.6551635930082682 0 -1.6551635930082682 19.076855573002167 0 0 0 0 -10.953464971762514 -6.9870319342444418 0 -6.9870319342444418 132.24345473466383 0 0 0 0 -37.571204788104751 9.9408399908788851 0 9.9408399908788851 113.1587424234458 0 0 0 0 0.078548210174305119 -100.6141233022081 0 -100.6141233022081 331.70457555667963 0 0 0 0 -11.223117728209674 -0.42505263969046325 0 -0.42505263969046325 75.273492439439821 0 0 0 0 -12.312557937433667 -3.6970924231718527 0 -3.6970924231718527 120.89545371857002 0 0 0 0 -13.540578666201391 8.2545319370236783 0 8.2545319370236783 77.295815103628058 0 0 0 0 -1.4702629036274146 1.6181971187602642 0 1.6181971187602642 23.832413590651708 0 0 0 0 -5.4048931447840545 6.2966179844079306 0 6.2966179844079306 110.83029668798554 0 0 0 0 210.436890662455 -235.27734819254692 0 -235.27734819254692 360.80117829571827 0 0 0 0 134.55901593916508 -213.53401954125002 0 -213.53401954125002 472.8884498882835 0 0 0 0 44.175528240559856 -2.3749879591778154 0 -2.3749879591778154 77.384312543450505 0 0 0 0 -1.3058900737861499 -2.4950619868420461 0 -2.4950619868420461 21.366067673726246 0 0 0 0 -15.318659649576468 13.395826811458392 0 13.395826811458392 124.0793313835602 0 0 0 0 208.99541544731574 -59.481677462867083 0 -59.481677462867083 60.638087370476569 0 0 0 0 1.2503935346902608 -201.06224061098692 0 -201.06224061098692 718.28867901205376 0 0 0 0 205.77733928229674 -843.85387661297727 0 -843.85387661297727 1492.7650727256769 0 0 0 0 -231.00353589598495 -49.107703605905954 0 -49.107703605905954 1719.9344178281899 0 0 0 0 -216.90900305252057 -334.6837655742911 0 -334.6837655742911 4149.2794588430697 0 0 0 0 580.51739854381685 -2276.7654978181745 0 -2276.7654978181745 4601.1384835246827 0 0 0 0 -735.82811204042332 -881.12191745597374 0 -881.12191745597374 5173.657748825608 0 0 0 0 -0.744028436072115 17.180574848718727 0 17.180574848718727 59.036056954080323 0 0 0 0 -364.69024723284292 40.478440610371763 0 40.478440610371763 245.49726771116548 0 0 0 0 888.8156091074668 65.980808018915923 0 65.980808018915923 1162.9258296611806 0 0 0 0 17.203839643959327 -147.76163996157993 0 -147.76163996157993 1110.7677372840553 0 0 0 0 647.95404571372046 -210.63290714670438 0 -210.63290714670438 78.406830020437042 0 0 0 0 1261.1350874190982 -1183.7892685299448 0 -1183.7892685299448 1304.0018699715438 0 0 0 0 112.35097336950298 -692.44136863689346 0 -692.44136863689346 1323.9418353602669 0 0 0 0 -73.720183459450709 -20.532832385808433 0 -20.532832385808433 114.22303253837163 0 0 0 0 -2.6773260083228223 -24.170517727141949 0 -24.170517727141949 90.086822059510496 0 0 0 0 -279.48268635156489 -106.67436745887517 0 -106.67436745887517 229.14084889726655 0 0 0 0 34.264542017165724 -30.997293391934363 0 -30.997293391934363 159.44280615440221 0 0 0 0 -10.824700833723909 41.175806542185455 0 41.175806542185455 154.01219863689039 0 0 0 0 -4.5091593746441596 2.915170343224105 0 2.915170343224105 -0.91491896080198387 0 0 0 0 315.26855876561103 -406.92330157356264 0 -406.92330157356264 311.04331967125836 0 0 0 0 254.24451338781864 540.49446771512976 0 540.49446771512976 683.81583746657998 0 0 0 0 3.4616331153524618 -11.221554723932673 0 -11.221554723932673 66.68671047859101 0 0 0 0 -126.1376682851905 441.90410578728188 0 441.90410578728188 1235.7529357248723 0 0 0 0 1132.7165968760826 2347.3245532701699 0 2347.3245532701699 3492.4375687041247 0 0 0 0 5.2836203025783135 -5.4824685891533314 0 -5.4824685891533314 25.258077794770344 0 0 0 0 3268.6517214756218 -1851.2502962246353 0 -1851.2502962246353 799.20933190103096 0 0 0 0 643.68884510843952 -2309.2029419157807 0 -2309.2029419157807 3494.3470143535669 0 0 0 0 509.40541667166133 -307.86870065066614 0 -307.86870065066614 255.88306511672999 0 0 0 0 787.97428798785188 -1230.3428740389054 0 -1230.3428740389054 936.52588565069891 0 0 0 0 29.440541452803643 -1318.7506855869578 0 -1318.7506855869578 1730.425522447913 0 0 0 0 -65.765727792310599 -1102.6767758143724 0 -1102.6767758143724 1252.5176366916567 0 0 0 0 333.94222208863806 -1497.3665227795718 0 -1497.3665227795718 1736.4455910678528 0 0 0 0 -529.8486047870058 -1421.6846114098153 0 -1421.6846114098153 3493.9348700521514 0 0 0 0 -1032.0619994264234 -410.2547080914992 0 -410.2547080914992 1673.2368397542887 0 0 0 0 -4.6958206134265268 -2.7685464788090854 0 -2.7685464788090854 11.140641351509572 0 0 0 0 8.6266098821666901 -960.58174245962891 0 -960.58174245962891 1315.9775603207308 0 0 0 0 282.29775902332142 -862.62037733750731 0 -862.62037733750731 1192.7051750103565 0 0 0 0 198.38871366916914 -1062.7647673380088 0 -1062.7647673380088 726.8332009241567 0 0 0 0 -503.63879311247138 -479.06311312302569 0 -479.06311312302569 653.24961949808858 0 0 0 0 102.23941442650839 -1229.6284382714803 0 -1229.6284382714803 1202.8023734037779 0 0 0 0 126.8469599236133 -688.41731543048081 0 -688.41731543048081 508.13883140624239 0 0 0 0 -9.9722561048350826 -818.45508824068384 0 -818.45508824068384 -29.019540110326489 0 0 0 0 143.98049247983795 -910.82567411507989 0 -910.82567411507989 1238.3931225190754 0 0 0 0 61.956177085866784 -1.7214303022410604 0 -1.7214303022410604 926.5926306227957 0 0 0 0 -42.420330320725725 -628.49615507922863 0 -628.49615507922863 845.30703034551152 0 0 0 0 638.15595796131799 -1646.5818404477941 0 -1646.5818404477941 2472.1136873614141 0 0 0 0 507.29686577977179 -927.20196823134211 0 -927.20196823134211 939.41508750754292 0 0 0 0 171.90265117391482 -420.75644168356303 0 -420.75644168356303 1702.376410796136 0 0 0 0 97.595524627024133 -202.92359354875589 0 -202.92359354875589 1392.1118987556947 0 0 0 0 -4.1390156816136017 -1.6285394488644442 0 -1.6285394488644442 9.050858667086942 0 0 0 0 423.74620818576255 -2020.6345842818173 0 -2020.6345842818173 3495.2443654853851 0 0 0 0 -86.56261296003342 -1069.8632226674272 0 -1069.8632226674272 1742.3635131385163 0 0 0 0 -894.7429573404379 219.0603584868295 0 219.0603584868295 1421.1618909912067 0 0 0 0 -488.12014194605837 -512.23247399413231 0 -512.23247399413231 3116.6284248719385 0 0 0 0 -515.00701168334103 -670.98017894927398 0 -670.98017894927398 2302.9179696466963 0 0 0 0 -674.31934888349076 -1105.8972814238568 0 -1105.8972814238568 3500.5810994265848 0 0 0 0 -178.6264736976525 -287.98525249185332 0 -287.98525249185332 2040.4799100083546 0 0 0 0 -635.51451382247171 -580.36048970539832 0 -580.36048970539832 2449.1709418283936 0 0 0 0 -221.04480677093017 -219.09836883574098 0 -219.09836883574098 1933.8426882858548 0 0 0 0 -13.080242791101909 -148.70619622173399 0 -148.70619622173399 1954.3041541290622 0 0 0 0 -38.733807690969115 138.02290801183699 0 138.02290801183699 1494.4911011679287 0 0 0 0 31.130772750047925 -113.21537670129874 0 -113.21537670129874 1356.0138346794411 0 0 0 0 74.246274326702178 -32.754916768313706 0 -32.754916768313706 1380.7143464110704 0 0 0 0 153.71796179676539 16.681371089020104 0 16.681371089020104 1025.0244753232837 0 0 0 0 156.03310707479341 77.625556108709134 0 77.625556108709134 1118.1998623013715 0 0 0 0 156.36339893459422 67.947626613171451 0 67.947626613171451 1355.9365004987994 0 0 0 0 73.107900641862216 346.60204277346679 0 346.60204277346679 937.30974609933037 0 0 0 0 586.86074012200538 151.31429456477053 0 151.31429456477053 850.79504026180075 0 0 0 0 -266.17169811371923 -20.899235202930868 0 -20.899235202930868 1074.739976830082 0 0 0 0 22.494586726311809 548.40553075956268 0 548.40553075956268 905.15521191121661 0 0 0 0 393.88209900534184 -191.15903822856126 0 -191.15903822856126 64.07876257589669 0 0 0 0 296.92438215687639 -403.16629308994743 0 -403.16629308994743 298.35504179155396 0 0 0 0 -123.22980068767242 -186.57808499279417 0 -186.57808499279417 193.64647560263256 0 0 0 0 2.7460615084541584 -7.3109056239150476 0 -7.3109056239150476 0.077239467544416129 0 0 0 0 175.88148163155211 256.03724596759275 0 256.03724596759275 870.80631795420413 0 0 0 0 58.724504736918561 91.437593312897661 0 91.437593312897661 829.37310476714629 0 0 0 0 0.044563872108422053 -2.29622462284253 0 -2.29622462284253 14.547478089479853 0 0 0 0 187.45972171306153 293.39453251564555 0 293.39453251564555 369.29116838581103 0 0 0 0 262.94871442802514 -46.394133882291499 0 -46.394133882291499 1055.4550666465111 0 0 0 0 157.13058293107008 160.95665233062937 0 160.95665233062937 871.21708555833902 0 0 0 0 85.066679398234328 71.789086169344955 0 71.789086169344955 848.23280191869344 0 0 0 0 6.1181797824372097 254.00719750092685 0 254.00719750092685 756.66011247440474 0 0 0 0 35.807993344428041 164.98648960033461 0 164.98648960033461 460.97049700886782 0 0 0 0 2.0305599856918946 261.20349075906324 0 261.20349075906324 720.69197505095508 0 0 0 0 -78.589823447466415 123.41939825107693 0 123.41939825107693 548.52675038149755 0 0 0 0 6.9495992156709008 153.90888550563977 0 153.90888550563977 761.04842046833073 0 0 0 0 -10.297049108832539 189.0700083513766 0 189.0700083513766 924.56459637125954 0 0 0 0 151.76390884012858 63.720715665185708 0 63.720715665185708 894.89138574127264 0 0 0 0 173.83294175563242 -80.395667996555858 0 -80.395667996555858 1096.3352931744412 0 0 0 0 108.63329826507788 134.08544591495229 0 134.08544591495229 966.20505107927602 0 0 0 0 359.26112311430722 -297.92136634391863 0 -297.92136634391863 1027.9816807926036 0 0 0 0 51.133490736471572 27.550948288793734 0 27.550948288793734 1047.9968374156015 0 0 0 0 -35.552531905286855 -146.68474550162864 0 -146.68474550162864 745.98209289422084 0 0 0 0 2.7947930173177156 219.8256593033002 0 219.8256593033002 620.02162806428532 0 0 0 0 -244.06015748294061 176.77710980393022 0 176.77710980393022 330.39512872027444 0 0 0 0 -685.80275785530534 -235.99780854377968 0 -235.99780854377968 358.19665637300932 0 0 0 0 -296.98986309447685 209.23022748937365 0 209.23022748937365 514.78836339528789 0 0 0 0 -212.77415667027932 213.74707277399239 0 213.74707277399239 759.53113489900716 0 0 0 0 -215.89138627333622 117.24900314345325 0 117.24900314345325 612.43986678424699 0 0 0 0 -175.85575369852859 272.28559391419549 0 272.28559391419549 666.58832773246104 0 0 0 0 -77.791480309291728 201.18585683368292 0 201.18585683368292 843.83580305136638 0 0 0 0 -93.128391705434524 256.47743960872322 0 256.47743960872322 705.1298846230784 0 0 0 0 130.43495793851451 77.470857442236593 0 77.470857442236593 715.14891729035298 0 0 0 0 -45.331023989403775 253.47380078697461 0 253.47380078697461 774.0178786407414 0 0 0 0 -116.10887267359942 202.99375166644313 0 202.99375166644313 753.36848550642753 0 0 0 0 -91.300351470282408 29.856118738891382 0 29.856118738891382 562.63378755062149 0 0 0 0 -63.515418053041358 215.03659145667825 0 215.03659145667825 738.44009652613022 0 0 0 0 -142.07217151339239 45.846358670700283 0 45.846358670700283 850.51491358298881 0 0 0 0 -93.399493438484001 47.415990586523549 0 47.415990586523549 830.80259117209789 0 0 0 0 -195.98680890533944 213.41424701563665 0 213.41424701563665 917.24008611821046 0 0 0 0 -139.84290523117068 229.75415727594554 0 229.75415727594554 807.41851720008708 0 0 0 0 -190.28107267993227 245.52563998319602 0 245.52563998319602 804.18138687171449 0 0 0 0 -263.06285353442996 225.06940387339273 0 225.06940387339273 821.80876858673014 0 0 0 0 -172.60141343980069 191.0697101183323 0 191.0697101183323 1038.9639653077174 0 0 0 0 -110.26592642930123 116.63857373714563 0 116.63857373714563 1014.0751878167066 0 0 0 0 -129.84902220424465 196.75365511805285 0 196.75365511805285 822.82559630059882 0 0 0 0 38.006832534585527 -311.53216748206614 0 -311.53216748206614 948.820219413632 0 0 0 0 -66.626017801302112 194.54299806185736 0 194.54299806185736 1029.6741052031284 0 0 0 0 -158.48437965562584 14.46511114984969 0 14.46511114984969 1274.4801731792686 0 0 0 0 683.98367381935373 -159.03811238149501 0 -159.03811238149501 1066.0230895109707 0 0 0 0 -46.245220308469584 -1.3939057111565489 0 -1.3939057111565489 37.991843306226656 0 0 0 0 251.86067981921468 -867.82965031843196 0 -867.82965031843196 1971.3985433708804 0 0 0 0 4.1831812354719808 -0.29306543818972841 0 -0.29306543818972841 8.9666647079264692 0 0 0 0 -16.922441227682924 119.51979771593687 0 119.51979771593687 1002.9395933320484 0 0 0 0 14.091463787825262 324.23995144155197 0 324.23995144155197 1744.422052346461 0 0 0 0 181.370287095365 83.007090727813193 0 83.007090727813193 428.02344541877392 0 0 0 0 -64.340362296293051 270.05642723461642 0 270.05642723461642 868.07151181656809 0 0 0 0 -173.54440917453408 -114.86750842780361 0 -114.86750842780361 435.29409216417116 0 0 0 0 -107.72559124493199 118.42316709598526 0 118.42316709598526 538.2933773376426 0 0 0 0 -146.47396506697504 145.66866555333399 0 145.66866555333399 522.39253380549053 0 0 0 0 -347.86795403578662 -140.1546896282116 0 -140.1546896282116 255.03140702628298 0 0 0 0 -307.29254899372631 -454.52983840544766 0 -454.52983840544766 -574.36853283388336 0 0 0 0 -161.30224569876182 -51.064149095134781 0 -51.064149095134781 127.57920268841553 0 0 0 0 -18.485031216827252 2.3529323576572239 0 2.3529323576572239 15.279990898098433 0 0 0 0 -90.912025662000659 -157.87554517768876 0 -157.87554517768876 -168.87179735265454 0 0 0 0 -140.10462574383973 -7.021793052306748 0 -7.021793052306748 210.37666056584567 0 0 0 0 -1.0795549729994698 -6.5553540592399422 0 -6.5553540592399422 -3.1180727450047812 0 0 0 0 -7.7213199741127028 -70.828823550684319 0 -70.828823550684319 53.755685119527683 0 0 0 0 -91.408223628613996 -21.251191726376419 0 -21.251191726376419 226.20259500750399 0 0 0 0 13.440581573562497 -18.249676518316704 0 -18.249676518316704 -3.8864563535129415 0 0 0 0 39.562029814577386 -149.39249590487179 0 -149.39249590487179 131.79162269439257 0 0 0 0 21.506509626680781 -99.876159158797236 0 -99.876159158797236 17.6664662141593 0 0 0 0 1.2049833300841488 -32.034608013480238 0 -32.034608013480238 3.3359982536094037 0 0 0 0 15.263843276130501 -27.632447717362083 0 -27.632447717362083 78.20298762411403 0 0 0 0 6.5024565723474552 -61.183857597741735 0 -61.183857597741735 -34.767400064767571 0 0 0 0 12.122463650783175 -39.628422046916967 0 -39.628422046916967 -69.608848181838482 0 0 0 0 -17.788322173983406 -20.966187716470117 0 -20.966187716470117 39.00099002603892 0 0 0 0 -18.362699602366739 -52.83395458553565 0 -52.83395458553565 50.059761168175896 0 0 0 0 -92.693444588928742 32.003972783975769 0 32.003972783975769 156.52376705874448 0 0 0 0 -66.882859339298648 52.427756388438866 0 52.427756388438866 102.46459685370792 0 0 0 0 -9.2547730306413811 4.1967010832933624 0 4.1967010832933624 60.308614142980701 0 0 0 0 -15.716833547042825 -17.852325363572163 0 -17.852325363572163 57.98663520647824 0 0 0 0 -23.883328758430313 -13.318440520442863 0 -13.318440520442863 -0.13331109266098906 0 0 0 0 -93.71494778829603 -147.30744731278278 0 -147.30744731278278 175.79800915230589 0 0 0 0 -20.476543307153634 19.163975347873929 0 19.163975347873929 49.366500060066755 0 0 0 0 -180.01236601242692 146.62868597276974 0 146.62868597276974 98.707877034539706 0 0 0 0 -385.63142821817991 144.49395355530942 0 144.49395355530942 227.29256751730281 0 0 0 0 -5.7715937801383292 2.4836836778712268 0 2.4836836778712268 31.992586413573207 0 0 0 0 -409.29205434500341 407.11837547985488 0 407.11837547985488 -449.04957102846674 0 0 0 0 -0.49597601917963624 -3.2871513956669816 0 -3.2871513956669816 5.4432954210467983 0 0 0 0 20.723350156058359 -18.139701565480209 0 -18.139701565480209 49.405800098873442 0 0 0 0 13.311232836076442 -196.36286870695039 0 -196.36286870695039 903.31517743900258 0 0 0 0 12.541853207844296 -2.9603605475380306 0 -2.9603605475380306 -0.41670362371718284 0 0 0 0 14.459366298620282 -17.493524936904578 0 -17.493524936904578 56.052088687611104 0 0 0 0 -0.033530100010444208 -4.9809301538994362 0 -4.9809301538994362 -5.9370475085097212 0 0 0 0 -6.6107771822892971 -34.120061274072214 0 -34.120061274072214 74.031352491532743 0 0 0 0 23.638817842343457 -200.50543230386302 0 -200.50543230386302 571.33562531594362 0 0 0 0 5.0938826174672158 19.485447446793842 0 19.485447446793842 410.36630763176072 0 0 0 0 -41.321106947614567 16.655803413494141 0 16.655803413494141 556.46094456216088 0 0 0 0 -16.540151005818188 -27.349209793595946 0 -27.349209793595946 61.319522180463537 0 0 0 0 12.932659610412884 -28.595477555674734 0 -28.595477555674734 59.721786359099497 0 0 0 0 -0.64430315226547918 -27.518401627847197 0 -27.518401627847197 33.499968913776684 0 0 0 0 -3.0432719944173483 -1.2426668235549698 0 -1.2426668235549698 32.673401466416692 0 0 0 0 -62.833513995046815 8.7736735754006077 0 8.7736735754006077 181.10147989609686 0 0 0 0 -93.618029556690999 -40.825673606421333 0 -40.825673606421333 132.21134970443381 0 0 0 0 -26.381300802207988 -34.812831392686348 0 -34.812831392686348 196.79912441808392 0 0 0 0 -49.514254479890042 33.392599205959414 0 33.392599205959414 86.104925478516407 0 0 0 0 -16.800577954888404 -26.584327888658606 0 -26.584327888658606 20.504842737256652 0 0 0 0 0.057819593342610887 6.2555123180218004 0 6.2555123180218004 21.161432406294441 0 0 0 0 22.325628775377481 -47.33233059142367 0 -47.33233059142367 88.327355910230835 0 0 0 0 -12.900338516076999 -59.927529017317283 0 -59.927529017317283 97.270823878847295 0 0 0 0 13.218067856099879 -47.498653938819189 0 -47.498653938819189 102.0989682336367 0 0 0 0 -0.94267486423894198 -29.327959192072058 0 -29.327959192072058 12.477676350319697 0 0 0 0 -7.7799167664079505 -39.801327064211364 0 -39.801327064211364 107.81797808661941 0 0 0 0 33.736920600846133 -16.448654975305544 0 -16.448654975305544 115.4602144281198 0 0 0 0 43.977634380659765 3.6334735748023377 0 3.6334735748023377 66.04791012233909 0 0 0 0 21.193655073147966 3.3104795417166315 0 3.3104795417166315 131.52858947695677 0 0 0 0 20.350849434586962 27.853212859481573 0 27.853212859481573 92.826727107982151 0 0 0 0 -2.8024497111129687 -3.7865704818911468 0 -3.7865704818911468 8.5436732197357372 0 0 0 0 3.0680094400992566 -30.350501692873472 0 -30.350501692873472 43.004771051511739 0 0 0 0 -40.066176592588363 -11.301264895235363 0 -11.301264895235363 133.24673084588721 0 0 0 0 17.623252874163882 -7.3544199939278769 0 -7.3544199939278769 94.565218773692322 0 0 0 0 -3.4643253904343005 -0.75710888255787268 0 -0.75710888255787268 23.222610756539126 0 0 0 0 5.8349978512505913 -37.180056405417417 0 -37.180056405417417 51.281564283010084 0 0 0 0 0.015468593490368221 -26.780300884158351 0 -26.780300884158351 69.477984826087777 0 0 0 0 -3.5414800802464015 -43.765397869625303 0 -43.765397869625303 75.050397958060785 0 0 0 0 37.680733571846304 25.559296748542693 0 25.559296748542693 157.84737299084736 0 0 0 0 -12.044633693594267 -13.331179827972989 0 -13.331179827972989 6.8031815030667815 0 0 0 0 -13.896233075165924 -24.179008012859413 0 -24.179008012859413 252.88862305309158 0 0 0 0 -4.7559138001342944 137.57100696226553 0 137.57100696226553 539.43492205227449 0 0 0 0 39.71982391991321 118.06549258295126 0 118.06549258295126 229.16860837367858 0 0 0 0 -18.975164738628337 55.215933800885978 0 55.215933800885978 435.91209187857021 0 0 0 0 -4.7127267931933696 -21.448178616984748 0 -21.448178616984748 77.100725124078451 0 0 0 0 -55.976294307412445 -31.552503313083434 0 -31.552503313083434 123.41360069569782 0 0 0 0 -53.497925542278381 -31.558840838581091 0 -31.558840838581091 85.439868283094256 0 0 0 0 -9.8253776999428624 -82.251208566409332 0 -82.251208566409332 73.369191931371461 0 0 0 0 -22.0498589418753 -1.5893357013264904 0 -1.5893357013264904 116.36374818284821 0 0 0 0 -3.84329023967382 -19.969892535781582 0 -19.969892535781582 70.323911023791879 0 0 0 0 -3.348882781244467 -27.27280901290225 0 -27.27280901290225 71.443355034815852 0 0 0 0 -19.981948696077438 -71.896472162676218 0 -71.896472162676218 82.60398610161792 0 0 0 0 189.60651671728829 -122.86506045397982 0 -122.86506045397982 43.203188609004428 0 0 0 0 -4.0262008202732487 -37.474944451434283 0 -37.474944451434283 -5.4676438998728827 0 0 0 0 3.8795916742200234 -41.666284073671704 0 -41.666284073671704 106.16298300474591 0 0 0 0 -0.44965526987584781 2.1840078695531702 0 2.1840078695531702 97.293570356247074 0 0 0 0 -11.891159544361585 1.6084787901090749 0 1.6084787901090749 193.59660243237158 0 0 0 0 -1.786841550166228 -2.7033860720746361 0 -2.7033860720746361 0.10266307293041166 0 0 0 0 16.220930915229474 2.3405220375789213 0 2.3405220375789213 104.47709169120935 0 0 0 0 -4.7098594107801546 -36.953515321300074 0 -36.953515321300074 108.37440384099318 0 0 0 0 -27.764943841330251 14.641778698154667 0 14.641778698154667 179.73010509667802 0 0 0 0 34.623904349501117 -7.6558608289851691 0 -7.6558608289851691 82.660127963652485 0 0 0 0 -8.9672141406969104 54.528886474961837 0 54.528886474961837 180.52189683480537 0 0 0 0 -28.829149626652907 16.967984304756101 0 16.967984304756101 207.11181410527934 0 0 0 0 -41.610534049418561 36.911319947461379 0 36.911319947461379 251.16775662479631 0 0 0 0 -27.733457172763337 62.882699226051045 0 62.882699226051045 314.4025197798328 0 0 0 0 21.186777414410699 59.059851058802451 0 59.059851058802451 187.96144070778428 0 0 0 0 -47.248126600989508 51.833688446517044 0 51.833688446517044 315.24479676515693 0 0 0 0 -44.544381258340081 69.824163224569929 0 69.824163224569929 417.50009119523747 0 0 0 0 -80.400691653007698 50.280304117590276 0 50.280304117590276 419.25356975443719 0 0 0 0 -133.08891750027419 -42.685920862466446 0 -42.685920862466446 478.51288125755673 0 0 0 0 -157.39571394858422 -11.325951666643959 0 -11.325951666643959 524.33079172378348 0 0 0 0 -174.70819876295218 -127.3547113964305 0 -127.3547113964305 582.37053453060798 0 0 0 0 -160.10187532869645 -118.84136104357822 0 -118.84136104357822 526.5098279013182 0 0 0 0 -163.18700736912888 -114.43442235546536 0 -114.43442235546536 584.79019385766514 0 0 0 0 -163.78392934731892 -155.85138928604283 0 -155.85138928604283 682.31597955405596 0 0 0 0 -154.37332278289853 12.608341590432246 0 12.608341590432246 700.94820369471563 0 0 0 0 -119.13603636777634 39.677188477122399 0 39.677188477122399 587.03108226941549 0 0 0 0 -7.0324305798731075 238.8695386901818 0 238.8695386901818 622.28573625271383 0 0 0 0 -109.17475672949467 101.23710580384795 0 101.23710580384795 959.94248105991574 0 0 0 0 -157.19692582294374 -117.88558451780955 0 -117.88558451780955 898.65163543494418 0 0 0 0 -125.59838497381679 -92.25626086180273 0 -92.25626086180273 828.476082264875 0 0 0 0 -110.37941844892157 -1.6010403707441583 0 -1.6010403707441583 1289.7368495600822 0 0 0 0 -48.231761046738939 -316.94238760566805 0 -316.94238760566805 901.26742524452857 0 0 0 0 -47.547409488454832 -315.98360717746255 0 -315.98360717746255 628.95613891034736 0 0 0 0 216.24617277229117 -428.07048050397134 0 -428.07048050397134 940.03921924048336 0 0 0 0 573.17105367028671 -689.84584879479371 0 -689.84584879479371 939.33810792045551 0 0 0 0 322.27586292482374 -636.38978350143589 0 -636.38978350143589 1216.7261437857815 0 0 0 0 2.2531698426691946 -282.84129668865353 0 -282.84129668865353 1100.6510868276673 0 0 0 0 155.82652505908572 -587.75146099654376 0 -587.75146099654376 894.54339421253826 0 0 0 0 -30.503926873033379 -360.79073776089353 0 -360.79073776089353 958.8774752139434 0 0 0 0 158.52658204640011 -535.5195806127449 0 -535.5195806127449 1508.1447879556799 0 0 0 0 547.20922404795238 -615.8886755243002 0 -615.8886755243002 1723.5561139143938 0 0 0 0 408.57334872755246 -350.89335119563475 0 -350.89335119563475 1222.3226412201766 0 0 0 0 1098.651613499238 -94.502870398660889 0 -94.502870398660889 1693.1568012909847 0 0 0 0 160.02594814866552 767.8112088036869 0 767.8112088036869 1346.1927266055573 0 0 0 0 -31.023881016146333 157.33075480704429 0 157.33075480704429 1638.7250135107697 0 0 0 0 159.7236994205191 -245.3081042376798 0 -245.3081042376798 2249.9666364903387 0 0 0 0 -36.246888233271875 15.618043666509038 0 15.618043666509038 1047.3799648718559 0 0 0 0 -1.0062192035684348 304.5396364631597 0 304.5396364631597 1159.9731737605034 0 0 0 0 270.63148549943298 406.76570413410082 0 406.76570413410082 445.81453442314523 0 0 0 0 189.88445279245934 331.87692382004025 0 331.87692382004025 717.15972426044755 0 0 0 0 228.88606274641734 147.67400465391256 0 147.67400465391256 110.42863148429024 0 0 0 0 114.47804765809997 142.97569754785945 0 142.97569754785945 358.53748623914726 0 0 0 0 -18.694255287262422 166.86673142009386 0 166.86673142009386 585.5273002778049 0 0 0 0 -14.858766775860204 176.92240388396749 0 176.92240388396749 539.63929521042883 0 0 0 0 166.4134104395398 206.72836864563942 0 206.72836864563942 300.43514780965052 0 0 0 0 93.875874712183304 134.41642412368674 0 134.41642412368674 253.51820721481636 0 0 0 0 11.336985772880325 60.750134697849717 0 60.750134697849717 230.88078881753609 0 0 0 0 56.488661728741135 76.147886723876582 0 76.147886723876582 262.33614758606564 0 0 0 0 105.66412401206162 51.27642133423069 0 51.27642133423069 129.60141854221501 0 0 0 0 186.76195880396244 89.003238262332161 0 89.003238262332161 132.89529664631118 0 0 0 0 34.671628330982458 -16.885532585256442 0 -16.885532585256442 115.53148840781068 0 0 0 0 76.26027369211306 -45.847501025345991 0 -45.847501025345991 25.209645389943034 0 0 0 0 -79.479855248574495 -56.623927726293914 0 -56.623927726293914 101.2674816595536 0 0 0 0 -29.555561328513249 -16.447373560196866 0 -16.447373560196866 -12.139106310525676 0 0 0 0 -3.5031622408687326 18.262099674619094 0 18.262099674619094 46.188527284335578 0 0 0 0 79.493006946917376 -7.7457130250404589 0 -7.7457130250404589 -3.7703638941020472 0 0 0 0 -59.046183393742012 -255.71992159764341 0 -255.71992159764341 877.72277854394633 0 0 0 0 215.42341251475864 -182.16255209730298 0 -182.16255209730298 137.69036173151108 0 0 0 0 17.107676205409462 -68.21992932887224 0 -68.21992932887224 243.05993739710539 0 0 0 0 3.3907823889364739 7.7326838317955122 0 7.7326838317955122 16.183454652903947 0 0 0 0 -263.91099403922362 82.595588882089942 0 82.595588882089942 85.549652939895168 0 0 0 0 -55.836940201029392 -152.07912612088694 0 -152.07912612088694 -130.26214674107905 0 0 0 0 384.04338129336611 367.73446329808212 0 367.73446329808212 -6.1228992752730846 0 0 0 0 0.84326172333843186 2.2439736627120368 0 2.2439736627120368 8.3107055804135825 0 0 0 0 212.40838828115284 590.20164796258905 0 590.20164796258905 459.65560897685646 0 0 0 0 483.06051847369247 -722.44737093058211 0 -722.44737093058211 1569.0420125807868 0 0 0 0 494.68615589267461 -768.24830723645573 0 -768.24830723645573 751.34025913788355 0 0 0 0 103.08019995969335 -428.97665721632075 0 -428.97665721632075 2301.4589474206441 0 0 0 0 105.53469516924545 -370.15381865451241 0 -370.15381865451241 1483.259207593248 0 0 0 0 737.27800867347378 -34.258307572570629 0 -34.258307572570629 2167.4862967263034 0 0 0 0 1687.8845266254757 262.46976687890128 0 262.46976687890128 2061.8662364154588 0 0 0 0 1249.3237224958748 435.21744439800386 0 435.21744439800386 2233.5884007862187 0 0 0 0 759.25468525533097 -520.56726161144616 0 -520.56726161144616 913.46517512827995 0 0 0 0 176.77437909300488 314.41148461230478 0 314.41148461230478 668.12503905205813 0 0 0 0 -0.36402333688031296 1.4743876217662333 0 1.4743876217662333 10.40587813097693 0 0 0 0 657.82736773620672 -177.17550886997196 0 -177.17550886997196 2008.9002808143268 0 0 0 0 967.67784513697643 -464.60076699477213 0 -464.60076699477213 1903.7749408982927 0 0 0 0 32.265475083702768 247.78624341233808 0 247.78624341233808 2147.7867791012395 0 0 0 0 160.26192747443019 274.59461454334087 0 274.59461454334087 1103.3542729056207 0 0 0 0 -18.683139312596722 297.48753486672649 0 297.48753486672649 1183.1029717290658 0 0 0 0 -158.07244637240626 85.256228883630683 0 85.256228883630683 973.86367948756379 0 0 0 0 136.19332752034461 384.64657061784237 0 384.64657061784237 745.94847803424636 0 0 0 0 -147.40062495298753 28.988511606643442 0 28.988511606643442 1253.298817253657 0 0 0 0 -134.4187223186409 255.51487993926276 0 255.51487993926276 1830.9388640434481 0 0 0 0 -112.86064463675393 -293.7336102353438 0 -293.7336102353438 1473.6327780597348 0 0 0 0 -113.26758848075929 -315.0505547443563 0 -315.0505547443563 907.45642213241081 0 0 0 0 -268.88226847770761 -113.70884300034686 0 -113.70884300034686 992.02119349117856 0 0 0 0 -266.62862354063236 -135.94509587471839 0 -135.94509587471839 1187.2423069017386 0 0 0 0 -185.10757149947585 -74.914822765058489 0 -74.914822765058489 928.88909162164782 0 0 0 0 -66.317233648127512 -14.900128001820121 0 -14.900128001820121 361.50722368972492 0 0 0 0 -130.98470118382647 -22.47602090529108 0 -22.47602090529108 889.63080267960322 0 0 0 0 -50.517610371459455 -209.95544725296622 0 -209.95544725296622 1003.2438005929434 0 0 0 0 7.8206311636710932 18.002706384113381 0 18.002706384113381 23.183313165544632 0 0 0 0 -47.994457321527534 -205.21599048969074 0 -205.21599048969074 834.69147756521852 0 0 0 0 129.09080907078078 -186.4830119275066 0 -186.4830119275066 929.67085272390977 0 0 0 0 -126.03674351318659 3.4301229789925856 0 3.4301229789925856 912.38322087564302 0 0 0 0 -146.12157329953379 -153.77985805947901 0 -153.77985805947901 1054.3120892747247 0 0 0 0 -30.744955533053599 -34.169856477048597 0 -34.169856477048597 455.54975464567542 0 0 0 0 -84.839578964287284 149.29566860843624 0 149.29566860843624 507.8362119057856 0 0 0 0 -150.95169368994812 -145.87824658101454 0 -145.87824658101454 789.72077036992414 0 0 0 0 -185.12175075217783 -94.684038750441687 0 -94.684038750441687 917.38652438974532 0 0 0 0 -75.940405442795964 -15.080677222198574 0 -15.080677222198574 454.98276790037562 0 0 0 0 -81.986961279973002 -146.21575184171161 0 -146.21575184171161 471.71336084813811 0 0 0 0 -60.814004172474142 59.998883795575239 0 59.998883795575239 196.07206765170849 0 0 0 0 58.721785781164726 -98.209699871076737 0 -98.209699871076737 185.98812264137086 0 0 0 0 77.868399707889694 -2.2923211930465186 0 -2.2923211930465186 -34.985196881665615 0 0 0 0 112.5435011071977 96.408769131012377 0 96.408769131012377 -351.01239165231527 0 0 0 0 -0.87444703374342403 -1.1733611510661603 0 -1.1733611510661603 -0.80100815438417072 0 0 0 0 -100.86928123951998 -98.99044289782978 0 -98.99044289782978 215.09240012970986 0 0 0 0 103.98643388414808 -196.89803042192943 0 -196.89803042192943 316.12907221161004 0 0 0 0 204.61555171191139 -226.53221378148737 0 -226.53221378148737 225.84808741611778 0 0 0 0 4.5363421039844036 -6.3320175214074723 0 -6.3320175214074723 5.4314585864684091 0 0 0 0 173.12817276487806 -167.97573534629191 0 -167.97573534629191 166.16040490946034 0 0 0 0 -73.168550921172027 -146.89660509985697 0 -146.89660509985697 229.55439248999755 0 0 0 0 29.878287647582795 -102.46687795585058 0 -102.46687795585058 192.81310441627284 0 0 0 0 25.880729037942956 -134.11404004749784 0 -134.11404004749784 267.61399382425589 0 0 0 0 6.8538900762219441 -47.815274099993985 0 -47.815274099993985 195.87324041001557 0 0 0 0 45.785921445947395 -101.30102614638963 0 -101.30102614638963 265.1913738920266 0 0 0 0 88.147303595477581 -55.17913857637177 0 -55.17913857637177 312.78636580616148 0 0 0 0 0.0060361260493238811 -73.184244656280498 0 -73.184244656280498 276.58448017320916 0 0 0 0 35.682499738539804 -141.99530285452056 0 -141.99530285452056 323.25355192166535 0 0 0 0 106.24418202544616 -81.373002955599077 0 -81.373002955599077 344.6419733640214 0 0 0 0 -13.765204721459014 -73.418091169420222 0 -73.418091169420222 320.02862618208746 0 0 0 0 -1.8649655441610937 -13.440450318152216 0 -13.440450318152216 114.17361350248393 0 0 0 0 -70.345742519482371 -54.897767107868276 0 -54.897767107868276 338.64542857854303 0 0 0 0 -26.055271151054342 -31.271881084900087 0 -31.271881084900087 30.214915843971539 0 0 0 0 30.09678516161825 -19.310520484214067 0 -19.310520484214067 50.037958321263432 0 0 0 0 39.936207399763589 -6.4853528003077372 0 -6.4853528003077372 65.638901079000789 0 0 0 0 0.96575409019909553 -5.5999032964389244 0 -5.5999032964389244 12.269507899029151 0 0 0 0 51.306188478411912 -172.60915747511172 0 -172.60915747511172 126.67473667772038 0 0 0 0 55.746162763132666 -84.069342788716312 0 -84.069342788716312 101.44469414281775 0 0 0 0 5.2547457346699957 -56.311359527895547 0 -56.311359527895547 126.86246258029132 0 0 0 0 -8.5910249422541298 -6.6463177905850728 0 -6.6463177905850728 73.447972246264612 0 0 0 0 7.385306194064011 0.40119100140509545 0 0.40119100140509545 104.95454720166163 0 0 0 0 -12.185957400514596 -16.406198068980302 0 -16.406198068980302 90.689288802139345 0 0 0 0 23.280639938668344 -32.018368061326157 0 -32.018368061326157 -8.7935823828226063 0 0 0 0 73.716767259711787 -129.88092841284379 0 -129.88092841284379 153.98806477968901 0 0 0 0 -2.4830123482279305 -48.278557083904161 0 -48.278557083904161 146.74997237396019 0 0 0 0 -5.4120744461187087 -156.42796235032438 0 -156.42796235032438 183.813340715511 0 0 0 0 21.516837945635416 -38.958114338249288 0 -38.958114338249288 82.039132990765211 0 0 0 0 18.782663472745298 -25.841195345572487 0 -25.841195345572487 117.07606001524255 0 0 0 0 28.338260800787793 -69.460743095907674 0 -69.460743095907674 155.84854464535056 0 0 0 0 8.7456530216786632 -73.720584758175391 0 -73.720584758175391 181.28109760097141 0 0 0 0 16.27565570914885 -71.109556123003131 0 -71.109556123003131 175.07459129260678 0 0 0 0 11.343495273215922 12.762161102684331 0 12.762161102684331 414.35244166389748 0 0 0 0 58.395874804105233 -42.75373978906282 0 -42.75373978906282 274.82216588057054 0 0 0 0 -58.547925377676052 -54.771619133993227 0 -54.771619133993227 559.82275430483423 0 0 0 0 14.959884096090352 -32.052542461084954 0 -32.052542461084954 -15.801741329830435 0 0 0 0 -11.713478219669696 -191.17805044571287 0 -191.17805044571287 426.64131149207969 0 0 0 0 -19.316913444408783 -123.73594517970196 0 -123.73594517970196 234.0178334775992 0 0 0 0 26.337258124023037 -34.140459958514839 0 -34.140459958514839 181.47777280367154 0 0 0 0 31.629907474807624 -77.435173656704137 0 -77.435173656704137 196.46606987937776 0 0 0 0 6.5063840448605559 -34.345727007291885 0 -34.345727007291885 -17.154881850050131 0 0 0 0 15.232387573802271 -74.997089475964458 0 -74.997089475964458 230.62541616002272 0 0 0 0 8.7109703492027393 -60.327697581415123 0 -60.327697581415123 219.87020636762463 0 0 0 0 18.538454718558341 5.191303153973422 0 5.191303153973422 169.03840253124702 0 0 0 0 -9.1677730862270437 -66.066949238822417 0 -66.066949238822417 168.20248539865861 0 0 0 0 -26.429249832070809 -49.050430831011909 0 -49.050430831011909 83.968811826591264 0 0 0 0 -1.3509874088898952 -2.5186180522594839 0 -2.5186180522594839 1.2054584752683226 0 0 0 0 -13.546202335743715 -13.092441345364932 0 -13.092441345364932 301.70565298196743 0 0 0 0 -30.30143398259338 3.545062266603054 0 3.545062266603054 170.47690277249058 0 0 0 0 -32.792225629635482 0.48945096901297802 0 0.48945096901297802 202.10279609130521 0 0 0 0 -52.861700364181502 -191.02349062254507 0 -191.02349062254507 103.70320119768439 0 0 0 0 -0.52901931885735021 -1.0797671272025582 0 -1.0797671272025582 0.58554022610634604 0 0 0 0 15.330901167464617 -89.34714098405675 0 -89.34714098405675 -149.25516486526249 0 0 0 0 -82.050348054257711 -79.338312233921897 0 -79.338312233921897 207.8111692661405 0 0 0 0 -37.179247847412114 -25.818296530629596 0 -25.818296530629596 120.65778929609223 0 0 0 0 -56.375744608665968 -53.619774753897218 0 -53.619774753897218 254.7010230668966 0 0 0 0 -42.687315712885948 -40.268857294606278 0 -40.268857294606278 126.53302806210559 0 0 0 0 -13.164134972103511 -50.143333312633331 0 -50.143333312633331 242.59302138839121 0 0 0 0 -16.557932336183683 -38.41347265494187 0 -38.41347265494187 250.15614458195341 0 0 0 0 -51.892646344162927 -78.568575704111936 0 -78.568575704111936 290.33015097300813 0 0 0 0 -71.598690438913081 -31.119923933685641 0 -31.119923933685641 249.60756714091258 0 0 0 0 -95.648712230783531 -55.924983219963906 0 -55.924983219963906 341.16618486194784 0 0 0 0 -61.380253805161686 -63.226159890371491 0 -63.226159890371491 316.97154161127401 0 0 0 0 -80.682190466933434 -13.56485883831192 0 -13.56485883831192 320.23787572193396 0 0 0 0 -76.547428931794684 -18.350749018973147 0 -18.350749018973147 292.26499292891822 0 0 0 0 -69.681900344899759 -67.363065820667543 0 -67.363065820667543 242.49492017449666 0 0 0 0 -91.149111272340406 -76.043479612730152 0 -76.043479612730152 364.21499118216889 0 0 0 0 -128.2132843557942 -41.443945671766414 0 -41.443945671766414 422.7174375934992 0 0 0 0 -106.49713387818269 -117.80020032433094 0 -117.80020032433094 462.80830186621461 0 0 0 0 -165.27080919081664 -138.38894905417692 0 -138.38894905417692 459.52297325579275 0 0 0 0 -25.082633660946499 -81.097226834855974 0 -81.097226834855974 315.51089481040617 0 0 0 0 -24.376640287502397 -92.019847138632031 0 -92.019847138632031 366.98680167840212 0 0 0 0 -107.91309671255846 -102.90243081132644 0 -102.90243081132644 403.05866988677008 0 0 0 0 -59.557971971809479 -110.20413780809758 0 -110.20413780809758 385.9104911815266 0 0 0 0 -27.224307520300044 -133.55493043841852 0 -133.55493043841852 414.56261150290084 0 0 0 0 -40.502089273694025 -124.34117809163581 0 -124.34117809163581 435.37490999391594 0 0 0 0 22.188762041966356 -93.069267961407604 0 -93.069267961407604 366.98444094878869 0 0 0 0 -4.377342091716713 -85.137376835304167 0 -85.137376835304167 442.07644877088751 0 0 0 0 18.503338181031552 -83.561847485885664 0 -83.561847485885664 381.13179604817742 0 0 0 0 -2.444244219355447 -78.980029813425062 0 -78.980029813425062 380.43692502615158 0 0 0 0 5.8751330518659302 -89.759683679993032 0 -89.759683679993032 287.07571066415403 0 0 0 0 2.4498253327933526 -67.427565945217793 0 -67.427565945217793 292.99763397888637 0 0 0 0 26.602991683790748 -115.60090557465082 0 -115.60090557465082 294.73412146272312 0 0 0 0 27.959845348666704 -54.278520416730316 0 -54.278520416730316 193.2884377866576 0 0 0 0 -14.860353922949173 -2.0537729187381046 0 -2.0537729187381046 246.06200920371339 0 0 0 0 -3.890516827412462 36.641938536094131 0 36.641938536094131 179.81223126736586 0 0 0 0 -11.098347285224577 -40.030535886609869 0 -40.030535886609869 291.72585416481161 0 0 0 0 0.16538861659278553 -39.254949975020281 0 -39.254949975020281 119.01981486937439 0 0 0 0 74.913659469447126 -142.27335013079573 0 -142.27335013079573 213.69970443019702 0 0 0 0 72.909309958392441 -179.75289148816228 0 -179.75289148816228 348.22682293755929 0 0 0 0 0.014490398648527303 0.10515810408956838 0 0.10515810408956838 1.0277146844098297 0 0 0 0 46.846655087511238 -99.981017725796846 0 -99.981017725796846 111.28759293755138 0 0 0 0 -0.037897676194995705 0.0043192517259171836 0 0.0043192517259171836 1.2463282609856492 0 0 0 0 58.335522421729678 -194.25020497685182 0 -194.25020497685182 450.50856256153202 0 0 0 0 7.943097279570452 -64.941587476256245 0 -64.941587476256245 456.87135831449541 0 0 0 0 0.83586703791155514 -63.474516721918917 0 -63.474516721918917 486.91699164939928 0 0 0 0 0.38705893478070574 -74.211193600033894 0 -74.211193600033894 486.75097039437969 0 0 0 0 5.8029265778848327 -52.064531071169768 0 -52.064531071169768 502.9317339712652 0 0 0 0 1.8435849733311969 -65.302968791705098 0 -65.302968791705098 488.04387717939971 0 0 0 0 2.7873674185794357 -29.350136265835317 0 -29.350136265835317 534.61797111123451 0 0 0 0 -0.11302057150807342 -70.186733953105431 0 -70.186733953105431 540.56574528093188 0 0 0 0 75.256709724227619 -38.760667174981791 0 -38.760667174981791 461.53749123683156 0 0 0 0 35.882716633143389 -136.41208306933913 0 -136.41208306933913 477.47119316842873 0 0 0 0 -0.42649491755261693 -40.425373027817841 0 -40.425373027817841 520.63059470924782 0 0 0 0 167.34117134850504 24.599586066615302 0 24.599586066615302 545.63146564404087 0 0 0 0 -109.40856592466992 48.842710927111511 0 48.842710927111511 654.50289503247768 0 0 0 0 -51.320887837478949 -233.36472821791176 0 -233.36472821791176 443.11914383422118 0 0 0 0 0.4253653948981968 -2.0295043365682659 0 -2.0295043365682659 4.2244529641549207 0 0 0 0 -26.906504506757997 -67.956397530040704 0 -67.956397530040704 567.70359201113752 0 0 0 0 -27.249013613882894 -61.028675280074822 0 -61.028675280074822 583.96445965154271 0 0 0 0 -71.839962214849976 -72.185305108635475 0 -72.185305108635475 590.03707999680773 0 0 0 0 -80.036720537634437 0.04516897231223993 0 0.04516897231223993 538.56980708307674 0 0 0 0 0.099550465548114794 -90.035364599585591 0 -90.035364599585591 584.18449453118956 0 0 0 0 -56.717409992778983 -55.27776612712114 0 -55.27776612712114 662.42073867100407 0 0 0 0 0.71096128209256959 -0.83196323121367755 0 -0.83196323121367755 1.0053078284508672 0 0 0 0 25.925164907869842 64.41830372261029 0 64.41830372261029 121.34843016507511 0 0 0 0 0.18919265290135051 31.250552713536308 0 31.250552713536308 123.72215727127332 0 0 0 0 0.068539810254264005 42.471122636572545 0 42.471122636572545 182.97299426012614 0 0 0 0 -1.5831726937425969 54.754456639926502 0 54.754456639926502 171.51047091391229 0 0 0 0 -7.427992480507001 93.920638107127161 0 93.920638107127161 252.62565475513111 0 0 0 0 41.960226442719105 86.847159657983866 0 86.847159657983866 152.92166429744248 0 0 0 0 41.508433427353282 -122.45925391421406 0 -122.45925391421406 27.975166928357794 0 0 0 0 1.3962882722949079 -1.4736305164386749 0 -1.4736305164386749 0.90500395911173825 0 0 0 0 48.667841182968502 46.393932418272016 0 46.393932418272016 63.52488789173367 0 0 0 0 -52.236975296849458 -204.88548177029588 0 -204.88548177029588 -234.12707334759762 0 0 0 0 -8.7116053623101557 75.214224466935775 0 75.214224466935775 158.97238230207586 0 0 0 0 38.101420113475172 -5.5526225713529129 0 -5.5526225713529129 41.735699109151028 0 0 0 0 8.2187163596098145 110.30556220957442 0 110.30556220957442 291.61207760519756 0 0 0 0 63.260495456815292 109.88294970502466 0 109.88294970502466 133.92522251974151 0 0 0 0 40.646365092853443 108.48411279552965 0 108.48411279552965 237.52388293511467 0 0 0 0 49.095341424196889 186.97419743694627 0 186.97419743694627 269.08710171481653 0 0 0 0 15.055866087941624 105.70830386209127 0 105.70830386209127 397.55106560468266 0 0 0 0 -1.41834597878821 137.28842841754158 0 137.28842841754158 488.55455770358094 0 0 0 0 -2.8244421121353227 177.16528061527788 0 177.16528061527788 555.7074736240902 0 0 0 0 17.858267423224824 99.717230401547567 0 99.717230401547567 296.86982402119611 0 0 0 0 -11.772012621308278 104.51905876553064 0 104.51905876553064 424.40327990929291 0 0 0 0 -0.063258291784965642 49.080091832838662 0 49.080091832838662 378.13182685709035 0 0 0 0 -2.8100940305105269 62.519843848953315 0 62.519843848953315 381.78777197954878 0 0 0 0 19.402292540569675 85.61662112461272 0 85.61662112461272 255.08523422718281 0 0 0 0 -1.6837065955111639 -7.5077461812579003 0 -7.5077461812579003 13.937506610393115 0 0 0 0 -305.49085664843517 -552.75870782868878 0 -552.75870782868878 -246.16164481952001 0 0 0 0 23.358914906440077 81.557756082554988 0 81.557756082554988 157.79611465995549 0 0 0 0 275.80140823469833 -353.51745813684101 0 -353.51745813684101 -385.41875999368494 0 0 0 0 25.013000679824927 56.080462975878618 0 56.080462975878618 113.16224546722515 0 0 0 0 2.4963092012012567 1.9355350366859057 0 1.9355350366859057 61.151292157646822 0 0 0 0 -244.61681916633415 -430.55933692829421 0 -430.55933692829421 -42.544532333849929 0 0 0 0 -7.5009790309570654 -0.94784246254275217 0 -0.94784246254275217 19.710368028193756 0 0 0 0 -349.44998129712121 62.593516491127957 0 62.593516491127957 235.69333083436504 0 0 0 0 5.7270157639311492 135.46681459120009 0 135.46681459120009 306.17261986787344 0 0 0 0 174.32079771931217 717.24306634368259 0 717.24306634368259 1097.3371913840674 0 0 0 0 342.55582608613389 136.95172951772838 0 136.95172951772838 301.93219727983524 0 0 0 0 -26.576542695116299 240.0464958754601 0 240.0464958754601 829.08522163743328 0 0 0 0 2.0137051303431193 157.54953271881823 0 157.54953271881823 460.41561961925981 0 0 0 0 34.89509313291255 201.48125262533722 0 201.48125262533722 466.65114967845329 0 0 0 0 217.34281714519022 246.47511392603337 0 246.47511392603337 92.030892080641934 0 0 0 0 57.393881240682404 153.3055640415223 0 153.3055640415223 -132.2563224719197 0 0 0 0 72.943623498485636 49.270388340737554 0 49.270388340737554 69.668247040310234 0 0 0 0 129.64758621108155 120.93044628375355 0 120.93044628375355 51.021706972678658 0 0 0 0 164.19623804483967 194.92236346390564 0 194.92236346390564 0.85555088796536438 0 0 0 0 -77.924088271346818 -117.89730892782973 0 -117.89730892782973 -71.915979038782098 0 0 0 0 -31.748764076932162 -399.85930827601987 0 -399.85930827601987 -321.71038906054309 0 0 0 0 -334.6649024816241 48.546597012970324 0 48.546597012970324 -154.14756331461831 0 0 0 0 -13.886666236758515 -66.006214810782694 0 -66.006214810782694 -520.94151014235104 0 0 0 0 62.329484741791077 -12.652923846864724 0 -12.652923846864724 32.904829979590431 0 0 0 0 0.56003763704993637 -0.78366196105324093 0 -0.78366196105324093 0.24676098120316681 0 0 0 0 -42.075267259013486 -115.21488816538476 0 -115.21488816538476 -67.361652050632983 0 0 0 0 -289.96977703300712 -167.08270592117333 0 -167.08270592117333 -169.08344556695374 0 0 0 0 111.93727873901526 171.72816812450037 0 171.72816812450037 269.78908138969564 0 0 0 0 0.68599466868677039 -5.8797805131477645 0 -5.8797805131477645 10.837909111628562 0 0 0 0 89.679578728445904 147.53832122735912 0 147.53832122735912 273.99151389851613 0 0 0 0 -5.0059473138210251 92.78110519501206 0 92.78110519501206 193.61677571506152 0 0 0 0 117.83042629859881 149.76822851359066 0 149.76822851359066 201.17846588251996 0 0 0 0 3.0776791291295922 67.548372559816926 0 67.548372559816926 271.7581320647223 0 0 0 0 16.46045417946516 78.529173947681556 0 78.529173947681556 158.67543842823943 0 0 0 0 -3.5345962906258137 91.840487259083602 0 91.840487259083602 220.52518743685505 0 0 0 0 -57.177775107630623 41.219312307104701 0 41.219312307104701 172.95489902528061 0 0 0 0 -45.774779927441614 5.8339072442358884 0 5.8339072442358884 235.40216262917966 0 0 0 0 -113.25478517385727 87.681003508936556 0 87.681003508936556 238.36580117835547 0 0 0 0 -104.30995773508079 38.082288004803559 0 38.082288004803559 233.14219777651306 0 0 0 0 -108.45962377296904 -52.400513944750791 0 -52.400513944750791 43.496360195800662 0 0 0 0 -108.38313997803698 -10.747866029028955 0 -10.747866029028955 290.30531270131905 0 0 0 0 -47.255803692254744 -12.201186696238437 0 -12.201186696238437 265.25876453405363 0 0 0 0 -73.294144970228444 -87.075875651884417 0 -87.075875651884417 398.6198029643856 0 0 0 0 -127.24199233171521 -154.65548661937646 0 -154.65548661937646 314.0956877113058 0 0 0 0 -164.82911880478764 -102.8686847347326 0 -102.8686847347326 379.46895989331824 0 0 0 0 17.460665285087316 141.89364293780818 0 141.89364293780818 795.78933900206175 0 0 0 0 265.57101960927514 400.24067778063909 0 400.24067778063909 602.3210986925842 0 0 0 0 36.273181115037914 60.581110658480611 0 60.581110658480611 360.90684122666607 0 0 0 0 -43.339082423635915 19.03944374535422 0 19.03944374535422 459.17599488468841 0 0 0 0 53.930856595908381 140.46915048629307 0 140.46915048629307 375.76153328070359 0 0 0 0 -48.460379319437607 -127.00176526768337 0 -127.00176526768337 432.65467070060913 0 0 0 0 38.298974974157872 -80.953906067434673 0 -80.953906067434673 435.59543368550658 0 0 0 0 31.944770342958464 -28.794032219921064 0 -28.794032219921064 527.96496769858641 0 0 0 0 85.105658870302733 -153.85412448764873 0 -153.85412448764873 683.02573501157167 0 0 0 0 5.6191448354088607 -119.20595310020144 0 -119.20595310020144 525.40385140459694 0 0 0 0 1.6282716443236041 -90.216242152571795 0 -90.216242152571795 473.97551693247806 0 0 0 0 -30.036849200386314 -151.26249393640865 0 -151.26249393640865 438.0161182970478 0 0 0 0 37.298976162014469 -124.94898178340372 0 -124.94898178340372 429.42433176498162 0 0 0 0 -148.05136803796768 -177.62009770250006 0 -177.62009770250006 357.95087230973877 0 0 0 0 -108.3180144151911 -175.43554332698841 0 -175.43554332698841 402.90074915700552 0 0 0 0 -62.8803054876646 -129.41743683222739 0 -129.41743683222739 439.66546002175892 0 0 0 0 -110.99493092473836 -149.21365602289734 0 -149.21365602289734 447.91384943999583 0 0 0 0 -112.47463113724859 -146.84329090950814 0 -146.84329090950814 452.2124209972244 0 0 0 0 -143.99901732927151 -155.37098829838214 0 -155.37098829838214 451.26951320207445 0 0 0 0 -194.39315985203621 -147.39575717689877 0 -147.39575717689877 440.37917860249581 0 0 0 0 -149.45233186288715 -187.0994471308295 0 -187.0994471308295 458.37753594598325 0 0 0 0 -227.63794034285002 -58.666991766905994 0 -58.666991766905994 288.44454931216387 0 0 0 0 -88.721149992576557 -163.16891076747561 0 -163.16891076747561 308.97368921119778 0 0 0 0 -102.61369600512398 -175.44226794076894 0 -175.44226794076894 393.39249818467943 0 0 0 0 -162.23905716053105 -187.27185667434242 0 -187.27185667434242 589.97488759156113 0 0 0 0 -64.192668220021005 -236.03363595371047 0 -236.03363595371047 394.11989713653747 0 0 0 0 -65.345087323620646 -252.42188320870628 0 -252.42188320870628 593.34513254185731 0 0 0 0 23.247093514106382 -179.70891586197831 0 -179.70891586197831 278.60241231297914 0 0 0 0 91.885737516973677 -321.79515552212615 0 -321.79515552212615 272.31592714611907 0 0 0 0 764.11918019927634 -470.30036513026425 0 -470.30036513026425 225.20744014030788 0 0 0 0 719.23053013293338 -296.55449818787747 0 -296.55449818787747 -278.96835508139338 0 0 0 0 522.15828154952851 -532.11413041644118 0 -532.11413041644118 454.24527138104895 0 0 0 0 307.07168755893326 -471.30340467160568 0 -471.30340467160568 463.24475551539217 0 0 0 0 136.21140474342792 -205.14774026555824 0 -205.14774026555824 112.62707667093491 0 0 0 0 81.855925457804915 -345.74995527094143 0 -345.74995527094143 491.40927685186034 0 0 0 0 129.85013026592424 -419.07998711457185 0 -419.07998711457185 500.89563799809548 0 0 0 0 101.77724437776033 -100.38712924782885 0 -100.38712924782885 68.866556266351836 0 0 0 0 117.27929540632431 -115.63258707971545 0 -115.63258707971545 80.253206983441487 0 0 0 0 264.02714250716326 -425.67668757952924 0 -425.67668757952924 -27.547457948705414 0 0 0 0 615.89519262837894 -91.123647298227297 0 -91.123647298227297 -630.13039137085434 0 0 0 0 140.19877132207375 -104.47636531442549 0 -104.47636531442549 47.568783961178269 0 0 0 0 -5.5814589357835569 -0.064466771560574898 0 -0.064466771560574898 11.674354193036379 0 0 0 0 3.9807558852953662 -0.12811512817279436 0 -0.12811512817279436 24.170650318192202 0 0 0 0 -1.569119013442668 -0.48671668504843524 0 -0.48671668504843524 5.2960734406983931 0 0 0 0 -40.255257025637547 -33.698401947047387 0 -33.698401947047387 73.588193227915326 0 0 0 0 -1.7336004034218888 5.6448029518111227 0 5.6448029518111227 29.231963090794636 0 0 0 0 -6.6851502192287935 -5.0753961989755396 0 -5.0753961989755396 2.8178738427706094 0 0 0 0 -14.562878890636057 12.793706222964829 0 12.793706222964829 33.879987654145225 0 0 0 0 72.6570773503081 -43.289974329221877 0 -43.289974329221877 69.079328135201649 0 0 0 0 128.87379971514383 -92.421600735135144 0 -92.421600735135144 41.007650252111489 0 0 0 0 29.815946314965913 -140.59530953138892 0 -140.59530953138892 159.246623418323 0 0 0 0 -1.0747153999186594 -127.04758698840305 0 -127.04758698840305 179.67659945366904 0 0 0 0 132.73562017074551 -166.32066113276596 0 -166.32066113276596 137.87512422559666 0 0 0 0 0.034482918709727528 -93.038191251689568 0 -93.038191251689568 139.35616726816079 0 0 0 0 32.639432964936077 -13.202353348773613 0 -13.202353348773613 21.349484548321925 0 0 0 0 -24.732379030089987 -96.669528393744258 0 -96.669528393744258 169.54038319757092 0 0 0 0 -51.5777112581859 -27.500415738330048 0 -27.500415738330048 110.97721447805452 0 0 0 0 -4.292591307452037 -2.5188766497562938 0 -2.5188766497562938 -1.4261198188887647 0 0 0 0 -12.448639000563389 5.4274026153325394 0 5.4274026153325394 27.859792644318077 0 0 0 0 -100.39413795152177 37.542404318453919 0 37.542404318453919 64.94049802023801 0 0 0 0 -3.7464185454578409 11.069948529057541 0 11.069948529057541 28.067109006579329 0 0 0 0 -1.1590870908206128 7.2109690357042311 0 7.2109690357042311 23.8612351341921 0 0 0 0 -13.44204745490606 45.660858084345818 0 45.660858084345818 24.692162852108595 0 0 0 0 -11.486424889737464 20.269496472836181 0 20.269496472836181 39.381616721148021 0 0 0 0 -52.370527748720633 -20.320291222284141 0 -20.320291222284141 61.476766396779567 0 0 0 0 -63.841462400064302 97.63169597646629 0 97.63169597646629 -0.84631560918933246 0 0 0 0 -9.7792627488991997 -6.7932494046367253 0 -6.7932494046367253 10.115361617921138 0 0 0 0 890.16148818896909 1260.4520683574956 0 1260.4520683574956 1478.9185291876784 0 0 0 0 -71.562909717261391 -38.484830136170785 0 -38.484830136170785 20.622903803305235 0 0 0 0 -1.5572030521630928 -1.0451428433682963 0 -1.0451428433682963 -0.51154863793649952 0 0 0 0 0.97919105488199421 -233.8171426636618 0 -233.8171426636618 189.6245386175724 0 0 0 0 56.46142442596647 44.012905146257253 0 44.012905146257253 70.866091840915033 0 0 0 0 -355.1425195558154 -56.457535181027197 0 -56.457535181027197 269.84244368900545 0 0 0 0 -299.93097978124479 162.9726060631474 0 162.9726060631474 -0.866471869754605 0 0 0 0 -145.71531199836727 -133.95775394991142 0 -133.95775394991142 209.68891409414937 0 0 0 0 -53.135704601960697 -81.898317003287957 0 -81.898317003287957 143.34861583411111 0 0 0 0 -84.082587988122725 18.294248633292227 0 18.294248633292227 68.098025404528016 0 0 0 0 -747.96567202555661 379.49806868442101 0 379.49806868442101 -11.276961407050294 0 0 0 0 -138.76469990268038 114.96074477646835 0 114.96074477646835 -40.002523535178625 0 0 0 0 -48.974201400159473 166.02297640946199 0 166.02297640946199 318.34489130287693 0 0 0 0 8.7745457325593463 22.911835637083456 0 22.911835637083456 27.320747502521215 0 0 0 0 -12.813999965630385 -1.7276500237838377 0 -1.7276500237838377 10.478471476547028 0 0 0 0 8.8818089858577878 -0.14163257530162809 0 -0.14163257530162809 -0.32473191894678166 0 0 0 0 -0.85645579302186725 5.5282315279165744 0 5.5282315279165744 7.9227892914397842 0 0 0 0 1.8053588627608406 2.5430678708144114 0 2.5430678708144114 36.87663990002693 0 0 0 0 -5.0721976412998782 12.034188076970779 0 12.034188076970779 19.538781197337755 0 0 0 0 252.76483438675086 -0.70572079276462318 0 -0.70572079276462318 -201.70159956921998 0 0 0 0 -119.74592091710929 -69.321776778222556 0 -69.321776778222556 201.77708136057481 0 0 0 0 100.55651769273754 205.66110121957172 0 205.66110121957172 356.53052021855547 0 0 0 0 67.929169517619812 222.41428124337108 0 222.41428124337108 632.10389568076062 0 0 0 0 -252.40537528813002 -140.30110338621307 0 -140.30110338621307 -240.26836876900052 0 0 0 0 250.33306031429152 252.07715456016012 0 252.07715456016012 199.69093405974854 0 0 0 0 333.74763175657199 317.7327596720279 0 317.7327596720279 -97.113571814246825 0 0 0 0 -128.88439166559147 -184.52024205613998 0 -184.52024205613998 -289.19968918815721 0 0 0 0 -1.863731133904647 -0.15531094293461933 0 -0.15531094293461933 2.5697693605470135 0 0 0 0 -4.6266498103618847 4.777140199900316 0 4.777140199900316 17.197930542256159 0 0 0 0 -3.533341907787058 -2.3905330879752 0 -2.3905330879752 13.459366283142955 0 0 0 0 -3.8179161000261956 -0.46671896871703211 0 -0.46671896871703211 7.3463474236195907 0 0 0 0 -7.6598280910766334 21.929935531341471 0 21.929935531341471 -237.3420826663496 0 0 0 0 -3.1289628086851735 9.1278951746062376 0 9.1278951746062376 39.308538486657199 0 0 0 0 -3.8342547748388824 11.839154073990358 0 11.839154073990358 29.973783153487602 0 0 0 0 4.4711431939927024 27.106301203635667 0 27.106301203635667 2.2167317206185544 0 0 0 0 -1.5499400921517008 12.473335746952216 0 12.473335746952216 26.551741727103945 0 0 0 0 -11.35143354455613 40.621941753190185 0 40.621941753190185 30.408395807899069 0 0 0 0 -21.727356720267153 15.011988847034445 0 15.011988847034445 51.989647507027257 0 0 0 0 19.254300003883145 5.0676215949060861 0 5.0676215949060861 45.566037441389199 0 0 0 0 -5.7876527916993155 0.45379060007689986 0 0.45379060007689986 33.927758629622986 0 0 0 0 10.005097102848595 15.061301480636757 0 15.061301480636757 44.869087252402096 0 0 0 0 20.871924172561194 -23.136162303882884 0 -23.136162303882884 53.533161845523864 0 0 0 0 -21.447609072974046 -12.791545704072632 0 -12.791545704072632 104.50538005702765 0 0 0 0 -17.155514575824782 2.9832571348633792 0 2.9832571348633792 38.903409357990313 0 0 0 0 -14.80891135881734 61.660587422256867 0 61.660587422256867 257.52708578258171 0 0 0 0 15.091718890753327 70.652739466782805 0 70.652739466782805 54.889772508133319 0 0 0 0 28.295785896197231 -8.3955666373949498 0 -8.3955666373949498 61.399954855696706 0 0 0 0 -47.001213086483403 -74.427402574241569 0 -74.427402574241569 412.7270251121372 0 0 0 0 -49.734877915286233 -51.424076627368777 0 -51.424076627368777 313.74819870907231 0 0 0 0 15.302366693968906 -56.277029561115341 0 -56.277029561115341 148.54691704716242 0 0 0 0 8.9508360653451291 23.787327382870899 0 23.787327382870899 119.77295798585692 0 0 0 0 4.7230876609792176 35.874951557152599 0 35.874951557152599 54.21233930560993 0 0 0 0 4.9752631538958667 -4.7287017883718363 0 -4.7287017883718363 96.776650181935111 0 0 0 0 50.088775003232513 -53.105535606744525 0 -53.105535606744525 67.620170455898915 0 0 0 0 3.7436919124015731 -46.306878018909629 0 -46.306878018909629 170.52622576519934 0 0 0 0 -41.817095745526785 -160.04588947430602 0 -160.04588947430602 390.50746934132724 0 0 0 0 78.358882594645365 -167.62193288880735 0 -167.62193288880735 210.49421319326211 0 0 0 0 -37.309542664059336 -96.658726594156178 0 -96.658726594156178 388.98186163669607 0 0 0 0 -76.65656615167336 -122.1091116244861 0 -122.1091116244861 353.24231267210416 0 0 0 0 -38.222499191281713 -108.10685220763844 0 -108.10685220763844 308.35192675091093 0 0 0 0 -42.567570913469865 -150.34854035216949 0 -150.34854035216949 341.23069799342193 0 0 0 0 -50.53581136556295 -134.63513803474052 0 -134.63513803474052 318.15764730315641 0 0 0 0 -37.893717392411872 -108.85893325608413 0 -108.85893325608413 344.4151031847432 0 0 0 0 -65.668666533978467 -84.658418088583858 0 -84.658418088583858 275.04487208370847 0 0 0 0 -29.711476816431059 -134.67400720485603 0 -134.67400720485603 325.65693012777774 0 0 0 0 -15.4317773705435 -59.655922142930649 0 -59.655922142930649 279.76398251741193 0 0 0 0 18.589123348404428 -85.825950475787977 0 -85.825950475787977 241.93176747111283 0 0 0 0 123.17474603023675 -118.21283991775999 0 -118.21283991775999 304.31424700732168 0 0 0 0 2.8089074147737847 -150.08144850420649 0 -150.08144850420649 386.11415967949142 0 0 0 0 20.083290562117782 -93.746709370447206 0 -93.746709370447206 228.39034561613744 0 0 0 0 0.49247038572360502 7.3144631817378638 0 7.3144631817378638 20.702972045792308 0 0 0 0 195.81831931679699 -16.679155610792805 0 -16.679155610792805 235.36267977489933 0 0 0 0 19.798424881341361 -96.480093649712217 0 -96.480093649712217 220.31859906297177 0 0 0 0 -122.46823950113367 30.142343596467981 0 30.142343596467981 229.81234658789617 0 0 0 0 -149.93430884545523 -26.220167859704816 0 -26.220167859704816 268.81112992386625 0 0 0 0 -269.3262439418595 117.96095864709059 0 117.96095864709059 194.93442923972179 0 0 0 0 -192.58228039468031 -100.63328982954408 0 -100.63328982954408 165.40001700234279 0 0 0 0 -183.75162878436277 -41.898110759488191 0 -41.898110759488191 259.26117432590399 0 0 0 0 757.31062219508476 -852.37774756420185 0 -852.37774756420185 887.96146737046365 0 0 0 0 -9.412575155165996 -155.9730737440841 0 -155.9730737440841 282.46569903490308 0 0 0 0 0.28224225781262646 -1.2726480095355157 0 -1.2726480095355157 -1.0225735550388606 0 0 0 0 -180.6812615168497 187.62293688353463 0 187.62293688353463 -67.069714586730697 0 0 0 0 -411.40401349864987 93.85748533977312 0 93.85748533977312 435.33500359165191 0 0 0 0 98.628361484115885 -1709.2665118670266 0 -1709.2665118670266 164.1966056447709 0 0 0 0 1.8088526003734025 3.1303585530628197 0 3.1303585530628197 6.6487071867160807 0 0 0 0 -687.01262099281485 509.10087013345765 0 509.10087013345765 -25.611774374221568 0 0 0 0 1.0178222505025616 16.532897777431863 0 16.532897777431863 48.253904491355513 0 0 0 0 -52.95105042434443 55.710852106398306 0 55.710852106398306 49.095745956525207 0 0 0 0 9.1197585978497955 42.403967902762815 0 42.403967902762815 7.6952665206044912 0 0 0 0 49.136947750480431 -13.570317834870366 0 -13.570317834870366 26.95157066914544 0 0 0 0 -56.438483858231848 36.755542171245907 0 36.755542171245907 77.074838866741629 0 0 0 0 3.0804100173860327 9.0237560224938775 0 9.0237560224938775 27.499836052214619 0 0 0 0 73.652945622410698 200.51685124172218 0 200.51685124172218 -451.7856102587175 0 0 0 0 187.51425724414275 -110.34867292669514 0 -110.34867292669514 -22.385117482917849 0 0 0 0 49.986058345315541 -152.12269258396191 0 -152.12269258396191 365.49226273456588 0 0 0 0 298.52286575468588 -111.69373510951118 0 -111.69373510951118 347.53845633775745 0 0 0 0 1.2930910853714144 3.1382642789771324 0 3.1382642789771324 8.4931722552253746 0 0 0 0 38.032549606492012 -158.20074626882342 0 -158.20074626882342 468.2446431433782 0 0 0 0 178.76730931019756 156.68755385137047 0 156.68755385137047 773.68356801284244 0 0 0 0 -792.8313289571397 309.87236445544113 0 309.87236445544113 527.0069846329352 0 0 0 0 -771.52087052661773 539.86334949538286 0 539.86334949538286 40.660360648296773 0 0 0 0 393.29735775587301 148.23432818153015 0 148.23432818153015 -223.35789701329486 0 0 0 0 -7.4288179448221854 23.47250050243747 0 23.47250050243747 65.056306932816369 0 0 0 0 -18.464333907534638 -27.186966441313416 0 -27.186966441313416 96.342371711973101 0 0 0 0 -2.0535514192731785 6.6151301109243832 0 6.6151301109243832 30.643235915666168 0 0 0 0 0.18893991072364713 -4.6948432607496784 0 -4.6948432607496784 19.052209943076662 0 0 0 0 3.8666430399498495 1.4827220099650731 0 1.4827220099650731 155.58908189890644 0 0 0 0 119.44190831877359 -79.264213182057574 0 -79.264213182057574 145.46045378269628 0 0 0 0 -74.389333142788928 72.722528063866775 0 72.722528063866775 612.54193533827493 0 0 0 0 1.1683328786134428 -3.981070006092537 0 -3.981070006092537 4.7933839617944614 0 0 0 0 -69.361822793680403 206.72609781952633 0 206.72609781952633 989.48113349160121 0 0 0 0 251.3493487409537 -192.92864805990757 0 -192.92864805990757 -476.71998006812646 0 0 0 0 -585.24654821375407 -571.70520919530099 0 -571.70520919530099 295.80323904551005 0 0 0 0 88.288996272337499 163.4472877403241 0 163.4472877403241 802.95060879326047 0 0 0 0 1.0077150076182964 3.2072866790460779 0 3.2072866790460779 5.8230436410182733 0 0 0 0 72.587529531615473 174.94805275848921 0 174.94805275848921 490.22509274884578 0 0 0 0 219.07037203056802 143.23521806522149 0 143.23521806522149 85.749611494247802 0 0 0 0 -166.70287757459755 -983.19456998660462 0 -983.19456998660462 -333.04416940011288 0 0 0 0 -135.82482557058324 -620.25374724657468 0 -620.25374724657468 525.48186977350269 0 0 0 0 -159.47095045084734 -507.37086213503062 0 -507.37086213503062 90.243838517744734 0 0 0 0 757.34567265492478 102.41304696026054 0 102.41304696026054 -323.7235991920752 0 0 0 0 3.5260521601734602 7.182705387608749 0 7.182705387608749 -8.3866215952129437 0 0 0 0 72.726649998063294 -24.144767665518884 0 -24.144767665518884 -10.702790601226297 0 0 0 0 2.1921830438650431 13.849761164119627 0 13.849761164119627 13.231783453549724 0 0 0 0 44.615921504838752 66.614377444187994 0 66.614377444187994 40.915145418013708 0 0 0 0 -516.82905391681652 352.71084655937011 0 352.71084655937011 341.2961707860959 0 0 0 0 -21.329610918161052 47.776278504494258 0 47.776278504494258 66.209789241387625 0 0 0 0 0.73387485524421159 7.212051693720916 0 7.212051693720916 26.466042766532496 0 0 0 0 18.191917342435772 128.62686852321349 0 128.62686852321349 408.76489428274726 0 0 0 0 -113.9677429981075 -132.67676896192643 0 -132.67676896192643 -10.878620502262493 0 0 0 0 35.782137810221684 84.269835105194943 0 84.269835105194943 337.85970708391687 0 0 0 0 226.99834178184938 172.29850183535746 0 172.29850183535746 149.91447427633102 0 0 0 0 140.02268832061418 274.83573734880338 0 274.83573734880338 596.75039128689968 0 0 0 0 -39.967978241762466 -5.7059504510398256 0 -5.7059504510398256 638.69771412057162 0 0 0 0 -87.568991000892765 26.700944237549265 0 26.700944237549265 712.38017990355729 0 0 0 0 4.6004456221980945 -89.275487247941783 0 -89.275487247941783 352.61066053750983 0 0 0 0 -185.69501198351645 -245.22677123565518 0 -245.22677123565518 867.85511377859439 0 0 0 0 -11.450603029100421 -28.365257095967536 0 -28.365257095967536 112.66665985271538 0 0 0 0 -12.262446404994535 -7.5985296662220208 0 -7.5985296662220208 135.31781492289156 0 0 0 0 -59.052898280535373 4.300746969624015 0 4.300746969624015 163.4721247315465 0 0 0 0 -3.8743577378809402 6.3918074790878734 0 6.3918074790878734 12.887687466234269 0 0 0 0 -82.081178347676769 -88.852951655896504 0 -88.852951655896504 274.06517384428298 0 0 0 0 -83.755749986961746 -12.27395359021466 0 -12.27395359021466 158.0811390238523 0 0 0 0 -92.706305959290148 55.486574290825956 0 55.486574290825956 12.585117635877396 0 0 0 0 -160.83513075223163 46.683878152616671 0 46.683878152616671 196.87722862440569 0 0 0 0 -1.8607765376609215 -2.5670995634475275 0 -2.5670995634475275 12.761832697800529 0 0 0 0 -95.709325883758083 -34.839963524000268 0 -34.839963524000268 139.29818729804538 0 0 0 0 -49.644752830798097 19.297152431485301 0 19.297152431485301 198.4456505933922 0 0 0 0 -97.901698565123752 -68.069603754640411 0 -68.069603754640411 343.60995673047728 0 0 0 0 -49.161806232997463 5.0189177622833085 0 5.0189177622833085 456.83836444425106 0 0 0 0 33.283026562840405 -174.18456853084717 0 -174.18456853084717 686.02755628914747 0 0 0 0 23.457644741202785 -98.669450970213802 0 -98.669450970213802 333.67642339407757 0 0 0 0 71.011933504625631 131.35593571740174 0 131.35593571740174 149.22353781373386 0 0 0 0 32.826472501233184 91.537187966438069 0 91.537187966438069 132.13023823783806 0 0 0 0 87.378483797392164 103.20784353358249 0 103.20784353358249 42.770444170389965 0 0 0 0 69.071345136575474 75.709939704407589 0 75.709939704407589 7.9475565569591708 0 0 0 0 7.5015704016209082 2.0217070124495677 0 2.0217070124495677 -10.053916219012763 0 0 0 0 35.411415602464331 42.377203313575592 0 42.377203313575592 10.401489418908113 0 0 0 0 -9.4321589333840166 58.91660600281466 0 58.91660600281466 66.903866924665635 0 0 0 0 -16.015698316734415 110.93817190457776 0 110.93817190457776 93.340030755145563 0 0 0 0 28.640451077138096 71.206582126411377 0 71.206582126411377 64.586165975299082 0 0 0 0 12.947469734224796 84.71354255334154 0 84.71354255334154 65.265769312143675 0 0 0 0 -67.916712972085293 3.4711948283502352 0 3.4711948283502352 96.340799614205025 0 0 0 0 -83.545363528408416 64.289387908011122 0 64.289387908011122 95.076184015037143 0 0 0 0 -3.0785217591619585 40.802441095809627 0 40.802441095809627 58.967886301423277 0 0 0 0 -8.7683895583440972 25.26444447011454 0 25.26444447011454 40.138039642217336 0 0 0 0 -13.140387583005577 11.319812775556784 0 11.319812775556784 67.846042703960848 0 0 0 0 -12.15957105004918 5.4457099680112151 0 5.4457099680112151 77.491998158744536 0 0 0 0 -3.5578112948406897 8.9774264255133858 0 8.9774264255133858 77.149418484346825 0 0 0 0 89.087848564540764 -274.23651455860818 0 -274.23651455860818 94.254447824656381 0 0 0 0 80.01532955816856 -72.899396206081292 0 -72.899396206081292 -59.593058746686438 0 0 0 0 35.73396505317362 -204.87172156138695 0 -204.87172156138695 393.0768035146466 0 0 0 0 -4.7658767921202525 -98.598022206511814 0 -98.598022206511814 198.4415286616786 0 0 0 0 195.02574106689644 -464.68981906876434 0 -464.68981906876434 415.81739123290026 0 0 0 0 -69.15852518897205 159.95584590862489 0 159.95584590862489 -9.2798679872212233 0 0 0 0 -67.134106218506389 -10.458740958170665 0 -10.458740958170665 162.67276624863734 0 0 0 0 -0.030123213851346975 12.286607247624744 0 12.286607247624744 35.13363415979569 0 0 0 0 0.63510241170115478 33.655057621414016 0 33.655057621414016 43.342408611046267 0 0 0 0 1.2389074564626412 28.635504937119549 0 28.635504937119549 35.803680605080444 0 0 0 0 83.977883497082985 773.31914602874895 0 773.31914602874895 928.43716373425559 0 0 0 0 5.9992026236261324 -5.0920142308788456 0 -5.0920142308788456 9.9854191917918911 0 0 0 0 283.48931793364045 682.34064894067706 0 682.34064894067706 232.31409599413746 0 0 0 0 178.17414036735863 759.94011381640848 0 759.94011381640848 533.02934813383035 0 0 0 0 107.53326472763001 645.81312447294476 0 645.81312447294476 500.22887077556516 0 0 0 0 183.2969462065048 768.63301674373724 0 768.63301674373724 381.16885763753089 0 0 0 0 272.96510320807829 301.79708291849238 0 301.79708291849238 107.58115805499256 0 0 0 0 710.91809883004601 442.76122073046281 0 442.76122073046281 128.5313078063773 0 0 0 0 1.719847858175132 2.7235614300461037 0 2.7235614300461037 5.5942024336434315 0 0 0 0 38.98016418279758 -356.8499675582425 0 -356.8499675582425 1023.3223881068479 0 0 0 0 -291.93765018592512 5.2589411896042293 0 5.2589411896042293 1315.8124053730426 0 0 0 0 5.8701228776566854 3.2501033707052329 0 3.2501033707052329 -3.3265890551617758 0 0 0 0 664.7973572424753 -426.48723490275734 0 -426.48723490275734 892.10298082702502 0 0 0 0 31.502862555166757 37.043130502199347 0 37.043130502199347 37.595732431305805 0 0 0 0 -312.77309637070448 430.19106939221092 0 430.19106939221092 1007.2583225679409 0 0 0 0 -101.40946227256018 588.82933133446568 0 588.82933133446568 292.83290968401707 0 0 0 0 44.214447331840802 91.961059464221762 0 91.961059464221762 -156.07165444044222 0 0 0 0 -86.293384623964812 277.65581181978632 0 277.65581181978632 315.68157743725169 0 0 0 0 14.495498684597123 60.776124318665097 0 60.776124318665097 332.08022319902375 0 0 0 0 -92.83224830726067 26.918907521565416 0 26.918907521565416 119.90124717215076 0 0 0 0 -15.317927765915556 116.96113415680884 0 116.96113415680884 663.74188877647975 0 0 0 0 -35.044690936937513 46.666908457369573 0 46.666908457369573 14.968134155817097 0 0 0 0 -40.41990723075287 29.065853103787958 0 29.065853103787958 -49.045809179602657 0 0 0 0 -77.44824776230007 46.354814007223467 0 46.354814007223467 16.069430850955541 0 0 0 0 3.6371459645525279 9.2156090672902238 0 9.2156090672902238 12.857237021051276 0 0 0 0 2.3999636645757771 12.902127561313044 0 12.902127561313044 29.531994988833162 0 0 0 0 -436.63699269438939 106.58500468040802 0 106.58500468040802 888.13419039112341 0 0 0 0 271.57389385427859 37.418624302423268 0 37.418624302423268 -287.42913044819579 0 0 0 0 677.24320972454143 -542.71291256100449 0 -542.71291256100449 128.70583161852846 0 0 0 0 -174.61824785919771 91.344927140933578 0 91.344927140933578 747.48481827738578 0 0 0 0 -182.30921757967826 6.8872635463339975 0 6.8872635463339975 430.32305523609102 0 0 0 0 -39.491968412819915 -66.984592327477003 0 -66.984592327477003 121.54006194979229 0 0 0 0 9.918106068299009 12.934500494526148 0 12.934500494526148 10.194569623926895 0 0 0 0 -8.101095315873863 2.617635186195912 0 2.617635186195912 13.450634292545146 0 0 0 0 -75.818069175610162 475.02285411677076 0 475.02285411677076 1106.4334919211542 0 0 0 0 105.97822067759807 709.78163117929944 0 709.78163117929944 691.75806124431256 0 0 0 0 -196.03688275969489 261.54967585138365 0 261.54967585138365 746.97970676192108 0 0 0 0 -38.38342009245298 -58.03673594877182 0 -58.03673594877182 26.782414272383903 0 0 0 0 -181.53507282927558 -92.867515282887325 0 -92.867515282887325 360.26665950589813 0 0 0 0 -142.71367778845706 30.203906437229307 0 30.203906437229307 361.43058613345784 0 0 0 0 -166.92059632750124 -6.0188612370111514 0 -6.0188612370111514 346.74898502431461 0 0 0 0 -107.85823465354952 25.356566724913137 0 25.356566724913137 255.8065588062309 0 0 0 0 -143.96718641030225 -128.0603367448457 0 -128.0603367448457 182.13662235124502 0 0 0 0 -79.685411900269173 87.961563472854323 0 87.961563472854323 174.97317153197946 0 0 0 0 -121.03016248665767 -11.515531002945863 0 -11.515531002945863 300.98873974839807 0 0 0 0 -30.721075917574126 50.013903295322962 0 50.013903295322962 336.65236059985182 0 0 0 0 112.03639533133901 -59.901262461127772 0 -59.901262461127772 273.55993433176991 0 0 0 0 -54.078364679498918 59.984878240415128 0 59.984878240415128 194.58317748311674 0 0 0 0 -80.353070086393231 -32.70608955724822 0 -32.70608955724822 298.89510634807812 0 0 0 0 26.305910344769927 13.187448302471196 0 13.187448302471196 2.8181973663823783 0 0 0 0 -38.02455228582221 83.595081407118414 0 83.595081407118414 -43.632807002679328 0 0 0 0 -207.73309649559815 -1.020494530799624 0 -1.020494530799624 180.21069138456369 0 0 0 0 1205.4211713783297 -410.54398362306529 0 -410.54398362306529 334.56327355022222 0 0 0 0 144.74165439877243 -679.73736937422836 0 -679.73736937422836 964.59377233500709 0 0 0 0 -1102.3641623813255 -248.55203839690512 0 -248.55203839690512 1933.2557384899264 0 0 0 0 -780.42548376211198 -144.0621264395013 0 -144.0621264395013 934.19475651186485 0 0 0 0 -337.09913515815424 425.22152301897586 0 425.22152301897586 950.96971448478871 0 0 0 0 -264.42002059304963 19.311726820059448 0 19.311726820059448 310.71065480438119 0 0 0 0 4.1817518881389333 148.34991900697059 0 148.34991900697059 274.39990448925528 0 0 0 0 111.85631830035982 269.65701227523095 0 269.65701227523095 228.98309166987201 0 0 0 0 111.79082303732093 247.3647680081267 0 247.3647680081267 175.35572312182921 0 0 0 0 95.650816543537985 337.36668640473454 0 337.36668640473454 -31.387737878823827 0 0 0 0 154.72015631405611 553.26700051576699 0 553.26700051576699 290.20739224209683 0 0 0 0 0.87832300596826585 3.005441762445237 0 3.005441762445237 10.550688579719633 0 0 0 0 9.8510406076361505 96.176594597505755 0 96.176594597505755 106.73202707440942 0 0 0 0 -97.108095552910072 -102.45228836066235 0 -102.45228836066235 313.46848409278755 0 0 0 0 1.5001225483988332 2.0384608517585434 0 2.0384608517585434 1.6175050249030392 0 0 0 0 -178.37970892457861 -52.739034773698222 0 -52.739034773698222 845.47679461255029 0 0 0 0 3.0408311956311991 -260.70250566448885 0 -260.70250566448885 469.38234349703998 0 0 0 0 820.40616304921605 564.66902771273453 0 564.66902771273453 293.46053639781712 0 0 0 0 5.8552968087039332 3.3472621220796839 0 3.3472621220796839 1.7193884251075104 0 0 0 0 110.68035377250135 -33.268554130401753 0 -33.268554130401753 67.614561000809772 0 0 0 0 -299.20266806974269 69.647624555247603 0 69.647624555247603 74.704477185371616 0 0 0 0 -90.149751155059221 -98.777914138667256 0 -98.777914138667256 219.43863503167086 0 0 0 0 -90.330701661260719 129.6456859819009 0 129.6456859819009 60.73276764126058 0 0 0 0 0.52667603303780197 150.9078619777938 0 150.9078619777938 -135.84474076633342 0 0 0 0 -60.519682156717863 -25.651450532954186 0 -25.651450532954186 25.095424151257248 0 0 0 0 -4.0031919950116226 1.016939595706333 0 1.016939595706333 6.746176192752678 0 0 0 0 -29.474554997822906 191.70128052932705 0 191.70128052932705 19.423659605043213 0 0 0 0 35.152101855044293 -83.9838956711028 0 -83.9838956711028 -52.304316701680364 0 0 0 0 99.641885846844161 80.525396935212484 0 80.525396935212484 -18.239374761861654 0 0 0 0 140.12266638755818 46.0976694022429 0 46.0976694022429 97.288651403410768 0 0 0 0 152.76454900401382 3.9007304354763619 0 3.9007304354763619 143.81726154015632 0 0 0 0 -132.11300315641984 -15.485222170435009 0 -15.485222170435009 472.05046936050348 0 0 0 0 163.02217379502736 -148.13811598109169 0 -148.13811598109169 -173.51110791384053 0 0 0 0 -444.16287788079899 -442.12308631069027 0 -442.12308631069027 154.80862910117139 0 0 0 0 4.6772001495028839 0.62701049833287925 0 0.62701049833287925 0.31549015788232282 0 0 0 0 20.114575364603297 -35.927730341994902 0 -35.927730341994902 353.84413372570998 0 0 0 0 -186.09806614340062 115.66066156650413 0 115.66066156650413 422.51365876263299 0 0 0 0 75.681728061969807 149.37600746985845 0 149.37600746985845 -11.007246810782817 0 0 0 0 -131.27835298570335 167.28684714047995 0 167.28684714047995 200.33030924070772 0 0 0 0 19.272970748706939 13.761464269977296 0 13.761464269977296 107.14461220483281 0 0 0 0 11.92263841621434 24.680972724228923 0 24.680972724228923 103.7501913436372 0 0 0 0 2.1690147232028938 -3.1568550984206638 0 -3.1568550984206638 4.3377914274710179 0 0 0 0 10.352141306729663 24.060511859410326 0 24.060511859410326 108.0672777009022 0 0 0 0 19.983145224384259 10.606116136346827 0 10.606116136346827 101.51439091379871 0 0 0 0 15.036821190811242 17.52283992170851 0 17.52283992170851 91.960172123799566 0 0 0 0 39.797277990168027 29.995207461775863 0 29.995207461775863 32.250827555297292 0 0 0 0 129.34866156954024 -3.0677570261104847 0 -3.0677570261104847 31.063061575172469 0 0 0 0 5.9299683721851579 41.023160859585914 0 41.023160859585914 78.071233419243072 0 0 0 0 529.9443373266613 -217.49479952016554 0 -217.49479952016554 255.39245654596016 0 0 0 0 132.17322328658247 316.52655511350895 0 316.52655511350895 -98.05991689687653 0 0 0 0 403.42031840861273 269.45407518743013 0 269.45407518743013 -236.25207849482831 0 0 0 0 432.9828861215874 36.127024371831794 0 36.127024371831794 -109.04628955610679 0 0 0 0 222.03558852719925 126.11312961562362 0 126.11312961562362 -40.246269924035005 0 0 0 0 57.85502610818105 52.26684433011178 0 52.26684433011178 51.427994520330685 0 0 0 0 41.306187137736742 117.87002289704833 0 117.87002289704833 181.776169531091 0 0 0 0 -127.12849969069272 83.23747437109887 0 83.23747437109887 202.97489557585504 0 0 0 0 123.28808884504097 -49.402628486430331 0 -49.402628486430331 235.62615037503565 0 0 0 0 0.31745078031687157 -1.7948859135446469 0 -1.7948859135446469 3.1971976626825551 0 0 0 0 211.849662683117 -74.233737744019891 0 -74.233737744019891 189.00784202699288 0 0 0 0 340.99596067390485 134.82503869928769 0 134.82503869928769 161.80251862791192 0 0 0 0 254.69985168484908 -54.283887873698404 0 -54.283887873698404 81.91899188082607 0 0 0 0 192.48880806707086 100.13125369878071 0 100.13125369878071 173.50217797607183 0 0 0 0 47.327377260587127 95.768129426127416 0 95.768129426127416 8.6456177422151086 0 0 0 0 123.42571682977518 -175.1719331125787 0 -175.1719331125787 121.3082793285721 0 0 0 0 133.47182544354069 -120.61286481295974 0 -120.61286481295974 90.976936893261154 0 0 0 0 -159.4470078406612 59.390881717549746 0 59.390881717549746 44.409963181635248 0 0 0 0 -167.1882172759324 -72.160562173572544 0 -72.160562173572544 321.50200918944756 0 0 0 0 0.92630673115513673 -80.800452274903364 0 -80.800452274903364 80.779598974128021 0 0 0 0 94.352171070506415 -15.06133080014115 0 -15.06133080014115 62.502866505179554 0 0 0 0 -13.179140083984294 -21.004510152793955 0 -21.004510152793955 103.05632952355518 0 0 0 0 12.264672117763212 -11.881998162942182 0 -11.881998162942182 65.127836121237124 0 0 0 0 -24.544563838752083 -47.342085284828499 0 -47.342085284828499 96.730371574405581 0 0 0 0 -64.584544151926821 -46.403957341884961 0 -46.403957341884961 104.55117117306509 0 0 0 0 -103.3270796254028 -29.760616045052302 0 -29.760616045052302 114.31229797570995 0 0 0 0 -83.957977423728607 -5.6130187671587919 0 -5.6130187671587919 95.82062682294054 0 0 0 0 -90.966181291077305 0.4157350410005165 0 0.4157350410005165 91.077699607922114 0 0 0 0 -131.72681183250279 7.3256514850872918 0 7.3256514850872918 110.17214601424348 0 0 0 0 -137.26820250287619 28.762156356817286 0 28.762156356817286 97.817780601420964 0 0 0 0 -100.39019826898584 21.140829014442716 0 21.140829014442716 73.409111801185645 0 0 0 0 -132.32837073931296 59.10532349938876 0 59.10532349938876 43.334561276329623 0 0 0 0 -160.90449058931839 64.07489676047976 0 64.07489676047976 46.222096973360749 0 0 0 0 -163.00331355113303 -23.409475571243092 0 -23.409475571243092 164.95639908548037 0 0 0 0 -62.973302005428877 -43.980377638381469 0 -43.980377638381469 98.992006343818503 0 0 0 0 -0.007708263970245554 0.7891588085622061 0 0.7891588085622061 42.465678306936752 0 0 0 0 111.4823600082309 34.551539892550863 0 34.551539892550863 13.600210995733505 0 0 0 0 -0.65739589666034237 3.7456733564130928 0 3.7456733564130928 31.225368187463687 0 0 0 0 -33.689757056939015 2.7702895950569655 0 2.7702895950569655 27.565446321794298 0 0 0 0 10.326822504994549 21.355327878544621 0 21.355327878544621 17.884375384566681 0 0 0 0 -29.531568081034493 3.3806260333221871 0 3.3806260333221871 10.505947866244242 0 0 0 0 -12.73090581297876 -18.680530054635447 0 -18.680530054635447 37.905759426405382 0 0 0 0 -10.333273643978144 -13.655715228502132 0 -13.655715228502132 9.5886195789761928 0 0 0 0 -69.216091565209354 39.285045178214204 0 39.285045178214204 55.439476897707209 0 0 0 0 -84.871256474949405 -26.372565664554713 0 -26.372565664554713 55.014753465693502 0 0 0 0 -14.632563962428321 37.306547929634689 0 37.306547929634689 7.3939184865812422 0 0 0 0 -51.644038911481402 77.173058533706353 0 77.173058533706353 139.74826377956197 0 0 0 0 -32.545397696523651 19.848048529478547 0 19.848048529478547 65.570892466857913 0 0 0 0 -84.766563470043366 30.597382505817222 0 30.597382505817222 74.415256392734591 0 0 0 0 -65.67781235440998 52.52958929297165 0 52.52958929297165 96.710045910075223 0 0 0 0 -116.96940770017136 25.249234513074043 0 25.249234513074043 96.181300334053049 0 0 0 0 -100.05086184052379 22.256101495881012 0 22.256101495881012 41.287441842039698 0 0 0 0 -91.554751795303673 38.375448466256785 0 38.375448466256785 16.397440246320912 0 0 0 0 -112.67347134082593 45.63356871985161 0 45.63356871985161 63.802401817170903 0 0 0 0 55.256353857897921 112.54614877107815 0 112.54614877107815 55.231613319032476 0 0 0 0 0.73628161158983652 7.6278711702000379 0 7.6278711702000379 7.4308228296862922 0 0 0 0 41.287370061082584 5.1252374050054641 0 5.1252374050054641 16.787647215125617 0 0 0 0 9.2038766576547282 42.400387780713658 0 42.400387780713658 37.076435929693901 0 0 0 0 -28.144431238358266 25.881245623924769 0 25.881245623924769 15.153478650376201 0 0 0 0 4.8609055135709562 23.388034202612133 0 23.388034202612133 29.834668856845667 0 0 0 0 1.0891295250519253 8.1733779719248218 0 8.1733779719248218 40.847200833454394 0 0 0 0 -28.975239380213985 32.16694268657011 0 32.16694268657011 74.423945344780805 0 0 0 0 8.2095231849681358 13.978358723538783 0 13.978358723538783 6.106354757742281 0 0 0 0 5.9186726727939583 15.006526937294549 0 15.006526937294549 31.988657549283403 0 0 0 0 -12.519661331260068 76.490506578949862 0 76.490506578949862 66.759763311245479 0 0 0 0 -0.058886635647187775 16.449698694600556 0 16.449698694600556 30.632471757009625 0 0 0 0 27.490440321450336 82.36097789942869 0 82.36097789942869 49.307115661351418 0 0 0 0 -16.46690316686545 18.948554531431 0 18.948554531431 17.778669916617218 0 0 0 0 3.491529104090775 11.05958737148373 0 11.05958737148373 38.961335746567329 0 0 0 0 9.4958129051449625 11.530260556223865 0 11.530260556223865 16.19121749238235 0 0 0 0 16.825036118572029 86.037455186469742 0 86.037455186469742 54.612135979055893 0 0 0 0 4.3763997197650246 5.2650668922022987 0 5.2650668922022987 4.1096041552218026 0 0 0 0 5.9709538579733552 14.573620084449601 0 14.573620084449601 39.90346708964222 0 0 0 0 0.072597004277265786 2.9404685375629924 0 2.9404685375629924 39.648032620076265 0 0 0 0 -116.29808199494619 65.896341449384636 0 65.896341449384636 15.542781558154957 0 0 0 0 -0.40229277248625195 9.7851879133033322 0 9.7851879133033322 19.5454687039541 0 0 0 0 -42.848479364030936 -4.8376577154631377 0 -4.8376577154631377 72.670361144730123 0 0 0 0 4.2925999749641051 -12.154962375654577 0 -12.154962375654577 39.299070746987127 0 0 0 0 6.8251013787202268 16.424313811739793 0 16.424313811739793 38.307218854480197 0 0 0 0 -79.162212689300759 43.53116303103161 0 43.53116303103161 79.072510572746978 0 0 0 0 26.336755640400952 28.838705600101093 0 28.838705600101093 20.917031085766212 0 0 0 0 -44.784730175812697 -9.8877471747982781 0 -9.8877471747982781 102.74466501281859 0 0 0 0 0.76097932331102336 33.534290006427909 0 33.534290006427909 44.978378938118112 0 0 0 0 -119.59566688608572 41.427932687818611 0 41.427932687818611 21.293677826921339 0 0 0 0 -113.25650943101846 46.902744413266191 0 46.902744413266191 -1.7782193403327256 0 0 0 0 -244.53456478148155 181.74924382713652 0 181.74924382713652 -45.315906838743103 0 0 0 0 5.9958808376787829 -89.372640259462969 0 -89.372640259462969 162.58603459726146 0 0 0 0 -0.9886516538062402 7.1346055945425064 0 7.1346055945425064 13.331761861299867 0 0 0 0 -215.54515701192349 37.109739367726434 0 37.109739367726434 44.168611146371404 0 0 0 0 -34.736060571609471 -192.31872269242831 0 -192.31872269242831 260.88623975867813 0 0 0 0 -1.9586708667194088 4.2861519231751402 0 4.2861519231751402 8.8454608800640813 0 0 0 0 -84.737419992095965 39.230733024916844 0 39.230733024916844 178.1758483308713 0 0 0 0 -91.249876234168823 115.24296656301522 0 115.24296656301522 67.875940855541558 0 0 0 0 -33.717301991530803 134.89076529593513 0 134.89076529593513 -39.696860537937027 0 0 0 0 -19.168414184781341 31.795912633511762 0 31.795912633511762 -8.2345327163202455 0 0 0 0 14.878009549264871 21.219515213473585 0 21.219515213473585 22.247744246246896 0 0 0 0 65.836333204968241 -85.841776216577273 0 -85.841776216577273 234.35792756656883 0 0 0 0 43.861817248401891 -39.210191356301948 0 -39.210191356301948 286.4460608203226 0 0 0 0 29.356940712830333 4.5429093242419185 0 4.5429093242419185 104.96260116537451 0 0 0 0 0.001849782353722647 5.9912702452274971 0 5.9912702452274971 157.50708930529072 0 0 0 0 -1.0275715557327185 -0.18246612929704042 0 -0.18246612929704042 4.5052986524949574 0 0 0 0 -11.019531449618455 -109.3318704222329 0 -109.3318704222329 158.06550493085524 0 0 0 0 4.0512640105768405 5.0463701021212017 0 5.0463701021212017 -3.567656179684775 0 0 0 0 13.653712153025573 -66.956640982458339 0 -66.956640982458339 281.52297747907869 0 0 0 0 21.88168304711413 -30.856304518223624 0 -30.856304518223624 157.95820377190654 0 0 0 0 0.035388253996037088 -0.42333601340214955 0 -0.42333601340214955 269.58217251407041 0 0 0 0 13.101623242231009 -53.170498700394091 0 -53.170498700394091 201.16335920503479 0 0 0 0 -22.722653758434905 -31.6874458288803 0 -31.6874458288803 335.01626130010118 0 0 0 0 -0.14903723071550673 -0.11905936270849793 0 -0.11905936270849793 0.76680750280236865 0 0 0 0 -17.394302964077411 48.771832600032212 0 48.771832600032212 440.75883706078275 0 0 0 0 20.101070892496907 -23.77797618941986 0 -23.77797618941986 287.08645073319713 0 0 0 0 -14.950255100862577 59.012473871682232 0 59.012473871682232 420.70990146175609 0 0 0 0 -3.2118731793563597 25.271954002859275 0 25.271954002859275 470.28680135023387 0 0 0 0 0.023476744594274662 47.072317788486586 0 47.072317788486586 413.65771272048005 0 0 0 0 42.239694878031344 -168.87243958521594 0 -168.87243958521594 740.62431777540769 0 0 0 0 14.152249189654365 17.454954457756457 0 17.454954457756457 15.64007618895215 0 0 0 0 21.623744402830056 -55.117838053818559 0 -55.117838053818559 393.12520104613213 0 0 0 0 83.912268140955518 -89.851987482797995 0 -89.851987482797995 303.70313689830073 0 0 0 0 -0.015551521352052788 -0.48888577902201291 0 -0.48888577902201291 0.99957898084421259 0 0 0 0 -39.894218050760124 32.156808501422347 0 32.156808501422347 580.30102719349088 0 0 0 0 -11.847490513648893 119.0702568298293 0 119.0702568298293 483.25018876296235 0 0 0 0 -19.546020155734894 5.3045281649392564 0 5.3045281649392564 609.39001404086594 0 0 0 0 -23.818249811067943 -32.314433278733759 0 -32.314433278733759 729.34272467557457 0 0 0 0 -24.819044603946395 100.02175108495976 0 100.02175108495976 716.73879382901941 0 0 0 0 -19.669817182990755 303.77767018562008 0 303.77767018562008 889.71767131544766 0 0 0 0 125.69502550727452 -302.2336027002093 0 -302.2336027002093 998.85020179947605 0 0 0 0 -21.28734988172026 -54.578130786532711 0 -54.578130786532711 674.24316915763484 0 0 0 0 516.47733813072603 -695.95885086228373 0 -695.95885086228373 857.68362650620838 0 0 0 0 0.14800956877380139 -0.51189952031066355 0 -0.51189952031066355 1.1448918040471519 0 0 0 0 -97.383682251194614 -623.12443509105651 0 -623.12443509105651 1793.7668016941461 0 0 0 0 406.72146632027091 978.81157574743702 0 978.81157574743702 -462.77704122045907 0 0 0 0 7.5651352922887494 6.5320837670724643 0 6.5320837670724643 5.8676084172933827 0 0 0 0 -46.982747648237918 59.740731955773299 0 59.740731955773299 1912.9252251252183 0 0 0 0 -3.8328557599149349 -450.69695716361457 0 -450.69695716361457 1939.1308519659651 0 0 0 0 23.247786811712558 700.57105614847387 0 700.57105614847387 976.98934708838351 0 0 0 0 925.37065795264596 -291.97168566974869 0 -291.97168566974869 158.85082996501296 0 0 0 0 4.2844910035656287 10.424562623280181 0 10.424562623280181 22.922234400689263 0 0 0 0 -277.28805371710087 89.442204712686362 0 89.442204712686362 -240.22261178260669 0 0 0 0 -604.35712437555321 366.79137956397608 0 366.79137956397608 256.232806130065 0 0 0 0 4.7163355258193462 5.9047300145167583 0 5.9047300145167583 6.239408866602048 0 0 0 0 40.450537644014503 -305.21437530753974 0 -305.21437530753974 926.65246997759095 0 0 0 0 443.49863581856016 785.89833067484142 0 785.89833067484142 32.031770099878486 0 0 0 0 366.81258732089373 930.65133736006101 0 930.65133736006101 76.306055643333821 0 0 0 0 169.62620454969715 772.48125906936548 0 772.48125906936548 -17.59264621741022 0 0 0 0 461.02513675342067 -250.03320427744802 0 -250.03320427744802 208.9289457253326 0 0 0 0 -390.07415110406271 309.1762864955017 0 309.1762864955017 993.58102992225031 0 0 0 0 409.37430763483417 469.4129832067847 0 469.4129832067847 734.53655925413477 0 0 0 0 19.317409738980132 236.84117251058342 0 236.84117251058342 1123.9468754554218 0 0 0 0 251.5150536053809 202.46120820645592 0 202.46120820645592 288.32079055730719 0 0 0 0 205.181606628385 166.17789326362981 0 166.17789326362981 282.66043815013836 0 0 0 0 693.74325022935557 222.60101446314002 0 222.60101446314002 194.45435491700482 0 0 0 0 -28.033648297328796 19.435532647221407 0 19.435532647221407 -260.9289867937041 0 0 0 0 16.80532827903275 147.18155622771883 0 147.18155622771883 97.052283074849583 0 0 0 0 -377.96644625956696 -8.7010607067350065 0 -8.7010607067350065 84.495665211150481 0 0 0 0 -390.86031686886122 366.91640218595785 0 366.91640218595785 -181.79252932990858 0 0 0 0 20.343618217371386 377.98301334070129 0 377.98301334070129 -143.71753859928867 0 0 0 0 -236.23814147310168 -725.77735107369517 0 -725.77735107369517 397.26466767033344 0 0 0 0 0.75883671785732787 1.3320087464813355 0 1.3320087464813355 1.2103231504512451 0 0 0 0 -511.85124941545035 896.10914516033517 0 896.10914516033517 -210.4096287614957 0 0 0 0 -36.496502112157032 115.06056014742353 0 115.06056014742353 477.51455105495552 0 0 0 0 -3.8849544300428533 42.070189140955335 0 42.070189140955335 -24.115681103092356 0 0 0 0 -0.89237728846271125 -0.87529670361317358 0 -0.87529670361317358 0.70558984558429927 0 0 0 0 -44.969237266010168 76.838137514308983 0 76.838137514308983 65.014043685914658 0 0 0 0 15.917997069194826 67.858669352881407 0 67.858669352881407 86.608680061226551 0 0 0 0 -11.981996677747929 18.554640371741698 0 18.554640371741698 71.476981411491579 0 0 0 0 10.781269833192709 24.751919890120917 0 24.751919890120917 133.82915457203489 0 0 0 0 108.19353926220117 121.19277749722824 0 121.19277749722824 104.07343597323052 0 0 0 0 -14.15067237924859 -100.86739159090212 0 -100.86739159090212 53.258777727769484 0 0 0 0 -0.89109615048518842 1.6849225314356175 0 1.6849225314356175 1.8575849654643051 0 0 0 0 108.66814721585308 169.55964947660505 0 169.55964947660505 157.35014910179598 0 0 0 0 -112.07593191605156 103.42257090035855 0 103.42257090035855 531.84406000507079 0 0 0 0 36.504913838047287 22.690745441010222 0 22.690745441010222 46.122460203538139 0 0 0 0 -0.98735921915871572 0.32463366896010371 0 0.32463366896010371 0.32328860729219144 0 0 0 0 8.8726614637832881 42.751540841840324 0 42.751540841840324 74.439771050412674 0 0 0 0 34.744373495572404 6.2549245514837821 0 6.2549245514837821 86.614416861368227 0 0 0 0 15.702099593802814 80.242209222396923 0 80.242209222396923 245.88773070777097 0 0 0 0 -51.231717286703315 22.700781652001751 0 22.700781652001751 421.58832172239636 0 0 0 0 150.2323130320809 188.33723684868528 0 188.33723684868528 231.12931125990144 0 0 0 0 -34.557872764984552 81.676649249438015 0 81.676649249438015 533.55511205118091 0 0 0 0 32.342374567879688 -95.310950363556913 0 -95.310950363556913 347.23994055017101 0 0 0 0 189.20538570894098 115.32672674693094 0 115.32672674693094 443.94536120878183 0 0 0 0 11.750466543853236 -110.11561293783598 0 -110.11561293783598 271.95050816482399 0 0 0 0 -64.026301129636977 -57.03903487054049 0 -57.03903487054049 332.84572185250727 0 0 0 0 19.018414750034253 0.7433319762822066 0 0.7433319762822066 -34.89079362222401 0 0 0 0 -36.046958763218299 -7.9284535292172222 0 -7.9284535292172222 88.469912483084045 0 0 0 0 -29.538299320213355 -87.782853907461686 0 -87.782853907461686 237.45242134206637 0 0 0 0 4.9727082419192357 -84.568045467414777 0 -84.568045467414777 68.859256198193179 0 0 0 0 -27.84281931882083 11.395777857658686 0 11.395777857658686 77.134443367525819 0 0 0 0 106.93179329375243 67.64416910570435 0 67.64416910570435 365.8522468608644 0 0 0 0 44.29601063307382 8.9121140815914259 0 8.9121140815914259 283.47889503726037 0 0 0 0 -0.98399039043412628 -1.4278718680203184 0 -1.4278718680203184 -0.33045086955662034 0 0 0 0 -122.76511382882063 5.4588232137230079 0 5.4588232137230079 356.55197804515046 0 0 0 0 -11.690452620146971 -11.881140715413494 0 -11.881140715413494 368.77267754244531 0 0 0 0 -9.2667137013377214 34.19107988216274 0 34.19107988216274 337.89314409705912 0 0 0 0 -20.395931794071657 6.3932973432238214 0 6.3932973432238214 80.016252679059107 0 0 0 0 -8.6996642155526782 -20.937426781005954 0 -20.937426781005954 15.414869275722708 0 0 0 0 -16.299238657855312 6.8112574453698471 0 6.8112574453698471 70.481417675222602 0 0 0 0 1.48900334416021 -4.0709974428000351 0 -4.0709974428000351 77.020088254867005 0 0 0 0 -13.084126081558692 -22.702873402317024 0 -22.702873402317024 10.989461679925334 0 0 0 0 3.5266241372682998 1.2436946998122949 0 1.2436946998122949 79.344543391489424 0 0 0 0 -9.0718359399124893 -30.459689916282514 0 -30.459689916282514 14.833548139029517 0 0 0 0 -24.696842187565835 -19.813735976153112 0 -19.813735976153112 54.084300265687489 0 0 0 0 16.069897112381113 -19.455980826880477 0 -19.455980826880477 92.475588010223873 0 0 0 0 -28.797138377762167 14.225786988805339 0 14.225786988805339 228.34046767944392 0 0 0 0 -3.1170126989122764 -0.32624220031297568 0 -0.32624220031297568 5.0221297488812047 0 0 0 0 -14.061611618299821 6.4636143765001179 0 6.4636143765001179 228.81808689628087 0 0 0 0 -25.445124484434018 -8.9177544509875588 0 -8.9177544509875588 41.213507745975221 0 0 0 0 -19.017743462526596 -13.801594871485577 0 -13.801594871485577 24.346724592283863 0 0 0 0 -12.155292064253899 -18.405009832575161 0 -18.405009832575161 17.120767588357534 0 0 0 0 -25.084380655723848 -21.85919527408447 0 -21.85919527408447 48.020263363694539 0 0 0 0 -21.272320261647614 -20.409495448834278 0 -20.409495448834278 5.378593884886298 0 0 0 0 -117.20002906435002 64.08604800141984 0 64.08604800141984 210.23002177990929 0 0 0 0 -8.1183751994212798 -73.093814163694333 0 -73.093814163694333 -39.988229433764388 0 0 0 0 -0.65700491749802126 -3.8510381441415404 0 -3.8510381441415404 -2.5177685532589464 0 0 0 0 -23.23452470741044 -22.165422918914899 0 -22.165422918914899 0.62178214361653217 0 0 0 0 -99.455978035671251 8.1724323549733526 0 8.1724323549733526 100.82377892901422 0 0 0 0 -8.2107301656616301 -72.713726083312622 0 -72.713726083312622 103.42647720209789 0 0 0 0 126.43188232684406 114.01789939342052 0 114.01789939342052 -129.48292504663914 0 0 0 0 37.489294769686694 -100.66897530691858 0 -100.66897530691858 213.42240692539053 0 0 0 0 -16.335344925317258 -29.138589029480499 0 -29.138589029480499 165.64419409939001 0 0 0 0 63.223436719252277 -69.220240028545959 0 -69.220240028545959 126.64495766499022 0 0 0 0 35.39493824359306 -32.728563716627832 0 -32.728563716627832 137.42647281169775 0 0 0 0 3.1382912374284047 1.7036221884196721 0 1.7036221884196721 0.44756640970142314 0 0 0 0 29.107018297265313 -27.893582081378554 0 -27.893582081378554 215.28299111139984 0 0 0 0 45.293483357043442 -31.8558027990548 0 -31.8558027990548 206.05945025912661 0 0 0 0 4.5577490563617857 2.8293840483638633 0 2.8293840483638633 277.33085108178057 0 0 0 0 2.0769968051226897 27.737074510994717 0 27.737074510994717 161.57730750032351 0 0 0 0 -2.8503795467950113 9.0311582006615936 0 9.0311582006615936 185.1244666033308 0 0 0 0 30.398263369921551 113.74604818129956 0 113.74604818129956 146.54403630290835 0 0 0 0 -30.837809045073527 123.59430031137708 0 123.59430031137708 200.61495358796674 0 0 0 0 1.7193898570493111 0.44775335806248506 0 0.44775335806248506 0.15717006869591899 0 0 0 0 26.444928945182255 151.84935791738098 0 151.84935791738098 -44.782129006347532 0 0 0 0 20.261873245233801 -78.784394185018755 0 -78.784394185018755 518.3675535670809 0 0 0 0 89.456723194851065 104.45143123772641 0 104.45143123772641 245.37939242138236 0 0 0 0 -49.997046425948156 47.553741086669106 0 47.553741086669106 254.4788196921545 0 0 0 0 62.918331788936143 3.6122710220220142 0 3.6122710220220142 143.07514377607004 0 0 0 0 -6.9334325433715094 -21.264410479938306 0 -21.264410479938306 148.42285682586953 0 0 0 0 28.945119433014952 7.8379384458585264 0 7.8379384458585264 174.19656558569841 0 0 0 0 62.938880327218612 10.191698026630547 0 10.191698026630547 88.800830640357162 0 0 0 0 29.125956445952397 16.162467592323082 0 16.162467592323082 77.067574893160781 0 0 0 0 4.7987785454060941 -6.0594318411094719 0 -6.0594318411094719 90.119379284894421 0 0 0 0 20.265804099090587 -29.39658850523665 0 -29.39658850523665 6.8308149812801275 0 0 0 0 -20.201345341567503 -27.733195197935856 0 -27.733195197935856 251.41840803359446 0 0 0 0 -35.238786014316247 73.739455929178803 0 73.739455929178803 262.04754258994944 0 0 0 0 -30.147014578356902 43.020003144956718 0 43.020003144956718 295.99873067800945 0 0 0 0 -19.061732338044749 38.104246052145754 0 38.104246052145754 214.13627246802207 0 0 0 0 60.240566876474986 43.913062676328991 0 43.913062676328991 150.01575547493121 0 0 0 0 -4.911609568564927 64.449598385357604 0 64.449598385357604 263.16446935202111 0 0 0 0 16.999564001662293 -10.106379579570785 0 -10.106379579570785 114.33571400808432 0 0 0 0 34.963196955084186 26.03077471072902 0 26.03077471072902 94.21944535944931 0 0 0 0 -8.8104125843647125 -33.573046510617132 0 -33.573046510617132 160.38395966122334 0 0 0 0 -7.6653161014801299 -32.322113073911169 0 -32.322113073911169 176.69066023643609 0 0 0 0 -187.27654130044175 77.882634030294867 0 77.882634030294867 13.460646252846345 0 0 0 0 1.1432565615544554 1.0167781102013436 0 1.0167781102013436 -1.3135983811653773 0 0 0 0 1.5125559313087891 2.9190452837841505 0 2.9190452837841505 4.544774932900367 0 0 0 0 1.131440019479669 5.4871849128085159 0 5.4871849128085159 1.3781238467890944 0 0 0 0 39.406639926090065 6.046554728771298 0 6.046554728771298 -19.476350082404679 0 0 0 0 21.037464124646476 -26.447814472910068 0 -26.447814472910068 10.680436607020965 0 0 0 0 6.1805144673053292 6.5945001847212552 0 6.5945001847212552 83.154936300819827 0 0 0 0 1.7963340081026669 -0.30287019396642023 0 -0.30287019396642023 -0.38120390721616104 0 0 0 0 1.5244808345487399 -4.2191691875887045 0 -4.2191691875887045 -16.275833804043941 0 0 0 0 6.4626389537820614 0.51866574419182143 0 0.51866574419182143 5.7776079133727762 0 0 0 0 -116.0177052311883 64.330007185300929 0 64.330007185300929 -18.391662585603626 0 0 0 0 -4.2447750578612613 -4.7734638460497081 0 -4.7734638460497081 17.197584006673424 0 0 0 0 -18.784713069071017 -54.811565676524424 0 -54.811565676524424 10.873956334682589 0 0 0 0 28.724550377446576 -25.087538041963853 0 -25.087538041963853 27.538137912226375 0 0 0 0 22.219792377210013 -19.353409246900583 0 -19.353409246900583 -21.401759132648294 0 0 0 0 19.858247854524961 2.2232635077780287 0 2.2232635077780287 -14.399890970522392 0 0 0 0 6.2380205123026826 -20.068104550318822 0 -20.068104550318822 -20.957329584291983 0 0 0 0 0.9102021517128378 -56.753124648224912 0 -56.753124648224912 -74.055186906613926 0 0 0 0 -87.971387665480052 -183.24530102171775 0 -183.24530102171775 -100.07752187136157 0 0 0 0 49.664317444844301 12.758873995231625 0 12.758873995231625 -72.691693615328404 0 0 0 0 1.1252002969295756 -7.4330603343579043 0 -7.4330603343579043 12.638506780171298 0 0 0 0 -17.063081833922297 10.958030300975224 0 10.958030300975224 79.93698687295182 0 0 0 0 0.98968079052268187 -6.3829419609637199 0 -6.3829419609637199 11.265681342514284 0 0 0 0 -28.996252559018558 -7.2209600894548203 0 -7.2209600894548203 92.929695363956853 0 0 0 0 -95.894681506782945 -89.314592857324897 0 -89.314592857324897 -110.85201113012226 0 0 0 0 -33.069507642742565 46.99641315750705 0 46.99641315750705 124.71841082168612 0 0 0 0 -43.931826047486084 -111.23131053116231 0 -111.23131053116231 -79.204170397762937 0 0 0 0 -183.07371947567123 -206.07952466511779 0 -206.07952466511779 -22.82833641560137 0 0 0 0 -44.039199578967441 53.311007357750015 0 53.311007357750015 171.20399092516163 0 0 0 0 -111.10062937675656 13.31055090474274 0 13.31055090474274 -65.659945476247231 0 0 0 0 15.955457768101041 87.626139496558608 0 87.626139496558608 142.83958590911061 0 0 0 0 0.24829089653067982 -4.4502015481205248 0 -4.4502015481205248 8.2761088907008826 0 0 0 0 -52.464377912877126 30.227887532124441 0 30.227887532124441 0.25609854325193737 0 0 0 0 -17.925927132087679 41.941580676459125 0 41.941580676459125 -62.478237301849731 0 0 0 0 25.469990069181989 10.80469620776762 0 10.80469620776762 -51.936920313703013 0 0 0 0 26.843740604628554 -9.4499063874643525 0 -9.4499063874643525 5.8859044283453841 0 0 0 0 -1.8468095099445823 1.6165335369475287 0 1.6165335369475287 -2.5901289409604829 0 0 0 0 -6.1619335022104451 62.812511292653653 0 62.812511292653653 -25.677860019351101 0 0 0 0 -3.4587961355092602 47.518962415506394 0 47.518962415506394 -1.7432498426851453 0 0 0 0 77.317444762578475 104.64755079305542 0 104.64755079305542 96.876132918889198 0 0 0 0 17.798366698505163 -6.2017491388578492 0 -6.2017491388578492 10.030378175171791 0 0 0 0 24.396496993944339 -4.2088328046665993 0 -4.2088328046665993 -3.6282358099706471 0 0 0 0 26.902010620686269 63.852276885711035 0 63.852276885711035 36.265268009939973 0 0 0 0 -5.2793481932987749 8.5094375989612274 0 8.5094375989612274 -1.7589259777229529 0 0 0 0 32.875143761610843 51.293969444188406 0 51.293969444188406 40.477920271647235 0 0 0 0 31.354136230696145 89.228459980143157 0 89.228459980143157 44.83789498648548 0 0 0 0 -55.012016794608144 27.253162673998304 0 27.253162673998304 103.17564511536693 0 0 0 0 -217.00207738503616 48.008665137342177 0 48.008665137342177 90.065798614434243 0 0 0 0 0.35472192447846995 6.4014404447585953 0 6.4014404447585953 47.300385728878354 0 0 0 0 -74.190208915279413 64.334308880148456 0 64.334308880148456 60.785991747641674 0 0 0 0 -4.2863574801054005 8.3134481184745592 0 8.3134481184745592 67.030086571214383 0 0 0 0 -33.604291963870764 57.638283639269503 0 57.638283639269503 32.731761231752898 0 0 0 0 -984.52011076918325 -124.67655553501845 0 -124.67655553501845 464.58204444267903 0 0 0 0 -32.943809841860002 62.610185598630778 0 62.610185598630778 46.619463377639477 0 0 0 0 26.505851867676824 60.997520141991117 0 60.997520141991117 37.165639806338731 0 0 0 0 -10.046154279271761 33.597725056186206 0 33.597725056186206 8.9058718688535361 0 0 0 0 -29.713851807182664 45.20183312156405 0 45.20183312156405 57.439675661025831 0 0 0 0 -27.795752165142176 -9.298847493755602 0 -9.298847493755602 162.83345984623156 0 0 0 0 -12.389380733461081 88.938999727795363 0 88.938999727795363 294.33028243736771 0 0 0 0 0.33084382555119762 7.8413513660241154 0 7.8413513660241154 -0.759681252704695 0 0 0 0 141.67861563615165 -95.748128470992924 0 -95.748128470992924 368.98184878719621 0 0 0 0 119.01207449123649 -0.15341361159516964 0 -0.15341361159516964 105.91714011091972 0 0 0 0 51.436580986260196 67.972171639019507 0 67.972171639019507 236.21050979505526 0 0 0 0 35.095477481278067 12.908972520090174 0 12.908972520090174 104.99075505256042 0 0 0 0 68.899074420894067 -54.412104046816239 0 -54.412104046816239 133.48412633166299 0 0 0 0 4.7460430989799534 -46.098614718954195 0 -46.098614718954195 133.78630166825315 0 0 0 0 -23.753996923694785 -64.481091857815045 0 -64.481091857815045 40.332618850015024 0 0 0 0 41.390808667155397 -32.356465841774479 0 -32.356465841774479 36.2328470732391 0 0 0 0 -46.107545278329781 11.800371687437291 0 11.800371687437291 151.16148581893503 0 0 0 0 -5.9170216161690838 -12.798099577102761 0 -12.798099577102761 49.425904642885683 0 0 0 0 10.675955845371163 -23.154301074104296 0 -23.154301074104296 37.66716184586403 0 0 0 0 -0.13802430333475968 138.17592688196601 0 138.17592688196601 209.72689796124905 0 0 0 0 -46.6286971169975 -24.834411733885645 0 -24.834411733885645 78.092018904168071 0 0 0 0 51.72452005304558 5.0133086736677797 0 5.0133086736677797 50.404988621608936 0 0 0 0 1.11773367305032 -1.7555157796814456 0 -1.7555157796814456 2.0845455286872152 0 0 0 0 61.898765983058418 37.65965266789911 0 37.65965266789911 -24.067228221705591 0 0 0 0 59.889150260597205 -114.48432344470348 0 -114.48432344470348 28.371388520834444 0 0 0 0 -162.68402455527649 -107.74334129497583 0 -107.74334129497583 267.70467685289077 0 0 0 0 0.50683171267633365 -1.5114081328883628 0 -1.5114081328883628 0.01229992609224384 0 0 0 0 19.217361597948923 -10.168426952102891 0 -10.168426952102891 18.064956710913975 0 0 0 0 15.063412964555909 14.305680400867686 0 14.305680400867686 17.711562123113254 0 0 0 0 259.99578507426565 163.30523820591043 0 163.30523820591043 -56.713467349145503 0 0 0 0 -0.14213473630219964 0.33642453922763593 0 0.33642453922763593 6.7893196692908804 0 0 0 0 33.662400521365271 -21.016562984990742 0 -21.016562984990742 -49.512425916160282 0 0 0 0 26.30382438110729 12.55327938382942 0 12.55327938382942 3.4203044284073734 0 0 0 0 -458.24175841358107 168.61898609248601 0 168.61898609248601 819.84482241299702 0 0 0 0 112.00507635246049 386.20519836102903 0 386.20519836102903 -460.84797554354736 0 0 0 0 -131.32924674426431 120.17058959636051 0 120.17058959636051 824.03822494832639 0 0 0 0 -64.012741301668029 -116.43271505398661 0 -116.43271505398661 64.634330374756246 0 0 0 0 -133.37483675731983 74.941363536647259 0 74.941363536647259 510.43187082962686 0 0 0 0 -53.648730625875032 -274.41722623049282 0 -274.41722623049282 678.49526561508901 0 0 0 0 41.097605787889279 -71.992357275092218 0 -71.992357275092218 70.499597397298203 0 0 0 0 21.433974941945962 -88.488263410297805 0 -88.488263410297805 1109.1747401810571 0 0 0 0 191.64872943267196 -790.07652761683926 0 -790.07652761683926 1355.4115289266338 0 0 0 0 330.01206020130485 60.704809402079263 0 60.704809402079263 -234.50463142467197 0 0 0 0 169.30752063987529 -155.08763123961398 0 -155.08763123961398 613.64798916528161 0 0 0 0 7.2302823488580135 2.2979221884415324 0 2.2979221884415324 -0.28174449719115557 0 0 0 0 4.9370752890468399 1.5351845203400813 0 1.5351845203400813 -4.0623284304643903 0 0 0 0 513.71503758195149 -514.04135917249005 0 -514.04135917249005 -174.12851814102032 0 0 0 0 -471.93955525296315 57.129377689838293 0 57.129377689838293 1098.231772685971 0 0 0 0 -272.4980648913388 618.8802971917321 0 618.8802971917321 266.63932143557395 0 0 0 0 1019.7792632403771 327.87476274168876 0 327.87476274168876 -704.81284202334427 0 0 0 0 0.033348863491482916 398.49806106054166 0 398.49806106054166 1694.8794848627913 0 0 0 0 11.03241771571957 3.7595649903502704 0 3.7595649903502704 1.3818806450396153 0 0 0 0 687.56822944858709 417.19702077168768 0 417.19702077168768 367.20525842611096 0 0 0 0 704.94149915878143 -164.38258571802908 0 -164.38258571802908 366.37818055383104 0 0 0 0 880.37221690522711 590.6562647929677 0 590.6562647929677 1231.664860265053 0 0 0 0 596.75580516261221 338.56652416101088 0 338.56652416101088 -83.073657853383338 0 0 0 0 575.93803709383087 541.94595784432477 0 541.94595784432477 -22.217547239764826 0 0 0 0 -536.55841797145604 309.53352640528465 0 309.53352640528465 223.21888166959252 0 0 0 0 -0.41877383437338267 448.67706976187037 0 448.67706976187037 13.913586680984736 0 0 0 0 -2.5398230536980009 455.38874748402304 0 455.38874748402304 702.25146384162872 0 0 0 0 -22.251815074573074 -98.276704562464147 0 -98.276704562464147 -67.594041038504656 0 0 0 0 73.857046617748296 128.36178000168729 0 128.36178000168729 235.41753900806361 0 0 0 0 -355.60512738898683 -264.39858364032989 0 -264.39858364032989 1158.1421903414303 0 0 0 0 -321.39272089882149 -213.97360886658134 0 -213.97360886658134 286.25700071305619 0 0 0 0 -869.96841572091807 -244.83183678795467 0 -244.83183678795467 501.15353795984993 0 0 0 0 -84.448873623786312 15.545063927449519 0 15.545063927449519 343.16729303477223 0 0 0 0 1006.9621310917574 -829.08624513548421 0 -829.08624513548421 -1083.6665786465455 0 0 0 0 -749.72094316101447 -22.475460690533509 0 -22.475460690533509 202.09735259441368 0 0 0 0 -5.654010084553855 -0.46349662430046124 0 -0.46349662430046124 12.530960251404585 0 0 0 0 -184.63855017432957 -52.554221482889261 0 -52.554221482889261 308.14124750619521 0 0 0 0 38.033681777951642 24.740950274870556 0 24.740950274870556 121.26972718989418 0 0 0 0 -24.417817129146215 8.5855901253817137 0 8.5855901253817137 118.568680381999 0 0 0 0 -137.80843835937003 16.087146951182149 0 16.087146951182149 17.244237504462944 0 0 0 0 -3.685440027013037 -1.0833553830214413 0 -1.0833553830214413 -0.11555933260295603 0 0 0 0 -38.546122964430197 -30.389182220198563 0 -30.389182220198563 12.631736949861079 0 0 0 0 -302.55779878394719 -176.92389519340941 0 -176.92389519340941 180.70083320507547 0 0 0 0 -245.36719396981789 -233.42946147116891 0 -233.42946147116891 148.41810083382734 0 0 0 0 -259.29305307452563 48.757250599943291 0 48.757250599943291 374.24017873812409 0 0 0 0 -692.89197123366034 -128.29306174538942 0 -128.29306174538942 427.74556672286417 0 0 0 0 252.56423866216431 7.1368566138698952 0 7.1368566138698952 -54.745818678566138 0 0 0 0 273.80867013634531 -424.35944940016634 0 -424.35944940016634 -169.0746108357198 0 0 0 0 -247.78966463843801 -133.03978361996997 0 -133.03978361996997 51.37603868660517 0 0 0 0 -384.14027470016549 636.31356048712041 0 636.31356048712041 -529.64382194934296 0 0 0 0 1.2261970723466811 -0.64003841624227675 0 -0.64003841624227675 -0.56958324395358773 0 0 0 0 122.28309710637632 -605.64204685945879 0 -605.64204685945879 141.75544535051449 0 0 0 0 -255.46032473106612 411.90652443769795 0 411.90652443769795 583.54933364863973 0 0 0 0 1733.5529333038899 -256.56352078166674 0 -256.56352078166674 -367.40896054499899 0 0 0 0 26.059189294319935 -187.43729961716599 0 -187.43729961716599 828.6698865858707 0 0 0 0 197.86825054708487 162.45197714464757 0 162.45197714464757 441.09847094934958 0 0 0 0 144.4458730979045 73.948341440940567 0 73.948341440940567 -194.61100093075947 0 0 0 0 7.1644489493672836 -113.43480619564798 0 -113.43480619564798 -112.83422052603964 0 0 0 0 5.4777402037837888 -2.5783684038271844 0 -2.5783684038271844 -3.1904346685821849 0 0 0 0 -20.388075546018058 -13.398733414716844 0 -13.398733414716844 35.342103818150008 0 0 0 0 138.1190001644292 195.45965074151582 0 195.45965074151582 41.648516367014963 0 0 0 0 83.669472465161675 52.769138459687383 0 52.769138459687383 -30.074346368528495 0 0 0 0 10.157598038234028 -33.149332696739293 0 -33.149332696739293 62.650655484838353 0 0 0 0 47.036711065088184 48.856364413477422 0 48.856364413477422 108.35066105780061 0 0 0 0 10.426118925900937 83.690445569493022 0 83.690445569493022 423.41933120173053 0 0 0 0 -27.143644042301275 71.687462981855788 0 71.687462981855788 263.51733439191594 0 0 0 0 -320.94570060857313 -127.0947319460829 0 -127.0947319460829 509.02090652739571 0 0 0 0 -3.4419385555334809 -4.991688582507507 0 -4.991688582507507 9.4933744376667164 0 0 0 0 6.7408247542078925 49.044559884456248 0 49.044559884456248 -29.254875733793597 0 0 0 0 3.7257612462745975 17.376962082487552 0 17.376962082487552 48.443062549743445 0 0 0 0 7.2648148346865593 0.63491275396923186 0 0.63491275396923186 4.3337099725315511 0 0 0 0 -23.225553398268147 -35.347608943271553 0 -35.347608943271553 25.253614720306359 0 0 0 0 -21.28876593806217 -28.673495664916118 0 -28.673495664916118 28.680468630867836 0 0 0 0 -78.258721582134058 1.2794912840327015 0 1.2794912840327015 29.500820188436478 0 0 0 0 15.446602082455684 -42.442932340949483 0 -42.442932340949483 22.715495763430226 0 0 0 0 -8.4975489607306827 -30.653061301210982 0 -30.653061301210982 55.684730881868745 0 0 0 0 -11.389122652692436 -39.955194400878099 0 -39.955194400878099 26.580901872082904 0 0 0 0 23.81238833535474 -39.227002545281721 0 -39.227002545281721 -12.277246253317571 0 0 0 0 -45.51384279162653 -115.88734450310585 0 -115.88734450310585 52.723875110808876 0 0 0 0 26.067691936871888 -84.673432610830332 0 -84.673432610830332 35.111992615449708 0 0 0 0 -33.860828466150906 -65.667177854891634 0 -65.667177854891634 41.9918488248004 0 0 0 0 -17.192191806363098 -47.004718958683952 0 -47.004718958683952 61.117555403239749 0 0 0 0 -114.48056547705892 -36.419853557570605 0 -36.419853557570605 60.009119575333898 0 0 0 0 -20.539719823369978 -3.7496148323916714 0 -3.7496148323916714 20.4021401637292 0 0 0 0 10.38462497215869 -31.155564831657102 0 -31.155564831657102 33.25501835855539 0 0 0 0 -28.210347078029827 -20.255244990505162 0 -20.255244990505162 50.465685354989546 0 0 0 0 7.0815925960478125 -55.16506211127853 0 -55.16506211127853 83.800285939840251 0 0 0 0 -11.476325383646326 -11.823855515845935 0 -11.823855515845935 29.706168602657272 0 0 0 0 -25.461340459899475 89.349757227675582 0 89.349757227675582 -11.483545515111473 0 0 0 0 -15.970186977277308 -0.050611202993422921 0 -0.050611202993422921 109.94958248344483 0 0 0 0 55.994355198872654 -68.234168773280544 0 -68.234168773280544 -52.235337708800216 0 0 0 0 27.198712319550737 323.11809543559866 0 323.11809543559866 595.77514552377852 0 0 0 0 5.7085297475985533 -4.2836946871058785 0 -4.2836946871058785 3.3588239375785633 0 0 0 0 -101.48474912842437 -24.039565617087646 0 -24.039565617087646 669.59777843210759 0 0 0 0 8.148094403909397 26.189281963863323 0 26.189281963863323 74.015098099553143 0 0 0 0 -111.92238823823831 449.52222196948424 0 449.52222196948424 661.39486042626231 0 0 0 0 195.23561500891674 -402.59337779436464 0 -402.59337779436464 -62.63844743509253 0 0 0 0 -19.939995424680546 -182.0093833714709 0 -182.0093833714709 301.0240307062777 0 0 0 0 81.056474816518914 -124.53150980473765 0 -124.53150980473765 67.337177386201802 0 0 0 0 8.675086545618683 -29.95510981723055 0 -29.95510981723055 0.13104760106216418 0 0 0 0 -45.901642917528989 -67.441227689469088 0 -67.441227689469088 111.85976435430348 0 0 0 0 -70.497236587694715 -79.077620736599783 0 -79.077620736599783 112.35700079181061 0 0 0 0 -37.381106929489789 313.32972291377519 0 313.32972291377519 -56.070687330657165 0 0 0 0 6.6127873777484485 38.766617253274262 0 38.766617253274262 35.847428664727843 0 0 0 0 -84.092214579700794 -67.52558865536048 0 -67.52558865536048 158.48936409971066 0 0 0 0 26.165963430196825 -75.24025898482796 0 -75.24025898482796 108.7370749754009 0 0 0 0 -1.1660265651421398 33.353035869115587 0 33.353035869115587 39.845593188941322 0 0 0 0 30.228058776591979 30.980140570156436 0 30.980140570156436 53.263961733639007 0 0 0 0 -104.63724220320819 -33.287454565617736 0 -33.287454565617736 139.99683373293374 0 0 0 0 -1.056777077856168 -76.000200052054424 0 -76.000200052054424 144.7740277202538 0 0 0 0 -0.044468495237282468 -17.458877535836912 0 -17.458877535836912 56.867934599431038 0 0 0 0 -48.279872802305363 20.568965014826972 0 20.568965014826972 89.857698660816823 0 0 0 0 3.9805055795104636 -13.519480176430079 0 -13.519480176430079 100.08756562350027 0 0 0 0 -32.865145614536573 -54.115578558290508 0 -54.115578558290508 20.517790954647353 0 0 0 0 -14.823540684704422 -11.782592993396975 0 -11.782592993396975 6.6746788859454682 0 0 0 0 -44.642992417884386 -51.340088209799433 0 -51.340088209799433 39.044671024023046 0 0 0 0 2.9017676711832179 2.1407435402320658 0 2.1407435402320658 11.079772905172931 0 0 0 0 0.27752333723597133 5.3181904968774774 0 5.3181904968774774 5.2403162808065247 0 0 0 0 139.33146824003751 185.27763863565633 0 185.27763863565633 121.25136757961081 0 0 0 0 26.994677023380113 224.89224028250101 0 224.89224028250101 316.96566549105046 0 0 0 0 -0.26712266885848712 -1.5957144229320193 0 -1.5957144229320193 3.5066482769575771 0 0 0 0 -218.32513787538193 -103.78323343327793 0 -103.78323343327793 475.77717366259276 0 0 0 0 -260.02666279609048 -1.4469932728679851 0 -1.4469932728679851 489.55801469425205 0 0 0 0 -121.82293254849075 -193.14316916471216 0 -193.14316916471216 -92.918158613501873 0 0 0 0 -56.699262934098918 -67.748416198272025 0 -67.748416198272025 -7.110078699011865 0 0 0 0 52.176494439082958 -70.530749501700484 0 -70.530749501700484 -164.29827199763531 0 0 0 0 3.2523325755106427 -3.979976160096399 0 -3.979976160096399 10.81340191542057 0 0 0 0 16.459194712549959 -1.1362579080541764 0 -1.1362579080541764 4.9345669709073263 0 0 0 0 -1.1700750775876259 26.301418547482172 0 26.301418547482172 78.172569818219927 0 0 0 0 -0.83925141180279184 0.57201899039108639 0 0.57201899039108639 51.264210485649528 0 0 0 0 -6.5808510577662975 -10.896638199071056 0 -10.896638199071056 37.763641129224538 0 0 0 0 -3.3255566088242823 7.6402139178663901 0 7.6402139178663901 25.373270020546286 0 0 0 0 -2.7273986517698177 20.04971223985558 0 20.04971223985558 15.098569413930818 0 0 0 0 15.068333702110976 -10.422818111828747 0 -10.422818111828747 19.627433365400066 0 0 0 0 1.4963095734319722 10.776446958429005 0 10.776446958429005 6.1837823776659206 0 0 0 0 -10.966256119851813 -5.2943694930754077 0 -5.2943694930754077 6.472752237777442 0 0 0 0 35.53030240402768 -23.264173610135913 0 -23.264173610135913 24.262920569239213 0 0 0 0 -23.343977778982662 -96.428151698812144 0 -96.428151698812144 91.979253677236557 0 0 0 0 12.41111769155895 -12.129882587551776 0 -12.129882587551776 15.305204700215114 0 0 0 0 -0.48844442102690699 0.87547033302246291 0 0.87547033302246291 3.1367902673270009 0 0 0 0 33.211700345113798 -94.348044519567338 0 -94.348044519567338 140.14895816774515 0 0 0 0 29.790682635892807 -11.947339520177593 0 -11.947339520177593 191.32573103791947 0 0 0 0 15.641904923365189 55.439714562948211 0 55.439714562948211 31.765916861280857 0 0 0 0 -16.704423356475843 2.1434641655978339 0 2.1434641655978339 326.38209131859185 0 0 0 0 29.077219587897162 51.55462579435698 0 51.55462579435698 287.1819879005343 0 0 0 0 126.33654706470344 140.84411954804091 0 140.84411954804091 263.76062582999293 0 0 0 0 21.071710901931226 9.356583025351938 0 9.356583025351938 182.48555159387615 0 0 0 0 75.522616847936774 85.520107144737267 0 85.520107144737267 238.63239086525573 0 0 0 0 -89.863512018619417 -7.4840380891182576 0 -7.4840380891182576 301.48224864997792 0 0 0 0 13.703997763027132 118.06920643410558 0 118.06920643410558 343.26894859083404 0 0 0 0 -57.898222106664264 56.62319266940176 0 56.62319266940176 310.29284404242208 0 0 0 0 31.038066096673276 67.839342566061532 0 67.839342566061532 203.13842087235025 0 0 0 0 -44.048294901200215 7.9794886238732943 0 7.9794886238732943 263.99417402730614 0 0 0 0 11.607830750007171 70.175008525984595 0 70.175008525984595 297.70841207342255 0 0 0 0 62.2293207576027 64.049082244055171 0 64.049082244055171 95.044412136921892 0 0 0 0 0.8004715163811873 -0.81592327237014217 0 -0.81592327237014217 2.3462702106881501 0 0 0 0 -40.765572972395432 25.433031920001667 0 25.433031920001667 522.39427482133033 0 0 0 0 52.168715423614088 -10.406402112835167 0 -10.406402112835167 281.73063338235079 0 0 0 0 -19.934489379250749 19.71207451535156 0 19.71207451535156 517.14427081024769 0 0 0 0 -2.0064028079932541 23.216402517129609 0 23.216402517129609 423.12860585386807 0 0 0 0 -3.8135003492609485 -45.577951993152965 0 -45.577951993152965 863.41527840535855 0 0 0 0 1.7519706620275231 0.39459502382385381 0 0.39459502382385381 0.086457334917199091 0 0 0 0 22.37116750557766 -36.699517504450341 0 -36.699517504450341 591.98495114981779 0 0 0 0 16.183569909523612 110.29604005151486 0 110.29604005151486 580.16637650336907 0 0 0 0 98.200568890139721 211.53921821085532 0 211.53921821085532 719.38625606280402 0 0 0 0 94.872047228201382 83.451506085104484 0 83.451506085104484 468.52526855377073 0 0 0 0 1.8645517991944973 0.28413204617513088 0 0.28413204617513088 -1.4011451807485287 0 0 0 0 9.6706388081654495 138.81909156771144 0 138.81909156771144 10.191236444064998 0 0 0 0 50.398104632605381 81.321969554570387 0 81.321969554570387 468.60874189091555 0 0 0 0 25.583997376344655 211.72588487766916 0 211.72588487766916 295.59464430675871 0 0 0 0 13.919011608366191 32.721301540332206 0 32.721301540332206 134.67533527890191 0 0 0 0 60.704015922910912 36.514478985198366 0 36.514478985198366 -33.576868226209626 0 0 0 0 -35.964920008271861 -18.010409692280518 0 -18.010409692280518 37.591956795396982 0 0 0 0 -12.477258007144929 3.7247407906634464 0 3.7247407906634464 0.76020293132729932 0 0 0 0 10.627348801831374 -18.424020603702957 0 -18.424020603702957 1.5285055361600826 0 0 0 0 -8.9791138229484204 15.525081020176003 0 15.525081020176003 2.8443363027472515 0 0 0 0 -13.342098750338437 23.866814774220984 0 23.866814774220984 9.0559047638962511 0 0 0 0 6.7212556770064129 7.320780538531892 0 7.320780538531892 0.69682849934176261 0 0 0 0 31.945253759380194 18.586730452487245 0 18.586730452487245 -2.2725686988560483 0 0 0 0 36.401974401435837 40.14420142180461 0 40.14420142180461 -55.116194616479333 0 0 0 0 -4.2245321428919569 1.9653615389951398 0 1.9653615389951398 1.1983570762715203 0 0 0 0 0.2309893779861304 0.72369803614539308 0 0.72369803614539308 0.11422620994702726 0 0 0 0 -19.033708550073698 56.146155654678296 0 56.146155654678296 -134.54270950097271 0 0 0 0 -12.266211063710728 23.775172019915772 0 23.775172019915772 -143.29391153907636 0 0 0 0 -0.72857557165150411 26.178424055833602 0 26.178424055833602 11.30197497644258 0 0 0 0 -21.907774248527176 58.742351968365256 0 58.742351968365256 -25.811407842789777 0 0 0 0 -22.552979150315764 70.98924494170933 0 70.98924494170933 -108.1152008822537 0 0 0 0 -9.9439451870205176 -5.8890843824483454 0 -5.8890843824483454 -94.955009997371235 0 0 0 0 -4.3395203840055956 -25.058708671029308 0 -25.058708671029308 -29.747063282931776 0 0 0 0 97.14321880127838 28.729529380048916 0 28.729529380048916 4.232373578226543 0 0 0 0 -0.69419771561704091 0.81193893635192893 0 0.81193893635192893 -0.28199571854852934 0 0 0 0 -7.0231165112839067 13.330613602473022 0 13.330613602473022 92.15232037127862 0 0 0 0 -35.669104057951472 0.54278333186812233 0 0.54278333186812233 152.18912910224026 0 0 0 0 22.617941994918851 101.5406386563991 0 101.5406386563991 21.884352611319628 0 0 0 0 -57.356145766286545 -44.910684044021764 0 -44.910684044021764 -41.782652665438945 0 0 0 0 7.7269063913949196 64.837730392966478 0 64.837730392966478 67.186900487722596 0 0 0 0 55.447573306665781 -29.386348582731443 0 -29.386348582731443 83.390733506719698 0 0 0 0 4.5736844584744407 34.083076191280369 0 34.083076191280369 32.609753233523207 0 0 0 0 8.3491749297264448 134.91610449245491 0 134.91610449245491 -148.27516113706042 0 0 0 0 -53.7333858273131 59.815189197775908 0 59.815189197775908 -59.697042518964736 0 0 0 0 -21.73187754116438 113.02729374840419 0 113.02729374840419 27.080208362403937 0 0 0 0 -11.450093328260323 56.547536389378365 0 56.547536389378365 -135.21218803494412 0 0 0 0 -104.35301403752601 14.299260992618656 0 14.299260992618656 220.43784619920189 0 0 0 0 -0.96844975359272212 -189.22039544823201 0 -189.22039544823201 190.76659456678317 0 0 0 0 73.079972044849569 -173.83905926450097 0 -173.83905926450097 332.65011730007245 0 0 0 0 143.75079660380197 -134.75051484537835 0 -134.75051484537835 211.13171477735159 0 0 0 0 182.31818428971656 -17.832456147647463 0 -17.832456147647463 200.51589278114261 0 0 0 0 155.98271821644244 -105.86788531171624 0 -105.86788531171624 331.05907019626466 0 0 0 0 123.20036545241919 -188.08589496299101 0 -188.08589496299101 121.6313034230152 0 0 0 0 31.202937057577401 -122.66920541811123 0 -122.66920541811123 223.37578580756235 0 0 0 0 43.83293130115635 -176.41439948602783 0 -176.41439948602783 277.95656005961064 0 0 0 0 99.961903369173001 -239.02107959079694 0 -239.02107959079694 332.14945336423989 0 0 0 0 126.09035435469968 -201.55686585280637 0 -201.55686585280637 344.32590882527074 0 0 0 0 69.470648836610508 -278.03335314722062 0 -278.03335314722062 766.53597766475286 0 0 0 0 1.9312280471372105 -235.68581697676564 0 -235.68581697676564 472.45877052705328 0 0 0 0 121.04924364082262 -250.06308045961487 0 -250.06308045961487 495.74145599812618 0 0 0 0 -79.004050380494846 -68.106507562515617 0 -68.106507562515617 470.82495369558455 0 0 0 0 141.88021186551487 91.036372058937559 0 91.036372058937559 918.98069114706595 0 0 0 0 163.66439880091968 -135.6016233781047 0 -135.6016233781047 516.61324113648152 0 0 0 0 236.50121428832409 -40.350848429778125 0 -40.350848429778125 372.75623861129861 0 0 0 0 279.78013921732236 -140.38289574932423 0 -140.38289574932423 337.36011695696288 0 0 0 0 404.36986911487838 -234.95755419210764 0 -234.95755419210764 492.27999524766892 0 0 0 0 431.89748629608289 40.605412686287309 0 40.605412686287309 593.97561778101226 0 0 0 0 145.4211134727509 -189.39487711474067 0 -189.39487711474067 424.21148681928753 0 0 0 0 79.083862746934415 -128.77601575668086 0 -128.77601575668086 784.48953278559929 0 0 0 0 101.91920236209035 -42.333472799458832 0 -42.333472799458832 486.46150316958665 0 0 0 0 -4.117398001239053 -261.16375076298573 0 -261.16375076298573 744.07696743635461 0 0 0 0 40.532007487581268 132.74942161617582 0 132.74942161617582 86.264540681397193 0 0 0 0 141.67899043691841 -46.861179553561669 0 -46.861179553561669 398.47878639568808 0 0 0 0 -181.97609683444898 -23.541448967363976 0 -23.541448967363976 465.70350556692574 0 0 0 0 9.4656739742822538 -177.84406986601243 0 -177.84406986601243 613.9653829260933 0 0 0 0 7.395436667381162 -44.945723884498818 0 -44.945723884498818 535.72650954173878 0 0 0 0 -19.896760802976782 21.827229247620124 0 21.827229247620124 29.621609446543189 0 0 0 0 -29.680187255211763 59.316926510195117 0 59.316926510195117 -72.18301699651056 0 0 0 0 -59.101878735717719 70.629212253668811 0 70.629212253668811 -53.057105700253487 0 0 0 0 -4.6543569552823127 29.293365932705129 0 29.293365932705129 29.525674138415795 0 0 0 0 138.16587766842099 161.42023371793039 0 161.42023371793039 -73.812203586378018 0 0 0 0 -12.827849975513345 99.078849534285837 0 99.078849534285837 -124.67585925244384 0 0 0 0 219.76300631482115 -93.77481768821599 0 -93.77481768821599 -60.165949422065751 0 0 0 0 146.28129267654504 56.080521870229859 0 56.080521870229859 239.51213957867003 0 0 0 0 -28.581911176476069 -268.12563699670864 0 -268.12563699670864 204.77116708894027 0 0 0 0 114.98878038764813 44.215070853067573 0 44.215070853067573 367.93804864706181 0 0 0 0 14.404981550940647 -72.530708181519003 0 -72.530708181519003 301.55494744695898 0 0 0 0 45.642053104202319 7.0355156033983803 0 7.0355156033983803 194.50339919769613 0 0 0 0 125.45222287483557 1.7686057003302267 0 1.7686057003302267 196.29123930993592 0 0 0 0 75.563238992404422 82.056076075812598 0 82.056076075812598 85.634441184796742 0 0 0 0 -40.255709390461334 9.0111300993594341 0 9.0111300993594341 206.4086112617515 0 0 0 0 45.836536043206706 48.154432922139677 0 48.154432922139677 367.00349517005088 0 0 0 0 -22.746519425105362 -87.034024142034468 0 -87.034024142034468 408.88153399423754 0 0 0 0 107.06760372052986 -112.58254038079758 0 -112.58254038079758 356.11123402265002 0 0 0 0 15.00800345089965 -90.222027241823525 0 -90.222027241823525 310.33342435059603 0 0 0 0 54.849600140154052 -59.805051270581316 0 -59.805051270581316 133.79096976964502 0 0 0 0 9.1930986928781202 37.859314340193663 0 37.859314340193663 35.20437858955755 0 0 0 0 152.85210354650781 189.16063541558833 0 189.16063541558833 -354.1959587320307 0 0 0 0 -122.54100598914292 94.941210996301379 0 94.941210996301379 89.970199687799322 0 0 0 0 15.389309180248802 -14.723648836461507 0 -14.723648836461507 220.49106437551018 0 0 0 0 30.74976827850378 -111.34168875514297 0 -111.34168875514297 307.83777522498713 0 0 0 0 17.422993102863757 -86.853679981613823 0 -86.853679981613823 264.02349634442362 0 0 0 0 15.963416387632606 -146.80732466821064 0 -146.80732466821064 386.90080655116799 0 0 0 0 -48.986016535666749 -170.89300508875749 0 -170.89300508875749 390.46449107452827 0 0 0 0 14.261257092561664 -118.45045746843607 0 -118.45045746843607 305.35804856015602 0 0 0 0 5.9942151814990021 -169.60335889150156 0 -169.60335889150156 348.58365672908258 0 0 0 0 7.0862505718023385 -103.28756980651815 0 -103.28756980651815 214.7324880808452 0 0 0 0 3.7753173257580546 6.2752983396863442 0 6.2752983396863442 7.116178010976256 0 0 0 0 5.8776739234311428 -201.73122453460755 0 -201.73122453460755 474.75844122663693 0 0 0 0 6.8927823312585588 -87.023338543987848 0 -87.023338543987848 445.04461597060435 0 0 0 0 -5.1924070145237238 -13.834401347132371 0 -13.834401347132371 38.29358015966136 0 0 0 0 -26.991201872757756 58.129953895138897 0 58.129953895138897 9.3875877149257576 0 0 0 0 40.444863946056557 -250.36492317814191 0 -250.36492317814191 826.35034809335775 0 0 0 0 0.86630293430378558 2.0743107669885745 0 2.0743107669885745 3.079092965833695 0 0 0 0 19.728869562005457 66.039873248024378 0 66.039873248024378 -72.243862839779467 0 0 0 0 6.0130573632495725 -11.800623955008632 0 -11.800623955008632 9.1024584884289652 0 0 0 0 -9.0510081716765853 -17.695627861277899 0 -17.695627861277899 34.855076175139402 0 0 0 0 -15.014642072555944 2.8435778814891819 0 2.8435778814891819 72.383959081467765 0 0 0 0 -23.637937408003836 -4.7643276812250406 0 -4.7643276812250406 75.733465266996063 0 0 0 0 0.2945314512289734 0.057433068742824389 0 0.057433068742824389 0.16919238114299162 0 0 0 0 -2.7576835483796458 12.30677896243651 0 12.30677896243651 34.577070766492398 0 0 0 0 -4.6506045169618346 4.2595121294152705 0 4.2595121294152705 11.081488317257026 0 0 0 0 1.5933303383254298 -5.1112104311969233 0 -5.1112104311969233 2.9871376800628582 0 0 0 0 148.75661977623349 -157.81832998933533 0 -157.81832998933533 -449.14558793213655 0 0 0 0 -2.182777619146691 -0.86595702532940777 0 -0.86595702532940777 19.112394894225872 0 0 0 0 0.57838423373849324 0.057439240356075061 0 0.057439240356075061 3.6540795774110961 0 0 0 0 1.5519751888623432 -26.377284131820488 0 -26.377284131820488 67.236683302995516 0 0 0 0 -21.620663295361283 -12.896538750668697 0 -12.896538750668697 67.442838704388123 0 0 0 0 6.7566873582778575 9.9627355641537036 0 9.9627355641537036 9.8492560550109829 0 0 0 0 14.833652834706527 131.01646768154751 0 131.01646768154751 217.07663911746101 0 0 0 0 -16.99693214044396 28.12208486597433 0 28.12208486597433 25.954845130363537 0 0 0 0 -4.9903403338341032 -2.5530809877389231 0 -2.5530809877389231 4.7522368546956244 0 0 0 0 -37.535188393234421 202.35425141847008 0 202.35425141847008 77.350207751005655 0 0 0 0 123.50502807242538 183.08957209068467 0 183.08957209068467 76.561928343726322 0 0 0 0 -135.41903489064225 19.446237446749365 0 19.446237446749365 -6.4393490851070965 0 0 0 0 -86.15009329221084 79.129929661859933 0 79.129929661859933 127.83786504447562 0 0 0 0 -67.451058353078679 199.71736595050243 0 199.71736595050243 468.37699593674915 0 0 0 0 107.23008232919074 333.32150929187628 0 333.32150929187628 509.8415738503827 0 0 0 0 176.26419978039849 249.63359409612167 0 249.63359409612167 417.4753377815141 0 0 0 0 237.7858282789166 57.024159146916645 0 57.024159146916645 495.61513080481018 0 0 0 0 8.7905190048377335 64.603846080688527 0 64.603846080688527 270.24930158912321 0 0 0 0 322.02577084036602 -69.447270599590411 0 -69.447270599590411 -119.37029176486249 0 0 0 0 3.2794294844125034 112.48013389456901 0 112.48013389456901 -197.5978903244104 0 0 0 0 574.55986410284459 155.32490981149022 0 155.32490981149022 1.2634341009979835 0 0 0 0 -22.557244213136073 -272.73280634279217 0 -272.73280634279217 198.52266643686744 0 0 0 0 207.21126113710125 -380.84896765295343 0 -380.84896765295343 81.528301425336394 0 0 0 0 -356.92444877975777 -205.71647113391373 0 -205.71647113391373 151.2486959091766 0 0 0 0 -48.313321808669571 -334.39148725608175 0 -334.39148725608175 182.82069166566362 0 0 0 0 -77.477615826320289 -189.84717488211754 0 -189.84717488211754 -35.308408350541868 0 0 0 0 -33.946623349923357 -310.07656768686866 0 -310.07656768686866 -94.152205252848944 0 0 0 0 -5.1056402145214008 -5.7492302895876435 0 -5.7492302895876435 1.8981027461549047 0 0 0 0 -382.62149528205873 500.49923660900822 0 500.49923660900822 92.722604288661387 0 0 0 0 -829.9824248205623 537.12350344637525 0 537.12350344637525 421.62731617201644 0 0 0 0 -140.9000252642054 274.72412911347055 0 274.72412911347055 237.48392888222588 0 0 0 0 -212.45099534748397 50.059698786943045 0 50.059698786943045 -24.160752880299697 0 0 0 0 -0.32423519741573159 -36.156810437785225 0 -36.156810437785225 -142.33601491048466 0 0 0 0 -11.274008617368963 137.08670066331979 0 137.08670066331979 -10.837852488912176 0 0 0 0 114.1699558080827 158.19505858469347 0 158.19505858469347 -37.332529146879097 0 0 0 0 440.43789002261656 223.06944646043121 0 223.06944646043121 -74.511122682801215 0 0 0 0 174.48104726457632 -27.640517338193604 0 -27.640517338193604 11.58870507498068 0 0 0 0 1.882845367187544 0.66919879902626178 0 0.66919879902626178 0.13184277523663468 0 0 0 0 378.00743910158508 532.69595595420105 0 532.69595595420105 -6.6947313378987019 0 0 0 0 37.856909400940253 515.00372973430967 0 515.00372973430967 12.222249464190099 0 0 0 0 -12.894723035355128 511.98961419911939 0 511.98961419911939 93.070081856771139 0 0 0 0 -222.63713484152186 680.27001950156409 0 680.27001950156409 42.134588133754733 0 0 0 0 -423.50401245048624 1022.079571512546 0 1022.079571512546 -70.722141777019715 0 0 0 0 15.28242548525024 12.599697882217129 0 12.599697882217129 10.25145434561054 0 0 0 0 -0.91781524187602148 3.8644436988049478 0 3.8644436988049478 10.499677437073615 0 0 0 0 -117.14444811698286 782.6842146912968 0 782.6842146912968 -36.199128215070232 0 0 0 0 -120.09791964623014 585.48606540447508 0 585.48606540447508 -644.40189333696617 0 0 0 0 -250.33174205233374 909.045131641853 0 909.045131641853 -350.48494658178242 0 0 0 0 -566.3956522217677 936.17959801849793 0 936.17959801849793 479.11401742004091 0 0 0 0 -349.59109623018594 825.96182193275308 0 825.96182193275308 76.709986309149826 0 0 0 0 -289.94119695471181 780.52837336593075 0 780.52837336593075 81.853856745787198 0 0 0 0 -329.13418895799441 659.46426248562057 0 659.46426248562057 444.04790199594572 0 0 0 0 -632.44489012500389 970.07382441285154 0 970.07382441285154 1369.9637040365487 0 0 0 0 738.40834267202763 59.750238370383158 0 59.750238370383158 1496.4926162720512 0 0 0 0 -111.86167920970547 -241.15668879881559 0 -241.15668879881559 961.06594250585476 0 0 0 0 -1.8616116764324033 -89.968424908409361 0 -89.968424908409361 911.37162244129286 0 0 0 0 -179.96581039922239 -338.12027903813578 0 -338.12027903813578 940.62102068953391 0 0 0 0 -1557.5610252805836 -71.268392097379547 0 -71.268392097379547 2350.9118328865152 0 0 0 0 -71.54290682348983 -280.17844681104907 0 -280.17844681104907 600.24203728722932 0 0 0 0 271.26396415302133 -62.443222943002183 0 -62.443222943002183 664.79312347392988 0 0 0 0 6.6949697613155426 5.3428595459331092 0 5.3428595459331092 4.6539749223607174 0 0 0 0 -45.344229713929053 -166.27099143990199 0 -166.27099143990199 -263.61828892842459 0 0 0 0 25.519633500609871 -425.76838743241387 0 -425.76838743241387 1268.8979896125747 0 0 0 0 356.09145560784373 -349.06199262663722 0 -349.06199262663722 621.51000720159936 0 0 0 0 -587.44587975612831 -468.56502885550435 0 -468.56502885550435 -209.29295240930514 0 0 0 0 -242.86052077221939 -108.90939314145362 0 -108.90939314145362 20.341252644575434 0 0 0 0 -802.56687335642891 37.342585104168393 0 37.342585104168393 175.62335916797747 0 0 0 0 -682.33831798197025 307.09459002122458 0 307.09459002122458 779.78631497628521 0 0 0 0 -1587.6974302871397 -603.0034594828403 0 -603.0034594828403 819.89244874275755 0 0 0 0 -37.565384572355697 -117.56249078199471 0 -117.56249078199471 -238.59776028458145 0 0 0 0 -131.31880914018075 -29.389645394127001 0 -29.389645394127001 0.044118444624473341 0 0 0 0 82.480153304265514 -104.93183441867586 0 -104.93183441867586 -239.5169744414161 0 0 0 0 136.97135183333094 -92.621684583506067 0 -92.621684583506067 -302.00585205823882 0 0 0 0 194.33957347584402 445.30637591281993 0 445.30637591281993 73.743222670862451 0 0 0 0 -0.23768920774857349 2.9991963643888369 0 2.9991963643888369 3.2310849429017594 0 0 0 0 52.71370226455565 -16.730171179937315 0 -16.730171179937315 -314.42705230703359 0 0 0 0 52.375581977620641 -24.101670932461275 0 -24.101670932461275 -143.93418465528521 0 0 0 0 -241.1697845776348 340.94080870469043 0 340.94080870469043 765.76459842305383 0 0 0 0 -90.132146418073262 50.97130769334035 0 50.97130769334035 340.78510905332223 0 0 0 0 135.16001575372275 -50.00235834094201 0 -50.00235834094201 -715.72699257645581 0 0 0 0 163.45996641460806 49.494008484092774 0 49.494008484092774 -503.06513020161947 0 0 0 0 9.5398881532418827 4.1923726282288385 0 4.1923726282288385 3.3550209924420784 0 0 0 0 -5.8076684035099788 30.166726576419023 0 30.166726576419023 12.165140587545466 0 0 0 0 -36.039853919978555 -39.286007498767503 0 -39.286007498767503 70.514644104143372 0 0 0 0 -13.278039604538208 59.892505911600892 0 59.892505911600892 -189.38443923409795 0 0 0 0 -24.840489817567232 26.603001906230929 0 26.603001906230929 3.9538840119785164 0 0 0 0 3.6899676504464427 2.8589411536919727 0 2.8589411536919727 3.4286731990569876 0 0 0 0 -54.09462984098127 38.437164794719138 0 38.437164794719138 0.071074377727200044 0 0 0 0 94.310426641863842 375.9549275106765 0 375.9549275106765 544.73577202101296 0 0 0 0 113.54265677424917 587.55189290369708 0 587.55189290369708 993.35163355710392 0 0 0 0 4.5393695036052009 3.2364017637738129 0 3.2364017637738129 1.6108227231924843 0 0 0 0 101.7353381088385 12.202866471357993 0 12.202866471357993 -35.681756210527965 0 0 0 0 -143.10571683314083 286.63063047262403 0 286.63063047262403 942.2403273620148 0 0 0 0 -196.79746846485091 -372.06714095254029 0 -372.06714095254029 328.51839584326081 0 0 0 0 123.97202969851082 493.36417318258464 0 493.36417318258464 534.20499675101019 0 0 0 0 186.22421222704588 361.18166789849238 0 361.18166789849238 53.441727249490214 0 0 0 0 0.98414705994692042 2.9296291020526439 0 2.9296291020526439 5.7327181832271492 0 0 0 0 -4.9156317850411142 -28.065382897286327 0 -28.065382897286327 693.41571150368327 0 0 0 0 203.15187157841137 -41.961502673650102 0 -41.961502673650102 -57.357083818336832 0 0 0 0 -6.0437305670425303 -105.86353462329862 0 -105.86353462329862 270.48657241165347 0 0 0 0 344.15124413559806 -100.97815734552205 0 -100.97815734552205 208.82268538049539 0 0 0 0 227.56978357393018 267.33168928155646 0 267.33168928155646 628.45081932725589 0 0 0 0 -13.050795510784695 -126.33941896114766 0 -126.33941896114766 330.70034870313248 0 0 0 0 422.10490539628245 260.97234961228969 0 260.97234961228969 119.62616962374886 0 0 0 0 -18.641452628263323 153.03613054093876 0 153.03613054093876 853.08348554694385 0 0 0 0 426.54496235927036 405.17966223602707 0 405.17966223602707 281.38083400329924 0 0 0 0 63.718860479889486 384.2787222451243 0 384.2787222451243 409.73629950592294 0 0 0 0 -537.96141567867824 -54.951987872875179 0 -54.951987872875179 -419.33157828862932 0 0 0 0 -431.87165745112145 227.24974875858607 0 227.24974875858607 278.64503957147826 0 0 0 0 15.555121630982796 569.52083242322442 0 569.52083242322442 374.88714513453306 0 0 0 0 -86.150625332248637 276.64794732393057 0 276.64794732393057 -317.43778414010012 0 0 0 0 -80.670389797601729 -50.946965547322179 0 -50.946965547322179 182.72311145888307 0 0 0 0 -226.04963846087551 154.50721032194269 0 154.50721032194269 107.10300660834764 0 0 0 0 -257.55738626795761 -143.06103280135358 0 -143.06103280135358 226.41013183869654 0 0 0 0 -28.208372424559229 -35.116586290674604 0 -35.116586290674604 57.665318136234418 0 0 0 0 -255.04705575383741 58.772162688259414 0 58.772162688259414 45.272294888171018 0 0 0 0 -331.05700464851219 182.30987577476481 0 182.30987577476481 -89.840654165825981 0 0 0 0 -419.85295056716529 58.6209147805057 0 58.6209147805057 122.71966089799935 0 0 0 0 62.358714709431297 -104.09974161599166 0 -104.09974161599166 218.05881403764306 0 0 0 0 0.29365408502036328 13.991089725667422 0 13.991089725667422 31.180138330434687 0 0 0 0 71.218922358484633 -177.97072216528977 0 -177.97072216528977 399.9503143838956 0 0 0 0 204.31848616134218 -206.00389437876174 0 -206.00389437876174 243.11329758270585 0 0 0 0 209.53050096343077 -293.88441837714777 0 -293.88441837714777 411.58918981114402 0 0 0 0 -700.08749337959466 353.40275280556671 0 353.40275280556671 41.037853142115637 0 0 0 0 -1.4471898057771884 9.8565927124976156 0 9.8565927124976156 24.925798149057698 0 0 0 0 218.69270771569791 -328.84114265231619 0 -328.84114265231619 205.5838286688595 0 0 0 0 13.615580925803442 -49.262737051598378 0 -49.262737051598378 437.45860553067541 0 0 0 0 27.888461045780787 -234.09488680885261 0 -234.09488680885261 474.80147629562452 0 0 0 0 55.086677525314371 -145.86691726476784 0 -145.86691726476784 306.54139197315089 0 0 0 0 22.004026219428852 -178.63992041959136 0 -178.63992041959136 276.09497537442076 0 0 0 0 69.206399078275581 -160.8162112863165 0 -160.8162112863165 265.37944894659449 0 0 0 0 79.830880008514214 -151.54678757920192 0 -151.54678757920192 277.79869718229384 0 0 0 0 126.03456606153395 -162.50482120468223 0 -162.50482120468223 157.19148294997285 0 0 0 0 28.374445281262524 -167.54737927917085 0 -167.54737927917085 339.69751908526814 0 0 0 0 2.6925966509091737 8.7819564241942487 0 8.7819564241942487 0.80375533136442812 0 0 0 0 63.222029151286733 -216.71018752006057 0 -216.71018752006057 374.28580468472501 0 0 0 0 103.0979189653699 -193.58929421681387 0 -193.58929421681387 292.66113134174884 0 0 0 0 -478.73002701971382 -118.01822460305993 0 -118.01822460305993 1147.9914840499987 0 0 0 0 -433.372357875837 72.774465942291499 0 72.774465942291499 1587.825366611447 0 0 0 0 264.33216944528976 238.39510763938597 0 238.39510763938597 -38.800939142907737 0 0 0 0 -157.54965059700135 -2.289816984161007 0 -2.289816984161007 458.78400944519672 0 0 0 0 -129.01045596112635 154.01872268362786 0 154.01872268362786 -110.6413504074153 0 0 0 0 -160.37190092986566 137.76953955861973 0 137.76953955861973 -93.783677014114801 0 0 0 0 -117.84068863783978 130.45301847046358 0 130.45301847046358 -78.278076297770895 0 0 0 0 79.35597314894585 210.06503784994129 0 210.06503784994129 -155.58259326108237 0 0 0 0 0.94369980449464563 1.8451634175191316 0 1.8451634175191316 2.4478485088346247 0 0 0 0 -150.98558740380577 -78.753545269995811 0 -78.753545269995811 1140.1563756939777 0 0 0 0 19.425320838172865 311.69513029454174 0 311.69513029454174 76.794529919687193 0 0 0 0 -118.65578827097124 -24.639205792915163 0 -24.639205792915163 538.71063751844486 0 0 0 0 590.34105997395409 -748.29296353793325 0 -748.29296353793325 901.47770696495718 0 0 0 0 90.795464070855587 -237.52806597144081 0 -237.52806597144081 449.24698392888968 0 0 0 0 14.762680397134131 11.979371609084609 0 11.979371609084609 9.9079301535883388 0 0 0 0 136.09503723888679 -215.15625855185499 0 -215.15625855185499 412.86197280567467 0 0 0 0 1099.2586864167024 255.71965525530686 0 255.71965525530686 979.736128624907 0 0 0 0 -12.811557937577163 457.91396347391128 0 457.91396347391128 1234.5909968596388 0 0 0 0 369.86211435614314 -1055.0103229917004 0 -1055.0103229917004 782.93188439997539 0 0 0 0 989.75170655083457 -884.42087266098679 0 -884.42087266098679 353.10746652109083 0 0 0 0 274.76067525256258 -14.962744040316466 0 -14.962744040316466 14.911671634763479 0 0 0 0 323.26859195472025 318.21232630710801 0 318.21232630710801 390.9107365169184 0 0 0 0 697.11514459847422 -520.31891688518226 0 -520.31891688518226 437.06039753984078 0 0 0 0 -2.9844364686835707 -0.044603120074709679 0 -0.044603120074709679 10.134378914046522 0 0 0 0 205.74818672424044 33.405241312968428 0 33.405241312968428 -115.84037883131532 0 0 0 0 286.93990720546753 158.14128016355608 0 158.14128016355608 -86.621611650916748 0 0 0 0 1.7712680220288277 6.144497538432077 0 6.144497538432077 2.4190308913553906 0 0 0 0 187.31899302041711 179.35467553482158 0 179.35467553482158 -45.612242989329388 0 0 0 0 8.4369320176592737 103.2771707274951 0 103.2771707274951 -77.959626239797217 0 0 0 0 67.288653437048197 84.218398520373739 0 84.218398520373739 -85.381234168701667 0 0 0 0 56.644751290830072 -68.76024107160174 0 -68.76024107160174 -174.71348560211482 0 0 0 0 -237.12545087618491 -144.43993709411006 0 -144.43993709411006 -47.095060895109782 0 0 0 0 -48.763346191048186 -19.364101383340312 0 -19.364101383340312 -43.043435452338599 0 0 0 0 -3.89332487110104 -0.96024670063005146 0 -0.96024670063005146 3.5163986183320048 0 0 0 0 155.21423115555513 -357.74927895615701 0 -357.74927895615701 429.45656663420959 0 0 0 0 140.3694436442911 -156.49328558443813 0 -156.49328558443813 200.53924188772362 0 0 0 0 -231.11861782349479 -695.86314028120978 0 -695.86314028120978 775.3983965361258 0 0 0 0 -266.26329958393978 -435.33601416185775 0 -435.33601416185775 832.71951166688814 0 0 0 0 -158.64785730457879 -338.91845647321315 0 -338.91845647321315 770.37752753803943 0 0 0 0 -59.147584320484384 -337.87921531320899 0 -337.87921531320899 768.80660767058725 0 0 0 0 28.50906288234728 -219.85211235735915 0 -219.85211235735915 268.52161745275953 0 0 0 0 -105.36106881801607 -150.39544203456899 0 -150.39544203456899 421.27329824652998 0 0 0 0 -70.018583727396617 12.930252931197174 0 12.930252931197174 289.50669411582567 0 0 0 0 -37.483078702818602 53.059844495051948 0 53.059844495051948 -21.722284685602062 0 0 0 0 -5.0530952778286213 7.7271696775640351 0 7.7271696775640351 5.5457754771435077 0 0 0 0 -12.035849226829914 9.7972514561510451 0 9.7972514561510451 11.603118123005288 0 0 0 0 -21.722042519241768 17.787636275988916 0 17.787636275988916 7.3543827533867443 0 0 0 0 -19.251887508855361 31.024461397690175 0 31.024461397690175 -12.066590148955584 0 0 0 0 -21.151864666458096 28.42128460222375 0 28.42128460222375 -18.958439629990608 0 0 0 0 8.2988534311435149 8.1286682692068837 0 8.1286682692068837 -11.091172105924898 0 0 0 0 -39.751756400395607 46.151976712193573 0 46.151976712193573 -42.015729000559077 0 0 0 0 -3.04414753217198 6.532550832084155 0 6.532550832084155 6.6215083076862697 0 0 0 0 -176.65364355494239 101.13346422289578 0 101.13346422289578 92.345372445997782 0 0 0 0 -87.779899080465839 113.07669648201045 0 113.07669648201045 20.661231395322829 0 0 0 0 7.8573524654071614 18.317755377472007 0 18.317755377472007 -6.4446426541186099 0 0 0 0 9.7050108713738155 27.583807133021764 0 27.583807133021764 70.146900024545175 0 0 0 0 -101.43617780892237 85.737561299894878 0 85.737561299894878 49.640003615175374 0 0 0 0 -210.67449935260811 172.04350374081696 0 172.04350374081696 -8.2719034710316919 0 0 0 0 -143.59995175176846 69.357117586507229 0 69.357117586507229 75.873721098862006 0 0 0 0 -26.337222022139031 28.340587554877857 0 28.340587554877857 -32.602739870984806 0 0 0 0 -13.039301565221315 9.4845903244338388 0 9.4845903244338388 17.442443216138031 0 0 0 0 -23.121530480942965 23.997967596762464 0 23.997967596762464 -7.0436924059176818 0 0 0 0 -2.0902860809557993 13.764099559919089 0 13.764099559919089 -3.9053494895428855 0 0 0 0 -62.619527601877962 -13.258280975269372 0 -13.258280975269372 -34.925410623138305 0 0 0 0 -15.675947097531207 22.502246530468256 0 22.502246530468256 -16.497605986107374 0 0 0 0 -11.141055457263136 9.3396773268886761 0 9.3396773268886761 6.839912871814775 0 0 0 0 3.3833842306715383 11.231693308842083 0 11.231693308842083 -6.5642970585818148 0 0 0 0 1.0568681179222086 20.364110798924298 0 20.364110798924298 -10.95828053530775 0 0 0 0 132.37037834851071 -699.13424160564318 0 -699.13424160564318 -1238.8426034967997 0 0 0 0 -2.4292995243066997 2.2717633727245925 0 2.2717633727245925 0.56565684828366614 0 0 0 0 -325.70412667340588 874.34627015731166 0 874.34627015731166 904.17776264299755 0 0 0 0 -100.30360815690437 270.74923589236278 0 270.74923589236278 -168.75216896187339 0 0 0 0 -46.004787440760992 121.23193553940655 0 121.23193553940655 -233.32553769031438 0 0 0 0 -12.872824988267126 4.504205487147587 0 4.504205487147587 28.074489574438601 0 0 0 0 -111.15623111460332 40.378255563995481 0 40.378255563995481 138.25476025683747 0 0 0 0 -31.51231737073249 62.221635981746658 0 62.221635981746658 -130.40856082216851 0 0 0 0 -13.061608142398711 50.515493908253113 0 50.515493908253113 121.66032265606286 0 0 0 0 -28.631818122608706 141.3462623389986 0 141.3462623389986 26.314801571657881 0 0 0 0 -20.446696586270335 -29.710117439440509 0 -29.710117439440509 52.598584922695991 0 0 0 0 -16.899090846255206 -2.5855771401220409 0 -2.5855771401220409 89.44404657299674 0 0 0 0 -7.773459484158316 -13.097664897030882 0 -13.097664897030882 91.270721692912048 0 0 0 0 6.74152535374742 -45.703428488879581 0 -45.703428488879581 94.89207099990017 0 0 0 0 -15.625030319030401 19.573301983841134 0 19.573301983841134 55.47289935061039 0 0 0 0 -48.703284780684044 -26.304575105314143 0 -26.304575105314143 132.82162384645926 0 0 0 0 -11.227542993107473 -16.129881133110551 0 -16.129881133110551 8.6002063252909231 0 0 0 0 -14.084699589161119 -23.876562268447742 0 -23.876562268447742 68.798137535193746 0 0 0 0 -9.8577542166567582 -30.123583759857866 0 -30.123583759857866 38.635030338187789 0 0 0 0 -9.9873756974163257 -18.087474776190447 0 -18.087474776190447 54.666776280020713 0 0 0 0 10.42638978602622 -54.190467693762912 0 -54.190467693762912 48.91987149211127 0 0 0 0 -8.1983584725013472 -24.710615070051475 0 -24.710615070051475 19.95618555881471 0 0 0 0 -9.4753707798327369 -20.678135535180218 0 -20.678135535180218 62.951527174696821 0 0 0 0 -33.023224207001476 -32.373105141094129 0 -32.373105141094129 -45.72912627527694 0 0 0 0 -41.318014117442999 -10.104669869164354 0 -10.104669869164354 25.706367607006541 0 0 0 0 -9.1466987144353205 -6.8287140002686115 0 -6.8287140002686115 1.7884523191000028 0 0 0 0 -49.775975295210742 18.5976021675433 0 18.5976021675433 32.349568147357786 0 0 0 0 -19.41774386956331 15.505747438772232 0 15.505747438772232 29.483192511750531 0 0 0 0 -6.5071945684376784 -0.34836395872700621 0 -0.34836395872700621 6.7920467807895761 0 0 0 0 -14.407962990947192 5.1758861844270854 0 5.1758861844270854 9.0325235746000132 0 0 0 0 -4.782536391719356 21.483854732456926 0 21.483854732456926 12.517916618120466 0 0 0 0 -18.015329439970628 19.237056266911168 0 19.237056266911168 7.6905777677893639 0 0 0 0 -29.399917223562323 -7.133585733513037 0 -7.133585733513037 30.117725193249896 0 0 0 0 -132.47060395013614 -23.55302433270117 0 -23.55302433270117 38.834936850085796 0 0 0 0 -17.321801180410397 -37.043009054853492 0 -37.043009054853492 18.140700631619886 0 0 0 0 -10.196359656090255 -12.935714422449138 0 -12.935714422449138 15.661147194624078 0 0 0 0 -25.764745128887398 -21.708413489211125 0 -21.708413489211125 106.68169437175675 0 0 0 0 -6.1301979538657179 2.7364832284292788 0 2.7364832284292788 132.78231972206913 0 0 0 0 -13.465605627143759 -22.665474924735463 0 -22.665474924735463 69.22948451913544 0 0 0 0 -18.871745500501902 -12.538760253810324 0 -12.538760253810324 73.556557333635283 0 0 0 0 -15.439081753673957 -28.066558310522097 0 -28.066558310522097 19.852262257279644 0 0 0 0 -18.779783890952785 -11.137496337087214 0 -11.137496337087214 62.04406274658686 0 0 0 0 -21.299534259056145 -8.1510238348128041 0 -8.1510238348128041 50.294768804029445 0 0 0 0 -19.185313921293982 -17.233599282060823 0 -17.233599282060823 49.659977331699338 0 0 0 0 -11.405178530427747 -20.97713084329007 0 -20.97713084329007 47.371534859878011 0 0 0 0 -16.489094096240024 -6.7056314450182981 0 -6.7056314450182981 79.84959974560843 0 0 0 0 -2.7805372667526171 -21.59491398002865 0 -21.59491398002865 53.234537923357493 0 0 0 0 -20.014745083466096 -21.042870710220996 0 -21.042870710220996 56.767541475579492 0 0 0 0 -21.008702444352139 -20.605214351453469 0 -20.605214351453469 94.37397080646042 0 0 0 0 -10.895173258414145 -14.636422698838686 0 -14.636422698838686 -1.309721799281828 0 0 0 0 -6.1139344005116527 -16.058209493124195 0 -16.058209493124195 55.892348972265609 0 0 0 0 -17.161765918958043 -32.825714988299907 0 -32.825714988299907 23.898023511131154 0 0 0 0 -11.020366613764509 31.077543730598791 0 31.077543730598791 228.96722063604648 0 0 0 0 -8.4154452851985297 -9.0066789494921977 0 -9.0066789494921977 110.73212797339511 0 0 0 0 -14.97033984481655 -6.8429453450080473 0 -6.8429453450080473 112.20598449966474 0 0 0 0 2.009846447984728 13.269831058319141 0 13.269831058319141 175.40093447490472 0 0 0 0 -5.0396601005645607 34.769380070129955 0 34.769380070129955 218.10457675419138 0 0 0 0 -7.8656725788999893 24.316516733025765 0 24.316516733025765 197.04610460769618 0 0 0 0 5.9998733126426487 50.920999267196748 0 50.920999267196748 245.00947406771684 0 0 0 0 -44.74605508242621 -17.780970792385233 0 -17.780970792385233 205.85168790468288 0 0 0 0 -22.272950159500795 57.887088516410131 0 57.887088516410131 345.74132852155162 0 0 0 0 14.728266202594 49.138017953781855 0 49.138017953781855 195.0561748147702 0 0 0 0 49.854647898361122 40.148253684343217 0 40.148253684343217 120.19082897410408 0 0 0 0 82.506070809078892 84.048218211299172 0 84.048218211299172 175.33041435569066 0 0 0 0 20.072895483086086 61.17109754008834 0 61.17109754008834 194.78142695212557 0 0 0 0 31.627982718713838 57.308230578784787 0 57.308230578784787 100.80413893366222 0 0 0 0 19.593256366917384 -23.597938286154267 0 -23.597938286154267 55.068807344334481 0 0 0 0 30.909476118174329 40.388198897282564 0 40.388198897282564 121.65322917929552 0 0 0 0 -11.767203467200574 49.794370551455593 0 49.794370551455593 111.57021696024614 0 0 0 0 -1.6489620977695267 24.877372988613388 0 24.877372988613388 137.09699027332681 0 0 0 0 -9.588584220859957 57.536905933070557 0 57.536905933070557 144.83485807288071 0 0 0 0 6.3476373191078892 -90.222496028975002 0 -90.222496028975002 252.01936602177102 0 0 0 0 -152.01042392737509 127.53150417032884 0 127.53150417032884 229.0114105509565 0 0 0 0 1.5044203432294125 -78.202743038636072 0 -78.202743038636072 287.26685788751638 0 0 0 0 -4.3290635359562657 -119.36951719325953 0 -119.36951719325953 337.6369861448984 0 0 0 0 36.484370951791789 -116.25981225919531 0 -116.25981225919531 269.90026245448644 0 0 0 0 -11.086568335784023 -40.254972981815627 0 -40.254972981815627 249.23498998003197 0 0 0 0 -25.235497246569139 -83.891802724327135 0 -83.891802724327135 286.83803245326271 0 0 0 0 41.1878487734662 -102.99911980421307 0 -102.99911980421307 141.2114940585833 0 0 0 0 -50.751087802993425 -105.00004764550977 0 -105.00004764550977 268.72650776725641 0 0 0 0 -0.036909992428718397 29.290951312547804 0 29.290951312547804 615.03979981400335 0 0 0 0 -11.481343983893517 -13.046323135114235 0 -13.046323135114235 41.715244753211422 0 0 0 0 -26.265636540715604 -119.41940210848179 0 -119.41940210848179 62.786960026322276 0 0 0 0 -67.498030444058713 -78.0411698355731 0 -78.0411698355731 116.57061259187185 0 0 0 0 33.546035154919082 -70.897424145536434 0 -70.897424145536434 40.589011337401189 0 0 0 0 -4.8933701499026938 -84.303635980922763 0 -84.303635980922763 92.43872617064676 0 0 0 0 20.443096240680461 5.7880437864569103 0 5.7880437864569103 30.167809015059845 0 0 0 0 -9.1056493062991422 -24.725335479289704 0 -24.725335479289704 161.50870536182629 0 0 0 0 42.880066118847139 -72.642892291390581 0 -72.642892291390581 235.23300653111073 0 0 0 0 -8.4130217657069828 33.088187191756731 0 33.088187191756731 125.33589284459295 0 0 0 0 -33.923639647020536 -5.6452525669515126 0 -5.6452525669515126 -123.70294103591777 0 0 0 0 -108.15245946824143 -132.86711453731186 0 -132.86711453731186 20.81182182049281 0 0 0 0 -10.890513387662416 -9.3849956408563635 0 -9.3849956408563635 27.582889582555914 0 0 0 0 -156.53558828406676 7.0037563467170685 0 7.0037563467170685 443.30390344232092 0 0 0 0 -10.700281019815026 -28.047098845948955 0 -28.047098845948955 37.876595151628635 0 0 0 0 -41.910736655399887 49.727573100834434 0 49.727573100834434 92.868214690158425 0 0 0 0 35.007883986615482 -97.455347661025499 0 -97.455347661025499 148.66224199435302 0 0 0 0 60.120440270797189 -276.42442468523177 0 -276.42442468523177 261.26466428547337 0 0 0 0 -3.043064291475913 -1.1407226314940679 0 -1.1407226314940679 7.5107392480978579 0 0 0 0 55.866843674055417 -322.55185808966678 0 -322.55185808966678 507.43631464726815 0 0 0 0 34.276665131529626 -73.38181270570783 0 -73.38181270570783 228.66484079406837 0 0 0 0 -3.9854586382352863 -14.23828702528408 0 -14.23828702528408 274.21239816990419 0 0 0 0 109.48520847086547 -165.16220160582122 0 -165.16220160582122 273.47582076385231 0 0 0 0 -1.9779059351077919 -1.8388645352615374 0 -1.8388645352615374 -3.6996038793272508 0 0 0 0 95.850633346375218 -155.39256199496896 0 -155.39256199496896 136.72451683988606 0 0 0 0 -8.645063228132523 -6.3461635553664539 0 -6.3461635553664539 -6.334931203474782 0 0 0 0 95.910807588708622 -148.93893978328356 0 -148.93893978328356 148.96553088198038 0 0 0 0 43.135737088789028 -125.7413394582195 0 -125.7413394582195 145.33234498245042 0 0 0 0 38.113140701177201 -167.34171339898535 0 -167.34171339898535 177.99164353661263 0 0 0 0 52.461569950670309 -155.23520494198431 0 -155.23520494198431 150.3960180372469 0 0 0 0 41.059196552383526 -170.57841281967706 0 -170.57841281967706 177.66552954868212 0 0 0 0 118.38452996078649 -153.22631351243501 0 -153.22631351243501 135.24518820326648 0 0 0 0 86.387423590126218 -176.48290485567099 0 -176.48290485567099 149.68431297140933 0 0 0 0 126.65360240771906 -183.49983668054165 0 -183.49983668054165 150.19750101371619 0 0 0 0 133.74226531801486 -157.33988259573468 0 -157.33988259573468 136.16456894060002 0 0 0 0 154.57924329849106 -199.7501951413752 0 -199.7501951413752 108.6472290121128 0 0 0 0 65.589253795886634 -204.56712191229167 0 -204.56712191229167 166.71771681056333 0 0 0 0 -8.5454073896219143 -198.51709353348087 0 -198.51709353348087 207.90917433298807 0 0 0 0 57.638759388230483 -203.91649427163895 0 -203.91649427163895 166.66886476381296 0 0 0 0 -38.370968397415538 -192.69239136809671 0 -192.69239136809671 206.96162506110704 0 0 0 0 2.2351328737654512 -217.67926829449885 0 -217.67926829449885 201.01482770828503 0 0 0 0 20.580014120675344 -256.13174389826344 0 -256.13174389826344 220.36413086154766 0 0 0 0 148.28411151397677 -239.32792241260802 0 -239.32792241260802 170.48741097976662 0 0 0 0 152.83499214900712 -252.2728897290676 0 -252.2728897290676 202.78390636816948 0 0 0 0 140.05937608412569 -247.33182948947427 0 -247.33182948947427 171.0688462858991 0 0 0 0 -142.04000816627359 -145.99154201812945 0 -145.99154201812945 176.76575342209674 0 0 0 0 -154.58112984986428 -196.5538124599409 0 -196.5538124599409 218.6591247943135 0 0 0 0 -180.97458670010161 -197.48668971504677 0 -197.48668971504677 247.92535578499064 0 0 0 0 -62.417418125073823 -217.00245630530208 0 -217.00245630530208 237.10001744613839 0 0 0 0 -36.980093348532236 -151.77078455358225 0 -151.77078455358225 211.19753822179609 0 0 0 0 -135.66087892790213 -163.98606742681795 0 -163.98606742681795 236.52704531171639 0 0 0 0 -64.882777496193 -165.34459761653341 0 -165.34459761653341 236.32543802808101 0 0 0 0 -82.996096500184422 -108.74933588175134 0 -108.74933588175134 219.09248511876922 0 0 0 0 -131.34685273803996 -148.8302731890243 0 -148.8302731890243 279.93212410889419 0 0 0 0 -177.92800535502965 -113.505532156767 0 -113.505532156767 254.06438475269306 0 0 0 0 -2.0769325958099198 -25.419384670785607 0 -25.419384670785607 45.375039607730969 0 0 0 0 -62.04567024898293 -27.945526943769266 0 -27.945526943769266 201.57329076219321 0 0 0 0 -179.6949081266886 -2.0555211899363117 0 -2.0555211899363117 213.07824304339692 0 0 0 0 -21.361582853705386 -104.8196833781052 0 -104.8196833781052 231.69727635298341 0 0 0 0 -84.679602630186338 -114.88677446701362 0 -114.88677446701362 231.03813391437188 0 0 0 0 -42.847472990073015 -87.619555613169382 0 -87.619555613169382 231.45890906048953 0 0 0 0 -33.761112440936245 -119.73493592008651 0 -119.73493592008651 215.52410830196368 0 0 0 0 -10.596214501017016 -145.88844859641245 0 -145.88844859641245 208.93014567996647 0 0 0 0 13.003555887735729 -139.04417190738684 0 -139.04417190738684 170.2470020036958 0 0 0 0 23.999823750538269 -140.98038656418731 0 -140.98038656418731 170.55137081544535 0 0 0 0 21.236203109361217 -131.48420813490583 0 -131.48420813490583 139.09219371410745 0 0 0 0 287.06784713023899 -249.9394359476064 0 -249.9394359476064 -42.060014462447725 0 0 0 0 33.12461755063071 -80.81172495001988 0 -80.81172495001988 151.06932172211228 0 0 0 0 -2.8941283628317791 -70.630843782779465 0 -70.630843782779465 228.3017335214663 0 0 0 0 5.9722906210835127 -102.82534953880918 0 -102.82534953880918 190.75629231735388 0 0 0 0 10.176919534718428 -21.195355014243088 0 -21.195355014243088 3.7809232678058606 0 0 0 0 37.28169949295625 8.7414397637476213 0 8.7414397637476213 191.12294623718481 0 0 0 0 60.904857475752578 -61.629001022112789 0 -61.629001022112789 96.111536860771594 0 0 0 0 43.169731673979186 28.564169008157478 0 28.564169008157478 98.87811630358965 0 0 0 0 2.829204817459539 14.653710194084553 0 14.653710194084553 41.267978566652687 0 0 0 0 -59.225025649759175 -47.74667986911254 0 -47.74667986911254 21.209628764830995 0 0 0 0 -53.284393176746448 -11.733400313324182 0 -11.733400313324182 66.147002736033755 0 0 0 0 -11.635748362547929 52.438066716174944 0 52.438066716174944 69.181544650619117 0 0 0 0 34.700431388183461 -52.148301738264763 0 -52.148301738264763 13.14232765691122 0 0 0 0 0.73678987953607855 -24.697115981502783 0 -24.697115981502783 145.69576406929465 0 0 0 0 -8.0834102907462793 -19.739755182251159 0 -19.739755182251159 146.32379166414415 0 0 0 0 29.134238931287086 -69.896929309362918 0 -69.896929309362918 206.87979691896612 0 0 0 0 -32.32681862188474 -27.537065510325192 0 -27.537065510325192 91.989818543261208 0 0 0 0 6.6476021996805521 -2.786990403711016 0 -2.786990403711016 85.905602365091141 0 0 0 0 -284.9275915037955 56.947646548007469 0 56.947646548007469 91.984774814503908 0 0 0 0 -208.45728839882713 67.691931131113961 0 67.691931131113961 61.865862227381513 0 0 0 0 -260.15047062067754 68.638050111694611 0 68.638050111694611 62.849856227403507 0 0 0 0 -255.19131743495643 28.017563539455296 0 28.017563539455296 81.356838084058836 0 0 0 0 -270.56377779372332 41.785398771768087 0 41.785398771768087 94.603629834615276 0 0 0 0 -382.48589525983652 48.466685899686127 0 48.466685899686127 98.458497012699809 0 0 0 0 -3.4016990313037105 1.1965866947669497 0 1.1965866947669497 4.897515865467895 0 0 0 0 -25.051535537317818 -4.1052927307355276 0 -4.1052927307355276 37.648539505862573 0 0 0 0 -280.43096029758721 187.07427671520782 0 187.07427671520782 -62.834628636352136 0 0 0 0 -508.8512844059278 161.85959033557447 0 161.85959033557447 55.328352838099818 0 0 0 0 -419.51343106097852 80.471411464263838 0 80.471411464263838 -4.2987932603427907 0 0 0 0 -279.56972816662835 -89.259257043885555 0 -89.259257043885555 58.69128482369706 0 0 0 0 -345.68293073633686 107.72705182694335 0 107.72705182694335 -63.309306483337423 0 0 0 0 -513.67170841579082 115.62239966672496 0 115.62239966672496 9.9253140552755212 0 0 0 0 -4.1052414653272713 2.2977490623494958 0 2.2977490623494958 -1.4743343009116927 0 0 0 0 174.59759073862006 269.90661894132063 0 269.90661894132063 300.12362460880831 0 0 0 0 189.54160792396397 270.39425152722833 0 270.39425152722833 299.71453204866339 0 0 0 0 326.64998270893375 531.22835876012323 0 531.22835876012323 702.56687211015378 0 0 0 0 -465.74716262095535 -165.17561047821073 0 -165.17561047821073 -611.00352567152004 0 0 0 0 -520.02810242790338 132.53823197949532 0 132.53823197949532 -10.978602612100076 0 0 0 0 -419.15090535844894 85.143622601393417 0 85.143622601393417 -315.4118292601197 0 0 0 0 495.7524688119106 -718.7866078281877 0 -718.7866078281877 328.73023597519204 0 0 0 0 -2.2947541273165317 -0.81474005171446606 0 -0.81474005171446606 2.6956862023820349 0 0 0 0 -499.04590126468884 20.35461868053244 0 20.35461868053244 -78.909868581657065 0 0 0 0 -521.0664035118225 -61.506995013245614 0 -61.506995013245614 -379.37845261371695 0 0 0 0 125.39878842598409 -865.17738003349223 0 -865.17738003349223 303.42336272691318 0 0 0 0 -0.81967326786633521 0.62485179485088338 0 0.62485179485088338 0.28132380608298035 0 0 0 0 19.047494908480076 -779.96244388708146 0 -779.96244388708146 -19.314975880086422 0 0 0 0 257.0945937450042 -745.36113816068973 0 -745.36113816068973 412.42832769747474 0 0 0 0 247.48668967236935 -566.52526230740659 0 -566.52526230740659 617.72018365672557 0 0 0 0 434.93523881928559 -426.59291406275588 0 -426.59291406275588 482.51281182083767 0 0 0 0 -11.94056862209618 72.635620902605297 0 72.635620902605297 137.42915555441868 0 0 0 0 -64.92578009438148 153.20615556262055 0 153.20615556262055 236.00605917187931 0 0 0 0 -11.049645014252068 10.734481043696178 0 10.734481043696178 14.25691473335101 0 0 0 0 -7.3525936233381799 16.068690754720592 0 16.068690754720592 1.934492658061572 0 0 0 0 207.45340795529773 194.46655660363467 0 194.46655660363467 192.49532939741766 0 0 0 0 -26.236847288957506 131.22708739489462 0 131.22708739489462 335.8081452623228 0 0 0 0 77.209534947325665 288.30051492620987 0 288.30051492620987 535.25597914282116 0 0 0 0 -2.6158746201370797 -17.705127641643966 0 -17.705127641643966 230.68641763272194 0 0 0 0 -96.895304552633206 232.9487409449539 0 232.9487409449539 231.23969883902464 0 0 0 0 -341.48944200039114 123.69683115754015 0 123.69683115754015 350.55380580080964 0 0 0 0 -249.009303094019 -152.13651918612723 0 -152.13651918612723 314.82129751947224 0 0 0 0 0.37944028143064829 -24.431541696592497 0 -24.431541696592497 209.20902762568193 0 0 0 0 -424.55842371926337 -79.665064699769573 0 -79.665064699769573 446.91414136649109 0 0 0 0 -114.1908435838468 -154.60681085638498 0 -154.60681085638498 297.35420281696224 0 0 0 0 -117.78279056325567 -99.785955972402689 0 -99.785955972402689 810.60780510300538 0 0 0 0 -56.365703156750897 3.8414328708749963 0 3.8414328708749963 512.44587985872204 0 0 0 0 95.988074466687067 -385.12351170040347 0 -385.12351170040347 151.85475045929343 0 0 0 0 127.10542075369813 -308.10519821113121 0 -308.10519821113121 178.07118982070824 0 0 0 0 926.18457801230397 -1050.8200451342127 0 -1050.8200451342127 1336.212009272771 0 0 0 0 144.79937711065213 -497.09626530681271 0 -497.09626530681271 945.37999990422395 0 0 0 0 43.256032527128355 -744.02695137822229 0 -744.02695137822229 688.61181696612039 0 0 0 0 -59.510473737199391 -903.13409531739308 0 -903.13409531739308 580.55346470349468 0 0 0 0 4.3159101936362276 -971.52847747119085 0 -971.52847747119085 408.47946118017717 0 0 0 0 514.23065350015531 34.029646204013261 0 34.029646204013261 1460.0045196812061 0 0 0 0 333.55127305916903 441.76089022595261 0 441.76089022595261 1245.5058592865389 0 0 0 0 183.45030330566442 -74.370734015734342 0 -74.370734015734342 1873.165045591646 0 0 0 0 1347.8584013983696 71.745899584822837 0 71.745899584822837 1396.5247571525979 0 0 0 0 50.469189372523033 -346.13486784959969 0 -346.13486784959969 1531.246615265205 0 0 0 0 86.612245859921131 -331.48398219285446 0 -331.48398219285446 820.7984032909917 0 0 0 0 94.166862573705657 138.65444287760329 0 138.65444287760329 961.53725524207402 0 0 0 0 264.07382400063943 326.55585874361714 0 326.55585874361714 1152.8880262584426 0 0 0 0 -25.190983677428449 140.07620154013421 0 140.07620154013421 1083.2606803757953 0 0 0 0 182.51753595498576 -655.48531097252999 0 -655.48531097252999 673.8114127007284 0 0 0 0 43.645169199258362 -152.45922025968684 0 -152.45922025968684 530.78935435331368 0 0 0 0 346.68521763547722 -845.32298158631238 0 -845.32298158631238 602.51923749918205 0 0 0 0 2.805438275970936 -6.8759381691026746 0 -6.8759381691026746 12.350746076124381 0 0 0 0 431.68538675139393 -508.33736264096297 0 -508.33736264096297 -106.84829486224044 0 0 0 0 85.594781179998535 -183.42639263541423 0 -183.42639263541423 -194.5304039818584 0 0 0 0 286.93384200084483 -517.55348177704582 0 -517.55348177704582 -24.873706487232994 0 0 0 0 403.4671371006707 -395.7561537403235 0 -395.7561537403235 -188.22566450373051 0 0 0 0 -596.43467821313152 -519.40704807441944 0 -519.40704807441944 -10.019345340977452 0 0 0 0 0.12591802085580028 -21.162709474701444 0 -21.162709474701444 181.15369420852912 0 0 0 0 112.54575927675251 -283.93760800818563 0 -283.93760800818563 152.94080784148173 0 0 0 0 323.93474634224003 -431.41126855474795 0 -431.41126855474795 150.7017811555537 0 0 0 0 589.23782383255457 -134.40319711372285 0 -134.40319711372285 82.010124144388101 0 0 0 0 186.25137429358438 -284.9404602384293 0 -284.9404602384293 56.432683293634909 0 0 0 0 -437.75768475601262 120.39588910458633 0 120.39588910458633 184.4746508617111 0 0 0 0 -389.98934289631939 -114.56650463258347 0 -114.56650463258347 142.49224968957878 0 0 0 0 -694.03479322990165 -84.915844972408308 0 -84.915844972408308 292.47956127386351 0 0 0 0 -161.25658936350678 -117.15176356664782 0 -117.15176356664782 199.96687125623032 0 0 0 0 -354.48794129010048 -20.333316437294343 0 -20.333316437294343 374.38546314741393 0 0 0 0 -141.1630329672781 56.56102227590145 0 56.56102227590145 258.2286659530273 0 0 0 0 -137.06443415419983 26.388803857001676 0 26.388803857001676 480.0705748598466 0 0 0 0 22.502127725767878 61.203633317855974 0 61.203633317855974 364.76706068699798 0 0 0 0 7.0740683208650808 74.273526914424565 0 74.273526914424565 652.06828452293166 0 0 0 0 48.69640731673644 72.685139494165384 0 72.685139494165384 579.75762363162278 0 0 0 0 18.271184777682663 -190.52197457997204 0 -190.52197457997204 640.37108691001413 0 0 0 0 7.4865757053428368 -129.10800025092217 0 -129.10800025092217 306.25140050092403 0 0 0 0 -161.88052804531986 -117.50098573228402 0 -117.50098573228402 479.82558989015547 0 0 0 0 -47.797698954873226 -271.15368218809175 0 -271.15368218809175 338.33098894006446 0 0 0 0 151.26963297301336 -214.99128462471651 0 -214.99128462471651 379.24674894484349 0 0 0 0 97.740674835208893 -280.77357025565061 0 -280.77357025565061 419.16029885319864 0 0 0 0 79.751409667418727 -221.12934675405606 0 -221.12934675405606 237.22265350179623 0 0 0 0 42.893403829435442 -281.91758175313123 0 -281.91758175313123 253.00818903354246 0 0 0 0 -124.47499620184146 -169.69230126354176 0 -169.69230126354176 249.98869166166 0 0 0 0 -57.231520249789554 -270.45105829518729 0 -270.45105829518729 235.47467222483772 0 0 0 0 -356.14181370777527 -81.299759268932235 0 -81.299759268932235 229.58955100361325 0 0 0 0 -490.4025737581336 -161.38681807729168 0 -161.38681807729168 256.14166870518591 0 0 0 0 -351.93242678580305 -45.237975806745538 0 -45.237975806745538 124.45858056129282 0 0 0 0 -144.98376651084106 -209.97127992314196 0 -209.97127992314196 190.46006936658853 0 0 0 0 -356.99713878255903 -110.577690474712 0 -110.577690474712 319.50929412602261 0 0 0 0 201.27460492570935 -61.445910689981247 0 -61.445910689981247 -377.94757592247333 0 0 0 0 200.53909759704038 89.549236450751778 0 89.549236450751778 105.77909932538023 0 0 0 0 -129.94006298666318 12.338091916739359 0 12.338091916739359 87.794268866058701 0 0 0 0 0.92529919509161118 -1.9979219332089997 0 -1.9979219332089997 -11.701999879551295 0 0 0 0 54.046019666072425 -243.70190838846611 0 -243.70190838846611 53.194536115792289 0 0 0 0 -34.194961066794349 -229.12671892628714 0 -229.12671892628714 89.185908541912795 0 0 0 0 249.856196972014 -165.92023038260231 0 -165.92023038260231 52.682872523313563 0 0 0 0 215.43473955159516 9.2087551951372006 0 9.2087551951372006 317.02760773635237 0 0 0 0 362.2965700888999 -252.82138769904122 0 -252.82138769904122 46.805147293867776 0 0 0 0 359.7752999231343 -100.52682428475237 0 -100.52682428475237 392.96981193065585 0 0 0 0 401.72123833597288 229.2067746433022 0 229.2067746433022 416.6760796941835 0 0 0 0 40.948487547544119 41.431780202055961 0 41.431780202055961 410.10388668201631 0 0 0 0 24.461277073100973 250.47212005004258 0 250.47212005004258 1082.5899051872693 0 0 0 0 260.85747786738011 -362.08150248125457 0 -362.08150248125457 1044.9857763827022 0 0 0 0 -51.182843303612799 -208.71964687764012 0 -208.71964687764012 1343.9226794910792 0 0 0 0 -1176.7471141894885 -178.68888771555066 0 -178.68888771555066 416.47399752814817 0 0 0 0 -32.931188534615103 -732.73063357974752 0 -732.73063357974752 170.75596049564774 0 0 0 0 -400.87812296498487 2225.1538685307678 0 2225.1538685307678 -148.24645880975731 0 0 0 0 1301.8656984047948 -268.69177271252556 0 -268.69177271252556 -86.39325247189845 0 0 0 0 5.233925533736425 7.3938783462689628 0 7.3938783462689628 8.1434409028144614 0 0 0 0 29.688025484299033 -583.49202594313101 0 -583.49202594313101 2753.6199812132982 0 0 0 0 -466.15828614802831 1937.7211812310097 0 1937.7211812310097 73.299370484222891 0 0 0 0 683.64655166322154 749.79812261828192 0 749.79812261828192 1031.0938877680092 0 0 0 0 5.4758951786259829 9.1651806705219627 0 9.1651806705219627 13.729870939542735 0 0 0 0 697.53146135349732 -467.93286760344449 0 -467.93286760344449 -373.38972633270896 0 0 0 0 742.01543863875168 876.56487575373649 0 876.56487575373649 1262.9506719297206 0 0 0 0 457.03997979436372 -1050.7843118481833 0 -1050.7843118481833 2229.2322951309179 0 0 0 0 271.60086703155457 -239.36839199151655 0 -239.36839199151655 550.4935289324203 0 0 0 0 -3.3852759835731554 -0.62271774565577687 0 -0.62271774565577687 1.1901775056463748 0 0 0 0 -26.163862850663463 114.1757807510221 0 114.1757807510221 798.81844605053993 0 0 0 0 343.70473406258316 -641.99841417845892 0 -641.99841417845892 961.8286187868016 0 0 0 0 200.33217429975252 -204.67414657626887 0 -204.67414657626887 889.79118542349897 0 0 0 0 -205.72142854635604 64.368744045874337 0 64.368744045874337 5.5497175493073883 0 0 0 0 11.243416560485697 23.084583271279399 0 23.084583271279399 37.139784532563681 0 0 0 0 354.23070129059857 -415.62871347394105 0 -415.62871347394105 652.52682745666243 0 0 0 0 -739.01265994706591 305.32770682041155 0 305.32770682041155 69.603833324013976 0 0 0 0 -710.85427688176424 -294.36606907139503 0 -294.36606907139503 305.87976804059872 0 0 0 0 26.967879719079065 -427.45919537824375 0 -427.45919537824375 210.65718436212046 0 0 0 0 -497.38526941128293 -202.78590696378524 0 -202.78590696378524 219.95206199391396 0 0 0 0 8.8143262802459503 -204.1424201199261 0 -204.1424201199261 18.766302435280522 0 0 0 0 -36.010138395795366 -239.0743448860012 0 -239.0743448860012 157.26417269306694 0 0 0 0 -116.06190142301057 -159.69857893857989 0 -159.69857893857989 96.160892683867132 0 0 0 0 -117.08687185142844 51.621350327466644 0 51.621350327466644 190.8074132486654 0 0 0 0 -120.24450894707547 18.231339741815646 0 18.231339741815646 169.5720281539252 0 0 0 0 -19.125664071778452 -35.831196847562495 0 -35.831196847562495 18.03728784651959 0 0 0 0 -47.550239292327205 46.422746642811035 0 46.422746642811035 119.21351558086462 0 0 0 0 -108.66339503558265 -23.705372566211736 0 -23.705372566211736 80.054921544971876 0 0 0 0 151.59439982306867 -274.71024981870141 0 -274.71024981870141 563.10884044780687 0 0 0 0 12.398216307880027 31.513956919464704 0 31.513956919464704 58.053796397356223 0 0 0 0 75.121003404392923 -184.76806603197474 0 -184.76806603197474 -13.931818598328391 0 0 0 0 1.2669931181587053 3.9662532074095935 0 3.9662532074095935 14.154611556814132 0 0 0 0 -117.42473298221284 -203.05789091631596 0 -203.05789091631596 513.91142988998763 0 0 0 0 41.26693657275041 -275.90497156881975 0 -275.90497156881975 529.24899143185758 0 0 0 0 45.091748594645878 -290.95505088286518 0 -290.95505088286518 582.49098116965615 0 0 0 0 124.30427603914632 -231.93414468382252 0 -231.93414468382252 600.71473973903812 0 0 0 0 81.555816656027218 -264.70885559624367 0 -264.70885559624367 587.08681672211969 0 0 0 0 31.806337956375728 -301.88826322966634 0 -301.88826322966634 603.95754721511912 0 0 0 0 48.744476774071245 -251.63041754009464 0 -251.63041754009464 613.65925701209926 0 0 0 0 154.12379455145401 -276.731940576341 0 -276.731940576341 562.43402050009172 0 0 0 0 131.94594149951354 -301.74513621580991 0 -301.74513621580991 604.29715897860297 0 0 0 0 28.598917893812541 -285.2862711459602 0 -285.2862711459602 794.71448149148273 0 0 0 0 14.580661362994761 118.90559381747153 0 118.90559381747153 284.83138741052244 0 0 0 0 142.47015761755665 25.703947454298032 0 25.703947454298032 -41.538118348209537 0 0 0 0 -79.920867096402617 -62.334865970355168 0 -62.334865970355168 151.00181947030069 0 0 0 0 50.205148673666642 -197.87393193251683 0 -197.87393193251683 610.02424388495274 0 0 0 0 60.503606697025361 -274.87670690924642 0 -274.87670690924642 655.02892168714607 0 0 0 0 -9.9956770873291365 -3.8547101941390451 0 -3.8547101941390451 -0.77353859540832559 0 0 0 0 97.858566870900574 -263.20951690727816 0 -263.20951690727816 475.03822030599986 0 0 0 0 -89.792569023382384 0.3633136009266309 0 0.3633136009266309 129.09018886043123 0 0 0 0 -17.659000624161298 -7.4934212517531336 0 -7.4934212517531336 0.33702125633183755 0 0 0 0 4.4619375763360738 7.6657597150357901 0 7.6657597150357901 11.973766938825179 0 0 0 0 16.20096084526358 13.346936248577549 0 13.346936248577549 -44.993058510386618 0 0 0 0 -43.927567743433542 117.59250891672127 0 117.59250891672127 -32.53850644043996 0 0 0 0 20.19991222445347 -4.7299911456329937 0 -4.7299911456329937 14.113225898850942 0 0 0 0 -170.46323776182163 -41.621895593212685 0 -41.621895593212685 100.65340402485708 0 0 0 0 -171.9208433745045 -47.989238101996307 0 -47.989238101996307 75.80554082141316 0 0 0 0 3.6161214331164304 10.634020151819954 0 10.634020151819954 17.355397689865981 0 0 0 0 -103.24844866723328 82.386921509169042 0 82.386921509169042 -2.3504461172487936 0 0 0 0 -72.994159790069602 -17.456048271666077 0 -17.456048271666077 21.890620979642335 0 0 0 0 -7.0699016890086934 -0.45771045626111118 0 -0.45771045626111118 7.9328133759087223 0 0 0 0 203.89634331932848 -347.2571636067878 0 -347.2571636067878 487.14390864920279 0 0 0 0 194.59299532927929 -327.70292729720859 0 -327.70292729720859 507.30818422087759 0 0 0 0 47.536447797746177 -261.1321690976838 0 -261.1321690976838 562.69522348800092 0 0 0 0 42.534489182697826 -310.65165055145917 0 -310.65165055145917 570.60958119928728 0 0 0 0 41.111010466049379 -304.59407861567161 0 -304.59407861567161 589.28922468597011 0 0 0 0 70.554720217686054 -344.20019608868461 0 -344.20019608868461 563.53744154088781 0 0 0 0 41.971842964136897 -347.42599430763948 0 -347.42599430763948 563.62917772611263 0 0 0 0 34.035250102822602 -353.69206897317781 0 -353.69206897317781 585.328898628155 0 0 0 0 -20.159919933218134 -309.45768532114016 0 -309.45768532114016 589.83422100094776 0 0 0 0 -74.509334454043483 -275.75638881765917 0 -275.75638881765917 581.23645148469268 0 0 0 0 -36.75437282568646 -266.67533471204661 0 -266.67533471204661 488.47433359404386 0 0 0 0 -18.67674697057555 -338.96177681526751 0 -338.96177681526751 622.52837518778688 0 0 0 0 -27.921935822337332 -345.05031301569397 0 -345.05031301569397 636.33525332328281 0 0 0 0 237.50836120870827 -481.14700098035973 0 -481.14700098035973 600.26336854432884 0 0 0 0 235.97036397260081 -499.4757328804335 0 -499.4757328804335 478.24191606930981 0 0 0 0 280.09240959154067 -357.97824643635249 0 -357.97824643635249 487.02648041139651 0 0 0 0 142.60700848271557 -418.96671604829498 0 -418.96671604829498 560.68068806573865 0 0 0 0 140.20136810481745 -406.29367906755942 0 -406.29367906755942 587.19897564325947 0 0 0 0 -175.87430592137542 -314.59047647725674 0 -314.59047647725674 1082.2819765442109 0 0 0 0 -374.87971504019811 -60.163623201675364 0 -60.163623201675364 1238.8741823607279 0 0 0 0 58.413341415455307 -719.43522301693156 0 -719.43522301693156 1317.0035575303473 0 0 0 0 -99.192735596288628 -415.86350494212093 0 -415.86350494212093 736.1725629234279 0 0 0 0 71.491548319513015 -473.53435322416772 0 -473.53435322416772 748.72172756907821 0 0 0 0 -168.41901119599322 -182.74454951562802 0 -182.74454951562802 685.85110445498867 0 0 0 0 -119.34085961195409 -168.35843186603233 0 -168.35843186603233 629.73626067995792 0 0 0 0 -138.54491559315926 -90.360554990029414 0 -90.360554990029414 480.32557273968996 0 0 0 0 -201.63509420497618 -152.85645271093563 0 -152.85645271093563 659.55786589428317 0 0 0 0 -150.13693177037976 -140.61205610921024 0 -140.61205610921024 605.4527942779896 0 0 0 0 -277.26468956930739 104.98433989821933 0 104.98433989821933 683.65265135692971 0 0 0 0 -200.44151869043048 125.55121605649038 0 125.55121605649038 573.60469865931373 0 0 0 0 -215.83554479931934 192.4989279694073 0 192.4989279694073 362.81229432739201 0 0 0 0 -222.18103095308834 406.70056709402343 0 406.70056709402343 283.38920550815237 0 0 0 0 -371.00035193529561 327.91378143326438 0 327.91378143326438 465.24185887540443 0 0 0 0 -324.64896674391002 183.90957552944747 0 183.90957552944747 646.68050179685451 0 0 0 0 -382.54361362208056 300.74724160613914 0 300.74724160613914 978.17821567406645 0 0 0 0 -225.72103287793107 84.831241758151009 0 84.831241758151009 626.3667045746115 0 0 0 0 -387.62346185345086 87.720799203038041 0 87.720799203038041 850.82769046990143 0 0 0 0 -182.84703619221864 -375.91360774565692 0 -375.91360774565692 1757.7769609396637 0 0 0 0 -191.68854337644231 438.8790386852379 0 438.8790386852379 183.75677346847078 0 0 0 0 -411.93796439766061 -19.2111824762178 0 -19.2111824762178 -78.664834411119955 0 0 0 0 -1213.146405842064 -187.71101596747758 0 -187.71101596747758 226.2400870938327 0 0 0 0 3.8909799077541414 -14.421991595762336 0 -14.421991595762336 31.565521709309735 0 0 0 0 -220.67360412758171 165.39979924745421 0 165.39979924745421 63.899551052032621 0 0 0 0 -695.12874409371398 277.16629950385322 0 277.16629950385322 220.41882601541874 0 0 0 0 -325.3844347709761 418.01577523497872 0 418.01577523497872 303.36046750230889 0 0 0 0 -131.44594041950222 370.47556879942567 0 370.47556879942567 272.69480296362599 0 0 0 0 -131.43858706675564 371.36914635820722 0 371.36914635820722 258.15976833025525 0 0 0 0 3.9201752550106903 456.35298308789606 0 456.35298308789606 268.69620880874572 0 0 0 0 115.35507626728395 289.46941586415051 0 289.46941586415051 172.77834808155603 0 0 0 0 15.58320421308963 334.54680574830854 0 334.54680574830854 224.58174940597746 0 0 0 0 -189.50154463235185 305.81324675623182 0 305.81324675623182 542.59401575592346 0 0 0 0 62.13064834801844 456.29779543533732 0 456.29779543533732 540.70861321460688 0 0 0 0 21.299227874111693 218.64424392909496 0 218.64424392909496 577.7449318212748 0 0 0 0 -56.068657411916547 340.4170200328499 0 340.4170200328499 495.71208785483032 0 0 0 0 111.43295780070093 435.39080100889987 0 435.39080100889987 1086.5376120594519 0 0 0 0 612.76985982923907 465.30255491527714 0 465.30255491527714 434.43648385129927 0 0 0 0 397.70525383934364 20.20387133058648 0 20.20387133058648 718.36825302137004 0 0 0 0 311.88725558085844 248.2564655429087 0 248.2564655429087 282.38589289539959 0 0 0 0 124.62747648935147 327.56496836907172 0 327.56496836907172 253.24252849836193 0 0 0 0 346.84859842366313 109.60464313122066 0 109.60464313122066 59.343009178104694 0 0 0 0 69.544421674968362 118.53944570963358 0 118.53944570963358 59.328739839998889 0 0 0 0 -104.16921850244148 -21.946587370577618 0 -21.946587370577618 -51.024354501088965 0 0 0 0 43.930650583373165 43.185254089646151 0 43.185254089646151 -51.421210826723836 0 0 0 0 -100.47372456364792 73.273147464104113 0 73.273147464104113 -11.462877683865372 0 0 0 0 63.43434785921545 212.16782038047677 0 212.16782038047677 71.875078220720752 0 0 0 0 -42.612844669665719 251.44310062826844 0 251.44310062826844 187.24759917671327 0 0 0 0 -0.10052431161693676 381.16849565925077 0 381.16849565925077 253.07370512568377 0 0 0 0 -8.7534063029679601 269.64599218785588 0 269.64599218785588 171.6174568052229 0 0 0 0 -123.96761135999623 315.758738250428 0 315.758738250428 358.80837862196495 0 0 0 0 -119.41662365822503 324.24560022378864 0 324.24560022378864 231.11831599900324 0 0 0 0 -111.93591979884013 224.56270812248476 0 224.56270812248476 254.24262338227709 0 0 0 0 -128.11865097864211 230.09276398716611 0 230.09276398716611 346.51005899680422 0 0 0 0 -100.51500774734086 140.9821892890177 0 140.9821892890177 255.31043580342384 0 0 0 0 -58.317353341760281 261.80880188211449 0 261.80880188211449 277.4941798941727 0 0 0 0 -48.665035005737991 217.36995188886067 0 217.36995188886067 124.52511717325251 0 0 0 0 -76.787807901832025 199.03091675540418 0 199.03091675540418 163.29351728997426 0 0 0 0 -86.168645716237734 86.927505450352328 0 86.927505450352328 100.81565085599141 0 0 0 0 -5.5468421777753507 -4.1178720645128664 0 -4.1178720645128664 12.457514911749513 0 0 0 0 -129.27060816039739 25.838537618386908 0 25.838537618386908 216.59830222677556 0 0 0 0 -192.01349217936195 76.456007140201109 0 76.456007140201109 202.81039807108755 0 0 0 0 -138.81408120588003 62.48140203555522 0 62.48140203555522 287.72037011320936 0 0 0 0 -45.922551227161648 -150.10808819307567 0 -150.10808819307567 250.38909471569059 0 0 0 0 -81.325851689608953 128.42530190754042 0 128.42530190754042 252.41553894913523 0 0 0 0 -151.31182805102162 137.45665922063927 0 137.45665922063927 408.35162733811012 0 0 0 0 -103.08184131208236 -114.15297298683436 0 -114.15297298683436 365.06536058671736 0 0 0 0 30.604391052672327 -75.038875940270373 0 -75.038875940270373 179.52828550196318 0 0 0 0 16.672869117704067 -46.75208064241815 0 -46.75208064241815 343.57625287922565 0 0 0 0 -79.012440980977772 105.03351241754717 0 105.03351241754717 -54.188912557787262 0 0 0 0 -73.176842901920963 -48.893119843329259 0 -48.893119843329259 -362.5777569427446 0 0 0 0 -1.1596378437189028 2.1318231710871629 0 2.1318231710871629 5.7014167662854192 0 0 0 0 3.8746260628440723 -39.104931648726051 0 -39.104931648726051 -14.989011535053578 0 0 0 0 128.89974610090576 -10.145869125284662 0 -10.145869125284662 -262.215768551113 0 0 0 0 -46.605324064566958 44.068133669483359 0 44.068133669483359 303.16774539506878 0 0 0 0 -2.5387775996237956 -11.239104989486378 0 -11.239104989486378 0.69012512647543223 0 0 0 0 -17.413627158490272 56.303445873549208 0 56.303445873549208 203.97133482106068 0 0 0 0 -0.41990560180448711 11.824189324219915 0 11.824189324219915 3.4149376867859402 0 0 0 0 0.42170672024105471 -43.434316530421128 0 -43.434316530421128 11.499984465496802 0 0 0 0 -9.5259090745417616 7.4380476809532894 0 7.4380476809532894 18.677201633011073 0 0 0 0 3.0851656457670984 -12.772539285189978 0 -12.772539285189978 -0.043506852869105328 0 0 0 0 38.275037430273073 -109.74650715579355 0 -109.74650715579355 -133.32218281581299 0 0 0 0 2.5177658453148979 -100.81242252743777 0 -100.81242252743777 268.00275339557265 0 0 0 0 34.577606221937117 -75.479765364621016 0 -75.479765364621016 109.43888145584788 0 0 0 0 -13.069598142114501 55.361351276297682 0 55.361351276297682 -103.29112008435186 0 0 0 0 132.17325169851756 -66.527834140368213 0 -66.527834140368213 -32.107451463998586 0 0 0 0 154.581268988798 -11.246740449183562 0 -11.246740449183562 186.22464390436653 0 0 0 0 180.45396924730812 35.062425260373857 0 35.062425260373857 35.532806157316372 0 0 0 0 363.71109653732037 208.81821043230593 0 208.81821043230593 289.84400469827233 0 0 0 0 1789.716319481744 85.664775266508514 0 85.664775266508514 721.34887546969094 0 0 0 0 84.039891860321404 -306.71030457902816 0 -306.71030457902816 1291.6426160712649 0 0 0 0 -4.8437535371969194 -2.2594085966585453 0 -2.2594085966585453 0.76721038588374313 0 0 0 0 62.339417509787381 -94.784631601447472 0 -94.784631601447472 1307.3344435911058 0 0 0 0 219.25613143619216 -36.966061939549036 0 -36.966061939549036 132.35557381800027 0 0 0 0 15.953020904587902 -107.76956425764729 0 -107.76956425764729 143.02822335960082 0 0 0 0 -15.139443857627519 -6.5639267750718346 0 -6.5639267750718346 -2.2742766166515764 0 0 0 0 89.751856337833487 -312.01084785709645 0 -312.01084785709645 875.91733353484597 0 0 0 0 121.31380713644216 -106.82768427352494 0 -106.82768427352494 331.73875004160072 0 0 0 0 -132.33696668079438 140.42839571315562 0 140.42839571315562 1155.853354143168 0 0 0 0 -97.750962522406553 117.57693804725568 0 117.57693804725568 984.90592507597103 0 0 0 0 -296.6481669143318 -9.235921460109239 0 -9.235921460109239 354.51822810741578 0 0 0 0 148.14663735756994 413.23583806141687 0 413.23583806141687 -106.86260575399501 0 0 0 0 -88.683130458524374 246.94316501516732 0 246.94316501516732 630.73718926869697 0 0 0 0 -38.268786186294165 497.62690933527483 0 497.62690933527483 1225.4417077343096 0 0 0 0 -6.2256777429870453 3.9146670352201909 0 3.9146670352201909 703.15838274726775 0 0 0 0 2.9234554363979441 23.456696018314688 0 23.456696018314688 187.17480259397416 0 0 0 0 -203.82126384973543 -82.608722424023199 0 -82.608722424023199 350.81558111707272 0 0 0 0 119.45283694507134 -137.32161091271701 0 -137.32161091271701 121.85298978958599 0 0 0 0 88.16025619384061 -179.84238673195432 0 -179.84238673195432 356.77734049896571 0 0 0 0 -30.432768928740188 -76.60551389698594 0 -76.60551389698594 85.164906854261062 0 0 0 0 -28.336658528325643 44.76042545652308 0 44.76042545652308 186.13381912476927 0 0 0 0 -3.9973567812208834 -5.4164849794615861 0 -5.4164849794615861 20.169808919075443 0 0 0 0 23.356795261612206 -86.742628183288616 0 -86.742628183288616 97.274302712110511 0 0 0 0 8.5144596364119742 -13.30327335240662 0 -13.30327335240662 -0.06195612360445002 0 0 0 0 62.361823836417898 -55.136570253071113 0 -55.136570253071113 -71.69114911359793 0 0 0 0 -40.820377443055122 66.837567399301406 0 66.837567399301406 142.9830997213794 0 0 0 0 3.3753076006938869 -31.897298987450199 0 -31.897298987450199 11.203209518623495 0 0 0 0 34.032556768514041 -38.785062490263954 0 -38.785062490263954 173.57407642752514 0 0 0 0 110.65027808513844 -74.243229293846525 0 -74.243229293846525 -33.017730131326971 0 0 0 0 -6.4502896970415433 -51.009863155435184 0 -51.009863155435184 48.465272854431689 0 0 0 0 63.325158314746091 -100.48959543526144 0 -100.48959543526144 -116.82900265265562 0 0 0 0 -4.3142262387527515 -10.376797004184965 0 -10.376797004184965 -14.02953818126052 0 0 0 0 23.929066509839934 -46.905096584769922 0 -46.905096584769922 38.388274685144069 0 0 0 0 -97.674167419509104 -331.71932442245452 0 -331.71932442245452 -300.96487531936873 0 0 0 0 -229.38513152943051 -111.86256996861266 0 -111.86256996861266 144.89550262611738 0 0 0 0 -42.795457201134155 -11.194576738935851 0 -11.194576738935851 16.259115760176215 0 0 0 0 35.228620441649582 -172.07246485484211 0 -172.07246485484211 30.465100206274656 0 0 0 0 5.8412466267536729 5.2814938368646835 0 5.2814938368646835 417.94533527360909 0 0 0 0 -59.14727945357356 84.878221842976927 0 84.878221842976927 986.30643459450948 0 0 0 0 115.28283972423958 -23.13668977481575 0 -23.13668977481575 425.30860118842975 0 0 0 0 -247.92789047307406 229.23803252423022 0 229.23803252423022 1181.2166927406943 0 0 0 0 -286.22541302573472 266.66396509768674 0 266.66396509768674 1196.5612476059177 0 0 0 0 -401.1650040735185 192.89958770664089 0 192.89958770664089 2442.2463053055399 0 0 0 0 -20.550409521514212 1474.4221107174203 0 1474.4221107174203 998.25603133573895 0 0 0 0 -181.95239069462514 277.64995446514513 0 277.64995446514513 1168.0611175386093 0 0 0 0 -149.91134105339961 246.16912976905587 0 246.16912976905587 1097.7223570669157 0 0 0 0 -47.8274268056457 246.69667824241333 0 246.69667824241333 1095.3914043250988 0 0 0 0 -62.722448845748204 -16.496197918560938 0 -16.496197918560938 1155.4529377478616 0 0 0 0 -56.771715699062952 54.723770751425036 0 54.723770751425036 673.8192715542682 0 0 0 0 -23.937185356243845 204.34727750016464 0 204.34727750016464 499.73469297165866 0 0 0 0 -48.647374168856345 32.493810954117635 0 32.493810954117635 596.66688161504862 0 0 0 0 18.745707432013127 -25.47865024302709 0 -25.47865024302709 36.720688296532671 0 0 0 0 72.620730316362824 130.65835822164081 0 130.65835822164081 572.66280173604355 0 0 0 0 266.39889841103786 765.47794210505526 0 765.47794210505526 1801.4895254891308 0 0 0 0 118.05611826797303 393.29851180194237 0 393.29851180194237 869.36025536809029 0 0 0 0 -144.6607050152943 374.16553961304089 0 374.16553961304089 1501.7435769015574 0 0 0 0 -2.7832303485656666 -111.20273463577905 0 -111.20273463577905 1431.8707484332699 0 0 0 0 184.77354161564745 836.58285607691505 0 836.58285607691505 2754.2020283361489 0 0 0 0 332.27295545513334 -399.93791142015834 0 -399.93791142015834 1555.4388461525377 0 0 0 0 7.5543834227779065 -9.3000701467461511 0 -9.3000701467461511 13.407342885022587 0 0 0 0 120.26112821305742 -628.29404958728264 0 -628.29404958728264 2917.6443540768378 0 0 0 0 533.27040700905445 -781.75315258473347 0 -781.75315258473347 71.456828833812324 0 0 0 0 60.609886870765877 64.831532535847145 0 64.831532535847145 115.20702780934516 0 0 0 0 -6.2476278947906394 91.710398965216882 0 91.710398965216882 196.76291824179134 0 0 0 0 -229.10494004112115 -183.43593931592477 0 -183.43593931592477 101.99598361608878 0 0 0 0 -80.068938970740419 -369.2185718268629 0 -369.2185718268629 -992.6608618593873 0 0 0 0 -222.38052154973752 -299.11261766072857 0 -299.11261766072857 143.07784954038652 0 0 0 0 -21.656136853507469 -10.133065758832643 0 -10.133065758832643 5.1021093531200776 0 0 0 0 -358.0402724786195 -648.0118200170582 0 -648.0118200170582 -80.652057471605076 0 0 0 0 -197.61834520630396 -932.51018947614284 0 -932.51018947614284 -1681.9673378970074 0 0 0 0 -479.26950559355555 -308.81465643738375 0 -308.81465643738375 216.96986015692528 0 0 0 0 -718.78557689537854 -678.63734369457234 0 -678.63734369457234 617.08531328249592 0 0 0 0 1.343637114340793 -2.2456826375892405 0 -2.2456826375892405 -0.013665633433376456 0 0 0 0 -6.3038925962529699 -10.051819446468713 0 -10.051819446468713 4.0671602227262014 0 0 0 0 241.56495549266947 -212.89879396226752 0 -212.89879396226752 488.49460869216455 0 0 0 0 49.907141911618965 -301.6829419426067 0 -301.6829419426067 600.14394740767602 0 0 0 0 159.91471860218644 -654.79685044308644 0 -654.79685044308644 695.96765095015871 0 0 0 0 187.05883800878428 -825.05395472779855 0 -825.05395472779855 1507.7606575688696 0 0 0 0 56.760099443661602 -79.77447779924114 0 -79.77447779924114 953.95028451433609 0 0 0 0 242.81177142335309 414.36552664823103 0 414.36552664823103 2263.7077790479379 0 0 0 0 -185.91774322004903 -193.1518641867151 0 -193.1518641867151 613.54720375813849 0 0 0 0 -311.67726921467164 -21.672476632231337 0 -21.672476632231337 541.61821223715378 0 0 0 0 -70.882383140857428 22.018209217330877 0 22.018209217330877 1005.2783129652234 0 0 0 0 -56.005276043697904 -707.0053327261121 0 -707.0053327261121 990.47320245583364 0 0 0 0 43.700462906407033 -251.75319046975392 0 -251.75319046975392 972.71328081078536 0 0 0 0 -628.83088085595591 -343.04699120366058 0 -343.04699120366058 2086.6425236880823 0 0 0 0 -242.28269657782894 -484.92454946349426 0 -484.92454946349426 933.61073208482412 0 0 0 0 -932.37307465197853 -363.18846510703588 0 -363.18846510703588 1108.9432880438908 0 0 0 0 375.76448508312569 -645.53731799754314 0 -645.53731799754314 -542.26051322519197 0 0 0 0 -376.11471831891254 -295.22169195109927 0 -295.22169195109927 -282.97858848249598 0 0 0 0 -428.00853376681471 -824.17219667337486 0 -824.17219667337486 321.82603881826799 0 0 0 0 -1190.6463120809162 -948.12779952499841 0 -948.12779952499841 440.97666831435345 0 0 0 0 -442.11862263505623 -315.11878464370966 0 -315.11878464370966 -281.33840625141147 0 0 0 0 4.1995047973753188 -16.229025502850906 0 -16.229025502850906 31.891566221200009 0 0 0 0 -1188.6256696427345 -488.6821692602789 0 -488.6821692602789 216.8150614817132 0 0 0 0 -542.17257056984045 -364.45431591993474 0 -364.45431591993474 82.478537686921754 0 0 0 0 -457.06993811082958 34.187921900676884 0 34.187921900676884 34.772137718755403 0 0 0 0 -437.21799894865455 179.03689614973518 0 179.03689614973518 368.23695804829185 0 0 0 0 -472.77270618874536 72.988296356619685 0 72.988296356619685 253.20371979163247 0 0 0 0 -557.5926634950556 139.36743065240807 0 139.36743065240807 -184.17099328197946 0 0 0 0 -558.3735954770741 38.799539028346771 0 38.799539028346771 279.98382983455667 0 0 0 0 -1001.0383150928417 48.311238442116519 0 48.311238442116519 493.49005602745092 0 0 0 0 -27.864685253904149 -325.01983821327303 0 -325.01983821327303 -796.76268103053735 0 0 0 0 3.1440182917883175 -8.7384959438198706 0 -8.7384959438198706 12.637062782971896 0 0 0 0 568.79801899784468 -1173.5328886474745 0 -1173.5328886474745 -2642.1701468892679 0 0 0 0 -509.0167372031317 -282.55902675566176 0 -282.55902675566176 717.72003018479882 0 0 0 0 -685.87190508863148 -208.36593534526037 0 -208.36593534526037 687.4557241720031 0 0 0 0 -463.95566034729563 121.71833910258647 0 121.71833910258647 545.7367559529157 0 0 0 0 -762.99408888816765 179.32543315348448 0 179.32543315348448 519.32231932485593 0 0 0 0 -367.75251617955246 32.620442731291405 0 32.620442731291405 573.39697282853376 0 0 0 0 -0.94748145941669026 2.1937488679742145 0 2.1937488679742145 -2.3438845006977544 0 0 0 0 -212.78472194745075 -246.76548136171829 0 -246.76548136171829 180.71555679837184 0 0 0 0 -213.1278758817374 -273.63059109800815 0 -273.63059109800815 571.29422174149659 0 0 0 0 282.12110566935615 -429.02201274701656 0 -429.02201274701656 540.52061613791739 0 0 0 0 274.28497679885982 -271.06536795449756 0 -271.06536795449756 356.61840964082512 0 0 0 0 278.30832772942375 -847.63497400021151 0 -847.63497400021151 604.54673083434227 0 0 0 0 281.68073819221809 -1005.2881468934147 0 -1005.2881468934147 1138.6860100367339 0 0 0 0 899.68979872452758 -1457.4203147910775 0 -1457.4203147910775 1094.2293725948184 0 0 0 0 808.68449605441015 40.432025825740766 0 40.432025825740766 -332.76277069230127 0 0 0 0 1084.05329190112 -2177.916625807271 0 -2177.916625807271 2931.1820942988161 0 0 0 0 1782.1812278367804 22.687648533705215 0 22.687648533705215 5209.9480031076528 0 0 0 0 -346.14982210728141 -1389.1544238019105 0 -1389.1544238019105 3312.3667140400939 0 0 0 0 89.714008270615736 -1689.3608046319168 0 -1689.3608046319168 3500.713620300312 0 0 0 0 -681.59621502914013 -738.09415282697773 0 -738.09415282697773 2049.188777505773 0 0 0 0 -126.72738295967724 -936.43796766868309 0 -936.43796766868309 1996.3475849044589 0 0 0 0 -1314.8122221599533 -657.23517314720357 0 -657.23517314720357 3497.9208687759638 0 0 0 0 -472.52417922663278 -506.34648706387179 0 -506.34648706387179 1743.8404407700946 0 0 0 0 -226.68646852938616 -323.87124876468715 0 -323.87124876468715 1088.6051174754102 0 0 0 0 362.87162456095723 -423.48797808085328 0 -423.48797808085328 586.06435246456385 0 0 0 0 -273.71897311334806 -295.47173163483239 0 -295.47173163483239 1286.9278709300888 0 0 0 0 378.1545386724938 -194.33532077570271 0 -194.33532077570271 529.20418516896461 0 0 0 0 -11.954445972517306 76.117521026451868 0 76.117521026451868 415.13174224749764 0 0 0 0 -581.52385758394064 -248.87182757383562 0 -248.87182757383562 1074.5560957261332 0 0 0 0 -285.6534968910762 -420.52683204565074 0 -420.52683204565074 276.24111983423791 0 0 0 0 -232.85544045376037 -325.7609977098582 0 -325.7609977098582 596.68971473088277 0 0 0 0 -344.1004731663129 -79.090129596632323 0 -79.090129596632323 412.68267153142733 0 0 0 0 -275.61100994491699 -94.685619750300248 0 -94.685619750300248 577.04354198555666 0 0 0 0 -270.67680696448127 -379.27666033201876 0 -379.27666033201876 198.84238557412755 0 0 0 0 -472.67613333510894 -286.28134801592569 0 -286.28134801592569 1258.8992336621232 0 0 0 0 -562.39108688123565 168.05488107621386 0 168.05488107621386 1425.2905783199203 0 0 0 0 -365.84437421972007 -102.56035749248622 0 -102.56035749248622 1211.3651034988688 0 0 0 0 -340.68654421946707 21.645379544945854 0 21.645379544945854 1454.1740102035983 0 0 0 0 -256.69635422169426 769.30975528006456 0 769.30975528006456 2964.9951211335301 0 0 0 0 -3.4603811372155922 -1.13231533665261 0 -1.13231533665261 5.7221371795757676 0 0 0 0 -162.22097515107606 900.05859302492536 0 900.05859302492536 3498.1020935298548 0 0 0 0 -878.05742317866543 -566.24609128649536 0 -566.24609128649536 804.59387379995314 0 0 0 0 -777.46513864068345 -315.61688805883023 0 -315.61688805883023 1195.8140341200487 0 0 0 0 -1079.3864603334334 32.548841671372429 0 32.548841671372429 1703.0330063954607 0 0 0 0 -4.0221584363364773 -0.94827848122451996 0 -0.94827848122451996 7.7402743580027789 0 0 0 0 -489.85435660798021 285.0947189476974 0 285.0947189476974 1606.3940535313441 0 0 0 0 -891.39494645395939 617.42950609816216 0 617.42950609816216 3495.8537732099649 0 0 0 0 -102.73406432071511 802.6538597589406 0 802.6538597589406 1545.9007671775835 0 0 0 0 -122.38288714104232 626.10484314577479 0 626.10484314577479 1217.0467020160213 0 0 0 0 -289.21122567003806 338.90817950926066 0 338.90817950926066 1450.3190013151197 0 0 0 0 -137.75555650337247 318.48493769028755 0 318.48493769028755 791.43061373262753 0 0 0 0 -65.100220389492335 271.80539698633947 0 271.80539698633947 810.50347224973666 0 0 0 0 103.6280008585708 160.01629689216134 0 160.01629689216134 49.22080942417233 0 0 0 0 -159.93560604954871 -26.183504740401986 0 -26.183504740401986 339.3279466465392 0 0 0 0 -307.70094021390332 154.33215631462554 0 154.33215631462554 916.95585619267513 0 0 0 0 -224.77851970084885 125.20119139119197 0 125.20119139119197 925.1996540924265 0 0 0 0 -143.45637125658865 -22.5270695003951 0 -22.5270695003951 171.96521213462256 0 0 0 0 -295.00130853959672 -217.75180886910312 0 -217.75180886910312 426.88104989136627 0 0 0 0 -176.98370966218855 -218.89769452891005 0 -218.89769452891005 136.8891409382486 0 0 0 0 -98.117005235022958 -186.91966695987139 0 -186.91966695987139 123.98774199448235 0 0 0 0 -50.805565633000498 -22.365914151752804 0 -22.365914151752804 284.04614325468719 0 0 0 0 -49.611946743515318 473.49523273544492 0 473.49523273544492 257.050181091544 0 0 0 0 19.422579179245758 431.81355382330912 0 431.81355382330912 226.82536645445362 0 0 0 0 -165.33998894239267 251.8823059462884 0 251.8823059462884 195.22253883136182 0 0 0 0 52.072185075842754 234.62699923169203 0 234.62699923169203 111.98628944533266 0 0 0 0 -92.494142152797394 76.228093847601485 0 76.228093847601485 103.0167969025606 0 0 0 0 -41.765902574211168 355.68494137587595 0 355.68494137587595 167.22817105813556 0 0 0 0 375.96668575246122 460.38161729385229 0 460.38161729385229 140.27115023452302 0 0 0 0 204.61857249435639 183.2450794402348 0 183.2450794402348 95.553733061358798 0 0 0 0 -232.80002143230257 462.25689920894911 0 462.25689920894911 640.90374669370703 0 0 0 0 111.33605526064764 671.97344752545087 0 671.97344752545087 433.34706764381554 0 0 0 0 -54.446487819474896 476.27109195626144 0 476.27109195626144 256.73163859713691 0 0 0 0 -105.64713959649356 504.33715893909812 0 504.33715893909812 392.06719805384273 0 0 0 0 -366.60371307801353 258.9441115254358 0 258.9441115254358 401.52792025335123 0 0 0 0 -308.24473980785814 189.26377121869427 0 189.26377121869427 234.32289697085616 0 0 0 0 -102.88607771306033 320.96359498889069 0 320.96359498889069 204.14216077167566 0 0 0 0 -468.24570048860414 185.00263757988341 0 185.00263757988341 286.53360292353682 0 0 0 0 -399.0874168184219 134.98753551932987 0 134.98753551932987 255.27003230806076 0 0 0 0 -478.12510219012847 -143.9522555825281 0 -143.9522555825281 6.0678531975281658 0 0 0 0 -77.077943010561626 -129.68639584129039 0 -129.68639584129039 -84.373932678139681 0 0 0 0 -7.0678679111105618 -6.4673652000182011 0 -6.4673652000182011 34.096849966547992 0 0 0 0 -545.30523699587889 39.785733718513256 0 39.785733718513256 278.17024618583218 0 0 0 0 -254.46781292428932 144.14166575594777 0 144.14166575594777 86.185639236611678 0 0 0 0 239.52828433529157 394.64930210951752 0 394.64930210951752 -31.660842885512466 0 0 0 0 -227.81156693251705 97.286884498264953 0 97.286884498264953 68.889847821308649 0 0 0 0 0.5615470290499136 3.6551274038931112 0 3.6551274038931112 11.40170603839729 0 0 0 0 -192.8574990041119 401.24502407868385 0 401.24502407868385 291.82481087431916 0 0 0 0 -194.34872823554997 112.32840423622929 0 112.32840423622929 17.579047946652281 0 0 0 0 -63.530945907153153 428.71485546346617 0 428.71485546346617 242.56927854533751 0 0 0 0 -55.138173645064626 532.97175254697004 0 532.97175254697004 736.60786859698965 0 0 0 0 -46.670316046776634 463.55527266713398 0 463.55527266713398 267.35364531146297 0 0 0 0 -11.88440894880523 -161.44424207728207 0 -161.44424207728207 677.39889115983351 0 0 0 0 -27.110928576164042 382.06067646769907 0 382.06067646769907 830.74388127716247 0 0 0 0 3.12419817245455 2.8917319996117321 0 2.8917319996117321 1.444700104934558 0 0 0 0 320.39197641478586 368.59993389624969 0 368.59993389624969 566.42978209424109 0 0 0 0 179.4793913923736 468.14737378597147 0 468.14737378597147 695.15280889368296 0 0 0 0 83.567864635621874 189.1789303342899 0 189.1789303342899 462.5314833771954 0 0 0 0 81.782515782873816 278.02927120474499 0 278.02927120474499 851.38234923100572 0 0 0 0 129.15978434372346 59.549483506270235 0 59.549483506270235 583.00067827313387 0 0 0 0 -36.10169868578226 252.53060060608414 0 252.53060060608414 457.98181253959046 0 0 0 0 -322.9812672383307 -5.4542035870515519 0 -5.4542035870515519 314.8858133843014 0 0 0 0 -186.14883772278847 196.69868819665817 0 196.69868819665817 279.89627357931568 0 0 0 0 -155.34176267748245 126.59049204170651 0 126.59049204170651 433.67870619120549 0 0 0 0 -109.74876861548864 430.68685547389759 0 430.68685547389759 494.18743740639275 0 0 0 0 -144.51091045703106 333.10298460290187 0 333.10298460290187 227.53248834280927 0 0 0 0 -232.24761594350457 185.91457531511423 0 185.91457531511423 157.03126401859481 0 0 0 0 -155.00199968712604 333.60685970393661 0 333.60685970393661 245.72750486612495 0 0 0 0 -219.15334935519422 205.73329417766627 0 205.73329417766627 103.78672511976765 0 0 0 0 -357.32230273691152 -26.398364838478642 0 -26.398364838478642 55.138398121366663 0 0 0 0 -348.53826893432461 141.85255808873262 0 141.85255808873262 313.17996925009027 0 0 0 0 -706.2718673258064 27.001238748822971 0 27.001238748822971 299.80928994112219 0 0 0 0 0.40371628275625837 -17.810677737227465 0 -17.810677737227465 149.12211547668906 0 0 0 0 354.15722316630854 123.8150139870686 0 123.8150139870686 -192.96572842544992 0 0 0 0 830.79491738908814 -636.19685196907631 0 -636.19685196907631 122.17820540718094 0 0 0 0 888.61972711557246 -782.71856597724582 0 -782.71856597724582 486.65431376628112 0 0 0 0 343.10533370728263 -609.15015217449036 0 -609.15015217449036 1616.0566205801006 0 0 0 0 731.22354580293995 -1601.1582061002809 0 -1601.1582061002809 3001.0044716915363 0 0 0 0 636.52448086142613 -630.88205072704295 0 -630.88205072704295 534.62777492892747 0 0 0 0 2155.3572482424697 -1863.3328018489774 0 -1863.3328018489774 416.53621983254561 0 0 0 0 1320.0419019789579 -16.703732648866207 0 -16.703732648866207 -1113.7753617006165 0 0 0 0 -307.93123547732739 165.38158793834828 0 165.38158793834828 196.82555838139342 0 0 0 0 -361.22121966890074 -149.15942655208346 0 -149.15942655208346 -179.99871796977459 0 0 0 0 35.267436044751094 -561.63116291706865 0 -561.63116291706865 209.91192454947304 0 0 0 0 224.08950782397642 -259.84025697484321 0 -259.84025697484321 -101.39208598374717 0 0 0 0 18.259804846691623 -335.11998040594699 0 -335.11998040594699 449.40129926726513 0 0 0 0 111.72946571518696 -141.0086466694047 0 -141.0086466694047 696.4476044711846 0 0 0 0 -169.05116207990284 -79.863069865559737 0 -79.863069865559737 101.99698528515728 0 0 0 0 -565.56414155588482 -236.62570997359217 0 -236.62570997359217 380.38104439666495 0 0 0 0 -425.42232853154655 86.832801118172938 0 86.832801118172938 604.75237382202613 0 0 0 0 -463.21095988744673 -41.719219682006951 0 -41.719219682006951 348.82011008130212 0 0 0 0 -326.36811473608577 72.051499632456398 0 72.051499632456398 311.47291291823603 0 0 0 0 -229.19047139230224 -21.998934050385287 0 -21.998934050385287 383.26806130319892 0 0 0 0 -154.32950688629649 205.15885306177552 0 205.15885306177552 806.04162601495773 0 0 0 0 206.8128455867718 241.40676186795463 0 241.40676186795463 560.08194353173894 0 0 0 0 190.68390558655733 278.77427543191834 0 278.77427543191834 800.61428721562697 0 0 0 0 18.224534401137866 -31.902938518968455 0 -31.902938518968455 46.961068905223911 0 0 0 0 -162.21669506014041 -73.125625176377071 0 -73.125625176377071 153.64830129945767 0 0 0 0 -9.0175017444591035 7.1861154169068158 0 7.1861154169068158 1.0465584606441212 0 0 0 0 211.20637349862773 466.91435327722775 0 466.91435327722775 795.98002818995155 0 0 0 0 239.38719350260817 439.64316351519665 0 439.64316351519665 599.89651380415307 0 0 0 0 -163.53637889975789 255.86555981519268 0 255.86555981519268 527.77472900835346 0 0 0 0 -48.159931870445234 183.6769241201946 0 183.6769241201946 512.65073233327712 0 0 0 0 -123.48195691536603 263.19701613259531 0 263.19701613259531 526.27257279733567 0 0 0 0 -255.12295756955655 91.4043501005076 0 91.4043501005076 201.70870853436463 0 0 0 0 1511.7524068879384 -434.25834897461982 0 -434.25834897461982 3634.0191334162082 0 0 0 0 1736.1629806245112 -263.56558358379971 0 -263.56558358379971 -1148.8166976332359 0 0 0 0 2.0064030182878652 -14.751809682325561 0 -14.751809682325561 100.71243014049699 0 0 0 0 287.32652252315529 514.72857667064818 0 514.72857667064818 3432.1350231998113 0 0 0 0 12.948741725446343 -8.7903905004715313 0 -8.7903905004715313 9.8270737876238172 0 0 0 0 339.1923299331811 497.35860436590156 0 497.35860436590156 1076.2060897544161 0 0 0 0 666.68730229634616 461.80419593555962 0 461.80419593555962 -1151.099618385558 0 0 0 0 -923.46917205867442 -2165.6394191087156 0 -2165.6394191087156 469.39084643466958 0 0 0 0 3.3390460294383604 -6.8789937717234411 0 -6.8789937717234411 34.354975830419143 0 0 0 0 728.54158008945387 606.51230263938578 0 606.51230263938578 436.26458177919903 0 0 0 0 3507.8778431732121 -1577.0213841904647 0 -1577.0213841904647 -385.89841035896825 0 0 0 0 298.5903106582947 -1020.7136338986911 0 -1020.7136338986911 2326.9675335798638 0 0 0 0 393.02676215505619 -835.14218883191279 0 -835.14218883191279 -990.14928470336235 0 0 0 0 297.35150929577185 892.42062945197995 0 892.42062945197995 222.05177783886575 0 0 0 0 243.46133437679788 1034.0337825731067 0 1034.0337825731067 1584.1295587276272 0 0 0 0 2264.6180503631031 246.89651636000326 0 246.89651636000326 857.24264538008174 0 0 0 0 -4.015770511260131 5.3964745763170257 0 5.3964745763170257 -4.8107710923627565 0 0 0 0 -116.49874129021418 137.00287596486305 0 137.00287596486305 497.27781253627836 0 0 0 0 -16.39965369797028 260.49997180423452 0 260.49997180423452 185.67063572267944 0 0 0 0 12.534479192919489 -28.448615314162502 0 -28.448615314162502 56.212974946949657 0 0 0 0 -1434.0678426126922 -483.13442956435574 0 -483.13442956435574 828.42466086108652 0 0 0 0 -85.650458884678301 252.28099624382958 0 252.28099624382958 297.82100924185215 0 0 0 0 -283.09549517978348 -210.69295215250895 0 -210.69295215250895 140.46940711753609 0 0 0 0 6.6782107187248991 -11.163914085761544 0 -11.163914085761544 25.390568874585995 0 0 0 0 1611.557222591111 -1268.9884801351945 0 -1268.9884801351945 642.2927044295102 0 0 0 0 77.672636939661601 1635.2097183531714 0 1635.2097183531714 1933.170990428287 0 0 0 0 305.37566972775409 766.90243241719418 0 766.90243241719418 600.55084420160892 0 0 0 0 -306.37882727319044 569.74923252583517 0 569.74923252583517 2931.8692238194963 0 0 0 0 -478.76896383181605 952.24307993967523 0 952.24307993967523 3936.5269423834279 0 0 0 0 31.427542058360306 1597.2142010575981 0 1597.2142010575981 3141.1386466495096 0 0 0 0 2929.1546620559461 -426.29979262705137 0 -426.29979262705137 3502.1585993556982 0 0 0 0 674.23682716823521 247.43136494187638 0 247.43136494187638 862.45955615111416 0 0 0 0 1072.6632296916721 -547.19970344817466 0 -547.19970344817466 2061.9582736182947 0 0 0 0 -2.6708216974537891 296.54421606045071 0 296.54421606045071 2365.0566805327835 0 0 0 0 -218.08468786799105 6.4327018077119646 0 6.4327018077119646 3497.9367377763265 0 0 0 0 -344.78584428501557 783.82422796237233 0 783.82422796237233 2425.4265151430736 0 0 0 0 -81.361597330468598 -64.425771832135979 0 -64.425771832135979 2479.0752491125604 0 0 0 0 258.32144603356949 -782.61775438432778 0 -782.61775438432778 3500.2750783069332 0 0 0 0 230.49921214588232 -1611.9085538290446 0 -1611.9085538290446 2926.5710082271526 0 0 0 0 2218.6946037654461 -94.16118840438503 0 -94.16118840438503 3637.9271229721198 0 0 0 0 1138.177729168872 -894.97149947505045 0 -894.97149947505045 4871.7033155670479 0 0 0 0 403.04113546559063 1327.8545634544166 0 1327.8545634544166 3523.8143270052869 0 0 0 0 1.0473213905054946 -6.9475499624177193 0 -6.9475499624177193 20.427519428078384 0 0 0 0 228.06435957551315 -1981.5118353187488 0 -1981.5118353187488 322.64892680882804 0 0 0 0 813.8887739159494 -1179.3914427320492 0 -1179.3914427320492 751.52445472555701 0 0 0 0 665.76700505853682 -724.81823474713656 0 -724.81823474713656 1113.7223949222316 0 0 0 0 1757.8406788604141 -936.65376629387106 0 -936.65376629387106 710.90750154725356 0 0 0 0 657.8051258939231 -366.38546076818562 0 -366.38546076818562 -647.73852985184021 0 0 0 0 -806.17984642667261 279.30715686915573 0 279.30715686915573 803.15220881276855 0 0 0 0 162.05792277113136 171.1944517994491 0 171.1944517994491 248.11442066165182 0 0 0 0 92.891236433291169 21.380247905535725 0 21.380247905535725 1820.038720929113 0 0 0 0 108.19294367412795 -116.18732039698943 0 -116.18732039698943 -174.49696942819838 0 0 0 0 53.394373479515025 -128.44920128391482 0 -128.44920128391482 -166.88231936962802 0 0 0 0 -399.27174541518707 202.86289300235694 0 202.86289300235694 256.86306759079707 0 0 0 0 -1085.1865499852938 -583.32641124300699 0 -583.32641124300699 21.107721743948332 0 0 0 0 -176.60736886969812 -231.81406252585785 0 -231.81406252585785 410.60692157257336 0 0 0 0 -2.2326920031889457 -12.865514939272812 0 -12.865514939272812 40.069540358486812 0 0 0 0 15.182793558088349 131.44821884590419 0 131.44821884590419 3.4019107241005031 0 0 0 0 111.30204894849544 -168.20135177203832 0 -168.20135177203832 454.28145637227158 0 0 0 0 114.55236354532254 283.24656430822267 0 283.24656430822267 747.6094056277359 0 0 0 0 215.8646643271336 -134.65977603887438 0 -134.65977603887438 278.0135426168888 0 0 0 0 396.7100342013926 1212.2470917166443 0 1212.2470917166443 1446.4245277417426 0 0 0 0 -568.13900695970983 101.95319271566314 0 101.95319271566314 3219.9736104625381 0 0 0 0 -128.76757078581937 454.64861621655905 0 454.64861621655905 3500.569084347987 0 0 0 0 -573.23985464631937 197.81504680646094 0 197.81504680646094 2336.9197444731153 0 0 0 0 -382.36231055777745 -510.48357463447547 0 -510.48357463447547 2470.8900523642515 0 0 0 0 -759.78433396122102 -403.15740814243725 0 -403.15740814243725 3500.2499003883918 0 0 0 0 -378.40410284260491 -581.86084828221692 0 -581.86084828221692 3468.7727525983519 0 0 0 0 33.183354738862818 -1406.4043133643888 0 -1406.4043133643888 2877.3522619785836 0 0 0 0 -9.8856094212887911 -1159.1426057535946 0 -1159.1426057535946 1978.3510878073803 0 0 0 0 40.038714972288062 -477.19521504107399 0 -477.19521504107399 1531.0244288508968 0 0 0 0 697.64766396233597 -1291.7438267705036 0 -1291.7438267705036 1080.317686865395 0 0 0 0 368.18749049309309 -123.00891260453372 0 -123.00891260453372 101.02982588315069 0 0 0 0 227.12462511150989 -219.40721221604178 0 -219.40721221604178 467.99100002068735 0 0 0 0 -64.75375071342512 -369.43710383848327 0 -369.43710383848327 1875.7481299527976 0 0 0 0 48.77867607248416 -174.1642872806446 0 -174.1642872806446 718.84400763903739 0 0 0 0 566.76581646759405 1691.6656001378472 0 1691.6656001378472 1673.0970493015775 0 0 0 0 -560.05658952739884 1612.8161466626329 0 1612.8161466626329 3493.4179400390185 0 0 0 0 -0.58404811396542833 4.7004539243956929 0 4.7004539243956929 23.488027543509329 0 0 0 0 267.12332048095834 -1217.4366381070636 0 -1217.4366381070636 3126.3231065634645 0 0 0 0 223.21250657013971 -808.95880381138977 0 -808.95880381138977 3494.2402412177712 0 0 0 0 1.7207583736643552 -2.4180376679665443 0 -2.4180376679665443 5.6141361447851956 0 0 0 0 738.66525989539457 641.61064953121877 0 641.61064953121877 439.90596413356252 0 0 0 0 1175.6591736684718 -414.25021013537935 0 -414.25021013537935 185.85837237222586 0 0 0 0 616.12568370174222 -673.04423974906445 0 -673.04423974906445 255.18681356031902 0 0 0 0 -650.47637188154704 127.72248008737466 0 127.72248008737466 59.075581410795508 0 0 0 0 47.702559380383946 279.75347714476368 0 279.75347714476368 -262.6911930428937 0 0 0 0 -1067.0328829883406 293.87106197702656 0 293.87106197702656 127.46105539534358 0 0 0 0 -346.29845096423105 444.89369947110276 0 444.89369947110276 -187.26814605103118 0 0 0 0 -52.867374434062185 -0.70983566090581007 0 -0.70983566090581007 14.712256319573498 0 0 0 0 -9.6060124146536996 0.77269858895860288 0 0.77269858895860288 29.925244773979191 0 0 0 0 -463.05484205470748 -419.99293975599721 0 -419.99293975599721 -469.3062007313597 0 0 0 0 -12.932346439928963 21.420590924164259 0 21.420590924164259 10.413651872262683 0 0 0 0 -28.148543156418008 18.340183643169851 0 18.340183643169851 38.150701107731187 0 0 0 0 -2127.677256990426 -736.70978468482645 0 -736.70978468482645 -495.12988424096238 0 0 0 0 -691.19094621476415 -170.70582343526257 0 -170.70582343526257 -809.14155469746038 0 0 0 0 56.247985605706681 631.48290306596914 0 631.48290306596914 97.486075358167 0 0 0 0 132.39795671680577 89.419579926925508 0 89.419579926925508 -538.3917228585924 0 0 0 0 -615.60246264041234 -346.77239398928941 0 -346.77239398928941 -433.72098229405128 0 0 0 0 -373.67117203787825 486.30130440505673 0 486.30130440505673 574.06649485599519 0 0 0 0 -1440.8791140877238 -686.04268193541429 0 -686.04268193541429 107.51214995032205 0 0 0 0 39.545606492018578 60.329115109621398 0 60.329115109621398 1.8267169746650325 0 0 0 0 -11.365987464389338 14.128832112207558 0 14.128832112207558 -3.4413281739764869 0 0 0 0 -1182.3784137810076 -346.6904377700921 0 -346.6904377700921 324.35620180326805 0 0 0 0 -893.88824245631736 -88.541304536294774 0 -88.541304536294774 108.59065577100409 0 0 0 0 -378.3822796686967 -190.98830403929242 0 -190.98830403929242 -220.18540788644168 0 0 0 0 -493.17758433114005 394.73894315715825 0 394.73894315715825 485.75199759344832 0 0 0 0 -809.46910630048751 -835.81514096382671 0 -835.81514096382671 -470.15607021019969 0 0 0 0 -924.09908030693396 -796.13457374638165 0 -796.13457374638165 -287.88960884722474 0 0 0 0 -455.64703926025027 -51.84350520336011 0 -51.84350520336011 110.3784479700364 0 0 0 0 -192.47895028975336 -276.28597323356371 0 -276.28597323356371 -593.63490038426244 0 0 0 0 -629.35998497822675 -421.93197495407367 0 -421.93197495407367 -205.8583840901556 0 0 0 0 -46.997873225019362 194.3834622823889 0 194.3834622823889 -16.218106360389129 0 0 0 0 -6.3243518895652802 1.8234727302583806 0 1.8234727302583806 16.21465707085472 0 0 0 0 -23.208839337576137 13.050680979589742 0 13.050680979589742 -5.9764130856437987 0 0 0 0 -550.30899667677113 -537.51333889152284 0 -537.51333889152284 -929.59180208217003 0 0 0 0 -11.212282964006052 -5.9624087280617175 0 -5.9624087280617175 14.78779396697708 0 0 0 0 -56.082525965024615 10.133859730507538 0 10.133859730507538 21.741502088028938 0 0 0 0 -13.535781013099211 -2.8540735830987645 0 -2.8540735830987645 32.772596294126281 0 0 0 0 -52.946762033829145 8.7417521056340775 0 8.7417521056340775 20.652640797652566 0 0 0 0 -24.562844482088284 29.838632431546117 0 29.838632431546117 20.274431466474731 0 0 0 0 -75.205074210786734 16.711023219311755 0 16.711023219311755 15.701301257809973 0 0 0 0 -14.347413282010358 -2.5725589905427562 0 -2.5725589905427562 38.866869922776992 0 0 0 0 -9.0920039768801839 -23.472636832154691 0 -23.472636832154691 40.946571130603914 0 0 0 0 -419.88259879337329 190.24684953003816 0 190.24684953003816 16.659954548130173 0 0 0 0 -136.23102868639319 50.976359890209892 0 50.976359890209892 -2.4993141183832677 0 0 0 0 -6.6782866509972303 -1.8264319561384035 0 -1.8264319561384035 26.670454071325572 0 0 0 0 -7.6301499662585499 -6.5297854959324937 0 -6.5297854959324937 32.68720342624519 0 0 0 0 -31.803672435152748 -5.5159545237331713 0 -5.5159545237331713 37.242210947322747 0 0 0 0 -82.761381552696093 70.819833318860219 0 70.819833318860219 62.563310966164863 0 0 0 0 -176.14157601205716 146.72939899518406 0 146.72939899518406 160.59076595280931 0 0 0 0 161.39928985260121 -293.34803817703505 0 -293.34803817703505 -164.48745807815976 0 0 0 0 -1478.1292522021356 -135.45992254736439 0 -135.45992254736439 111.82360017479368 0 0 0 0 -49.812124035537749 -120.79194553958331 0 -120.79194553958331 726.53946734749366 0 0 0 0 126.36227348017462 134.6566419025653 0 134.6566419025653 251.20697160686831 0 0 0 0 363.72740364513004 16.390720003720304 0 16.390720003720304 -54.383946310483537 0 0 0 0 -155.53467235343396 86.495953536843359 0 86.495953536843359 130.44891751293878 0 0 0 0 -0.90160706062786844 -0.52770417514525003 0 -0.52770417514525003 -0.096644264026191085 0 0 0 0 -169.93033984810467 294.85568574341931 0 294.85568574341931 95.921383415833645 0 0 0 0 -24.34539959925354 -36.272553898442197 0 -36.272553898442197 0.72781858536700383 0 0 0 0 17.276138316363415 41.919309789497447 0 41.919309789497447 -60.025244318554996 0 0 0 0 -30.2021884006042 86.551564007224897 0 86.551564007224897 -124.55580295129243 0 0 0 0 -1.3196691882214147 -1.3989136015906396 0 -1.3989136015906396 -2.4838213228013517 0 0 0 0 18.556748614152298 -3.2911538852861213 0 -3.2911538852861213 -23.464494228203876 0 0 0 0 96.498616329184642 86.227573434312262 0 86.227573434312262 -145.91356054368362 0 0 0 0 36.53746990681509 -88.487410307053963 0 -88.487410307053963 2.7315134463208324 0 0 0 0 180.93335093632538 -34.831846848100383 0 -34.831846848100383 -173.848280754798 0 0 0 0 10.307649623910038 -28.184349461840839 0 -28.184349461840839 -162.81490071165763 0 0 0 0 -13.358188265457215 -5.6866304202358151 0 -5.6866304202358151 -68.129950175043405 0 0 0 0 -0.0092900629030132631 -0.69823972429099723 0 -0.69823972429099723 -1.6417007822833494 0 0 0 0 -40.619586520054042 13.31688798380651 0 13.31688798380651 8.7718733192891705 0 0 0 0 -12.184832547046199 -3.4425385622954536 0 -3.4425385622954536 19.452118828090533 0 0 0 0 -9.3111266840544751 3.1123855631870025 0 3.1123855631870025 6.1566387262639815 0 0 0 0 -101.12408320027657 -22.265767638870329 0 -22.265767638870329 -11.390197341386056 0 0 0 0 -9.8772676209143082 -8.646227607682798 0 -8.646227607682798 4.5365091064180021 0 0 0 0 30.337509902839884 41.562577529105965 0 41.562577529105965 41.581274063563114 0 0 0 0 -4.1742257621413046 -13.150986879499669 0 -13.150986879499669 27.454222995942473 0 0 0 0 -4.5983911284206034 -0.28416609086566091 0 -0.28416609086566091 15.483528281754197 0 0 0 0 -11.354815139133734 -4.6802104183100255 0 -4.6802104183100255 19.336353912602135 0 0 0 0 -7.0147066504298614 -4.5506316841394261 0 -4.5506316841394261 18.751945133277516 0 0 0 0 -13.30233728883104 -6.01032145760405 0 -6.01032145760405 29.620340667404093 0 0 0 0 -7.0067090870998907 -4.366487858140653 0 -4.366487858140653 21.23526635849646 0 0 0 0 3.246529158019257 -2.7400863351656426 0 -2.7400863351656426 13.474327614412687 0 0 0 0 -21.767297372203984 -0.63767515567292321 0 -0.63767515567292321 34.142628551211601 0 0 0 0 -10.714506394148408 -0.30770962540695446 0 -0.30770962540695446 27.832861050742757 0 0 0 0 -37.05114030569996 55.570100372088291 0 55.570100372088291 -21.192109824267391 0 0 0 0 -4.3435481282317117 -6.4023318382859635 0 -6.4023318382859635 27.252589776395428 0 0 0 0 -144.80164196856367 28.181511988002512 0 28.181511988002512 121.90927685498173 0 0 0 0 -1.3569745831900946 -47.515078474138136 0 -47.515078474138136 -47.520098391166357 0 0 0 0 212.35552296907423 284.23547091092138 0 284.23547091092138 -23.293867190273886 0 0 0 0 -378.6411931118364 -90.927716629234055 0 -90.927716629234055 164.66762606162592 0 0 0 0 102.05581149724685 126.39312092699902 0 126.39312092699902 83.430077098921174 0 0 0 0 0.94845751155992986 -2.8109582590242255 0 -2.8109582590242255 9.0695861743645736 0 0 0 0 -2.9622532417872875 1.5873951365079826 0 1.5873951365079826 -3.4058146150972988 0 0 0 0 -250.39819271974397 329.18277902277759 0 329.18277902277759 184.61770856976 0 0 0 0 0.7610885547391959 -2.0214303150464783 0 -2.0214303150464783 2.6209884305763893 0 0 0 0 -121.76902442983373 -117.38741870371541 0 -117.38741870371541 50.399155765526302 0 0 0 0 209.71986867976011 481.84037198791566 0 481.84037198791566 -216.45001568707448 0 0 0 0 -435.49116144948016 -307.57283494273679 0 -307.57283494273679 236.57587985126884 0 0 0 0 -92.506845800669907 -143.82017920351336 0 -143.82017920351336 -37.237793252504162 0 0 0 0 1.5786622560914694 -2.6532567715702839 0 -2.6532567715702839 7.437713170111163 0 0 0 0 -99.775911133890986 -29.835365121811265 0 -29.835365121811265 -35.217291182460031 0 0 0 0 -110.83081415769993 0.92472206852471572 0 0.92472206852471572 210.25866165769912 0 0 0 0 145.39545891319176 231.71589966778015 0 231.71589966778015 -71.760533667995333 0 0 0 0 3.5067408367390271 -16.812008795870952 0 -16.812008795870952 -158.58234506884764 0 0 0 0 344.76197150251573 11.32084941782341 0 11.32084941782341 -170.14041691339798 0 0 0 0 325.89882192173263 -817.61157631388414 0 -817.61157631388414 -50.731306762576537 0 0 0 0 -8.65740058663323 -405.60773812704747 0 -405.60773812704747 1276.310551234903 0 0 0 0 4.7429777176207377 -1.9197442507003259 0 -1.9197442507003259 -0.52111723971436774 0 0 0 0 233.51858734321831 -859.2773317121173 0 -859.2773317121173 1170.0386744927487 0 0 0 0 178.52243969035499 -722.25394015378515 0 -722.25394015378515 832.30410855319826 0 0 0 0 -56.736349213383619 -281.31106133333174 0 -281.31106133333174 955.64488111031187 0 0 0 0 3.8918194478815451 -8.7842831968585333 0 -8.7842831968585333 16.598039330102424 0 0 0 0 575.70084729788869 -405.64293346629347 0 -405.64293346629347 333.36789169958058 0 0 0 0 836.08756453719138 763.92981571412918 0 763.92981571412918 751.41146300746027 0 0 0 0 188.34087347798231 353.07431530118066 0 353.07431530118066 665.42198232105306 0 0 0 0 -0.45023458419833506 -9.0014400928606193 0 -9.0014400928606193 3.3893842013905564 0 0 0 0 112.60618802731369 233.81089277540286 0 233.81089277540286 555.01598749877166 0 0 0 0 335.83256663930797 486.8921753796858 0 486.8921753796858 213.56755995733965 0 0 0 0 77.342178171690648 295.40208744018014 0 295.40208744018014 711.87538967483601 0 0 0 0 108.59329982370855 380.06997847633193 0 380.06997847633193 670.10802018140612 0 0 0 0 113.85795257324935 353.58870899112799 0 353.58870899112799 561.94365086356902 0 0 0 0 -22.745557447395186 352.9272724414659 0 352.9272724414659 668.39005368420578 0 0 0 0 77.02983433184454 358.00328143797469 0 358.00328143797469 648.14195677828093 0 0 0 0 41.465016738270492 150.99722389775593 0 150.99722389775593 332.89719167750263 0 0 0 0 -151.4166398070538 112.46067012676031 0 112.46067012676031 515.9054194372153 0 0 0 0 -0.62832981733661697 -3.0913786553176905 0 -3.0913786553176905 2.659212818949193 0 0 0 0 -140.58479665238974 161.75859960570074 0 161.75859960570074 -46.076818086619824 0 0 0 0 -10.886338438881467 -12.176964043021826 0 -12.176964043021826 27.860989582094845 0 0 0 0 -2.152495710311519 -10.234547896412121 0 -10.234547896412121 25.995639782301485 0 0 0 0 -2.3957368702144679 -6.3430798990818893 0 -6.3430798990818893 24.651860367870356 0 0 0 0 67.508316049037603 32.044353341942724 0 32.044353341942724 235.49493721889303 0 0 0 0 516.0123874190167 -790.02836668638611 0 -790.02836668638611 701.63480689907919 0 0 0 0 335.94899555621907 -393.79300225726797 0 -393.79300225726797 332.67679093709012 0 0 0 0 302.13174658070875 -482.89532526913263 0 -482.89532526913263 401.28386433454671 0 0 0 0 -5.9345149678771918 35.053498062008089 0 35.053498062008089 246.52567729461407 0 0 0 0 17.99796645976388 -178.68716888389957 0 -178.68716888389957 1009.6577984531632 0 0 0 0 548.11422652439956 -590.57209417516901 0 -590.57209417516901 517.23927402485697 0 0 0 0 0.84070039286413245 -2.8875625356425108 0 -2.8875625356425108 9.5341143458815587 0 0 0 0 9.151744586604309 201.04028826193007 0 201.04028826193007 507.29174196677741 0 0 0 0 -125.01460898294613 -713.46807462211109 0 -713.46807462211109 1155.7086927640005 0 0 0 0 -210.69847456317609 -603.66212607888247 0 -603.66212607888247 1101.4169436425354 0 0 0 0 323.90801072096565 -760.60067017145911 0 -760.60067017145911 985.86772971339224 0 0 0 0 -240.43747395094124 -570.38111016360654 0 -570.38111016360654 1282.2487815215354 0 0 0 0 76.06729667836953 -711.70507175258308 0 -711.70507175258308 424.08384263737753 0 0 0 0 -194.99067502323487 -764.70344203788954 0 -764.70344203788954 1250.8117025486936 0 0 0 0 -133.98725901299986 -680.20239804953599 0 -680.20239804953599 492.67948067729776 0 0 0 0 -319.73734951256574 -220.72632232440446 0 -220.72632232440446 286.36479380765286 0 0 0 0 477.38789009900211 -176.97332654522268 0 -176.97332654522268 1098.0830480653003 0 0 0 0 15.572928275890717 -533.14956440548212 0 -533.14956440548212 610.95701128290057 0 0 0 0 1.1757641126114322 -716.93758097913451 0 -716.93758097913451 537.29223536595964 0 0 0 0 46.282053413042661 -747.53922475999389 0 -747.53922475999389 165.99300190887516 0 0 0 0 440.91693074832119 -406.8094603442787 0 -406.8094603442787 459.5915051381628 0 0 0 0 -62.149256748190624 -426.45099841788988 0 -426.45099841788988 220.59155723398726 0 0 0 0 -492.54660667039388 -701.16000334765522 0 -701.16000334765522 45.257330331325647 0 0 0 0 -588.93929015969479 -121.46178431147746 0 -121.46178431147746 54.139834178291494 0 0 0 0 -34.996739393219514 -460.1308108673511 0 -460.1308108673511 -285.73779824434132 0 0 0 0 -1460.9917866473929 -1029.1478928646584 0 -1029.1478928646584 -60.297368911327794 0 0 0 0 -1277.8771546740622 -210.79708539721287 0 -210.79708539721287 111.18135421471743 0 0 0 0 -92.594705164205436 -460.7271098481815 0 -460.7271098481815 178.37377564438066 0 0 0 0 506.49067730386486 -535.0646663598236 0 -535.0646663598236 206.7087812901791 0 0 0 0 489.27504509230852 -626.26267580552485 0 -626.26267580552485 21.029182968039095 0 0 0 0 473.04602547554583 -709.79452575279311 0 -709.79452575279311 243.30126180825573 0 0 0 0 589.60405182572799 -609.08652442571929 0 -609.08652442571929 126.75821154283767 0 0 0 0 559.11041839135862 -359.19348209091117 0 -359.19348209091117 80.053272506596841 0 0 0 0 805.30078430555773 -379.6992706974055 0 -379.6992706974055 108.10230711646363 0 0 0 0 744.78475213241722 -765.38337760833178 0 -765.38337760833178 404.51655390764063 0 0 0 0 592.07787418127668 -884.67549356226209 0 -884.67549356226209 1537.55331122399 0 0 0 0 468.59918455092406 -387.65145742389723 0 -387.65145742389723 570.55000605324221 0 0 0 0 178.46686077749069 -510.21756755994465 0 -510.21756755994465 1318.4771738830423 0 0 0 0 -87.280052826675956 318.58504585320861 0 318.58504585320861 1209.4259503428998 0 0 0 0 170.47327843447854 -57.948541675522847 0 -57.948541675522847 1677.0778965705358 0 0 0 0 -760.2507785342932 -316.16146846325319 0 -316.16146846325319 -772.96049703468452 0 0 0 0 -854.35690038741927 -421.2598473066455 0 -421.2598473066455 165.91068936168085 0 0 0 0 -549.17398462749793 22.660885510038497 0 22.660885510038497 180.67186695553846 0 0 0 0 42.779969350914826 -93.091573918414724 0 -93.091573918414724 314.46090235151587 0 0 0 0 -200.96809443384609 -371.67098915601127 0 -371.67098915601127 480.63793335829178 0 0 0 0 -259.94848203122956 -321.6809008933069 0 -321.6809008933069 584.47120123583591 0 0 0 0 -177.55932279360104 -421.18293789454583 0 -421.18293789454583 -81.403626263381739 0 0 0 0 -235.03430872814306 434.86645233454328 0 434.86645233454328 829.54381061662298 0 0 0 0 -389.45701744048222 41.481117252231343 0 41.481117252231343 551.09820487676006 0 0 0 0 -743.44462522759716 216.53234035269725 0 216.53234035269725 1083.2097478505275 0 0 0 0 -915.39408836375333 -140.71643824640705 0 -140.71643824640705 342.26977621461992 0 0 0 0 -638.84388063837059 281.68212756942012 0 281.68212756942012 320.25912493709984 0 0 0 0 -9.4505495782912021 1206.915834626092 0 1206.915834626092 1178.0318467744073 0 0 0 0 -694.29443297401497 995.57789804523736 0 995.57789804523736 2514.3491751391921 0 0 0 0 -199.36135209970985 145.37832378255007 0 145.37832378255007 1547.1762715820987 0 0 0 0 -657.46874721203665 490.47918845343702 0 490.47918845343702 3501.0427941708094 0 0 0 0 -675.42644585905498 928.69481624849686 0 928.69481624849686 1978.1516878820821 0 0 0 0 -343.05063355318964 289.53217895867965 0 289.53217895867965 3521.7584876369947 0 0 0 0 351.78189415340461 -550.03131424228195 0 -550.03131424228195 2426.5871303031017 0 0 0 0 -7.4427592514175558 -166.61840522990224 0 -166.61840522990224 2789.1351016274748 0 0 0 0 -399.50031128058743 625.07717744861839 0 625.07717744861839 2155.9346715921611 0 0 0 0 513.67806908454202 10.068657554395031 0 10.068657554395031 3498.957019739295 0 0 0 0 513.72574048641434 9.5056940526226299 0 9.5056940526226299 3499.091521585844 0 0 0 0 379.78485635177287 -118.35032796235464 0 -118.35032796235464 3982.8018712142548 0 0 0 0 1688.4533292241613 115.75099437994686 0 115.75099437994686 3022.0386392012169 0 0 0 0 161.87879041303327 -476.80297117194277 0 -476.80297117194277 3501.6507239172151 0 0 0 0 -145.38894665639162 -828.78334220318288 0 -828.78334220318288 3101.4552052282306 0 0 0 0 -83.443334726727386 73.490173485595733 0 73.490173485595733 2404.6804309791441 0 0 0 0 964.58205466232266 -937.83522714672836 0 -937.83522714672836 3012.315346916188 0 0 0 0 82.383678888584399 -644.96755559081612 0 -644.96755559081612 3551.371251906141 0 0 0 0 -68.77446381919998 -132.91871412676301 0 -132.91871412676301 2039.7220796654328 0 0 0 0 73.392211042262176 507.33869467089971 0 507.33869467089971 1737.3461346584008 0 0 0 0 570.13911175566614 326.51234376321008 0 326.51234376321008 436.83885048255252 0 0 0 0 153.31562337615969 -152.45044211248751 0 -152.45044211248751 338.87580057767991 0 0 0 0 1173.5648790606385 -853.88523476466435 0 -853.88523476466435 467.33039345130965 0 0 0 0 907.44612700288462 -166.00788560586807 0 -166.00788560586807 50.494956936934614 0 0 0 0 1701.0695689186589 -1384.1460418086263 0 -1384.1460418086263 1230.9275962433421 0 0 0 0 3.0486920774908928 -6.453320897427905 0 -6.453320897427905 25.613873677221619 0 0 0 0 266.50247139111707 1131.4785698200758 0 1131.4785698200758 2469.5323552523896 0 0 0 0 180.46116693925194 -12.145402177546202 0 -12.145402177546202 1166.9427765802639 0 0 0 0 3.5706108989372018 -14.11140221529454 0 -14.11140221529454 18.638447885689743 0 0 0 0 -326.66452865535985 -212.78660462136759 0 -212.78660462136759 1124.7801402621699 0 0 0 0 -125.12349744598657 653.28249785832304 0 653.28249785832304 1980.914505064924 0 0 0 0 -1193.9332493370944 313.5821430709475 0 313.5821430709475 3498.6810007929598 0 0 0 0 -778.85845004696296 -90.523862332277076 0 -90.523862332277076 1862.1825535736571 0 0 0 0 351.32719112191671 1511.5769130960762 0 1511.5769130960762 3498.0815786541316 0 0 0 0 1.4370261021445798 -5.6007577948548217 0 -5.6007577948548217 10.060674518699642 0 0 0 0 -633.38360152018879 297.00854915164564 0 297.00854915164564 779.70710292182775 0 0 0 0 -374.0263684683178 -200.12931561508958 0 -200.12931561508958 1237.564557721611 0 0 0 0 -387.29054383025596 40.978262250198895 0 40.978262250198895 1341.8536994394635 0 0 0 0 -32.884098817104643 -243.15730870805419 0 -243.15730870805419 1549.4144368950147 0 0 0 0 -154.3630561508362 -45.162926606964902 0 -45.162926606964902 1315.302110939585 0 0 0 0 -469.34583267373114 123.70991811167914 0 123.70991811167914 1232.9505027139094 0 0 0 0 93.851006479218626 -1227.4625192455642 0 -1227.4625192455642 955.56702834735734 0 0 0 0 179.85866073564617 -975.32394762976764 0 -975.32394762976764 -569.31954099610084 0 0 0 0 -176.14083551648795 -608.61100668824997 0 -608.61100668824997 2159.2997142390013 0 0 0 0 -209.37666442360458 -1401.9599780527315 0 -1401.9599780527315 3492.1458965942365 0 0 0 0 -191.81722734479058 -388.27857298542949 0 -388.27857298542949 2318.894469702107 0 0 0 0 -144.29815074590454 66.005447513587569 0 66.005447513587569 1769.552434329722 0 0 0 0 -86.165717137611921 -76.250847564277592 0 -76.250847564277592 1534.5955621625835 0 0 0 0 118.24065120039029 159.30882907365594 0 159.30882907365594 839.56459841338801 0 0 0 0 -93.507252331226709 181.75420379836578 0 181.75420379836578 1376.899387715257 0 0 0 0 -8.6169140381228999 63.361224178348493 0 63.361224178348493 841.84194517563139 0 0 0 0 76.928968100657016 115.03936986037661 0 115.03936986037661 534.65070753634791 0 0 0 0 -45.755961734419486 90.275486474518402 0 90.275486474518402 897.21689952290035 0 0 0 0 -238.32049810274191 10.596348431805382 0 10.596348431805382 1291.8442948079974 0 0 0 0 -138.85465682773884 54.516173509284272 0 54.516173509284272 900.8753515824078 0 0 0 0 -43.918952653873248 4.2223409481266572 0 4.2223409481266572 580.58477673544257 0 0 0 0 -173.18927024643213 -137.48342235520977 0 -137.48342235520977 885.11959574524008 0 0 0 0 -74.647809986027468 74.081123223609211 0 74.081123223609211 582.66006787290098 0 0 0 0 -232.67880776715768 53.9360212869733 0 53.9360212869733 1117.6442193472831 0 0 0 0 -375.31346995863908 -111.01170317636934 0 -111.01170317636934 1335.7975630061337 0 0 0 0 -115.08977038346588 97.038284439872768 0 97.038284439872768 1329.8788850150304 0 0 0 0 -308.78582840036063 45.523588174328324 0 45.523588174328324 1571.4736681706709 0 0 0 0 -465.65466582450483 43.834031976795814 0 43.834031976795814 1562.0086484270796 0 0 0 0 -308.43857929741006 46.235998636323529 0 46.235998636323529 1490.1041885894665 0 0 0 0 -473.06039994468694 -23.200745397961327 0 -23.200745397961327 1581.7859806950582 0 0 0 0 -375.95114936872187 -138.69869939626369 0 -138.69869939626369 1589.3625798625981 0 0 0 0 -175.43341975628098 -86.120042277427103 0 -86.120042277427103 876.60491920418281 0 0 0 0 -291.90068465084693 -303.76041913305016 0 -303.76041913305016 1064.7828760502198 0 0 0 0 -45.394568577458813 18.943749999962165 0 18.943749999962165 237.25638425033367 0 0 0 0 661.0988904866565 -529.23834793941023 0 -529.23834793941023 161.85600708698621 0 0 0 0 170.33466475688931 -16.790889514197715 0 -16.790889514197715 2283.3217379071793 0 0 0 0 -378.10849568472725 119.72254396806511 0 119.72254396806511 1773.841953456722 0 0 0 0 -201.56879723961188 -621.83844190990021 0 -621.83844190990021 1994.8543183433139 0 0 0 0 -1.0881519820079575 33.654120268700353 0 33.654120268700353 12.598563861836737 0 0 0 0 23.103296625679832 39.162124807095097 0 39.162124807095097 13.847962110130538 0 0 0 0 23.253405954867958 41.781398391995026 0 41.781398391995026 -28.870411236108339 0 0 0 0 7.2654516507947537 19.265284522360048 0 19.265284522360048 4.7039533830327507 0 0 0 0 249.79910201094481 11.721911456098496 0 11.721911456098496 32.286555393460731 0 0 0 0 7.3343604895615861 18.642708846013392 0 18.642708846013392 7.9781421113083191 0 0 0 0 55.225135264122343 -127.34805717610652 0 -127.34805717610652 224.95934335022321 0 0 0 0 -56.572496976254627 -307.04324879693377 0 -307.04324879693377 645.6056552840455 0 0 0 0 -0.24637646380378442 35.63429911296771 0 35.63429911296771 11.052914124054951 0 0 0 0 0.37730999270544574 7.5788579050162133 0 7.5788579050162133 30.705715736206685 0 0 0 0 -16.648929156941449 12.185332776987707 0 12.185332776987707 67.943853200027661 0 0 0 0 -36.364691038508909 47.093602926546737 0 47.093602926546737 22.43123151198597 0 0 0 0 12.038425888510574 34.853259297829936 0 34.853259297829936 202.43028717604102 0 0 0 0 -117.87350113681714 75.381746226259565 0 75.381746226259565 582.73448228127381 0 0 0 0 -138.76435162938719 3.4147402305097785 0 3.4147402305097785 580.71262753615702 0 0 0 0 6.2813759839898466 56.115137432381744 0 56.115137432381744 277.721594675706 0 0 0 0 2.7998191916528556 6.6476740125268226 0 6.6476740125268226 -2.0874436073625589 0 0 0 0 -107.58214163006613 -60.002913273522609 0 -60.002913273522609 283.16327921682387 0 0 0 0 -1.648369684808404 1.4045543718896809 0 1.4045543718896809 7.4272818768907847 0 0 0 0 213.70153769214028 -71.048841962519873 0 -71.048841962519873 2.2464509854689823 0 0 0 0 78.192313301674403 58.935539047095517 0 58.935539047095517 52.87051308242917 0 0 0 0 -35.25726782123678 164.18062637326148 0 164.18062637326148 334.1226739687263 0 0 0 0 -37.131717101534505 -34.209460958435557 0 -34.209460958435557 468.05726711334137 0 0 0 0 19.90038412734588 -13.747322012411132 0 -13.747322012411132 61.799530480100657 0 0 0 0 113.06916024625704 50.662386960280855 0 50.662386960280855 58.197263364931359 0 0 0 0 17.837129205905285 4.4326606122667727 0 4.4326606122667727 7.3444518645319476 0 0 0 0 93.873726532417635 53.440971050553344 0 53.440971050553344 32.472458970252774 0 0 0 0 47.832352213229456 -10.357915871038131 0 -10.357915871038131 13.264765521740628 0 0 0 0 97.560338736680251 28.178950990593876 0 28.178950990593876 35.122694926089025 0 0 0 0 58.770746629373377 45.549438349453339 0 45.549438349453339 47.825233545692754 0 0 0 0 0.90643345438321266 4.1127344764449916 0 4.1127344764449916 20.450260120257582 0 0 0 0 -10.923122590218327 -7.6658514301525429 0 -7.6658514301525429 47.474816233007004 0 0 0 0 -83.84123060039127 57.310758088131479 0 57.310758088131479 54.838107132032746 0 0 0 0 5.3275842397851392 17.26523936991839 0 17.26523936991839 61.642917133816809 0 0 0 0 4.5244981408643525 36.678223133210849 0 36.678223133210849 3.943391177796002 0 0 0 0 -5.7174206499396405 12.69237992444323 0 12.69237992444323 118.23602328926063 0 0 0 0 39.110142844214806 25.960110875394093 0 25.960110875394093 60.746345365892921 0 0 0 0 54.613993695542263 -9.4466562345751299 0 -9.4466562345751299 70.113735980827187 0 0 0 0 13.126472477769994 27.860310490529628 0 27.860310490529628 77.075066837423947 0 0 0 0 158.77990303699517 -192.41791689142701 0 -192.41791689142701 134.49591403944396 0 0 0 0 122.09188878028135 -68.445739683582133 0 -68.445739683582133 -87.575520604754274 0 0 0 0 -184.91591095460353 83.748300583014498 0 83.748300583014498 65.410881994568626 0 0 0 0 -37.853952291447058 13.824843922840955 0 13.824843922840955 78.585251135231374 0 0 0 0 257.40641472753305 -118.73494765983924 0 -118.73494765983924 29.582030250790922 0 0 0 0 322.69216135523766 -335.62793971205519 0 -335.62793971205519 203.84131838277244 0 0 0 0 587.05412173609147 -419.19454638953539 0 -419.19454638953539 131.37265022004067 0 0 0 0 540.10207914766977 -140.27071354682312 0 -140.27071354682312 58.973306083757052 0 0 0 0 -13.159840045227156 -224.83083128900353 0 -224.83083128900353 185.42784174131702 0 0 0 0 4.573659738016759 -16.938383034649803 0 -16.938383034649803 62.180508777875296 0 0 0 0 107.50552356350909 -55.162224569290629 0 -55.162224569290629 250.26103748339028 0 0 0 0 -111.67131211211358 -34.418989784011501 0 -34.418989784011501 289.3771985289477 0 0 0 0 240.22011902763563 25.718177176336212 0 25.718177176336212 -29.202128371067374 0 0 0 0 182.55574390106517 8.4382974502113939 0 8.4382974502113939 234.42112119699141 0 0 0 0 460.67652747733166 176.62495041745751 0 176.62495041745751 271.50466669273737 0 0 0 0 97.477783968124371 46.371274174860446 0 46.371274174860446 82.703687581761187 0 0 0 0 181.30045093616815 -39.908102030367445 0 -39.908102030367445 142.42930458409683 0 0 0 0 183.16939446969172 28.584945036236604 0 28.584945036236604 31.508645042245917 0 0 0 0 -264.48304738635306 23.40668398876187 0 23.40668398876187 158.62182856788422 0 0 0 0 303.30964818282996 -76.971350794556201 0 -76.971350794556201 -60.676798033133309 0 0 0 0 3.6850485920319871 -10.153862775304486 0 -10.153862775304486 6.3618920612291276 0 0 0 0 170.42928016611154 7.5444682828001532 0 7.5444682828001532 42.430156867631013 0 0 0 0 3.7476429409222014 -18.285379967100646 0 -18.285379967100646 81.955826441690945 0 0 0 0 -286.94188754467427 -62.7482131249144 0 -62.7482131249144 191.69575867679305 0 0 0 0 -60.984481873169784 -159.50784130901593 0 -159.50784130901593 133.40453314474325 0 0 0 0 134.53439821004633 -9.2939641149221188 0 -9.2939641149221188 47.845317171537317 0 0 0 0 -170.00308646584108 -90.739452720795271 0 -90.739452720795271 69.160918334040616 0 0 0 0 109.53905730819551 29.768322972387978 0 29.768322972387978 91.685914191359188 0 0 0 0 143.44299515955828 29.302363462271842 0 29.302363462271842 26.794434177820222 0 0 0 0 142.10308483394374 18.966242277136189 0 18.966242277136189 53.613535008509643 0 0 0 0 153.01471913757018 31.697387120730127 0 31.697387120730127 68.456319370619894 0 0 0 0 137.94829244031121 33.167915149897453 0 33.167915149897453 32.222502640448511 0 0 0 0 127.60767337076936 47.020879068099021 0 47.020879068099021 34.222509306267966 0 0 0 0 111.95224107165427 35.878881230684783 0 35.878881230684783 33.309666927714716 0 0 0 0 53.072520300487668 26.428350524809503 0 26.428350524809503 48.064553677897038 0 0 0 0 127.39907627097887 35.101757873140741 0 35.101757873140741 41.708658282615943 0 0 0 0 113.06243159758606 38.084828732076858 0 38.084828732076858 48.696397639636416 0 0 0 0 105.5836395827572 67.053295997946407 0 67.053295997946407 79.21558243198524 0 0 0 0 125.37771586664712 48.330376073154184 0 48.330376073154184 31.789205320816563 0 0 0 0 -2.7065051137201044 -2.4451990041841007 0 -2.4451990041841007 98.500773463819968 0 0 0 0 3.112857457562086 20.581045205406554 0 20.581045205406554 100.86535815330717 0 0 0 0 -173.78462431896514 65.16517165231835 0 65.16517165231835 102.24978918477814 0 0 0 0 30.492243311881339 -10.635288581295754 0 -10.635288581295754 58.884025686449604 0 0 0 0 69.131757785500668 -12.489216055590077 0 -12.489216055590077 48.46733222583498 0 0 0 0 -144.25320768786696 16.523485811616411 0 16.523485811616411 157.53905579373713 0 0 0 0 -75.20119793798176 58.847132287080058 0 58.847132287080058 129.72634209765602 0 0 0 0 -30.577256223401491 -13.392382920298587 0 -13.392382920298587 190.92740508371935 0 0 0 0 -137.43358437767756 -9.7239099228927444 0 -9.7239099228927444 179.98063439749967 0 0 0 0 -104.80833277786587 -63.26161173518085 0 -63.26161173518085 202.46364376381371 0 0 0 0 1.7709859483143191 -103.38317023771697 0 -103.38317023771697 192.4459756421129 0 0 0 0 1.6350447778977468 -30.679688734680894 0 -30.679688734680894 140.93088502287173 0 0 0 0 -183.96704796345148 -76.736369629967157 0 -76.736369629967157 169.40898500882759 0 0 0 0 188.35461495852269 -232.72475831039446 0 -232.72475831039446 162.35036965527888 0 0 0 0 112.79701580435949 -205.77147839684812 0 -205.77147839684812 330.06093865246294 0 0 0 0 -19.03214705174787 4.9192607823897561 0 4.9192607823897561 219.21152637176874 0 0 0 0 22.95983173050854 -131.5393129792019 0 -131.5393129792019 492.2383646249923 0 0 0 0 -18.838196651224621 104.09891456235471 0 104.09891456235471 90.691883713810967 0 0 0 0 -41.413854500782236 49.38116222812323 0 49.38116222812323 251.78732031062953 0 0 0 0 -15.463685826461358 13.142067460863018 0 13.142067460863018 140.38807999613709 0 0 0 0 -40.589667101747182 69.797445184617118 0 69.797445184617118 53.455276132380277 0 0 0 0 19.39904124661507 4.9368503838632023 0 4.9368503838632023 130.55609035296402 0 0 0 0 -12.770690259517554 5.1785718446190661 0 5.1785718446190661 22.067043077871901 0 0 0 0 -76.08054833726419 56.686253977628553 0 56.686253977628553 78.38926465732402 0 0 0 0 -70.204505194588819 79.943994751246009 0 79.943994751246009 88.501182401077585 0 0 0 0 -72.038915706761145 78.290404001902061 0 78.290404001902061 191.81046743481852 0 0 0 0 -25.527326802875223 -1.8464411552213278 0 -1.8464411552213278 141.38497176129385 0 0 0 0 13.733790002559658 20.320933082603005 0 20.320933082603005 87.918652154228766 0 0 0 0 -6.4194671371544603 5.5493548375181554 0 5.5493548375181554 107.27548618875244 0 0 0 0 -1.8120085128559822 55.058528206373012 0 55.058528206373012 102.74251767392707 0 0 0 0 101.44970207774162 159.99922956358569 0 159.99922956358569 204.89182098831225 0 0 0 0 -187.42888018904284 20.36124711188495 0 20.36124711188495 237.80655993644177 0 0 0 0 -4.2173221816764173 0.77983308991579747 0 0.77983308991579747 26.027729675638994 0 0 0 0 -70.776236242405616 33.313493493558781 0 33.313493493558781 233.53031474570344 0 0 0 0 -56.866345502776767 -48.361389731731833 0 -48.361389731731833 91.610343481748714 0 0 0 0 -2.0984164775048137 -32.715371255943396 0 -32.715371255943396 54.800750528619986 0 0 0 0 14.219688122212574 -41.282596241695501 0 -41.282596241695501 6.4122249358642875 0 0 0 0 -53.93658710158077 -36.942207499110737 0 -36.942207499110737 139.52352946166502 0 0 0 0 38.163020357697448 16.54393291240558 0 16.54393291240558 155.33329383926321 0 0 0 0 -159.98051873160156 -65.641130433874423 0 -65.641130433874423 157.86884284199914 0 0 0 0 -114.70003728581753 -1.7524462086912536 0 -1.7524462086912536 214.42639062417038 0 0 0 0 10.124738479228863 -42.408593187179861 0 -42.408593187179861 42.431484208772531 0 0 0 0 54.545950723679709 -229.78095876379666 0 -229.78095876379666 20.469476089567252 0 0 0 0 8.2494375720887092 -75.746477540907108 0 -75.746477540907108 27.962817281190837 0 0 0 0 26.149670808347992 -40.664935520440849 0 -40.664935520440849 6.0317228735093522 0 0 0 0 1.6722832680582087 -54.987095038663938 0 -54.987095038663938 17.128000227163284 0 0 0 0 18.192967518061096 -28.271935611396657 0 -28.271935611396657 10.515308645160985 0 0 0 0 7.933685266015118 -32.930202523452408 0 -32.930202523452408 11.706870924561372 0 0 0 0 -3.3379305926437723 -12.466607333887449 0 -12.466607333887449 20.615445318708041 0 0 0 0 17.408462364992374 -20.586284495547716 0 -20.586284495547716 45.605954056143673 0 0 0 0 23.337229675506251 -25.474995604891319 0 -25.474995604891319 13.641445407800347 0 0 0 0 -10.798500152202337 9.7547888584697375 0 9.7547888584697375 79.548959172789182 0 0 0 0 -11.174988121763931 -5.3910245715787823 0 -5.3910245715787823 56.586332456205128 0 0 0 0 -18.419098057460872 -35.089214902201888 0 -35.089214902201888 71.252952434146209 0 0 0 0 19.228711605514036 -37.681407069390843 0 -37.681407069390843 88.926191594326156 0 0 0 0 32.845422879584248 -1.7925404620864356 0 -1.7925404620864356 62.380331155834028 0 0 0 0 -12.491060328031857 4.3240992605797945 0 4.3240992605797945 111.34316035792807 0 0 0 0 -7.692954811251755 -0.6561511167997871 0 -0.6561511167997871 23.874614128292656 0 0 0 0 -34.500125860707158 12.601166239196573 0 12.601166239196573 157.6446898033937 0 0 0 0 83.469317797221947 -6.394304584724523 0 -6.394304584724523 192.397683526935 0 0 0 0 40.597848977229205 -65.39812353357047 0 -65.39812353357047 116.19073437110126 0 0 0 0 -3.0931457355275143 -59.37663223553136 0 -59.37663223553136 257.16909534205479 0 0 0 0 0.94059772190803415 7.3302480365273368 0 7.3302480365273368 317.6459355441657 0 0 0 0 -55.235832671102202 -101.68284614485492 0 -101.68284614485492 383.22239130004891 0 0 0 0 3.0309482130370355 -62.635000852664689 0 -62.635000852664689 65.399932998159784 0 0 0 0 191.75747820142817 55.285082565147604 0 55.285082565147604 32.428250812920396 0 0 0 0 0.58724228540312939 1.6073574096849885 0 1.6073574096849885 7.3036978094194467 0 0 0 0 511.33013318310384 217.18397031831046 0 217.18397031831046 61.714504009873053 0 0 0 0 33.141967760693618 375.96429913978682 0 375.96429913978682 478.98089246034215 0 0 0 0 459.35680169985108 -20.447232387297845 0 -20.447232387297845 85.067885783282691 0 0 0 0 90.239269389933895 -330.78383947007387 0 -330.78383947007387 385.32501923272821 0 0 0 0 -22.267566669835446 -42.131748539349246 0 -42.131748539349246 105.90042715362506 0 0 0 0 6.544237661839361 31.243376349324535 0 31.243376349324535 196.69377797542802 0 0 0 0 91.303391098468751 -57.00559109527785 0 -57.00559109527785 -89.066132724008639 0 0 0 0 9.7288548964202164 59.366720454187089 0 59.366720454187089 177.17983466075384 0 0 0 0 108.15705114212471 225.20701836201624 0 225.20701836201624 446.75700711838317 0 0 0 0 -9.6163053716070408 76.998798866887228 0 76.998798866887228 234.93783980602893 0 0 0 0 8.5446062156033804 88.137088151590433 0 88.137088151590433 180.84624337565037 0 0 0 0 -2.1329682604890001 -16.098158539196945 0 -16.098158539196945 14.901201855018499 0 0 0 0 168.28827415711589 -77.125794533589215 0 -77.125794533589215 304.90989645900117 0 0 0 0 281.47455861323397 91.453145641004085 0 91.453145641004085 95.386975760018686 0 0 0 0 -2.80799833730714 38.028651793057634 0 38.028651793057634 199.49527129710623 0 0 0 0 59.56654105630696 -104.39744919399527 0 -104.39744919399527 -153.1266394324939 0 0 0 0 36.235272688285477 -155.75944254100636 0 -155.75944254100636 -42.714133370190211 0 0 0 0 1.0342553132091208 -38.60505921809748 0 -38.60505921809748 51.167096816096816 0 0 0 0 259.07023255244258 239.61485836487191 0 239.61485836487191 250.95400596848049 0 0 0 0 0.51366099159322953 -0.88168908445430816 0 -0.88168908445430816 4.0276073947597837 0 0 0 0 114.85467408396369 108.33452128602994 0 108.33452128602994 -32.069240697848727 0 0 0 0 -180.10918770240221 140.06964346510176 0 140.06964346510176 333.5955698147518 0 0 0 0 51.215436590373322 -269.17657398262918 0 -269.17657398262918 71.141168168865988 0 0 0 0 -0.58043055336449623 -42.090005282024791 0 -42.090005282024791 46.392347592008036 0 0 0 0 -13.982629336599075 -29.759478900878094 0 -29.759478900878094 -31.679655608499615 0 0 0 0 8.3631490299380289 -60.28257669695995 0 -60.28257669695995 -43.819976249382307 0 0 0 0 10.4696766657392 -68.848269898422586 0 -68.848269898422586 -14.32882680361854 0 0 0 0 -12.319290707671488 -21.885029554864268 0 -21.885029554864268 16.944141890061445 0 0 0 0 16.87490020032897 -50.437866597510535 0 -50.437866597510535 45.374297432404973 0 0 0 0 -3.3097372077809268 -54.87372209648629 0 -54.87372209648629 67.285955234276116 0 0 0 0 -37.516310100228111 -69.026383224634174 0 -69.026383224634174 61.782283142477354 0 0 0 0 -9.3533869103980578 -81.18854384177348 0 -81.18854384177348 46.217777692005711 0 0 0 0 -163.93103414978395 33.017238420178273 0 33.017238420178273 75.368519336553618 0 0 0 0 -12.842855167743171 -7.6189853676126065 0 -7.6189853676126065 11.324980245651179 0 0 0 0 30.24127340828656 -18.623385557481697 0 -18.623385557481697 -2.4146830660074556 0 0 0 0 9.7717676617623006 -0.22106373907774923 0 -0.22106373907774923 0.86659934331700805 0 0 0 0 -8.4661796907762437 -46.750162230055139 0 -46.750162230055139 14.197194185211629 0 0 0 0 1.1419101872368174 -1.7179134008065375 0 -1.7179134008065375 2.1399877222374926 0 0 0 0 17.520708715420369 -13.925428178373977 0 -13.925428178373977 -67.361787928290141 0 0 0 0 25.813563029827492 -224.75209683246203 0 -224.75209683246203 568.81402458253069 0 0 0 0 2.2756845038912736 1.3337518750843476 0 1.3337518750843476 0.87383898819770511 0 0 0 0 153.41516878166021 -91.411188770771105 0 -91.411188770771105 189.47530598850062 0 0 0 0 120.56466453934934 -173.93708367976672 0 -173.93708367976672 -45.383204549773836 0 0 0 0 81.229612192135392 -59.839582626792435 0 -59.839582626792435 -36.154053984856546 0 0 0 0 -41.580234291485795 -52.443786677465596 0 -52.443786677465596 -28.856052977271247 0 0 0 0 68.32155274265773 -6.4622626276330664 0 -6.4622626276330664 8.62288984488805 0 0 0 0 48.220649878353015 30.280324292153864 0 30.280324292153864 67.393043686291549 0 0 0 0 27.641238225279835 89.276932563968245 0 89.276932563968245 146.67385717399907 0 0 0 0 -7.3756706001474628 -4.592849967542656 0 -4.592849967542656 21.392924358527175 0 0 0 0 -22.38525582968478 -9.458424161899643 0 -9.458424161899643 14.217630541908875 0 0 0 0 -7.2074735202379543 -37.58332744380732 0 -37.58332744380732 -11.194474449656809 0 0 0 0 36.973004939106886 -17.573678033411852 0 -17.573678033411852 13.795058013887683 0 0 0 0 -4.1748190400535199 -12.78342683578067 0 -12.78342683578067 2.0322110343324198 0 0 0 0 52.259175131950315 -32.79205031520496 0 -32.79205031520496 11.111913916651247 0 0 0 0 62.206252506996009 -68.353942658440246 0 -68.353942658440246 19.498595697934888 0 0 0 0 45.968493412042847 -38.873616160671645 0 -38.873616160671645 7.7178269360447302 0 0 0 0 17.697268874707561 -93.504737634150388 0 -93.504737634150388 51.839010927946219 0 0 0 0 -10.118031147494207 -70.703547128402079 0 -70.703547128402079 35.391763620276834 0 0 0 0 -12.76891939215443 -84.252133015905201 0 -84.252133015905201 54.825236607538272 0 0 0 0 150.51954723967685 -33.698280646043258 0 -33.698280646043258 -4.5427349386345668 0 0 0 0 72.769323154328376 -45.620123043732406 0 -45.620123043732406 9.3012566257912113 0 0 0 0 99.380669914285988 -181.76641131341137 0 -181.76641131341137 117.47678763188105 0 0 0 0 82.217720252001072 -8.8538654188791952 0 -8.8538654188791952 12.346210564680405 0 0 0 0 458.92050993144369 -32.077121323320625 0 -32.077121323320625 -13.017326453511487 0 0 0 0 -71.026544377807227 -51.625233580818986 0 -51.625233580818986 106.8391013471613 0 0 0 0 -16.831380703346611 341.39266822154548 0 341.39266822154548 -340.17502092796144 0 0 0 0 -98.100625503227832 -72.731384037022224 0 -72.731384037022224 140.03011404621384 0 0 0 0 191.17069627644321 -408.6537331964372 0 -408.6537331964372 549.07988516753767 0 0 0 0 542.33497458846352 -512.70978294480278 0 -512.70978294480278 -76.759719399164098 0 0 0 0 -205.33180372485515 393.95325790131358 0 393.95325790131358 444.96601291966175 0 0 0 0 238.8630249923317 12.306405295618788 0 12.306405295618788 128.52086813673429 0 0 0 0 86.985963555045203 -106.33174930658718 0 -106.33174930658718 298.24007354140349 0 0 0 0 74.824376137135914 95.963943082163837 0 95.963943082163837 449.10493380669891 0 0 0 0 136.11418885726789 249.09406952918982 0 249.09406952918982 653.85623513449036 0 0 0 0 87.638672772131031 -126.76691929702656 0 -126.76691929702656 756.00913305018207 0 0 0 0 3.8152003332143689 -3.290377132998449 0 -3.290377132998449 2.6077245925725983 0 0 0 0 149.10487988464092 94.613421159473774 0 94.613421159473774 105.2296301984104 0 0 0 0 130.42388732000722 197.86673818966187 0 197.86673818966187 225.23897665613777 0 0 0 0 11.029917822595507 26.331927587109021 0 26.331927587109021 172.59423351243549 0 0 0 0 4.3392983792609012 -11.38734527832872 0 -11.38734527832872 7.8391391418854841 0 0 0 0 69.944479984796089 -27.29406542610468 0 -27.29406542610468 8.2489141699451025 0 0 0 0 142.41610016777167 139.80400152841617 0 139.80400152841617 120.36698600042041 0 0 0 0 -2.6277098077237069 -7.8306483217131628 0 -7.8306483217131628 3.9378269893237281 0 0 0 0 82.819565103459809 86.623370381756899 0 86.623370381756899 199.04814893373407 0 0 0 0 114.35771606043249 123.69687056569285 0 123.69687056569285 241.37851061551282 0 0 0 0 62.531596673724721 124.50399225880003 0 124.50399225880003 223.28293338148956 0 0 0 0 80.145431425584093 90.549926875725816 0 90.549926875725816 231.07615963041326 0 0 0 0 79.255227014404682 102.14411236581924 0 102.14411236581924 284.94300035873539 0 0 0 0 96.663068396273502 95.914002241292451 0 95.914002241292451 246.45672184459966 0 0 0 0 130.4820201438929 81.971893927103793 0 81.971893927103793 282.10698371998228 0 0 0 0 178.72340963000352 108.04561945953418 0 108.04561945953418 282.02998030574031 0 0 0 0 77.774535320569612 85.957538984155462 0 85.957538984155462 307.92513131405576 0 0 0 0 79.018457945686805 105.95397434542156 0 105.95397434542156 280.14145563032758 0 0 0 0 36.374299667249943 94.231263705636195 0 94.231263705636195 212.93004992285012 0 0 0 0 41.399737778713643 114.43087466148404 0 114.43087466148404 285.26715434230289 0 0 0 0 15.944888036694579 62.810305496798101 0 62.810305496798101 187.89254464454183 0 0 0 0 15.591110557997581 74.096635827211628 0 74.096635827211628 290.3709059228886 0 0 0 0 46.674774621864344 96.340855191750165 0 96.340855191750165 145.14213423316028 0 0 0 0 46.955383389793951 100.82890905924586 0 100.82890905924586 155.67866218314748 0 0 0 0 35.869057431869351 120.42049695866649 0 120.42049695866649 216.45570008237451 0 0 0 0 49.111559744639408 87.131305289627562 0 87.131305289627562 145.26601827463969 0 0 0 0 8.6387786558329935 92.324851775410025 0 92.324851775410025 163.38630660063308 0 0 0 0 72.024567037460884 103.43427303769712 0 103.43427303769712 146.53383508546744 0 0 0 0 -0.039503151610996594 -0.072380168647927512 0 -0.072380168647927512 1.0901539960851219 0 0 0 0 -11.760336943264974 -41.830973580643445 0 -41.830973580643445 133.61214239184665 0 0 0 0 36.535471114315214 130.50357662972573 0 130.50357662972573 188.29277632070307 0 0 0 0 -13.64759612199714 -44.241640469900176 0 -44.241640469900176 95.459560981362586 0 0 0 0 -6.2287785698739579 -3.9499761883612852 0 -3.9499761883612852 19.782794283873038 0 0 0 0 35.519015594709344 74.767140764421015 0 74.767140764421015 44.442284458255017 0 0 0 0 26.936401371968941 197.78375595246581 0 197.78375595246581 97.979956819003064 0 0 0 0 -43.078268267117892 177.3110927924447 0 177.3110927924447 129.97159691320729 0 0 0 0 -26.678950941291532 111.39839917062466 0 111.39839917062466 211.05942817752316 0 0 0 0 20.348929943938856 112.08201357068683 0 112.08201357068683 141.05907297936085 0 0 0 0 49.428736701263006 76.044416488855177 0 76.044416488855177 165.01135357617522 0 0 0 0 24.004490671118752 112.30783140812007 0 112.30783140812007 59.808365903163576 0 0 0 0 23.723180301161392 122.89604027535665 0 122.89604027535665 159.69377128474522 0 0 0 0 4.5050083496294064 71.116980463630213 0 71.116980463630213 160.6326054439804 0 0 0 0 23.798631084935778 82.738273866348493 0 82.738273866348493 202.98050216569493 0 0 0 0 17.557351673457106 61.892896884468819 0 61.892896884468819 138.24260075744635 0 0 0 0 -54.845960360936715 -16.720602634115664 0 -16.720602634115664 172.44096037855729 0 0 0 0 -93.669235542331535 -50.390565515868218 0 -50.390565515868218 124.37764786996843 0 0 0 0 -96.123463725600686 -42.578903140748707 0 -42.578903140748707 192.96400720128065 0 0 0 0 -5.7923789038577524 68.175211567127519 0 68.175211567127519 57.730866517733375 0 0 0 0 -10.493113645078665 35.909865352116441 0 35.909865352116441 84.640514923397063 0 0 0 0 -3.0804484637683345 25.405224711822086 0 25.405224711822086 27.735561985291667 0 0 0 0 -5.8197569043732074 -110.30833504849477 0 -110.30833504849477 255.34610705476018 0 0 0 0 23.37175369781653 -9.7639097319134009 0 -9.7639097319134009 -30.978512102566526 0 0 0 0 35.080234643948188 -92.908925303689273 0 -92.908925303689273 191.27066088663435 0 0 0 0 -52.101859611057989 -11.668532095737021 0 -11.668532095737021 184.64772668820598 0 0 0 0 -8.4304691432753316 24.551985836847962 0 24.551985836847962 -36.450782468711253 0 0 0 0 -12.706519498261059 -45.410055705533637 0 -45.410055705533637 -26.389871492106742 0 0 0 0 -1.4290444672131848 -0.21387427068684417 0 -0.21387427068684417 0.57385532117353977 0 0 0 0 288.75317481292041 -258.26845380843878 0 -258.26845380843878 155.95360133744805 0 0 0 0 -3.7642686794747773 -4.3845137193562955 0 -4.3845137193562955 -3.6908806065192445 0 0 0 0 191.48599379392863 -186.23025374349874 0 -186.23025374349874 113.30599450322052 0 0 0 0 193.12335016109526 -164.94370351865007 0 -164.94370351865007 86.80240766426823 0 0 0 0 239.70374621811652 -195.38488239350585 0 -195.38488239350585 80.735117359622166 0 0 0 0 231.2088696065407 -254.33921477033937 0 -254.33921477033937 147.39934843264098 0 0 0 0 -11.104596929164472 81.045827520078205 0 81.045827520078205 113.16400580163489 0 0 0 0 -76.321819608679334 5.5759100078074653 0 5.5759100078074653 35.948215904124652 0 0 0 0 -1.2320109174144207 -1.3544918023362946 0 -1.3544918023362946 -1.1025050036532709 0 0 0 0 57.701237193417001 67.012308821843817 0 67.012308821843817 31.756511332670293 0 0 0 0 39.605325567676573 92.819134200267996 0 92.819134200267996 29.847433063892595 0 0 0 0 86.595466179331197 155.12039049608575 0 155.12039049608575 82.60884665601742 0 0 0 0 263.2576347006534 130.65357021044292 0 130.65357021044292 20.210665305099496 0 0 0 0 449.10282155483844 -281.75356133355552 0 -281.75356133355552 226.89106857356478 0 0 0 0 276.83687923298635 232.2187092854102 0 232.2187092854102 230.60397730835984 0 0 0 0 419.30130915742211 -73.326663025742278 0 -73.326663025742278 424.5872690814341 0 0 0 0 265.67076329571205 -53.056292842923853 0 -53.056292842923853 63.615863778070548 0 0 0 0 248.60452946735222 -283.85068743864997 0 -283.85068743864997 213.03858787382936 0 0 0 0 231.51269344313914 -230.65155516674389 0 -230.65155516674389 275.5197984164825 0 0 0 0 395.50869480955407 -152.26153326329518 0 -152.26153326329518 469.45918417245684 0 0 0 0 446.2131374906794 -343.85804431976646 0 -343.85804431976646 321.68084397962679 0 0 0 0 156.98927112720548 -264.44545553921193 0 -264.44545553921193 798.81599578279213 0 0 0 0 183.69923630035464 -211.58110952054091 0 -211.58110952054091 751.27357915322239 0 0 0 0 211.49767448952173 -402.77950324433863 0 -402.77950324433863 1843.4661005901298 0 0 0 0 238.56719092944786 604.63637415346875 0 604.63637415346875 1789.6661812023958 0 0 0 0 14.55933396208593 58.624710232389361 0 58.624710232389361 707.06124925825179 0 0 0 0 -2.2924235802438488 60.091903963736968 0 60.091903963736968 1280.5495653709029 0 0 0 0 110.86306954496013 436.34876803166924 0 436.34876803166924 910.06315019546673 0 0 0 0 288.80515064116628 403.19261848346241 0 403.19261848346241 401.45860390197981 0 0 0 0 83.753487082924494 -318.13634580803478 0 -318.13634580803478 552.61935960057008 0 0 0 0 1066.7400243221923 219.69090423433943 0 219.69090423433943 525.47223943074198 0 0 0 0 1016.4032267901343 -625.04147165211657 0 -625.04147165211657 739.96710213631309 0 0 0 0 177.17106621591165 32.619954872545122 0 32.619954872545122 1858.4069732458775 0 0 0 0 492.04574096228043 -1146.170420057997 0 -1146.170420057997 1262.1794352710103 0 0 0 0 -196.76183484679927 -21.47674443326423 0 -21.47674443326423 451.54065031385016 0 0 0 0 -256.4146674762128 -826.27996013539905 0 -826.27996013539905 1035.821608021769 0 0 0 0 -329.1368497835665 117.2282670951472 0 117.2282670951472 210.80670693574098 0 0 0 0 -571.21890080259936 -551.72409611110834 0 -551.72409611110834 36.527065336093642 0 0 0 0 0.23875394326194366 1.1004044026289943 0 1.1004044026289943 -4.2202973363188985 0 0 0 0 82.575064425643831 58.251928434233847 0 58.251928434233847 13.356243731207542 0 0 0 0 116.87826074044665 -122.34378490715017 0 -122.34378490715017 12.366054160135718 0 0 0 0 82.982555509584955 67.716041078152543 0 67.716041078152543 205.72866382893699 0 0 0 0 142.28548265360246 -251.36384469687346 0 -251.36384469687346 365.92146267950966 0 0 0 0 -573.36171267903399 -306.44634880123294 0 -306.44634880123294 980.90133288015386 0 0 0 0 134.64185819665579 130.97677647754108 0 130.97677647754108 239.19125135111244 0 0 0 0 -441.21906826483792 202.41981283750283 0 202.41981283750283 396.16825901516131 0 0 0 0 -35.908572716192339 146.913584630787 0 146.913584630787 55.635114498048949 0 0 0 0 105.03937491837587 -0.20482965699648048 0 -0.20482965699648048 -44.235164455913036 0 0 0 0 162.17336260386901 146.78349406004963 0 146.78349406004963 -252.24404988561673 0 0 0 0 -35.908113995000804 -16.755627603217363 0 -16.755627603217363 78.969368351523372 0 0 0 0 -3.5203754550343738 1.9073547930523489 0 1.9073547930523489 -4.1672417649031646 0 0 0 0 -47.720135273408232 -7.2402258131696726 0 -7.2402258131696726 90.749979649001034 0 0 0 0 -127.48429619471631 66.410290570961592 0 66.410290570961592 65.630033623660438 0 0 0 0 -41.94513970883429 24.303375353183128 0 24.303375353183128 -344.23429220638354 0 0 0 0 -48.908722505633023 -0.59340972176960349 0 -0.59340972176960349 77.219789798909915 0 0 0 0 -3.5660282589855115 -3.2249312858277053 0 -3.2249312858277053 27.922316274227608 0 0 0 0 -92.018451379046155 21.863966185120489 0 21.863966185120489 12.670331721968523 0 0 0 0 -6.1296567422868282 8.2918819087993825 0 8.2918819087993825 -3.1316641978771402 0 0 0 0 -262.49364324807175 43.730433194776154 0 43.730433194776154 94.842552047581648 0 0 0 0 -3.9087520142574186 -2.3694731812527938 0 -2.3694731812527938 2.6035941289000526 0 0 0 0 -7.8867886235578935 -0.9105438799876362 0 -0.9105438799876362 21.460887768593913 0 0 0 0 -59.661081990986986 -26.009942000046067 0 -26.009942000046067 66.154492221043711 0 0 0 0 -37.767257842289609 -9.4509954085442587 0 -9.4509954085442587 61.753774358903684 0 0 0 0 -39.420287322092975 -60.608399561188548 0 -60.608399561188548 3.8831400204235251 0 0 0 0 -32.80702984179959 -4.1482478971402088 0 -4.1482478971402088 17.189812132446605 0 0 0 0 -19.785907326861434 -18.317674496095719 0 -18.317674496095719 2.4340840728464173 0 0 0 0 -9.3530085803232623 15.01492936831071 0 15.01492936831071 0.46870131668356407 0 0 0 0 -150.65902252162232 49.077531364039032 0 49.077531364039032 19.103408458340596 0 0 0 0 -48.037372878629412 210.58659809220592 0 210.58659809220592 127.10943995827438 0 0 0 0 -26.861688160280977 185.86708671899157 0 185.86708671899157 110.01528587014832 0 0 0 0 162.4285159958514 331.64222501809485 0 331.64222501809485 153.39156132879043 0 0 0 0 -28.823238061500888 201.32472297975005 0 201.32472297975005 97.873511668254025 0 0 0 0 -96.193517118973887 136.47656460538622 0 136.47656460538622 273.76524233582131 0 0 0 0 -88.778906137205695 119.53072116203441 0 119.53072116203441 66.181504643658627 0 0 0 0 -207.57760597420656 18.415694251990999 0 18.415694251990999 10.203265723228242 0 0 0 0 -505.3632825682248 -158.05784908441808 0 -158.05784908441808 44.307118598990655 0 0 0 0 -268.01194244277303 74.92810317503222 0 74.92810317503222 143.81407702592787 0 0 0 0 -0.028004395940745011 -27.722992471135512 0 -27.722992471135512 434.84666179318447 0 0 0 0 -103.69085012733439 -25.17553283709276 0 -25.17553283709276 632.57714425277663 0 0 0 0 88.373562758305169 -181.49732000045651 0 -181.49732000045651 331.31898112760973 0 0 0 0 -87.09820956480911 22.980647603457328 0 22.980647603457328 467.80533271106106 0 0 0 0 -88.365914275005949 -70.9018916397672 0 -70.9018916397672 505.25338341516908 0 0 0 0 -60.284055559956826 -4.0803676080104196 0 -4.0803676080104196 539.64901245578585 0 0 0 0 -39.628687801145318 46.288182089614565 0 46.288182089614565 596.97841514366519 0 0 0 0 -123.31412065274097 67.380764750218077 0 67.380764750218077 1169.9176075684372 0 0 0 0 524.01788309780795 371.93597421334562 0 371.93597421334562 328.84518908850441 0 0 0 0 670.76031422911524 -358.2480969739845 0 -358.2480969739845 433.09978748033609 0 0 0 0 -107.04519026578146 -458.05156583213829 0 -458.05156583213829 83.447395522352963 0 0 0 0 -188.81833111432275 378.98439132876956 0 378.98439132876956 1135.9412269270833 0 0 0 0 -169.10728706537827 403.5364768562813 0 403.5364768562813 -60.672210752061801 0 0 0 0 -209.8286269870714 266.60100990569481 0 266.60100990569481 228.2096937318056 0 0 0 0 -209.43384742486478 238.54062823974436 0 238.54062823974436 790.6488940314448 0 0 0 0 123.92289152293893 -301.46541030333901 0 -301.46541030333901 375.34483373705007 0 0 0 0 672.56283690834903 708.57517085982545 0 708.57517085982545 448.61634677281836 0 0 0 0 0.30848137408004123 -0.12585951091081782 0 -0.12585951091081782 7.9492301199016993 0 0 0 0 96.022523629354652 -24.082845093491642 0 -24.082845093491642 22.553888240043307 0 0 0 0 -81.620823361320959 29.864361126696167 0 29.864361126696167 61.236449229822028 0 0 0 0 0.060293971718631864 4.0061673809895595 0 4.0061673809895595 23.271994079285889 0 0 0 0 -47.884884001299838 64.828388626207015 0 64.828388626207015 80.810204062479897 0 0 0 0 80.382861060242107 49.963190929905977 0 49.963190929905977 27.530647962616058 0 0 0 0 -0.1166204952915133 11.071290443394929 0 11.071290443394929 17.714908400311604 0 0 0 0 -1.9784108620075358 8.1768434913246892 0 8.1768434913246892 33.082608437722229 0 0 0 0 -35.245344624320531 35.059431514731841 0 35.059431514731841 12.573781706538284 0 0 0 0 -4.6216106743872425 -5.4897555067241228 0 -5.4897555067241228 28.139136075421959 0 0 0 0 -5.7473740439531946 7.9452136371085835 0 7.9452136371085835 38.985983033729667 0 0 0 0 -0.25356663200071949 1.7129592197127295 0 1.7129592197127295 3.5976024238948483 0 0 0 0 -36.310849768496354 33.516359064720746 0 33.516359064720746 25.822247892880114 0 0 0 0 102.31787500245537 -78.087536396371434 0 -78.087536396371434 -149.22312315598538 0 0 0 0 9.8877867962294452 14.461098777299071 0 14.461098777299071 9.3423888626996998 0 0 0 0 8.0618024872296452 16.812397662940384 0 16.812397662940384 82.887455384407076 0 0 0 0 -79.060744568500809 121.68738540960658 0 121.68738540960658 328.93869349996385 0 0 0 0 -1.9991397090205703 -4.5398289880008207 0 -4.5398289880008207 50.785175899700675 0 0 0 0 -45.135766345933519 73.465772488869334 0 73.465772488869334 -39.690671611824655 0 0 0 0 -2.9306321371615569 -0.068359715713455671 0 -0.068359715713455671 11.00507138283244 0 0 0 0 -85.368058815882023 -58.023265724048542 0 -58.023265724048542 30.047044974540768 0 0 0 0 -7.3408058689658446 -29.56825354200555 0 -29.56825354200555 -4.0899671125171153 0 0 0 0 -9.3176502454844012 -36.618766971525474 0 -36.618766971525474 34.065171577065485 0 0 0 0 67.435403984931725 215.94286515191925 0 215.94286515191925 171.12642822687758 0 0 0 0 -0.069229864396890051 -0.59322067261072675 0 -0.59322067261072675 2.868387400757058 0 0 0 0 37.799159554796574 1.9224202735131257 0 1.9224202735131257 1.4021976312724291 0 0 0 0 -25.790034650309813 -4.323900446510379 0 -4.323900446510379 18.640066915046191 0 0 0 0 53.719816764145889 -9.8051787616859656 0 -9.8051787616859656 -1.853464157145936 0 0 0 0 -16.755363711242126 -23.38003901889897 0 -23.38003901889897 -20.369649205335008 0 0 0 0 -1.5796262245790289 1.8113075680359429 0 1.8113075680359429 5.5418073203950371 0 0 0 0 29.688199299131782 -71.461364646514994 0 -71.461364646514994 16.646321288959825 0 0 0 0 6.7162851446838658 98.622411026459304 0 98.622411026459304 100.97867324053368 0 0 0 0 79.158911960584987 -9.4153425617550965 0 -9.4153425617550965 -1.9261443129216786 0 0 0 0 90.672689346833806 169.97328702962841 0 169.97328702962841 118.46327277855016 0 0 0 0 0.41085172755735411 -109.72805610303476 0 -109.72805610303476 143.04362994986877 0 0 0 0 -0.22172459485745474 -0.166360046856596 0 -0.166360046856596 1.3718865099600066 0 0 0 0 0.23403980491900478 215.05773732627495 0 215.05773732627495 2229.0406936512591 0 0 0 0 141.77152459033158 111.32479715142472 0 111.32479715142472 825.98902621262096 0 0 0 0 323.44150190722343 287.72238193353405 0 287.72238193353405 -44.183888888284855 0 0 0 0 101.95216036567098 84.666290593017038 0 84.666290593017038 954.71859007515013 0 0 0 0 -439.68521580930337 648.84293575371339 0 648.84293575371339 3493.9871918532954 0 0 0 0 -374.08781707725512 869.22926918273151 0 869.22926918273151 3554.7225058718213 0 0 0 0 8.4201291175961188 277.22852510899975 0 277.22852510899975 2644.3910399397428 0 0 0 0 0.81669974100140352 -0.97003797088220267 0 -0.97003797088220267 6.8022072581210722 0 0 0 0 1.3225635345129927 -0.022065212266994649 0 -0.022065212266994649 7.6286984249502865 0 0 0 0 305.38320725288713 1054.1901769928172 0 1054.1901769928172 3502.6347447029548 0 0 0 0 1601.1534314442667 354.98739195316739 0 354.98739195316739 3005.9560552956682 0 0 0 0 -330.48822278327634 1196.5348493438942 0 1196.5348493438942 3638.3292519041279 0 0 0 0 139.88154937837064 761.39296791945526 0 761.39296791945526 3058.0036740643773 0 0 0 0 -306.93916071613501 1091.7398493237997 0 1091.7398493237997 4085.9456835466117 0 0 0 0 7.2104381866793119 1126.5544593810919 0 1126.5544593810919 2434.394917598227 0 0 0 0 26.045661334810802 1222.6699088591122 0 1222.6699088591122 2898.3101690320764 0 0 0 0 755.40626679741308 1141.7155575678626 0 1141.7155575678626 1574.5445819414235 0 0 0 0 635.19331860446164 1408.4824629474315 0 1408.4824629474315 1467.2408710995223 0 0 0 0 -228.7367598103875 -962.52264073821243 0 -962.52264073821243 1371.8158064586605 0 0 0 0 1439.0703614331433 1801.3950642076306 0 1801.3950642076306 1810.6193134794012 0 0 0 0 0.099439897718416992 0.33660312027728878 0 0.33660312027728878 21.015313953587849 0 0 0 0 210.42227593486587 1881.828775117363 0 1881.828775117363 3636.5248094379203 0 0 0 0 820.67521520598621 1987.1063798281975 0 1987.1063798281975 3024.8015094994335 0 0 0 0 -595.90022872670454 178.95127076046992 0 178.95127076046992 181.52739002357703 0 0 0 0 -286.52591032117357 -856.17733473939006 0 -856.17733473939006 101.32094484943809 0 0 0 0 240.99996955236492 18.027169714601769 0 18.027169714601769 -133.58741563989679 0 0 0 0 -1.1670172453473502 -1.4396481492348592 0 -1.4396481492348592 45.252272040247874 0 0 0 0 1064.0425965369843 743.42015705752419 0 743.42015705752419 -726.28543451559381 0 0 0 0 -360.92055654312219 364.86970486702558 0 364.86970486702558 67.396835777981323 0 0 0 0 237.80296308537351 -186.25560309666253 0 -186.25560309666253 420.18731306795962 0 0 0 0 280.03571213395668 301.8435308488115 0 301.8435308488115 742.41788140463177 0 0 0 0 306.28691234397695 492.82492010534042 0 492.82492010534042 1921.9817212345151 0 0 0 0 752.62558359553134 609.89365078326955 0 609.89365078326955 117.20717185892863 0 0 0 0 -0.57420286642670826 -0.15175718389809845 0 -0.15175718389809845 2.2477058435375739 0 0 0 0 -11.218005492857685 -83.700579520720567 0 -83.700579520720567 -9.6748130794148892 0 0 0 0 21.502169535267285 93.471735381433973 0 93.471735381433973 -59.033318839559797 0 0 0 0 -23.635441195046212 109.47558739223314 0 109.47558739223314 -12.597031993602286 0 0 0 0 -400.17479944453589 118.86760883090028 0 118.86760883090028 28.74049585024477 0 0 0 0 -17.683796419865473 117.05098446291959 0 117.05098446291959 -7.0041818212885119 0 0 0 0 280.73337215764536 -134.16805159266005 0 -134.16805159266005 -294.06808863388505 0 0 0 0 3.4213319504937139 -6.1098246546801818 0 -6.1098246546801818 1.4398252863109775 0 0 0 0 289.67678807171785 -238.31194065953673 0 -238.31194065953673 434.58156737756508 0 0 0 0 131.4186148270939 -378.79760917580552 0 -378.79760917580552 1168.4305583157548 0 0 0 0 241.86077961719053 259.51859436925588 0 259.51859436925588 316.95616088318639 0 0 0 0 248.51292561919621 -11.68870966877148 0 -11.68870966877148 41.378529096313287 0 0 0 0 113.83712517646978 276.84142170708947 0 276.84142170708947 -13.483331699870178 0 0 0 0 -623.75096453972481 -315.01526984827433 0 -315.01526984827433 3315.0165950062074 0 0 0 0 134.10753647235623 174.57377495594847 0 174.57377495594847 1390.9995166979425 0 0 0 0 -115.73658621778711 -45.167303439742682 0 -45.167303439742682 2088.8417848402387 0 0 0 0 -402.58963965076947 871.14087105748331 0 871.14087105748331 2317.2932112299095 0 0 0 0 -517.54036117548321 267.8720976079203 0 267.8720976079203 3500.7202944156697 0 0 0 0 449.39552064066049 914.72824311987279 0 914.72824311987279 3299.7553477255133 0 0 0 0 1148.0822915242136 -1401.3015064660376 0 -1401.3015064660376 1645.826264817777 0 0 0 0 2.1585909942658503 2.1903497152538982 0 2.1903497152538982 19.763269320935706 0 0 0 0 1148.5546446652236 1658.4293985135591 0 1658.4293985135591 1184.2624462584863 0 0 0 0 -362.42033936010188 1176.065206138439 0 1176.065206138439 3492.610198979999 0 0 0 0 91.790142846060832 -117.81986040326592 0 -117.81986040326592 367.36843155228416 0 0 0 0 372.7723110855697 598.84250125825565 0 598.84250125825565 943.04488487257186 0 0 0 0 -297.18776830548268 90.5973383239143 0 90.5973383239143 277.66609230799804 0 0 0 0 120.66608086548689 -302.21674674370115 0 -302.21674674370115 -102.66371918783261 0 0 0 0 0.24390458604655596 5.9562789987581617 0 5.9562789987581617 46.276721851542305 0 0 0 0 -145.31238335932468 168.49711704929359 0 168.49711704929359 158.52944867707265 0 0 0 0 15.789388358941778 12.293218861177593 0 12.293218861177593 64.301921233192843 0 0 0 0 6.0472670497100456 -5.699636307031966 0 -5.699636307031966 12.632471112306746 0 0 0 0 13.182665004627779 19.231329369024024 0 19.231329369024024 62.559804659675137 0 0 0 0 0.019675442044942315 4.4371827883604027 0 4.4371827883604027 11.072590180181123 0 0 0 0 14.015754910367832 18.365446793584852 0 18.365446793584852 52.156822698772885 0 0 0 0 8.5088047495868295 -6.5118024512539705 0 -6.5118024512539705 37.136428655052441 0 0 0 0 -4.3895985970348192 26.275305617942649 0 26.275305617942649 72.894286701332021 0 0 0 0 -6.6240634036220776 -5.5251524079234287 0 -5.5251524079234287 29.094718811693326 0 0 0 0 -8.0556912154024758 11.316074109985493 0 11.316074109985493 394.89754086014 0 0 0 0 -41.829020736350685 33.592973262835585 0 33.592973262835585 407.37548393913312 0 0 0 0 -3.3489940144480972 1.5388829732345073 0 1.5388829732345073 10.788854012353909 0 0 0 0 -279.79292832372448 -101.51705425293767 0 -101.51705425293767 596.89693811572215 0 0 0 0 -169.37552403407562 42.175610254285857 0 42.175610254285857 409.40115578885889 0 0 0 0 -90.990001775860947 -0.65737166622420773 0 -0.65737166622420773 457.85315612615886 0 0 0 0 20.344369067803171 25.918941079456999 0 25.918941079456999 41.044264817413932 0 0 0 0 16.631704910233566 -31.113998649423593 0 -31.113998649423593 446.76013724014047 0 0 0 0 7.2757980627526671 16.067903310663752 0 16.067903310663752 8.9586368169078128 0 0 0 0 -90.889687330049128 -22.485917093421449 0 -22.485917093421449 414.77019245742122 0 0 0 0 4.8760383272665422 16.429240405435849 0 16.429240405435849 70.638586137240054 0 0 0 0 17.75770397472138 16.962751773819036 0 16.962751773819036 70.181877222399635 0 0 0 0 5.5306743443928781 24.241259612092108 0 24.241259612092108 73.870676995022222 0 0 0 0 11.478668228222062 17.650988968838647 0 17.650988968838647 70.871782773301675 0 0 0 0 9.7624689544735475 20.31966491429921 0 20.31966491429921 84.556657550398086 0 0 0 0 -2.9517600763069254 732.22279568465274 0 732.22279568465274 801.91703050248907 0 0 0 0 192.79031219953049 -670.19227802891692 0 -670.19227802891692 581.27738412693725 0 0 0 0 143.96144780670511 264.36545235212543 0 264.36545235212543 83.06752903647066 0 0 0 0 9.5421131203959249 24.293846689055499 0 24.293846689055499 63.013806200258841 0 0 0 0 12.300958024832815 15.953970392155895 0 15.953970392155895 0.67364397375849805 0 0 0 0 -76.96763371850011 -49.951656803052174 0 -49.951656803052174 461.93292437859054 0 0 0 0 -79.519905712782929 -66.676325395077583 0 -66.676325395077583 429.46900739934063 0 0 0 0 89.239502716051902 -288.20717148587573 0 -288.20717148587573 564.38279412154952 0 0 0 0 4.0759594481428394 -118.04128586599836 0 -118.04128586599836 225.9915412927221 0 0 0 0 349.88421070831828 -349.82266975177481 0 -349.82266975177481 397.04283223299717 0 0 0 0 -625.45719163452077 490.93400779971125 0 490.93400779971125 664.17000714766618 0 0 0 0 -0.2687838737065813 -0.55000911420630416 0 -0.55000911420630416 11.382876121732977 0 0 0 0 -10.526976595048836 -279.51581477308355 0 -279.51581477308355 1086.0136902025188 0 0 0 0 216.53041054114874 -121.99639544905222 0 -121.99639544905222 14.837453830463346 0 0 0 0 94.263580396753241 23.21824423041835 0 23.21824423041835 -47.848432942293584 0 0 0 0 36.862827945092249 -95.24599579857022 0 -95.24599579857022 210.567514413764 0 0 0 0 139.50215993407528 -123.72967386533128 0 -123.72967386533128 87.573773620548309 0 0 0 0 41.418308765012398 -89.389862297011859 0 -89.389862297011859 138.66879004435032 0 0 0 0 -1.7229497710568467 -64.807461815107672 0 -64.807461815107672 268.73627829701582 0 0 0 0 -1.3590168852761053 -54.926533259451389 0 -54.926533259451389 169.10319798014825 0 0 0 0 9.6353525653275938 -29.565939310014073 0 -29.565939310014073 141.47532710210362 0 0 0 0 7.4811191913677249 -51.653297172924795 0 -51.653297172924795 86.563805026591581 0 0 0 0 -28.687030134296947 4.5047628451229684 0 4.5047628451229684 242.07629060788895 0 0 0 0 -32.302869908128741 -5.3937534157921618 0 -5.3937534157921618 248.79706405851175 0 0 0 0 -83.72635216706658 46.737297480496636 0 46.737297480496636 281.83161199792812 0 0 0 0 -42.695664884002326 26.682930114242481 0 26.682930114242481 407.09460257011233 0 0 0 0 -74.607567703063978 -4.3462889062357135 0 -4.3462889062357135 394.07044378831506 0 0 0 0 -39.29994777268621 -37.90724064452661 0 -37.90724064452661 330.16887557743757 0 0 0 0 -37.318382492233013 -40.15525701414299 0 -40.15525701414299 265.34843123110477 0 0 0 0 -36.341001853403668 -95.075509793772653 0 -95.075509793772653 454.1623206671502 0 0 0 0 -0.050033059001461933 0.20757284638411022 0 0.20757284638411022 18.420567875066183 0 0 0 0 674.11993715001609 -536.470258851994 0 -536.470258851994 163.68979492325161 0 0 0 0 -66.649989174426537 135.64989895898543 0 135.64989895898543 228.37638371824869 0 0 0 0 -119.39215286925901 89.193358770688064 0 89.193358770688064 417.97713554944494 0 0 0 0 -120.52976440279781 80.33336365337891 0 80.33336365337891 400.51302257642965 0 0 0 0 -26.937490766164956 -80.733493347121112 0 -80.733493347121112 38.044678707788989 0 0 0 0 -5.7040284473110887 24.847495679445274 0 24.847495679445274 10.159807688251021 0 0 0 0 -8.8593835199362729 34.781452386407182 0 34.781452386407182 170.84863951175066 0 0 0 0 261.36954481850762 -57.549656681183478 0 -57.549656681183478 84.042710419686045 0 0 0 0 13.466079202429638 -39.654616718433999 0 -39.654616718433999 107.92988238198569 0 0 0 0 -39.759506464738251 -98.074707670348289 0 -98.074707670348289 130.99729671654131 0 0 0 0 -239.38797292985282 46.230338021336138 0 46.230338021336138 184.12407270477706 0 0 0 0 53.74043136526052 17.929457332960737 0 17.929457332960737 99.005149344999154 0 0 0 0 142.83532526600357 -64.736055545188719 0 -64.736055545188719 120.90130298201984 0 0 0 0 -36.284474987032809 146.10737118108955 0 146.10737118108955 2.3908092734636739 0 0 0 0 96.449409966016901 -73.598458041127742 0 -73.598458041127742 173.14613013947383 0 0 0 0 138.41972003920091 -50.071283761557424 0 -50.071283761557424 182.58934672263422 0 0 0 0 203.17515706358881 -164.37621206123004 0 -164.37621206123004 269.51918825219036 0 0 0 0 6.3451124831681005 -39.047893945874264 0 -39.047893945874264 131.00887121190135 0 0 0 0 -295.90042201770848 -198.42767182277021 0 -198.42767182277021 297.82680714291928 0 0 0 0 12.023088236478088 -0.29172797754290514 0 -0.29172797754290514 -0.83937943575438112 0 0 0 0 93.220615023463324 -364.89042742895253 0 -364.89042742895253 688.34366500290344 0 0 0 0 5.3519351992363227 -54.196082821421442 0 -54.196082821421442 732.69852179242662 0 0 0 0 2.1347270234556106 -0.46126844058348127 0 -0.46126844058348127 -0.47364278393943948 0 0 0 0 0.47618022041528718 -0.091093986765692136 0 -0.091093986765692136 -0.4187537954332754 0 0 0 0 38.434962811817968 -242.35623126482642 0 -242.35623126482642 512.51127408025786 0 0 0 0 243.34268856381823 -280.45795890685986 0 -280.45795890685986 252.168764336202 0 0 0 0 264.61002580557761 -363.36557187380095 0 -363.36557187380095 402.39803868343006 0 0 0 0 -82.897879126705448 -420.91103160487546 0 -420.91103160487546 500.92439590826689 0 0 0 0 217.72401637983421 -157.39995654855011 0 -157.39995654855011 41.256437021595957 0 0 0 0 36.3512813907073 -41.374556785631285 0 -41.374556785631285 1.8988933836226352 0 0 0 0 117.91648711079961 52.402282265789836 0 52.402282265789836 59.501986896677408 0 0 0 0 1.9946101562728558 -2.7112487545484356 0 -2.7112487545484356 0.29947134436721967 0 0 0 0 -152.80373447478041 -19.532021551684011 0 -19.532021551684011 273.63083045621897 0 0 0 0 -15.863907621197731 27.183448561152773 0 27.183448561152773 22.125968036419398 0 0 0 0 1.4300204217906867 -1.1324841164896498 0 -1.1324841164896498 82.232647346289014 0 0 0 0 -20.26181428378095 12.532633839902701 0 12.532633839902701 107.2526425360993 0 0 0 0 -101.6128986698368 97.094136518135201 0 97.094136518135201 131.37369160634262 0 0 0 0 28.018873786586482 -79.441152113315184 0 -79.441152113315184 -84.324680370627902 0 0 0 0 0.059448922804563153 -14.583864088792438 0 -14.583864088792438 23.841427245715749 0 0 0 0 -2.3737163299141066 -13.310644879770074 0 -13.310644879770074 0.43211698046059155 0 0 0 0 41.981984007818028 -20.847650696203345 0 -20.847650696203345 158.62307880905337 0 0 0 0 -11.59556400959538 5.0882144710007093 0 5.0882144710007093 92.254056395972782 0 0 0 0 0.38881538545768635 -4.6696072592504265 0 -4.6696072592504265 24.289027908336919 0 0 0 0 24.39607539329063 -138.16807936679106 0 -138.16807936679106 -400.11260031192796 0 0 0 0 -3.7417793784370588 -6.7736236685232143 0 -6.7736236685232143 35.351189293520292 0 0 0 0 -1.4694985001337955 0.81023832671962737 0 0.81023832671962737 21.307099377416307 0 0 0 0 -1.6697769027337124 5.7743700901009163 0 5.7743700901009163 41.168009433481274 0 0 0 0 1.9399332744214917 2.14979763514566 0 2.14979763514566 33.430512115446618 0 0 0 0 1.1796027832190203 0.46371144154600508 0 0.46371144154600508 21.548223429389566 0 0 0 0 -0.96248761168283181 9.4649779628606723 0 9.4649779628606723 24.55512805575944 0 0 0 0 8.7017660312267253 2.901246006556903 0 2.901246006556903 64.506364965658577 0 0 0 0 -8.5223026499202206 9.8130387569253799 0 9.8130387569253799 62.232402845329489 0 0 0 0 -13.184804721704495 11.580037865351187 0 11.580037865351187 84.596907170765917 0 0 0 0 0.18663336909166262 7.3391876270616194 0 7.3391876270616194 17.426555534160499 0 0 0 0 3.6368592965009157 22.501424090980436 0 22.501424090980436 43.880127760283358 0 0 0 0 -2.2692836658663529 1.0636401292106541 0 1.0636401292106541 11.990445365287542 0 0 0 0 8.4037717688747762 20.154254633285746 0 20.154254633285746 52.510010882195274 0 0 0 0 3.2228332603863237 27.159540346794529 0 27.159540346794529 64.768302942909941 0 0 0 0 -8.6990777556359262 14.383840003221849 0 14.383840003221849 85.020574971247697 0 0 0 0 -15.012973113075532 26.998322891478892 0 26.998322891478892 93.073492413335771 0 0 0 0 -17.780326721943425 43.403532384812934 0 43.403532384812934 126.96380273751856 0 0 0 0 -1933.7019757255857 -1338.3841364575928 0 -1338.3841364575928 1971.69633554545 0 0 0 0 1608.6453971333394 -392.59771615377394 0 -392.59771615377394 276.50144979060133 0 0 0 0 -7.1800023376586068 -32.897771220727009 0 -32.897771220727009 116.7789953581937 0 0 0 0 9.9875809111388758 30.634847627507241 0 30.634847627507241 2.3185517476907922 0 0 0 0 60.914198466922244 14.677996222453658 0 14.677996222453658 113.62027279665926 0 0 0 0 -141.89384986426376 68.677199723897502 0 68.677199723897502 432.29077315325412 0 0 0 0 -2.0112165303476521 -5.0533753712160205 0 -5.0533753712160205 2.2117360709116269 0 0 0 0 63.274347475301056 67.070901599094213 0 67.070901599094213 61.660354809951968 0 0 0 0 -1.8304012925217421 4.0645142201001363 0 4.0645142201001363 25.29418442271708 0 0 0 0 0.80404609959442697 6.8946376649443337 0 6.8946376649443337 27.26652001928548 0 0 0 0 -1.2030307842530945 4.7985962778901694 0 4.7985962778901694 11.913498332507359 0 0 0 0 2.4814379251952232 -9.9516501387188327 0 -9.9516501387188327 84.8256168756634 0 0 0 0 7.5020350025458811 3.6636687597638229 0 3.6636687597638229 24.158762156472221 0 0 0 0 7.3934665576094654 2.6336766125719997 0 2.6336766125719997 34.168875503438755 0 0 0 0 16.268787708302625 11.239026879091398 0 11.239026879091398 53.901735260533314 0 0 0 0 6.2618596685414456 -2.1111958205175085 0 -2.1111958205175085 34.192168049131574 0 0 0 0 -0.75907013616829744 2.4259171041024103 0 2.4259171041024103 6.8478437144549815 0 0 0 0 8.3892331357783405 16.097590454155579 0 16.097590454155579 51.459568736056099 0 0 0 0 1.2680923979903977 13.307112534031283 0 13.307112534031283 25.093872317112016 0 0 0 0 -5.461215048358099 4.4205380292696645 0 4.4205380292696645 15.17647813714575 0 0 0 0 1.5654453993459905 7.7364139388022295 0 7.7364139388022295 42.880948499957583 0 0 0 0 -1.2572990248863789 -6.4517883604567032 0 -6.4517883604567032 87.616234192988486 0 0 0 0 -0.15826084692298537 0.045205353322671726 0 0.045205353322671726 54.792815707536647 0 0 0 0 0.055340022099333197 5.2181991711995437 0 5.2181991711995437 14.242299902601708 0 0 0 0 -1.651281270593925 -0.64476619046712358 0 -0.64476619046712358 37.135106445279916 0 0 0 0 -2.5033472092567557 -4.552202127340351 0 -4.552202127340351 23.544920197080387 0 0 0 0 98.192129093733399 -75.978296296387271 0 -75.978296296387271 12.155419421287661 0 0 0 0 12.083231920840774 16.260349687276175 0 16.260349687276175 58.64273963967571 0 0 0 0 -109.74780226816658 57.133245061497291 0 57.133245061497291 240.03304226038745 0 0 0 0 9.387539424029125 -1.029220502023648 0 -1.029220502023648 18.264806530799419 0 0 0 0 322.94410880206846 -541.04031877029774 0 -541.04031877029774 795.38286033718032 0 0 0 0 397.13538857555625 -73.619666613078152 0 -73.619666613078152 -98.607271759072319 0 0 0 0 6.1646956120316734 -12.381176335959893 0 -12.381176335959893 8.7976326401999358 0 0 0 0 47.127703112729364 232.47419903072296 0 232.47419903072296 866.32580472250993 0 0 0 0 -52.170910334123164 73.600925434111559 0 73.600925434111559 117.42328867469041 0 0 0 0 -537.45635177724284 -332.00016245836741 0 -332.00016245836741 2037.1195697817238 0 0 0 0 -591.03782607220285 315.97977801701927 0 315.97977801701927 3500.8103643986251 0 0 0 0 -525.48914924560813 -250.62129601569995 0 -250.62129601569995 1900.5242224411195 0 0 0 0 -354.55635667843444 -970.89498618781363 0 -970.89498618781363 3493.6933978952356 0 0 0 0 334.48353837541538 1404.2111048156885 0 1404.2111048156885 3495.9442104223053 0 0 0 0 7.0694354319667374 -7.6113031015960075 0 -7.6113031015960075 13.622315518017729 0 0 0 0 417.93314670790602 -146.13019844434166 0 -146.13019844434166 43.744799619354126 0 0 0 0 133.04457374726221 739.31737017319028 0 739.31737017319028 1483.4363900223616 0 0 0 0 -5.984731284335794 -117.35214597555023 0 -117.35214597555023 102.91390236890584 0 0 0 0 17.812404254311588 -23.616112027664528 0 -23.616112027664528 27.905159312289214 0 0 0 0 2.1640495441277707 -5.914123298401762 0 -5.914123298401762 17.968369958478917 0 0 0 0 155.55083104197638 -37.59230414639751 0 -37.59230414639751 1157.5518097364838 0 0 0 0 10.181875627776101 -4.7924267402499936 0 -4.7924267402499936 1.5946059697932782 0 0 0 0 -124.04156025948984 214.10003417408006 0 214.10003417408006 147.13400690984417 0 0 0 0 -86.760832306791599 -193.0158213474424 0 -193.0158213474424 -172.82260638359367 0 0 0 0 -290.92769367254095 -150.61546656074279 0 -150.61546656074279 109.66585023085281 0 0 0 0 -54.371183101823362 74.052234615701309 0 74.052234615701309 188.48611982771399 0 0 0 0 -154.00809362766779 33.503124052681414 0 33.503124052681414 225.61756679404061 0 0 0 0 -95.247092144862108 -105.33920946593571 0 -105.33920946593571 79.782871036557481 0 0 0 0 -56.774151262092346 -8.8230332491875743 0 -8.8230332491875743 -12.033899337264302 0 0 0 0 6.2580471395904169 -1.282426090521767 0 -1.282426090521767 75.417972543560609 0 0 0 0 -10.6893412174486 -47.671626786468551 0 -47.671626786468551 42.213363479211694 0 0 0 0 -21.633299799388624 53.894924562340748 0 53.894924562340748 175.0940808660871 0 0 0 0 -1.8465894001137002 0.46173076590360296 0 0.46173076590360296 44.04692873986852 0 0 0 0 -60.61114507848788 -8.8497695480655238 0 -8.8497695480655238 102.01777013402898 0 0 0 0 -109.87114622420086 -50.866205550992163 0 -50.866205550992163 164.111843855193 0 0 0 0 0.21183237987374781 2.7717495930056657 0 2.7717495930056657 8.9378839537344987 0 0 0 0 0.6503590961201553 0.42525892590492731 0 0.42525892590492731 46.90983148853411 0 0 0 0 3.3606297476690088 -2.5734166994516272 0 -2.5734166994516272 35.537674960665754 0 0 0 0 -3.5203678875686322 16.215686355560528 0 16.215686355560528 18.504696166310509 0 0 0 0 -0.61570392355315562 4.4137374886922771 0 4.4137374886922771 29.852766811760375 0 0 0 0 3.8001024941913784 5.0448767794587184 0 5.0448767794587184 28.016129388066474 0 0 0 0 -6.7144959173710959 0.32029882755159633 0 0.32029882755159633 29.573915044718888 0 0 0 0 -3.2345383952158961 1.2575615525752255 0 1.2575615525752255 31.602610878929212 0 0 0 0 -4.6063968301309508 9.8025117293141193 0 9.8025117293141193 27.230779609602166 0 0 0 0 -4.8407382114881727 -1.2498391759373106 0 -1.2498391759373106 45.504946406910278 0 0 0 0 -65.437289844433508 28.668177419147469 0 28.668177419147469 49.611486458743457 0 0 0 0 -1.3103109337025671 1.363404139818158 0 1.363404139818158 66.655238325074606 0 0 0 0 2.8637391008409701 9.6777211433340398 0 9.6777211433340398 10.50908653602005 0 0 0 0 106.65880014919344 103.52824853780112 0 103.52824853780112 -104.67930503016032 0 0 0 0 4.3257986913461561 10.210995332592944 0 10.210995332592944 7.649215711829406 0 0 0 0 -47.43264726240659 58.109297958966636 0 58.109297958966636 96.619706855773984 0 0 0 0 -36.192905669764968 -289.88093853399914 0 -289.88093853399914 -244.95949766488775 0 0 0 0 -60.685386024427771 -72.061781234919181 0 -72.061781234919181 -159.43235191793792 0 0 0 0 267.40739370140227 -73.717426742110547 0 -73.717426742110547 456.2169444438332 0 0 0 0 216.96476706377587 229.22397928841383 0 229.22397928841383 74.40233011048258 0 0 0 0 -19.652033257154244 1.2820710310406866 0 1.2820710310406866 990.20857399440138 0 0 0 0 205.70769800930475 221.90255530084323 0 221.90255530084323 194.13563732595503 0 0 0 0 -213.71643927506204 86.166727762472874 0 86.166727762472874 460.98754673066287 0 0 0 0 5.9981344500598768 -2.7231989201295193 0 -2.7231989201295193 1.6835669478761588 0 0 0 0 756.60766381391386 -540.07635171933725 0 -540.07635171933725 -426.16801464008677 0 0 0 0 949.23452378061586 -1712.3843107343419 0 -1712.3843107343419 2118.5836946437121 0 0 0 0 439.72157588858789 -897.49702731517027 0 -897.49702731517027 1004.5822630878649 0 0 0 0 220.92709986933735 -1171.8181522138511 0 -1171.8181522138511 2899.6480105201481 0 0 0 0 679.32814225457435 -1700.7013175805805 0 -1700.7013175805805 3492.6097809596249 0 0 0 0 976.74945203275831 -1960.519294960417 0 -1960.519294960417 2908.466117788983 0 0 0 0 -500.14929268393934 -311.95790610254699 0 -311.95790610254699 2451.8604623761566 0 0 0 0 -503.17234330711983 -175.8593623204215 0 -175.8593623204215 2308.7370138620099 0 0 0 0 210.07623031493259 -1282.0947757188969 0 -1282.0947757188969 2517.7854738943133 0 0 0 0 -216.1331796880626 -998.43445219593559 0 -998.43445219593559 3500.6318052874576 0 0 0 0 496.20004175822328 -1193.2288098809645 0 -1193.2288098809645 1665.6831597108248 0 0 0 0 507.58043203188743 -1387.9973190583551 0 -1387.9973190583551 2549.8275268309444 0 0 0 0 378.61888099070563 -1516.4217808920353 0 -1516.4217808920353 2451.09470496836 0 0 0 0 -154.43712261315324 -667.94061839110509 0 -667.94061839110509 1674.2072033183285 0 0 0 0 110.41318803608146 -1335.7422091905901 0 -1335.7422091905901 3274.8062271384333 0 0 0 0 367.43797943658501 -2898.3019890261785 0 -2898.3019890261785 382.59313588582881 0 0 0 0 3.7530365136496169 -7.1510498712577331 0 -7.1510498712577331 8.8393515603496269 0 0 0 0 1179.3878501638824 -1943.6830158521698 0 -1943.6830158521698 2253.9986572756534 0 0 0 0 734.17459674934696 -700.61925506673288 0 -700.61925506673288 -1011.563902314756 0 0 0 0 -1016.6253442591533 837.75083901154176 0 837.75083901154176 1490.8345825911238 0 0 0 0 1230.9046741491925 -2385.3268509999725 0 -2385.3268509999725 541.86583081508434 0 0 0 0 -452.83630839738902 -188.44162899331059 0 -188.44162899331059 5286.6464009440169 0 0 0 0 697.4977165342508 -1456.9417796088965 0 -1456.9417796088965 2523.4238008464854 0 0 0 0 -1863.6756327110661 -1818.0968597000756 0 -1818.0968597000756 4348.9541897588642 0 0 0 0 4.4055462136781545 -7.6448502347415328 0 -7.6448502347415328 10.147254084988333 0 0 0 0 -100.26722569200683 -2.7332979201819398 0 -2.7332979201819398 2252.7420360089927 0 0 0 0 176.57948474121673 -490.6999630523278 0 -490.6999630523278 1763.2772031772911 0 0 0 0 303.63538878755099 -108.98285106108051 0 -108.98285106108051 -494.41836566313577 0 0 0 0 -59.208672660428761 517.98247794307463 0 517.98247794307463 577.65690800778248 0 0 0 0 6.5234535369045084 -10.857397768335318 0 -10.857397768335318 26.371329968820973 0 0 0 0 -119.0255386137034 -14.330608573828897 0 -14.330608573828897 55.184057525046228 0 0 0 0 -107.68791227599831 381.46594824939893 0 381.46594824939893 -538.56270844062601 0 0 0 0 6.4265218773302539 -0.98670062467957109 0 -0.98670062467957109 9.1971788936349128 0 0 0 0 -19.414684094686663 374.93369098266703 0 374.93369098266703 -569.05842700923859 0 0 0 0 -15.468547033392042 4.3094078741523845 0 4.3094078741523845 49.846220708386682 0 0 0 0 3.935344524830068 -2.2171016798490797 0 -2.2171016798490797 0.79125777550260068 0 0 0 0 4.5081450029208749 18.228776096936997 0 18.228776096936997 5.3438831685083059 0 0 0 0 21.864012378935513 20.434227387922874 0 20.434227387922874 -41.300512881400209 0 0 0 0 34.443089635688011 10.308524227406451 0 10.308524227406451 -34.946444731016527 0 0 0 0 52.851991010647907 35.656196903619275 0 35.656196903619275 8.3081593599754342 0 0 0 0 1.6915716458270253 18.032292318430336 0 18.032292318430336 4.75581884705025 0 0 0 0 30.122421964547812 -0.69442972594697494 0 -0.69442972594697494 34.741850819136744 0 0 0 0 29.49671733276125 -23.633522745022674 0 -23.633522745022674 12.015477945780731 0 0 0 0 35.124687491310397 25.375344818283338 0 25.375344818283338 0.53015214056358673 0 0 0 0 9.3211161914296099 4.2745172465656651 0 4.2745172465656651 -3.2662078216526425 0 0 0 0 39.336263667788444 0.066465305913880002 0 0.066465305913880002 -31.945479936650372 0 0 0 0 3.5121837067192025 2.7469929743610848 0 2.7469929743610848 7.7259807758346994 0 0 0 0 -3.0778320448907834 -9.4287836657804291 0 -9.4287836657804291 -26.300108082366933 0 0 0 0 3.404163129406875 9.4720498700939828 0 9.4720498700939828 14.016360530455202 0 0 0 0 7.0434863323516765 6.2660987521339848 0 6.2660987521339848 24.370890491178216 0 0 0 0 1.6306114329925654 -0.71516340842263304 0 -0.71516340842263304 21.76582673235049 0 0 0 0 7.1944146255773376 5.67184344027919 0 5.67184344027919 21.27590296449489 0 0 0 0 4.8566496110200568 -0.60025231552009473 0 -0.60025231552009473 14.14842545825497 0 0 0 0 0.62712871233772205 -1.4847753263893111 0 -1.4847753263893111 1.6572814921931567 0 0 0 0 -9.8157467238452227 -11.894842561741825 0 -11.894842561741825 -5.6496179682435468 0 0 0 0 0.30251510061315656 4.7653278262898624 0 4.7653278262898624 8.6128161932794853 0 0 0 0 10.708435885514064 2.7032150519735296 0 2.7032150519735296 51.857543982601783 0 0 0 0 -0.91575463687695446 1.8126482794687035 0 1.8126482794687035 58.761093382068793 0 0 0 0 -0.96640866846792051 -2.5543606140927295 0 -2.5543606140927295 25.821398719483113 0 0 0 0 2.8418217118273095 -4.7600480457469061 0 -4.7600480457469061 8.8437886149910412 0 0 0 0 -2.1906153155077845 -4.6790063812077278 0 -4.6790063812077278 27.393325768745854 0 0 0 0 -2.1752765944079329 -6.5945756884357252 0 -6.5945756884357252 19.965086434720433 0 0 0 0 0.15433183974192843 -17.491862995388828 0 -17.491862995388828 9.0501474872580729 0 0 0 0 -3.4969985532570718 -49.829549686808605 0 -49.829549686808605 -3.2321587492333492 0 0 0 0 42.394500062166117 -29.134873599366983 0 -29.134873599366983 -23.634627638333768 0 0 0 0 3.406404140178438 -3.4977624435159669 0 -3.4977624435159669 3.1673192990620009 0 0 0 0 4.4159256660445259 -4.1517041947681648 0 -4.1517041947681648 5.6560082312346367 0 0 0 0 -30.18179302596036 2.863013017726189 0 2.863013017726189 1.9035341857816093 0 0 0 0 -2.0899251100236143 3.1420532053743955 0 3.1420532053743955 -79.173691441268602 0 0 0 0 10.050404163071562 -45.391988914542708 0 -45.391988914542708 50.364745923565351 0 0 0 0 -0.065683353455824545 7.4118646353454096 0 7.4118646353454096 46.608310870586138 0 0 0 0 37.406703223054137 -21.588882969812403 0 -21.588882969812403 62.996544225465186 0 0 0 0 11.275744166385266 6.2139191951937391 0 6.2139191951937391 55.738399637864859 0 0 0 0 4.5854037364870237 -44.315761741407186 0 -44.315761741407186 163.68997738192411 0 0 0 0 -4.9803589513503539 -32.192610419173434 0 -32.192610419173434 174.67610684452666 0 0 0 0 0.4294152827023936 -3.3885336267267121 0 -3.3885336267267121 -4.7110493466898333 0 0 0 0 -44.885427906957489 -63.315601408564362 0 -63.315601408564362 104.98613852119888 0 0 0 0 1.1988550328535066 -5.4593096892888866 0 -5.4593096892888866 3.8968016925374798 0 0 0 0 2.9511336256323961 -4.0126236570785352 0 -4.0126236570785352 0.73664266073348017 0 0 0 0 -30.973776539565733 59.89800517383992 0 59.89800517383992 51.821535319199029 0 0 0 0 1.675301114171134 -29.399162753201381 0 -29.399162753201381 147.20939015457407 0 0 0 0 -16.501163541925052 18.711947888281429 0 18.711947888281429 171.69549349542285 0 0 0 0 -8.0351080932086916 -77.623104701531702 0 -77.623104701531702 285.09739632990386 0 0 0 0 -51.309138326457287 -19.742396732308407 0 -19.742396732308407 440.2342857922049 0 0 0 0 114.09507522093918 -172.57758383157488 0 -172.57758383157488 351.59257406483812 0 0 0 0 30.813213509801244 -211.82355339061905 0 -211.82355339061905 790.94945209118305 0 0 0 0 137.11978518123396 -68.00289333393448 0 -68.00289333393448 387.66116103497916 0 0 0 0 57.041114009909506 151.02092047112819 0 151.02092047112819 3.5622857932758052 0 0 0 0 145.72089339414379 -312.30545929988148 0 -312.30545929988148 673.72530219997861 0 0 0 0 0.024554579099969942 -0.23810193538840707 0 -0.23810193538840707 1.0205916384369402 0 0 0 0 79.448685897008545 -63.44946735692065 0 -63.44946735692065 207.86827116877976 0 0 0 0 104.85620335648855 -153.25535648459481 0 -153.25535648459481 259.39714166831982 0 0 0 0 3.2142926823798916 -106.67805975376541 0 -106.67805975376541 313.50122992014803 0 0 0 0 2.1363432518788841 -93.271978945108003 0 -93.271978945108003 262.42975205046241 0 0 0 0 8.8084969499395811 -115.91537388875804 0 -115.91537388875804 272.60703939911036 0 0 0 0 41.205643925410186 -97.233148488012375 0 -97.233148488012375 210.82213145008427 0 0 0 0 61.678572709271975 -86.608486547062057 0 -86.608486547062057 214.16675101799774 0 0 0 0 49.965882482255438 -101.6789703542272 0 -101.6789703542272 226.13055300651467 0 0 0 0 0.90703668500782442 -106.06712381206671 0 -106.06712381206671 265.74396877518302 0 0 0 0 37.090520444163303 -46.132924686758088 0 -46.132924686758088 182.42371816861123 0 0 0 0 133.68227185164596 -141.53534727261649 0 -141.53534727261649 242.70551794962012 0 0 0 0 37.581171830544918 -7.7312704648684303 0 -7.7312704648684303 168.03372830538501 0 0 0 0 22.909958456656568 -21.548509394597204 0 -21.548509394597204 119.77344827323395 0 0 0 0 56.278423790937268 27.788092492854048 0 27.788092492854048 59.357300460389524 0 0 0 0 73.322317620619287 -69.404938262494397 0 -69.404938262494397 144.39689584696316 0 0 0 0 98.700158318691138 -15.201861344899953 0 -15.201861344899953 75.436553125051432 0 0 0 0 81.305935187279644 -68.900098465223721 0 -68.900098465223721 142.5591874264428 0 0 0 0 105.5531845073499 -98.514187135917382 0 -98.514187135917382 91.895705654445919 0 0 0 0 124.94744174078369 16.241637454153533 0 16.241637454153533 167.4226616294618 0 0 0 0 91.32554075451344 -101.66509292122464 0 -101.66509292122464 210.28522119085392 0 0 0 0 1.7665100526956046 -0.45255853346030506 0 -0.45255853346030506 0.29679865770724945 0 0 0 0 4.4269691506851814 -25.643654810846783 0 -25.643654810846783 262.74279843474596 0 0 0 0 -7.8786245632250029 -55.809746943263235 0 -55.809746943263235 417.6615297039898 0 0 0 0 17.619201617896579 1.9992790365431574 0 1.9992790365431574 136.12359530929461 0 0 0 0 46.711297559731975 -6.7950104992996785 0 -6.7950104992996785 92.353188934343052 0 0 0 0 60.109119659077351 -93.428332004828917 0 -93.428332004828917 75.490781343498384 0 0 0 0 3.2458955225453394 -1.725831723800539 0 -1.725831723800539 0.98879314900253945 0 0 0 0 -56.822130106706027 -3.4086792573270941 0 -3.4086792573270941 137.49794953380842 0 0 0 0 85.59348755457404 -27.828065277171845 0 -27.828065277171845 -86.136223212291952 0 0 0 0 -5.9441600118634597 -41.433184640647596 0 -41.433184640647596 149.25857658949099 0 0 0 0 4.7719280339770194 -57.185086575198511 0 -57.185086575198511 168.39051355106858 0 0 0 0 -0.56275064413603104 -102.82674825685172 0 -102.82674825685172 112.68196398085638 0 0 0 0 3.1585474284579504 -19.032560885691964 0 -19.032560885691964 85.210192392289173 0 0 0 0 16.717293151308695 -47.790246121327073 0 -47.790246121327073 144.19229074770556 0 0 0 0 65.70570999654592 -27.927123113611742 0 -27.927123113611742 139.84088536112904 0 0 0 0 66.349157346553056 -41.88144473470129 0 -41.88144473470129 193.42878824483341 0 0 0 0 97.433491128090282 -19.229796944560803 0 -19.229796944560803 51.592588828323642 0 0 0 0 103.68730317593463 -49.542496091717112 0 -49.542496091717112 159.29063538726768 0 0 0 0 140.92346167685719 2.7909954660462972 0 2.7909954660462972 141.17309355337329 0 0 0 0 121.49635361534274 125.76851043275019 0 125.76851043275019 383.71077656853595 0 0 0 0 91.626765326364875 53.123089643209823 0 53.123089643209823 199.70163393191001 0 0 0 0 101.45800518907822 57.397433305832237 0 57.397433305832237 170.78348489225027 0 0 0 0 167.61698168435032 140.99241209954926 0 140.99241209954926 111.15114224227 0 0 0 0 129.61447176315778 155.73765417945469 0 155.73765417945469 131.4984411735204 0 0 0 0 155.57705519851515 116.96048142320069 0 116.96048142320069 179.70979229346995 0 0 0 0 77.557206081275126 85.832250817409658 0 85.832250817409658 166.16069629542471 0 0 0 0 160.58483724552843 122.61560075680609 0 122.61560075680609 127.6909142214954 0 0 0 0 7.382258857245839 -13.860089866200141 0 -13.860089866200141 -4.4603141160677922 0 0 0 0 176.18515791127902 127.91216153520509 0 127.91216153520509 123.80229406841681 0 0 0 0 -148.49959902735736 -109.68539556935957 0 -109.68539556935957 252.85263697784558 0 0 0 0 -154.4072990330942 -140.66231096962565 0 -140.66231096962565 152.6942333825682 0 0 0 0 -4.7464575725425675 -11.3020691228121 0 -11.3020691228121 28.734288294930593 0 0 0 0 4.1534270424535258 -12.955177974675969 0 -12.955177974675969 33.220632627676132 0 0 0 0 155.85669421019338 170.22366454320218 0 170.22366454320218 233.5892787676712 0 0 0 0 37.725200699882407 67.69130015988776 0 67.69130015988776 315.56168767558847 0 0 0 0 -0.75248172702923988 -21.615132686490547 0 -21.615132686490547 65.372930801536896 0 0 0 0 257.38540951820141 108.81596475587139 0 108.81596475587139 142.04211165163724 0 0 0 0 497.34718259282272 346.69805663090665 0 346.69805663090665 273.00854459530092 0 0 0 0 -1.4990560751213566 -3.9734189712443566 0 -3.9734189712443566 4.0407018484759192 0 0 0 0 -1.4325928545806903 -0.53185329198296927 0 -0.53185329198296927 7.5845463449109474 0 0 0 0 -18.513264325101773 52.659035965549265 0 52.659035965549265 116.32820207977784 0 0 0 0 1.6279930630544115 -9.5357534048002961 0 -9.5357534048002961 46.425157883777359 0 0 0 0 88.770573519996105 -114.63408210403577 0 -114.63408210403577 110.86336011681124 0 0 0 0 2.0978391240041674 1.1939237250917358 0 1.1939237250917358 72.249468264759344 0 0 0 0 -6.1294605581537525 15.139219380281201 0 15.139219380281201 19.380588294764209 0 0 0 0 130.21215460329586 -23.774106625467539 0 -23.774106625467539 48.445258305680909 0 0 0 0 -103.00857489233931 -45.436653836082769 0 -45.436653836082769 83.683535590077554 0 0 0 0 -85.524287177047881 7.8710501605255558 0 7.8710501605255558 239.88712335774835 0 0 0 0 -45.907970899131215 45.398364926080831 0 45.398364926080831 152.14604325447544 0 0 0 0 5.6886715769469447 21.994248888109723 0 21.994248888109723 91.261530897187185 0 0 0 0 67.464807264021147 138.90047788411175 0 138.90047788411175 124.29661378785386 0 0 0 0 47.45723087263832 78.431665475305635 0 78.431665475305635 102.5163370975788 0 0 0 0 55.515814312047951 112.7267852577279 0 112.7267852577279 134.84812676903493 0 0 0 0 65.380145144199787 110.04147809433562 0 110.04147809433562 122.39439280246734 0 0 0 0 90.331114328646436 114.1254830237267 0 114.1254830237267 117.38927780960512 0 0 0 0 72.306216676647409 151.1925856226926 0 151.1925856226926 135.27496031843475 0 0 0 0 128.9110314532918 146.0465873864523 0 146.0465873864523 98.067732323848759 0 0 0 0 114.38508072508921 123.06511757209955 0 123.06511757209955 90.415614379184262 0 0 0 0 193.73033401570865 149.97152131426265 0 149.97152131426265 45.876072403305443 0 0 0 0 173.61614482525692 162.93468792983913 0 162.93468792983913 64.539608853665413 0 0 0 0 186.00336191747556 208.03945952989307 0 208.03945952989307 98.60165178088937 0 0 0 0 136.71806041153468 164.8872594354616 0 164.8872594354616 70.719662985720788 0 0 0 0 58.371844887533371 120.66757459983637 0 120.66757459983637 45.32989154929237 0 0 0 0 199.3448735670072 155.03784483149866 0 155.03784483149866 -52.759317314921645 0 0 0 0 240.02763489272911 139.41797359795601 0 139.41797359795601 47.264826030874246 0 0 0 0 103.86904194563249 31.246310934475332 0 31.246310934475332 79.268661963782506 0 0 0 0 450.58828536283545 25.194676613187767 0 25.194676613187767 27.421601091977209 0 0 0 0 167.07775122691964 157.81484335219284 0 157.81484335219284 99.222763656129246 0 0 0 0 356.06654254654677 279.07347295134241 0 279.07347295134241 165.43349405381014 0 0 0 0 185.03206419033086 166.26062051123881 0 166.26062051123881 346.89892864518333 0 0 0 0 68.239071938454799 190.51045559150953 0 190.51045559150953 190.38917656996637 0 0 0 0 172.66936087612521 216.81098652861692 0 216.81098652861692 187.87342591457127 0 0 0 0 295.30913293917547 76.019119443903037 0 76.019119443903037 -21.288013889490685 0 0 0 0 193.41923237007404 201.57684266088791 0 201.57684266088791 51.80655200748879 0 0 0 0 -38.803685768534706 193.17178567875089 0 193.17178567875089 251.85139598583919 0 0 0 0 507.08298277802533 373.17050957862375 0 373.17050957862375 292.54827399398346 0 0 0 0 520.38904210085093 95.970241566617915 0 95.970241566617915 237.91111571934744 0 0 0 0 200.59962704563804 157.9566377856172 0 157.9566377856172 287.62995263883204 0 0 0 0 316.77144166173184 9.3558694482107967 0 9.3558694482107967 91.779387910166406 0 0 0 0 260.8543787700437 147.01141623207513 0 147.01141623207513 329.43519696239855 0 0 0 0 -2.7544298618582879 3.6812102333711891 0 3.6812102333711891 2.4231913573472355 0 0 0 0 -73.204028266102796 119.18017293967205 0 119.18017293967205 240.54112159035139 0 0 0 0 1.5445285844625687 11.578364826303186 0 11.578364826303186 34.787777254146931 0 0 0 0 35.658805507586294 62.669556957649547 0 62.669556957649547 98.109487361078209 0 0 0 0 186.21332973272592 -45.499991696035977 0 -45.499991696035977 44.019046060042456 0 0 0 0 0.40213873675767253 0.22213356817297836 0 0.22213356817297836 -1.4850467677516122 0 0 0 0 11.878044374306228 -9.233523750135646 0 -9.233523750135646 107.95803120980827 0 0 0 0 79.471223786908695 14.284446984965598 0 14.284446984965598 110.21427383424452 0 0 0 0 -13.559272375057844 29.543822739952702 0 29.543822739952702 58.714855462865671 0 0 0 0 16.674075748755513 -12.041252607450588 0 -12.041252607450588 35.486676497210283 0 0 0 0 -25.287089283177295 5.9980813177753589 0 5.9980813177753589 52.906294335240091 0 0 0 0 -96.77011860789662 10.077490339619544 0 10.077490339619544 78.499540672495641 0 0 0 0 -0.69530141022863678 -2.1885656107454388 0 -2.1885656107454388 40.632617101331334 0 0 0 0 -0.93187499485240965 -3.2469575287994132 0 -3.2469575287994132 43.907836200203946 0 0 0 0 -25.821890719806106 39.96101860773706 0 39.96101860773706 51.2280580042152 0 0 0 0 11.72217868004509 -16.384178925069136 0 -16.384178925069136 42.265573449942167 0 0 0 0 -15.63106703886524 -7.7145547206619085 0 -7.7145547206619085 53.549226044793613 0 0 0 0 -0.84188302277974048 -0.98376022902996851 0 -0.98376022902996851 49.865512891634722 0 0 0 0 -5.5780987380057923 -17.579725861567567 0 -17.579725861567567 45.667130710988204 0 0 0 0 -0.54207837014163496 -10.001115922210079 0 -10.001115922210079 53.494272796697373 0 0 0 0 34.103604985903758 37.062283557514547 0 37.062283557514547 110.62857913364132 0 0 0 0 -1.0954112125197792 -4.5719276841615049 0 -4.5719276841615049 0.92375502762189399 0 0 0 0 58.739258183995844 83.743178446369711 0 83.743178446369711 103.92261857748599 0 0 0 0 53.199719586402807 97.394100977211565 0 97.394100977211565 120.36507749091834 0 0 0 0 67.186906678645755 88.951459841962787 0 88.951459841962787 67.017427583359677 0 0 0 0 46.948207367021951 129.84248883914552 0 129.84248883914552 119.09224518558767 0 0 0 0 9.9150315792112451 -26.420990103022632 0 -26.420990103022632 75.456610438784992 0 0 0 0 21.527440897767065 -17.209706498357264 0 -17.209706498357264 62.560544439360456 0 0 0 0 11.612188275276367 -13.722980357008055 0 -13.722980357008055 56.812441340545774 0 0 0 0 6.6247193111548768 -11.912451735879586 0 -11.912451735879586 61.177403737223358 0 0 0 0 12.496259161329704 -20.013304641533978 0 -20.013304641533978 63.383952281998063 0 0 0 0 1.9537500889189232 -13.408116736951342 0 -13.408116736951342 60.861538796147215 0 0 0 0 6.8592786245840855 -14.772356073900994 0 -14.772356073900994 56.366837160487194 0 0 0 0 2.1865787827982786 -8.3623038475961948 0 -8.3623038475961948 51.503931004866899 0 0 0 0 -4.2992365800487278 -5.9787204086860584 0 -5.9787204086860584 51.821426405058446 0 0 0 0 6.6854123085129835 -6.7543693952809463 0 -6.7543693952809463 49.522858991404064 0 0 0 0 -1.1699615540248292 -3.4815643076435059 0 -3.4815643076435059 48.707455144852219 0 0 0 0 2.7837019695466552 -8.993621752873878 0 -8.993621752873878 48.556965010007843 0 0 0 0 0.78298724198293712 -2.7554153950986802 0 -2.7554153950986802 47.292848497880186 0 0 0 0 1.748863644884068 -8.9940387222777645 0 -8.9940387222777645 61.709105649344565 0 0 0 0 -14.75107889312676 -37.28222595652187 0 -37.28222595652187 59.35331347581814 0 0 0 0 -3.24415808332407 -7.4422571779623041 0 -7.4422571779623041 28.783335101647534 0 0 0 0 -2.1346525096982987 -6.8354673784597253 0 -6.8354673784597253 82.755135587329278 0 0 0 0 -8.8649510944817393 -2.7551001386746066 0 -2.7551001386746066 75.215789638277784 0 0 0 0 -2.4972936350167743 -26.139872087403802 0 -26.139872087403802 42.238882866729369 0 0 0 0 -3.3146735457840673 -13.17377327401201 0 -13.17377327401201 92.238680793469797 0 0 0 0 -4.1078261599127472 -23.681357637509791 0 -23.681357637509791 62.461249806685373 0 0 0 0 -56.612003120976624 15.494464091563714 0 15.494464091563714 568.92874220805243 0 0 0 0 19.251644573622116 4.7499206313123068 0 4.7499206313123068 35.009368380051455 0 0 0 0 -0.45355296240215881 -0.67600456674355414 0 -0.67600456674355414 46.671428195323472 0 0 0 0 -9.5596439914008897 3.4697504949181166 0 3.4697504949181166 62.40142848900723 0 0 0 0 -26.530791826057794 10.708566920249723 0 10.708566920249723 51.499874895162066 0 0 0 0 -4.0531838715724007 18.093367330402543 0 18.093367330402543 39.417046436686178 0 0 0 0 -70.246603105346367 -18.247830733624141 0 -18.247830733624141 49.457273933596298 0 0 0 0 -35.666147745814669 -45.909730307612335 0 -45.909730307612335 69.078656147851234 0 0 0 0 -2.7540259124300164 -0.99302922075525757 0 -0.99302922075525757 36.188543753804367 0 0 0 0 -14.266671347845204 -57.673005734205617 0 -57.673005734205617 -33.239489592189784 0 0 0 0 -118.05184050442404 28.032168230747629 0 28.032168230747629 429.80421961054708 0 0 0 0 0.95085061441618279 0.51009535246605253 0 0.51009535246605253 4.8843380926202897 0 0 0 0 34.959952716012594 -201.23687689209419 0 -201.23687689209419 716.45398975853459 0 0 0 0 25.633004308547129 -302.57157164316777 0 -302.57157164316777 169.93202581099467 0 0 0 0 -7.8054573044725046 12.631724577654381 0 12.631724577654381 17.327550103131024 0 0 0 0 -5.9542033696279759 -2.5640245626564138 0 -2.5640245626564138 46.10197685615276 0 0 0 0 70.289141155153629 -61.047223746500094 0 -61.047223746500094 485.57453203201294 0 0 0 0 -73.427468519432296 171.56680744230107 0 171.56680744230107 392.87973118988884 0 0 0 0 1.3129286386913801 3.8251003640816137 0 3.8251003640816137 -0.10751894303919585 0 0 0 0 82.716867275486948 -70.346054434816324 0 -70.346054434816324 -49.812282737933856 0 0 0 0 17.606895458360668 -62.111487981965183 0 -62.111487981965183 -18.681633291169419 0 0 0 0 1.8179642204334705 -0.82604522300341898 0 -0.82604522300341898 0.62182408793885457 0 0 0 0 20.29672849320923 14.786707916398882 0 14.786707916398882 -31.131855115861981 0 0 0 0 75.426583093219961 -91.33737775235204 0 -91.33737775235204 157.95104276422353 0 0 0 0 7.6308579870433277 -132.38768628275102 0 -132.38768628275102 105.39514546633291 0 0 0 0 139.6418898157026 -69.205212107219268 0 -69.205212107219268 -18.269389187512388 0 0 0 0 -41.950585794175822 -7.423708895148593 0 -7.423708895148593 96.012282704963582 0 0 0 0 -48.645144460524534 29.952961284347111 0 29.952961284347111 103.36061413317657 0 0 0 0 -84.268046872349487 -24.516625013809062 0 -24.516625013809062 76.103068604279542 0 0 0 0 -69.555656210042798 21.666232617695641 0 21.666232617695641 127.7044357994746 0 0 0 0 9.2164074949824144 -15.113096252599247 0 -15.113096252599247 -7.9435293922419703 0 0 0 0 -10.883334792280948 24.299676021877531 0 24.299676021877531 93.991007164098846 0 0 0 0 12.402187175692234 57.493042964888446 0 57.493042964888446 141.27946014506688 0 0 0 0 -5.7995155202464161 3.700580806138376 0 3.700580806138376 15.312608714073463 0 0 0 0 0.34349028149891092 -8.8306455386576701 0 -8.8306455386576701 56.421625336344846 0 0 0 0 82.135224362708414 -85.762107143458707 0 -85.762107143458707 65.972348709932703 0 0 0 0 -94.452232932242623 -66.276034238690045 0 -66.276034238690045 93.706948135135463 0 0 0 0 16.624732819434442 -34.0244683113579 0 -34.0244683113579 84.718732205208497 0 0 0 0 -15.163717428159998 -46.430447933278629 0 -46.430447933278629 92.58602877726662 0 0 0 0 -16.533069053135478 -23.112910297197232 0 -23.112910297197232 89.877329878101591 0 0 0 0 -35.285919895145867 -44.350941529479314 0 -44.350941529479314 95.302720882493304 0 0 0 0 -25.778763231699259 -60.194586603951393 0 -60.194586603951393 74.303896814250038 0 0 0 0 -5.3736074105285336 -20.057768765036002 0 -20.057768765036002 67.775716536991524 0 0 0 0 -46.992259020077654 -13.124935203934001 0 -13.124935203934001 19.690197649048059 0 0 0 0 49.673928596413134 5.0014240348973544 0 5.0014240348973544 17.331500089727342 0 0 0 0 2.7417960928723915 -16.383713011200598 0 -16.383713011200598 35.305488341227829 0 0 0 0 31.530884530500771 -58.369747731063399 0 -58.369747731063399 57.630473372468259 0 0 0 0 8.6867964028615461 -39.121528924035374 0 -39.121528924035374 49.815769030123192 0 0 0 0 5.8119193988704865 -41.401332125089539 0 -41.401332125089539 48.402526955782378 0 0 0 0 9.3031800084636416 -54.468886207207106 0 -54.468886207207106 64.369382336561102 0 0 0 0 2.8838610607010651 -48.482884120008748 0 -48.482884120008748 84.616246460005641 0 0 0 0 7.0231173841211785 -64.839246944509796 0 -64.839246944509796 71.888865743283532 0 0 0 0 27.630105041652314 -70.072294017067179 0 -70.072294017067179 100.08385604180512 0 0 0 0 38.72146130075339 -49.817039659905276 0 -49.817039659905276 79.003667856100947 0 0 0 0 43.327780461885823 -30.305413277157641 0 -30.305413277157641 38.93780219508335 0 0 0 0 26.7688535116813 -57.313838935333479 0 -57.313838935333479 75.916054343164433 0 0 0 0 33.442478387383744 -66.04803005309077 0 -66.04803005309077 137.13850956328497 0 0 0 0 65.521573195144356 -69.662473923868674 0 -69.662473923868674 67.106570917472709 0 0 0 0 41.457711349384681 -21.451775976736826 0 -21.451775976736826 33.21652059344342 0 0 0 0 -0.46268093737781457 -3.8776271687899895 0 -3.8776271687899895 26.072554150935559 0 0 0 0 -76.032281860344028 12.501750319985149 0 12.501750319985149 57.419532048770634 0 0 0 0 20.390594229355884 -36.796916874605813 0 -36.796916874605813 27.805165905374452 0 0 0 0 -18.766448469221359 4.8108477045752807 0 4.8108477045752807 24.901644666402717 0 0 0 0 -36.799651561075279 1.6486691835743841 0 1.6486691835743841 50.58056238455174 0 0 0 0 0.092833711742712544 -7.4168516098911086 0 -7.4168516098911086 30.490777311648628 0 0 0 0 25.361069382463938 -4.4949519632064039 0 -4.4949519632064039 11.021636728710291 0 0 0 0 22.008302151602038 -36.993147094668529 0 -36.993147094668529 40.949322858898086 0 0 0 0 12.189596961080042 -3.7864813532687549 0 -3.7864813532687549 24.549628164502792 0 0 0 0 -9.5620718698532983 -20.082704308115353 0 -20.082704308115353 12.830101689920411 0 0 0 0 -9.9589780895720992 -14.004372418810135 0 -14.004372418810135 15.25642075635551 0 0 0 0 -3.6429984673764366 0.63919615751660785 0 0.63919615751660785 6.3286277620180158 0 0 0 0 -0.067895878895779527 -14.984426170667724 0 -14.984426170667724 4.7525840604316727 0 0 0 0 -11.783018818437313 -7.3162121496716281 0 -7.3162121496716281 38.54246281900123 0 0 0 0 -2.2641909618761273 -3.7684643284950576 0 -3.7684643284950576 9.3030617030865983 0 0 0 0 -7.6978737916952014 -11.002172322238039 0 -11.002172322238039 58.863585956986526 0 0 0 0 -6.201166355894653 -14.008517577680976 0 -14.008517577680976 2.5696419048967982 0 0 0 0 -3.3203856349728085 -3.8712526398594491 0 -3.8712526398594491 38.954213835851988 0 0 0 0 16.936630839977624 3.9733968455911963 0 3.9733968455911963 55.717078248206235 0 0 0 0 2.0201381695797558 -12.741754453352627 0 -12.741754453352627 13.77329603944554 0 0 0 0 13.904093979713934 -36.605259449665027 0 -36.605259449665027 39.055239620356588 0 0 0 0 10.415493565153611 -33.178281612046703 0 -33.178281612046703 35.83280744527292 0 0 0 0 -13.928042201173866 -39.131594440252229 0 -39.131594440252229 57.091805097490578 0 0 0 0 0.77631246741702853 -30.69822410276538 0 -30.69822410276538 40.850898469172535 0 0 0 0 1.3163323353073793 -11.084651262470288 0 -11.084651262470288 51.71629931260577 0 0 0 0 -9.4264714795437925 -20.231638873319838 0 -20.231638873319838 37.068160087026484 0 0 0 0 1.4558132616152761 -7.0419387539477611 0 -7.0419387539477611 53.889614054040067 0 0 0 0 2.1131203319414524 -13.469431098577161 0 -13.469431098577161 43.230438120881445 0 0 0 0 -7.9297057044455341 -20.70945096278129 0 -20.70945096278129 44.350207327835761 0 0 0 0 -6.0667175570033578 -8.3447501678747358 0 -8.3447501678747358 74.625006953225238 0 0 0 0 0.80652833998851747 -11.473968488986429 0 -11.473968488986429 57.693251844890256 0 0 0 0 2.8600912048129885 -10.579366919919266 0 -10.579366919919266 57.976667405746412 0 0 0 0 -5.8447397536023118 -10.045735072162643 0 -10.045735072162643 80.277129025933391 0 0 0 0 -5.3321032051958355 -29.722749097338237 0 -29.722749097338237 77.149974181799735 0 0 0 0 1.4476654806132956 -22.359584484980587 0 -22.359584484980587 56.579873473834596 0 0 0 0 1.93175289582814 -18.867056247396249 0 -18.867056247396249 69.112840909547231 0 0 0 0 38.670151598152813 -16.178483786425204 0 -16.178483786425204 32.747605041906354 0 0 0 0 -45.741774580657875 -24.625213676365092 0 -24.625213676365092 40.603856318688486 0 0 0 0 121.53570985976341 -61.51754938018712 0 -61.51754938018712 -25.872801169614831 0 0 0 0 -1.0229326090285125 -0.54085337940357192 0 -0.54085337940357192 5.6654459496096905 0 0 0 0 75.658920796765585 12.134866299660644 0 12.134866299660644 -99.186807231257262 0 0 0 0 -8.2811732371576454 5.510629544427502 0 5.510629544427502 -12.11107099835499 0 0 0 0 -8.447724254596551 -27.53298400663698 0 -27.53298400663698 95.158341191221552 0 0 0 0 0.072046674847292103 -0.6472516532129049 0 -0.6472516532129049 -0.40947449671785563 0 0 0 0 -11.497411539280847 10.912983453607012 0 10.912983453607012 130.18226896654232 0 0 0 0 -8.0814965244776431 -39.921696303208591 0 -39.921696303208591 121.75535695941653 0 0 0 0 135.80375748634356 11.182376721226319 0 11.182376721226319 9.5563984358304879 0 0 0 0 -51.745425876276954 53.295260396458616 0 53.295260396458616 219.97346666299563 0 0 0 0 0.3370372167866007 1.8258786456910343 0 1.8258786456910343 5.7933343818821754 0 0 0 0 -173.79693657459006 -6.5056545963016106 0 -6.5056545963016106 436.32371177428286 0 0 0 0 -5.0645080305805603 -23.052674892641605 0 -23.052674892641605 45.322231087164937 0 0 0 0 -94.443443523628048 -89.816336527544991 0 -89.816336527544991 74.50116424675798 0 0 0 0 6.7770462113819576 -50.825475858458958 0 -50.825475858458958 28.839905972283304 0 0 0 0 -0.33828028584798631 8.1083469464283553 0 8.1083469464283553 59.590648877237982 0 0 0 0 -5.1698154658963631 17.4552147676186 0 17.4552147676186 66.984887026366778 0 0 0 0 -7.2086003859917582 13.153633249952691 0 13.153633249952691 58.999092002991574 0 0 0 0 74.262164642332209 81.743970264848031 0 81.743970264848031 73.199540985297062 0 0 0 0 6.0855094512285177 17.478394356628996 0 17.478394356628996 14.297756261512404 0 0 0 0 0.096529586058623551 0.96489500929439131 0 0.96489500929439131 3.4677955249150045 0 0 0 0 44.507813740274742 -2.9895096637919778 0 -2.9895096637919778 3.3717428590462077 0 0 0 0 131.43791636993774 -80.813625877672166 0 -80.813625877672166 71.633438980221399 0 0 0 0 48.549636668833955 -54.324830544763245 0 -54.324830544763245 -16.929792833834654 0 0 0 0 -26.52123693193542 -53.10873968946089 0 -53.10873968946089 41.717204236134421 0 0 0 0 -20.727190274886652 -23.391220399949816 0 -23.391220399949816 90.128886102451361 0 0 0 0 -21.649197153212299 20.193406093676458 0 20.193406093676458 93.471014929324156 0 0 0 0 -30.09520834984869 34.487885618684231 0 34.487885618684231 160.92242904475279 0 0 0 0 9.2482352872775309 -60.571461686655084 0 -60.571461686655084 272.8811301990645 0 0 0 0 8.879682705337018 -50.15204145671305 0 -50.15204145671305 113.86435072794848 0 0 0 0 328.23865514439422 68.249389907723526 0 68.249389907723526 -198.27554489992326 0 0 0 0 59.843005784813613 109.27261959965108 0 109.27261959965108 226.4755351337335 0 0 0 0 -5.4988878874069442 -13.156419773165908 0 -13.156419773165908 77.81005129609548 0 0 0 0 -5.026382181938053 -23.416197851882274 0 -23.416197851882274 44.557429485154898 0 0 0 0 53.361315790150456 -119.12923505385697 0 -119.12923505385697 -88.448054882705037 0 0 0 0 -62.568645879789074 -17.177008900296642 0 -17.177008900296642 40.207844666947494 0 0 0 0 42.069731994615267 54.326483022665343 0 54.326483022665343 56.610993041802431 0 0 0 0 -15.201014531228793 -8.1799054545990657 0 -8.1799054545990657 21.200619078954333 0 0 0 0 7.1608337296263471 37.834204607832362 0 37.834204607832362 56.5943971259112 0 0 0 0 -18.800841164810834 10.109655908343484 0 10.109655908343484 69.349915410362883 0 0 0 0 -0.86931101057416527 11.330361708511191 0 11.330361708511191 68.060114211170003 0 0 0 0 -52.040240531139716 29.652173520946235 0 29.652173520946235 34.793041987955803 0 0 0 0 -22.273226623588016 5.5985418424534146 0 5.5985418424534146 46.638047618449491 0 0 0 0 5.950727832982011 17.935760264736018 0 17.935760264736018 42.471002757258248 0 0 0 0 2.9736175419035473 -3.8550236400849656 0 -3.8550236400849656 -3.8164983079199146 0 0 0 0 -30.512899173450023 17.152722869650461 0 17.152722869650461 -37.619763112423243 0 0 0 0 -4.5888227453333297 -11.571962684197729 0 -11.571962684197729 33.572419027855886 0 0 0 0 -0.94698374657161821 -3.1638914793948061 0 -3.1638914793948061 36.13984124585113 0 0 0 0 0.63656083474063507 9.0605322077572055 0 9.0605322077572055 53.421161837555701 0 0 0 0 -3.3053264280781005 -0.022960612539421277 0 -0.022960612539421277 36.957043771553742 0 0 0 0 49.818420566833083 -3.7024536902317777 0 -3.7024536902317777 48.766045350115746 0 0 0 0 -5.0071045716981644 -2.1244299725585734 0 -2.1244299725585734 58.610604838468134 0 0 0 0 2.9731267165507234 5.3534084296843503 0 5.3534084296843503 58.166426187439356 0 0 0 0 0.98960783688892207 4.5291102077026153 0 4.5291102077026153 59.272610973959672 0 0 0 0 -5.2814907604579115 -10.071225423019555 0 -10.071225423019555 36.823331034696338 0 0 0 0 -44.5406818257052 -72.347980080482557 0 -72.347980080482557 96.769181195835699 0 0 0 0 6.3989631314762931 16.752465212146021 0 16.752465212146021 20.473229779848992 0 0 0 0 21.060028721697165 -72.734218660851184 0 -72.734218660851184 133.63411805531359 0 0 0 0 0.60073635705102613 0.37654583264153985 0 0.37654583264153985 0.30129573484217076 0 0 0 0 52.882637053363901 26.692600925583974 0 26.692600925583974 -44.385303670322173 0 0 0 0 -43.149320581681877 -92.125897685153177 0 -92.125897685153177 252.71521686828237 0 0 0 0 -37.282003558824087 133.18823852711648 0 133.18823852711648 232.09238234641816 0 0 0 0 -4.9151097530246872 6.731335290363802 0 6.731335290363802 31.455981972563023 0 0 0 0 -10.274995070726959 15.577941575713339 0 15.577941575713339 91.59994041812206 0 0 0 0 -0.86790442220795772 3.1340233895174094 0 3.1340233895174094 17.017321900617318 0 0 0 0 -5.8509673958351414 6.6474452233669581 0 6.6474452233669581 63.697006740936558 0 0 0 0 3.8735625923616226 -0.64481241695102653 0 -0.64481241695102653 64.661137654016784 0 0 0 0 -4.4075390776864802 13.162538419326594 0 13.162538419326594 34.608908472867995 0 0 0 0 -0.4460513541977934 -1.5575359952755434 0 -1.5575359952755434 11.073503122136664 0 0 0 0 -2.6603769413243459 5.3690464313258417 0 5.3690464313258417 63.893630388352904 0 0 0 0 0.056028673009348148 9.4529013944920735 0 9.4529013944920735 -39.667330165393651 0 0 0 0 -2.091422482593261 7.5913748220409616 0 7.5913748220409616 39.544369060080498 0 0 0 0 -1.8142957806443409 7.6755376697505255 0 7.6755376697505255 19.861817121014099 0 0 0 0 1.7714310603196988 -9.7030952074039476 0 -9.7030952074039476 17.094976509834851 0 0 0 0 12.455321165503562 -80.147365503442416 0 -80.147365503442416 -97.783091444158345 0 0 0 0 4.041998750138589 -19.053891808528988 0 -19.053891808528988 33.57594571538209 0 0 0 0 -20.489400445669645 -65.261159591504111 0 -65.261159591504111 -67.52153735646425 0 0 0 0 -0.013980402619320506 -1.9420762073029474 0 -1.9420762073029474 32.613474780577235 0 0 0 0 -11.815543723079145 0.20305044172710041 0 0.20305044172710041 80.799207254553039 0 0 0 0 -15.337328058349158 -7.8430452200700529 0 -7.8430452200700529 63.143178514534156 0 0 0 0 -37.532413266361687 -131.75703533018532 0 -131.75703533018532 -100.08249449968571 0 0 0 0 4.257713388157276 -19.562871633090467 0 -19.562871633090467 30.643501246015774 0 0 0 0 -41.770104233384529 -70.519618906546384 0 -70.519618906546384 -58.206706723452953 0 0 0 0 0.12645327261206826 -77.229152269559563 0 -77.229152269559563 -34.854937309944944 0 0 0 0 53.226668607194682 -95.76456821836473 0 -95.76456821836473 -72.76683623236022 0 0 0 0 -28.627437228885015 -97.336743942127214 0 -97.336743942127214 -60.475559800404881 0 0 0 0 -33.465515276510359 -112.21773195939022 0 -112.21773195939022 -103.79571756555379 0 0 0 0 -8.2344965717952476 -130.42416848158791 0 -130.42416848158791 -99.225864621228538 0 0 0 0 2.7287849282892296 -19.824579260885585 0 -19.824579260885585 28.814170462234273 0 0 0 0 -162.4760924230003 -114.58696612805943 0 -114.58696612805943 -6.4225703326519579 0 0 0 0 -81.011187310957894 -161.62521364459826 0 -161.62521364459826 -106.8349717076635 0 0 0 0 6.4109349607888362 -61.653846278968558 0 -61.653846278968558 -13.92980023711425 0 0 0 0 11.2414909099044 -20.956730385466926 0 -20.956730385466926 -6.1755698531051166 0 0 0 0 -0.67303360639850629 -1.4745075174889735 0 -1.4745075174889735 11.007047775587207 0 0 0 0 -132.38042933342513 -227.29172366707644 0 -227.29172366707644 -190.80855345592499 0 0 0 0 -6.95135536181715 -13.652292759667034 0 -13.652292759667034 1.0979207573109306 0 0 0 0 -4.2806718808118855 -12.167272813101818 0 -12.167272813101818 24.452579832137921 0 0 0 0 -5.0515916352992463 -13.673726199158409 0 -13.673726199158409 12.53937261068495 0 0 0 0 1.5932458931336804 -12.498736061945209 0 -12.498736061945209 18.477265748262369 0 0 0 0 -107.95153693251996 -87.608119566371897 0 -87.608119566371897 -43.511459519970231 0 0 0 0 -102.97338620911232 -162.64760719943024 0 -162.64760719943024 -91.707922128494829 0 0 0 0 -181.54269932491979 -204.15823939618713 0 -204.15823939618713 -35.98852561035892 0 0 0 0 -113.22782992243378 -189.8732165939291 0 -189.8732165939291 -79.109810125926742 0 0 0 0 -226.18768768940231 -101.03901356484857 0 -101.03901356484857 -45.000082894457591 0 0 0 0 -15.142943859583852 -122.83599616961874 0 -122.83599616961874 -119.22914559941637 0 0 0 0 -140.9355093099789 -168.51038906973554 0 -168.51038906973554 -58.761802722641733 0 0 0 0 -122.95363778515514 -141.5384248061373 0 -141.5384248061373 -45.664117985958001 0 0 0 0 -98.959261122368389 -203.49200320709497 0 -203.49200320709497 0.57219590789463837 0 0 0 0 48.019216115168035 -166.26187366141676 0 -166.26187366141676 -74.908823453923105 0 0 0 0 -384.17137732869082 -190.83499007929549 0 -190.83499007929549 18.48652679665247 0 0 0 0 -131.48733068897923 -155.91727556555998 0 -155.91727556555998 -54.029436086006172 0 0 0 0 -245.84066611083972 -264.62999479282735 0 -264.62999479282735 -61.215489546855679 0 0 0 0 -872.78622526040783 -174.15771347353484 0 -174.15771347353484 242.91660633744323 0 0 0 0 -88.577251840545841 -183.81618639510998 0 -183.81618639510998 -124.96306652144995 0 0 0 0 -208.14727806899526 8.2180213244610059 0 8.2180213244610059 296.23844776683836 0 0 0 0 -86.818439134069877 -86.843491547449958 0 -86.843491547449958 17.094414061382849 0 0 0 0 138.72607996409562 118.10775305543939 0 118.10775305543939 314.00528799928725 0 0 0 0 288.62359763652478 -218.18571599893039 0 -218.18571599893039 2.7763310645823367 0 0 0 0 101.38832323897523 6.2042904669142445 0 6.2042904669142445 48.923101111970027 0 0 0 0 85.756379938596339 125.2786221694987 0 125.2786221694987 243.00002249590034 0 0 0 0 10.403926253861854 -23.11601397323102 0 -23.11601397323102 126.6056215922581 0 0 0 0 45.175066105550812 -35.718922998669882 0 -35.718922998669882 80.057938155456213 0 0 0 0 67.121157581104171 -67.336278557704645 0 -67.336278557704645 343.76081243488261 0 0 0 0 -33.368966615566478 -1.8642513503873488 0 -1.8642513503873488 225.46814910965622 0 0 0 0 0.60836916392645435 29.619794258800539 0 29.619794258800539 254.05231911549345 0 0 0 0 0.92397046254995985 131.39723208753276 0 131.39723208753276 133.20989438741526 0 0 0 0 -46.59094485561252 79.765364107228379 0 79.765364107228379 80.724959928658791 0 0 0 0 19.79492105298209 75.001673172824667 0 75.001673172824667 197.01164071416133 0 0 0 0 15.455560195313183 144.32085963949794 0 144.32085963949794 312.69622309925035 0 0 0 0 47.743087173601111 174.961847521452 0 174.961847521452 251.36210583282809 0 0 0 0 0.11688195627978101 110.81204628219712 0 110.81204628219712 211.90978742757579 0 0 0 0 25.437011956630329 38.676922879982158 0 38.676922879982158 415.14054645219585 0 0 0 0 65.540978420653346 68.080964333756128 0 68.080964333756128 308.05684558048961 0 0 0 0 89.51024560769909 186.49539716806612 0 186.49539716806612 79.887851603212766 0 0 0 0 325.10938667606547 -221.39065938552085 0 -221.39065938552085 547.55385525198653 0 0 0 0 5.3445149293771124 191.27206788260082 0 191.27206788260082 509.3967480774736 0 0 0 0 -50.334964617034416 -38.921685629655258 0 -38.921685629655258 680.16842791625095 0 0 0 0 119.8278460157037 -298.03007386087847 0 -298.03007386087847 488.51679788280308 0 0 0 0 -0.10104577344011173 1.2570910519096827 0 1.2570910519096827 3.4851915357790517 0 0 0 0 -136.50899707182145 224.53685188337113 0 224.53685188337113 159.91938957826642 0 0 0 0 -0.098246994761018808 63.049199441578821 0 63.049199441578821 -169.37087393763795 0 0 0 0 37.589720738131973 -34.031596013090166 0 -34.031596013090166 129.94534951678361 0 0 0 0 183.81433852460975 -188.14185391227511 0 -188.14185391227511 239.53192822023038 0 0 0 0 -24.85431532072198 -71.658963412744924 0 -71.658963412744924 152.39512755244505 0 0 0 0 -118.71150152875498 55.991591565776616 0 55.991591565776616 179.5417425046835 0 0 0 0 -198.64574992379971 32.622977607010398 0 32.622977607010398 130.55034874039848 0 0 0 0 -125.36349883875937 50.924266972378973 0 50.924266972378973 96.722790894200443 0 0 0 0 -272.1861873817943 260.66827548892616 0 260.66827548892616 9.5841490693419473 0 0 0 0 6.0767174468213208 21.684063847999184 0 21.684063847999184 69.526677048700606 0 0 0 0 -150.46492950246466 22.898251552906004 0 22.898251552906004 21.07061904083821 0 0 0 0 -62.532154477146833 116.34709875975022 0 116.34709875975022 -5.7840609375271015 0 0 0 0 -71.224149855785072 93.000182144503924 0 93.000182144503924 38.061891911260318 0 0 0 0 2.5218024021321774 17.40581121965711 0 17.40581121965711 74.87141645501373 0 0 0 0 -283.58525692075636 52.878618879738497 0 52.878618879738497 279.65380737266969 0 0 0 0 152.52102824598296 177.57669946795795 0 177.57669946795795 -507.31912939692847 0 0 0 0 -116.67688273582462 -56.898535597196314 0 -56.898535597196314 360.30689497271669 0 0 0 0 15.418949199186955 -73.99271831860824 0 -73.99271831860824 110.59193725546356 0 0 0 0 7.1290948482965177 -6.5018353350442339 0 -6.5018353350442339 -172.89106980513316 0 0 0 0 -145.30616903566261 -168.00621344329556 0 -168.00621344329556 653.55354120190896 0 0 0 0 -33.761276251418167 -372.74885296120192 0 -372.74885296120192 221.0276311453199 0 0 0 0 -42.191760084604539 -418.69157513036771 0 -418.69157513036771 596.12125657766592 0 0 0 0 -302.60165077013517 -299.60664072057989 0 -299.60664072057989 1723.7992884647101 0 0 0 0 251.63682707548287 -745.537106940581 0 -745.537106940581 -375.50487329650787 0 0 0 0 -331.25729020186918 -42.80326829409023 0 -42.80326829409023 638.57941055530682 0 0 0 0 -90.506412613155589 -18.708313244387682 0 -18.708313244387682 59.505308094026987 0 0 0 0 -100.01664110118872 -2.6175100657856092 0 -2.6175100657856092 54.992701646406204 0 0 0 0 -91.263990341267345 -15.533346264499414 0 -15.533346264499414 47.188397103513125 0 0 0 0 -119.11214837850275 -36.021953484683763 0 -36.021953484683763 102.07401857554214 0 0 0 0 -107.94687707695812 -41.563462609075941 0 -41.563462609075941 44.491311932622921 0 0 0 0 -132.66666389238526 -8.1014584850927349 0 -8.1014584850927349 540.25572496754467 0 0 0 0 -125.51362693619285 -68.796813400003884 0 -68.796813400003884 413.03771047818009 0 0 0 0 -202.34863154863797 132.38784264450078 0 132.38784264450078 18.467971044359729 0 0 0 0 -201.07048826858954 152.90701734184404 0 152.90701734184404 84.262958241670276 0 0 0 0 -42.755850038362269 60.432513673891663 0 60.432513673891663 109.7504911130527 0 0 0 0 -110.4389290773679 66.338957329935511 0 66.338957329935511 -8.1918831940274686 0 0 0 0 -121.08116269261927 35.711090897995746 0 35.711090897995746 126.99373990233289 0 0 0 0 -118.73170538692557 104.93915606284281 0 104.93915606284281 64.522929606391699 0 0 0 0 -208.56724548360353 94.016156352736289 0 94.016156352736289 114.25474129855866 0 0 0 0 -121.708649346287 43.651267964687122 0 43.651267964687122 129.88384419644717 0 0 0 0 -73.097210651132627 125.43740916668321 0 125.43740916668321 103.96364947658003 0 0 0 0 -102.13371747510337 152.66947849807912 0 152.66947849807912 -25.660929765552282 0 0 0 0 -137.15079362376309 47.020482099855144 0 47.020482099855144 10.872538732917747 0 0 0 0 -46.329021797126188 115.28173825445992 0 115.28173825445992 -17.422611155168852 0 0 0 0 -333.50636804864598 64.866916471713921 0 64.866916471713921 35.583141813840484 0 0 0 0 -3.5012426196274267 11.40689335274871 0 11.40689335274871 9.3871546847627201 0 0 0 0 -24.986960765925232 97.981440118775936 0 97.981440118775936 37.842589810767095 0 0 0 0 -5.9721272156293255 -10.15896411488572 0 -10.15896411488572 8.7094353378217306 0 0 0 0 -104.87372883702574 67.36531944674789 0 67.36531944674789 28.951530324695341 0 0 0 0 -29.177837283618373 133.0659753898799 0 133.0659753898799 41.958545774512459 0 0 0 0 -78.425299773303095 162.97934154672839 0 162.97934154672839 23.789890189073049 0 0 0 0 -36.401893653461229 -20.151445774485182 0 -20.151445774485182 0.94185160426422954 0 0 0 0 -44.319922153789776 -34.679555241506023 0 -34.679555241506023 3.0393617243098561 0 0 0 0 -59.280673404617119 -21.720547478296794 0 -21.720547478296794 8.5084560093964683 0 0 0 0 -74.438732305345184 -21.495701775536872 0 -21.495701775536872 8.5472794243250974 0 0 0 0 -94.329257507146394 -3.9981034713418921 0 -3.9981034713418921 16.319862473290414 0 0 0 0 -67.587793346059698 -1.4194002594304038 0 -1.4194002594304038 16.563194215064868 0 0 0 0 -47.966872681616223 -16.020866369392024 0 -16.020866369392024 4.0627103779115714 0 0 0 0 -37.783377335865225 -6.0135693397605792 0 -6.0135693397605792 -4.1489999728364637 0 0 0 0 -138.16025914218335 81.343585376715055 0 81.343585376715055 -11.508338855113834 0 0 0 0 -52.515757796652906 11.488153131125728 0 11.488153131125728 -14.021268322190735 0 0 0 0 -74.744335758266971 19.599810495390557 0 19.599810495390557 -1.7687106338271406 0 0 0 0 -66.164898016788356 6.1801470448554028 0 6.1801470448554028 5.7952765105001163 0 0 0 0 -98.49658546486171 -7.208106849793694 0 -7.208106849793694 68.851866210752632 0 0 0 0 -114.36217633157503 27.867486265153275 0 27.867486265153275 44.111238621961093 0 0 0 0 -69.461028802295914 19.485901362728328 0 19.485901362728328 -3.4021571328339633 0 0 0 0 -141.37223030165478 59.311811632927856 0 59.311811632927856 15.865647913480643 0 0 0 0 -107.83865948795574 69.204258407611633 0 69.204258407611633 -44.207651853212155 0 0 0 0 -69.931549519693363 35.423133043135749 0 35.423133043135749 -14.800710456620436 0 0 0 0 -49.323716370436159 -2.1836715432291385 0 -2.1836715432291385 -35.831310349516571 0 0 0 0 -64.975969442239148 35.969133550242987 0 35.969133550242987 -57.253111658123089 0 0 0 0 -52.344570717195438 -21.319689876885604 0 -21.319689876885604 36.286744576646015 0 0 0 0 -48.208481039820072 -6.1664467939335736 0 -6.1664467939335736 -1.9462557300576009 0 0 0 0 -30.721843061848631 -3.0166285181185231 0 -3.0166285181185231 -2.3885773294023238 0 0 0 0 -26.283920091285836 -11.29572575975908 0 -11.29572575975908 4.4826871847471921 0 0 0 0 -25.997152076415659 -29.795567290968393 0 -29.795567290968393 21.778963595861569 0 0 0 0 -4.4980585750308819 -46.574932649236871 0 -46.574932649236871 49.196186330649653 0 0 0 0 -0.27394340630416991 -9.9422671190113761 0 -9.9422671190113761 61.565868946025148 0 0 0 0 -11.956083443423267 -12.716057156067109 0 -12.716057156067109 36.394702751815203 0 0 0 0 -16.214773090232484 -39.614581920352066 0 -39.614581920352066 35.036266028240789 0 0 0 0 -16.074562912446709 -41.230518829517678 0 -41.230518829517678 3.9914584201178513 0 0 0 0 -60.808611776908947 -29.29651787954208 0 -29.29651787954208 23.664188639668282 0 0 0 0 -6.4936685330560726 -0.70811848198175653 0 -0.70811848198175653 67.046500258792207 0 0 0 0 37.479340898593364 -76.521782132302178 0 -76.521782132302178 99.595078125217697 0 0 0 0 -28.676302566032973 -28.78276433859719 0 -28.78276433859719 104.88964833269711 0 0 0 0 -3.5244105772591432 2.0030851397225007 0 2.0030851397225007 2.0900302239294888 0 0 0 0 -15.948527836004359 -48.927164916269248 0 -48.927164916269248 62.559460542572197 0 0 0 0 -32.539074224938304 -23.834389265350183 0 -23.834389265350183 80.439973135711625 0 0 0 0 0.64175534710456716 -2.2682679754334458 0 -2.2682679754334458 7.8035018025724696 0 0 0 0 2.6140905110723907 -46.022166290706082 0 -46.022166290706082 109.90561829635408 0 0 0 0 -18.546825577646192 -2.056690290316709 0 -2.056690290316709 19.691561044316643 0 0 0 0 -29.347746046707471 -52.407905668995227 0 -52.407905668995227 106.8526982658077 0 0 0 0 -61.760226982421955 -31.023047244598274 0 -31.023047244598274 79.74196372681763 0 0 0 0 -18.882324821025847 -7.6261474073683928 0 -7.6261474073683928 33.46359860986145 0 0 0 0 -35.339112964345077 -11.801085014398268 0 -11.801085014398268 79.820595775614493 0 0 0 0 -30.124669596341846 -31.362145962135401 0 -31.362145962135401 30.758900620654458 0 0 0 0 -5.0708534672584991 21.569500942908505 0 21.569500942908505 38.109930761654311 0 0 0 0 -7.9097795593694364 14.59673575507378 0 14.59673575507378 30.25756622181234 0 0 0 0 -10.532983695889925 8.192636308085639 0 8.192636308085639 27.929967748292256 0 0 0 0 -30.319388710395742 0.94669626771428739 0 0.94669626771428739 43.028931677690707 0 0 0 0 -3.7275244868224036 -3.9909890609851573 0 -3.9909890609851573 43.595602689078078 0 0 0 0 -29.427234831839087 5.176238259737147 0 5.176238259737147 59.632018702061032 0 0 0 0 -1.8741776552442388 6.1723226960166357 0 6.1723226960166357 62.440597595057625 0 0 0 0 4.5993244836349332 15.436967945115981 0 15.436967945115981 21.140773890382789 0 0 0 0 -45.677820549040234 -62.596947625701432 0 -62.596947625701432 128.24414871516638 0 0 0 0 79.042084028558293 48.604197695298353 0 48.604197695298353 17.33998072770919 0 0 0 0 -38.926896972770692 39.974853488762164 0 39.974853488762164 147.73053290240932 0 0 0 0 -54.783665265999389 136.68344267175416 0 136.68344267175416 76.561477979877964 0 0 0 0 7.8795639143796734 -1.9534469968784833 0 -1.9534469968784833 43.369286591405398 0 0 0 0 -3.2380131022923226 8.7415187534011807 0 8.7415187534011807 17.610147701902946 0 0 0 0 -4.9436905197225656 9.3674346976476954 0 9.3674346976476954 0.2190958576684352 0 0 0 0 -8.7215112270021109 38.313136043856503 0 38.313136043856503 -29.243112851749174 0 0 0 0 1.0811435550958208 -1.1857522411373793 0 -1.1857522411373793 -36.696987938965322 0 0 0 0 32.608336686287544 62.000658924469462 0 62.000658924469462 -101.05932657403173 0 0 0 0 27.119393283254794 74.166307594350656 0 74.166307594350656 5.8480885975295678 0 0 0 0 -36.529906527203167 51.45521812689185 0 51.45521812689185 28.875476297864225 0 0 0 0 -5.2543647589623106 112.13895556304487 0 112.13895556304487 68.131740639204509 0 0 0 0 -28.251957955701855 147.20128630993622 0 147.20128630993622 27.178980078140739 0 0 0 0 5.6678836969736039 144.06711416164762 0 144.06711416164762 12.663744647376006 0 0 0 0 3.6425262821512661 137.02415390343231 0 137.02415390343231 15.351269960345235 0 0 0 0 -6.0936575136537385 102.20614422723429 0 102.20614422723429 -16.237500176648609 0 0 0 0 58.912742037915677 111.88055634040211 0 111.88055634040211 -67.417611772718374 0 0 0 0 36.851987685559834 135.29753081913805 0 135.29753081913805 1.6212224386836169 0 0 0 0 59.400405277419168 170.3922271814954 0 170.3922271814954 -5.5016814879782032 0 0 0 0 31.618909652910133 123.95561209021253 0 123.95561209021253 -19.280319672951009 0 0 0 0 49.00557704971493 180.59575441752895 0 180.59575441752895 102.18096842442174 0 0 0 0 27.725958240165937 139.11164528164954 0 139.11164528164954 62.423539587965934 0 0 0 0 -7.7026143515931835 161.0818054114643 0 161.0818054114643 58.340788050918491 0 0 0 0 32.583310677980649 146.45098096803122 0 146.45098096803122 17.72778853069758 0 0 0 0 -42.954238805845534 135.55104100961398 0 135.55104100961398 40.043431282800157 0 0 0 0 54.809002976710872 174.85867756900552 0 174.85867756900552 36.817796315954183 0 0 0 0 60.385604775761976 119.74525276152417 0 119.74525276152417 67.316065433296899 0 0 0 0 67.322006827180672 124.14279900035035 0 124.14279900035035 88.263093658373691 0 0 0 0 54.360383116148739 65.010602664609905 0 65.010602664609905 -103.62185300682177 0 0 0 0 45.921265867556258 93.436607278927113 0 93.436607278927113 -46.101661950582638 0 0 0 0 69.374281455483157 148.67443747034122 0 148.67443747034122 -55.514646169787738 0 0 0 0 46.706018045197425 124.24871598964091 0 124.24871598964091 -294.19656808156287 0 0 0 0 52.152752833990057 69.409407204899708 0 69.409407204899708 -42.291481201827992 0 0 0 0 47.341270612490405 175.1919352132827 0 175.1919352132827 -63.519568785675801 0 0 0 0 -127.7886823475344 123.63843110279413 0 123.63843110279413 -52.200929867140076 0 0 0 0 0.85845933072816571 2.9061092385490213 0 2.9061092385490213 1.1238995330551802 0 0 0 0 -0.13689283167657854 33.757542242812633 0 33.757542242812633 -205.41831316734897 0 0 0 0 -8.6150784155919471 6.7085145553646726 0 6.7085145553646726 10.102018753270386 0 0 0 0 6.4321969812770021 -36.609870802531077 0 -36.609870802531077 -160.83257623282407 0 0 0 0 66.668630458489531 84.310200503270607 0 84.310200503270607 -164.89360453980044 0 0 0 0 -3.9844227613830867 -21.134690327504359 0 -21.134690327504359 -80.218820071371738 0 0 0 0 -0.65942515316044459 0.52978710910127802 0 0.52978710910127802 5.0197996124193622 0 0 0 0 30.134931043636929 49.538309050287353 0 49.538309050287353 56.966025104455184 0 0 0 0 -133.22967419224938 10.440277602960123 0 10.440277602960123 283.7934642220207 0 0 0 0 81.522305755847441 211.15350744932948 0 211.15350744932948 271.14240721595706 0 0 0 0 22.344151637962323 -10.925393920228089 0 -10.925393920228089 41.198205693799537 0 0 0 0 15.297397275859417 -25.797806621831114 0 -25.797806621831114 77.653664111567196 0 0 0 0 3.5000418229970949 -6.4125636094977381 0 -6.4125636094977381 55.522645485238172 0 0 0 0 23.207444334311287 -3.3430762311108992 0 -3.3430762311108992 26.313645009475295 0 0 0 0 -0.10173965140190469 6.1769214704222435 0 6.1769214704222435 6.3083841146456621 0 0 0 0 4.2533282179490586 -5.9764000779869093 0 -5.9764000779869093 43.323634622240206 0 0 0 0 -0.17814749879631514 5.6038744157121982 0 5.6038744157121982 87.136000489175785 0 0 0 0 2.7307822883645407 14.924578364750971 0 14.924578364750971 10.726421498402246 0 0 0 0 3.7308968038969397 3.3023582488385728 0 3.3023582488385728 40.730270839183504 0 0 0 0 14.393325715518131 3.7858821260597324 0 3.7858821260597324 19.621193837869214 0 0 0 0 46.576921545020241 47.588710208365228 0 47.588710208365228 7.8467594680842012 0 0 0 0 0.86108468090339874 3.7073845773045804 0 3.7073845773045804 29.839322896190879 0 0 0 0 3.7515527519302916 13.548241585494708 0 13.548241585494708 23.559977086728736 0 0 0 0 -2.6223276856950104 0.68392938832499794 0 0.68392938832499794 18.604969334969155 0 0 0 0 3.8327636277921666 5.1568874690310622 0 5.1568874690310622 15.831164411414647 0 0 0 0 6.6024319402773699 6.776373091241112 0 6.776373091241112 26.776846098786336 0 0 0 0 7.2557961670647728 14.041888619049132 0 14.041888619049132 47.505551890964853 0 0 0 0 8.6775225335481991 5.2900869427248836 0 5.2900869427248836 27.534835978643969 0 0 0 0 -3.6978087644656532 -0.94720488154706572 0 -0.94720488154706572 33.385055657980161 0 0 0 0 2.7173618726099544 9.3721001238897088 0 9.3721001238897088 39.466439499268546 0 0 0 0 -0.00031861961484764938 1.125876852820511 0 1.125876852820511 6.2829956319765188 0 0 0 0 2.2328689303428124 -0.29657189931822359 0 -0.29657189931822359 46.02597998775309 0 0 0 0 0.58252294282633399 1.4843728462799817 0 1.4843728462799817 2.5372329779835923 0 0 0 0 2.1459503564676536 3.532773890593603 0 3.532773890593603 16.313642970505157 0 0 0 0 5.6483481955039885 15.595679120626301 0 15.595679120626301 18.287423489207868 0 0 0 0 0.23083098846695438 1.795847393485019 0 1.795847393485019 29.379816548826057 0 0 0 0 -0.55230557948253989 -0.66352948360150776 0 -0.66352948360150776 3.244968115418402 0 0 0 0 -0.0105471260536056 -1.1488230011236737 0 -1.1488230011236737 35.91145644315111 0 0 0 0 0.65039649712542591 0.0327517232781247 0 0.0327517232781247 36.564618378964951 0 0 0 0 0.11062819665582452 -0.95071557636765647 0 -0.95071557636765647 36.206086388847325 0 0 0 0 -1.1156422886958388 -1.9722584925065263 0 -1.9722584925065263 15.404754183981481 0 0 0 0 1.7895468635727005 -2.6798050060751848 0 -2.6798050060751848 37.468690984878776 0 0 0 0 2.3453127866885097 -36.967282503916067 0 -36.967282503916067 86.030871334780386 0 0 0 0 1.6367087248023495 -1.291484185725551 0 -1.291484185725551 11.649393008683433 0 0 0 0 0.30371612549567145 -4.9914282813515456 0 -4.9914282813515456 44.691529847259517 0 0 0 0 -4.1422736981479309 -4.6974438882435834 0 -4.6974438882435834 29.600078553849698 0 0 0 0 5.7554875582775056 0.6891331435617758 0 0.6891331435617758 40.330352565884823 0 0 0 0 0.0073426320416123065 -1.042223431461025 0 -1.042223431461025 26.91868097774568 0 0 0 0 0.14403674236556474 -6.5349248619136233 0 -6.5349248619136233 35.938881988331559 0 0 0 0 -45.748274160641017 -58.312606721934571 0 -58.312606721934571 53.81072862772271 0 0 0 0 -55.483165635215528 -4.9256619207371841 0 -4.9256619207371841 83.394252583006164 0 0 0 0 -67.165223216375963 82.071603417527513 0 82.071603417527513 35.692893711580837 0 0 0 0 -62.730460113292679 -11.740677860347205 0 -11.740677860347205 77.017446583049605 0 0 0 0 4.7589525052629824 -4.70600264184759 0 -4.70600264184759 66.268828768210369 0 0 0 0 -0.014989579911741435 -1.6518864018699873 0 -1.6518864018699873 1.5554148228379745 0 0 0 0 -2.5136931459092948 -4.4445044369273887 0 -4.4445044369273887 46.527215616998205 0 0 0 0 -3.7414824060263072 55.211051766949822 0 55.211051766949822 30.96306062050644 0 0 0 0 -1.3385917477356646 -4.4063085902082975 0 -4.4063085902082975 42.364025855198349 0 0 0 0 -14.645962662727243 -3.1611166548827896 0 -3.1611166548827896 47.967240797996055 0 0 0 0 -13.737813077638293 -1.6717110773024615 0 -1.6717110773024615 48.833192016812973 0 0 0 0 6.3399804830551147 9.1735602063126862 0 9.1735602063126862 30.214482894632965 0 0 0 0 -3.6002239690212718 0.17162565287435427 0 0.17162565287435427 28.327483635919634 0 0 0 0 -12.100440004934626 -1.2964617504912894 0 -1.2964617504912894 46.741339450105443 0 0 0 0 -4.4275179302319492 -6.4224122835483257 0 -6.4224122835483257 46.223020295090009 0 0 0 0 -50.645482939745079 9.5861789803311694 0 9.5861789803311694 34.146517724220757 0 0 0 0 -8.2489481963866833 2.3514761918087856 0 2.3514761918087856 47.950698147466881 0 0 0 0 -20.529094180101197 4.8500598049467953 0 4.8500598049467953 62.222152225906029 0 0 0 0 -3.812671590634233 5.8256548550810123 0 5.8256548550810123 40.714899088707114 0 0 0 0 -23.741177157997299 -21.335366307292134 0 -21.335366307292134 53.777937718376052 0 0 0 0 -1.7677471864039944 26.891211770824157 0 26.891211770824157 31.93471349592437 0 0 0 0 -12.053317522937505 0.58489352333708666 0 0.58489352333708666 49.665911614123615 0 0 0 0 -0.23169084123398243 1.7917011226385284 0 1.7917011226385284 37.075966388830892 0 0 0 0 -1.5408917537989226 1.3194535596080925 0 1.3194535596080925 2.1070162141681692 0 0 0 0 -13.699254789996303 -2.8150461751210969 0 -2.8150461751210969 22.005383665120462 0 0 0 0 -7.5898056136838061 -10.403855389809621 0 -10.403855389809621 44.441849067622911 0 0 0 0 -7.0889092327365946 -1.4373943260261228 0 -1.4373943260261228 25.452588310148826 0 0 0 0 -3.4975362983750529 9.1722958504178678 0 9.1722958504178678 37.371747450524708 0 0 0 0 -6.8046012642615779 9.3099669984731008 0 9.3099669984731008 38.785387531068409 0 0 0 0 4.2311363413260779 2.1182177971568308 0 2.1182177971568308 40.006565325835254 0 0 0 0 -3.7231903405513549 6.6841683447710238 0 6.6841683447710238 27.608476849280123 0 0 0 0 -0.70538915447648254 0.61449235920692047 0 0.61449235920692047 23.298323235459435 0 0 0 0 0.51044540042152742 7.021645435626084 0 7.021645435626084 36.880409501935389 0 0 0 0 -42.413653587266481 -4.1525739179269294 0 -4.1525739179269294 94.606517050327966 0 0 0 0 -0.020410614348921108 -3.9740180710529387 0 -3.9740180710529387 12.889025291759907 0 0 0 0 -55.2452411703743 20.436260685801244 0 20.436260685801244 47.518402826841339 0 0 0 0 -1.4107617820159319 6.5833013595858958 0 6.5833013595858958 39.018934124042659 0 0 0 0 -3.2761805650827114 58.245670847300062 0 58.245670847300062 34.288800905938842 0 0 0 0 -4.4307964963513768 7.517018652662955 0 7.517018652662955 43.650505667348625 0 0 0 0 -2.8012124927454352 5.1322733204287942 0 5.1322733204287942 40.308125477225985 0 0 0 0 -2.3659826366701964 8.4565215843249462 0 8.4565215843249462 37.087346163294569 0 0 0 0 0.27969814012749339 3.1882171313409344 0 3.1882171313409344 51.286239752236725 0 0 0 0 -3.212219037694922 11.111303717581904 0 11.111303717581904 33.748908860041411 0 0 0 0 -23.437483232137311 15.973564525200345 0 15.973564525200345 32.861228320343798 0 0 0 0 -23.244673508360364 23.179428396801086 0 23.179428396801086 12.007446445932146 0 0 0 0 -6.5432543020238256 7.7604742934945534 0 7.7604742934945534 43.792708269800642 0 0 0 0 -6.1947396161814217 8.6977411721242248 0 8.6977411721242248 25.961911434434484 0 0 0 0 -6.6712208716076544 -1.6323275685143344 0 -1.6323275685143344 30.177421368717035 0 0 0 0 -35.503376686028901 -0.3906109271083551 0 -0.3906109271083551 31.593020422908012 0 0 0 0 -28.504973744463086 4.8167038807514473 0 4.8167038807514473 31.043511940632015 0 0 0 0 -37.52008881039319 3.7381033357232809 0 3.7381033357232809 42.201677575343638 0 0 0 0 -25.614475868475097 -11.260818070280948 0 -11.260818070280948 45.268078699205944 0 0 0 0 -10.789566505096218 -19.776833031071874 0 -19.776833031071874 48.214434925757814 0 0 0 0 -10.714924505310009 -29.807072314212746 0 -29.807072314212746 66.849860324917245 0 0 0 0 -45.517995959006726 -6.1802073550425121 0 -6.1802073550425121 41.978044682335167 0 0 0 0 -2.8484759281713989 3.3330929373633111 0 3.3330929373633111 10.32065473603916 0 0 0 0 -8.6542398627957482 -9.5084187911488698 0 -9.5084187911488698 27.492682607105962 0 0 0 0 -33.863072894955224 12.559690311163649 0 12.559690311163649 10.592014502093662 0 0 0 0 16.336628491535066 -61.324969140114263 0 -61.324969140114263 22.147361581965924 0 0 0 0 152.25731461886232 112.61857469909592 0 112.61857469909592 63.268857738272345 0 0 0 0 0.58631016393121693 -0.96945706722375036 0 -0.96945706722375036 1.5679930965929145 0 0 0 0 -16.070981014024881 -74.750289024615995 0 -74.750289024615995 150.39217766440561 0 0 0 0 -23.456456920419896 -34.486689627628948 0 -34.486689627628948 65.609397995955078 0 0 0 0 -14.17422270599144 57.70079482418987 0 57.70079482418987 142.87423821733682 0 0 0 0 -48.979276568729119 -71.666838137309242 0 -71.666838137309242 244.47325220044877 0 0 0 0 -64.242892812170069 57.069432010205674 0 57.069432010205674 229.20419668458635 0 0 0 0 44.796406327268414 -133.81926002697583 0 -133.81926002697583 151.35420479834283 0 0 0 0 -6.7429357495814202 -19.733435184967675 0 -19.733435184967675 93.484183195374499 0 0 0 0 -16.498165426035939 -1.1983644888277922 0 -1.1983644888277922 79.061436451796908 0 0 0 0 -22.576828402885127 -28.726591670399102 0 -28.726591670399102 88.587790872683399 0 0 0 0 -0.71100739458051976 -17.642524133250845 0 -17.642524133250845 70.3747012717904 0 0 0 0 -12.427091046034775 -24.316886971806525 0 -24.316886971806525 66.581329520355212 0 0 0 0 -15.216042716521088 -11.150604130634747 0 -11.150604130634747 64.685248386038438 0 0 0 0 -15.037968242503666 -5.5049053291513701 0 -5.5049053291513701 47.557658508294708 0 0 0 0 50.174741686208279 90.55049143978772 0 90.55049143978772 97.604480782189057 0 0 0 0 -13.677169211940988 -19.742040488669588 0 -19.742040488669588 44.065414364862789 0 0 0 0 51.448802302292691 72.306583991274238 0 72.306583991274238 104.16164190481504 0 0 0 0 -1.6412401503041592 -8.0104814797826087 0 -8.0104814797826087 27.548759082825569 0 0 0 0 -5.9837976862646105 1.9263682618952984 0 1.9263682618952984 35.998887201668026 0 0 0 0 -742.93008091800948 841.58710198106564 0 841.58710198106564 825.89934904719121 0 0 0 0 3.7312687971839296 15.830245082546753 0 15.830245082546753 80.641869241633685 0 0 0 0 621.55809568598761 -820.47841056220204 0 -820.47841056220204 -1063.620419407227 0 0 0 0 -1366.6270001741691 48.037414444068418 0 48.037414444068418 466.22552551371336 0 0 0 0 17.110397545541787 -2.2784125078721758 0 -2.2784125078721758 13.448262129189445 0 0 0 0 -114.6355955377494 630.55320102455153 0 630.55320102455153 -452.85691894513729 0 0 0 0 -35.216855481436141 249.75386922257894 0 249.75386922257894 464.74965241106111 0 0 0 0 135.36331318207704 178.82950251686998 0 178.82950251686998 408.55332689889474 0 0 0 0 5.2694923890354879 24.804857776677608 0 24.804857776677608 16.732557368801515 0 0 0 0 24.517424105566988 41.438387140987288 0 41.438387140987288 65.209899271161703 0 0 0 0 19.119663542285707 13.266988978051813 0 13.266988978051813 79.910212543698435 0 0 0 0 46.445356356503453 38.594157545676353 0 38.594157545676353 65.12915489502484 0 0 0 0 -36.602899772361525 3.0370864886135678 0 3.0370864886135678 40.432283270059997 0 0 0 0 -29.419917651217212 -5.5188109111070389 0 -5.5188109111070389 38.342648769414382 0 0 0 0 -11.715562830150869 3.4400685784673328 0 3.4400685784673328 29.519075136861005 0 0 0 0 -40.363212722131038 9.9549567870017199 0 9.9549567870017199 51.651900717566605 0 0 0 0 -45.282880177584843 11.869139087066287 0 11.869139087066287 34.375696296388924 0 0 0 0 -26.069775456389223 3.3326929721205545 0 3.3326929721205545 30.106291465100384 0 0 0 0 -36.202190379778166 8.8280994691303931 0 8.8280994691303931 23.451337391335983 0 0 0 0 -22.546212971187288 -2.1658185184205649 0 -2.1658185184205649 41.953427788816043 0 0 0 0 -19.908328176786313 -3.2643337030323494 0 -3.2643337030323494 16.60209255560801 0 0 0 0 -27.486403625669482 -21.854987152997637 0 -21.854987152997637 59.989082751455499 0 0 0 0 -30.579509977178532 5.5525530980667099 0 5.5525530980667099 57.643071876678732 0 0 0 0 -58.144553986363462 -54.126980645465665 0 -54.126980645465665 2.0148211202467792 0 0 0 0 -27.107151579799392 63.352399786497699 0 63.352399786497699 426.96633751830086 0 0 0 0 54.222049558392484 18.124524369636674 0 18.124524369636674 325.12954657766386 0 0 0 0 4.1899485466757511 -4.0105588415430589 0 -4.0105588415430589 6.2399842863764263 0 0 0 0 -4.3003381268063094 -27.775202164659277 0 -27.775202164659277 14.998532257624902 0 0 0 0 -13.4969793827986 -38.897261581732891 0 -38.897261581732891 28.058033058536239 0 0 0 0 0.0052387860801843544 -31.674448523412138 0 -31.674448523412138 26.863335810252465 0 0 0 0 -5.7297877259115921 -33.756960537401028 0 -33.756960537401028 -2.2332259262911975 0 0 0 0 -3.533226398341867 -39.058233723619196 0 -39.058233723619196 -25.627442144934321 0 0 0 0 -13.858448791394039 8.3229091303364839 0 8.3229091303364839 34.279788712396112 0 0 0 0 -19.324960801170434 3.9699057742757375 0 3.9699057742757375 23.995345401080669 0 0 0 0 -19.099936601855006 2.3671396638674196 0 2.3671396638674196 6.5205079443112481 0 0 0 0 -6.5361308546472898 13.487945942597463 0 13.487945942597463 21.82655162740383 0 0 0 0 55.529439056044623 42.520170348622287 0 42.520170348622287 341.04973507177783 0 0 0 0 -12.766875956855074 -54.275831716222456 0 -54.275831716222456 -16.832114408782218 0 0 0 0 -22.157608807217912 -54.21398936668993 0 -54.21398936668993 -4.8485509749734774 0 0 0 0 1.9472979805119159 0.65343684049840078 0 0.65343684049840078 1.2529714583975533 0 0 0 0 2.5949719830814502 47.38814125929639 0 47.38814125929639 24.797091475324123 0 0 0 0 130.92710150803578 69.213717109014397 0 69.213717109014397 64.090145051537547 0 0 0 0 -4.2875276630820736 -49.89314701819967 0 -49.89314701819967 -40.770507981855189 0 0 0 0 36.704992293410669 88.158372825979313 0 88.158372825979313 70.70458350511035 0 0 0 0 80.816455114392738 117.11748271086253 0 117.11748271086253 86.456131111568538 0 0 0 0 -120.65809588130242 16.688080344856644 0 16.688080344856644 246.24266717757564 0 0 0 0 -132.69017938302568 49.487899048050167 0 49.487899048050167 285.84164834604599 0 0 0 0 127.76629340001455 182.25516328649974 0 182.25516328649974 175.1058325151389 0 0 0 0 66.083890266527305 48.118690095434431 0 48.118690095434431 327.06535084259667 0 0 0 0 -75.810583480040805 153.39264949469361 0 153.39264949469361 456.54806940961862 0 0 0 0 289.41909343195948 -30.823600255986094 0 -30.823600255986094 288.87974171481619 0 0 0 0 143.76806637740083 26.019010619056644 0 26.019010619056644 276.03716050264484 0 0 0 0 -45.096481536016654 45.558493332529906 0 45.558493332529906 396.47412506532783 0 0 0 0 -23.985960535613231 1.3871006242625299 0 1.3871006242625299 334.67309536982793 0 0 0 0 -28.99507732357597 -42.430925458000274 0 -42.430925458000274 289.29891740278981 0 0 0 0 14.066039512905263 14.797107291640714 0 14.797107291640714 317.69834487898333 0 0 0 0 7.2081014122231863 24.248030300979735 0 24.248030300979735 348.36702618373965 0 0 0 0 9.9875380502962798 1.2660697074716154 0 1.2660697074716154 307.37072523793904 0 0 0 0 50.124186966091656 23.729918438359164 0 23.729918438359164 319.46454083221033 0 0 0 0 48.358480553404661 10.518631618309882 0 10.518631618309882 315.93779039374203 0 0 0 0 56.543084225922939 24.520519390091067 0 24.520519390091067 271.61214877510793 0 0 0 0 146.13062044009348 70.916981123547885 0 70.916981123547885 173.97161302747554 0 0 0 0 45.121900210731837 25.432104801380774 0 25.432104801380774 274.3410168474511 0 0 0 0 48.049494013550429 22.541553525541531 0 22.541553525541531 221.81510160345351 0 0 0 0 7.4141532755274966 1.112769892119104 0 1.112769892119104 210.54930744429294 0 0 0 0 17.93436282301991 -7.1156225735903718 0 -7.1156225735903718 70.653280671627726 0 0 0 0 -5.1716543311886198 -18.209547589824069 0 -18.209547589824069 244.2740714129468 0 0 0 0 -20.027792346460046 -32.96258950974152 0 -32.96258950974152 243.98761226556962 0 0 0 0 45.153191387566039 38.714225387579063 0 38.714225387579063 25.864810291444883 0 0 0 0 -27.705346161097623 16.253264634760853 0 16.253264634760853 121.59389324381482 0 0 0 0 62.414729360891215 78.933067128731636 0 78.933067128731636 118.31209786709223 0 0 0 0 81.238680609842959 37.270871245516901 0 37.270871245516901 158.84968737716554 0 0 0 0 168.55428127391679 98.25329873325245 0 98.25329873325245 32.880664498268743 0 0 0 0 71.090649451948593 23.661429551037145 0 23.661429551037145 17.794668737828033 0 0 0 0 -15.667503360707997 138.91775404568762 0 138.91775404568762 29.908905527801835 0 0 0 0 939.88733487254763 928.37163860153487 0 928.37163860153487 135.72211678154417 0 0 0 0 -1.0547809445231806 -2.6971619277078673 0 -2.6971619277078673 15.584878730698534 0 0 0 0 -1.5080553691821095 0.29837178684933008 0 0.29837178684933008 0.27104324479483921 0 0 0 0 -158.241528185893 -97.950946236829623 0 -97.950946236829623 -330.49737008867669 0 0 0 0 -288.94528639896089 -210.12670530522519 0 -210.12670530522519 -44.777118424644868 0 0 0 0 168.84678187603458 92.034810496850696 0 92.034810496850696 161.38823025883175 0 0 0 0 18.68358637010374 187.87200833026145 0 187.87200833026145 445.43400573122926 0 0 0 0 252.39244843291701 334.51637479729106 0 334.51637479729106 277.91330715252116 0 0 0 0 463.5656635672222 68.31179668515324 0 68.31179668515324 524.81949008979427 0 0 0 0 25.819570776639921 -1.5010531793741393 0 -1.5010531793741393 174.76122935161982 0 0 0 0 190.6296173347697 192.58299919454294 0 192.58299919454294 412.39141019352246 0 0 0 0 173.50942709741685 279.91638628283545 0 279.91638628283545 177.74315796502128 0 0 0 0 110.12211416509713 294.11154680644768 0 294.11154680644768 449.17927676052204 0 0 0 0 241.42299296046406 252.28132345590348 0 252.28132345590348 378.21307315140439 0 0 0 0 119.2609986548041 289.39222009865989 0 289.39222009865989 414.66215074113279 0 0 0 0 109.89649949634 265.51716553055905 0 265.51716553055905 450.243301026072 0 0 0 0 2.2773316524960223 -10.230172857156234 0 -10.230172857156234 47.230108609100625 0 0 0 0 -142.18320455669709 -34.031319204812462 0 -34.031319204812462 145.69469649375242 0 0 0 0 230.21352693137115 326.28434096804995 0 326.28434096804995 376.01157199800946 0 0 0 0 -17.130931515722487 16.087834664892782 0 16.087834664892782 44.250229185355323 0 0 0 0 607.69546819213974 -840.62543791454846 0 -840.62543791454846 306.73933621594915 0 0 0 0 -33.212587465412525 18.67568991268854 0 18.67568991268854 47.09231021675987 0 0 0 0 -16.568196917478417 6.6028502690921158 0 6.6028502690921158 42.526756404772755 0 0 0 0 116.65774478394997 542.70695792108017 0 542.70695792108017 623.69513922058104 0 0 0 0 207.95907682229699 226.52180190728177 0 226.52180190728177 -244.67361768207047 0 0 0 0 -16.25170263963868 -0.65105579949820225 0 -0.65105579949820225 62.330317505636657 0 0 0 0 -44.485857533119088 -75.907087279272673 0 -75.907087279272673 141.40050711025833 0 0 0 0 -3.2246039148749333 17.015763137238537 0 17.015763137238537 57.344646955516509 0 0 0 0 -20.743273097508791 7.9342255970550468 0 7.9342255970550468 52.791512966701703 0 0 0 0 -21.544681730975753 7.6918645650548569 0 7.6918645650548569 83.041771203706048 0 0 0 0 -35.726429701961933 32.743245347675838 0 32.743245347675838 77.025112908372648 0 0 0 0 -6.1171458241288335 16.27254698723209 0 16.27254698723209 40.958574087637757 0 0 0 0 0.076503184428474924 79.823976633384518 0 79.823976633384518 -23.766126532544149 0 0 0 0 -6.3126406631198364 22.922668901954808 0 22.922668901954808 52.979224555773754 0 0 0 0 -29.096382536879901 56.333324212191656 0 56.333324212191656 -32.572534561624707 0 0 0 0 -53.115619591343489 21.062738759694184 0 21.062738759694184 201.87360477232869 0 0 0 0 -34.381770841213438 -36.068048484568862 0 -36.068048484568862 115.59802040135401 0 0 0 0 -48.972143638799992 96.903390632942774 0 96.903390632942774 5.2866531031177146 0 0 0 0 -62.290958689972285 39.340878708742821 0 39.340878708742821 70.758198350173188 0 0 0 0 28.398431098137735 -13.659350746811469 0 -13.659350746811469 85.022722839996277 0 0 0 0 127.84190291175037 -113.68189867435649 0 -113.68189867435649 120.38031668207623 0 0 0 0 110.92618527587638 -91.918502106625965 0 -91.918502106625965 84.960980225703679 0 0 0 0 42.186215446979077 -97.210443358664634 0 -97.210443358664634 295.95903152490064 0 0 0 0 302.80851155753771 -219.58494947016152 0 -219.58494947016152 63.635864559327274 0 0 0 0 13.554390222302573 22.533069194931159 0 22.533069194931159 27.376296492686379 0 0 0 0 11.729099115007557 13.465822776197456 0 13.465822776197456 769.72387633680046 0 0 0 0 265.01675419789535 482.70389618898116 0 482.70389618898116 795.38763756198591 0 0 0 0 -106.65131566434866 -103.42361056064328 0 -103.42361056064328 857.90317978116946 0 0 0 0 -0.78508465900032576 -3.3344694768359844 0 -3.3344694768359844 34.215622005050278 0 0 0 0 -76.787045028456305 -23.714919709425885 0 -23.714919709425885 87.862967759436287 0 0 0 0 1608.5883791458218 750.82186791423737 0 750.82186791423737 -519.4851799711505 0 0 0 0 1200.9271839684297 255.80315827669983 0 255.80315827669983 -849.52816338212506 0 0 0 0 10.405557491062034 9.8016479314414369 0 9.8016479314414369 11.017476347377368 0 0 0 0 -74.806296996828678 235.24351866166398 0 235.24351866166398 1296.9929532399183 0 0 0 0 8.5081186653813745 -4.2047958696519743 0 -4.2047958696519743 -1.3995082813763418 0 0 0 0 1243.3729801031113 200.44420371041633 0 200.44420371041633 -1271.9494552501747 0 0 0 0 -242.57861764208042 -56.129657908687477 0 -56.129657908687477 -732.93085014766257 0 0 0 0 1551.5770947705023 1136.4904800229415 0 1136.4904800229415 55.392314139637165 0 0 0 0 56.44765679149441 112.08158162410837 0 112.08158162410837 948.56802793039242 0 0 0 0 -578.86019972817303 289.78812258334801 0 289.78812258334801 2434.9745706809626 0 0 0 0 1796.3042745412895 1124.9806538039411 0 1124.9806538039411 1461.4374662775954 0 0 0 0 1476.4986285961877 431.56973345662232 0 431.56973345662232 32.487461137905484 0 0 0 0 1431.7196014480774 -493.35925028363044 0 -493.35925028363044 615.17937835631892 0 0 0 0 566.8148909104184 -1142.957326536387 0 -1142.957326536387 718.20186494469817 0 0 0 0 1850.0875912922638 -1286.4450889536238 0 -1286.4450889536238 641.22293028527929 0 0 0 0 2452.3456205531438 589.82192182121798 0 589.82192182121798 1764.616709102891 0 0 0 0 1098.4862825638193 -27.279346362884098 0 -27.279346362884098 -20.802461022205534 0 0 0 0 -893.80788009703429 -1448.1252243229137 0 -1448.1252243229137 -24.722713351053244 0 0 0 0 1128.1696691083489 -259.96589854441117 0 -259.96589854441117 -311.24708830278541 0 0 0 0 560.29459012678126 662.4045094328394 0 662.4045094328394 52.113317322931834 0 0 0 0 270.99680415567855 411.82030848681461 0 411.82030848681461 48.615619582633371 0 0 0 0 -19.83464389904475 -348.45828703585721 0 -348.45828703585721 -198.24376077154011 0 0 0 0 226.43527212741174 510.22688025752723 0 510.22688025752723 -73.053302974702092 0 0 0 0 -100.47856745014724 371.17662374724387 0 371.17662374724387 -676.63212002147338 0 0 0 0 203.07228586963902 373.24695867414994 0 373.24695867414994 126.49412270874018 0 0 0 0 355.46017635703902 317.1422753543302 0 317.1422753543302 -287.14056613975845 0 0 0 0 18.004595835547661 116.56121152080595 0 116.56121152080595 -145.62282765059354 0 0 0 0 -855.55096225726538 83.081883090329939 0 83.081883090329939 -13.041613704044721 0 0 0 0 3.6091064388970082 -3.2261091908016297 0 -3.2261091908016297 5.5354980318904836 0 0 0 0 625.13890767743942 933.02518984561175 0 933.02518984561175 480.74456066079438 0 0 0 0 147.97738054535876 522.98073019233561 0 522.98073019233561 772.17142492264975 0 0 0 0 531.87156595395936 493.89565252550528 0 493.89565252550528 -47.863797898651683 0 0 0 0 391.61969172381578 668.22204369437532 0 668.22204369437532 203.07388617875404 0 0 0 0 367.84044170053585 177.46530922826423 0 177.46530922826423 57.904581613780465 0 0 0 0 313.24548451922965 266.09382460804045 0 266.09382460804045 -114.18078910351323 0 0 0 0 267.07839770246392 291.5325871242967 0 291.5325871242967 -127.43153232650366 0 0 0 0 194.8377466895472 -106.4808181883418 0 -106.4808181883418 -264.56887317427754 0 0 0 0 223.12015060670637 285.79695896877092 0 285.79695896877092 490.5964875476493 0 0 0 0 304.09620703069049 38.949492237159575 0 38.949492237159575 480.42849706306879 0 0 0 0 342.63554434863909 125.22019636781988 0 125.22019636781988 147.99159923638217 0 0 0 0 137.45029453782627 -74.180284595677222 0 -74.180284595677222 34.96607741763728 0 0 0 0 262.98543741316826 110.57496225301293 0 110.57496225301293 135.0283481390361 0 0 0 0 199.92615468810254 -127.27980645166099 0 -127.27980645166099 19.762642399073229 0 0 0 0 307.29743028128405 -6.1930917351965036 0 -6.1930917351965036 -205.33422093937406 0 0 0 0 113.40169771584988 -222.4152385762427 0 -222.4152385762427 -83.615127919496445 0 0 0 0 7.5777520955252839 -138.52388303059706 0 -138.52388303059706 239.25324128580542 0 0 0 0 -14.374425102758323 -365.18798807478015 0 -365.18798807478015 78.766228056862019 0 0 0 0 -91.90916111745355 -292.93775058880419 0 -292.93775058880419 68.612388741225004 0 0 0 0 -309.20105287508341 -449.1234252692484 0 -449.1234252692484 166.51373015546415 0 0 0 0 -217.5589256236708 -252.99877728246065 0 -252.99877728246065 519.38138534437167 0 0 0 0 -74.282725657526044 43.545205496835479 0 43.545205496835479 152.57032404387428 0 0 0 0 0.40117810124472264 -32.357826839134425 0 -32.357826839134425 55.517095359938594 0 0 0 0 -0.7927081474585469 -2.9882866250866833 0 -2.9882866250866833 11.95659900483821 0 0 0 0 -184.05967252448136 -612.36067908814584 0 -612.36067908814584 -99.057292360346764 0 0 0 0 240.83838466278121 162.84545485438139 0 162.84545485438139 124.80731081803606 0 0 0 0 142.20964234086568 -468.11522220011102 0 -468.11522220011102 1201.5928021986037 0 0 0 0 135.83104354783427 -188.64331718861649 0 -188.64331718861649 -893.72982611516272 0 0 0 0 -13.325913478780421 -487.67549513852282 0 -487.67549513852282 -566.25128258155019 0 0 0 0 145.77145471812764 -101.70462597026199 0 -101.70462597026199 -226.17685444957169 0 0 0 0 -44.770540331581287 -456.60564729811449 0 -456.60564729811449 -60.939803752538865 0 0 0 0 112.7444783430259 -310.44334119077791 0 -310.44334119077791 -416.71784430084517 0 0 0 0 -175.73281814269649 -687.7680379478843 0 -687.7680379478843 572.91266557620838 0 0 0 0 20.646527166838723 -21.487259417626774 0 -21.487259417626774 82.374964384089253 0 0 0 0 -0.21916545383473363 -13.903906065102547 0 -13.903906065102547 89.207958588172914 0 0 0 0 -1393.0548537427931 372.32799190614605 0 372.32799190614605 3990.7891434627818 0 0 0 0 8.4393623868088419 -35.851372187340523 0 -35.851372187340523 62.007213819053419 0 0 0 0 44.553471414649721 -16.445670617025826 0 -16.445670617025826 -289.3558057095579 0 0 0 0 -706.60286518164412 537.71651325107086 0 537.71651325107086 341.60091973505041 0 0 0 0 18.601464906730058 -2.2632563605416181 0 -2.2632563605416181 91.476372850942425 0 0 0 0 25.171177278958794 -28.870991141644481 0 -28.870991141644481 86.546430654911092 0 0 0 0 -6.5850686091520174 -15.871169318514035 0 -15.871169318514035 84.01718385113054 0 0 0 0 132.37811186874569 109.86700418355758 0 109.86700418355758 116.32255668429571 0 0 0 0 69.017143291037428 80.311129001725931 0 80.311129001725931 106.26022379059941 0 0 0 0 83.482930369951191 105.75401811455049 0 105.75401811455049 112.30758533281914 0 0 0 0 48.226911235058651 79.409715046538622 0 79.409715046538622 114.66203875411884 0 0 0 0 -1.5068995345453864 -12.4639330315904 0 -12.4639330315904 34.046414994643911 0 0 0 0 87.783856565158203 35.981132779148538 0 35.981132779148538 83.897600112795772 0 0 0 0 122.00811252300264 56.493591383667081 0 56.493591383667081 81.085670617647793 0 0 0 0 256.66508247934416 127.82726607918084 0 127.82726607918084 104.77226368457559 0 0 0 0 32.946348421855873 -80.63692036899738 0 -80.63692036899738 37.726673657700303 0 0 0 0 1.9258952476427142 -8.8145453425768459 0 -8.8145453425768459 4.0942151219624634 0 0 0 0 76.875954094309236 88.772862839575737 0 88.772862839575737 152.28480739024963 0 0 0 0 79.14018182581367 115.58308650127037 0 115.58308650127037 159.61082972307122 0 0 0 0 8.2198272447026746 -4.9429380937050809 0 -4.9429380937050809 3.6451055689124701 0 0 0 0 68.414337016471109 217.73581226936767 0 217.73581226936767 69.377276294215335 0 0 0 0 -176.55349464407118 336.0989577887849 0 336.0989577887849 234.79848619417317 0 0 0 0 369.74904360307835 165.71011640614915 0 165.71011640614915 142.30567130404233 0 0 0 0 428.10435575707379 136.98085027959314 0 136.98085027959314 142.67323859464705 0 0 0 0 298.68615449100798 167.12806484963221 0 167.12806484963221 147.2649677233494 0 0 0 0 73.476392987670806 158.54143145983346 0 158.54143145983346 226.84559546782839 0 0 0 0 149.69508548938938 192.04945339833648 0 192.04945339833648 190.94485800171969 0 0 0 0 267.19788484997844 -371.39073130305042 0 -371.39073130305042 301.3678832406149 0 0 0 0 1.8280234481939281 -3.0706637061722457 0 -3.0706637061722457 9.8503920191389795 0 0 0 0 382.67901543508208 1926.1902506186862 0 1926.1902506186862 186.26736180660373 0 0 0 0 10.539433343309707 -6.5430139728699075 0 -6.5430139728699075 5.6729768267983616 0 0 0 0 1342.7123807519383 -637.14564766400144 0 -637.14564766400144 1110.4567051174381 0 0 0 0 -220.78238652466098 279.96931083078744 0 279.96931083078744 1013.8353506285566 0 0 0 0 34.804455440061247 -436.40012982193184 0 -436.40012982193184 921.16470849195321 0 0 0 0 -67.118314985597863 86.448022232401854 0 86.448022232401854 585.46572426168859 0 0 0 0 -52.037445611861131 -95.967340157432773 0 -95.967340157432773 308.29650159486482 0 0 0 0 -22.599085541092791 -187.8966879382242 0 -187.8966879382242 586.87620096636238 0 0 0 0 -1.0623582885891665 69.638932049452706 0 69.638932049452706 224.43825304210623 0 0 0 0 -53.600213888792496 120.54290465560189 0 120.54290465560189 197.32999423107685 0 0 0 0 -0.74108298445662513 56.15400535133449 0 56.15400535133449 165.402753450624 0 0 0 0 -2.3495342227965921 54.031787900310519 0 54.031787900310519 184.24941091403161 0 0 0 0 75.342792332312456 80.224415068112648 0 80.224415068112648 149.31183588892418 0 0 0 0 101.19718597621431 149.74861168638017 0 149.74861168638017 200.41914984975074 0 0 0 0 39.976714364130203 102.05911793932319 0 102.05911793932319 185.74321349216916 0 0 0 0 2.8561863517326209 -1.4197194258187409 0 -1.4197194258187409 1.1867652970192637 0 0 0 0 156.4700479076746 152.82254861585898 0 152.82254861585898 177.26319726737165 0 0 0 0 96.916957009709222 78.33376568237145 0 78.33376568237145 189.90978897683817 0 0 0 0 246.81254901405191 -65.031119896739256 0 -65.031119896739256 40.383623170477222 0 0 0 0 -36.206799762664559 192.56280557445461 0 192.56280557445461 27.552532079163939 0 0 0 0 100.1314511472483 262.22460889106151 0 262.22460889106151 -206.46361360589287 0 0 0 0 354.06675057173925 29.251261911704205 0 29.251261911704205 -204.44355939500383 0 0 0 0 208.98629751827139 101.521214600034 0 101.521214600034 -24.229643170721829 0 0 0 0 191.27898828452635 90.452322738285147 0 90.452322738285147 19.348833804790047 0 0 0 0 183.30477002046428 114.91654695527541 0 114.91654695527541 -8.6935480879474198 0 0 0 0 154.1167166742789 96.157519392252652 0 96.157519392252652 107.3691246221133 0 0 0 0 162.83244702757293 122.56483870615921 0 122.56483870615921 53.479908854615132 0 0 0 0 81.195856603294487 109.25527495117421 0 109.25527495117421 135.6990376066824 0 0 0 0 81.336655983863238 108.28287892805383 0 108.28287892805383 133.17399478665902 0 0 0 0 101.20003265212836 100.92551381187513 0 100.92551381187513 135.30800604601245 0 0 0 0 83.644968185628386 114.73027780352277 0 114.73027780352277 126.73933522920015 0 0 0 0 96.499682576009945 106.46945962082827 0 106.46945962082827 124.75080040626926 0 0 0 0 70.557726194685529 112.94979662158221 0 112.94979662158221 134.43019103611005 0 0 0 0 82.764850418399874 119.82940198569122 0 119.82940198569122 122.80065088517586 0 0 0 0 -154.05096168402451 -38.094353278720746 0 -38.094353278720746 251.60868801205379 0 0 0 0 -222.50403201976314 86.733662838346618 0 86.733662838346618 198.06553559127042 0 0 0 0 -2.8776225299888045 21.700888415587009 0 21.700888415587009 117.32532586020474 0 0 0 0 -74.691639653363382 105.74332498775766 0 105.74332498775766 34.828338093386265 0 0 0 0 -83.994557065648451 165.57776261755816 0 165.57776261755816 115.10501257099531 0 0 0 0 -76.306751650517072 267.01048825338876 0 267.01048825338876 310.73485230828373 0 0 0 0 105.31510443718798 -0.53105863519704144 0 -0.53105863519704144 193.16470828000456 0 0 0 0 12.411987750310345 114.24104052763141 0 114.24104052763141 54.086314429034246 0 0 0 0 24.349780947441388 3.6810303265426683 0 3.6810303265426683 115.35499898117268 0 0 0 0 -1.2386497412148287 24.440020724251227 0 24.440020724251227 118.06403230279788 0 0 0 0 -131.91975745885588 77.330273055113139 0 77.330273055113139 140.34128118636363 0 0 0 0 -25.667010005903649 18.935612798290094 0 18.935612798290094 118.93472507976276 0 0 0 0 -76.568812808604889 -0.78048332913749618 0 -0.78048332913749618 161.00827231974108 0 0 0 0 -104.21667460892559 42.15961108745887 0 42.15961108745887 137.39226490797591 0 0 0 0 -59.41693735369654 -9.9342798125853733 0 -9.9342798125853733 149.8317781561127 0 0 0 0 -38.858701370794051 2.954394306992981 0 2.954394306992981 133.57924791896221 0 0 0 0 -37.345913815351196 -17.77837341490158 0 -17.77837341490158 152.60826706166699 0 0 0 0 -58.731139079752211 -35.109874090150697 0 -35.109874090150697 138.78283758809994 0 0 0 0 -37.437354268501622 -7.3122243505004008 0 -7.3122243505004008 142.7379924796478 0 0 0 0 -60.105260078707033 -20.219330739972065 0 -20.219330739972065 154.49557430444474 0 0 0 0 -52.07571027441918 -25.268107279323885 0 -25.268107279323885 157.67010690987445 0 0 0 0 -59.248519570250892 -12.820837406061401 0 -12.820837406061401 172.35129843121831 0 0 0 0 -37.68344096909459 0.20305550330158439 0 0.20305550330158439 190.94258171084584 0 0 0 0 -38.951600597380093 8.4385875906391448 0 8.4385875906391448 146.33948939190668 0 0 0 0 -3.3967516396674 16.261596538639424 0 16.261596538639424 170.02679149628239 0 0 0 0 14.484969209374867 -23.244828381129992 0 -23.244828381129992 248.98860816459091 0 0 0 0 22.215657663805814 -44.683884342035526 0 -44.683884342035526 163.59071776107157 0 0 0 0 136.03664933261643 -32.125709838768671 0 -32.125709838768671 164.64093017562595 0 0 0 0 51.791313422236499 13.7999613995662 0 13.7999613995662 211.52789326558559 0 0 0 0 -36.296920235749894 -15.742856328597554 0 -15.742856328597554 188.61406270593034 0 0 0 0 53.352964465580953 12.513041610920482 0 12.513041610920482 154.64817717854748 0 0 0 0 42.118942695537044 -43.551368485990679 0 -43.551368485990679 144.29993932318939 0 0 0 0 -68.981370950050405 -24.26892774287262 0 -24.26892774287262 175.52906741676998 0 0 0 0 -48.449831882413946 -42.940082862498457 0 -42.940082862498457 37.78655635965697 0 0 0 0 41.98387293734703 -43.185863692070143 0 -43.185863692070143 255.35321767837013 0 0 0 0 135.99035709536474 -134.79257234436955 0 -134.79257234436955 208.02956940600052 0 0 0 0 -3.1170367197501037 64.176245207079774 0 64.176245207079774 -54.58481415262213 0 0 0 0 318.30524810251882 -159.91044728269844 0 -159.91044728269844 51.177794297233049 0 0 0 0 -0.78262773788250506 -0.19748886262705412 0 -0.19748886262705412 3.0414985172962901 0 0 0 0 -5.5380768702816567 -36.780069324973738 0 -36.780069324973738 -125.10553115010407 0 0 0 0 -1.7401898302863863 1.6151652320390468 0 1.6151652320390468 -0.2231716432673192 0 0 0 0 13.29912870413682 -177.05774003193801 0 -177.05774003193801 -85.366183106460085 0 0 0 0 -24.266721816235076 -23.279138543752197 0 -23.279138543752197 158.97618871712803 0 0 0 0 -107.96798460406353 -102.93659972963178 0 -102.93659972963178 109.09956314409646 0 0 0 0 -121.64077590726265 -95.626817423606553 0 -95.626817423606553 102.63222558165762 0 0 0 0 90.916350837878781 -22.309483270380042 0 -22.309483270380042 72.530036960903089 0 0 0 0 169.66323624541837 139.82435804612942 0 139.82435804612942 30.988343037941377 0 0 0 0 -72.881996101489676 -144.0301963621132 0 -144.0301963621132 -97.765114845125936 0 0 0 0 -5.789296199033739 3.3606629158734052 0 3.3606629158734052 12.246132981082926 0 0 0 0 -58.363083357906362 69.270318689421401 0 69.270318689421401 54.769248993685324 0 0 0 0 27.613638688253104 12.685185998299858 0 12.685185998299858 49.421014790517802 0 0 0 0 -6.4367787934643275 -9.7542874825958279 0 -9.7542874825958279 60.879054634022395 0 0 0 0 -52.478761220094384 -140.56586451270414 0 -140.56586451270414 -99.101396359659702 0 0 0 0 0.72674039701514914 0.69784539627649167 0 0.69784539627649167 -0.68863334997401893 0 0 0 0 -6.2066657675867898 -5.4415342233100326 0 -5.4415342233100326 36.745964342192792 0 0 0 0 -8.6972818435087902 4.7531250370593625 0 4.7531250370593625 56.115738804073771 0 0 0 0 0.88529232445322847 2.3609569460923083 0 2.3609569460923083 4.9561474314786835 0 0 0 0 -53.282178924275286 -43.340456361103861 0 -43.340456361103861 78.760891859303229 0 0 0 0 -20.828545257428232 -36.708667594270082 0 -36.708667594270082 25.858323825334082 0 0 0 0 -32.250528766733623 51.517197408582433 0 51.517197408582433 124.84398600715213 0 0 0 0 -10.417515929002548 -34.560835434509499 0 -34.560835434509499 106.42971392489017 0 0 0 0 1.0327113759202842 -3.8278070614427691 0 -3.8278070614427691 -2.421855766200764 0 0 0 0 25.53942708516297 0.12884317777206888 0 0.12884317777206888 119.31517749834893 0 0 0 0 -20.89438861062149 -29.626803147692954 0 -29.626803147692954 116.09786105529929 0 0 0 0 -27.586537287106012 -14.495506156049487 0 -14.495506156049487 131.79576030011231 0 0 0 0 -47.753055361653423 -16.97422944628488 0 -16.97422944628488 116.09723780136846 0 0 0 0 -84.894058453759499 -31.302661733738205 0 -31.302661733738205 187.82066677747207 0 0 0 0 -65.295026157782559 -53.338667125079155 0 -53.338667125079155 101.28344771547199 0 0 0 0 -66.714390665427345 -12.445673160928891 0 -12.445673160928891 52.60121837171755 0 0 0 0 30.1317994218698 -55.97954609948647 0 -55.97954609948647 9.4884500130156084 0 0 0 0 0.42786170422778014 -16.351533577257214 0 -16.351533577257214 84.634486919771916 0 0 0 0 0.19237111280157215 2.8330302152191607 0 2.8330302152191607 13.950023738052995 0 0 0 0 0.97701486855567055 -22.227895079485734 0 -22.227895079485734 38.176757674037617 0 0 0 0 -2.3957966917660221 -7.0533138834433835 0 -7.0533138834433835 17.092747811824985 0 0 0 0 1.1767233397255694 -9.4819730235881465 0 -9.4819730235881465 38.817183645506276 0 0 0 0 -23.24105630985423 -10.675215063327414 0 -10.675215063327414 72.955330669006798 0 0 0 0 1.0109925202938825 -5.1769225065020237 0 -5.1769225065020237 41.772477220511064 0 0 0 0 25.590342416764543 -13.911576863465598 0 -13.911576863465598 22.255943876716628 0 0 0 0 -10.273665907380746 1.5133913952158764 0 1.5133913952158764 58.385918324493105 0 0 0 0 35.700041201305794 -38.980193438659626 0 -38.980193438659626 80.135600787150906 0 0 0 0 8.6612729095522809 10.4091161069191 0 10.4091161069191 82.243871524464339 0 0 0 0 7.6048546683578024 7.705165812803898 0 7.705165812803898 108.10378972193575 0 0 0 0 13.50030332106553 -17.242108802655821 0 -17.242108802655821 104.66856593583361 0 0 0 0 13.90932431037254 -15.316773035730876 0 -15.316773035730876 69.591031548676256 0 0 0 0 -113.4012669791955 31.675389044837175 0 31.675389044837175 100.97776256275756 0 0 0 0 -1.1662948459348783 0.89526387246472439 0 0.89526387246472439 8.9994810010683324 0 0 0 0 133.92181982450529 -166.65181486500296 0 -166.65181486500296 52.465455136050878 0 0 0 0 31.205761291019371 -22.792434754177521 0 -22.792434754177521 79.266385951254051 0 0 0 0 30.274594052336397 -61.365539368372993 0 -61.365539368372993 104.20297993245913 0 0 0 0 -82.305033631317201 -68.935711108970281 0 -68.935711108970281 123.44866079518397 0 0 0 0 -9.9961728436792328 -224.59203659505874 0 -224.59203659505874 98.294949718459975 0 0 0 0 -157.9614055718157 -290.54636500314518 0 -290.54636500314518 75.861334276289199 0 0 0 0 39.673324205743484 -37.025124887069978 0 -37.025124887069978 74.569227336847689 0 0 0 0 95.76100363007572 -35.586772841910715 0 -35.586772841910715 55.74237835619715 0 0 0 0 100.45474480825214 -51.406943702466378 0 -51.406943702466378 74.920603339691297 0 0 0 0 -56.97548935155919 5.3226398628776224 0 5.3226398628776224 48.141346267955669 0 0 0 0 -26.98367536862952 35.0070808870787 0 35.0070808870787 11.193883269705111 0 0 0 0 -7.6815910162691416 -1.2679665324272804 0 -1.2679665324272804 18.737997163805453 0 0 0 0 -26.394881932239855 -1.3209833590244671 0 -1.3209833590244671 29.672867768204014 0 0 0 0 -19.025322820823536 -3.4086194408532293 0 -3.4086194408532293 22.375931330157755 0 0 0 0 12.774009973642023 -6.7849574617248436 0 -6.7849574617248436 54.494169739435165 0 0 0 0 -69.421960820418917 2.4466492816263781 0 2.4466492816263781 59.334061112851487 0 0 0 0 -14.694273869247809 46.788396491332605 0 46.788396491332605 -53.124831217821338 0 0 0 0 137.33117774462556 19.779284214990298 0 19.779284214990298 43.913860807369929 0 0 0 0 26.681971680820425 42.17363866159576 0 42.17363866159576 96.856348372719367 0 0 0 0 -16.072577152630402 -34.05350606248976 0 -34.05350606248976 92.724573743413202 0 0 0 0 -0.64202209926154552 4.7673234320657194 0 4.7673234320657194 13.780231113199093 0 0 0 0 -18.018633305752843 -0.83130741506079175 0 -0.83130741506079175 69.031229233696649 0 0 0 0 -12.886079340070154 -1.822004084464524 0 -1.822004084464524 26.542963308632778 0 0 0 0 -6.3378647262294407 -10.527335937957105 0 -10.527335937957105 67.179846767416166 0 0 0 0 -20.039954681114381 -13.195764404231113 0 -13.195764404231113 74.493541025753075 0 0 0 0 -5.3794653656382252 -7.1279746100699413 0 -7.1279746100699413 30.321345756259689 0 0 0 0 -13.552334421540195 -3.2473800567513535 0 -3.2473800567513535 109.07118846088269 0 0 0 0 -4.355903144434933 -27.802491372449367 0 -27.802491372449367 115.46266130408185 0 0 0 0 -6.4512358403389953 -13.36777461190286 0 -13.36777461190286 74.332202896484887 0 0 0 0 -13.338429302663485 -4.8702403540701198 0 -4.8702403540701198 85.817295857516001 0 0 0 0 -12.743832237156766 -18.134442697195482 0 -18.134442697195482 98.773418203949404 0 0 0 0 -11.593233040425275 -19.1535414205282 0 -19.1535414205282 97.87950135639403 0 0 0 0 -34.397598221706858 -24.77458850036146 0 -24.77458850036146 47.618180726944956 0 0 0 0 -13.229177866990085 -20.361281110479467 0 -20.361281110479467 97.368541353142064 0 0 0 0 -3.5389206713368244 -19.409387458868729 0 -19.409387458868729 71.547297656150562 0 0 0 0 0.77198170856854631 68.359775262330004 0 68.359775262330004 65.435181930724866 0 0 0 0 -20.99986147538948 -21.807502324460074 0 -21.807502324460074 44.616731696136412 0 0 0 0 -9.9835105347892181 0.34970033181484084 0 0.34970033181484084 55.579128465780471 0 0 0 0 -16.382498616141312 65.217167921995937 0 65.217167921995937 57.428500600767393 0 0 0 0 -13.605349229413207 -12.292985858616703 0 -12.292985858616703 82.477863893887843 0 0 0 0 -8.6866546844121331 -18.344591858673084 0 -18.344591858673084 84.270514520154393 0 0 0 0 -2.1847146198251721 -3.5348002002901922 0 -3.5348002002901922 43.350507759590982 0 0 0 0 -26.606785921349001 -43.539308525267643 0 -43.539308525267643 119.6791143953069 0 0 0 0 1.3378741448239619 -11.859894188561752 0 -11.859894188561752 59.469089705781812 0 0 0 0 -69.684028178225162 35.129516046697972 0 35.129516046697972 17.662634969339706 0 0 0 0 -16.605196592711724 6.5225308262441679 0 6.5225308262441679 48.24346817971697 0 0 0 0 -10.507407378701776 -21.254039298905155 0 -21.254039298905155 48.972876794065272 0 0 0 0 -21.133826996917378 -34.096686268612757 0 -34.096686268612757 39.019722065985661 0 0 0 0 15.213659286220718 -69.162640805435331 0 -69.162640805435331 59.619203820828261 0 0 0 0 25.726624386194089 -94.064414156590828 0 -94.064414156590828 66.711967131317351 0 0 0 0 -314.03057814884141 33.253910068408914 0 33.253910068408914 -53.729419398291611 0 0 0 0 -3.648372969403983 4.5737513855324163 0 4.5737513855324163 7.0372101043572144 0 0 0 0 -195.59985085960966 -259.2747087251355 0 -259.2747087251355 34.241841081811799 0 0 0 0 -2.1357786635512523 -8.6406536582123117 0 -8.6406536582123117 21.884697070259648 0 0 0 0 -613.96039138453352 361.19344180311464 0 361.19344180311464 222.50918017436288 0 0 0 0 -699.88470674034932 16.122563556238106 0 16.122563556238106 708.88375695702962 0 0 0 0 -53.249168104950854 -450.46157513184062 0 -450.46157513184062 555.07402587856632 0 0 0 0 7.908619813334667 8.5233509578301891 0 8.5233509578301891 122.43416152169812 0 0 0 0 7.9086198133333028 8.5233509578238227 0 8.5233509578238227 122.43416152159625 0 0 0 0 9.769130501932068 4.0381828476820374 0 4.0381828476820374 128.24972772240289 0 0 0 0 21.420877774620749 -7.7742177759646438 0 -7.7742177759646438 137.42896134172042 0 0 0 0 9.1323711145794846 3.2361932526564487 0 3.2361932526564487 130.47688186381129 0 0 0 0 6.5197952207720391 -0.86729641080637521 0 -0.86729641080637521 136.36284713753412 0 0 0 0 5.2786668876619842 4.0322330475282797 0 4.0322330475282797 120.04327807614754 0 0 0 0 6.9333545444696938 -2.2910855789014022 0 -2.2910855789014022 127.69265356543474 0 0 0 0 8.956192144067245 4.5265305190187064 0 4.5265305190187064 122.22543452307946 0 0 0 0 3.1447821104857212 2.3634781039399968 0 2.3634781039399968 126.48194321820483 0 0 0 0 -13.184880989100066 -0.61619173397048144 0 -0.61619173397048144 124.56601002629031 0 0 0 0 -7.1064728591377389 -6.8381312753117527 0 -6.8381312753117527 120.72919495501264 0 0 0 0 -1.7476818502059359 -1.5507817142679414 0 -1.5507817142679414 116.82991890959966 0 0 0 0 4.8561686809334788 4.2274541117076296 0 4.2274541117076296 118.82648596575837 0 0 0 0 7.9086198133331891 8.5233509578210942 0 8.5233509578210942 122.43416152164718 0 0 0 0 4.2268178444955993 3.4844210751962237 0 3.4844210751962237 124.41698168496077 0 0 0 0 26.287469744586929 -9.8149040332546065 0 -9.8149040332546065 138.20769320615364 0 0 0 0 -30.358907355538577 -34.451647577476251 0 -34.451647577476251 39.977520655025728 0 0 0 0 0.97317272347651551 -12.654727675181862 0 -12.654727675181862 32.520233109010498 0 0 0 0 -2.7855782519909553 -8.3904822996912571 0 -8.3904822996912571 38.006525763965328 0 0 0 0 -4.3167060613413462 -26.059832553314038 0 -26.059832553314038 34.380085615700537 0 0 0 0 29.201544970981104 -12.322905426164652 0 -12.322905426164652 137.06114475044797 0 0 0 0 -31.513527607633257 -1.8385746167235659 0 -1.8385746167235659 124.89065796957777 0 0 0 0 12.027187067375507 -30.891898698315345 0 -30.891898698315345 209.62137159378108 0 0 0 0 -28.064357073212776 39.026219312989632 0 39.026219312989632 63.584479350290188 0 0 0 0 -5.6910038562734826 -15.988723924635451 0 -15.988723924635451 166.66109167389368 0 0 0 0 -12.619413801050086 -39.189803523892351 0 -39.189803523892351 168.16760154740041 0 0 0 0 -4.2921251960960944 -34.47792130259586 0 -34.47792130259586 192.54296177150536 0 0 0 0 12.909997700402528 -29.455290720819903 0 -29.455290720819903 182.77243052638369 0 0 0 0 27.364504243410465 -35.393847556533728 0 -35.393847556533728 175.17982484524509 0 0 0 0 27.170987375636287 -22.404561624294729 0 -22.404561624294729 160.10415947944057 0 0 0 0 44.185880167821324 -27.654378705752606 0 -27.654378705752606 152.12457279513183 0 0 0 0 48.014024036401821 -41.639554925059429 0 -41.639554925059429 176.64179779926053 0 0 0 0 49.334763132220047 -25.385483018109426 0 -25.385483018109426 164.48568214122497 0 0 0 0 40.929057256403212 -35.414973133942112 0 -35.414973133942112 182.75265537582891 0 0 0 0 57.009797302393054 -47.091345944187196 0 -47.091345944187196 189.07817751722905 0 0 0 0 37.97866813906694 -47.166885259335686 0 -47.166885259335686 202.95093649273622 0 0 0 0 15.7241226378801 -8.676490668207407 0 -8.676490668207407 242.69431759370491 0 0 0 0 49.052425837998612 -40.158543854413892 0 -40.158543854413892 205.3824294534279 0 0 0 0 51.342878833098212 -31.455957899475834 0 -31.455957899475834 226.35825827690132 0 0 0 0 26.507209525501594 -37.085692644743176 0 -37.085692644743176 185.13473471011093 0 0 0 0 26.49093306596842 -38.021313073062629 0 -38.021313073062629 197.33972614953382 0 0 0 0 -8.6594013091280431 -28.060739235501387 0 -28.060739235501387 212.42400702226223 0 0 0 0 -7.1890774977200635 -33.265077468338859 0 -33.265077468338859 197.94450876755582 0 0 0 0 10.686030528314859 -40.644430671058217 0 -40.644430671058217 196.1299412440203 0 0 0 0 8.0125755739945816 -12.428515923802479 0 -12.428515923802479 138.13970182066987 0 0 0 0 -21.427095659023507 -29.949814977673668 0 -29.949814977673668 146.94291472233817 0 0 0 0 -4.5897245570304221 -2.6912530308327405 0 -2.6912530308327405 136.71225879344456 0 0 0 0 -26.6428951974558 -21.656018488640257 0 -21.656018488640257 125.42106024120585 0 0 0 0 -7.9595365332355641 -5.4619569995693382 0 -5.4619569995693382 119.37042551742343 0 0 0 0 -8.2906826633943638 -6.8507816647197615 0 -6.8507816647197615 132.57436477247393 0 0 0 0 4.8882453413207259 1.167588907705067 0 1.167588907705067 135.27842036866059 0 0 0 0 23.251342179424682 -10.846457564008233 0 -10.846457564008233 134.32232751519768 0 0 0 0 27.368776609056113 -5.8219322720869968 0 -5.8219322720869968 140.36567468072462 0 0 0 0 41.329106858528121 -13.267385497718351 0 -13.267385497718351 132.7486113751911 0 0 0 0 38.232907843185103 -17.8046318719189 0 -17.8046318719189 146.45209054536826 0 0 0 0 48.478538668158308 -9.0492626482518972 0 -9.0492626482518972 150.79030608134781 0 0 0 0 50.399465274847898 -30.935499950592202 0 -30.935499950592202 156.20668645311525 0 0 0 0 40.146521771641346 -17.179863147219294 0 -17.179863147219294 143.08695225240626 0 0 0 0 40.772889213435519 -14.220957421497587 0 -14.220957421497587 148.79281531174217 0 0 0 0 16.839262524578771 -2.3418515547018615 0 -2.3418515547018615 148.63507646686776 0 0 0 0 36.650225766345216 -22.711287099689798 0 -22.711287099689798 167.46013807216514 0 0 0 0 64.245529076990351 -6.8835833582124906 0 -6.8835833582124906 176.48615666570549 0 0 0 0 64.52313312676506 -44.036248711181543 0 -44.036248711181543 181.81543644645717 0 0 0 0 60.604275965578381 -31.619170113665859 0 -31.619170113665859 194.91414511208131 0 0 0 0 93.82237851044556 -51.992633291658422 0 -51.992633291658422 206.65652179174504 0 0 0 0 67.575311118998798 -12.665965991162011 0 -12.665965991162011 241.30719119317655 0 0 0 0 118.4898124532383 8.3192344591443543 0 8.3192344591443543 247.53066997668066 0 0 0 0 130.00864444332365 -61.420397950496408 0 -61.420397950496408 237.62758133441821 0 0 0 0 -13.738145709439323 -56.645769163060322 0 -56.645769163060322 249.82923446274435 0 0 0 0 31.699591287444036 4.7350106008234434 0 4.7350106008234434 232.22875999378448 0 0 0 0 68.51322779752536 -31.927152866217511 0 -31.927152866217511 194.46446799272599 0 0 0 0 -39.437632107009449 -27.799643411606667 0 -27.799643411606667 216.13496831758675 0 0 0 0 -56.024707127966849 -66.372489072295139 0 -66.372489072295139 215.37287253437182 0 0 0 0 0.68628509173368002 -4.4645975082021323 0 -4.4645975082021323 173.10461681957531 0 0 0 0 15.054139091176694 -27.24642139513071 0 -27.24642139513071 173.78549765163189 0 0 0 0 -21.287548864002019 -23.808129994913543 0 -23.808129994913543 120.82000749370491 0 0 0 0 -67.590035763929336 -52.077511158910056 0 -52.077511158910056 152.2697121640449 0 0 0 0 -37.734134655235863 -50.161649737348057 0 -50.161649737348057 146.64049316589808 0 0 0 0 -89.726195891788848 -99.663149257015903 0 -99.663149257015903 178.17447795649059 0 0 0 0 -45.733003780730655 -76.160651323174534 0 -76.160651323174534 43.046229437955844 0 0 0 0 -56.729503426175484 -69.589398700954916 0 -69.589398700954916 205.39534332051699 0 0 0 0 -2.7848183335179328 -101.20661278227999 0 -101.20661278227999 254.34233545189386 0 0 0 0 -0.23978043322809706 -5.8453891160100717 0 -5.8453891160100717 17.20947658164733 0 0 0 0 -5.7407382731003054 -122.46947286108843 0 -122.46947286108843 228.79435124417091 0 0 0 0 -114.59515000077499 -74.62581906442756 0 -74.62581906442756 245.7666337104929 0 0 0 0 -2.8709598909854321 -35.221938445065462 0 -35.221938445065462 229.83044697200967 0 0 0 0 82.819435158360648 -54.532557430968154 0 -54.532557430968154 258.94594108725323 0 0 0 0 29.766963452517302 -15.318721180432476 0 -15.318721180432476 288.67715927065001 0 0 0 0 247.88347184983286 -152.50790386588778 0 -152.50790386588778 311.7215796873279 0 0 0 0 50.07640774955803 -65.440265731189356 0 -65.440265731189356 348.26314687139529 0 0 0 0 -85.945769204785393 -52.343787738049286 0 -52.343787738049286 411.54922494184575 0 0 0 0 -1.9982163959359327 10.507010790084708 0 10.507010790084708 1.2258097116280737 0 0 0 0 -32.94054351981049 43.260632530016665 0 43.260632530016665 59.128967407671553 0 0 0 0 -145.06714989802276 38.057370619872017 0 38.057370619872017 73.733733492128522 0 0 0 0 -107.60842525409771 224.52359826940301 0 224.52359826940301 105.57285539742225 0 0 0 0 -302.93274844100165 118.00380573464338 0 118.00380573464338 148.72287306771614 0 0 0 0 -45.213505576299077 -63.548712373895796 0 -63.548712373895796 82.042471086555452 0 0 0 0 -72.166696114236856 -59.213453755098271 0 -59.213453755098271 104.74598412281557 0 0 0 0 -3.7324010306847226 -20.288044472354777 0 -20.288044472354777 100.76706897822763 0 0 0 0 277.44790018514504 355.17103869759558 0 355.17103869759558 204.64989460435208 0 0 0 0 510.76175275623564 -458.81347598130014 0 -458.81347598130014 341.92941272875032 0 0 0 0 402.14441725603751 -68.24468315899685 0 -68.24468315899685 -184.49414213792261 0 0 0 0 85.855085225017319 149.26458128331797 0 149.26458128331797 18.493410242761456 0 0 0 0 86.273508410965405 128.47666014279093 0 128.47666014279093 -41.030985240786322 0 0 0 0 121.26609761697 91.358164230476177 0 91.358164230476177 -30.861098401859181 0 0 0 0 55.414939248714745 60.43641380677218 0 60.43641380677218 37.186459949276468 0 0 0 0 -39.907876927428333 136.94464931652965 0 136.94464931652965 17.287014207238826 0 0 0 0 8.7385813956807397 98.500800037249064 0 98.500800037249064 46.714934739669388 0 0 0 0 -5.0968022574597853 14.296610563735157 0 14.296610563735157 -2.6517542280598718 0 0 0 0 17.659033245729006 21.215288143986982 0 21.215288143986982 -3.6234247355332627 0 0 0 0 3.4355015642247242 -0.599755410926754 0 -0.599755410926754 -5.5119822080344534 0 0 0 0 -114.4564519841523 63.29089347853369 0 63.29089347853369 -14.179582278404268 0 0 0 0 37.174721345351827 127.88955151900245 0 127.88955151900245 -134.08261126513753 0 0 0 0 31.472809509188778 23.228385108311159 0 23.228385108311159 -80.252784261141642 0 0 0 0 14.66193272096433 -61.407748015408288 0 -61.407748015408288 -49.239851379130414 0 0 0 0 6.3742244972569324 4.5843567689225893 0 4.5843567689225893 88.488672082497942 0 0 0 0 0.95321569895543234 -24.616654149379428 0 -24.616654149379428 3.2646882973967877 0 0 0 0 -12.220668276441756 -16.300132803302404 0 -16.300132803302404 14.203889271564549 0 0 0 0 -7.6934501491348124 -32.927698259102733 0 -32.927698259102733 21.923787543148158 0 0 0 0 -6.1960052876947591 -24.792347081506833 0 -24.792347081506833 38.798172660094338 0 0 0 0 -13.989308788618473 -17.971099913946091 0 -17.971099913946091 66.190310076879541 0 0 0 0 -12.313206588096364 10.093315464124316 0 10.093315464124316 215.8241821538486 0 0 0 0 -1.4329301245815236 10.835277948695321 0 10.835277948695321 3.6981096516322651 0 0 0 0 -7.104886968273604 12.24471951000487 0 12.24471951000487 31.512740667450998 0 0 0 0 -19.671021342121094 -27.732980028304155 0 -27.732980028304155 61.982432526980119 0 0 0 0 -15.127025838251029 -15.566371840337524 0 -15.566371840337524 51.639679462659842 0 0 0 0 -12.644771012030112 -7.652265145752807 0 -7.652265145752807 43.969935385651084 0 0 0 0 1.6326257057350708 -29.55907721203782 0 -29.55907721203782 17.237585584203025 0 0 0 0 -6.0877790442844857 -29.041185665706266 0 -29.041185665706266 71.336386229994986 0 0 0 0 -35.644953758487276 -27.015878673618687 0 -27.015878673618687 120.76573232834383 0 0 0 0 8.5246819569201762 1.6915862847672543 0 1.6915862847672543 165.52887399422161 0 0 0 0 7.3859138022876323 33.712841682103317 0 33.712841682103317 207.6361140646477 0 0 0 0 -15.034930047917101 -22.4751600591444 0 -22.4751600591444 113.86191673086432 0 0 0 0 -8.4648794335612365 -26.876690231983957 0 -26.876690231983957 105.24167815073088 0 0 0 0 -66.577568919354235 -59.871178071072791 0 -59.871178071072791 7.8013913232425693 0 0 0 0 -8.5076970661970677 -41.588049923693688 0 -41.588049923693688 146.48954024910199 0 0 0 0 -1.4469840937669249 -1.9397925714868762 0 -1.9397925714868762 16.524609036124687 0 0 0 0 -0.94206623414413571 -37.33357054116459 0 -37.33357054116459 116.24278848786344 0 0 0 0 -16.053328697444215 -19.558828463041209 0 -19.558828463041209 120.33694903359719 0 0 0 0 -4.8274122590576098 -20.862172620734782 0 -20.862172620734782 128.44468783928824 0 0 0 0 6.0491489148244 23.496321678794629 0 23.496321678794629 31.486702761125343 0 0 0 0 0.59731946021349791 -0.41552186578971373 0 -0.41552186578971373 -1.2352611923699612 0 0 0 0 15.041406208426906 -72.795216006685223 0 -72.795216006685223 184.61320503780735 0 0 0 0 -38.324186730573601 -6.2295792757759045 0 -6.2295792757759045 134.5704845057262 0 0 0 0 -15.571292304963888 -62.158531366615534 0 -62.158531366615534 166.78675295818539 0 0 0 0 -0.14691204974267613 -33.548792113941303 0 -33.548792113941303 -5.8704450871413236 0 0 0 0 -4.7352572883111677 -5.2372047288777139 0 -5.2372047288777139 99.315989837596135 0 0 0 0 -10.847399316778819 -31.369083833240438 0 -31.369083833240438 73.768540765446232 0 0 0 0 -0.69834194100433611 -1.0059975283182752 0 -1.0059975283182752 12.686614308814672 0 0 0 0 0.015903117802267275 -36.693721838333644 0 -36.693721838333644 13.291751472629905 0 0 0 0 -17.826643831306797 -40.964405615781288 0 -40.964405615781288 65.509572001845299 0 0 0 0 -33.478596340480067 -0.15595323365232616 0 -0.15595323365232616 -60.071476585719211 0 0 0 0 275.22377704036342 -78.107261705848941 0 -78.107261705848941 -50.451791225631951 0 0 0 0 112.5857172808619 -230.93011976657181 0 -230.93011976657181 103.12596364369665 0 0 0 0 106.65689489802298 -33.692303736677786 0 -33.692303736677786 -250.30908665472452 0 0 0 0 32.850041474113823 -151.70859122018646 0 -151.70859122018646 85.443526174552971 0 0 0 0 -23.670811655877969 -68.489619965875136 0 -68.489619965875136 45.562844774376572 0 0 0 0 10.350295876593185 -4.3575073079430346 0 -4.3575073079430346 -8.0984269877990762 0 0 0 0 -48.175501597931998 -110.06276177264408 0 -110.06276177264408 144.53118986572736 0 0 0 0 -11.545051528540398 -246.0694892408319 0 -246.0694892408319 379.43361244636071 0 0 0 0 -137.36126483049929 -220.21837932989365 0 -220.21837932989365 396.23340277323496 0 0 0 0 195.88142068077013 -135.33866008004406 0 -135.33866008004406 496.04801835920171 0 0 0 0 286.93676915774995 -402.96060344494231 0 -402.96060344494231 307.83408857079849 0 0 0 0 50.313758071469692 -124.34789466034727 0 -124.34789466034727 89.290392505565251 0 0 0 0 17.602934403747895 -258.5248899905655 0 -258.5248899905655 473.45364196824266 0 0 0 0 -163.45502668669815 -27.873479079264143 0 -27.873479079264143 290.05834519745304 0 0 0 0 -115.32435104615752 -169.9020581846753 0 -169.9020581846753 355.92812321201382 0 0 0 0 -67.000954022386395 -199.92254301469075 0 -199.92254301469075 371.91817262109907 0 0 0 0 4.5903964194376385 -113.79367605938205 0 -113.79367605938205 264.3657311916586 0 0 0 0 80.186187227332994 0.038989215307083214 0 0.038989215307083214 -75.552419913838094 0 0 0 0 -114.02438280820206 -54.068082582241914 0 -54.068082582241914 696.58470108274196 0 0 0 0 4.4911431308560239 0.20005013126074545 0 0.20005013126074545 0.11314364646404584 0 0 0 0 -44.946508167275169 -51.282553028106122 0 -51.282553028106122 431.60316902768955 0 0 0 0 201.30661303426086 -138.73355022367559 0 -138.73355022367559 9.013030579284532 0 0 0 0 127.94790541208135 223.00970461463703 0 223.00970461463703 293.25728394164616 0 0 0 0 6.0542951653369528 -286.2452983983294 0 -286.2452983983294 181.32585165666387 0 0 0 0 17.711966796593515 -96.000960092973401 0 -96.000960092973401 11.159212177408335 0 0 0 0 22.093682844124103 -43.811827767282011 0 -43.811827767282011 149.60745530686836 0 0 0 0 19.770777040905553 -29.797065404035905 0 -29.797065404035905 -2.177103293706093 0 0 0 0 -7.3951400031000958 -42.715651501413959 0 -42.715651501413959 -30.336619915226038 0 0 0 0 -9.9218952611279292 -53.691949265983567 0 -53.691949265983567 225.26286320430518 0 0 0 0 10.334032640920498 4.2103976828720988 0 4.2103976828720988 80.54723400700459 0 0 0 0 -25.897453881245099 -7.5264608220568334 0 -7.5264608220568334 148.24787827796342 0 0 0 0 -17.940593122939717 -29.843673440409475 0 -29.843673440409475 158.76182650402188 0 0 0 0 -10.041878575972078 -36.118750417761476 0 -36.118750417761476 60.918515516710613 0 0 0 0 -0.28417243072181009 15.682681421880261 0 15.682681421880261 117.36684779305506 0 0 0 0 -4.5503983365762579 -28.926555861248104 0 -28.926555861248104 33.115684805372879 0 0 0 0 -14.487222324050812 -6.688037682635013 0 -6.688037682635013 82.858123134741618 0 0 0 0 1.3699557210687772 -7.2467931357496127 0 -7.2467931357496127 79.956207121700572 0 0 0 0 -8.6952334383063885 -30.125008297116437 0 -30.125008297116437 102.37499320193456 0 0 0 0 7.3742631356657853 -16.209283733564007 0 -16.209283733564007 77.09341877175757 0 0 0 0 -16.817622176890836 -15.200299038428057 0 -15.200299038428057 151.65103118445404 0 0 0 0 -16.486530113938556 -15.218505904063932 0 -15.218505904063932 77.117034380616076 0 0 0 0 -23.912065811171203 -24.674420791132434 0 -24.674420791132434 81.675682163875081 0 0 0 0 -8.6675045149858647 -36.563664971992694 0 -36.563664971992694 24.626875594549347 0 0 0 0 -14.245031774856704 -23.504495654256033 0 -23.504495654256033 32.195137471487257 0 0 0 0 -19.079522014527015 -29.776750243636343 0 -29.776750243636343 16.206354096200812 0 0 0 0 -4.7718957369688724 -10.813751483707165 0 -10.813751483707165 27.469512834002671 0 0 0 0 8.191383666119691 -37.879971086003934 0 -37.879971086003934 101.92043359052332 0 0 0 0 -22.836213398979531 -16.207364555013527 0 -16.207364555013527 36.816025358677059 0 0 0 0 -17.275556495505953 121.45993934170838 0 121.45993934170838 79.151792126824148 0 0 0 0 35.817354398090117 -46.332854795269668 0 -46.332854795269668 36.239403951913118 0 0 0 0 -1.0352179353184283 -2.5132440636025564 0 -2.5132440636025564 -1.3174000328888307 0 0 0 0 -18.072118635623156 31.220748021332838 0 31.220748021332838 46.610287019655516 0 0 0 0 -3.3584483143006283 -1.0395034552822722 0 -1.0395034552822722 17.819415559402714 0 0 0 0 -5.4630598077990271 -9.1831194332444284 0 -9.1831194332444284 64.900235900193138 0 0 0 0 -15.980462732121282 10.320565643061855 0 10.320565643061855 82.92577313867514 0 0 0 0 -3.5172778633286725 23.800771922873537 0 23.800771922873537 128.67035914549706 0 0 0 0 1.3453913751358186 -20.616786041741307 0 -20.616786041741307 81.663406538616982 0 0 0 0 -247.57850472039559 201.09116949268719 0 201.09116949268719 223.13424441387906 0 0 0 0 -193.36091238350696 184.41952911914268 0 184.41952911914268 149.33099214231333 0 0 0 0 44.866012274522291 -19.383846119373629 0 -19.383846119373629 309.02740402786731 0 0 0 0 -396.27425103769929 450.07731006362883 0 450.07731006362883 402.49785688499105 0 0 0 0 -25.702602430469597 -34.633478657255182 0 -34.633478657255182 82.658187321503647 0 0 0 0 -255.61167217127286 32.074249583307392 0 32.074249583307392 93.595464840860245 0 0 0 0 -5.7670648473475961 -12.938627669816135 0 -12.938627669816135 75.590615171363254 0 0 0 0 22.896693215714834 55.815733375353375 0 55.815733375353375 38.257991892140126 0 0 0 0 -15.905355300993813 -1.9154406053307866 0 -1.9154406053307866 24.697060452276325 0 0 0 0 -152.59944043973383 404.65565084337868 0 404.65565084337868 -456.10400731381378 0 0 0 0 -4.8918575295218663 -3.5144779216466588 0 -3.5144779216466588 0.31980899506531024 0 0 0 0 547.8734181488926 355.77128756100137 0 355.77128756100137 277.93888123364013 0 0 0 0 -313.5715624551076 1192.3604746796227 0 1192.3604746796227 457.02979089248402 0 0 0 0 -38.317336859270654 -124.61158922569302 0 -124.61158922569302 1012.3646552443388 0 0 0 0 -248.5391192005095 2.2181921711453469 0 2.2181921711453469 775.90344388342055 0 0 0 0 12.090977563397928 83.865019065553497 0 83.865019065553497 0.66682552173733711 0 0 0 0 10.795355098865912 92.645929159425577 0 92.645929159425577 9.9441332428650639 0 0 0 0 -1.2906568934041989 8.0071695264199292 0 8.0071695264199292 4.543001217524079 0 0 0 0 999.48411931012288 452.10310348934581 0 452.10310348934581 -85.062285445310408 0 0 0 0 968.37391649754318 182.70127670812508 0 182.70127670812508 -167.06287230827729 0 0 0 0 1013.016462557156 -2.8574483653428615 0 -2.8574483653428615 199.99753908913408 0 0 0 0 177.68442218145901 260.92551861550601 0 260.92551861550601 176.77708053089009 0 0 0 0 808.78290105541782 594.91882287530461 0 594.91882287530461 351.88679424233123 0 0 0 0 -188.24594027363793 378.63153450495633 0 378.63153450495633 915.17258984601358 0 0 0 0 0.033300675123246748 2.7643045055969537 0 2.7643045055969537 11.606768303452668 0 0 0 0 -49.957770144539154 -44.270273216654459 0 -44.270273216654459 709.48701926076319 0 0 0 0 209.30908623934556 751.03478182015533 0 751.03478182015533 1154.6839976375923 0 0 0 0 509.03165743406225 1050.0413046076865 0 1050.0413046076865 815.22214901959524 0 0 0 0 1077.9088780692791 677.79170318535034 0 677.79170318535034 375.60702701978153 0 0 0 0 66.927090188708462 227.56977733439999 0 227.56977733439999 248.25826111764763 0 0 0 0 373.40046297431309 960.37880516279256 0 960.37880516279256 659.98175308879581 0 0 0 0 -194.17629863130242 -430.31234050399507 0 -430.31234050399507 570.76021545235199 0 0 0 0 -738.27211669382905 -985.80285722570261 0 -985.80285722570261 -257.40918317852538 0 0 0 0 -54.39146788357084 -66.517957914285944 0 -66.517957914285944 -157.97428633871459 0 0 0 0 -210.74577478269549 -168.52864934484865 0 -168.52864934484865 146.39780405772763 0 0 0 0 -724.95869833238669 -163.25847318484011 0 -163.25847318484011 307.48226748648449 0 0 0 0 -27.941120629614943 -16.053849930001888 0 -16.053849930001888 103.85781037833658 0 0 0 0 24.734072022950841 -7.9716008352279459 0 -7.9716008352279459 49.591429917665664 0 0 0 0 -2.3816725111945782 -18.672092864092299 0 -18.672092864092299 69.944639910400554 0 0 0 0 0.72834111610478169 -29.510117702322333 0 -29.510117702322333 62.506650084158906 0 0 0 0 34.085943511989797 -74.684889431671763 0 -74.684889431671763 99.550846399964939 0 0 0 0 40.735646491352895 12.444934495797497 0 12.444934495797497 182.70621370070148 0 0 0 0 49.474426071685684 -116.78640905347129 0 -116.78640905347129 289.92693324715947 0 0 0 0 93.518430025014595 -37.064150586105825 0 -37.064150586105825 110.88637826474587 0 0 0 0 7.1453679607846396 -1.9161874018743568 0 -1.9161874018743568 0.92082145571785645 0 0 0 0 24.469439281222662 54.863031403416244 0 54.863031403416244 189.60441836594327 0 0 0 0 103.80269107187814 29.934690487687476 0 29.934690487687476 187.20043945667567 0 0 0 0 -31.504480969251063 -96.714149319448552 0 -96.714149319448552 247.8799399878917 0 0 0 0 9.5185829606801118 -52.335351620005532 0 -52.335351620005532 137.77588974300198 0 0 0 0 45.201156602332958 56.398195329928058 0 56.398195329928058 114.73591082206258 0 0 0 0 9.0226578081940261 11.245667361490632 0 11.245667361490632 110.18269992343994 0 0 0 0 -7.2995490859429779 16.683127602166763 0 16.683127602166763 57.619860837603852 0 0 0 0 -207.12654061678495 -154.43066853317032 0 -154.43066853317032 145.7744385599508 0 0 0 0 -76.058365780425675 36.434174940994126 0 36.434174940994126 143.25799860991538 0 0 0 0 -7.9148683937712629 -8.2004939403340664 0 -8.2004939403340664 141.35580819967083 0 0 0 0 -0.73310278399367235 52.359367346623912 0 52.359367346623912 128.54181884279387 0 0 0 0 40.619345912868084 30.530579373618821 0 30.530579373618821 113.43961209332338 0 0 0 0 -6.0191643659828742 37.76028920646695 0 37.76028920646695 134.29938300523645 0 0 0 0 -71.501160476524319 86.955789658568392 0 86.955789658568392 222.60433872305293 0 0 0 0 -316.93589291730405 13.970549150267288 0 13.970549150267288 301.60512484765059 0 0 0 0 -5.5012257948911785 -6.5531410676035033 0 -6.5531410676035033 161.81325680908139 0 0 0 0 -172.06807408084615 12.413283969046461 0 12.413283969046461 181.31050302310541 0 0 0 0 -290.20858991242164 -189.39382899204611 0 -189.39382899204611 -138.83903569801623 0 0 0 0 227.23341509960119 -320.63494667561463 0 -320.63494667561463 -248.79455983837033 0 0 0 0 124.37774678167625 134.95790854133884 0 134.95790854133884 198.01313796631621 0 0 0 0 -632.45743025953016 -161.91834796925832 0 -161.91834796925832 -148.09673499380006 0 0 0 0 6.0015192307371521 -16.961847606876191 0 -16.961847606876191 40.158671970805443 0 0 0 0 -592.35114978415049 -576.91674773830164 0 -576.91674773830164 101.83167510878411 0 0 0 0 -405.35318309668992 -486.58102869740833 0 -486.58102869740833 314.47464052695432 0 0 0 0 -196.85935380385672 -263.93035519385739 0 -263.93035519385739 177.3259997362693 0 0 0 0 -1158.7981144876319 -549.72696688967881 0 -549.72696688967881 182.15296036815562 0 0 0 0 -712.01238596861276 -214.59839558722888 0 -214.59839558722888 246.01034971466288 0 0 0 0 6.9262849509871085 -17.643302746047773 0 -17.643302746047773 68.56960053789993 0 0 0 0 -670.89235284354072 -51.596308339532698 0 -51.596308339532698 14.241652016818989 0 0 0 0 -15.559596980029779 8.5577928012262419 0 8.5577928012262419 21.181000251419334 0 0 0 0 -323.88137290862778 213.15707903781004 0 213.15707903781004 397.17854007663846 0 0 0 0 -0.24915804928256335 -2.8535590318753066 0 -2.8535590318753066 31.193304623139092 0 0 0 0 -936.37987618733769 -12.389564940029231 0 -12.389564940029231 324.3337066238455 0 0 0 0 -943.2452910998968 539.36184240230705 0 539.36184240230705 378.15863307575637 0 0 0 0 11.326617768589244 234.3252722701227 0 234.3252722701227 781.95573982570204 0 0 0 0 -28.761304204890621 -51.729897863406222 0 -51.729897863406222 -631.26700329770392 0 0 0 0 600.9177789239011 866.96448745917587 0 866.96448745917587 1494.3969826047396 0 0 0 0 526.00841393207975 457.21924472828687 0 457.21924472828687 261.75584458796948 0 0 0 0 1488.7199913050722 797.46075547338114 0 797.46075547338114 507.04371170175727 0 0 0 0 782.24557053418721 -212.96299549051037 0 -212.96299549051037 668.64563728099893 0 0 0 0 -602.73466022602702 -2493.5587999641139 0 -2493.5587999641139 614.28282890690025 0 0 0 0 1717.8424086847763 1554.3524914065856 0 1554.3524914065856 1492.9421190370558 0 0 0 0 3.1588350068640887 -6.4787878344450007 0 -6.4787878344450007 15.123040146070821 0 0 0 0 -414.12804015158372 -1577.5399714644809 0 -1577.5399714644809 1146.5030761432427 0 0 0 0 676.24670353560441 -28.564638708747225 0 -28.564638708747225 3053.1931186136862 0 0 0 0 1199.6916542383065 618.95952136570122 0 618.95952136570122 -640.03747747265152 0 0 0 0 2063.8970906848954 -974.20637258900388 0 -974.20637258900388 469.4398510169267 0 0 0 0 700.9531242745154 126.23839683806727 0 126.23839683806727 -12.586316678705771 0 0 0 0 748.28033423331703 149.43152621170884 0 149.43152621170884 -87.247532570472686 0 0 0 0 228.83433605025675 -535.6186698968595 0 -535.6186698968595 63.03022091085586 0 0 0 0 1174.4129618066513 -424.33096286213549 0 -424.33096286213549 -76.610258787310158 0 0 0 0 304.11315867566219 -107.70039790086412 0 -107.70039790086412 905.86762142118823 0 0 0 0 355.62319297552131 -341.7603852506727 0 -341.7603852506727 -200.5285773121941 0 0 0 0 280.8896680517787 -221.69278282289451 0 -221.69278282289451 -112.76035535835035 0 0 0 0 45.74677129262318 217.05822004361107 0 217.05822004361107 -60.355692457451369 0 0 0 0 97.867128808200277 -203.7263362105914 0 -203.7263362105914 -6.6261675874557113 0 0 0 0 451.9909831438074 -89.34360281924819 0 -89.34360281924819 -57.608531272344408 0 0 0 0 -1.6393904645826798 4.4430310761364211 0 4.4430310761364211 2.7775429876764406 0 0 0 0 -155.78746897188756 -131.2597770396751 0 -131.2597770396751 141.56188119058788 0 0 0 0 -0.0085670231832887019 -3.481088152416242 0 -3.481088152416242 33.185147790238261 0 0 0 0 74.741060146039445 133.82615741862537 0 133.82615741862537 -107.92237082291103 0 0 0 0 56.39034601959105 332.67785450589872 0 332.67785450589872 228.73327432213227 0 0 0 0 -84.717355457838948 -152.37032853462733 0 -152.37032853462733 105.38123914138851 0 0 0 0 -17.327630392701401 18.29434711004248 0 18.29434711004248 69.16555635089648 0 0 0 0 25.744361071765979 35.383060767027018 0 35.383060767027018 41.538355378870619 0 0 0 0 0.006040320145417024 -3.5290632628893945 0 -3.5290632628893945 33.219415048173687 0 0 0 0 1.4196902333088524 -5.5293847431799037 0 -5.5293847431799037 9.298770141622299 0 0 0 0 47.04525723719113 -77.596465743361478 0 -77.596465743361478 158.38566976743459 0 0 0 0 75.599967955221871 78.981249039599788 0 78.981249039599788 118.5515519851615 0 0 0 0 -736.59378961072889 -0.68556223344785394 0 -0.68556223344785394 180.47228510996501 0 0 0 0 8.4682155125665108 -25.496183083900128 0 -25.496183083900128 59.687999767412407 0 0 0 0 -466.30499529456392 811.46363935508998 0 811.46363935508998 96.227822974164155 0 0 0 0 219.86959048029127 505.95428508656005 0 505.95428508656005 1537.2780388726678 0 0 0 0 183.37199230647536 273.20581020350073 0 273.20581020350073 255.44339159020819 0 0 0 0 8.5643037750223669 -13.428778246185544 0 -13.428778246185544 19.615011381057002 0 0 0 0 -0.1237867644740766 21.983216687374334 0 21.983216687374334 387.35992761101807 0 0 0 0 -35.417881848600651 205.08579524562811 0 205.08579524562811 1003.0823044097051 0 0 0 0 -0.17254908854285941 -9.5427736592797423 0 -9.5427736592797423 637.11596658096823 0 0 0 0 -6.7291459041001485 -217.22979538622894 0 -217.22979538622894 1077.7033798879856 0 0 0 0 109.81866405086453 -254.06315670692857 0 -254.06315670692857 412.38117922945821 0 0 0 0 120.55423928261487 38.012974457960809 0 38.012974457960809 -43.528990361373872 0 0 0 0 380.01419014371538 -415.51644644873159 0 -415.51644644873159 615.6638078391843 0 0 0 0 20.846329680458499 -95.194345031458397 0 -95.194345031458397 804.74893651896855 0 0 0 0 437.08324773878945 -903.97787049825274 0 -903.97787049825274 2167.2974987826892 0 0 0 0 -132.82989206632465 1511.324097171113 0 1511.324097171113 59.881115604919614 0 0 0 0 -1747.5136152444243 1001.9016242341895 0 1001.9016242341895 722.44881623942638 0 0 0 0 2300.2345544452455 -28.976933396574168 0 -28.976933396574168 -259.17727100261254 0 0 0 0 -31.483069209955829 248.10002026519214 0 248.10002026519214 97.460311691211245 0 0 0 0 537.81349629211218 723.51790124816762 0 723.51790124816762 561.31874864982092 0 0 0 0 -3.1303089895551359 -11.307135271572122 0 -11.307135271572122 38.191370894907493 0 0 0 0 -1852.3783144506879 -170.36899191664997 0 -170.36899191664997 388.24302429251838 0 0 0 0 689.65530560046136 877.54045286749897 0 877.54045286749897 551.51621083461214 0 0 0 0 606.02717592490353 667.32893698188127 0 667.32893698188127 603.54521339392522 0 0 0 0 416.98262298170448 906.06863152743608 0 906.06863152743608 610.84256855658896 0 0 0 0 402.14515770895014 800.44281717739068 0 800.44281717739068 700.66798236645991 0 0 0 0 64.188858278263069 -291.6536030559655 0 -291.6536030559655 232.26421742019011 0 0 0 0 -415.40676061755084 378.84251698684238 0 378.84251698684238 -160.0399530185241 0 0 0 0 530.22171752518079 750.26839584347908 0 750.26839584347908 475.58091900649015 0 0 0 0 229.50869705171499 568.14223564209533 0 568.14223564209533 408.73991857859073 0 0 0 0 430.80983063228086 540.90357982477872 0 540.90357982477872 34.822806798794772 0 0 0 0 252.54355852645494 649.87269325718808 0 649.87269325718808 627.88408256840194 0 0 0 0 526.95007981763774 715.19261049473425 0 715.19261049473425 291.70549588411814 0 0 0 0 526.95007981763229 715.19261049474881 0 715.19261049474881 291.7054958838271 0 0 0 0 526.95007981760864 715.19261049485067 0 715.19261049485067 291.70549588405993 0 0 0 0 -712.71781271201598 34.817593035826576 0 34.817593035826576 -324.81888816402352 0 0 0 0 535.27312355369497 347.01572099281566 0 347.01572099281566 -154.82953083125176 0 0 0 0 6.8879795739394467 519.83383794601832 0 519.83383794601832 -93.197679660544964 0 0 0 0 -565.11442871617419 560.11551239850814 0 560.11551239850814 93.453374706936302 0 0 0 0 -50.111055416829458 346.99618893963634 0 346.99618893963634 -235.05753362705582 0 0 0 0 -161.93707370454331 138.45324329011783 0 138.45324329011783 -11.889357180538354 0 0 0 0 -394.45455872505909 424.73113945910882 0 424.73113945910882 -61.489625254485873 0 0 0 0 -388.20810900192396 275.33008462152793 0 275.33008462152793 -4.1765756890958983 0 0 0 0 -3.1673785560992087 -21.746296012068342 0 -21.746296012068342 73.031842864751525 0 0 0 0 -1.4725892604846296 3.9570793385015151 0 3.9570793385015151 15.406758623530294 0 0 0 0 0.93864080124250027 4.5268985300479727 0 4.5268985300479727 37.871386351739602 0 0 0 0 3.0249068743195924 15.835484309980885 0 15.835484309980885 62.468545435312876 0 0 0 0 -50.24685978963771 -0.7261834846358397 0 -0.7261834846358397 77.143026238326456 0 0 0 0 19.483197879882027 -104.76705760344566 0 -104.76705760344566 146.0068138223578 0 0 0 0 21.935082459434213 -30.443015105082054 0 -30.443015105082054 67.768755786266411 0 0 0 0 -90.185820108843203 283.67995486610744 0 283.67995486610744 -239.85816210861958 0 0 0 0 0.39647440147419877 4.3537773362167371 0 4.3537773362167371 7.9409616460238226 0 0 0 0 10.010343982293605 -9.5008215402122005 0 -9.5008215402122005 -105.95231046878325 0 0 0 0 0.25052931078549756 56.406774417913006 0 56.406774417913006 -7.2725938080402557 0 0 0 0 156.26196212701319 -19.38264835812879 0 -19.38264835812879 -161.50396052711585 0 0 0 0 -11.274241680475825 -70.024870613022358 0 -70.024870613022358 -92.03541519947396 0 0 0 0 -104.91585262449962 -127.73132481057132 0 -127.73132481057132 -38.969193337406978 0 0 0 0 -172.40030003737456 -76.304184139426525 0 -76.304184139426525 -69.768931696716209 0 0 0 0 -27.400031411351847 -75.828991016388727 0 -75.828991016388727 -45.500198800725514 0 0 0 0 -126.21567360601034 -122.86120101794427 0 -122.86120101794427 44.88494016780669 0 0 0 0 -43.088074551990303 -67.788754293771262 0 -67.788754293771262 30.575789580655737 0 0 0 0 67.256368066105779 -74.264111181130374 0 -74.264111181130374 -43.823059286340595 0 0 0 0 50.734962723370245 -56.601469579458353 0 -56.601469579458353 -11.252559014398685 0 0 0 0 108.87672143471286 -74.243169804419267 0 -74.243169804419267 -6.0173504776306572 0 0 0 0 126.44025869038384 -0.6818925563638345 0 -0.6818925563638345 -20.808668091804066 0 0 0 0 54.006034379995242 -28.74182417459258 0 -28.74182417459258 -19.197866535017056 0 0 0 0 79.348048669288801 -18.340309865793529 0 -18.340309865793529 -15.789321613257925 0 0 0 0 83.676493177960879 -42.786817408329625 0 -42.786817408329625 -29.058840419565058 0 0 0 0 61.671631543554668 -51.835393158782722 0 -51.835393158782722 -31.548527238261158 0 0 0 0 41.742832020609967 -65.461732311739524 0 -65.461732311739524 -1.29528266619036 0 0 0 0 -11.830130994204865 -83.178686725185344 0 -83.178686725185344 -28.62800807829808 0 0 0 0 33.064472550784103 -95.416408118704112 0 -95.416408118704112 -48.843572173335815 0 0 0 0 -9.0435290586057135 -136.09742783564792 0 -136.09742783564792 -20.889595677811485 0 0 0 0 -25.220817419629384 -109.73490141978073 0 -109.73490141978073 -7.1996159647060267 0 0 0 0 -5.1275228886552213 -111.57913575418297 0 -111.57913575418297 88.795159530947785 0 0 0 0 18.227860616556967 -46.029813125136911 0 -46.029813125136911 22.681765208901197 0 0 0 0 21.804317634969266 -87.388411013825134 0 -87.388411013825134 -14.746634346699011 0 0 0 0 23.375833175099615 -63.524189362941797 0 -63.524189362941797 66.321750973238522 0 0 0 0 -13.160300127205801 -23.187336761666302 0 -23.187336761666302 94.059355209370551 0 0 0 0 -37.036850598468391 -73.250885995716089 0 -73.250885995716089 165.14366609827812 0 0 0 0 -29.292671936251281 -52.708877966044383 0 -52.708877966044383 69.873896771777936 0 0 0 0 -41.23811912899896 10.204160447748109 0 10.204160447748109 170.5757270487793 0 0 0 0 -24.893232089323647 0.18893194506381406 0 0.18893194506381406 96.470106996805725 0 0 0 0 -140.48246869319337 -69.964219992121798 0 -69.964219992121798 418.26871139042305 0 0 0 0 -134.08484425925326 -34.178580716101351 0 -34.178580716101351 150.09272785659596 0 0 0 0 -112.43623177934569 -262.8541667626364 0 -262.8541667626364 224.98344361273166 0 0 0 0 -118.30693603353521 -328.93595165095917 0 -328.93595165095917 -165.70003223989625 0 0 0 0 -45.376096859396057 -149.88335043563256 0 -149.88335043563256 -75.960151851221553 0 0 0 0 -60.34545962817765 -97.738846280443113 0 -97.738846280443113 -192.90348373631605 0 0 0 0 -107.37627953027095 656.45622380020313 0 656.45622380020313 886.52533726666752 0 0 0 0 1.8689014838647218 -3.3830649816610965 0 -3.3830649816610965 5.5385266089530933 0 0 0 0 14.800430575257774 -10.950156471007183 0 -10.950156471007183 4.8954860868183534 0 0 0 0 255.87309523991303 121.54402097832917 0 121.54402097832917 272.67584219294486 0 0 0 0 83.033773999663936 65.616248009435367 0 65.616248009435367 181.92940162694686 0 0 0 0 7.6789275266126698 -5.5692333866992882 0 -5.5692333866992882 13.05332228444097 0 0 0 0 10.25541185488828 -5.9478651238041493 0 -5.9478651238041493 50.843032251688783 0 0 0 0 44.295631846278638 43.891763169169735 0 43.891763169169735 259.94017959889607 0 0 0 0 51.360326308497179 149.43154790315202 0 149.43154790315202 333.71537288572017 0 0 0 0 133.28356981751267 283.98582981836716 0 283.98582981836716 423.49950547995343 0 0 0 0 7.4761476077601401 130.75605179895229 0 130.75605179895229 449.00631300175064 0 0 0 0 -8.906169693347314 -9.874311280078464 0 -9.874311280078464 45.716450912086231 0 0 0 0 -18.922671688465016 -16.269225301952247 0 -16.269225301952247 48.352952007165641 0 0 0 0 -21.090630682901065 -19.90950577320109 0 -19.90950577320109 62.794563760442543 0 0 0 0 -16.204156714565215 -14.939470537716261 0 -14.939470537716261 39.649201279622503 0 0 0 0 -22.903529569884995 -7.2960335810785182 0 -7.2960335810785182 48.106882409205355 0 0 0 0 -5.2120981392744881 -6.0766169048372021 0 -6.0766169048372021 40.076890034322773 0 0 0 0 -14.908729662222868 -12.484422709716455 0 -12.484422709716455 41.751084102652385 0 0 0 0 5.7834565954126447 14.141289284418235 0 14.141289284418235 65.639990687812315 0 0 0 0 64.035815405022049 127.23737193624947 0 127.23737193624947 227.1310467539297 0 0 0 0 101.26347106090014 235.96881151558955 0 235.96881151558955 347.75230054160784 0 0 0 0 156.44301509320178 150.47822830241239 0 150.47822830241239 195.50763468342871 0 0 0 0 -0.066604788195443465 -1.2338270443479438 0 -1.2338270443479438 4.2123353537817625 0 0 0 0 36.278839490633686 128.18326364579661 0 128.18326364579661 229.67995419190538 0 0 0 0 -7.1180957369267546 -14.430078117815281 0 -14.430078117815281 34.462438767977716 0 0 0 0 23.836723536496962 -14.558749108744678 0 -14.558749108744678 34.964386836290942 0 0 0 0 -3.2903992276742429 -14.338784637511708 0 -14.338784637511708 77.578371583054832 0 0 0 0 10.453455264590048 -7.1454904378915671 0 -7.1454904378915671 74.307575867282139 0 0 0 0 -8.0014004719098235 -17.898030593806524 0 -17.898030593806524 22.714510232251889 0 0 0 0 46.165722588716562 -112.75307198804148 0 -112.75307198804148 161.71033577045307 0 0 0 0 -2.7395742353216077 3.8821232970745925 0 3.8821232970745925 36.526772524893005 0 0 0 0 -17.574453338912917 3.6561689867940004 0 3.6561689867940004 74.047236338032235 0 0 0 0 10.690216263994444 28.275527454483381 0 28.275527454483381 95.460382708370162 0 0 0 0 1.1522127718245865 -2.8458733110801013 0 -2.8458733110801013 -1.4657215230712524 0 0 0 0 3.5614885262519005 -7.3398270123929166 0 -7.3398270123929166 -6.4295926716365273 0 0 0 0 145.28258042120001 12.702964736327885 0 12.702964736327885 322.92349221689983 0 0 0 0 104.20922603297299 133.82267532241531 0 133.82267532241531 275.1136764501889 0 0 0 0 225.77740260337839 289.05309551432765 0 289.05309551432765 418.48098515008314 0 0 0 0 77.513595515228531 160.6693886010853 0 160.6693886010853 529.65394893407574 0 0 0 0 58.98505218985656 103.56852304029735 0 103.56852304029735 373.13179442397814 0 0 0 0 90.034765703738771 53.672601781995581 0 53.672601781995581 266.379526700898 0 0 0 0 95.738080065390903 120.85033761725663 0 120.85033761725663 197.93943458576905 0 0 0 0 5.4172323461537095 -11.090364967412215 0 -11.090364967412215 16.223431084600982 0 0 0 0 -188.68833628494244 -224.21957846464824 0 -224.21957846464824 -131.41595159045346 0 0 0 0 113.7002749936762 165.58987918833645 0 165.58987918833645 301.3954855194952 0 0 0 0 74.199827337654142 126.78015483914669 0 126.78015483914669 265.24304056382789 0 0 0 0 -156.1142907502242 -166.26068124636197 0 -166.26068124636197 -45.328104098478661 0 0 0 0 10.424888286119948 -18.481711331863536 0 -18.481711331863536 25.83299001272951 0 0 0 0 -95.228169247207006 -94.105879859311017 0 -94.105879859311017 -79.343252787405277 0 0 0 0 -77.471056510440803 -85.188699395196352 0 -85.188699395196352 -30.03292611337065 0 0 0 0 -127.90799952367252 -81.997840112923825 0 -81.997840112923825 119.55864672899224 0 0 0 0 -89.569507709077243 -47.737171864462709 0 -47.737171864462709 83.748073720744742 0 0 0 0 -86.952945032465323 -110.90244168847397 0 -110.90244168847397 -12.087310815753767 0 0 0 0 98.971901651265284 42.110212454507746 0 42.110212454507746 111.23806688074001 0 0 0 0 17.42772215381817 -25.910219084360058 0 -25.910219084360058 28.994049243209513 0 0 0 0 -43.632878424550881 -23.075835157914696 0 -23.075835157914696 81.154765843656605 0 0 0 0 -69.891620448212052 -69.163557085447053 0 -69.163557085447053 162.31992881534939 0 0 0 0 -76.902149298917323 -11.56133274877639 0 -11.56133274877639 178.03379888061681 0 0 0 0 -37.687254557868982 -37.909559481102065 0 -37.909559481102065 192.35823818339111 0 0 0 0 -14.143792819832015 -102.14106751786289 0 -102.14106751786289 214.71333118434234 0 0 0 0 -105.57045168816697 -33.325640565902646 0 -33.325640565902646 193.19380808700907 0 0 0 0 -70.910577912716235 -41.345009145471749 0 -41.345009145471749 123.88864059220327 0 0 0 0 -102.47289124690906 -61.306140356721642 0 -61.306140356721642 99.643073309989802 0 0 0 0 -56.944405992484008 -6.9749280122867958 0 -6.9749280122867958 174.85097810146453 0 0 0 0 0.24927368888544876 0.56436979869426285 0 0.56436979869426285 0.32779542768045844 0 0 0 0 -15.20942938756184 35.866082391696494 0 35.866082391696494 239.94624163592181 0 0 0 0 2.8810268725865171 7.201815296386485 0 7.201815296386485 237.80181018064326 0 0 0 0 -22.178759772346439 -23.630720351538571 0 -23.630720351538571 155.34018137342946 0 0 0 0 -15.700988537875219 13.97847468522184 0 13.97847468522184 254.07243037889975 0 0 0 0 -80.343324405209842 -26.107319144973758 0 -26.107319144973758 196.46798860868194 0 0 0 0 -71.494442148761209 -86.759502300997383 0 -86.759502300997383 158.88539244689647 0 0 0 0 61.54698447373903 -117.20965664853475 0 -117.20965664853475 53.804567507337879 0 0 0 0 -28.84335924074901 -35.812721683839072 0 -35.812721683839072 134.40904704743343 0 0 0 0 -71.320359648700787 -50.773226791131037 0 -50.773226791131037 50.17911693679298 0 0 0 0 200.37176375205308 -188.32335969774272 0 -188.32335969774272 127.1201699724794 0 0 0 0 59.494819688627558 -52.436964864994707 0 -52.436964864994707 33.918370113058472 0 0 0 0 11.730563733039162 -78.931500978842053 0 -78.931500978842053 179.2292170243478 0 0 0 0 15.443959674185407 -53.213077786542271 0 -53.213077786542271 349.1924978198964 0 0 0 0 107.10060459365377 26.89683780276826 0 26.89683780276826 245.33543666960372 0 0 0 0 103.70039427097826 -158.15755607771004 0 -158.15755607771004 358.83176758540321 0 0 0 0 41.486044416745358 -12.015982633012598 0 -12.015982633012598 232.71217666330011 0 0 0 0 -11.428225497903099 16.67626323753727 0 16.67626323753727 290.02606903228485 0 0 0 0 1.0539355435190423 0.45012547686374094 0 0.45012547686374094 0.56720223263335356 0 0 0 0 -16.145802826128829 29.280413287262874 0 29.280413287262874 270.16811800686224 0 0 0 0 -21.390116395189892 62.822166682813133 0 62.822166682813133 391.59153694976794 0 0 0 0 403.3988200473932 56.153679478106142 0 56.153679478106142 425.07154712551539 0 0 0 0 25.144614069034219 125.58852026024363 0 125.58852026024363 475.04632909041607 0 0 0 0 119.28353427195862 103.65989337172721 0 103.65989337172721 301.92948447855395 0 0 0 0 246.66544377880064 220.15678355012199 0 220.15678355012199 341.22104393921245 0 0 0 0 0.83301082608771804 0.45363059149079565 0 0.45363059149079565 0.71815312076202642 0 0 0 0 35.817983947965786 -189.29701654610847 0 -189.29701654610847 506.00160854820501 0 0 0 0 82.80641935863764 -245.05223916006054 0 -245.05223916006054 545.84848448365608 0 0 0 0 191.13169652769909 -198.44103253920008 0 -198.44103253920008 276.85454230564505 0 0 0 0 26.807385498844269 -168.31409847027572 0 -168.31409847027572 417.79825872254719 0 0 0 0 352.23755998641741 -119.44363666214645 0 -119.44363666214645 406.4788560664428 0 0 0 0 -16.214196704585405 -20.70871356903092 0 -20.70871356903092 1138.601346522056 0 0 0 0 514.68010364167867 75.095629707063466 0 75.095629707063466 -584.69478688545973 0 0 0 0 0.87340829368837514 3.353855073684092 0 3.353855073684092 1.4681632679422409 0 0 0 0 -65.119127203151066 162.54339199189849 0 162.54339199189849 1174.234930307957 0 0 0 0 345.41058088293516 152.40606828101863 0 152.40606828101863 1123.5661491705741 0 0 0 0 278.46644494572774 94.26744977979115 0 94.26744977979115 187.22342804584196 0 0 0 0 -73.245114689790384 -147.25526053336142 0 -147.25526053336142 1000.3018299758758 0 0 0 0 -2.627025613035709 4.0508068831201491 0 4.0508068831201491 6.1696885665645738 0 0 0 0 -13.239137331000848 -43.402871547465566 0 -43.402871547465566 828.78804343275442 0 0 0 0 32.334719560308599 -66.491609092517933 0 -66.491609092517933 503.84629958291362 0 0 0 0 -4.1249545245859736 -184.04891965133106 0 -184.04891965133106 586.68354359955094 0 0 0 0 143.59056950855722 203.38509875894232 0 203.38509875894232 421.10474548590093 0 0 0 0 54.0082666100609 119.91647081926646 0 119.91647081926646 540.11544907325788 0 0 0 0 0.88889431627967608 -1.5108661388529863 0 -1.5108661388529863 3.9055509433313684 0 0 0 0 161.63359846814427 379.92495544250045 0 379.92495544250045 987.85896748320431 0 0 0 0 -43.511619288156112 -199.32124091398882 0 -199.32124091398882 361.79988211207842 0 0 0 0 64.287721152115921 82.778147315139449 0 82.778147315139449 -64.378951932136488 0 0 0 0 166.97268429141809 -82.290880997989916 0 -82.290880997989916 3.8254998133838853 0 0 0 0 103.21971840911306 18.369764956738209 0 18.369764956738209 106.72865979881868 0 0 0 0 159.03596092978125 137.47130830144101 0 137.47130830144101 157.68918010243897 0 0 0 0 1.1833577016380266 -2.8411934414833753 0 -2.8411934414833753 9.9343851652640023 0 0 0 0 49.343672539547697 36.340165405009998 0 36.340165405009998 106.01197104211258 0 0 0 0 80.445487493116161 79.900765821432174 0 79.900765821432174 49.351200666437762 0 0 0 0 4.5330985800299901 1.8246883651670069 0 1.8246883651670069 1.2606149472168962 0 0 0 0 -22.434168173384016 66.856233825751247 0 66.856233825751247 -61.864601793075735 0 0 0 0 -55.957484965482763 9.8882317254599457 0 9.8882317254599457 20.14298878479849 0 0 0 0 68.260862653702418 15.234946332580876 0 15.234946332580876 -111.48680464075323 0 0 0 0 2.3559791172003202 -21.86289602700765 0 -21.86289602700765 -2.4986137593923559 0 0 0 0 5.4690085907897235 -0.58075298811955367 0 -0.58075298811955367 0.76760297264742405 0 0 0 0 7.0131247491111708 -23.034282619449641 0 -23.034282619449641 -23.093167644486812 0 0 0 0 187.52567666953368 2.5460859537922396 0 2.5460859537922396 -32.083556688476392 0 0 0 0 28.698216713186014 17.969842338052104 0 17.969842338052104 5.9617474301019229 0 0 0 0 76.095089184491144 -216.64406440073475 0 -216.64406440073475 317.97104706574822 0 0 0 0 2.5791379117671345 -0.43793812071446148 0 -0.43793812071446148 -0.13388720669038912 0 0 0 0 -64.455171971303059 -41.244058782489333 0 -41.244058782489333 228.3032286679645 0 0 0 0 164.65782263827256 21.308347056269099 0 21.308347056269099 -112.94978721463076 0 0 0 0 55.944135852216277 -16.247401802229433 0 -16.247401802229433 136.1480404625629 0 0 0 0 -192.00357277740977 124.52205192737716 0 124.52205192737716 157.83159797941312 0 0 0 0 -20.896708140481223 -15.848161982385363 0 -15.848161982385363 390.45593470308677 0 0 0 0 -19.221005153209717 -1.7974282483080515 0 -1.7974282483080515 227.85930152016886 0 0 0 0 44.949020018846568 44.972913057815731 0 44.972913057815731 260.30764063190713 0 0 0 0 6.9585174054582239 -121.83254949543652 0 -121.83254949543652 567.45318970584901 0 0 0 0 80.183418720074883 -108.74065626630602 0 -108.74065626630602 353.67734935725821 0 0 0 0 22.110311103077038 -34.512587590549856 0 -34.512587590549856 433.23616012292064 0 0 0 0 38.414175171848683 -26.616091838894931 0 -26.616091838894931 436.75582291991236 0 0 0 0 66.669605267943211 61.057501848108927 0 61.057501848108927 221.89413218448635 0 0 0 0 74.021733534235409 90.046155883641177 0 90.046155883641177 227.61288385897251 0 0 0 0 130.45246943934899 85.618430785624582 0 85.618430785624582 101.08222911532766 0 0 0 0 88.313077787622206 56.217814992758122 0 56.217814992758122 93.710259536962212 0 0 0 0 106.87298321850631 75.414418653853033 0 75.414418653853033 55.016997790829009 0 0 0 0 85.511226678342609 61.703198210739401 0 61.703198210739401 57.051765130561421 0 0 0 0 67.60195010167763 80.395088944984195 0 80.395088944984195 122.26849678392318 0 0 0 0 15.532279492888847 75.333961596311269 0 75.333961596311269 136.21326928454414 0 0 0 0 75.605401790729729 71.157198094206024 0 71.157198094206024 69.544188182846028 0 0 0 0 38.350972934249057 82.32594664398016 0 82.32594664398016 73.613714871972604 0 0 0 0 62.499308438710045 103.14675783112762 0 103.14675783112762 152.01314177242966 0 0 0 0 85.448650315587656 55.682925196601673 0 55.682925196601673 119.71396710682131 0 0 0 0 23.090212489309124 64.070341173935446 0 64.070341173935446 53.901872186730543 0 0 0 0 -14.586986018123753 117.75994711535225 0 117.75994711535225 78.870485566880348 0 0 0 0 -177.14417417930008 157.18812059694022 0 157.18812059694022 109.37748361414424 0 0 0 0 -0.95963799528557825 24.595371458027074 0 24.595371458027074 116.64424733514905 0 0 0 0 -82.799938561348426 143.18194781643729 0 143.18194781643729 61.243824051415629 0 0 0 0 11.306239865907401 39.14189285665725 0 39.14189285665725 87.051166342109582 0 0 0 0 -21.388220584137855 -5.6073916205273235 0 -5.6073916205273235 145.47190112577664 0 0 0 0 -21.060173516199029 -6.4238272359161783 0 -6.4238272359161783 135.24490458182845 0 0 0 0 -2.0519037720203803 20.746930191137935 0 20.746930191137935 116.3309188583047 0 0 0 0 -6.6000346335604263 -2.028371546039125 0 -2.028371546039125 139.20130311719731 0 0 0 0 -38.088030416380434 -13.496502030338888 0 -13.496502030338888 139.75869348616106 0 0 0 0 -88.581756614167261 51.129648429738239 0 51.129648429738239 53.279614848643291 0 0 0 0 -53.882703097964622 112.93647468534709 0 112.93647468534709 79.537807397129797 0 0 0 0 -108.17062303913735 70.673489771501067 0 70.673489771501067 105.38091351817411 0 0 0 0 5.5434380821425293 75.798768451022966 0 75.798768451022966 101.54726714088662 0 0 0 0 -7.2441128361350753 25.695083720687496 0 25.695083720687496 9.4787358023656303 0 0 0 0 -0.40826880824809209 6.5369609134245774 0 6.5369609134245774 16.009305822988914 0 0 0 0 -24.334441026225818 70.815994110073845 0 70.815994110073845 105.42132933195296 0 0 0 0 1.089638711651105 18.377682519755894 0 18.377682519755894 74.739076977888089 0 0 0 0 3.3605643396358573 13.008620121769582 0 13.008620121769582 49.632347218440827 0 0 0 0 12.353848275737278 61.946263496475808 0 61.946263496475808 64.703303260459734 0 0 0 0 37.946105645245126 55.820940418288856 0 55.820940418288856 49.766898764761208 0 0 0 0 40.443228055712552 69.536206199972412 0 69.536206199972412 53.713373949454535 0 0 0 0 79.951159292581906 36.38516524189663 0 36.38516524189663 26.877964550149045 0 0 0 0 98.166214341957186 50.867701403481533 0 50.867701403481533 16.760744621368758 0 0 0 0 84.229725272582982 58.332119685959924 0 58.332119685959924 49.371730813077875 0 0 0 0 5.8729737069563193 1.0899987197308663 0 1.0899987197308663 -3.4171136955533714 0 0 0 0 2.306651072160534 1.4851829713392526 0 1.4851829713392526 1.3188110554623922 0 0 0 0 7.9243045479856846 7.0636368935585097 0 7.0636368935585097 42.159480798522054 0 0 0 0 8.0813672526155642 -0.37088056802440406 0 -0.37088056802440406 56.409942186948342 0 0 0 0 84.982021328377414 -14.668740583953195 0 -14.668740583953195 -16.244030076376475 0 0 0 0 17.621908143479232 22.487672673346424 0 22.487672673346424 48.042643630308021 0 0 0 0 -2.7036267605417379 -26.646904304118493 0 -26.646904304118493 21.374590614097542 0 0 0 0 0.19867263360914134 -8.5022399738488161 0 -8.5022399738488161 24.163587522010467 0 0 0 0 -29.924421521361637 -46.817088445292484 0 -46.817088445292484 20.322958575004122 0 0 0 0 2.344379209987892 5.3271217818769401 0 5.3271217818769401 30.287159707908359 0 0 0 0 -18.190000488774785 -2.4828148218884962 0 -2.4828148218884962 43.916781055693718 0 0 0 0 -1.3416700923118015 17.159542656260101 0 17.159542656260101 45.990057503880962 0 0 0 0 -16.998259832158169 5.8163527331340674 0 5.8163527331340674 47.630064758269327 0 0 0 0 -6.596052856260485 18.312934196231708 0 18.312934196231708 42.566813268099168 0 0 0 0 1.4017412597901115 -10.53611639429286 0 -10.53611639429286 32.637744208829261 0 0 0 0 -2.07466596215545 -35.590071215655371 0 -35.590071215655371 35.580374390991437 0 0 0 0 19.186868519830568 -19.485061796686296 0 -19.485061796686296 13.179032509636272 0 0 0 0 -22.508882527464266 -27.483755043906058 0 -27.483755043906058 77.122335426839527 0 0 0 0 0.13607862464342446 -6.1015114823291521 0 -6.1015114823291521 21.267191257630397 0 0 0 0 -12.872138931250902 -11.544625748252656 0 -11.544625748252656 14.456061839497352 0 0 0 0 12.350462256341871 -14.986176281502821 0 -14.986176281502821 66.610291802435313 0 0 0 0 -0.33205350198282169 -1.8797060080793706 0 -1.8797060080793706 7.2081438623293739 0 0 0 0 8.851513002969341 -4.949961715083532 0 -4.949961715083532 65.178859289284446 0 0 0 0 2.0407209970335316 10.879711908987701 0 10.879711908987701 28.876603265494623 0 0 0 0 -1.2031833606724385 0.93087061856275999 0 0.93087061856275999 29.451337980598566 0 0 0 0 -1.2015061708576398 1.1306115780285015 0 1.1306115780285015 34.484329703277169 0 0 0 0 12.425773656068941 -10.663821639717298 0 -10.663821639717298 53.530666813663629 0 0 0 0 -4.8298061647187751 -1.9505816350233545 0 -1.9505816350233545 26.7011143650343 0 0 0 0 -2.4653260127124668 -8.4155396512851439 0 -8.4155396512851439 38.579388370010292 0 0 0 0 -3.6262123489597249 -3.8383400999520099 0 -3.8383400999520099 24.650991559689587 0 0 0 0 0.26958067031953181 -4.1604585933166831 0 -4.1604585933166831 16.801749939721038 0 0 0 0 5.7643769673533143 1.5030807932830612 0 1.5030807932830612 50.474070036543708 0 0 0 0 -11.907836384929396 12.659836397870095 0 12.659836397870095 149.02285652863793 0 0 0 0 9.9654580945634734 8.7410373645116124 0 8.7410373645116124 148.81256409894922 0 0 0 0 -2.8424053420469058 -16.563627925544182 0 -16.563627925544182 43.043195016939016 0 0 0 0 -23.126532266565846 4.4031546614132822 0 4.4031546614132822 150.40224407810092 0 0 0 0 -0.82464813526712533 6.5888743906198215 0 6.5888743906198215 58.972271846376316 0 0 0 0 20.985450756316766 -4.9913226095898153 0 -4.9913226095898153 2.0676075288447464 0 0 0 0 13.259412055054099 -14.843253806295706 0 -14.843253806295706 11.851888155902202 0 0 0 0 8.9926804005779104 -8.1715814994927314 0 -8.1715814994927314 2.3271128585420229 0 0 0 0 7.9976207425854682 -16.332178506748278 0 -16.332178506748278 14.79444452980988 0 0 0 0 10.907251213856853 -7.4905988188120318 0 -7.4905988188120318 14.455531475629641 0 0 0 0 31.149302037295442 -16.277996849848932 0 -16.277996849848932 9.505459125880634 0 0 0 0 32.546865693032828 -20.328895849901528 0 -20.328895849901528 10.476605008013848 0 0 0 0 46.832178794652464 -27.323264156938421 0 -27.323264156938421 3.9960146800017355 0 0 0 0 31.24551656441156 -27.049501725804475 0 -27.049501725804475 5.9158884445678268 0 0 0 0 36.531647821683208 -15.814733030360003 0 -15.814733030360003 -5.4825297763700291 0 0 0 0 43.578922773265845 -12.527027311318761 0 -12.527027311318761 -5.7329128880146527 0 0 0 0 53.925410495496692 -6.2662817889367943 0 -6.2662817889367943 -19.333977753514318 0 0 0 0 39.011323264623286 -4.3833114335262735 0 -4.3833114335262735 -1.116341623871449 0 0 0 0 9.8331052361364755 -2.7815456277821795 0 -2.7815456277821795 8.0702464827677431 0 0 0 0 -7.2175759725841999 -10.173051704583031 0 -10.173051704583031 -9.3788079241267042 0 0 0 0 -2.6759560944988152 -10.520290831517286 0 -10.520290831517286 5.9678500258669374 0 0 0 0 8.0765019457872143 -18.290172183357669 0 -18.290172183357669 -5.5645844777036473 0 0 0 0 8.2943733873589736 3.0300882431650393 0 3.0300882431650393 7.9637929202613691 0 0 0 0 -20.094542134449568 -21.661415815528073 0 -21.661415815528073 -1.2434940975308564 0 0 0 0 2.086440305906732 -0.0034553090643374418 0 -0.0034553090643374418 8.7463682933695317 0 0 0 0 -19.538604112043174 -24.482175675414737 0 -24.482175675414737 -7.735756095202305 0 0 0 0 -15.348143959369963 -17.160422496388492 0 -17.160422496388492 -5.6644443796521955 0 0 0 0 -17.399837320686174 -15.140612671530562 0 -15.140612671530562 -1.760503966397664 0 0 0 0 -2.9254802830878361 -20.50344635720603 0 -20.50344635720603 -0.99758456111703708 0 0 0 0 -7.941474501110406 3.7436089260957033 0 3.7436089260957033 18.353100875811265 0 0 0 0 0.19520259215707014 0.50352248189186188 0 0.50352248189186188 2.5464841782573009 0 0 0 0 3.6762770623195236 0.19866643152903807 0 0.19866643152903807 5.9533133603382966 0 0 0 0 5.5703149134455998 2.9614919219108629 0 2.9614919219108629 10.068478637378121 0 0 0 0 6.4952157976049119 1.3781266433705324 0 1.3781266433705324 2.3062873086149414 0 0 0 0 -17.336704199110955 -32.102088358967194 0 -32.102088358967194 2.0952111503438573 0 0 0 0 -38.182743496645116 -29.627619014667971 0 -29.627619014667971 8.582327029866974 0 0 0 0 8.9247809784155834 6.8878627411775142 0 6.8878627411775142 27.236310897296562 0 0 0 0 -2.674163658097636 -3.9044341923236487 0 -3.9044341923236487 17.794119378721643 0 0 0 0 2.9905604312698415 61.435658165791892 0 61.435658165791892 75.675262596629182 0 0 0 0 -5.9288233752999986 -9.7954485961604405 0 -9.7954485961604405 4.8990097138414512 0 0 0 0 -2.4327524566569991 -16.079386687475562 0 -16.079386687475562 16.153384210252625 0 0 0 0 0.092420477432256121 -6.8894900352562445 0 -6.8894900352562445 26.119721147042583 0 0 0 0 -6.3501869529019359 -20.462373391675328 0 -20.462373391675328 32.759424785681404 0 0 0 0 -25.294914585346305 -8.3752595252262836 0 -8.3752595252262836 33.543467941007293 0 0 0 0 -6.6146074832727209 -10.140926766697703 0 -10.140926766697703 6.0270763796843312 0 0 0 0 -11.864654385402901 -20.387187800524771 0 -20.387187800524771 43.897182759421412 0 0 0 0 -26.232604553637202 -5.8649742147185862 0 -5.8649742147185862 142.50551889960661 0 0 0 0 -15.347289863972037 -1.8003854061598759 0 -1.8003854061598759 57.902688035583196 0 0 0 0 -1.9213266798490167 -13.965859271359932 0 -13.965859271359932 58.075248548992022 0 0 0 0 -2.6351255419431254 -6.1214642504091898 0 -6.1214642504091898 36.27683142556657 0 0 0 0 13.599186383337155 -10.785800128330266 0 -10.785800128330266 57.039792609300093 0 0 0 0 16.307831405503521 -2.6144739554347325 0 -2.6144739554347325 57.154179422532479 0 0 0 0 6.3724630909504185 -2.6095287139883112 0 -2.6095287139883112 76.207796420811064 0 0 0 0 11.996439541836992 -13.407580701374627 0 -13.407580701374627 41.697962153449225 0 0 0 0 5.8312636330817895 -7.662570711186163 0 -7.662570711186163 58.360016123787773 0 0 0 0 10.414002015119763 -7.0275005833273099 0 -7.0275005833273099 38.963904702552099 0 0 0 0 6.8202066625478892 -15.46123821465244 0 -15.46123821465244 36.119782228420718 0 0 0 0 9.1593937201541848 -7.0124188563895586 0 -7.0124188563895586 35.082277201297074 0 0 0 0 17.818275575187442 -15.837364813223132 0 -15.837364813223132 23.94708390228152 0 0 0 0 17.832333062809724 -15.674236865085902 0 -15.674236865085902 25.276644838368156 0 0 0 0 12.028009028755662 -22.399350919900826 0 -22.399350919900826 33.849209723755848 0 0 0 0 12.937547746917062 -27.049079756598076 0 -27.049079756598076 57.586631560177011 0 0 0 0 0.069376128389649239 -20.583980149547642 0 -20.583980149547642 55.523263103148111 0 0 0 0 11.734013640582811 -8.9709490135789736 0 -8.9709490135789736 51.375398665961256 0 0 0 0 3.8628261114336055 -13.796015406103834 0 -13.796015406103834 66.551060418016277 0 0 0 0 11.039724074909088 1.6468216054854565 0 1.6468216054854565 71.25956812210643 0 0 0 0 -9.9732620882816718 10.10423127983313 0 10.10423127983313 93.249984361576935 0 0 0 0 6.6322401267586315 8.6332855944847324 0 8.6332855944847324 99.171372177243029 0 0 0 0 15.227470629573418 16.815381025468014 0 16.815381025468014 94.098934560955968 0 0 0 0 7.6469681256089324 -8.3922079057540326 0 -8.3922079057540326 5.5828835661853127 0 0 0 0 12.260628332842998 15.859109138128588 0 15.859109138128588 106.37530452349438 0 0 0 0 12.366987428617449 -27.94682996489064 0 -27.94682996489064 94.548789248998219 0 0 0 0 2.0383737215468796 -3.0528216087883413 0 -3.0528216087883413 -2.2146070293608915 0 0 0 0 35.479642159138393 52.113795012242008 0 52.113795012242008 101.69502231554543 0 0 0 0 54.449716991537571 0.30720795847901172 0 0.30720795847901172 81.223326349639137 0 0 0 0 31.266498797805525 8.9304551545756112 0 8.9304551545756112 78.825411404894112 0 0 0 0 11.105171834634803 -8.06287766491414 0 -8.06287766491414 79.609514987561852 0 0 0 0 7.9441947079442343 -4.9929309191188622 0 -4.9929309191188622 77.071236274186958 0 0 0 0 -10.022606506798638 -17.926500777752608 0 -17.926500777752608 85.391789618008261 0 0 0 0 -8.5752990820401465 -3.2052881661666106 0 -3.2052881661666106 85.935307691497059 0 0 0 0 -16.781931269176084 -24.04626887342431 0 -24.04626887342431 22.762175949936136 0 0 0 0 -23.362776201584438 -14.628984217939433 0 -14.628984217939433 79.66046874345102 0 0 0 0 -10.447283749991243 -15.554623688001129 0 -15.554623688001129 72.458239267116369 0 0 0 0 -8.6418518592981854 -13.137067175682205 0 -13.137067175682205 65.522170031186761 0 0 0 0 -6.971818897826779 12.75827085621404 0 12.75827085621404 65.869407398427569 0 0 0 0 -11.282424946653009 3.3208962170951963 0 3.3208962170951963 45.430139423608125 0 0 0 0 -7.9453684796940252 12.227845634087771 0 12.227845634087771 87.550384745224164 0 0 0 0 18.149456308588015 18.682896036088096 0 18.682896036088096 41.114624394680504 0 0 0 0 2.9935517980277382 -6.7779440170406815 0 -6.7779440170406815 148.55295551672316 0 0 0 0 3.5656000820990812 -2.5866875949002406 0 -2.5866875949002406 74.381774827708796 0 0 0 0 -24.502468606182902 -43.248708258203806 0 -43.248708258203806 -11.090698820175021 0 0 0 0 -7.2476317659609322 -6.3079578107654015 0 -6.3079578107654015 9.574153632330308 0 0 0 0 2.2916412870069451 -5.1341261678361612 0 -5.1341261678361612 6.5496782722002393 0 0 0 0 -1.4518783451166621 -2.1737332532817568 0 -2.1737332532817568 2.6852669756154235 0 0 0 0 -8.2409820207001303 -2.7252273720532685 0 -2.7252273720532685 26.643738605174804 0 0 0 0 -4.239505626211483 -1.4335495920813308 0 -1.4335495920813308 7.5921293447863345 0 0 0 0 -2.8633787424554384 -13.135134988128812 0 -13.135134988128812 7.6236383263913012 0 0 0 0 -1.9115723335410166 -2.7227544750926427 0 -2.7227544750926427 10.547393650518643 0 0 0 0 -3.7449262009083668 -15.775667297490145 0 -15.775667297490145 1.3934482603781362 0 0 0 0 -31.01900169492319 -6.7077377803962008 0 -6.7077377803962008 -11.434006359479099 0 0 0 0 17.695969355034777 -25.450087555374921 0 -25.450087555374921 -38.414463164937843 0 0 0 0 28.513130638730672 4.2769793434572421 0 4.2769793434572421 -7.2584355623403098 0 0 0 0 26.373958053992283 2.4760367141061579 0 2.4760367141061579 2.7790175851914682 0 0 0 0 30.194930217915953 -2.2265117750866921 0 -2.2265117750866921 -5.4945564692334301 0 0 0 0 49.808565023358824 33.168709387278795 0 33.168709387278795 27.608000816875574 0 0 0 0 7.5254462717879278 -10.833850852982323 0 -10.833850852982323 13.398315082931731 0 0 0 0 -8.7586449494624503 -17.967005565176805 0 -17.967005565176805 -1.9068273599714303 0 0 0 0 19.680623600014542 -17.439379513989479 0 -17.439379513989479 -12.428714771021987 0 0 0 0 31.865665073464925 -1.5573401291430855 0 -1.5573401291430855 -16.245791699249821 0 0 0 0 9.2739012300536103 4.300418274936419 0 4.300418274936419 -1.4097311535970221 0 0 0 0 -4.3920804534895979 -11.135370297797635 0 -11.135370297797635 19.402887278298294 0 0 0 0 0.24696396018035482 -7.6080436146744823 0 -7.6080436146744823 17.038702360057503 0 0 0 0 -3.6445188698332913 -5.9888765976465947 0 -5.9888765976465947 43.751893480853369 0 0 0 0 -3.3549925746437972 -6.9110318724428907 0 -6.9110318724428907 35.249880270570713 0 0 0 0 -1.9403176461496572 -3.9419253107477417 0 -3.9419253107477417 15.766723426838279 0 0 0 0 -4.8047722973058171 -9.0877251046258607 0 -9.0877251046258607 44.200333872235205 0 0 0 0 -6.9398810039257341 -7.9402414529072303 0 -7.9402414529072303 43.71545869772126 0 0 0 0 0.018692328169924721 -2.5358650801380307 0 -2.5358650801380307 11.394389769797815 0 0 0 0 -9.064854809426663 -8.8035071613825266 0 -8.8035071613825266 32.71028707561436 0 0 0 0 -3.6239209775049153 2.0472004506842341 0 2.0472004506842341 36.815416429606898 0 0 0 0 -0.044839635992047988 23.009488260920989 0 23.009488260920989 55.644457664731021 0 0 0 0 -0.31349719167520007 -0.036100708134101822 0 -0.036100708134101822 13.737323909281328 0 0 0 0 -7.6457738418550889 -7.7847968970381771 0 -7.7847968970381771 50.220538737986317 0 0 0 0 -7.9605770378896068 25.591157430432077 0 25.591157430432077 66.727850024826694 0 0 0 0 -12.426962407752399 3.5535839237918481 0 3.5535839237918481 25.717937356785114 0 0 0 0 -12.403356005620649 -1.8497197598732913 0 -1.8497197598732913 48.418749784326877 0 0 0 0 -1.6808024201951639 -10.249007772919413 0 -10.249007772919413 42.781213223737723 0 0 0 0 4.3529120445837179 -4.5431980622197443 0 -4.5431980622197443 46.171169631183147 0 0 0 0 -17.72288712644513 -9.8277215197705345 0 -9.8277215197705345 18.962308256445056 0 0 0 0 -12.136076537497273 -9.7471149481705872 0 -9.7471149481705872 35.470627206331478 0 0 0 0 -1.5777304462862505 -11.486197878270227 0 -11.486197878270227 37.809662887825674 0 0 0 0 0.61662722979213669 1.3949639923819426 0 1.3949639923819426 -0.24245208063571333 0 0 0 0 -9.084932547999415 -6.3354480106004303 0 -6.3354480106004303 53.29064977578355 0 0 0 0 -12.465027238557923 4.7152439501724075 0 4.7152439501724075 45.117330240348565 0 0 0 0 -14.585992028446981 5.3101044507861843 0 5.3101044507861843 45.925544997717225 0 0 0 0 -5.0077829053376783 2.4537239638200496 0 2.4537239638200496 44.686627485977539 0 0 0 0 -13.340049532504963 3.8840677294510897 0 3.8840677294510897 46.286441278854909 0 0 0 0 -7.2678308858701257 -12.462998151525426 0 -12.462998151525426 19.663011153420484 0 0 0 0 -1.2357052486376734 -6.0694164519783085 0 -6.0694164519783085 1.2836037995893648 0 0 0 0 12.386288342341004 -36.404480666190921 0 -36.404480666190921 22.100600287076304 0 0 0 0 22.855726942521869 -44.255727260731874 0 -44.255727260731874 5.2368353637448308 0 0 0 0 -13.419969930320917 -40.401198016524631 0 -40.401198016524631 49.253482443371468 0 0 0 0 -1.5243832083381017 -26.94478034836451 0 -26.94478034836451 23.939661293144596 0 0 0 0 -26.219805382283312 4.9156582641383011 0 4.9156582641383011 60.538420584780283 0 0 0 0 -16.523442416120702 -9.2897941194141822 0 -9.2897941194141822 75.688119162130079 0 0 0 0 32.240730085453492 77.108746761336533 0 77.108746761336533 135.65141913723255 0 0 0 0 -301.15972237616188 -14.551435457709886 0 -14.551435457709886 128.45912386637428 0 0 0 0 0.18577308855762498 -28.226554533043753 0 -28.226554533043753 19.211871081767306 0 0 0 0 -12.671822920588284 -45.069179211023766 0 -45.069179211023766 71.677144523378956 0 0 0 0 790.51616559527383 -463.44168584144518 0 -463.44168584144518 -44.334180260064386 0 0 0 0 613.66098330285058 470.96952255712313 0 470.96952255712313 175.41518017468115 0 0 0 0 620.67481907974434 358.13577652589993 0 358.13577652589993 -4.5921424121870018 0 0 0 0 2.219026082704687 -2.3527880041435978 0 -2.3527880041435978 0.51399652064052148 0 0 0 0 42.080759871762098 -100.91631783908315 0 -100.91631783908315 -1.7977529467698332 0 0 0 0 717.59629802385427 -199.30154123185002 0 -199.30154123185002 10.283406890515835 0 0 0 0 443.74848967788603 350.13879523226933 0 350.13879523226933 290.2210629874462 0 0 0 0 0.47220755536046621 -1.2697909994419994 0 -1.2697909994419994 -0.40217560984019229 0 0 0 0 1.9153879022891589 -3.9087615960507622 0 -3.9087615960507622 3.6794120766045353 0 0 0 0 0.56273603052829069 -3.062409411349547 0 -3.062409411349547 8.0067847166815991 0 0 0 0 95.194623770597786 -58.931579840677387 0 -58.931579840677387 16.649800042459901 0 0 0 0 -2.9014569378673514 -18.204647493299944 0 -18.204647493299944 8.3645462153817789 0 0 0 0 34.472732787002485 -29.274144360535502 0 -29.274144360535502 18.63046403208682 0 0 0 0 -50.673243982534586 -78.863710884234024 0 -78.863710884234024 63.000725459802197 0 0 0 0 -142.77867156225648 -160.4593445581686 0 -160.4593445581686 122.71448366156164 0 0 0 0 -70.653008373982175 -34.758829366579448 0 -34.758829366579448 112.61772181976266 0 0 0 0 -44.556248083345054 -35.517984152393183 0 -35.517984152393183 84.264902662460372 0 0 0 0 -47.159307096892007 -17.237260424277338 0 -17.237260424277338 134.55026099835595 0 0 0 0 -23.221405340972979 0.52834038338551181 0 0.52834038338551181 115.95003957359222 0 0 0 0 0.1058027702414992 -25.824162978479499 0 -25.824162978479499 22.951034137616233 0 0 0 0 -29.504682653055625 -12.199778091224289 0 -12.199778091224289 121.3097654146186 0 0 0 0 -32.595196647338639 -31.108666048910209 0 -31.108666048910209 103.9493358962427 0 0 0 0 -23.223846245574805 -6.4383604238173575 0 -6.4383604238173575 133.05258352295732 0 0 0 0 -27.28335832104699 -48.409776532850628 0 -48.409776532850628 77.186859761298365 0 0 0 0 -11.10812959221667 -44.855771954161014 0 -44.855771954161014 71.213379123046252 0 0 0 0 -51.845839338432825 -87.051595250202809 0 -87.051595250202809 42.202441414716304 0 0 0 0 -26.354507945411115 -24.026410538293021 0 -24.026410538293021 16.292276116860194 0 0 0 0 6.8020207903095979 -55.077421829644663 0 -55.077421829644663 56.218127659151833 0 0 0 0 -19.05554789184248 -51.243925977874824 0 -51.243925977874824 70.760077219911182 0 0 0 0 1.4955596815138961 -60.953786613483317 0 -60.953786613483317 61.218749542538717 0 0 0 0 -24.340009362289976 -64.487456505538262 0 -64.487456505538262 73.878099290806858 0 0 0 0 9.9054055984895513 -74.625984045046152 0 -74.625984045046152 76.743885539493931 0 0 0 0 69.839676364914226 -53.440371503262668 0 -53.440371503262668 24.192843654551325 0 0 0 0 59.94111910824256 -45.177032451807008 0 -45.177032451807008 19.91598677244292 0 0 0 0 27.329525805536719 -85.826578385385801 0 -85.826578385385801 204.13789544322208 0 0 0 0 14.243308150623079 -43.065470832050778 0 -43.065470832050778 73.037336394738418 0 0 0 0 90.290626585850077 -58.505266057952667 0 -58.505266057952667 15.884235277047992 0 0 0 0 -4.1447415316938532 -146.29627023117428 0 -146.29627023117428 316.47905264856308 0 0 0 0 2.4359948592178782 -2.2539377723075873 0 -2.2539377723075873 0.52660625383562154 0 0 0 0 -39.61551409571257 -100.75464504363117 0 -100.75464504363117 102.78698687769634 0 0 0 0 -6.4224443536611489 -8.2553637280029761 0 -8.2553637280029761 213.45821555007387 0 0 0 0 -61.609021631212272 -79.453387546192971 0 -79.453387546192971 123.17256637661558 0 0 0 0 -119.63920110754339 -75.376939903118 0 -75.376939903118 255.14369791439594 0 0 0 0 0.92525756835701856 -2.177667961444115 0 -2.177667961444115 0.49917564243238788 0 0 0 0 17.363747605040032 -43.241661458922863 0 -43.241661458922863 255.59351685022921 0 0 0 0 67.005965370784338 -30.264569764472981 0 -30.264569764472981 205.78816442392599 0 0 0 0 8.3508250083609141 38.893788330664393 0 38.893788330664393 303.06854049040703 0 0 0 0 18.003258843807089 -35.568716113841219 0 -35.568716113841219 205.99550811673635 0 0 0 0 18.974617286943225 13.277840199296037 0 13.277840199296037 188.98915383314306 0 0 0 0 -88.118903725993505 -45.834653145171615 0 -45.834653145171615 242.38084382342367 0 0 0 0 -59.921498834557156 -32.843012908281707 0 -32.843012908281707 166.88638687595085 0 0 0 0 -58.486170591742848 -31.676817264715282 0 -31.676817264715282 159.67979361379639 0 0 0 0 -117.42711143186284 -122.14397304186787 0 -122.14397304186787 113.27920297176024 0 0 0 0 0.092586394795670657 -0.97681688564521352 0 -0.97681688564521352 0.33012831370876872 0 0 0 0 -249.30081338240029 -199.88375616183839 0 -199.88375616183839 527.09877069330105 0 0 0 0 -19.13600260298017 -144.39133630553079 0 -144.39133630553079 -154.0888193963583 0 0 0 0 -123.99556243269467 -86.146426546320072 0 -86.146426546320072 231.78923355709412 0 0 0 0 132.21886452897888 -113.29968514080247 0 -113.29968514080247 143.37137659724976 0 0 0 0 117.55419326569518 70.628432195469941 0 70.628432195469941 101.89241809576652 0 0 0 0 139.28650234812312 117.64783256255669 0 117.64783256255669 69.261758700889914 0 0 0 0 221.47311076590631 51.040193486182943 0 51.040193486182943 -8.912912026156846 0 0 0 0 227.28633340816396 100.1311579299163 0 100.1311579299163 107.82352603913932 0 0 0 0 74.927617933379224 121.56310715592008 0 121.56310715592008 119.01065777004806 0 0 0 0 62.052682742006255 91.492363097975613 0 91.492363097975613 101.73268999667562 0 0 0 0 65.737430379981106 119.9107237880844 0 119.9107237880844 123.27518872948713 0 0 0 0 70.729257162801105 114.25988549300382 0 114.25988549300382 106.9205775005903 0 0 0 0 82.332867271883984 67.561096318940116 0 67.561096318940116 35.530508069841744 0 0 0 0 83.751734269883855 99.527979865290035 0 99.527979865290035 82.939817882650459 0 0 0 0 69.111320860474734 67.779238693636216 0 67.779238693636216 54.636780645403633 0 0 0 0 63.365514850183899 68.22760254025934 0 68.22760254025934 55.34844413324754 0 0 0 0 78.373754650293904 39.719662155293918 0 39.719662155293918 -6.0480172254815443 0 0 0 0 89.057135309914429 68.148468226650948 0 68.148468226650948 33.148055225932694 0 0 0 0 77.778056091325766 -11.645284941072873 0 -11.645284941072873 -52.503795036678639 0 0 0 0 42.970363343464214 13.318422165806624 0 13.318422165806624 2.8344092274783179 0 0 0 0 1.1860785300293619 -2.8312544418398335 0 -2.8312544418398335 5.8309045027379796 0 0 0 0 1.1933178166964353 -9.6867101393499979 0 -9.6867101393499979 1.9436430375399141 0 0 0 0 -107.11955427070825 -119.6252895879511 0 -119.6252895879511 -34.839866537171474 0 0 0 0 66.253571391200865 -86.062464628266525 0 -86.062464628266525 -119.28616790714295 0 0 0 0 0.87502499780907783 -11.074748590162017 0 -11.074748590162017 -3.4523043771769153 0 0 0 0 0.2400779119383003 0.22119168936494749 0 0.22119168936494749 -1.5530830061755694 0 0 0 0 -11.281869788377435 25.159000744007244 0 25.159000744007244 42.003075632201217 0 0 0 0 0.37794174168985517 -1.0565080691324997 0 -1.0565080691324997 2.4550849587013701 0 0 0 0 -170.82620675090618 -30.454542156986008 0 -30.454542156986008 353.43846795418722 0 0 0 0 115.09105945573629 -21.976771307097806 0 -21.976771307097806 -103.11647421893576 0 0 0 0 -415.96830414636133 22.65444389548793 0 22.65444389548793 385.08590197598096 0 0 0 0 156.32737131148724 -251.78084765969288 0 -251.78084765969288 141.96141704715228 0 0 0 0 -130.06887254255207 -135.22938244520992 0 -135.22938244520992 457.49545873722491 0 0 0 0 1.0182387172653762 -27.228960916762844 0 -27.228960916762844 178.69448506588378 0 0 0 0 -53.499799061302383 81.934481194977707 0 81.934481194977707 -13.898281556125767 0 0 0 0 307.67883936444196 -168.87012445564869 0 -168.87012445564869 217.8307630380823 0 0 0 0 1.590670276619548 -1.2255964287976866 0 -1.2255964287976866 0.28335041206545397 0 0 0 0 240.58591758410512 -41.187197978263612 0 -41.187197978263612 -215.6344060580559 0 0 0 0 257.21508513973868 -130.70301004078829 0 -130.70301004078829 -97.639289099015514 0 0 0 0 385.96560078275797 54.385430941765662 0 54.385430941765662 287.30964203199255 0 0 0 0 -106.24436556142894 -80.821384044993465 0 -80.821384044993465 111.95098796115781 0 0 0 0 -70.790028840374362 29.774039119893132 0 29.774039119893132 -18.430868181469123 0 0 0 0 -19.100825449900185 -41.930552268200699 0 -41.930552268200699 -25.882928830691981 0 0 0 0 -3.203318047092921 -168.49073898495783 0 -168.49073898495783 113.60554896666508 0 0 0 0 -70.911920260084116 -100.78530134911307 0 -100.78530134911307 227.1066197607197 0 0 0 0 -146.63580570794306 -117.95073909780785 0 -117.95073909780785 236.33667575066602 0 0 0 0 -106.7059162626424 -202.02121590158004 0 -202.02121590158004 298.49973058592059 0 0 0 0 235.03073936028719 -46.625544975762026 0 -46.625544975762026 -5.1351022320086486 0 0 0 0 351.11711416007256 -160.14612781063079 0 -160.14612781063079 97.408563029719517 0 0 0 0 236.03537988313155 -187.83044503953533 0 -187.83044503953533 55.156896322574539 0 0 0 0 382.41539777094022 -59.67586553007277 0 -59.67586553007277 140.64789993460727 0 0 0 0 146.76838854730204 137.15075939594499 0 137.15075939594499 3.6985748604874971 0 0 0 0 173.08228833068642 62.334712633781237 0 62.334712633781237 -37.738000140720033 0 0 0 0 451.7625975320725 71.967667305141731 0 71.967667305141731 -68.648864669938121 0 0 0 0 276.87839874598558 -5.4471276996509914 0 -5.4471276996509914 5.8078799949598761 0 0 0 0 174.33749197339034 51.128832231171032 0 51.128832231171032 168.79857599120805 0 0 0 0 -16.105482472171389 127.85924355451243 0 127.85924355451243 204.13391133651385 0 0 0 0 50.311492982763411 -18.615913502148942 0 -18.615913502148942 -113.55030975780483 0 0 0 0 -0.086364982173172677 0.019662033990396566 0 0.019662033990396566 -0.043431292367017704 0 0 0 0 165.0456300075416 106.39214087520668 0 106.39214087520668 112.00192222732949 0 0 0 0 187.10878718822096 83.702869021120932 0 83.702869021120932 -55.566738797642756 0 0 0 0 -0.54700217520371819 1.8575317590212705 0 1.8575317590212705 -3.3432814636597712 0 0 0 0 -9.4377036432400132 40.339482085932673 0 40.339482085932673 14.585734067139128 0 0 0 0 -12.684354131879445 57.952664586893661 0 57.952664586893661 25.731929727031456 0 0 0 0 276.88541561859626 183.15395430739864 0 183.15395430739864 55.517015473973515 0 0 0 0 268.40792882644877 103.15795969430019 0 103.15795969430019 -35.926972733062257 0 0 0 0 172.14373592139714 172.71246767134289 0 172.71246767134289 142.31847889592609 0 0 0 0 185.6449918201788 233.33013730525272 0 233.33013730525272 67.651699217953137 0 0 0 0 -4.7635400401768493 277.89766754372431 0 277.89766754372431 92.158744521623248 0 0 0 0 148.99636984188032 180.53757964521265 0 180.53757964521265 65.442142428008083 0 0 0 0 -389.28919525678793 217.43989770599183 0 217.43989770599183 70.004194318471491 0 0 0 0 -101.09028522013296 131.24605397672121 0 131.24605397672121 38.500127577350213 0 0 0 0 -94.462919153145776 239.37161858666423 0 239.37161858666423 61.567135540954041 0 0 0 0 -1.0037830814835615 170.24641219111891 0 170.24641219111891 90.641799185454147 0 0 0 0 82.512827757335799 251.54185239587969 0 251.54185239587969 80.698600583381904 0 0 0 0 160.28078327269532 274.52516339276735 0 274.52516339276735 141.78167437125194 0 0 0 0 88.838071276903065 188.47658902783223 0 188.47658902783223 126.00779566809433 0 0 0 0 -34.508736314691077 100.70990579936506 0 100.70990579936506 123.41096805744382 0 0 0 0 4.5561735572091493 243.15900232555396 0 243.15900232555396 110.73081778455526 0 0 0 0 65.924673063569116 86.69346467219475 0 86.69346467219475 209.53773779291078 0 0 0 0 199.00221716112901 207.0267113899381 0 207.0267113899381 118.12831396047386 0 0 0 0 36.019974859831564 34.323197605686801 0 34.323197605686801 -29.443137645723255 0 0 0 0 -5.9373474312012604 9.5294862615056921 0 9.5294862615056921 -6.4427780324629076 0 0 0 0 -32.313133379647752 -5.2323547134492401 0 -5.2323547134492401 34.188873951621645 0 0 0 0 106.34726574445276 266.00691771907179 0 266.00691771907179 162.10351065822397 0 0 0 0 84.938165925352223 44.625938012250117 0 44.625938012250117 78.239826628774608 0 0 0 0 -418.78281869848161 -12.227623290011252 0 -12.227623290011252 160.50046110853327 0 0 0 0 -17.884933089825473 1.651021549291924 0 1.651021549291924 91.845298109819808 0 0 0 0 0.82665693005673013 18.968427355304307 0 18.968427355304307 16.371737572019235 0 0 0 0 -952.31986253606556 -275.07274409332604 0 -275.07274409332604 36.731900796061382 0 0 0 0 -458.91603007650792 349.73585010181796 0 349.73585010181796 -57.362290478355135 0 0 0 0 -282.0120561932099 167.69040749362011 0 167.69040749362011 155.1461985927599 0 0 0 0 -250.30666095796698 -68.368188255010239 0 -68.368188255010239 102.98981743653894 0 0 0 0 -94.038449351182862 145.51814774398008 0 145.51814774398008 189.90670015269097 0 0 0 0 -71.962091700749966 -5.736479559061479 0 -5.736479559061479 57.881200694240761 0 0 0 0 71.209541644732781 20.898156176835982 0 20.898156176835982 96.922645459235355 0 0 0 0 -94.465739111390121 12.364057805532639 0 12.364057805532639 211.87412342989319 0 0 0 0 -23.387016409748966 -9.3460059870625507 0 -9.3460059870625507 107.74813924453602 0 0 0 0 -57.406034662116326 156.75035222245924 0 156.75035222245924 298.13562919207106 0 0 0 0 13.148568422710468 36.371784544645379 0 36.371784544645379 51.711727986355982 0 0 0 0 -0.52265515174128296 16.022903164291208 0 16.022903164291208 -11.91746082513202 0 0 0 0 16.359191896050106 122.06114163847906 0 122.06114163847906 130.3279922181664 0 0 0 0 -15.628861195437668 -0.79400532000344626 0 -0.79400532000344626 6.5293760555205118 0 0 0 0 -26.236558207621783 -11.695180607461225 0 -11.695180607461225 10.931696891104366 0 0 0 0 -9.4444447316461719 37.488471682536328 0 37.488471682536328 71.307979562476248 0 0 0 0 30.436555024151744 36.509786453381821 0 36.509786453381821 77.540182345950598 0 0 0 0 -2.31729217061894 -1.3067615151108498 0 -1.3067615151108498 -0.56453165183482668 0 0 0 0 -10.670574446987539 24.117986156345317 0 24.117986156345317 9.117545322761643 0 0 0 0 3.0400240916014809 29.072205979518003 0 29.072205979518003 68.868457826676604 0 0 0 0 -17.631822378193647 18.854158098401967 0 18.854158098401967 28.623227246138413 0 0 0 0 -0.38475363637814119 0.50569202374309441 0 0.50569202374309441 -0.41478697773822759 0 0 0 0 2.4907076959621257 3.3677148119298259 0 3.3677148119298259 -0.99346801948244767 0 0 0 0 92.533218549103594 2.0706883633611142 0 2.0706883633611142 -44.053478890968108 0 0 0 0 41.744635029281199 115.75326882085938 0 115.75326882085938 163.5684544238502 0 0 0 0 40.638542577202315 70.610144667289205 0 70.610144667289205 146.37663372998213 0 0 0 0 56.832407133627839 96.78122087144493 0 96.78122087144493 133.45127667798079 0 0 0 0 -0.46825405867021175 2.7882650400213684 0 2.7882650400213684 0.55553917770551919 0 0 0 0 10.577094515980207 15.991293980134287 0 15.991293980134287 7.0109518126646435 0 0 0 0 -13.898038403174141 2.4280993301285783 0 2.4280993301285783 11.200246011075926 0 0 0 0 44.165410472953226 58.560713393226251 0 58.560713393226251 72.952156978613857 0 0 0 0 40.37732964641873 58.139273765293183 0 58.139273765293183 86.796842466377711 0 0 0 0 46.995146380327469 63.599878277433163 0 63.599878277433163 69.428814930455701 0 0 0 0 38.863025865648524 63.228451631766802 0 63.228451631766802 76.634921622485308 0 0 0 0 52.94884892978007 72.437909595291785 0 72.437909595291785 79.616041089343526 0 0 0 0 61.305140149805538 69.979127294431237 0 69.979127294431237 58.034723863385807 0 0 0 0 58.182913785479741 79.479938534319444 0 79.479938534319444 91.010553648506175 0 0 0 0 57.430421860292881 84.082430356400437 0 84.082430356400437 88.685544247447979 0 0 0 0 42.034210057850146 58.348727204666147 0 58.348727204666147 68.66189714846405 0 0 0 0 54.108957015654596 35.837568959394048 0 35.837568959394048 19.758952052849963 0 0 0 0 33.624463120897985 23.527697005633399 0 23.527697005633399 24.308750908321599 0 0 0 0 66.701101103161136 19.370016862147622 0 19.370016862147622 35.99798322006427 0 0 0 0 26.535247680074008 8.0840801604108492 0 8.0840801604108492 71.793382651701762 0 0 0 0 52.857917001280384 66.220160273202055 0 66.220160273202055 71.554442177862796 0 0 0 0 68.286140132092441 59.498612705105188 0 59.498612705105188 68.926835878392012 0 0 0 0 16.69080426894925 51.387573349491504 0 51.387573349491504 80.597683756966944 0 0 0 0 54.100057066490535 21.283112489844143 0 21.283112489844143 104.46697942279206 0 0 0 0 -12.061229281688057 3.1230616697632101 0 3.1230616697632101 18.133131465912211 0 0 0 0 -2.2187234974512648 -0.91693639287973383 0 -0.91693639287973383 49.309147562604267 0 0 0 0 -12.499757607980428 28.652252379556558 0 28.652252379556558 60.465699679249155 0 0 0 0 2.1364559303295891 10.397316684892758 0 10.397316684892758 82.40238343137753 0 0 0 0 1.420713552908202 -1.013931233180287 0 -1.013931233180287 -0.30080976097642775 0 0 0 0 6.5406295971711188 50.598967430660196 0 50.598967430660196 112.91751696225037 0 0 0 0 7.1254888183025287 15.42562124789174 0 15.42562124789174 85.249815185929037 0 0 0 0 27.947196338717731 48.247640045248772 0 48.247640045248772 96.080488929852436 0 0 0 0 43.781387980200179 47.900809389009737 0 47.900809389009737 64.361968386679109 0 0 0 0 13.598345854255967 56.071527895874169 0 56.071527895874169 129.63438598645826 0 0 0 0 0.53128618318128495 -0.11859265293432841 0 -0.11859265293432841 0.29878446746663201 0 0 0 0 19.033171911785303 27.83418805209476 0 27.83418805209476 49.849326583008406 0 0 0 0 37.721229817264202 23.146228956244613 0 23.146228956244613 30.771916411928032 0 0 0 0 31.664312444694929 27.579491633523503 0 27.579491633523503 46.837828274688945 0 0 0 0 21.088359089283699 21.740627386827782 0 21.740627386827782 51.185151025549203 0 0 0 0 23.83358774589729 10.796095207262567 0 10.796095207262567 59.057357874471563 0 0 0 0 24.626032050078265 15.974592595631293 0 15.974592595631293 39.209908363673094 0 0 0 0 34.790665874807701 14.123242758479137 0 14.123242758479137 26.508053852057856 0 0 0 0 534.95434468850044 -156.39543464540293 0 -156.39543464540293 125.44815753961848 0 0 0 0 17.458392730033953 -11.312861228619889 0 -11.312861228619889 6.1313604023164476 0 0 0 0 -122.75826120506167 121.91652824949915 0 121.91652824949915 352.400850707063 0 0 0 0 -10.636990295132136 52.061634342931939 0 52.061634342931939 89.163506687270456 0 0 0 0 -95.22326655413633 90.279359389719275 0 90.279359389719275 126.23444835125611 0 0 0 0 13.770868086563166 -9.9448507802709845 0 -9.9448507802709845 5.2602472858188598 0 0 0 0 37.337891378666882 -12.585068921756829 0 -12.585068921756829 -7.035873031479241 0 0 0 0 19.292637025874456 12.423920415106295 0 12.423920415106295 38.060006198213159 0 0 0 0 -56.064824968144421 -28.096715652398416 0 -28.096715652398416 85.065569614016567 0 0 0 0 -5.7283543468101925 3.7503349878788867 0 3.7503349878788867 53.514964182522121 0 0 0 0 -5.7592495199069162 2.7187035122969974 0 2.7187035122969974 55.040434267864839 0 0 0 0 -16.332872290902863 -1.3755226131782408 0 -1.3755226131782408 59.161137177602598 0 0 0 0 -30.768023579148576 -11.230590618411952 0 -11.230590618411952 57.638363223406486 0 0 0 0 -18.279842312339547 -10.115206820803166 0 -10.115206820803166 28.246526729121122 0 0 0 0 -0.42067528613017657 10.688088612969302 0 10.688088612969302 45.791029750226578 0 0 0 0 -0.86744090936506524 1.5746827663639493 0 1.5746827663639493 10.896837450766441 0 0 0 0 -3.6679249399749096 -46.123026862143888 0 -46.123026862143888 87.953203103385022 0 0 0 0 -42.451649431306578 -17.566172805243696 0 -17.566172805243696 98.575423003039759 0 0 0 0 -11.920062081986543 -50.378991324469098 0 -50.378991324469098 114.01224982912504 0 0 0 0 2.9300762263410434 -32.577194812794914 0 -32.577194812794914 114.5256426064866 0 0 0 0 -17.255566049971101 -1.7156675342721428 0 -1.7156675342721428 26.923566638805511 0 0 0 0 -34.904359752086748 -23.654260754476127 0 -23.654260754476127 43.742000957783603 0 0 0 0 -31.480269627188136 -23.578318315046999 0 -23.578318315046999 14.828033697529463 0 0 0 0 -17.856282854641904 3.0750577908038395 0 3.0750577908038395 69.344293479822227 0 0 0 0 -0.22783414608541008 1.1310851449754011 0 1.1310851449754011 6.0876857663147348 0 0 0 0 -19.669006763299876 -10.205640390548069 0 -10.205640390548069 42.241269707708852 0 0 0 0 -13.568463689609416 -8.5211580302639049 0 -8.5211580302639049 39.066052356680302 0 0 0 0 -9.640704852655972 -5.5624301261086657 0 -5.5624301261086657 38.782900989826885 0 0 0 0 -11.138545070206419 -3.2071042625002519 0 -3.2071042625002519 50.54891893601598 0 0 0 0 -8.1421228107987531 -4.591281371392995 0 -4.591281371392995 45.116579637506305 0 0 0 0 -6.0661400629873494 -7.0874880635509285 0 -7.0874880635509285 40.578512363419293 0 0 0 0 -8.7894109850058157 -6.9397122794616735 0 -6.9397122794616735 39.262183266633656 0 0 0 0 -10.985488639864343 -0.90211710860603489 0 -0.90211710860603489 48.663187688325785 0 0 0 0 -10.048809915820403 -8.7855366694286232 0 -8.7855366694286232 20.775212483491686 0 0 0 0 1.1351318104570964 -2.1380549238238018 0 -2.1380549238238018 27.780445579672232 0 0 0 0 -2.7678523874964718 10.833579907112778 0 10.833579907112778 38.231066891973938 0 0 0 0 0.97100571186456364 12.849255402572453 0 12.849255402572453 48.86806935729102 0 0 0 0 -3.4364189396860425 3.8073464421674572 0 3.8073464421674572 33.515815944097596 0 0 0 0 22.393747328847894 5.0246703010489 0 5.0246703010489 52.890572295436868 0 0 0 0 -6.9414996637547119 -7.6000959528355452 0 -7.6000959528355452 60.056583793766549 0 0 0 0 -3.0004276000904611 0.54113462803979928 0 0.54113462803979928 60.967536339903745 0 0 0 0 10.511651298273136 8.5861017916922719 0 8.5861017916922719 64.698993300258735 0 0 0 0 -3.5994272865214043 -5.3447130934710003 0 -5.3447130934710003 47.110785055701854 0 0 0 0 16.903120314982743 17.549430224120442 0 17.549430224120442 68.059336318849091 0 0 0 0 23.863356416278322 13.91498422990594 0 13.91498422990594 57.048130808532733 0 0 0 0 10.992123543207981 7.5650404455445823 0 7.5650404455445823 59.32626156596416 0 0 0 0 12.842453164037053 11.026526091468156 0 11.026526091468156 62.396696956919186 0 0 0 0 13.644205985257486 20.495564292122253 0 20.495564292122253 51.486588180737272 0 0 0 0 8.4341297207092794 11.302843150384433 0 11.302843150384433 67.494512183791812 0 0 0 0 4.6523898002735624 3.4364845964122068 0 3.4364845964122068 12.982062747308785 0 0 0 0 -1.9649935260599705 28.155398708107896 0 28.155398708107896 90.790388456774963 0 0 0 0 -11.829770301555982 -3.6306764158416627 0 -3.6306764158416627 60.109932025574381 0 0 0 0 -13.179052158490228 -0.36872472605600848 0 -0.36872472605600848 51.75575489344061 0 0 0 0 -2.5445908711787979 4.6393992884750332 0 4.6393992884750332 65.311898685460619 0 0 0 0 0.68903854448106827 12.216187121104262 0 12.216187121104262 42.657803780402034 0 0 0 0 -4.4233148682511274 1.9794514202138416 0 1.9794514202138416 39.909816309150415 0 0 0 0 3.0042358357386547 14.924987109203357 0 14.924987109203357 41.293961190953269 0 0 0 0 -5.5027431147892223 4.6816259695303941 0 4.6816259695303941 41.68532066019668 0 0 0 0 -0.0097085705791819521 3.8993271549887503 0 3.8993271549887503 8.4839984520986853 0 0 0 0 3.9852223696907458 16.575770240371639 0 16.575770240371639 86.71570001229702 0 0 0 0 -37.981054715521168 1.5122009815131605 0 1.5122009815131605 71.482622167768568 0 0 0 0 -13.24431472248359 4.0938071415345831 0 4.0938071415345831 62.361897061015839 0 0 0 0 -2.7435038777812224 8.677183746087394 0 8.677183746087394 50.689135212138353 0 0 0 0 -27.156638509778077 -5.5246062756468746 0 -5.5246062756468746 71.803989328120679 0 0 0 0 28.573275959832472 24.796437196983788 0 24.796437196983788 50.786978359898058 0 0 0 0 -16.006616480344931 0.0094556901090037115 0 0.0094556901090037115 48.0702823700924 0 0 0 0 -3.6997598148516317 27.489340771508978 0 27.489340771508978 72.13615339991884 0 0 0 0 -17.098991941555454 -4.8091319360978169 0 -4.8091319360978169 43.303164038641057 0 0 0 0 -14.916637056172476 3.8981313405674882 0 3.8981313405674882 72.907411277901701 0 0 0 0 -12.932602853634307 4.4802823664122116 0 4.4802823664122116 69.614579791508731 0 0 0 0 -4.7245577200337721 9.5892111609718995 0 9.5892111609718995 60.330236878719006 0 0 0 0 -5.1971286180401783 5.4670457840820106 0 5.4670457840820106 30.877605085652178 0 0 0 0 -6.2819975317538592 11.057328220877025 0 11.057328220877025 64.091563689806208 0 0 0 0 -23.977600089921907 -15.819277285438147 0 -15.819277285438147 33.615805763576645 0 0 0 0 1.4883543486816961 3.4506654931032443 0 3.4506654931032443 7.9747615181343718 0 0 0 0 6.9507324033766054 4.3934124259103555 0 4.3934124259103555 63.116525132427341 0 0 0 0 -2.0670105434262567 -0.54987617444616887 0 -0.54987617444616887 0.77398516647834015 0 0 0 0 -4.8947582521959703 53.989139094037 0 53.989139094037 69.037032062755316 0 0 0 0 44.091117615176699 -73.400041746670468 0 -73.400041746670468 79.780082893652434 0 0 0 0 -45.414391691308992 52.735063932223056 0 52.735063932223056 69.821335354514304 0 0 0 0 -14.787303143109966 10.45038077868594 0 10.45038077868594 63.617416706169024 0 0 0 0 -24.288918525904592 9.7674364877966582 0 9.7674364877966582 63.909030000573694 0 0 0 0 -44.017659242719674 12.114677066056174 0 12.114677066056174 73.851069929347432 0 0 0 0 -20.941147601106422 30.157201158423959 0 30.157201158423959 74.439558499318082 0 0 0 0 -50.038111946675599 20.421665672080053 0 20.421665672080053 104.36867321291356 0 0 0 0 -48.858119907014043 22.455698112855316 0 22.455698112855316 72.361356121473364 0 0 0 0 -40.692964107403895 -7.2632018038439128 0 -7.2632018038439128 57.403862055405625 0 0 0 0 -40.928967896095855 16.749315171873604 0 16.749315171873604 76.437288000117405 0 0 0 0 -59.578830571677827 -20.445710698528273 0 -20.445710698528273 132.91685576823511 0 0 0 0 -16.868854300821113 -44.849489544452808 0 -44.849489544452808 120.06275838364672 0 0 0 0 -58.727415643475979 9.2597646529611666 0 9.2597646529611666 93.239372626856493 0 0 0 0 -40.315657647388434 -12.827842724336733 0 -12.827842724336733 106.91811788397899 0 0 0 0 -10.269519844028764 -29.4118493799524 0 -29.4118493799524 120.0223029046756 0 0 0 0 -102.87385055490449 -15.981682691119204 0 -15.981682691119204 133.40874543184327 0 0 0 0 -39.843975915735882 100.27100319284546 0 100.27100319284546 131.73127167885104 0 0 0 0 -4.9220620037449407 -6.834385447470595 0 -6.834385447470595 83.254527746801614 0 0 0 0 -92.818267408241809 47.913117424519442 0 47.913117424519442 98.940864162686921 0 0 0 0 -109.53672561383064 110.20020200006365 0 110.20020200006365 355.20656935001898 0 0 0 0 -73.624816757688677 10.229961364944756 0 10.229961364944756 346.2669079239422 0 0 0 0 -90.738558188765637 57.680660004993115 0 57.680660004993115 252.48019980701793 0 0 0 0 -143.02150847780285 114.10964229984529 0 114.10964229984529 309.37898942778702 0 0 0 0 -78.724841710623878 161.0598436862274 0 161.0598436862274 96.533520541233884 0 0 0 0 -144.82596576815013 151.26450195254802 0 151.26450195254802 228.45556179020059 0 0 0 0 -48.930608534690691 88.310510485560371 0 88.310510485560371 191.80838874475012 0 0 0 0 -23.550220228644321 72.192765339153993 0 72.192765339153993 42.004321610256738 0 0 0 0 1.6402586965668888 -100.49399258249468 0 -100.49399258249468 328.78938865260579 0 0 0 0 1.4223680690828999 1.698072790503133 0 1.698072790503133 1.2557781151993481 0 0 0 0 -152.2442422556901 205.51877628033776 0 205.51877628033776 37.11398285858013 0 0 0 0 -15.041924754856154 28.006157010910101 0 28.006157010910101 242.34887212031754 0 0 0 0 -9.0741505958776543 13.341055919383507 0 13.341055919383507 67.760139726618945 0 0 0 0 -11.330393316882692 27.262827433769417 0 27.262827433769417 72.897462392802481 0 0 0 0 14.692790116780088 83.120439388883824 0 83.120439388883824 211.09194970180761 0 0 0 0 -21.631643686948053 -8.5441863504442921 0 -8.5441863504442921 46.71753017970984 0 0 0 0 -22.108713449897323 -1.6813538175620462 0 -1.6813538175620462 44.012356952599717 0 0 0 0 -4.0805303632359653 2.4026331441755246 0 2.4026331441755246 7.5077072769946938 0 0 0 0 -35.578217662819952 51.530038893397432 0 51.530038893397432 221.49337251060933 0 0 0 0 -10.902392092790251 39.516611522092717 0 39.516611522092717 258.82892645880202 0 0 0 0 27.943241648070398 81.651063885510666 0 81.651063885510666 182.72738630666572 0 0 0 0 86.949808709523495 152.89788546255295 0 152.89788546255295 300.6584422479209 0 0 0 0 0.10282327322182638 -2.980618040426096 0 -2.980618040426096 -2.3194250574028956 0 0 0 0 -17.822138708841521 54.656550602892821 0 54.656550602892821 234.99297322615166 0 0 0 0 7.2523795448178134 61.185322369794449 0 61.185322369794449 124.6093145924242 0 0 0 0 -50.896153358111633 101.88792056651391 0 101.88792056651391 194.6019831890153 0 0 0 0 -14.995853135009384 97.327370369530399 0 97.327370369530399 78.350755984269199 0 0 0 0 8.4160803558147563 82.032817318097386 0 82.032817318097386 139.46986052153807 0 0 0 0 19.379376184540888 56.306187695583503 0 56.306187695583503 170.84100304144886 0 0 0 0 46.830226873613356 53.078181695451349 0 53.078181695451349 130.18992080907628 0 0 0 0 15.921201277033106 65.718305450092885 0 65.718305450092885 201.36913268398712 0 0 0 0 41.094434399496095 47.227794320016983 0 47.227794320016983 82.624024442200607 0 0 0 0 35.355134073652152 62.702515021828731 0 62.702515021828731 123.02892179523769 0 0 0 0 22.835446834691538 63.311711763777566 0 63.311711763777566 68.470311567427416 0 0 0 0 3.9283712851884047 34.273502080832259 0 34.273502080832259 65.366724094797974 0 0 0 0 -7.2709173484799976 -7.9530540431951522 0 -7.9530540431951522 44.245942164525331 0 0 0 0 14.885028261469415 17.348726260323019 0 17.348726260323019 73.465264599226884 0 0 0 0 4.4999525390030612 38.244556287834712 0 38.244556287834712 31.657133953252924 0 0 0 0 39.247639928535136 27.482204715421176 0 27.482204715421176 50.761245381763729 0 0 0 0 35.458869734404288 27.857554863028781 0 27.857554863028781 100.05716895437581 0 0 0 0 -89.532629132281727 -7.1584823375342239 0 -7.1584823375342239 -38.870039068353435 0 0 0 0 -181.46831476421175 12.745213110287295 0 12.745213110287295 10.099965937326488 0 0 0 0 -73.365943865359441 86.304174518489162 0 86.304174518489162 16.815331802572473 0 0 0 0 -99.533645472181888 24.683755121182912 0 24.683755121182912 -120.48116481081524 0 0 0 0 -26.729155642427941 13.176425267694867 0 13.176425267694867 41.293575655270615 0 0 0 0 -68.714987803355143 71.74237991384598 0 71.74237991384598 53.029874619474867 0 0 0 0 -7.7579253391631937 60.973691678424075 0 60.973691678424075 13.965778036836127 0 0 0 0 -54.143807280140209 44.94592666495555 0 44.94592666495555 17.602819158986676 0 0 0 0 -67.708376054579276 -7.8263501959445421 0 -7.8263501959445421 27.788519261179772 0 0 0 0 -124.63196156676076 47.681781803870763 0 47.681781803870763 6.3329676402936457 0 0 0 0 -122.79819196897915 18.863522977659159 0 18.863522977659159 28.502505538253899 0 0 0 0 -111.54908753279233 25.546991679711937 0 25.546991679711937 45.065343094942364 0 0 0 0 -80.248421853562832 33.509100955023314 0 33.509100955023314 18.949633261829149 0 0 0 0 -26.907641760259139 21.49191046717533 0 21.49191046717533 28.478564619741519 0 0 0 0 9.0391027096438847 -9.3046791542437859 0 -9.3046791542437859 20.764944458569516 0 0 0 0 -132.41670330018951 26.866238090433399 0 26.866238090433399 27.480955414750497 0 0 0 0 -53.164044421131621 60.418142981277924 0 60.418142981277924 45.883468265034026 0 0 0 0 -92.795563728135676 5.8230585377441457 0 5.8230585377441457 28.809496755588043 0 0 0 0 44.196815104252892 13.10476264760473 0 13.10476264760473 56.179401589775807 0 0 0 0 27.203543663403252 -3.0822878537692304 0 -3.0822878537692304 65.354551051155795 0 0 0 0 16.465110536824795 12.055877546306874 0 12.055877546306874 46.951750746011385 0 0 0 0 2.4460636265794165 -21.538200215654797 0 -21.538200215654797 52.097497614203803 0 0 0 0 0.98506135089701274 -14.440099215556984 0 -14.440099215556984 29.358382562233601 0 0 0 0 10.994810494055219 22.054314040225975 0 22.054314040225975 43.4562105295538 0 0 0 0 -37.822049141448588 -16.560082210954533 0 -16.560082210954533 72.001282732013351 0 0 0 0 20.435995809895758 0.28689403562202642 0 0.28689403562202642 76.749729351144197 0 0 0 0 36.181347536929934 -80.184951336452286 0 -80.184951336452286 38.16793843409323 0 0 0 0 135.18701667071582 3.3449554134840582 0 3.3449554134840582 28.532477547973031 0 0 0 0 3.2341780469651269 6.3699385075777002 0 6.3699385075777002 15.978908015120481 0 0 0 0 -112.63409061502898 -1503.6690511285942 0 -1503.6690511285942 1921.8714669491892 0 0 0 0 258.05652253928565 276.07483017036247 0 276.07483017036247 209.57904843835331 0 0 0 0 120.51103300001432 -64.475226681942331 0 -64.475226681942331 592.1505812767864 0 0 0 0 208.39110384484502 -140.35023537770758 0 -140.35023537770758 632.15333890284091 0 0 0 0 -98.978197549690776 -9.8444056602484125 0 -9.8444056602484125 -47.168722299451474 0 0 0 0 -271.8400832573883 -321.76328862477339 0 -321.76328862477339 15.937194766724133 0 0 0 0 -115.67055767933925 -6.9662322971707908 0 -6.9662322971707908 71.414789288741304 0 0 0 0 31.684763804079921 127.58555586888178 0 127.58555586888178 187.73295043167673 0 0 0 0 -119.76018754435336 643.05166652691332 0 643.05166652691332 1340.300903099982 0 0 0 0 -293.39472590258265 -168.43921116392448 0 -168.43921116392448 508.39545620904573 0 0 0 0 -276.3932396785076 378.07573490441791 0 378.07573490441791 1386.8228836018898 0 0 0 0 -1.3255783667567087 -2.3479479333580819 0 -2.3479479333580819 6.1398553962200566 0 0 0 0 48.100068172070714 -15.028821471320732 0 -15.028821471320732 0.92142881703240676 0 0 0 0 -263.88448250874399 -268.6936983112455 0 -268.6936983112455 983.52160836605617 0 0 0 0 30.328033592408246 12.395263630749469 0 12.395263630749469 302.40807032581142 0 0 0 0 88.882361192071357 -3.9096462643765335 0 -3.9096462643765335 134.03394479930284 0 0 0 0 -845.91800219022844 274.88549694047833 0 274.88549694047833 1437.4020436931314 0 0 0 0 -474.03640949855981 578.50853127162736 0 578.50853127162736 1455.8356170114566 0 0 0 0 50.444065333004232 -33.988213544656901 0 -33.988213544656901 299.94068574738043 0 0 0 0 48.10272184697309 -15.217284475702286 0 -15.217284475702286 0.66408340451625114 0 0 0 0 2122.7797898563294 -177.19184362472151 0 -177.19184362472151 709.65700157905303 0 0 0 0 31.584731101808945 -14.702161753782633 0 -14.702161753782633 0.62693815589363977 0 0 0 0 74.555904467049913 -148.24360295029328 0 -148.24360295029328 724.62865991150466 0 0 0 0 -61.100021718505786 18.05137910416579 0 18.05137910416579 324.12912435238468 0 0 0 0 54.507850677161287 -100.97802471907744 0 -100.97802471907744 99.819232371512044 0 0 0 0 65.075949014714752 46.739768784806074 0 46.739768784806074 47.891937720800343 0 0 0 0 99.899372687068791 -8.622239455808085 0 -8.622239455808085 135.88894212108426 0 0 0 0 -56.617279013829375 22.618968248039891 0 22.618968248039891 163.13367276374993 0 0 0 0 34.805863805452191 -4.8052258224670368 0 -4.8052258224670368 168.82644630301274 0 0 0 0 28.977208686447398 -23.750054083449868 0 -23.750054083449868 256.23431873255322 0 0 0 0 57.610514090758556 -0.9222805907302245 0 -0.9222805907302245 138.48637097607161 0 0 0 0 90.911728425414424 -121.40312834649376 0 -121.40312834649376 -19.814867313023569 0 0 0 0 61.82184052441562 53.012738038853058 0 53.012738038853058 43.909935860105179 0 0 0 0 98.767597923276014 -10.596975690541512 0 -10.596975690541512 132.44430634448872 0 0 0 0 -17.445884492454297 -21.874374255904513 0 -21.874374255904513 161.46615185097107 0 0 0 0 -22.841759964044286 -12.039739575892781 0 -12.039739575892781 203.5436001977796 0 0 0 0 -53.018328005345211 -22.675059188008163 0 -22.675059188008163 205.59852422303766 0 0 0 0 19.216431925394318 -34.593462406592153 0 -34.593462406592153 183.86485829433514 0 0 0 0 19.3921668815874 -34.763156827273633 0 -34.763156827273633 178.06376426095267 0 0 0 0 -3.0471015094112772 -0.91258762927645876 0 -0.91258762927645876 247.46609600507509 0 0 0 0 1.4091996362431018 -6.4395561182154779 0 -6.4395561182154779 164.14039933734603 0 0 0 0 11.999397895612219 -31.468228421686945 0 -31.468228421686945 111.27891412076497 0 0 0 0 -2.1471009471235387 -0.84001259597920352 0 -0.84001259597920352 -0.023032683659716113 0 0 0 0 -9.2108167648884773 -35.598156949803524 0 -35.598156949803524 183.94419473558264 0 0 0 0 65.36394535335603 -29.544954061702811 0 -29.544954061702811 -5.1489767455789206 0 0 0 0 -46.348233456606181 44.416585579043385 0 44.416585579043385 292.02158743252949 0 0 0 0 -29.109546923446942 -163.11409991351138 0 -163.11409991351138 456.42212737028331 0 0 0 0 7.1161228121845088 -15.538465383461855 0 -15.538465383461855 0.57401131145642115 0 0 0 0 -7.9250485515446289 -0.44060587130171314 0 -0.44060587130171314 0.47630603903376922 0 0 0 0 38.503285965751957 -3.5281987342768844 0 -3.5281987342768844 28.913742724686017 0 0 0 0 -16.13014383126978 -15.615262286819387 0 -15.615262286819387 -1.6612971579124451 0 0 0 0 126.91534223243707 -104.98235503899559 0 -104.98235503899559 79.599364412621071 0 0 0 0 -39.835088070251004 35.736130168224008 0 35.736130168224008 218.72618003719253 0 0 0 0 10.994968528030995 -93.544404512829715 0 -93.544404512829715 188.58672334679432 0 0 0 0 152.70604359468052 -296.1355235310748 0 -296.1355235310748 345.9420764872084 0 0 0 0 -18.655684285031839 -174.13293183165706 0 -174.13293183165706 466.27688495512848 0 0 0 0 -69.719116056286111 -286.15693632974308 0 -286.15693632974308 471.25889992980956 0 0 0 0 -4.788555648170103 -389.35903902541486 0 -389.35903902541486 621.3179163135319 0 0 0 0 310.65041749985039 -580.57113129093341 0 -580.57113129093341 607.98064768452605 0 0 0 0 84.536626267745305 -322.24138061666508 0 -322.24138061666508 336.00689589608373 0 0 0 0 -10.644763071835769 -103.93837669118329 0 -103.93837669118329 710.81086492418399 0 0 0 0 -3.8846757741494002 -113.71463968893295 0 -113.71463968893295 544.37163674117255 0 0 0 0 -159.7197473909373 -204.75809452853355 0 -204.75809452853355 611.53243123931225 0 0 0 0 -113.30178013517752 -287.69059190981079 0 -287.69059190981079 596.41141385875017 0 0 0 0 38.727488508681745 -236.03609347765632 0 -236.03609347765632 620.75962167569037 0 0 0 0 32.504034159959019 -198.57129922080139 0 -198.57129922080139 405.68032298728576 0 0 0 0 -173.10816001452531 22.352129416300158 0 22.352129416300158 218.26098606798041 0 0 0 0 -194.54312975731401 -207.42162299407698 0 -207.42162299407698 510.45078081819884 0 0 0 0 -60.658627401928243 129.5159781212933 0 129.5159781212933 6.0679359095593099 0 0 0 0 -370.27142138388353 135.48740130865554 0 135.48740130865554 276.95778985207835 0 0 0 0 -245.88082884029154 12.993812334196264 0 12.993812334196264 342.95992125888188 0 0 0 0 -208.60688993613348 163.00452483543995 0 163.00452483543995 -208.88943104637474 0 0 0 0 -361.58579194323858 -124.65335643190809 0 -124.65335643190809 184.69280900281228 0 0 0 0 54.405507108875099 22.689809465171493 0 22.689809465171493 99.747500523444614 0 0 0 0 51.297150211430562 3.793284252336889 0 3.793284252336889 63.301788377773846 0 0 0 0 19.09436357938786 39.37125888177475 0 39.37125888177475 67.698576289092173 0 0 0 0 -98.83274515698713 356.2935893778249 0 356.2935893778249 1657.8474379935215 0 0 0 0 48.729925067187651 -709.50088501107439 0 -709.50088501107439 1483.7428590521358 0 0 0 0 -49.402382447719901 -353.02688421596577 0 -353.02688421596577 823.06967539528705 0 0 0 0 -151.33032864977622 -6.3622317448007379 0 -6.3622317448007379 659.82697233449653 0 0 0 0 -47.240647633609484 -315.03141787630557 0 -315.03141787630557 607.33890823165893 0 0 0 0 -157.83163946519971 -300.05958797791391 0 -300.05958797791391 740.63465370898848 0 0 0 0 -191.87293337048322 -189.07098536223748 0 -189.07098536223748 542.57192007578396 0 0 0 0 -194.78917830048977 -127.08761783354385 0 -127.08761783354385 392.66035376084255 0 0 0 0 -68.569895997507501 122.78120956540442 0 122.78120956540442 179.95424128399463 0 0 0 0 -123.909884225317 10.871779288187099 0 10.871779288187099 -40.672703215166621 0 0 0 0 -16.300300495884585 68.417284516617656 0 68.417284516617656 124.75903954327759 0 0 0 0 25.97675892427759 200.25616740666283 0 200.25616740666283 534.28734515687393 0 0 0 0 179.53027099142571 235.921800977565 0 235.921800977565 68.22848225269945 0 0 0 0 456.5569664442155 294.91462344569118 0 294.91462344569118 -78.049668933458634 0 0 0 0 -36.001950234490238 77.959299722899459 0 77.959299722899459 856.07842876844734 0 0 0 0 -26.013184761671823 30.81241329752811 0 30.81241329752811 415.41759567032568 0 0 0 0 286.38436302536684 440.40373128873216 0 440.40373128873216 458.94785786599095 0 0 0 0 506.01939132708503 702.23747218563585 0 702.23747218563585 672.02614149097826 0 0 0 0 389.84769824417754 -596.87515042582515 0 -596.87515042582515 1677.4057804369295 0 0 0 0 532.99652891061487 -725.7705355031303 0 -725.7705355031303 640.43697209619859 0 0 0 0 138.05524930629508 -229.89210462986739 0 -229.89210462986739 1982.3829977344794 0 0 0 0 -370.46745390614615 -342.31514695447549 0 -342.31514695447549 970.36450819940364 0 0 0 0 -292.5741801438844 -62.34598467359865 0 -62.34598467359865 1956.7821325371551 0 0 0 0 40.216723950528831 106.44224672355631 0 106.44224672355631 991.33817441518477 0 0 0 0 41.259865453567727 75.28127417860378 0 75.28127417860378 1838.3777740385394 0 0 0 0 -0.94804658089287841 67.831088590875879 0 67.831088590875879 1450.2882281548373 0 0 0 0 662.93427051844537 166.47794510399763 0 166.47794510399763 1663.6289413188279 0 0 0 0 192.32837967867545 389.63520045689438 0 389.63520045689438 1984.9570575625366 0 0 0 0 1.1375009666033797 -0.48119525096814186 0 -0.48119525096814186 0.45831692157547366 0 0 0 0 499.21388636097618 79.430346798484607 0 79.430346798484607 -13.864162024135112 0 0 0 0 358.98818149496037 -517.44954618682914 0 -517.44954618682914 1473.239635458689 0 0 0 0 513.87004542824161 -278.63221678006448 0 -278.63221678006448 312.57887544137338 0 0 0 0 383.8643521403942 -430.44235253017905 0 -430.44235253017905 1415.2001755546953 0 0 0 0 428.92036324275693 -297.35992284246026 0 -297.35992284246026 568.5702276012089 0 0 0 0 192.69003618703755 59.780277408348411 0 59.780277408348411 1505.2712839291853 0 0 0 0 604.46685579480527 -183.5222101553245 0 -183.5222101553245 542.57142586112241 0 0 0 0 213.69973561468248 -415.45974510369251 0 -415.45974510369251 432.46541859156969 0 0 0 0 276.46317992758441 80.246657254900128 0 80.246657254900128 452.63772831215164 0 0 0 0 354.48304101322645 453.78126373934401 0 453.78126373934401 738.51701492416851 0 0 0 0 -318.11925436579668 164.5886139526574 0 164.5886139526574 1044.1278560210294 0 0 0 0 189.9938721475728 -154.96827023586411 0 -154.96827023586411 1828.820358181767 0 0 0 0 -0.34812151474155684 -2.259711110632491 0 -2.259711110632491 7.1650791707299391 0 0 0 0 345.87773038784644 970.14145207615547 0 970.14145207615547 1817.0908062367198 0 0 0 0 -201.94878111213939 -440.61498242763901 0 -440.61498242763901 183.85389354631116 0 0 0 0 89.940505087993188 57.552506403862935 0 57.552506403862935 -235.85035570796572 0 0 0 0 26.576306561113597 71.03857573732239 0 71.03857573732239 259.99437300950376 0 0 0 0 33.857469481520639 182.69510753005306 0 182.69510753005306 -39.564029595505417 0 0 0 0 75.381415128900699 388.18620478681396 0 388.18620478681396 724.67592320283802 0 0 0 0 0.37840257436623759 -7.5333854539882275 0 -7.5333854539882275 15.435783459186201 0 0 0 0 25.752871304833207 49.504759072695379 0 49.504759072695379 72.899207088186813 0 0 0 0 -49.626053708567269 -117.61838388171418 0 -117.61838388171418 -47.152356978504031 0 0 0 0 -70.895284196866669 -28.309960808342112 0 -28.309960808342112 52.60366173433431 0 0 0 0 55.33742551057594 147.73644573946785 0 147.73644573946785 -51.954336118189531 0 0 0 0 1.7415894313655009 -1.3589498657536261 0 -1.3589498657536261 1.0902377554874221 0 0 0 0 5.1127740722392403 -3.3221671224811367 0 -3.3221671224811367 6.3998107690792452 0 0 0 0 7.5373747741288994 -23.661236445470628 0 -23.661236445470628 30.075965351529085 0 0 0 0 450.09936725984153 -3.0713804389524739 0 -3.0713804389524739 -455.62015150798106 0 0 0 0 -268.82739151605233 -6.5169928706309292 0 -6.5169928706309292 79.582014050887665 0 0 0 0 -175.64295817787342 -26.388550279126775 0 -26.388550279126775 39.106526496081642 0 0 0 0 -205.20533486220666 172.22322076086493 0 172.22322076086493 -29.476888329918438 0 0 0 0 -123.77021065974509 77.829289198436527 0 77.829289198436527 52.630843900406035 0 0 0 0 24.064475471600417 45.894819786726657 0 45.894819786726657 1.407417857881228 0 0 0 0 12.198026668296734 -60.388961010095954 0 -60.388961010095954 110.54393702362722 0 0 0 0 221.4125870124401 -159.10688780628743 0 -159.10688780628743 54.57598960337782 0 0 0 0 17.271176792346523 -4.9528468066855567 0 -4.9528468066855567 70.73329407142046 0 0 0 0 137.31285826298154 85.804559774122026 0 85.804559774122026 -137.71934433360002 0 0 0 0 6.905454985985866 -7.7335323201405153 0 -7.7335323201405153 12.937187085683604 0 0 0 0 478.76777934156951 -346.16985876576632 0 -346.16985876576632 122.29527747475004 0 0 0 0 253.90160419356471 13.817201769548774 0 13.817201769548774 -146.6212959718614 0 0 0 0 259.47293831181742 -265.54516840071665 0 -265.54516840071665 201.67320036955789 0 0 0 0 318.76830159980875 -314.71979971052571 0 -314.71979971052571 159.20147829749476 0 0 0 0 225.08682885104281 359.19904816887902 0 359.19904816887902 1125.7419266317811 0 0 0 0 196.55611490752835 526.29039336890673 0 526.29039336890673 293.54627735663962 0 0 0 0 86.802471815082754 71.773976267731996 0 71.773976267731996 939.9962384656319 0 0 0 0 127.79343838177192 78.789626201010833 0 78.789626201010833 218.53337565546099 0 0 0 0 261.6752340795174 448.17589135371236 0 448.17589135371236 350.8387272525506 0 0 0 0 376.98386469623529 659.25451798033282 0 659.25451798033282 -52.071665565155854 0 0 0 0 390.42863354057954 99.901807786678546 0 99.901807786678546 -50.469037801507511 0 0 0 0 526.74522093021187 446.06168140079899 0 446.06168140079899 168.25591760034149 0 0 0 0 -17.195356118754432 26.980407051499242 0 26.980407051499242 159.17339504967822 0 0 0 0 -38.25372819363858 -10.985437832313892 0 -10.985437832313892 115.80469924637873 0 0 0 0 -11.394927548187525 6.7238543889316134 0 6.7238543889316134 216.79148134459138 0 0 0 0 -15.214183077413203 2.5125382182183102 0 2.5125382182183102 -0.9663498001979125 0 0 0 0 1.1836075207561407 -1.2700257489714204 0 -1.2700257489714204 407.19613903511936 0 0 0 0 -41.536469973934345 188.30624175627509 0 188.30624175627509 661.52735743927224 0 0 0 0 -14.716626799181995 -10.350371496529078 0 -10.350371496529078 189.71219498752362 0 0 0 0 -19.492846336800767 22.723908122184184 0 22.723908122184184 340.15306299213808 0 0 0 0 -5.334647538453348 -0.17090150102595203 0 -0.17090150102595203 1.0727503053156884 0 0 0 0 -147.36294530896953 -69.365787178318897 0 -69.365787178318897 334.08953667915443 0 0 0 0 -33.194107826350091 182.4894976824047 0 182.4894976824047 484.34959350407189 0 0 0 0 0.52199602981596627 2.7015868067906013 0 2.7015868067906013 432.0362305614276 0 0 0 0 5.2414077955707565 -7.1234463937772396 0 -7.1234463937772396 26.595954254956329 0 0 0 0 56.333737681895343 7.9672706066426144 0 7.9672706066426144 94.949137229209555 0 0 0 0 14.217595323260412 -204.27064056913468 0 -204.27064056913468 631.85397972550709 0 0 0 0 -72.353525848274103 230.39822307468012 0 230.39822307468012 788.1041678445481 0 0 0 0 -111.86035041221328 160.12078901855466 0 160.12078901855466 665.86489442493075 0 0 0 0 248.33622436809173 160.76016155255093 0 160.76016155255093 503.22392672271144 0 0 0 0 182.92319003839157 203.72653834687708 0 203.72653834687708 219.76133288410711 0 0 0 0 -61.652585070870373 98.548175999504565 0 98.548175999504565 513.47995424533201 0 0 0 0 17.029651412592209 6.9286926104389277 0 6.9286926104389277 -16.73151664084088 0 0 0 0 -57.747276413952022 94.102700726336252 0 94.102700726336252 323.20187099068244 0 0 0 0 82.111399437522778 40.259369346641051 0 40.259369346641051 327.40735037948798 0 0 0 0 -121.28085699831354 -33.542357789905054 0 -33.542357789905054 1009.8606794475945 0 0 0 0 5.3151058862284426 -2.8287248848749869 0 -2.8287248848749869 1.6842631596334654 0 0 0 0 -323.95405689628569 41.243816810308999 0 41.243816810308999 1158.6062926462225 0 0 0 0 29.859981172411608 55.437022171647186 0 55.437022171647186 51.117400782059121 0 0 0 0 7.3829393366240765 47.166195620167855 0 47.166195620167855 106.29204054719958 0 0 0 0 40.873462843866946 60.407545554822718 0 60.407545554822718 51.394033415366721 0 0 0 0 121.82535554514618 9.982027545673418 0 9.982027545673418 -20.53870422076352 0 0 0 0 32.342778288767128 38.020680492124441 0 38.020680492124441 33.66479177069143 0 0 0 0 22.590012251650997 18.426504577043374 0 18.426504577043374 6.7432337621617098 0 0 0 0 23.388347368264931 22.674453897994226 0 22.674453897994226 52.92541126809283 0 0 0 0 13.292752580781325 34.853118978833663 0 34.853118978833663 38.60535692963731 0 0 0 0 7.7832245441104533 44.833257345499987 0 44.833257345499987 53.473796052358836 0 0 0 0 15.145464296948035 36.723264915983663 0 36.723264915983663 63.745463497094107 0 0 0 0 -10.106416686473892 4.194259335927816 0 4.194259335927816 38.626992378967863 0 0 0 0 68.230259077966366 29.544182935469507 0 29.544182935469507 56.587381867798484 0 0 0 0 65.633386490845623 104.84040188337781 0 104.84040188337781 132.06994047407625 0 0 0 0 -27.938235416903098 12.505725700635725 0 12.505725700635725 90.922946243135812 0 0 0 0 -34.887749203024896 57.018297074177895 0 57.018297074177895 213.35931764611007 0 0 0 0 23.643464850477219 14.621745311554111 0 14.621745311554111 7.2419500838398525 0 0 0 0 22.201725443454961 29.667609415625748 0 29.667609415625748 75.942574282593796 0 0 0 0 -7.8140522325890434 -5.248673090394572 0 -5.248673090394572 32.86215790416356 0 0 0 0 23.214075025969919 25.960987474758838 0 25.960987474758838 62.355202454366008 0 0 0 0 12.554407039838772 11.054507102727996 0 11.054507102727996 14.952586553637875 0 0 0 0 19.046217536495988 6.4129358147536095 0 6.4129358147536095 60.869406073973323 0 0 0 0 0.23652424687139728 1.0561718158054876 0 1.0561718158054876 17.966908168631974 0 0 0 0 3.8571916501078931 23.32816382172723 0 23.32816382172723 97.578390904077423 0 0 0 0 -6.9486726819669684 18.438119623110651 0 18.438119623110651 96.922029118441458 0 0 0 0 -18.979711240819992 8.8951282552898796 0 8.8951282552898796 94.864064665160299 0 0 0 0 9.0271460406445243 33.564310016712312 0 33.564310016712312 90.442508879194207 0 0 0 0 19.012670448359586 27.875252907884374 0 27.875252907884374 65.980123940765111 0 0 0 0 -12.638834774988844 -4.1141779158323502 0 -4.1141779158323502 48.051820562120675 0 0 0 0 8.9524033846174689 43.921878048615206 0 43.921878048615206 87.001289253187053 0 0 0 0 -22.267206408654829 3.3824396802810952 0 3.3824396802810952 62.264824628979113 0 0 0 0 1.4311996392604174 14.416743332342341 0 14.416743332342341 53.439321668092852 0 0 0 0 3.1517568838480656 61.464985493705171 0 61.464985493705171 168.53236575174014 0 0 0 0 -25.582539891921584 13.421070175598516 0 13.421070175598516 99.82467676858505 0 0 0 0 -2.0068143000879317 9.2171448307047932 0 9.2171448307047932 20.227912602675019 0 0 0 0 5.0625135049224355 49.710210549917974 0 49.710210549917974 130.73162580274766 0 0 0 0 7.7446684609076328 67.975827398089677 0 67.975827398089677 105.42670230850854 0 0 0 0 -30.261541223246901 3.311820929285318 0 3.311820929285318 54.646734112048939 0 0 0 0 -6.1176443052868308 5.9605791306330502 0 5.9605791306330502 86.030617420833778 0 0 0 0 -15.436981250125916 -1.1795713885446588 0 -1.1795713885446588 -1.9927470790698258 0 0 0 0 -112.27021105970562 -4.7975283871764987 0 -4.7975283871764987 7.2119081538949104 0 0 0 0 -39.824960513447493 -15.436350551024624 0 -15.436350551024624 11.577524745939691 0 0 0 0 -27.614245729971231 12.228924245603594 0 12.228924245603594 139.29878334192472 0 0 0 0 -16.379261570791869 -8.6776336184975662 0 -8.6776336184975662 54.113318179144613 0 0 0 0 -8.5256034572780681 -6.8274174793803049 0 -6.8274174793803049 30.610378745162297 0 0 0 0 -19.633146753422579 -10.997155713380835 0 -10.997155713380835 11.945372274418332 0 0 0 0 -10.888450292562993 7.5649582307651144 0 7.5649582307651144 75.786835484042967 0 0 0 0 -1.4837753638494648 10.023671067892366 0 10.023671067892366 29.209861864537928 0 0 0 0 -14.150639528008924 2.2035822539219225 0 2.2035822539219225 63.466326193958594 0 0 0 0 -16.387869737288597 -11.492637528840593 0 -11.492637528840593 40.911908746757732 0 0 0 0 -20.373283117918962 -12.820058606534207 0 -12.820058606534207 59.386141544467634 0 0 0 0 -26.192564060728046 2.3820721460797358 0 2.3820721460797358 111.46034487844372 0 0 0 0 -24.206597030660426 1.7387523470601707 0 1.7387523470601707 15.570705615834564 0 0 0 0 -2.7294079345392674 19.581261236635328 0 19.581261236635328 80.19947300382546 0 0 0 0 4.5537141768782021 25.855891490968133 0 25.855891490968133 105.96173968573044 0 0 0 0 -62.139830725693173 -36.615785802224309 0 -36.615785802224309 86.695000582971261 0 0 0 0 -27.563818959461912 -2.5954232083850943 0 -2.5954232083850943 77.354964447296254 0 0 0 0 -61.723904790669621 32.282560790179559 0 32.282560790179559 144.59810943336561 0 0 0 0 32.52092361839459 17.947381711146591 0 17.947381711146591 71.997157637893906 0 0 0 0 -6.0133624554182461 19.056537614809713 0 19.056537614809713 138.78324977668672 0 0 0 0 23.545167268451678 75.866499286548787 0 75.866499286548787 161.13214861137385 0 0 0 0 -20.532589767947684 7.1834060773799138 0 7.1834060773799138 117.0941247443734 0 0 0 0 -25.406023465678402 34.538913908052564 0 34.538913908052564 192.27620936317908 0 0 0 0 -37.934591723405902 14.555098123852076 0 14.555098123852076 160.90353081630792 0 0 0 0 -27.730287289506123 59.170904533053545 0 59.170904533053545 196.8002611890779 0 0 0 0 -96.437621349951769 70.294999395287959 0 70.294999395287959 267.11629825243654 0 0 0 0 -208.66762567631213 31.313555296343111 0 31.313555296343111 274.42458225683367 0 0 0 0 15.305568357255652 108.1276594489118 0 108.1276594489118 189.82948186451176 0 0 0 0 -2.0538051972640692 6.4300162459387913 0 6.4300162459387913 1.9827090245005081 0 0 0 0 -122.50882068783812 -18.529617174950545 0 -18.529617174950545 117.33995518955635 0 0 0 0 -37.686795754048944 60.094005827129877 0 60.094005827129877 299.99013917423235 0 0 0 0 -27.862788182046643 56.67849534573179 0 56.67849534573179 219.83580584666925 0 0 0 0 4.9597786986505525 116.1447201369192 0 116.1447201369192 312.35357018241484 0 0 0 0 81.269929308507926 87.532629715620715 0 87.532629715620715 169.37700347195278 0 0 0 0 16.357938327997317 65.447149471136072 0 65.447149471136072 245.56873395715229 0 0 0 0 209.73138656037918 169.41287827733322 0 169.41287827733322 296.20489638307481 0 0 0 0 -132.92727131388165 -155.51032818706517 0 -155.51032818706517 309.79027507136925 0 0 0 0 50.26030559494211 -41.931815561743861 0 -41.931815561743861 178.89111187538219 0 0 0 0 235.11278790114011 -34.697033243741316 0 -34.697033243741316 227.63344282000617 0 0 0 0 13.148948377624038 43.737512622690701 0 43.737512622690701 236.64498965996972 0 0 0 0 293.6143654139596 31.618487231069594 0 31.618487231069594 -31.167769418425451 0 0 0 0 76.046504829580954 -173.66362507354643 0 -173.66362507354643 111.46763151886989 0 0 0 0 160.35156100103268 -9.540630530747876 0 -9.540630530747876 527.01612839466543 0 0 0 0 470.41657681799552 225.88931402401067 0 225.88931402401067 165.98514129253454 0 0 0 0 80.432898781299286 -2.4892336180301982 0 -2.4892336180301982 410.55137516956893 0 0 0 0 398.79409798426968 430.62761813471661 0 430.62761813471661 475.40058577268792 0 0 0 0 427.28734507448462 438.48955931584351 0 438.48955931584351 432.68121234127102 0 0 0 0 2.2945161926861317 -0.56758932701222875 0 -0.56758932701222875 -3.8043638900710945 0 0 0 0 -609.89163256004394 71.193324769701576 0 71.193324769701576 30.835101497905271 0 0 0 0 66.507134640090953 100.79933016084033 0 100.79933016084033 57.579979016156358 0 0 0 0 -7.1666487660113489 122.99498423570185 0 122.99498423570185 411.08264599215909 0 0 0 0 0.20739294747118375 5.3317372982335893 0 5.3317372982335893 2.4957668175898817 0 0 0 0 -69.318302810474506 -173.59597077574517 0 -173.59597077574517 175.82381723177241 0 0 0 0 3.4074814018731558 27.953506168140848 0 27.953506168140848 -6.3834779578137386 0 0 0 0 10.896483602846398 19.305502604031958 0 19.305502604031958 11.601493426908021 0 0 0 0 40.10313111065966 62.909754759009957 0 62.909754759009957 4.1059414975970867 0 0 0 0 14.518135418639144 38.90820514153264 0 38.90820514153264 79.63743762629143 0 0 0 0 12.759847333530615 47.629870345506561 0 47.629870345506561 65.853389831359891 0 0 0 0 -28.73399841407263 16.501344441736364 0 16.501344441736364 -36.537301552465578 0 0 0 0 60.727291421209884 305.03905174620559 0 305.03905174620559 44.426319475154742 0 0 0 0 2.0179353696823541 18.654498673099326 0 18.654498673099326 -30.681578024487024 0 0 0 0 -1.3834826807952822 57.107019044793148 0 57.107019044793148 62.392348677681184 0 0 0 0 8.6026928510472054 42.93560147646069 0 42.93560147646069 52.607102935038824 0 0 0 0 -12.222136099794881 131.14780049574983 0 131.14780049574983 -18.390665220078517 0 0 0 0 10.47884417002164 41.162335381668775 0 41.162335381668775 65.672037647254996 0 0 0 0 79.540317918208643 127.20231189004767 0 127.20231189004767 51.478564434826694 0 0 0 0 124.04079601838021 38.87924942497375 0 38.87924942497375 -10.04960164193858 0 0 0 0 -0.60227679080394125 4.0216030864576453 0 4.0216030864576453 -3.3390624484443592 0 0 0 0 -78.653267269889056 -53.731439182392364 0 -53.731439182392364 102.78614892892801 0 0 0 0 -91.128655818061816 -5.9877887354850827 0 -5.9877887354850827 98.592464992578243 0 0 0 0 -99.296332336286014 29.940224314055286 0 29.940224314055286 132.942694642878 0 0 0 0 -3.4371341301939538 -21.382203122906503 0 -21.382203122906503 120.01822065913802 0 0 0 0 -73.874121596050827 46.55750751585947 0 46.55750751585947 69.672885073037833 0 0 0 0 -32.143683650019788 -0.95835051710274399 0 -0.95835051710274399 8.8690076769863992 0 0 0 0 -176.26586998408948 137.46075366552395 0 137.46075366552395 -53.600601847483631 0 0 0 0 -8.5012480731146312 42.171112462779888 0 42.171112462779888 42.561191783906679 0 0 0 0 -27.944741744918701 65.202591075400051 0 65.202591075400051 18.829371033985808 0 0 0 0 -9.7222212712158864 46.067703873442269 0 46.067703873442269 160.53499522040875 0 0 0 0 -12.383220367438696 68.035943718756698 0 68.035943718756698 156.18370682355453 0 0 0 0 1.3427848249250474 45.61976185713138 0 45.61976185713138 147.2650785489086 0 0 0 0 -43.778841605644175 63.328411995535134 0 63.328411995535134 155.62259507582348 0 0 0 0 6.4636254544880103 57.37755543557364 0 57.37755543557364 153.03540946924113 0 0 0 0 -7.7752584599452348 46.696215986610696 0 46.696215986610696 159.6013982614827 0 0 0 0 -11.850303708415595 47.902825752471472 0 47.902825752471472 159.41730679160537 0 0 0 0 -5.7942614511357533 39.688058765425012 0 39.688058765425012 178.87876352418243 0 0 0 0 -15.20718708439108 18.159341220958595 0 18.159341220958595 200.77013554143923 0 0 0 0 -5.3189483838961795 0.357492382615618 0 0.357492382615618 10.776887484121886 0 0 0 0 -14.929992928465253 20.487926086907464 0 20.487926086907464 167.35883483588623 0 0 0 0 -15.580870132393606 7.6294957671395958 0 7.6294957671395958 83.321524354709538 0 0 0 0 -4.3906603450118382 34.166646643973309 0 34.166646643973309 144.06378706806936 0 0 0 0 6.0995584053243874 52.464708178151113 0 52.464708178151113 142.48270917614718 0 0 0 0 -82.388012249017265 -17.973759894264276 0 -17.973759894264276 205.08674003909255 0 0 0 0 -223.7294144448274 85.03531091788318 0 85.03531091788318 182.4207427507281 0 0 0 0 14.690600620770249 43.598069722238421 0 43.598069722238421 102.64643864259085 0 0 0 0 -62.920660232775845 128.9602007115609 0 128.9602007115609 82.799919960962143 0 0 0 0 3.9607766842195815 35.849045811286658 0 35.849045811286658 91.597345778114686 0 0 0 0 -6.6237269337305378 5.4114403982258246 0 5.4114403982258246 19.893477168621587 0 0 0 0 12.271422542552614 50.764378316697815 0 50.764378316697815 85.906381726371364 0 0 0 0 -8.0502022007012144 14.683480009386962 0 14.683480009386962 48.234900883416209 0 0 0 0 23.50797200892972 50.662387241064081 0 50.662387241064081 54.932915203816336 0 0 0 0 -29.026267476020962 98.820353148243157 0 98.820353148243157 41.055131874491053 0 0 0 0 44.719101590478544 45.668338889550796 0 45.668338889550796 5.5134415609027201 0 0 0 0 36.895124620937906 98.844573179447252 0 98.844573179447252 -22.420275242504431 0 0 0 0 31.390375758868913 48.342251088796843 0 48.342251088796843 19.856320774932101 0 0 0 0 40.069758766808924 69.247994084042602 0 69.247994084042602 65.136389705228794 0 0 0 0 61.297875234453272 75.323323649219674 0 75.323323649219674 28.497016409069147 0 0 0 0 4.1725304310499975 20.285439348454041 0 20.285439348454041 2.5893904331013786 0 0 0 0 15.744407009782321 34.018748896345642 0 34.018748896345642 48.694229877397447 0 0 0 0 12.848900374639925 43.426859774361446 0 43.426859774361446 85.545414484135108 0 0 0 0 14.497875113210654 27.129336639169505 0 27.129336639169505 44.90780937886921 0 0 0 0 -20.540641606353574 20.166455654758465 0 20.166455654758465 22.416898574847437 0 0 0 0 -65.72723711655135 9.4217325068475475 0 9.4217325068475475 59.553212695938782 0 0 0 0 16.27825145063639 34.101752969265362 0 34.101752969265362 39.001437018130673 0 0 0 0 -20.674994688456763 63.444207792017551 0 63.444207792017551 34.210514531096123 0 0 0 0 -7.0611255971643168 6.9140583676165353 0 6.9140583676165353 20.906575284331211 0 0 0 0 -106.70205444266207 -33.705110911967495 0 -33.705110911967495 45.311651514482037 0 0 0 0 57.308728710911055 45.819637238009818 0 45.819637238009818 35.51661745506135 0 0 0 0 46.669446782727618 16.244520066802579 0 16.244520066802579 35.440097770377179 0 0 0 0 9.4305658427896759 3.5263728646202424 0 3.5263728646202424 -10.145176270111804 0 0 0 0 -9.0474505961149632 6.2447971591421911 0 6.2447971591421911 13.799665951428793 0 0 0 0 -20.324571807551592 -13.103234570485256 0 -13.103234570485256 -50.352265690929926 0 0 0 0 -6.4841862814046181 68.402137781939018 0 68.402137781939018 98.831428183773824 0 0 0 0 -46.403337117556902 17.804136060791279 0 17.804136060791279 106.08832147912835 0 0 0 0 5.9660940461366447 17.980255811538594 0 17.980255811538594 11.866143878388357 0 0 0 0 75.149866874563941 204.32701033437115 0 204.32701033437115 397.99323444982292 0 0 0 0 15.369897735997498 55.179214761219711 0 55.179214761219711 112.62594886099242 0 0 0 0 125.7826849880887 278.6210136149657 0 278.6210136149657 430.84519857901614 0 0 0 0 -71.686934181089214 -59.61706108630824 0 -59.61706108630824 272.51756169146392 0 0 0 0 -91.691482978381828 145.63966104960127 0 145.63966104960127 122.02025924624468 0 0 0 0 -3.6558761476106838 303.20854634291391 0 303.20854634291391 573.59509283675288 0 0 0 0 -158.1333270171117 27.501993824487727 0 27.501993824487727 518.65273384585089 0 0 0 0 -45.024610508856313 25.646539912882872 0 25.646539912882872 345.02942977096973 0 0 0 0 7.5531659803573348 140.27229884102417 0 140.27229884102417 349.82024903398269 0 0 0 0 51.480550175460593 194.21034056092321 0 194.21034056092321 401.80698390147882 0 0 0 0 72.504313096194437 114.58630319768599 0 114.58630319768599 212.555882812645 0 0 0 0 -0.23479815740515442 0.5992321390506774 0 0.5992321390506774 3.4068254112606553 0 0 0 0 -10.503499872186694 -102.8417810446299 0 -102.8417810446299 -22.037671078188396 0 0 0 0 20.330724988904649 -164.95032252543024 0 -164.95032252543024 54.204253445801442 0 0 0 0 0.8028395662304153 2.8679656704468606 0 2.8679656704468606 0.0836515165857179 0 0 0 0 -239.55335648092409 143.95487963753476 0 143.95487963753476 766.54722269225749 0 0 0 0 661.17196534714867 33.946161374580697 0 33.946161374580697 -90.751132383789809 0 0 0 0 291.09289317999583 453.32174193787796 0 453.32174193787796 568.18659872718854 0 0 0 0 -53.102453079499355 58.878528041859681 0 58.878528041859681 424.16954165449852 0 0 0 0 20.366405800880329 195.20332313923427 0 195.20332313923427 413.1669482429279 0 0 0 0 84.473432414227091 167.08910267091051 0 167.08910267091051 189.25438817450777 0 0 0 0 41.81944463226273 181.26104000347186 0 181.26104000347186 184.646625457759 0 0 0 0 97.380801946431689 147.82755930837993 0 147.82755930837993 52.693779054861807 0 0 0 0 16.345365325737703 68.526575765110465 0 68.526575765110465 189.61278138983107 0 0 0 0 5.9536025147581313 137.52963569136773 0 137.52963569136773 231.30849742737701 0 0 0 0 -21.404355312343341 81.019438069568423 0 81.019438069568423 354.7285004775913 0 0 0 0 -43.26107458213346 44.459778544638539 0 44.459778544638539 336.06907937364304 0 0 0 0 -40.461143811386592 30.474040158609569 0 30.474040158609569 359.43691418720846 0 0 0 0 -48.828826130529109 1.5261043797936509 0 1.5261043797936509 335.9825810608454 0 0 0 0 -49.14179464302606 1.0535355404208531 0 1.0535355404208531 387.84324679932183 0 0 0 0 -41.751543442030766 -12.590151587626679 0 -12.590151587626679 344.01522765423579 0 0 0 0 -44.739883038435437 58.046180528581317 0 58.046180528581317 388.2511597443663 0 0 0 0 -68.160798745710508 -32.53894031400705 0 -32.53894031400705 472.90253002649115 0 0 0 0 -40.885655731309271 86.699613881399273 0 86.699613881399273 481.59248488525918 0 0 0 0 -73.211783405678034 -1.2766829009487992 0 -1.2766829009487992 597.68052499179612 0 0 0 0 -78.689724220770586 122.54046657458093 0 122.54046657458093 752.72739596920655 0 0 0 0 -53.570290539946654 -23.974042369023664 0 -23.974042369023664 459.68742952366119 0 0 0 0 -27.044920173729906 -2.4374905483346083 0 -2.4374905483346083 427.10922769473109 0 0 0 0 -17.932287642140636 -36.070898915961152 0 -36.070898915961152 248.93857581994962 0 0 0 0 -47.382730840756267 -76.10389053884137 0 -76.10389053884137 350.63676570062671 0 0 0 0 -22.454275274879365 -59.188067704257264 0 -59.188067704257264 180.10773745378538 0 0 0 0 0.041568893426301656 -12.211861876887269 0 -12.211861876887269 164.06815042172093 0 0 0 0 -24.46891906261817 -24.263955700618681 0 -24.263955700618681 251.3155674480804 0 0 0 0 -0.99312976058490676 -14.685814393160399 0 -14.685814393160399 242.72823472197342 0 0 0 0 1.9074096645226746 33.115599901677342 0 33.115599901677342 250.5800055837808 0 0 0 0 -13.474626002268053 -8.2597744192389655 0 -8.2597744192389655 260.12793171071098 0 0 0 0 -16.163008794411326 10.850692299623915 0 10.850692299623915 315.81795759482338 0 0 0 0 -27.258266895268321 -49.060831419450551 0 -49.060831419450551 330.69748754837201 0 0 0 0 -14.408224130410417 -2.5151744585309643 0 -2.5151744585309643 253.53820026958419 0 0 0 0 -6.6775873319620587 41.650485153108093 0 41.650485153108093 316.58081426573335 0 0 0 0 -11.411899011879768 25.957893755370606 0 25.957893755370606 265.90212804400653 0 0 0 0 -3.5703741391428139 42.261412794847274 0 42.261412794847274 304.5939193420636 0 0 0 0 37.622450476812219 84.609600189585763 0 84.609600189585763 318.42324025226844 0 0 0 0 4.8143508629434564 25.83670910091314 0 25.83670910091314 341.9732566675375 0 0 0 0 6.5051970181317529 66.951936356619626 0 66.951936356619626 365.09069704543799 0 0 0 0 -10.939301730544685 35.131697379125399 0 35.131697379125399 337.47641598372866 0 0 0 0 7.979294444868998 20.22088928156154 0 20.22088928156154 325.37438371650933 0 0 0 0 0.4418395780494393 0.097765781145426445 0 0.097765781145426445 320.40974862786607 0 0 0 0 -24.731127178651604 17.627087218956149 0 17.627087218956149 325.15321735073667 0 0 0 0 -32.467947340119281 8.9002981600933708 0 8.9002981600933708 315.68177412318619 0 0 0 0 -26.047002446227452 18.750549228941964 0 18.750549228941964 325.78529638241162 0 0 0 0 -39.732657503413066 29.020192921438138 0 29.020192921438138 320.55893600238778 0 0 0 0 -20.197586940714473 27.654671582546143 0 27.654671582546143 314.19391827764775 0 0 0 0 -19.637100241856615 62.22592718598753 0 62.22592718598753 242.41725667916762 0 0 0 0 7.8990823079620895 75.165216151057393 0 75.165216151057393 244.97527174439892 0 0 0 0 26.801086110771678 68.502309960478669 0 68.502309960478669 143.40406325974618 0 0 0 0 48.973513476287735 26.122190034351661 0 26.122190034351661 117.55619392087465 0 0 0 0 24.140244293804813 3.2670621130237123 0 3.2670621130237123 240.89704762588372 0 0 0 0 27.44183291353302 21.171975831788131 0 21.171975831788131 220.49141214639531 0 0 0 0 -14.315641710508373 36.092501820457073 0 36.092501820457073 276.22288980417943 0 0 0 0 44.29068385518417 -32.417975727643352 0 -32.417975727643352 263.27212993230205 0 0 0 0 79.362901499506165 -12.625708794083039 0 -12.625708794083039 256.44018307944498 0 0 0 0 37.644993578701246 -35.373761328923138 0 -35.373761328923138 340.6065320190246 0 0 0 0 57.149587544671817 50.099167996822416 0 50.099167996822416 94.586139470309718 0 0 0 0 69.691411227419451 -12.936575875672133 0 -12.936575875672133 151.26779783604434 0 0 0 0 90.991476255554034 40.973878089978825 0 40.973878089978825 32.692579859449324 0 0 0 0 -30.361651840126569 117.68789245938933 0 117.68789245938933 78.060832256691356 0 0 0 0 132.96101173781679 95.584671607431915 0 95.584671607431915 16.616055386148219 0 0 0 0 120.89720699393966 -69.842136462371855 0 -69.842136462371855 210.54964838086744 0 0 0 0 295.32051708889855 374.66813990696392 0 374.66813990696392 585.91010453635681 0 0 0 0 78.887086538897606 -27.746760394671128 0 -27.746760394671128 460.7130812483374 0 0 0 0 132.83807378067868 -33.500445700865384 0 -33.500445700865384 459.091474515546 0 0 0 0 53.021212193873339 47.412217720309854 0 47.412217720309854 717.41029676709149 0 0 0 0 64.779830523521014 29.525992560003942 0 29.525992560003942 441.9124416572231 0 0 0 0 88.03479964469831 -89.245339994616188 0 -89.245339994616188 348.68285547499545 0 0 0 0 46.889803677807095 3.4182661255035782 0 3.4182661255035782 339.32572869952219 0 0 0 0 29.296113145319055 4.0702915908768773 0 4.0702915908768773 469.6157830937882 0 0 0 0 19.733168228945942 -11.620587262714253 0 -11.620587262714253 370.98231897600635 0 0 0 0 21.336890669669401 59.433359171707707 0 59.433359171707707 401.61545524840403 0 0 0 0 71.606453558993181 126.6220829611284 0 126.6220829611284 531.40874701515713 0 0 0 0 44.215365243027122 55.638280746603414 0 55.638280746603414 389.86991903846501 0 0 0 0 44.510625409075601 116.78757037081959 0 116.78757037081959 428.13701201325966 0 0 0 0 143.23351101285095 232.15241021806287 0 232.15241021806287 491.86757983438565 0 0 0 0 147.96445930333476 192.34746012304095 0 192.34746012304095 548.91032159150927 0 0 0 0 129.7978057086541 239.90529886423428 0 239.90529886423428 727.15357146973838 0 0 0 0 106.55942567854299 136.91178680427402 0 136.91178680427402 475.70998980659533 0 0 0 0 344.80683404496966 293.12896099645877 0 293.12896099645877 263.79097392217591 0 0 0 0 143.93042398505148 163.30472451417774 0 163.30472451417774 323.8764071027399 0 0 0 0 281.72701901547413 192.03498141201635 0 192.03498141201635 128.76295408041187 0 0 0 0 89.125111964508505 139.65161393234303 0 139.65161393234303 313.70290018974265 0 0 0 0 187.37139064576581 85.032486851268914 0 85.032486851268914 48.187249951988633 0 0 0 0 101.4178909659347 34.147770355481043 0 34.147770355481043 69.728865928402229 0 0 0 0 7.654408859435895 -18.28157331546284 0 -18.28157331546284 44.342617392929625 0 0 0 0 64.598906591514833 37.57537703547132 0 37.57537703547132 85.389202988892066 0 0 0 0 -742.54705294052019 -530.34420858204771 0 -530.34420858204771 249.01946619002592 0 0 0 0 -747.61007905992483 -524.49613270401483 0 -524.49613270401483 1009.5210042628496 0 0 0 0 92.013146454775097 93.951259510598902 0 93.951259510598902 102.12157993152505 0 0 0 0 72.334981502768187 90.780785779672442 0 90.780785779672442 103.24560489510623 0 0 0 0 65.911385378725868 50.179472155621625 0 50.179472155621625 65.148344208952039 0 0 0 0 30.699461176494765 77.239492547108966 0 77.239492547108966 130.56683518135105 0 0 0 0 50.597025464549006 24.907128135269886 0 24.907128135269886 23.64784942958795 0 0 0 0 27.071973391303345 104.44114189342145 0 104.44114189342145 88.873343991173897 0 0 0 0 23.594513920582511 63.74538515956035 0 63.74538515956035 85.278139377359622 0 0 0 0 53.923484529835378 105.27650480277953 0 105.27650480277953 53.636239795661822 0 0 0 0 17.819694391436879 19.681001211626445 0 19.681001211626445 -16.265033309401716 0 0 0 0 -4.9151020912731838 42.950246992302709 0 42.950246992302709 101.01600721241266 0 0 0 0 70.334634877568988 101.63155219691544 0 101.63155219691544 70.941069063148461 0 0 0 0 50.644890072123872 76.172691282285086 0 76.172691282285086 101.70984999187203 0 0 0 0 41.001740583749324 81.737245020131013 0 81.737245020131013 156.44575301060104 0 0 0 0 50.609751272501398 91.048651361008524 0 91.048651361008524 163.11322796751483 0 0 0 0 49.448343128978877 88.658431660303904 0 88.658431660303904 193.68965532680159 0 0 0 0 69.731585083331083 95.277839127324114 0 95.277839127324114 119.87964833387377 0 0 0 0 69.275216697769594 87.43342223210152 0 87.43342223210152 127.1049580280669 0 0 0 0 91.185021398962931 129.10049232835445 0 129.10049232835445 195.07747930525511 0 0 0 0 85.945866186488274 109.56733086009626 0 109.56733086009626 136.62557796731198 0 0 0 0 64.785761932018602 108.41594187922965 0 108.41594187922965 208.8955485154147 0 0 0 0 66.540745896848193 98.816618771495996 0 98.816618771495996 214.10757749577533 0 0 0 0 89.175101082801262 140.4081083598677 0 140.4081083598677 255.18379511401872 0 0 0 0 27.786084668253125 90.244166509648494 0 90.244166509648494 324.61593413637456 0 0 0 0 28.04740392087956 89.424535788544745 0 89.424535788544745 279.76144761415344 0 0 0 0 24.449205447564736 70.273187791142846 0 70.273187791142846 257.10764313828986 0 0 0 0 24.244911749075072 66.898533782281447 0 66.898533782281447 218.47475650030538 0 0 0 0 2.0063155530588119 31.437299323748448 0 31.437299323748448 268.1387433072814 0 0 0 0 24.950571286272542 57.521323741104389 0 57.521323741104389 206.48954495084763 0 0 0 0 21.41870526852972 23.786387143889442 0 23.786387143889442 167.02574059971812 0 0 0 0 20.740597195549526 66.725796208222164 0 66.725796208222164 132.73677991266595 0 0 0 0 24.747173876097804 55.362879067019094 0 55.362879067019094 155.53046129773429 0 0 0 0 24.930742340859865 65.711285252744375 0 65.711285252744375 176.14172188450175 0 0 0 0 8.2439238883966937 19.171250650470029 0 19.171250650470029 212.13364816406101 0 0 0 0 8.0848893590953423 21.766034778834637 0 21.766034778834637 169.89143685340241 0 0 0 0 12.408923978064195 -13.822484731055738 0 -13.822484731055738 149.83441123312514 0 0 0 0 8.6857454602920825 -19.973827327259642 0 -19.973827327259642 37.647205184897757 0 0 0 0 -19.599799920338796 -52.222135943011381 0 -52.222135943011381 124.21148634486599 0 0 0 0 6.1647337097474519 -2.5156530853710137 0 -2.5156530853710137 131.26704494511068 0 0 0 0 6.3015844224769353 55.607822409816436 0 55.607822409816436 44.008734792179894 0 0 0 0 13.919296037653794 48.331499601216819 0 48.331499601216819 50.845303204987431 0 0 0 0 -15.265132533430005 104.29386667700601 0 104.29386667700601 73.716649332000088 0 0 0 0 18.773501643514464 37.854768631448678 0 37.854768631448678 109.19008957839105 0 0 0 0 12.22236145841191 41.773607595096109 0 41.773607595096109 117.26871152811509 0 0 0 0 14.833313211768314 70.938091172543864 0 70.938091172543864 143.543245271052 0 0 0 0 11.673059612737688 84.797632232817705 0 84.797632232817705 99.304969921096927 0 0 0 0 5.0962219714519961 80.28401967928221 0 80.28401967928221 102.02855877878028 0 0 0 0 -29.916986058205111 107.55049890712689 0 107.55049890712689 130.78559916702216 0 0 0 0 -17.367451427670176 101.22919573204854 0 101.22919573204854 84.19694855393027 0 0 0 0 -38.257110073989452 128.93381467705694 0 128.93381467705694 84.397628740407526 0 0 0 0 19.950438802082317 83.095165264992829 0 83.095165264992829 127.12127532775048 0 0 0 0 16.486215282436206 83.42809859024419 0 83.42809859024419 156.62432099629768 0 0 0 0 39.568843313629486 74.166620029662226 0 74.166620029662226 121.51834419216902 0 0 0 0 26.418978233127291 59.311090990900993 0 59.311090990900993 68.437326671941264 0 0 0 0 43.018644216044095 89.46333855575358 0 89.46333855575358 123.16018654640357 0 0 0 0 -2.857120037283039 79.313264859476476 0 79.313264859476476 130.10799614805001 0 0 0 0 15.683615973863198 119.96571136543935 0 119.96571136543935 149.3634831331874 0 0 0 0 -44.067131592606984 75.72392570050215 0 75.72392570050215 184.0807540317619 0 0 0 0 16.076694565163997 58.625151446318242 0 58.625151446318242 88.853959816962998 0 0 0 0 -1.5281260144975022 83.280288692494651 0 83.280288692494651 139.99157026136709 0 0 0 0 -274.2628121650605 54.52005154870858 0 54.52005154870858 151.42056594261521 0 0 0 0 113.05444204302466 110.74248027026988 0 110.74248027026988 40.216825684463402 0 0 0 0 3.766356104221448 10.929263391978299 0 10.929263391978299 21.739467230040816 0 0 0 0 -186.94336953141192 111.24810317150695 0 111.24810317150695 -7.6338953894301085 0 0 0 0 -8.6652805464881215 0.231453797802601 0 0.231453797802601 31.253425879978138 0 0 0 0 -98.710496803652859 -42.824608082184568 0 -42.824608082184568 347.36366526404163 0 0 0 0 -12.9063173674358 19.403002348429258 0 19.403002348429258 167.36833377986005 0 0 0 0 -87.555869145943234 138.9674017875077 0 138.9674017875077 106.23441252605699 0 0 0 0 -29.120264595283516 -24.709779863027507 0 -24.709779863027507 188.90075940013048 0 0 0 0 -75.873831322679507 111.20699124092789 0 111.20699124092789 159.34055879832886 0 0 0 0 -20.259238550492228 -37.355192127870396 0 -37.355192127870396 32.297480470268056 0 0 0 0 -20.178197539841676 124.59339173065382 0 124.59339173065382 -73.040296243329067 0 0 0 0 -26.469234755458274 126.2576725652325 0 126.2576725652325 27.088455026168958 0 0 0 0 1.4966608528247889 48.789875574890175 0 48.789875574890175 -77.281803291158212 0 0 0 0 9.1762417031950463 32.180284718953772 0 32.180284718953772 -45.028835455901572 0 0 0 0 -122.95014369149067 110.5732230724243 0 110.5732230724243 233.42862986520049 0 0 0 0 -40.079767884999455 114.13054179742176 0 114.13054179742176 71.903916100804054 0 0 0 0 -70.854463655692598 100.41294395412842 0 100.41294395412842 159.91301227395888 0 0 0 0 -4.5007691665939547 -11.664150426651304 0 -11.664150426651304 107.34866326798056 0 0 0 0 122.48984398018126 132.58730910479653 0 132.58730910479653 74.099968449989319 0 0 0 0 -20.830268542154954 52.825994777967026 0 52.825994777967026 9.6492350962416822 0 0 0 0 5.8706830815094797 9.223754016231867 0 9.223754016231867 2.3238671609571533 0 0 0 0 22.672700133036379 32.715215920660469 0 32.715215920660469 29.60992826006931 0 0 0 0 15.401287919705933 32.976733034753636 0 32.976733034753636 50.732930713132959 0 0 0 0 141.12409342397939 104.74696852599027 0 104.74696852599027 -127.40872799826047 0 0 0 0 -135.38308942492358 -169.150022399519 0 -169.150022399519 169.78371001190862 0 0 0 0 -5.251479508653162 1.63411058327695 0 1.63411058327695 14.060107285359486 0 0 0 0 -91.524743103705987 218.30793412493949 0 218.30793412493949 -129.86572902856278 0 0 0 0 -115.28927857577219 304.24855336711335 0 304.24855336711335 -96.627637364141265 0 0 0 0 -100.47554530390335 93.97223196923369 0 93.97223196923369 -48.555725833050019 0 0 0 0 -91.931422346736326 90.024477164237396 0 90.024477164237396 35.295333855396166 0 0 0 0 -131.89311233801163 123.7731126313497 0 123.7731126313497 46.631440961024055 0 0 0 0 -131.98984847418797 121.25676412947541 0 121.25676412947541 123.53202812720701 0 0 0 0 -118.0951978597368 66.206456963868732 0 66.206456963868732 147.00713484086737 0 0 0 0 -111.66248577720035 50.818390344567888 0 50.818390344567888 87.961444945152834 0 0 0 0 -4.2270774838097918 38.235731509573469 0 38.235731509573469 51.481901636570583 0 0 0 0 -42.999041453430436 -5.9551312377343493 0 -5.9551312377343493 46.647305235488602 0 0 0 0 34.253323201811824 50.173392256187704 0 50.173392256187704 11.784381838153831 0 0 0 0 124.62359158723984 106.72616129125731 0 106.72616129125731 55.668349692621575 0 0 0 0 21.194081206336808 28.89067386246759 0 28.89067386246759 38.04837388906558 0 0 0 0 43.714057637390965 30.68993790784134 0 30.68993790784134 7.101777085708818 0 0 0 0 17.287141817129964 16.048578236428966 0 16.048578236428966 29.97249882424876 0 0 0 0 -574.56520788270177 385.78911737683666 0 385.78911737683666 136.75522107644065 0 0 0 0 5.7761104222609383 7.8107844227024907 0 7.8107844227024907 64.353079300738898 0 0 0 0 10.697477660864479 2.4971934873033206 0 2.4971934873033206 34.937554121646826 0 0 0 0 -73.590041664453906 52.787963932994899 0 52.787963932994899 13.266926154385146 0 0 0 0 305.34361670304264 -144.9794110039511 0 -144.9794110039511 157.20671573492291 0 0 0 0 316.15974850528096 -212.00655581481624 0 -212.00655581481624 387.4864275566797 0 0 0 0 0.43647284882445853 -9.3949874233878656 0 -9.3949874233878656 43.886471214685628 0 0 0 0 31.757112741749722 10.006178162521337 0 10.006178162521337 85.95122158567392 0 0 0 0 -738.22672091199775 -1164.4787586742614 0 -1164.4787586742614 754.39820232856437 0 0 0 0 138.15773784299677 -139.73444875288988 0 -139.73444875288988 890.76322906672794 0 0 0 0 188.06327166040114 -130.99829231868716 0 -130.99829231868716 401.8213085821917 0 0 0 0 3184.4351716691162 -740.18200008497661 0 -740.18200008497661 -1222.3982512104849 0 0 0 0 639.82882202476276 735.22150547777528 0 735.22150547777528 -708.16270625391917 0 0 0 0 310.4394911583081 -605.42829826186789 0 -605.42829826186789 1424.1917640785978 0 0 0 0 46.48422180831983 -12.849633829815502 0 -12.849633829815502 39.508267109516964 0 0 0 0 95.357629230145676 152.82468875404084 0 152.82468875404084 1088.1357535858551 0 0 0 0 60.752051919440646 6.1529708345060499 0 6.1529708345060499 12.204613913896083 0 0 0 0 50.434992298571046 4.798120143842425 0 4.798120143842425 67.030113752001853 0 0 0 0 55.238251118396192 17.521647656738423 0 17.521647656738423 27.990821265095292 0 0 0 0 86.758873554042566 30.389475403115284 0 30.389475403115284 69.998327526275034 0 0 0 0 10.918200321446136 35.608521006323826 0 35.608521006323826 201.60356696797498 0 0 0 0 96.300679775438823 148.46573713964119 0 148.46573713964119 243.47785845956787 0 0 0 0 -12.868445372975998 131.92645495177817 0 131.92645495177817 287.58997000382806 0 0 0 0 41.388341645951641 -7.5398274750423298 0 -7.5398274750423298 117.46337527680407 0 0 0 0 110.80218532058666 26.597455514290743 0 26.597455514290743 68.391002201382435 0 0 0 0 434.67186627325805 327.02099072362262 0 327.02099072362262 225.99044700275499 0 0 0 0 607.76186000137375 -126.90737497251848 0 -126.90737497251848 -481.96550636809889 0 0 0 0 6.2979066310125749 -9.7436219921890928 0 -9.7436219921890928 12.519206194455677 0 0 0 0 -694.00855367668748 -656.27887186783391 0 -656.27887186783391 -106.44355792206261 0 0 0 0 -117.15013815391518 -333.23421273335862 0 -333.23421273335862 1025.4634650562507 0 0 0 0 1.0624593001052001 -3.6610034661827253 0 -3.6610034661827253 14.142155438664034 0 0 0 0 -473.98021134660485 659.39969062975615 0 659.39969062975615 1214.3111846206973 0 0 0 0 69.096974194884979 321.62545707936079 0 321.62545707936079 719.78690017552435 0 0 0 0 -115.93364236452999 -107.74981062728966 0 -107.74981062728966 385.74792958233655 0 0 0 0 26.343198942216986 72.267913676070293 0 72.267913676070293 370.95328278277685 0 0 0 0 -55.061517873493813 -103.9602306608449 0 -103.9602306608449 304.83651919723195 0 0 0 0 13.558077663296217 -36.332296437149125 0 -36.332296437149125 310.20080811809385 0 0 0 0 1.1805396457264123 -6.6518076269699122 0 -6.6518076269699122 259.68544733532326 0 0 0 0 -4.8800923721209415 75.405162428075073 0 75.405162428075073 301.8794435480122 0 0 0 0 41.232893982823612 34.068401124991851 0 34.068401124991851 299.80983730101434 0 0 0 0 24.414583775829669 117.32673479671575 0 117.32673479671575 308.75537241592519 0 0 0 0 43.037607245704514 51.115540170934338 0 51.115540170934338 52.475463977346315 0 0 0 0 -9.2387645742971944 0.53968135738320377 0 0.53968135738320377 15.292857322561165 0 0 0 0 -344.63926715940397 126.81352806884388 0 126.81352806884388 411.76059094284574 0 0 0 0 99.317879960265373 105.64186949368832 0 105.64186949368832 253.37289732787758 0 0 0 0 88.583600894791914 56.982697983401067 0 56.982697983401067 84.959601796857896 0 0 0 0 -71.441666273877871 273.30447984551535 0 273.30447984551535 227.27385331827099 0 0 0 0 36.514334465892091 7.9420094173744928 0 7.9420094173744928 163.22095792440814 0 0 0 0 66.171245333734305 -34.864812271749543 0 -34.864812271749543 221.5424350964422 0 0 0 0 64.947506360725811 -56.14451284826373 0 -56.14451284826373 83.393089064265951 0 0 0 0 60.464890745189678 -101.8875404159935 0 -101.8875404159935 171.45266968376563 0 0 0 0 3.4355138741175324 -68.072560655558846 0 -68.072560655558846 211.02390250989856 0 0 0 0 18.832918962580038 -90.74705189991073 0 -90.74705189991073 239.49427103708331 0 0 0 0 -9.4199748905414253 -131.06051946712978 0 -131.06051946712978 251.3835599806298 0 0 0 0 26.027282255710702 -152.36488774652025 0 -152.36488774652025 298.70359438916785 0 0 0 0 6.9935100159682406 -118.79409967406627 0 -118.79409967406627 247.87359084691911 0 0 0 0 190.37227015990095 -215.48080754387956 0 -215.48080754387956 246.87402950363139 0 0 0 0 29.549775193267578 33.961566694531207 0 33.961566694531207 40.566682654271496 0 0 0 0 123.75576111804389 -133.41970868652106 0 -133.41970868652106 152.16910722662033 0 0 0 0 50.137391181236467 115.15763140453691 0 115.15763140453691 26.863235024840833 0 0 0 0 -119.35336683727655 379.98271453412599 0 379.98271453412599 -247.74131089691946 0 0 0 0 195.21280205554922 -306.60704232520766 0 -306.60704232520766 531.19574390884554 0 0 0 0 -0.099683731019974076 0.835577290148934 0 0.835577290148934 3.4851388242349941 0 0 0 0 55.733007800731485 -76.891587350982263 0 -76.891587350982263 158.44068323087049 0 0 0 0 -143.98928675711977 149.1861384348058 0 149.1861384348058 -291.68925492876588 0 0 0 0 41.517446716696213 -278.88589894377947 0 -278.88589894377947 -245.27617329706118 0 0 0 0 -309.00819654352836 285.43744231476467 0 285.43744231476467 -108.59864528364415 0 0 0 0 -261.96407236178447 138.65555532756343 0 138.65555532756343 -213.69831299109137 0 0 0 0 -157.98634650487475 248.39552354553052 0 248.39552354553052 -108.48195330105591 0 0 0 0 -133.7325867619486 181.62148508709765 0 181.62148508709765 -258.80163837424698 0 0 0 0 -144.38450909546737 284.86003456702292 0 284.86003456702292 -121.74429648950536 0 0 0 0 -218.97515700744771 178.47628988153883 0 178.47628988153883 -13.71220551681472 0 0 0 0 -169.60297957746843 214.52791295921816 0 214.52791295921816 126.26634861772982 0 0 0 0 -114.17368539739982 220.70353446071385 0 220.70353446071385 3.1858238417698885 0 0 0 0 10.5494219837102 6.1829568647517945 0 6.1829568647517945 -1.3225329813321416 0 0 0 0 89.201198840768484 272.96710297029131 0 272.96710297029131 -381.00770447601099 0 0 0 0 -120.8412313517947 219.12639343520641 0 219.12639343520641 -38.221926009493473 0 0 0 0 -123.16665748416983 269.32135592958264 0 269.32135592958264 -104.43983184533135 0 0 0 0 -84.799813524477941 160.49816630665737 0 160.49816630665737 -79.024178725012462 0 0 0 0 -112.50580619288303 226.10108950121139 0 226.10108950121139 -35.066259872024602 0 0 0 0 -133.76505188189913 223.55723750050856 0 223.55723750050856 79.156076706756721 0 0 0 0 -119.7802672194448 220.22273691843293 0 220.22273691843293 140.08820121855615 0 0 0 0 -67.857211103626469 90.800021012733851 0 90.800021012733851 152.36655088273255 0 0 0 0 259.48141359511646 -57.066056716834282 0 -57.066056716834282 -331.12787787926936 0 0 0 0 -93.586620177973487 167.10030478949108 0 167.10030478949108 40.802261258148064 0 0 0 0 -156.63201848386598 281.70080344404323 0 281.70080344404323 37.531848823091423 0 0 0 0 -82.923546783295023 150.37277170162633 0 150.37277170162633 12.93682344087938 0 0 0 0 -93.609777544359531 113.87186348390969 0 113.87186348390969 173.04644920151441 0 0 0 0 -117.9185017509044 203.39978391636396 0 203.39978391636396 81.33107895543435 0 0 0 0 -122.60199563350398 208.21150796739312 0 208.21150796739312 89.216446818940312 0 0 0 0 -56.469247191762406 103.26036106392894 0 103.26036106392894 150.82489757334042 0 0 0 0 -118.38186706112174 31.445658531808476 0 31.445658531808476 395.56916651489155 0 0 0 0 -96.608739125163993 110.72072917658079 0 110.72072917658079 177.2997435535799 0 0 0 0 46.345466736313028 -37.049151664767123 0 -37.049151664767123 196.12771462543242 0 0 0 0 -3.567785136794555 -143.55584284623001 0 -143.55584284623001 484.58680039110914 0 0 0 0 -1.8939535298323804 2.5356467996419951 0 2.5356467996419951 1.8226283408145818 0 0 0 0 -77.547164335030175 42.07522374445216 0 42.07522374445216 358.51494365392864 0 0 0 0 -9.5124228581116768 9.4648037837614538 0 9.4648037837614538 210.72701843904724 0 0 0 0 -82.789103446997615 31.293436853144158 0 31.293436853144158 244.20827759260465 0 0 0 0 -61.495295844193606 73.961763869685456 0 73.961763869685456 93.427060449179407 0 0 0 0 -56.708686209676671 87.605376163453457 0 87.605376163453457 123.89011519563064 0 0 0 0 25.560010391040603 11.590005926952195 0 11.590005926952195 5.1102563800539542 0 0 0 0 3.429661432041196 -1.0768668300127118 0 -1.0768668300127118 -2.232540131467168 0 0 0 0 -195.33155351120774 268.06233814856023 0 268.06233814856023 -214.35818344037398 0 0 0 0 188.9749413439713 406.9105604710312 0 406.9105604710312 -1247.2604749980819 0 0 0 0 3.6987243474140996 28.099211520748213 0 28.099211520748213 365.72420622492973 0 0 0 0 -100.80799554863006 197.23412013095367 0 197.23412013095367 255.71632664033586 0 0 0 0 88.143717220851386 -33.254969034163423 0 -33.254969034163423 341.1581628848071 0 0 0 0 -28.290841922842446 -35.523126293774112 0 -35.523126293774112 375.56354680973163 0 0 0 0 -99.378289018964551 110.05802091318947 0 110.05802091318947 539.12600976914473 0 0 0 0 -37.377058934309844 -278.69373061798115 0 -278.69373061798115 859.71196372345003 0 0 0 0 -154.53462485327327 225.57734023330704 0 225.57734023330704 -81.02249584416586 0 0 0 0 26.553349612362126 119.90758914510752 0 119.90758914510752 30.08979956017356 0 0 0 0 -139.92816118248356 72.476880711709327 0 72.476880711709327 16.582126364892702 0 0 0 0 -134.9916381319801 84.214095236959793 0 84.214095236959793 118.18091528212244 0 0 0 0 -159.20254164737639 -1.8848847273238789 0 -1.8848847273238789 93.845587808717028 0 0 0 0 -112.2360817989113 109.9285398929087 0 109.9285398929087 -111.33994949316275 0 0 0 0 50.17911585460206 0.6721092422702668 0 0.6721092422702668 -63.682198712343961 0 0 0 0 85.64609398133689 80.681302406070358 0 80.681302406070358 36.439564279501042 0 0 0 0 -62.849679087472353 -91.694937887224569 0 -91.694937887224569 63.604656934272498 0 0 0 0 -16.987391278229047 5.3690123203468758 0 5.3690123203468758 59.974434142638877 0 0 0 0 -13.399365596717388 13.914814964189084 0 13.914814964189084 46.669230786815532 0 0 0 0 7.3747641863283206 0.078706656417125487 0 0.078706656417125487 78.283523164189319 0 0 0 0 -6.6815512855116825 -3.2214651325576753 0 -3.2214651325576753 4.8540937846171595 0 0 0 0 -15.405001595156136 48.955743371747303 0 48.955743371747303 107.18645948899211 0 0 0 0 -104.61903008486433 24.613719541028331 0 24.613719541028331 122.46171250689986 0 0 0 0 97.738021573183687 -6.3432520163187291 0 -6.3432520163187291 34.005690294608939 0 0 0 0 -16.30798082188312 30.237377543512594 0 30.237377543512594 30.814301892110961 0 0 0 0 -13.814743650468699 -1.2202568528318807 0 -1.2202568528318807 32.821305966688669 0 0 0 0 0.66436301466274017 5.4235437934621586 0 5.4235437934621586 18.693260898320659 0 0 0 0 4.0296003624735022 10.634583248311174 0 10.634583248311174 26.752745195160969 0 0 0 0 -40.740828704862054 -43.127973560773285 0 -43.127973560773285 92.304049844540714 0 0 0 0 -8.4616495712762116 -31.460589963466191 0 -31.460589963466191 50.17645255514617 0 0 0 0 2.2726716318480569 2.7559104610000791 0 2.7559104610000791 58.811005144988911 0 0 0 0 22.0442867421134 -1.6491235680441605 0 -1.6491235680441605 -19.129911903219181 0 0 0 0 8.640743640885546 -17.538296326578347 0 -17.538296326578347 -13.291780805894454 0 0 0 0 30.638523312493362 14.027294307827106 0 14.027294307827106 -30.516001183072149 0 0 0 0 4.5376727366969973 -2.4306747374755258 0 -2.4306747374755258 -0.12139471917065237 0 0 0 0 -11.457527222476529 7.5512759429475409 0 7.5512759429475409 54.024192167264118 0 0 0 0 27.800377614438275 14.711487750973902 0 14.711487750973902 30.464520256515243 0 0 0 0 10.115339233824127 5.3967560543886464 0 5.3967560543886464 20.877798231209198 0 0 0 0 25.097727863221486 23.501455246926202 0 23.501455246926202 22.364779771394495 0 0 0 0 4.7158532825744341 0.22957799100147724 0 0.22957799100147724 6.2118476431631535 0 0 0 0 49.544428790586608 31.66816249594558 0 31.66816249594558 38.349624706155737 0 0 0 0 55.723519902146791 -6.9850550349910918 0 -6.9850550349910918 22.600108669728797 0 0 0 0 3.816680121556157 3.0600429039249306 0 3.0600429039249306 3.2141875544466245 0 0 0 0 22.568419772369452 29.285655137864524 0 29.285655137864524 44.149246134977147 0 0 0 0 42.0735136215701 -16.567726379991655 0 -16.567726379991655 -37.258143021321303 0 0 0 0 28.947791183211415 14.98992756729038 0 14.98992756729038 9.9115989450149655 0 0 0 0 12.463747457995851 17.875784497558925 0 17.875784497558925 17.91563069629774 0 0 0 0 10.35765999653619 12.89697754134766 0 12.89697754134766 22.411950797717566 0 0 0 0 87.467187391085929 79.145658392306359 0 79.145658392306359 68.080844399155467 0 0 0 0 -31.345806382401946 16.735389086809619 0 16.735389086809619 32.340874660847476 0 0 0 0 22.163405175620483 33.228910047619138 0 33.228910047619138 37.130862967729627 0 0 0 0 18.282255738497042 25.313425542270124 0 25.313425542270124 52.686141381396737 0 0 0 0 61.093046952379154 17.439933850024318 0 17.439933850024318 60.210890897637 0 0 0 0 -0.70098316875373712 -2.6081640546144627 0 -2.6081640546144627 94.068170756772616 0 0 0 0 -1.3517081560986028 5.0135121049637235 0 5.0135121049637235 11.562498573169172 0 0 0 0 57.242229064537241 52.580673848173319 0 52.580673848173319 60.294811591607868 0 0 0 0 68.548533321521063 30.498527658538478 0 30.498527658538478 56.812584587703896 0 0 0 0 -23.868863775955106 58.678687266326506 0 58.678687266326506 28.68078546477409 0 0 0 0 73.994145593163239 63.247697387453627 0 63.247697387453627 68.579341341282998 0 0 0 0 45.002046903329479 21.038908488406896 0 21.038908488406896 9.4527505723167735 0 0 0 0 65.366522014665861 42.49104678814183 0 42.49104678814183 69.609157327001185 0 0 0 0 -46.158338646659104 102.84125345981374 0 102.84125345981374 25.276339547625639 0 0 0 0 -72.407869658538402 56.139594116080843 0 56.139594116080843 94.935738333631321 0 0 0 0 18.44640754723099 -30.33514928024556 0 -30.33514928024556 198.28361515141296 0 0 0 0 13.697488262327795 1.7660868533880603 0 1.7660868533880603 266.37934553162268 0 0 0 0 2.6649477439597149 43.026050362394017 0 43.026050362394017 305.27934945145171 0 0 0 0 47.280588440525264 56.026429262823513 0 56.026429262823513 236.01385634148028 0 0 0 0 34.724395477102206 27.387766389041644 0 27.387766389041644 229.12209603904921 0 0 0 0 -4.0741067840435221 14.344044597665743 0 14.344044597665743 319.86402916242514 0 0 0 0 21.073379545157309 40.741689867078094 0 40.741689867078094 347.42906469690206 0 0 0 0 -14.892663691940015 28.932916168099837 0 28.932916168099837 387.42334994654084 0 0 0 0 -16.385815548802611 64.272474796642655 0 64.272474796642655 368.39362466428429 0 0 0 0 5.1707270835909753 -34.617651807709535 0 -34.617651807709535 396.58099477990618 0 0 0 0 31.011694507670882 28.626608557900909 0 28.626608557900909 319.86432831382626 0 0 0 0 90.720543941981504 106.44245924994357 0 106.44245924994357 218.57103558245581 0 0 0 0 93.455814237771961 30.83850402176904 0 30.83850402176904 310.90600898273624 0 0 0 0 22.861076155813294 17.03439679332223 0 17.03439679332223 345.22042135990705 0 0 0 0 83.142426525075507 4.5518249466276757 0 4.5518249466276757 336.48498300303254 0 0 0 0 93.124988425507809 29.44702340382355 0 29.44702340382355 377.59743647625874 0 0 0 0 155.82291303724492 -29.967971292705442 0 -29.967971292705442 346.83980410696677 0 0 0 0 132.98550207335529 33.547703023763461 0 33.547703023763461 332.90157459448528 0 0 0 0 38.80916846857599 59.881112531427789 0 59.881112531427789 360.3838487479079 0 0 0 0 66.721508678028755 -74.179895590012165 0 -74.179895590012165 361.7880140076486 0 0 0 0 11.748982909534732 31.448336426956303 0 31.448336426956303 309.73765119937889 0 0 0 0 11.103616342324131 55.782821055479872 0 55.782821055479872 363.26650982870342 0 0 0 0 17.841404338107964 13.164195845598442 0 13.164195845598442 356.21562234534849 0 0 0 0 8.5724518342508418 26.181487057896447 0 26.181487057896447 313.28863222197469 0 0 0 0 22.529898196733029 5.9044169481448989 0 5.9044169481448989 241.78501196060824 0 0 0 0 28.433468593870657 37.715568778379748 0 37.715568778379748 301.57792520559087 0 0 0 0 30.73729066581609 43.108008934912505 0 43.108008934912505 297.12447018840066 0 0 0 0 40.98651857560435 -1.1771225601005426 0 -1.1771225601005426 268.39543812216652 0 0 0 0 59.742387281247375 -5.0668002617931052 0 -5.0668002617931052 221.51333411470841 0 0 0 0 6.7806304991499928 -22.548638464963005 0 -22.548638464963005 227.99528570768598 0 0 0 0 -32.10892740736108 -63.171714075362615 0 -63.171714075362615 211.53922915506701 0 0 0 0 -113.37759676373116 -20.727611539170539 0 -20.727611539170539 249.63800424291549 0 0 0 0 -134.02637271913272 -17.882026588090412 0 -17.882026588090412 155.8674605284541 0 0 0 0 -151.41699487278765 0.43678913316580292 0 0.43678913316580292 241.06292419786951 0 0 0 0 -68.744200925227233 -121.4931601986973 0 -121.4931601986973 255.19787905283374 0 0 0 0 56.644638169870177 -35.840334360559154 0 -35.840334360559154 211.43827402524767 0 0 0 0 291.84058157602522 -212.73686716466545 0 -212.73686716466545 232.16252895351136 0 0 0 0 -226.0840637212641 6.4089555949358328 0 6.4089555949358328 267.42566474236264 0 0 0 0 -241.07392041084358 28.283509033298287 0 28.283509033298287 160.13428285158443 0 0 0 0 -153.74522674587934 15.079106186347417 0 15.079106186347417 22.207565780030563 0 0 0 0 -43.032610948157981 -66.991561878094672 0 -66.991561878094672 265.46279839191629 0 0 0 0 -12.86871481303568 0.83954880638710705 0 0.83954880638710705 2.7820364818113106 0 0 0 0 -458.37057466123224 575.73704284269843 0 575.73704284269843 -261.08324512195031 0 0 0 0 403.72110998411881 727.86865442964699 0 727.86865442964699 -1162.1630718821907 0 0 0 0 -504.24382132008162 87.029592404363029 0 87.029592404363029 592.62438424521679 0 0 0 0 8.899478449218158 2.4482698577291728 0 2.4482698577291728 0.55344818311063904 0 0 0 0 8.9423218389838439 -17.099573732008139 0 -17.099573732008139 757.91179737940547 0 0 0 0 -396.41864760524629 52.798904347215284 0 52.798904347215284 -61.914717357125483 0 0 0 0 24.653170003842206 -26.843407856751583 0 -26.843407856751583 286.98828746359686 0 0 0 0 23.369906146907852 -57.749063201767058 0 -57.749063201767058 496.06512384553207 0 0 0 0 85.131801966698276 121.95578222534823 0 121.95578222534823 411.41619026124681 0 0 0 0 140.44179735393936 17.738624340927345 0 17.738624340927345 245.01396813257634 0 0 0 0 254.41435334346917 200.23583842262565 0 200.23583842262565 487.21995222943951 0 0 0 0 12.08459552116085 27.590432330391195 0 27.590432330391195 18.083518505984102 0 0 0 0 -14.803018184754762 64.681325634286623 0 64.681325634286623 -0.50254519840018474 0 0 0 0 0.074285463562900542 67.534841161024815 0 67.534841161024815 35.089012120180996 0 0 0 0 -19.621766010123821 45.453363898290263 0 45.453363898290263 110.56481320328021 0 0 0 0 40.767362424731175 -20.617776414102991 0 -20.617776414102991 135.95809852429375 0 0 0 0 -78.688163851962258 63.147644702767138 0 63.147644702767138 38.835676924401923 0 0 0 0 15.138620109731335 19.218774119632144 0 19.218774119632144 32.560750078335332 0 0 0 0 -31.933528388185209 35.179014701527194 0 35.179014701527194 -52.889002692274516 0 0 0 0 -40.804547414241213 15.865503430239187 0 15.865503430239187 147.44849908855394 0 0 0 0 -237.59428020175721 162.40408480679616 0 162.40408480679616 -0.060758499297662638 0 0 0 0 -200.82087510738381 79.848886430008861 0 79.848886430008861 29.536487691104412 0 0 0 0 -38.235248374669254 6.2694370252829685 0 6.2694370252829685 117.53481600453961 0 0 0 0 0.81809059159988262 4.6821732813752703 0 4.6821732813752703 18.618533809670566 0 0 0 0 118.39731265744399 -256.97030557306425 0 -256.97030557306425 -279.12203933665296 0 0 0 0 168.35317807225965 -7.7457390903655323 0 -7.7457390903655323 11.837625854474027 0 0 0 0 -38.814514932569864 31.873453232459724 0 31.873453232459724 -251.83291422607726 0 0 0 0 -0.16892600374558242 34.178363457322121 0 34.178363457322121 45.553442932723556 0 0 0 0 1.2154569057268318 1.5504349639648467 0 1.5504349639648467 2.1067808033582764 0 0 0 0 34.691681113972436 20.724300415393373 0 20.724300415393373 -24.119844445493072 0 0 0 0 -74.500330198956703 21.777343317808118 0 21.777343317808118 -14.658006054436555 0 0 0 0 -63.115164657527771 60.705020659428556 0 60.705020659428556 -25.734226423075597 0 0 0 0 -9.4371847981228143 66.30303331817413 0 66.30303331817413 -4.5992461623536656 0 0 0 0 -63.839283246084619 59.144616626857896 0 59.144616626857896 5.5515522921050433 0 0 0 0 -27.547159149351842 67.922813766199397 0 67.922813766199397 -6.8007739026579657 0 0 0 0 -63.486858265673192 57.185174970774824 0 57.185174970774824 -2.065965607209364 0 0 0 0 -20.212935525633888 53.252397995118372 0 53.252397995118372 -14.936842112365412 0 0 0 0 -23.637563626810959 42.131304634938715 0 42.131304634938715 2.0108484717347892 0 0 0 0 -2.9502600523128422 -10.473249173403019 0 -10.473249173403019 31.771718949225033 0 0 0 0 0.2084675876075619 5.9240332187905373 0 5.9240332187905373 25.246826285650229 0 0 0 0 -16.430837376970203 5.0632509722381656 0 5.0632509722381656 32.752605994915939 0 0 0 0 -89.77483695412019 61.939414861175464 0 61.939414861175464 6.032014247510233 0 0 0 0 7.4816926588578099 4.8545143922237912 0 4.8545143922237912 26.850481145113008 0 0 0 0 -68.186239071105177 36.845158272175468 0 36.845158272175468 2.5566858370148111 0 0 0 0 0.11205249797074668 1.187094861596222 0 1.187094861596222 7.3659525163452031 0 0 0 0 -1.1661827838375238 -4.9295484944455836 0 -4.9295484944455836 10.890766929606755 0 0 0 0 0.42847978604342885 0.18512888859700638 0 0.18512888859700638 13.525131444596155 0 0 0 0 -0.51365161911962787 1.0385286528035067 0 1.0385286528035067 33.294111592229456 0 0 0 0 -0.80387868793422967 1.6363019700511359 0 1.6363019700511359 34.572231888378155 0 0 0 0 -1.514530120643941 0.050767596366352308 0 0.050767596366352308 22.328221222946581 0 0 0 0 -2.4352325854974879 1.096377714042319 0 1.096377714042319 34.431922713236418 0 0 0 0 1.8446934903024612 -2.9388622711849166 0 -2.9388622711849166 8.7079170086071827 0 0 0 0 -0.0040784797882631452 0.84770462776830868 0 0.84770462776830868 2.3630933337425439 0 0 0 0 -11.394009706161512 30.627591345939436 0 30.627591345939436 -17.315845867778989 0 0 0 0 -16.48368810400757 15.325734916463261 0 15.325734916463261 -0.68683891432010569 0 0 0 0 -40.267118845701475 36.281016188717331 0 36.281016188717331 3.2562096164037939 0 0 0 0 -39.210896863992389 5.7142853780824225 0 5.7142853780824225 46.236707069845579 0 0 0 0 7.0468594639767881 31.440743108153583 0 31.440743108153583 -100.52494696246868 0 0 0 0 5.8792183030539888 40.015328172208683 0 40.015328172208683 -13.242667476471979 0 0 0 0 -20.662822130486077 55.782761257221864 0 55.782761257221864 -14.012487606349168 0 0 0 0 -0.047090257781528658 71.473293442275462 0 71.473293442275462 -34.651001392012404 0 0 0 0 8.515197497277974 33.083286985678569 0 33.083286985678569 -4.0965389284538105 0 0 0 0 -0.099016811067490051 0.49203204966536873 0 0.49203204966536873 -0.13464277200855879 0 0 0 0 0.022180071199112104 40.56112245949771 0 40.56112245949771 73.984930541235371 0 0 0 0 -31.066620882437164 4.998766158008948 0 4.998766158008948 165.16559055016205 0 0 0 0 11.2626798815717 4.7314082192860951 0 4.7314082192860951 66.934039446510724 0 0 0 0 -43.681193989445518 17.883608650117822 0 17.883608650117822 64.754361655359389 0 0 0 0 2.6194470489683397 -14.998979279043851 0 -14.998979279043851 -0.21071755114098778 0 0 0 0 0.85587127137672581 1.9393904011722043 0 1.9393904011722043 3.0042200606533243 0 0 0 0 -0.0066857154322721704 42.010364955274142 0 42.010364955274142 -43.729165874407045 0 0 0 0 48.829339849169628 -385.32958021602826 0 -385.32958021602826 521.65356623195112 0 0 0 0 246.46067016260452 -6.3336021757659182 0 -6.3336021757659182 171.52696560576442 0 0 0 0 -255.18596524124041 -106.47511386124825 0 -106.47511386124825 185.95799187294324 0 0 0 0 60.308731618148826 285.50745519247312 0 285.50745519247312 -48.824006163820741 0 0 0 0 -0.30772783185073216 1.5551842574179346 0 1.5551842574179346 3.490744820564089 0 0 0 0 146.55515437562099 -23.953350526906434 0 -23.953350526906434 -146.00384315647534 0 0 0 0 -70.100445241643683 55.937309616871062 0 55.937309616871062 580.21817960685257 0 0 0 0 0.63306192143607709 332.8930394215717 0 332.8930394215717 197.72904377595114 0 0 0 0 171.58809599533976 -327.43747066921787 0 -327.43747066921787 177.14021261535527 0 0 0 0 60.305842739253421 -547.14247898729081 0 -547.14247898729081 383.00078229279461 0 0 0 0 -38.220112329418043 -61.972069873081637 0 -61.972069873081637 79.942940073233331 0 0 0 0 -14.52078028639902 29.046755863599742 0 29.046755863599742 70.948579315138119 0 0 0 0 -0.11936383867969091 2.9928070484778289 0 2.9928070484778289 6.1898271057625038 0 0 0 0 5.0554680536033629 156.44680443457037 0 156.44680443457037 51.493569734857374 0 0 0 0 -107.53669884167789 179.84425362349793 0 179.84425362349793 226.76525225199293 0 0 0 0 -7.6842389570622487 35.31388339469035 0 35.31388339469035 76.711046481016695 0 0 0 0 -578.18667323493628 487.86364118719212 0 487.86364118719212 1108.9508576818916 0 0 0 0 -126.98303600858708 -95.870799031745264 0 -95.870799031745264 67.936088092683349 0 0 0 0 -0.69701084367389576 1.2974525410597266 0 1.2974525410597266 3.7064188111214094 0 0 0 0 54.602327491908 157.6693823733076 0 157.6693823733076 -92.799038604545785 0 0 0 0 47.675585858258614 -124.77773026245416 0 -124.77773026245416 244.74737271563208 0 0 0 0 49.160321579049651 -162.68993793355912 0 -162.68993793355912 5.9340331152016006 0 0 0 0 4.9507859385033388 6.9895559908112546 0 6.9895559908112546 5.7253804434912468 0 0 0 0 -75.841430831232174 -136.88090400423607 0 -136.88090400423607 411.64991995656237 0 0 0 0 19.741113944823098 67.037492588460736 0 67.037492588460736 -83.499417200451717 0 0 0 0 212.02538931619597 -307.74009881165694 0 -307.74009881165694 47.827992571110372 0 0 0 0 33.705458681093774 50.326283352747851 0 50.326283352747851 88.613764204699464 0 0 0 0 -33.661393307199319 43.002831172711012 0 43.002831172711012 125.31485315208556 0 0 0 0 -192.43097684322731 162.39364178051437 0 162.39364178051437 227.97117338084354 0 0 0 0 8.3771494416670773 8.7427296016665821 0 8.7427296016665821 16.581274909008272 0 0 0 0 14.561541936140031 -36.067536919194936 0 -36.067536919194936 55.632161151384935 0 0 0 0 0.27866219763455735 -1.3470976538252373 0 -1.3470976538252373 2.3910374843672457 0 0 0 0 2.2887096102603763 3.1712169041743792 0 3.1712169041743792 58.754423350040952 0 0 0 0 87.409177966110292 115.75906157397549 0 115.75906157397549 293.18473475836436 0 0 0 0 1.7099129168291256 15.12550709185598 0 15.12550709185598 59.429187298548641 0 0 0 0 -221.88738204682977 -140.71515381863719 0 -140.71515381863719 368.62372410731041 0 0 0 0 0.85031858512775216 2.5057805670367088 0 2.5057805670367088 73.942443862935761 0 0 0 0 4.4708709111855569 -5.2362968048837502 0 -5.2362968048837502 73.965650387508504 0 0 0 0 6.8744211239554716 1.3498924408922903 0 1.3498924408922903 57.385874529383727 0 0 0 0 6.0951303630472466 19.887820316711441 0 19.887820316711441 40.426348502202018 0 0 0 0 0.0058865962758076762 14.359644894274197 0 14.359644894274197 45.519177646878688 0 0 0 0 -1.3067149246392269 -0.016449552992654048 0 -0.016449552992654048 -3.8457405898087842 0 0 0 0 60.795566761149303 -91.198457489568682 0 -91.198457489568682 434.81150333692494 0 0 0 0 88.712918216707294 -507.62807074498414 0 -507.62807074498414 -283.19444252330868 0 0 0 0 249.16544681007508 -364.10195111914072 0 -364.10195111914072 408.81117443891708 0 0 0 0 -63.213973229250769 11.205629759460862 0 11.205629759460862 699.87658476497745 0 0 0 0 -90.125880278827935 -314.47779416399862 0 -314.47779416399862 212.09683080196555 0 0 0 0 254.45499442499749 -163.22934221287142 0 -163.22934221287142 -220.67478966183262 0 0 0 0 -1.5192702402436886 35.872479993114709 0 35.872479993114709 79.415162958394376 0 0 0 0 53.241693088182728 161.80143457712984 0 161.80143457712984 -43.008231098647229 0 0 0 0 -165.28605676598681 -305.70741458478733 0 -305.70741458478733 72.307954464107752 0 0 0 0 -4.603563772649494 25.698512586813177 0 25.698512586813177 9.8215139982471271 0 0 0 0 354.4024847762721 347.56061446374952 0 347.56061446374952 -560.16134516266175 0 0 0 0 1313.4496648683853 -330.06454674034831 0 -330.06454674034831 -674.35936024299008 0 0 0 0 398.37305430858032 -712.45992411007683 0 -712.45992411007683 1346.309976847755 0 0 0 0 228.36278025142929 -203.98914544489526 0 -203.98914544489526 39.638392664926869 0 0 0 0 -90.015433502632732 -264.04097982533131 0 -264.04097982533131 35.32873705343809 0 0 0 0 -40.807933556867056 -103.64192644327886 0 -103.64192644327886 -89.446760186787287 0 0 0 0 -46.321795455389292 -317.0441704337245 0 -317.0441704337245 785.10955718190235 0 0 0 0 298.42152366920254 327.59008494111913 0 327.59008494111913 457.67905373386748 0 0 0 0 43.307012546795704 61.997752419556491 0 61.997752419556491 192.55264755648386 0 0 0 0 152.28052765244411 -585.15634050267545 0 -585.15634050267545 17.646695892941352 0 0 0 0 3.1190126340103745 -6.2493392232416696 0 -6.2493392232416696 14.149318612916517 0 0 0 0 320.30121119499745 523.58129799776725 0 523.58129799776725 1104.6590890787775 0 0 0 0 -9.8996419968844585 -2.0608041721980825 0 -2.0608041721980825 177.10416125036321 0 0 0 0 -132.06275110948081 -36.851983325712354 0 -36.851983325712354 229.56813746342959 0 0 0 0 -117.56007627826966 -10.458080821059411 0 -10.458080821059411 177.22068679580843 0 0 0 0 -26.536064377072307 115.04730180652405 0 115.04730180652405 336.81084498933342 0 0 0 0 -185.78667756305276 -91.508756513263506 0 -91.508756513263506 318.47491173651815 0 0 0 0 -9.082033623604687 0.85603871209221438 0 0.85603871209221438 41.079001669586404 0 0 0 0 -49.537081064220729 32.925081109722669 0 32.925081109722669 290.82051102002151 0 0 0 0 -144.24480547420569 -136.51872226242904 0 -136.51872226242904 104.28170256289013 0 0 0 0 -16.131897165991177 28.609717613504472 0 28.609717613504472 189.42135019379202 0 0 0 0 -66.550486460056163 60.301730177961872 0 60.301730177961872 248.09927431104006 0 0 0 0 5.8828804559125274 -9.7692853635016945 0 -9.7692853635016945 255.88728317990899 0 0 0 0 59.262037414299812 69.780891153430275 0 69.780891153430275 373.36859295919567 0 0 0 0 13.180750790143065 -102.35235652969277 0 -102.35235652969277 322.50391501892591 0 0 0 0 104.85179798648596 -105.18585802607231 0 -105.18585802607231 142.38625552192389 0 0 0 0 18.625382612971407 -53.833873742318247 0 -53.833873742318247 206.80759276237222 0 0 0 0 4.0634488506548223 -46.687217538128607 0 -46.687217538128607 211.80563977105703 0 0 0 0 39.774535575057371 -34.668815748848829 0 -34.668815748848829 74.463694389676675 0 0 0 0 36.720962560108092 -13.724788467341568 0 -13.724788467341568 157.47481114507809 0 0 0 0 1.1436926241830641 15.390952538889579 0 15.390952538889579 35.375335897666474 0 0 0 0 -41.344746587489681 -62.171256161738711 0 -62.171256161738711 212.06826182972873 0 0 0 0 18.661474846727288 -53.857211153292155 0 -53.857211153292155 200.29492100156494 0 0 0 0 7.7226948791139876 -54.845434136979748 0 -54.845434136979748 229.17767090602865 0 0 0 0 -33.666471434125924 5.3564218923274893 0 5.3564218923274893 193.30702225450659 0 0 0 0 21.949317126185633 -65.386902179074241 0 -65.386902179074241 208.2544184328799 0 0 0 0 6.3454775025208914 -9.1575538721699559 0 -9.1575538721699559 31.916757961783262 0 0 0 0 -6.0331832136835146 12.270957419255865 0 12.270957419255865 149.40249540948571 0 0 0 0 -0.65700965971882397 26.782055146628409 0 26.782055146628409 136.94691436352332 0 0 0 0 61.438238202936191 -75.513753247985733 0 -75.513753247985733 35.781219544369378 0 0 0 0 -80.505665481265169 5.7731419603514951 0 5.7731419603514951 203.85172422436881 0 0 0 0 1.0014621233197296 1.3392364522492528 0 1.3392364522492528 1.1799587278382262 0 0 0 0 13.643932088443762 13.724630444054128 0 13.724630444054128 110.95793884452723 0 0 0 0 -1.4583270406255906 27.127071793191135 0 27.127071793191135 136.93160394015376 0 0 0 0 12.238243201560181 4.1988525760534685 0 4.1988525760534685 48.701378240250051 0 0 0 0 3.1737494974708937 15.989924788599239 0 15.989924788599239 67.551879322029336 0 0 0 0 8.2045888205329902 14.350613134634841 0 14.350613134634841 129.17613777397492 0 0 0 0 -0.26837822264176303 -0.5435428001499929 0 -0.5435428001499929 43.026401063175683 0 0 0 0 9.4477530160866081 17.32714347473302 0 17.32714347473302 74.471679506503278 0 0 0 0 32.457335982410541 88.597908023481068 0 88.597908023481068 -60.017202288319822 0 0 0 0 6.3311310012287123 16.241945762880803 0 16.241945762880803 68.442112274362572 0 0 0 0 17.130454565820401 27.137060964239936 0 27.137060964239936 69.902905647060834 0 0 0 0 11.936250768650229 20.376387529059059 0 20.376387529059059 30.532666425099393 0 0 0 0 7.1766101816938317 10.983707214843889 0 10.983707214843889 40.176389603773714 0 0 0 0 9.727384790236556 7.8899112171347952 0 7.8899112171347952 24.200067943864269 0 0 0 0 3.4855059310357319 22.129211028746795 0 22.129211028746795 56.581638438510709 0 0 0 0 4.4437201197031637 7.6417452564190427 0 7.6417452564190427 47.93139020475482 0 0 0 0 7.4815896490506395 20.207336561581627 0 20.207336561581627 44.780729916429095 0 0 0 0 11.898583745324869 22.772128402849191 0 22.772128402849191 17.205090801270501 0 0 0 0 11.004053507424942 9.9815744000370614 0 9.9815744000370614 20.472868664131965 0 0 0 0 9.9547081950706726 8.1021596461348366 0 8.1021596461348366 7.3966982674881763 0 0 0 0 10.55425046538312 9.6139834798523225 0 9.6139834798523225 7.090971300684032 0 0 0 0 9.1546048062551577 23.583200392399206 0 23.583200392399206 35.647137175043838 0 0 0 0 10.668407408531024 17.55346930523551 0 17.55346930523551 15.292087981790701 0 0 0 0 19.656218424446706 17.120686905851471 0 17.120686905851471 72.579179643842508 0 0 0 0 9.2563790465028557 18.241541467753564 0 18.241541467753564 10.757639361285747 0 0 0 0 44.667744523012971 36.597567586075456 0 36.597567586075456 -49.562933656659879 0 0 0 0 -1.1922823551654 3.2225642930809784 0 3.2225642930809784 34.51277294068467 0 0 0 0 4.948854666574789 18.729743085859809 0 18.729743085859809 86.388281697058119 0 0 0 0 -0.69161126043100318 0.87959012387813118 0 0.87959012387813118 7.8612653019420122 0 0 0 0 15.270191888045701 39.229176449705847 0 39.229176449705847 86.94996827992145 0 0 0 0 6.7659717676088054 15.403589868961916 0 15.403589868961916 25.40778573155319 0 0 0 0 4.6732163041856438 27.09797975426045 0 27.09797975426045 71.636383383534849 0 0 0 0 17.095385852795516 16.221635812114982 0 16.221635812114982 49.662119906301086 0 0 0 0 9.7301488608582076 -0.17920125003729481 0 -0.17920125003729481 46.519119150281767 0 0 0 0 2.5446169990802971 16.096898039987252 0 16.096898039987252 42.521415123531227 0 0 0 0 10.510197937348039 -0.47510277454421157 0 -0.47510277454421157 42.075412589245389 0 0 0 0 33.729087029329094 -8.0304055158630945 0 -8.0304055158630945 87.795051326917019 0 0 0 0 6.2292285393185747 -11.127043656831646 0 -11.127043656831646 34.700993053612834 0 0 0 0 4.4649599633495072 0.36916516200233218 0 0.36916516200233218 30.737056310291422 0 0 0 0 23.62194791465663 5.5033309549908154 0 5.5033309549908154 15.966673348724726 0 0 0 0 3.6950806175182151 -0.39206768420990556 0 -0.39206768420990556 45.564929852233035 0 0 0 0 3.7145998030573537 4.4321521894162288 0 4.4321521894162288 80.920101911440725 0 0 0 0 0.8315904657484765 -1.2932451265442637 0 -1.2932451265442637 17.007721339899007 0 0 0 0 4.5640556263813732 -1.346302275519605 0 -1.346302275519605 23.600721144280307 0 0 0 0 3.2222157724437697 7.9093726170180503 0 7.9093726170180503 24.751166421236633 0 0 0 0 -0.78861660757649865 8.7321951322060301 0 8.7321951322060301 40.609382763876255 0 0 0 0 -7.6140834319667192 -15.881736797979102 0 -15.881736797979102 48.289026550119161 0 0 0 0 2.2515645046451027 1.9607434413337614 0 1.9607434413337614 33.601492438159767 0 0 0 0 0.47803130164720642 -4.2692012577026617 0 -4.2692012577026617 39.984122000925709 0 0 0 0 0.41064338270808953 -1.2948608235587358 0 -1.2948608235587358 28.621588868438689 0 0 0 0 2.8494804305846628 1.5308115244843066 0 1.5308115244843066 43.199427525932606 0 0 0 0 -0.32812852549505411 -3.8073983135387763 0 -3.8073983135387763 27.515928992238003 0 0 0 0 4.3395373621646343 -0.85355095429942196 0 -0.85355095429942196 37.358206809662363 0 0 0 0 -25.735389171461975 3.8973439873898315 0 3.8973439873898315 54.66690120412386 0 0 0 0 -2.7821295140068623 5.0809329530269309 0 5.0809329530269309 23.904995070339169 0 0 0 0 17.247166975141909 2.3587339643709129 0 2.3587339643709129 20.707686009962345 0 0 0 0 25.671623975184048 -13.850872824012185 0 -13.850872824012185 43.859592181048356 0 0 0 0 20.878006580290275 -0.32371708721620962 0 -0.32371708721620962 -5.6874416563587147 0 0 0 0 -0.1917657844436178 -1.6191238639438836 0 -1.6191238639438836 1.3751159415809866 0 0 0 0 1.1678960757153618 40.393981806962984 0 40.393981806962984 102.80363900113298 0 0 0 0 1.2603226935384555 3.1044481330518465 0 3.1044481330518465 54.045473882724764 0 0 0 0 38.415216324386165 47.4751560207078 0 47.4751560207078 58.004873098969256 0 0 0 0 35.655390046843195 -16.149330437743629 0 -16.149330437743629 -17.54394487963873 0 0 0 0 8.1404747810476312 7.9015210548655261 0 7.9015210548655261 -4.7719955339028388 0 0 0 0 38.81283252157391 42.007243926520459 0 42.007243926520459 17.403558341902681 0 0 0 0 2.3183932808947816 64.727608261058776 0 64.727608261058776 76.722678163554519 0 0 0 0 35.86352557114742 -12.67933893064037 0 -12.67933893064037 -10.593608033450437 0 0 0 0 -2.1213143498925513 8.3340520575477797 0 8.3340520575477797 20.383625981362513 0 0 0 0 10.465722509326369 3.5963895095078442 0 3.5963895095078442 -7.2884303979698757 0 0 0 0 3.8544261617826123 33.049082505283877 0 33.049082505283877 24.854475328538683 0 0 0 0 17.226850301768536 28.671426960660028 0 28.671426960660028 11.12784846953582 0 0 0 0 17.181962520608067 43.721340761432657 0 43.721340761432657 33.004238010584231 0 0 0 0 62.998258339088807 70.533193011535332 0 70.533193011535332 18.150219802475476 0 0 0 0 46.275763080235663 56.968788575912185 0 56.968788575912185 63.6258774898306 0 0 0 0 143.821882204551 156.83570898704056 0 156.83570898704056 116.89948978273605 0 0 0 0 2.7993167756856603 3.6354621699304559 0 3.6354621699304559 1.5158449371182314 0 0 0 0 -9.6261244315430758 23.218570721168362 0 23.218570721168362 66.260460891528055 0 0 0 0 -8.7964567879803326 34.20545723754185 0 34.20545723754185 129.67387268491439 0 0 0 0 -18.203746159968887 19.868853331252467 0 19.868853331252467 87.080031265097205 0 0 0 0 57.934761720287135 106.25426953806164 0 106.25426953806164 96.633977775985841 0 0 0 0 -12.708572781992132 93.858840550281457 0 93.858840550281457 182.11079674083157 0 0 0 0 -9.9045506457679267 111.74412846378982 0 111.74412846378982 252.0351123829314 0 0 0 0 -9.6794230765151497 42.339387514788541 0 42.339387514788541 228.7130451946141 0 0 0 0 15.20288175802807 31.830393184136483 0 31.830393184136483 145.67761885463551 0 0 0 0 -5.909112150634428 -6.8311390774033498 0 -6.8311390774033498 231.23914191729273 0 0 0 0 -31.033500366387216 -4.1740173345169751 0 -4.1740173345169751 303.70105372709804 0 0 0 0 11.674397593658796 -103.22150151412643 0 -103.22150151412643 435.87379311560653 0 0 0 0 -7.4096601176333934 -2.3052410325180972 0 -2.3052410325180972 267.86729051748989 0 0 0 0 14.090797565244429 -81.893926330987597 0 -81.893926330987597 554.29461420659209 0 0 0 0 67.524312077268519 -148.7209636646021 0 -148.7209636646021 623.84701694941032 0 0 0 0 324.8170241114085 -266.52428689032968 0 -266.52428689032968 207.18650746518688 0 0 0 0 125.02007924640657 -103.94950315427559 0 -103.94950315427559 144.35231947687862 0 0 0 0 20.690280296131561 48.938818459089816 0 48.938818459089816 -25.356518303655321 0 0 0 0 78.093092300135595 5.0286843085996225 0 5.0286843085996225 -37.085523399044177 0 0 0 0 118.25133833311364 40.559131206981419 0 40.559131206981419 -107.08129650587216 0 0 0 0 21.340982129356235 11.693723062344361 0 11.693723062344361 -60.231315870065373 0 0 0 0 -27.999879101744227 122.31275758180709 0 122.31275758180709 -71.160349674704776 0 0 0 0 14.280995734639191 20.010695336328354 0 20.010695336328354 16.85102418049064 0 0 0 0 49.317369981397803 -48.095633613265818 0 -48.095633613265818 90.445054054027423 0 0 0 0 -35.612614503480472 84.069071080179128 0 84.069071080179128 324.28985766405822 0 0 0 0 -10.594695709757193 35.08919493019016 0 35.08919493019016 100.29591189424252 0 0 0 0 13.960334514363819 5.4069263199270097 0 5.4069263199270097 27.995468337869085 0 0 0 0 45.402765853577876 -94.165181443706388 0 -94.165181443706388 167.42623929234105 0 0 0 0 12.116798180964565 4.5581978170775983 0 4.5581978170775983 75.823465510402457 0 0 0 0 16.728965372643984 3.0743118122190936 0 3.0743118122190936 67.449892083624945 0 0 0 0 5.5625007208361836 -3.8561098368372768 0 -3.8561098368372768 67.764738754631253 0 0 0 0 13.640643176294589 11.375849374097015 0 11.375849374097015 77.537224601197522 0 0 0 0 14.910068374306547 9.7913343197724316 0 9.7913343197724316 73.693905423060642 0 0 0 0 -37.739801534293292 60.898785238599885 0 60.898785238599885 -4.7946676755382214 0 0 0 0 3.7673745288892921 65.327710341211144 0 65.327710341211144 40.498784932743689 0 0 0 0 1.7846150185667708 31.735055438023281 0 31.735055438023281 53.327856606908597 0 0 0 0 -39.168396747562838 178.35943259648047 0 178.35943259648047 -181.82727812508165 0 0 0 0 -4.2085875965954171 1.1691859647642389 0 1.1691859647642389 66.643676167390367 0 0 0 0 -245.64540566242067 103.88623276581347 0 103.88623276581347 -15.663799602916697 0 0 0 0 9.3567811276006978 67.652138916717377 0 67.652138916717377 -167.35351526773775 0 0 0 0 -607.01437427391193 753.36138204474264 0 753.36138204474264 17.703535804292187 0 0 0 0 1.0291283643361253 21.610314057423039 0 21.610314057423039 22.981507973128771 0 0 0 0 293.45264229056647 179.76196185659501 0 179.76196185659501 -345.08244353884947 0 0 0 0 1068.9335781492182 -635.34189595196221 0 -635.34189595196221 433.82830588512297 0 0 0 0 87.599586281276515 -312.30787252232585 0 -312.30787252232585 1579.6921046436182 0 0 0 0 1049.2229267067996 667.87796100310516 0 667.87796100310516 -1009.986450054188 0 0 0 0 24.002258998805246 119.73081475515755 0 119.73081475515755 -155.86395137220097 0 0 0 0 104.00781499926461 -125.39945206977427 0 -125.39945206977427 -24.448591754357039 0 0 0 0 -224.56027386816049 -8.2434401203499874 0 -8.2434401203499874 206.45490973518463 0 0 0 0 20.939612894618364 -393.32803642895101 0 -393.32803642895101 290.50832991895004 0 0 0 0 -197.13723320681686 299.22772785710185 0 299.22772785710185 361.81978393456757 0 0 0 0 4.442749141565729 6.5230692903634662 0 6.5230692903634662 5.5100579285969928 0 0 0 0 0.27690690456308742 1.8399101391864292 0 1.8399101391864292 3.077166234296655 0 0 0 0 81.490798131634619 6.3453091351257171 0 6.3453091351257171 37.987003398564411 0 0 0 0 31.000561129461296 -49.758923908771294 0 -49.758923908771294 54.217761531654105 0 0 0 0 9.9858677145476342 12.129932258658073 0 12.129932258658073 15.049932382112303 0 0 0 0 -55.932168318244749 84.854883673629956 0 84.854883673629956 -30.684136457572606 0 0 0 0 27.781519127319584 4.539198104228376 0 4.539198104228376 56.648109546840715 0 0 0 0 23.099619534381333 -5.6812710389967833 0 -5.6812710389967833 35.474608384465682 0 0 0 0 16.147039028098686 21.064339868310427 0 21.064339868310427 22.641409044919811 0 0 0 0 -68.862168924224306 54.2704213162624 0 54.2704213162624 33.800526750550489 0 0 0 0 20.117314044133515 -6.9673039854205854 0 -6.9673039854205854 60.105093964160915 0 0 0 0 -7.940619063023405 65.410570739635659 0 65.410570739635659 -30.604592221490748 0 0 0 0 -63.567127573922335 74.48829484968519 0 74.48829484968519 14.491203492601926 0 0 0 0 -9.2214402561866713 26.197935146015428 0 26.197935146015428 -0.21297084817221434 0 0 0 0 -166.02929324641991 -19.283881542403833 0 -19.283881542403833 159.30174782553149 0 0 0 0 16.844129810214952 88.948786111115623 0 88.948786111115623 0.75027978113212157 0 0 0 0 -12.970619077803349 39.424992330597888 0 39.424992330597888 89.487039749251551 0 0 0 0 -11.273457083709218 40.875029486825952 0 40.875029486825952 148.95166001143383 0 0 0 0 108.21248173739423 85.039742258837578 0 85.039742258837578 -189.04549137767754 0 0 0 0 0.63092624441618383 5.4200613990270412 0 5.4200613990270412 9.6991085422214347 0 0 0 0 -12.007269711600289 31.845912479468328 0 31.845912479468328 6.2831994376873705 0 0 0 0 -26.000665082916385 71.415200989496952 0 71.415200989496952 7.6013271226319148 0 0 0 0 6.4844126132647943 31.30950240914899 0 31.30950240914899 42.179937038556091 0 0 0 0 -12.877060599270283 46.857512379704659 0 46.857512379704659 18.547244773724685 0 0 0 0 -7.561402934738453 27.564356209066318 0 27.564356209066318 92.246272416861757 0 0 0 0 1.9153189763551381 33.316051137364411 0 33.316051137364411 44.401487583629205 0 0 0 0 13.687576482862813 26.874499882706633 0 26.874499882706633 2.010805911791465 0 0 0 0 26.085772427400997 5.008682066702022 0 5.008682066702022 66.168660140072461 0 0 0 0 21.329571474264753 13.860422176159773 0 13.860422176159773 60.964377994590905 0 0 0 0 10.277330254740072 10.60197986736793 0 10.60197986736793 17.075130698245964 0 0 0 0 15.284919178635391 14.176269561627123 0 14.176269561627123 75.855379650114628 0 0 0 0 15.728363455069456 13.726454426465352 0 13.726454426465352 69.99885850425926 0 0 0 0 22.636604986790758 10.655040566329262 0 10.655040566329262 65.700999428896466 0 0 0 0 7.5244980352840685 17.513565513152571 0 17.513565513152571 55.546251424544607 0 0 0 0 0.27730791938574839 25.584777422373008 0 25.584777422373008 52.364434713672381 0 0 0 0 14.850174829391108 16.901443285823916 0 16.901443285823916 69.607080973131815 0 0 0 0 2.5928763188305415 14.588068436350461 0 14.588068436350461 55.657967245405786 0 0 0 0 13.008502502042575 21.037097669977811 0 21.037097669977811 63.317391924698313 0 0 0 0 5.8750925750175913 9.7598311973416543 0 9.7598311973416543 38.92336394402453 0 0 0 0 7.9525764429196215 26.765350104367826 0 26.765350104367826 77.604820831696998 0 0 0 0 24.760765035703571 53.322251864272403 0 53.322251864272403 109.39227046036103 0 0 0 0 5.3496443326298406 9.7763063591588235 0 9.7763063591588235 23.516916037729032 0 0 0 0 11.269100997717032 28.114783454955614 0 28.114783454955614 69.325852884830965 0 0 0 0 10.015045414527133 19.52182972672194 0 19.52182972672194 44.918665057391195 0 0 0 0 12.909571468831018 26.770287344290409 0 26.770287344290409 43.976735769523657 0 0 0 0 -0.76266334624817134 13.026258338830182 0 13.026258338830182 24.044132272869241 0 0 0 0 -7.8559574092196272 19.704142598755425 0 19.704142598755425 40.817674030187391 0 0 0 0 -1.5522775593635743 26.164675539286691 0 26.164675539286691 102.14490441781527 0 0 0 0 4.7626995804830585 29.565642597844999 0 29.565642597844999 45.180163288183394 0 0 0 0 -2.2373177543056215 17.560015225595116 0 17.560015225595116 37.730045919377119 0 0 0 0 7.8189523945875408 24.404918056548922 0 24.404918056548922 68.012728547269944 0 0 0 0 -10.352787220480645 14.302554492780509 0 14.302554492780509 69.918258717956746 0 0 0 0 32.779279183427434 145.44543523892571 0 145.44543523892571 42.491641773100127 0 0 0 0 0.32857546190160392 36.745801151720769 0 36.745801151720769 43.131535511241267 0 0 0 0 -40.434558902221397 76.608024858356657 0 76.608024858356657 156.92731831712445 0 0 0 0 36.719267958455021 117.93764540103075 0 117.93764540103075 107.74871625170636 0 0 0 0 -1.4284683724369032 46.326863595476695 0 46.326863595476695 19.997430875425078 0 0 0 0 37.753472363194305 14.404283874930115 0 14.404283874930115 127.56317844340811 0 0 0 0 7.5757865451394082 38.660647336018883 0 38.660647336018883 143.08536313907825 0 0 0 0 13.151336142755666 23.2455224082277 0 23.2455224082277 38.462758875314734 0 0 0 0 -8.8242686608045915 7.2679968298471067 0 7.2679968298471067 37.919996635580901 0 0 0 0 1.2576955593925601 39.157295218589617 0 39.157295218589617 60.533945662764083 0 0 0 0 -13.045325993845475 31.069151475562734 0 31.069151475562734 99.994421778628265 0 0 0 0 -15.469383011730315 14.957205253158463 0 14.957205253158463 56.959267449653225 0 0 0 0 -121.3665822275525 150.23563452389135 0 150.23563452389135 105.02490076455433 0 0 0 0 -9.7959289377417669 -18.541920537739642 0 -18.541920537739642 108.52531797593264 0 0 0 0 0.68477978296420794 19.866338858846291 0 19.866338858846291 52.068413850244092 0 0 0 0 -78.252881015355342 -36.508947866018843 0 -36.508947866018843 189.62232659751317 0 0 0 0 -2.0770855023451089 -5.8850161438706445 0 -5.8850161438706445 172.73427814283971 0 0 0 0 -71.319703426661363 -27.075548564935161 0 -27.075548564935161 229.21987506814185 0 0 0 0 77.557166311441847 8.9729258561928873 0 8.9729258561928873 57.82002350206858 0 0 0 0 -41.614861607356033 -22.675874641901828 0 -22.675874641901828 193.27049971549422 0 0 0 0 -55.102508923594996 155.14883565233322 0 155.14883565233322 363.06629520947899 0 0 0 0 -32.323075963392569 152.76883432421391 0 152.76883432421391 251.02615447209246 0 0 0 0 -6.285940955881415 158.41619301884748 0 158.41619301884748 39.638729805657931 0 0 0 0 -10.900874651050103 2.9186586381518431 0 2.9186586381518431 38.990999038269138 0 0 0 0 -15.863171869822779 19.12817457400428 0 19.12817457400428 15.840407970897992 0 0 0 0 -192.08065521146591 101.6722816547217 0 101.6722816547217 311.54331895991891 0 0 0 0 -290.55216021847684 -165.33719487365852 0 -165.33719487365852 302.99603613211548 0 0 0 0 -7.8110415188544016 115.70515736971468 0 115.70515736971468 306.44572729900574 0 0 0 0 85.967482561821384 -73.556945039536004 0 -73.556945039536004 182.99205866437342 0 0 0 0 58.960737069674451 129.93677528041189 0 129.93677528041189 112.27760802579724 0 0 0 0 -6.3331177539904084 1.7028837831137551 0 1.7028837831137551 20.260075892230358 0 0 0 0 -495.39305954896281 33.111281772318307 0 33.111281772318307 638.43713451410986 0 0 0 0 240.61342242596584 322.5114947699692 0 322.5114947699692 271.9283914615371 0 0 0 0 -57.531817135960864 -11.709040590165387 0 -11.709040590165387 413.13910459475892 0 0 0 0 108.51125280833321 -88.723378481152395 0 -88.723378481152395 248.44110487775833 0 0 0 0 -5.7215465644766041 2.5357420205337613 0 2.5357420205337613 174.91125922964505 0 0 0 0 -139.8399874238263 -51.740391977527906 0 -51.740391977527906 237.65298027594326 0 0 0 0 -49.418456410094677 -22.555245393021323 0 -22.555245393021323 149.75720947532591 0 0 0 0 -17.835038606035855 4.836504549127902 0 4.836504549127902 57.541130446715854 0 0 0 0 -77.606439396071437 33.291448563948506 0 33.291448563948506 202.69943972013516 0 0 0 0 -74.363738356057638 -88.098159819269313 0 -88.098159819269313 143.27310076465074 0 0 0 0 -85.855181837888296 -8.0385381966874547 0 -8.0385381966874547 221.61865840084283 0 0 0 0 -622.49650183777749 128.44662375415191 0 128.44662375415191 466.00944065071235 0 0 0 0 -204.83771032145069 -280.36876393167131 0 -280.36876393167131 -154.94158791980772 0 0 0 0 -2.8314040077733065 4.3626525409513484 0 4.3626525409513484 0.0054698953459517696 0 0 0 0 -51.994917869986239 159.69185683360411 0 159.69185683360411 115.5998531446412 0 0 0 0 -596.81708499575871 80.690957837919996 0 80.690957837919996 340.11303550010234 0 0 0 0 -108.69514212127342 -122.34523989022591 0 -122.34523989022591 412.95328860828158 0 0 0 0 15.953248984427773 39.242903800070053 0 39.242903800070053 130.05432364769149 0 0 0 0 -157.20590045424615 115.36288365713381 0 115.36288365713381 176.10360823505471 0 0 0 0 4.010818440075127 108.00184142808484 0 108.00184142808484 84.396288247882694 0 0 0 0 7.1225517543334718 72.685540386657522 0 72.685540386657522 118.42315411143863 0 0 0 0 89.804394979840936 -403.66270176582566 0 -403.66270176582566 1264.7225188892389 0 0 0 0 347.95234651854145 593.87482792682522 0 593.87482792682522 1333.3385269409609 0 0 0 0 17.27828374377259 25.437044700624028 0 25.437044700624028 706.21894322666412 0 0 0 0 75.963290480526666 -378.81757243855759 0 -378.81757243855759 505.94241080422034 0 0 0 0 -180.03495410387109 -320.97831639815195 0 -320.97831639815195 142.38243448040885 0 0 0 0 104.36925416635177 49.763675256723218 0 49.763675256723218 606.60613277529592 0 0 0 0 -198.2306476051358 482.17149050523403 0 482.17149050523403 0.12655189441943548 0 0 0 0 520.39710443987246 195.6024781114138 0 195.6024781114138 215.77842220731145 0 0 0 0 1.1819503872711035 -2.569813189334738 0 -2.569813189334738 4.8199648395129095 0 0 0 0 265.1192265324612 473.67416555415548 0 473.67416555415548 -63.508751794353884 0 0 0 0 -144.28796863158772 507.43717260737503 0 507.43717260737503 136.54954693221953 0 0 0 0 -659.62088037423086 115.49106993416444 0 115.49106993416444 419.59499600698655 0 0 0 0 128.20547209072447 19.439019526794254 0 19.439019526794254 430.68924911421823 0 0 0 0 210.06576572353117 322.52500130626322 0 322.52500130626322 227.61922383595265 0 0 0 0 145.56801581965621 452.98662782277239 0 452.98662782277239 467.87965071023973 0 0 0 0 -33.520975964840432 601.916446325783 0 601.916446325783 602.40343703721737 0 0 0 0 -335.73966679772025 -407.37577906370825 0 -407.37577906370825 -31.454819041116934 0 0 0 0 -1.729859402959999 -7.5007480537724369 0 -7.5007480537724369 9.6106068230411559 0 0 0 0 607.08884928732232 387.11776249196646 0 387.11776249196646 -235.98096958592396 0 0 0 0 6.0057992912446743 1.7263258331209705 0 1.7263258331209705 -3.5413982246926823 0 0 0 0 -392.32634609493368 135.57534724993184 0 135.57534724993184 830.55309489774481 0 0 0 0 37.610621332294158 89.010026368860963 0 89.010026368860963 -101.06089480722585 0 0 0 0 147.72497150548452 353.49529507058833 0 353.49529507058833 445.59626759372713 0 0 0 0 -3.9526218377365012 47.165100504960719 0 47.165100504960719 74.068251760891144 0 0 0 0 -11.427096044079462 33.641980090049401 0 33.641980090049401 81.104937894506293 0 0 0 0 -18.19728695300978 16.759720674529632 0 16.759720674529632 -7.4927698789409458 0 0 0 0 -5.9945579862842351 33.652849590922415 0 33.652849590922415 70.192927197978861 0 0 0 0 -0.70642516986055148 0.88229564579037145 0 0.88229564579037145 6.4436548417318633 0 0 0 0 -6.8537071278254871 38.997224756573814 0 38.997224756573814 50.198411523704635 0 0 0 0 -7.6579919366456011 38.635707159846561 0 38.635707159846561 51.944777883511051 0 0 0 0 -3.8392104326390677 19.050927728821328 0 19.050927728821328 10.330987374151617 0 0 0 0 -4.2616373094439268 -5.2260749328415841 0 -5.2260749328415841 99.033114685099463 0 0 0 0 -1.269232762016145 40.649749931536007 0 40.649749931536007 144.05692402144768 0 0 0 0 3.6899952736353043 -0.85751752796979241 0 -0.85751752796979241 10.771285104798853 0 0 0 0 -2.6824613334692913 46.933220455116953 0 46.933220455116953 151.18093715312989 0 0 0 0 2.662927306819256 41.203960815350001 0 41.203960815350001 134.45102059502779 0 0 0 0 1.5890869608105556 31.221836921818422 0 31.221836921818422 65.151667321884219 0 0 0 0 513.77476106676249 -402.61496298713143 0 -402.61496298713143 434.34159671303132 0 0 0 0 163.75096031500834 -239.24066384533199 0 -239.24066384533199 499.98336912713467 0 0 0 0 -510.68464366821718 172.09468326505885 0 172.09468326505885 273.34011351991694 0 0 0 0 -153.36761183189265 -509.63669966462476 0 -509.63669966462476 785.5177501873377 0 0 0 0 -194.70854455181689 -445.88030117254743 0 -445.88030117254743 828.06141432575987 0 0 0 0 -805.61794079661195 -275.92027947480244 0 -275.92027947480244 798.24839422565697 0 0 0 0 635.48217828143561 -659.91091162971452 0 -659.91091162971452 559.71935539616243 0 0 0 0 518.56978682646422 188.28716769282255 0 188.28716769282255 -10.283773405026295 0 0 0 0 -1.2868208734421924 0.075785358452966856 0 0.075785358452966856 15.394894131462088 0 0 0 0 234.71940744671025 88.304417108678535 0 88.304417108678535 129.65629702625438 0 0 0 0 346.1149182024601 -1267.0344879485128 0 -1267.0344879485128 157.36355653433804 0 0 0 0 51.891634187398267 135.95599067621606 0 135.95599067621606 886.94516665692299 0 0 0 0 123.48522332018638 -539.40581404774775 0 -539.40581404774775 1035.7418984957212 0 0 0 0 -61.983110987350301 -344.32806336860585 0 -344.32806336860585 315.48925569176572 0 0 0 0 -56.865826200122683 -297.24335706579404 0 -297.24335706579404 711.08189843455148 0 0 0 0 -287.94658388939934 -588.00288201595276 0 -588.00288201595276 702.10654514769976 0 0 0 0 -88.291010770573848 -123.57631516508582 0 -123.57631516508582 407.76429420219756 0 0 0 0 -89.858637792252011 205.30942628433581 0 205.30942628433581 442.92653170353151 0 0 0 0 43.702461144417384 25.697092261728812 0 25.697092261728812 570.39446466295522 0 0 0 0 460.14362132794554 62.029363305787228 0 62.029363305787228 554.10798647554839 0 0 0 0 -85.647226408500998 -2.8224763864877787 0 -2.8224763864877787 129.96986100413051 0 0 0 0 -65.366051717960261 6.903466210791521 0 6.903466210791521 117.63073162533396 0 0 0 0 -541.39869379519223 -48.48201575834014 0 -48.48201575834014 364.98577650674906 0 0 0 0 -391.33164728403426 -103.88572428313273 0 -103.88572428313273 126.226830521225 0 0 0 0 0.18990070027252481 -24.660193762366227 0 -24.660193762366227 73.188855740230807 0 0 0 0 -472.14887263524543 -43.712308385775032 0 -43.712308385775032 55.090753979913643 0 0 0 0 -515.8294308234581 28.770309913814344 0 28.770309913814344 422.67437336792682 0 0 0 0 -285.87005887924533 -341.19012847030717 0 -341.19012847030717 442.36338940938884 0 0 0 0 -497.85850054124967 -111.72233502221025 0 -111.72233502221025 196.23492578097103 0 0 0 0 -289.65621075217496 -633.2063454441527 0 -633.2063454441527 2.3511243030361584 0 0 0 0 -709.24004747237814 -520.61422033147073 0 -520.61422033147073 -419.25993129663766 0 0 0 0 -347.44330762633035 449.7947337819669 0 449.7947337819669 557.70710913936637 0 0 0 0 -6.2354542759735594 -6.6090330481473991 0 -6.6090330481473991 16.582980139896172 0 0 0 0 -66.792892652247531 -10.906554324868921 0 -10.906554324868921 122.43087253805697 0 0 0 0 58.341983423920738 -32.492711638057472 0 -32.492711638057472 265.03000838277876 0 0 0 0 -29.299147204519016 4.5321005256340374 0 4.5321005256340374 9.0196732025774846 0 0 0 0 -84.123734508315465 561.20560160399191 0 561.20560160399191 1777.6052042287538 0 0 0 0 325.90353576093912 596.94039121695187 0 596.94039121695187 676.72130557995933 0 0 0 0 358.71477361203506 759.13750048605198 0 759.13750048605198 1030.256664195676 0 0 0 0 -333.42092746850722 75.323195374192665 0 75.323195374192665 1036.3666106663622 0 0 0 0 -5.9934302525722796 -2.2184768610760841 0 -2.2184768610760841 24.147634159588563 0 0 0 0 2143.9219607314099 -1450.3992053355767 0 -1450.3992053355767 264.70701571353857 0 0 0 0 -660.62884813914025 -826.14579038104728 0 -826.14579038104728 1385.9191837476371 0 0 0 0 330.83739944301487 -1002.6592323501588 0 -1002.6592323501588 729.52394458833169 0 0 0 0 -572.18411117843789 -928.89440921340793 0 -928.89440921340793 772.65073709040189 0 0 0 0 514.53791706680568 165.85830368145037 0 165.85830368145037 449.99652365332804 0 0 0 0 -205.4044203792223 -3360.9019035237043 0 -3360.9019035237043 1880.9539145697081 0 0 0 0 -2443.4024368536629 -3203.6172346098192 0 -3203.6172346098192 3146.1034444540364 0 0 0 0 -706.46923738649843 -850.16475522578867 0 -850.16475522578867 1415.3523934818245 0 0 0 0 -3175.2745765824075 -207.21215464432498 0 -207.21215464432498 1941.3071036912261 0 0 0 0 4.060265291342148 51.637234672574778 0 51.637234672574778 142.40097633403639 0 0 0 0 32.248624598170409 -1.982102311010749 0 -1.982102311010749 207.8456052834008 0 0 0 0 -39.595761571114053 71.831881121509923 0 71.831881121509923 179.15717193970158 0 0 0 0 3.5930539205501191 11.683234706541953 0 11.683234706541953 214.69831410742211 0 0 0 0 15.563115754719195 -5.8555465712562542 0 -5.8555465712562542 1.32573256373494 0 0 0 0 -5.2043044533129432 24.043770181043328 0 24.043770181043328 280.62433335294844 0 0 0 0 3088.2148964243534 92.877470231818734 0 92.877470231818734 1774.7980001215396 0 0 0 0 85.765247795634423 49.25971493223733 0 49.25971493223733 217.52669330915614 0 0 0 0 130.77670990706474 108.44934845878856 0 108.44934845878856 37.41916028266769 0 0 0 0 38.43656865528871 41.306953497482617 0 41.306953497482617 5.4537386892899917 0 0 0 0 43.706635849533541 62.784857054273743 0 62.784857054273743 33.822467731759389 0 0 0 0 31.298137291675857 62.004372847921331 0 62.004372847921331 76.223378716658772 0 0 0 0 42.36532111077463 71.981007667573977 0 71.981007667573977 49.954530927656378 0 0 0 0 34.355955754765318 38.619938453617578 0 38.619938453617578 25.611400189318374 0 0 0 0 19.068144115076848 66.683355979760563 0 66.683355979760563 104.4497870149039 0 0 0 0 29.46756914586058 45.930334919752568 0 45.930334919752568 15.206315655090407 0 0 0 0 13.453561882103955 41.74891983979574 0 41.74891983979574 15.070152584814764 0 0 0 0 -4.8109063642758922 30.440310875002755 0 30.440310875002755 15.392443135358601 0 0 0 0 24.38931397297543 16.750075099990681 0 16.750075099990681 32.39125987765874 0 0 0 0 -10.298512240847231 33.8620002642092 0 33.8620002642092 115.22030349644751 0 0 0 0 0.32222820938159202 21.673741879618319 0 21.673741879618319 9.949864689297101 0 0 0 0 -23.094167842603383 69.874741730935057 0 69.874741730935057 9.5791177899482136 0 0 0 0 12.718587983078748 41.073778465077339 0 41.073778465077339 29.926190336693253 0 0 0 0 6.2052250713373116 23.856303783732066 0 23.856303783732066 31.801463200459693 0 0 0 0 -47.318345248200046 87.490489210036685 0 87.490489210036685 -71.219295218696061 0 0 0 0 3.8487315736176049 9.8663885451943507 0 9.8663885451943507 21.961634016308182 0 0 0 0 -35.413924488731482 28.964451348410876 0 28.964451348410876 -66.618956096092006 0 0 0 0 -27.719154268343345 52.860001182616543 0 52.860001182616543 -10.388773345312075 0 0 0 0 7.2673866689232227 14.160270778513222 0 14.160270778513222 -65.269741512816836 0 0 0 0 -84.109264246753355 112.90870636487671 0 112.90870636487671 9.2774996183688927 0 0 0 0 -186.94525652564892 -8.0361773209297098 0 -8.0361773209297098 285.07514792481379 0 0 0 0 57.218565213968304 58.615794718942198 0 58.615794718942198 -90.330277548451704 0 0 0 0 3.0666009322379302 6.4504253469596513 0 6.4504253469596513 6.0197014874443653 0 0 0 0 305.58077031622634 88.095672368919622 0 88.095672368919622 78.133652489843371 0 0 0 0 817.63381775829077 164.92033809061468 0 164.92033809061468 -161.01429293393448 0 0 0 0 -26.450972855335234 -14.378517064038718 0 -14.378517064038718 53.79388486097514 0 0 0 0 -256.66997115367485 14.125893180236744 0 14.125893180236744 130.24795285823893 0 0 0 0 -222.88737345845766 354.32900273960331 0 354.32900273960331 187.65903435509972 0 0 0 0 8.2880519901452772 72.946049771248454 0 72.946049771248454 139.44018919049995 0 0 0 0 33.154727795437793 86.239478170406073 0 86.239478170406073 83.960838075088759 0 0 0 0 145.85641420271918 76.752942886158053 0 76.752942886158053 35.13563208301548 0 0 0 0 46.242766755003231 113.28422155292901 0 113.28422155292901 77.450631083363987 0 0 0 0 60.127431635728954 53.634082792108529 0 53.634082792108529 158.75085820058985 0 0 0 0 60.852395964927837 98.461876202636631 0 98.461876202636631 156.8282697731272 0 0 0 0 37.339676727419373 51.196783871757361 0 51.196783871757361 149.07466407805805 0 0 0 0 -15.442063166708255 -22.286016977917022 0 -22.286016977917022 55.393328590444796 0 0 0 0 -179.40876944283411 -956.85999362900475 0 -956.85999362900475 525.46067828861123 0 0 0 0 397.19982631586697 503.34603108490046 0 503.34603108490046 -41.519142142125929 0 0 0 0 -57.959705439748291 383.66687467075462 0 383.66687467075462 901.24736961354938 0 0 0 0 -287.6343239483038 232.27294341031188 0 232.27294341031188 899.06707820913289 0 0 0 0 3.9589009787091038 3.9932591200314818 0 3.9932591200314818 4.8553002744453124 0 0 0 0 -127.74875776742874 -12.89378423418384 0 -12.89378423418384 1069.5258574665095 0 0 0 0 109.28023184950621 -326.10951090128583 0 -326.10951090128583 846.31139412862831 0 0 0 0 3.1735085085083483 -112.67316342925733 0 -112.67316342925733 404.39337091676862 0 0 0 0 -0.59869816096929185 287.124815439391 0 287.124815439391 -344.09514088927972 0 0 0 0 305.44022291255817 135.82852212279249 0 135.82852212279249 -328.32572154951049 0 0 0 0 17.129472099645341 -207.38779621858703 0 -207.38779621858703 -350.06190325805665 0 0 0 0 445.98894579174942 85.293335883096006 0 85.293335883096006 -357.33574537415552 0 0 0 0 210.4309294717292 396.75240144278723 0 396.75240144278723 491.45807386155502 0 0 0 0 -11.207841046034901 -9.7916746131365002 0 -9.7916746131365002 79.04742569340155 0 0 0 0 84.802615281620092 80.311723928871288 0 80.311723928871288 172.7539352286949 0 0 0 0 -4.3987720639306183 40.226997238231306 0 40.226997238231306 105.45430050154413 0 0 0 0 82.358351173699475 9.8339712457891437 0 9.8339712457891437 150.94381714860356 0 0 0 0 115.05585622479032 23.387301328461035 0 23.387301328461035 154.44096176895255 0 0 0 0 12.352427383686466 -7.6742093082870042 0 -7.6742093082870042 47.71849969983711 0 0 0 0 2.7538270820103321 -19.528049003514752 0 -19.528049003514752 201.87626200557861 0 0 0 0 43.509077250698496 60.289921606040252 0 60.289921606040252 47.898116742930142 0 0 0 0 20.277946875487281 60.531868755084631 0 60.531868755084631 117.21636481389635 0 0 0 0 49.325112701622857 104.22907275526086 0 104.22907275526086 17.11264581130672 0 0 0 0 77.579960721354382 53.171654263534947 0 53.171654263534947 102.43253734925747 0 0 0 0 101.08704654109351 6.1195853101526154 0 6.1195853101526154 180.92270534938143 0 0 0 0 34.90071970730915 81.714382768805081 0 81.714382768805081 128.1864718120778 0 0 0 0 20.533586673232776 28.67992594993666 0 28.67992594993666 140.69310632396082 0 0 0 0 -25.904346563344347 -48.288454209106021 0 -48.288454209106021 112.78657231822217 0 0 0 0 6.2905807940055638 57.569215882729623 0 57.569215882729623 83.605497955944884 0 0 0 0 -8.6470594259197924 -78.725594188230389 0 -78.725594188230389 8.6401812010190042 0 0 0 0 -4.3079373527017424 -42.286337531364552 0 -42.286337531364552 191.59978885624423 0 0 0 0 -28.142615822854623 -81.414557858299304 0 -81.414557858299304 77.005407632896095 0 0 0 0 18.100567690984285 63.724607093219007 0 63.724607093219007 104.10990283017773 0 0 0 0 -7.8433857561611831 194.47976288236714 0 194.47976288236714 5.3517955759016331 0 0 0 0 15.804207097756716 176.06467803814303 0 176.06467803814303 107.08473566215253 0 0 0 0 43.33772176585444 114.8904605176449 0 114.8904605176449 76.259457919513807 0 0 0 0 -17.216642951437279 139.07984504594788 0 139.07984504594788 66.236722039640881 0 0 0 0 121.70383681754902 177.06234022873105 0 177.06234022873105 276.94995296606794 0 0 0 0 -61.170324041719141 90.812876597468858 0 90.812876597468858 34.858993954134348 0 0 0 0 -120.44505585685965 116.52347409564391 0 116.52347409564391 122.25562282718602 0 0 0 0 -102.67257196170249 120.69819834879308 0 120.69819834879308 126.13720524190285 0 0 0 0 -99.566688550166873 141.92403861922503 0 141.92403861922503 144.37246982446231 0 0 0 0 -115.35859402865754 132.49383582454175 0 132.49383582454175 143.78506257233676 0 0 0 0 -107.30384672673608 138.2970557064109 0 138.2970557064109 132.14135204313789 0 0 0 0 -114.25134897519001 143.20047005265951 0 143.20047005265951 164.50109512376366 0 0 0 0 -120.88593675296033 138.28910651367914 0 138.28910651367914 161.99130842906743 0 0 0 0 -113.10331247204704 141.71748771214334 0 141.71748771214334 157.67895869634231 0 0 0 0 -113.15342424075847 137.28480757040791 0 137.28480757040791 156.90364530897932 0 0 0 0 -129.46166091239866 113.1898308677919 0 113.1898308677919 158.15493642099682 0 0 0 0 -94.812906679089792 162.51087042447762 0 162.51087042447762 194.33530146081466 0 0 0 0 -100.69960625943099 142.3595199883257 0 142.3595199883257 176.08213867846644 0 0 0 0 -100.99450901008277 139.91932367485424 0 139.91932367485424 156.64595401432598 0 0 0 0 -54.285297113048728 150.91740646136168 0 150.91740646136168 144.95574069848226 0 0 0 0 -55.889779786517693 156.0741691536723 0 156.0741691536723 185.13320425365237 0 0 0 0 -47.220984273919385 119.10858303149143 0 119.10858303149143 186.16808312422131 0 0 0 0 -45.941200446965013 137.71660394749779 0 137.71660394749779 163.35722490897751 0 0 0 0 17.935077665684275 193.86996388556508 0 193.86996388556508 268.75317576120142 0 0 0 0 1.9816800017479181 1.4066550155548612 0 1.4066550155548612 298.31455061250836 0 0 0 0 -153.1041502103908 138.53994299027545 0 138.53994299027545 216.72672098623298 0 0 0 0 -78.284461354904124 18.348875562733156 0 18.348875562733156 131.05583166904034 0 0 0 0 -188.48897313784619 109.07152975352437 0 109.07152975352437 207.72105991811259 0 0 0 0 135.48086434508241 287.10149038949749 0 287.10149038949749 489.3781988859555 0 0 0 0 421.07555662311461 321.68310181285779 0 321.68310181285779 305.47813439345191 0 0 0 0 319.55898113762851 -30.026507150847465 0 -30.026507150847465 410.96758118897014 0 0 0 0 91.18163863562495 115.19899942061602 0 115.19899942061602 345.22071823501756 0 0 0 0 195.44573005785514 282.49180617461388 0 282.49180617461388 446.65411647206111 0 0 0 0 117.1917517976226 132.58603283680714 0 132.58603283680714 160.8007731049147 0 0 0 0 131.91110790359562 199.37461193691706 0 199.37461193691706 155.95894713113967 0 0 0 0 206.24708260529496 85.018468546797521 0 85.018468546797521 46.781403075131948 0 0 0 0 475.23479514292876 184.54961263880978 0 184.54961263880978 53.525423817322007 0 0 0 0 376.53249659822541 -10.466848029645917 0 -10.466848029645917 7.7035357923014089 0 0 0 0 138.09210397870811 -43.237632142889197 0 -43.237632142889197 37.702523336876766 0 0 0 0 246.73936903170443 -28.27985432245805 0 -28.27985432245805 4.6949668179440778 0 0 0 0 154.01349271313484 -2.9956554183881963 0 -2.9956554183881963 20.225543947677124 0 0 0 0 151.72356902391766 29.943306397824927 0 29.943306397824927 10.526962390431436 0 0 0 0 82.450448541590276 -11.046940558619099 0 -11.046940558619099 20.584054991486482 0 0 0 0 89.394719787230315 76.457755791234376 0 76.457755791234376 30.795146737400501 0 0 0 0 128.34266079167855 143.67673177153847 0 143.67673177153847 39.283004835106112 0 0 0 0 236.33921818887438 95.598936546797631 0 95.598936546797631 31.157943977013929 0 0 0 0 -28.121683012133531 102.08018478702434 0 102.08018478702434 44.42201862121874 0 0 0 0 74.287222139144433 34.258593430306064 0 34.258593430306064 16.291948196143494 0 0 0 0 63.403940706650701 -9.4147034851048375 0 -9.4147034851048375 27.359994867401838 0 0 0 0 -2.1656338073468078 -16.355011225772614 0 -16.355011225772614 -1.6924201437213924 0 0 0 0 3.9743852678845877 -9.0424376436346989 0 -9.0424376436346989 13.525800755590978 0 0 0 0 110.12273651014948 -210.03719223340158 0 -210.03719223340158 87.538159529707627 0 0 0 0 76.285740995170727 87.210913849376084 0 87.210913849376084 10.049711392235622 0 0 0 0 0.2839390089808651 2.0613634473909315 0 2.0613634473909315 -2.5116628122054294 0 0 0 0 3.7418823152401881 -5.37826856085033 0 -5.37826856085033 1.4186520708706496 0 0 0 0 -41.5246472207632 6.228005521446903 0 6.228005521446903 72.762521632364951 0 0 0 0 -4.4890289616065413 -0.46660386803139176 0 -0.46660386803139176 18.30946512150436 0 0 0 0 2.8321434649658386 6.196522959820868 0 6.196522959820868 17.137631500256248 0 0 0 0 -9.5458614447945536 -2.9305254066894122 0 -2.9305254066894122 27.600539770966861 0 0 0 0 1.6260725210063356 40.095699033947312 0 40.095699033947312 65.43868422745436 0 0 0 0 0.080168672629218563 1.9696673298419398 0 1.9696673298419398 9.9350685796418361 0 0 0 0 67.33676172405012 1.0833315314666834 0 1.0833315314666834 24.220721043522644 0 0 0 0 30.951823107132441 -6.4389222694007913 0 -6.4389222694007913 42.462036675060517 0 0 0 0 -12.274038917382995 -2.3822102592639567 0 -2.3822102592639567 46.817136341691366 0 0 0 0 49.906663532398397 -45.206962439791823 0 -45.206962439791823 50.145368387980852 0 0 0 0 133.1982640649926 -33.984689434219035 0 -33.984689434219035 43.049802647903562 0 0 0 0 208.64412851964198 -76.304084705523564 0 -76.304084705523564 42.618334241007688 0 0 0 0 6.89169791382119 -71.323368739627767 0 -71.323368739627767 72.417680608079536 0 0 0 0 -53.916701295805979 -53.578966417524498 0 -53.578966417524498 80.555128300620709 0 0 0 0 -64.825579509266618 -162.27900722876075 0 -162.27900722876075 95.93540879606735 0 0 0 0 -88.05893641811781 18.240445657240343 0 18.240445657240343 77.505054741573986 0 0 0 0 -16.66937101152871 11.859640000882791 0 11.859640000882791 57.424420349751017 0 0 0 0 -27.762223512023752 -1.3139448080655711 0 -1.3139448080655711 66.095266123767942 0 0 0 0 4.3868332300495272 5.9861607415684972 0 5.9861607415684972 10.16692146129229 0 0 0 0 3.1473482484543638 -0.44811078111524694 0 -0.44811078111524694 22.265442047846591 0 0 0 0 6.206449479683501 -4.8980602766253867 0 -4.8980602766253867 7.4975566487274357 0 0 0 0 103.18768606305821 -72.411182919051498 0 -72.411182919051498 -48.632221282736282 0 0 0 0 -15.12270190384416 22.647530018790349 0 22.647530018790349 13.80965154657315 0 0 0 0 3.1248154296081339 -0.86202964058611542 0 -0.86202964058611542 22.116067113558529 0 0 0 0 -36.738893399156439 48.139934060691303 0 48.139934060691303 21.253580817603506 0 0 0 0 3.6421143469619892 -1.3236835110656102 0 -1.3236835110656102 20.510475501068868 0 0 0 0 -73.221493868506514 26.875182033050805 0 26.875182033050805 -29.330745405808557 0 0 0 0 35.421314838378748 -5.8048971836687997 0 -5.8048971836687997 -31.200831344845938 0 0 0 0 2.0029362337409111 1.6391725197172491 0 1.6391725197172491 20.499947672622511 0 0 0 0 52.687831182443915 -118.61058498607599 0 -118.61058498607599 -27.324145539503661 0 0 0 0 65.815713668780518 -41.29108014110534 0 -41.29108014110534 8.1788766310201026 0 0 0 0 30.237336014577977 45.635570665901469 0 45.635570665901469 179.45772596687311 0 0 0 0 12.550369456177577 -77.41220728342887 0 -77.41220728342887 51.24103016112349 0 0 0 0 48.935326676295517 -11.691148596990388 0 -11.691148596990388 101.99393572303234 0 0 0 0 51.034317703112265 -41.833913749313069 0 -41.833913749313069 31.662548007792793 0 0 0 0 50.339142637825717 -38.972698187979404 0 -38.972698187979404 33.898611930315383 0 0 0 0 54.408945732164284 -39.027148171619046 0 -39.027148171619046 29.108009933202993 0 0 0 0 60.738166798397287 -34.138604851759737 0 -34.138604851759737 32.66788798966445 0 0 0 0 56.128318328259411 21.765875650322414 0 21.765875650322414 54.649870067813026 0 0 0 0 10.893699365275097 -35.033089263568399 0 -35.033089263568399 124.62841220965493 0 0 0 0 12.390002253205239 -6.8021244200499495 0 -6.8021244200499495 20.533721673622495 0 0 0 0 60.637007009238005 -28.671416051045526 0 -28.671416051045526 -17.497883194795577 0 0 0 0 39.190814802526802 9.062387680329266 0 9.062387680329266 67.346340439515188 0 0 0 0 44.530797993911619 11.71404688442999 0 11.71404688442999 5.4516076295258244 0 0 0 0 109.26381984582713 79.099076518963557 0 79.099076518963557 69.024766619860429 0 0 0 0 90.046387257013521 8.6147414444567403 0 8.6147414444567403 34.639521553195664 0 0 0 0 -7.5569536934999633 -2.4263489796139766 0 -2.4263489796139766 67.629789685277501 0 0 0 0 77.967994696562528 89.733503108633158 0 89.733503108633158 129.92142686288571 0 0 0 0 102.67327116797878 98.489518900234543 0 98.489518900234543 117.1203545273238 0 0 0 0 81.696348938554365 196.33295073359477 0 196.33295073359477 315.8999904365628 0 0 0 0 26.684472226352227 88.720857861902914 0 88.720857861902914 476.41105767633417 0 0 0 0 4.2514404497347993 0.84830302660989787 0 0.84830302660989787 2.4178771314571321 0 0 0 0 88.287566125263993 162.24242390400104 0 162.24242390400104 262.85444641247159 0 0 0 0 -75.613503280619625 -66.130921813775785 0 -66.130921813775785 242.09860717837 0 0 0 0 -62.327220927241797 31.596461026885663 0 31.596461026885663 344.12350674394111 0 0 0 0 37.808949256919732 -15.175212417030707 0 -15.175212417030707 131.24627531471197 0 0 0 0 1.548058887849038 -47.231680458819028 0 -47.231680458819028 152.89065501722507 0 0 0 0 -3.267414184912468 -40.767873483942822 0 -40.767873483942822 63.359710006763635 0 0 0 0 6.1530057768272988 -17.505216382582702 0 -17.505216382582702 27.889032991682541 0 0 0 0 1.116988582832164 -31.829561380116502 0 -31.829561380116502 38.049537122424226 0 0 0 0 7.0205256051372089 -12.276361416865257 0 -12.276361416865257 33.38735131824069 0 0 0 0 0.15599814009417479 -0.18658885452995833 0 -0.18658885452995833 0.22600906010333688 0 0 0 0 -6.7937798785724226 0.58470631334057543 0 0.58470631334057543 -8.5698061882285401 0 0 0 0 -50.284455668260307 6.7909130301341065 0 6.7909130301341065 68.868854963671765 0 0 0 0 7.5543851857793243 -14.477066629791807 0 -14.477066629791807 34.950104517582076 0 0 0 0 2.7674582763227771 -5.241546999055025 0 -5.241546999055025 1.3352894618990376 0 0 0 0 -76.319748401077959 -30.428273567697033 0 -30.428273567697033 5.2494461087408126 0 0 0 0 -9.3629741839488361 7.6209120849925966 0 7.6209120849925966 11.7433936552261 0 0 0 0 4.2548598012938736 -12.652132253907624 0 -12.652132253907624 16.503252589621411 0 0 0 0 -4.1216410253539379 -14.055647484117799 0 -14.055647484117799 7.1297020520432852 0 0 0 0 -2.2776019605080364 14.225269196584122 0 14.225269196584122 -9.6105875814100727 0 0 0 0 -0.27413341922783729 -14.979816717506765 0 -14.979816717506765 36.308592768677045 0 0 0 0 5.2061994448379618 -15.226785879230079 0 -15.226785879230079 17.343550605791449 0 0 0 0 0.36422750498185286 -8.3500617445352248 0 -8.3500617445352248 28.433339948257657 0 0 0 0 1.3902378629555199 -10.861001512118563 0 -10.861001512118563 28.852765195578229 0 0 0 0 -2.503247970919098 -9.1548737410139438 0 -9.1548737410139438 21.615331006469205 0 0 0 0 0.17543003192895412 -9.8854367659223499 0 -9.8854367659223499 56.202663680975093 0 0 0 0 4.0902865977829812 -10.77600575050127 0 -10.77600575050127 17.048344175937075 0 0 0 0 -2.7031150262673691 -10.454738451560843 0 -10.454738451560843 23.683904216974042 0 0 0 0 5.6008289869977759 -9.3641589797632605 0 -9.3641589797632605 13.066040015551543 0 0 0 0 5.9801984305353173 -3.4989187913318176 0 -3.4989187913318176 11.601991889232238 0 0 0 0 1.2983450010087836 -2.2093426388164517 0 -2.2093426388164517 7.2129104972118512 0 0 0 0 -0.23160171778363292 -11.468753701628884 0 -11.468753701628884 16.441155072083347 0 0 0 0 -0.81450724225004123 -5.1409800834119324 0 -5.1409800834119324 29.050342921105418 0 0 0 0 2.6125101507266209 -6.6417218133428833 0 -6.6417218133428833 24.04862913955003 0 0 0 0 -2.2314850925740757 -9.594926790043246 0 -9.594926790043246 23.980895135695846 0 0 0 0 4.2493903576027687 -3.3968774571985563 0 -3.3968774571985563 14.188214479812075 0 0 0 0 -4.4009951560237823 2.4037702441492002 0 2.4037702441492002 25.496616599732079 0 0 0 0 -4.5396895209264585 1.7600885199644836 0 1.7600885199644836 26.749893809057539 0 0 0 0 2.495780965830761 2.6889974860333723 0 2.6889974860333723 17.518039692455488 0 0 0 0 -2.2736133098210303 -9.6542883388756309 0 -9.6542883388756309 24.864470405271277 0 0 0 0 0.8628902114256749 -4.8933934732632736 0 -4.8933934732632736 22.806743053884304 0 0 0 0 -6.7018544727879998 5.2091500793321757 0 5.2091500793321757 22.443672600784339 0 0 0 0 -2.0767437113783109 3.3734740542239194 0 3.3734740542239194 25.479587106958576 0 0 0 0 -0.46529392234360323 0.35530511402930642 0 0.35530511402930642 24.926029192742362 0 0 0 0 12.362316790031628 -6.9748543451714795 0 -6.9748543451714795 56.726381973683601 0 0 0 0 -16.446277286197073 0.86000314854027238 0 0.86000314854027238 15.261778542859247 0 0 0 0 -3.7957350363222284 6.5862783803646607 0 6.5862783803646607 30.506537947270658 0 0 0 0 -5.3244355100093959 0.25121795896894383 0 0.25121795896894383 34.840128523566534 0 0 0 0 -1.2030200657458128 -7.4527703632548139 0 -7.4527703632548139 24.856554562799175 0 0 0 0 2.1829966868860993 -2.4576902748522116 0 -2.4576902748522116 58.900256258173613 0 0 0 0 -3.8363200612484434 -5.7319920196023304 0 -5.7319920196023304 63.535716287617106 0 0 0 0 -3.1538677141049902 -6.4792175727488939 0 -6.4792175727488939 60.120433258765843 0 0 0 0 -7.4268668341904913 -8.5766441424857476 0 -8.5766441424857476 61.321086746640503 0 0 0 0 -4.950151234619625 -10.768834183603758 0 -10.768834183603758 60.105693529068958 0 0 0 0 -2.2243089571677501 -7.4002556227787863 0 -7.4002556227787863 60.33295721352988 0 0 0 0 -2.4012648528557747 -8.6634017812320963 0 -8.6634017812320963 60.674099469804787 0 0 0 0 -5.1069788806312317 -30.417374006676255 0 -30.417374006676255 40.289274695518543 0 0 0 0 -15.255023749650491 -25.898432230969775 0 -25.898432230969775 76.109446544607636 0 0 0 0 -2.9869827078984938 -2.969563947827595 0 -2.969563947827595 14.456727095355632 0 0 0 0 -18.208333920965515 -7.689488367526792 0 -7.689488367526792 97.53181855956791 0 0 0 0 -8.5958536808830104 -7.414147911593318 0 -7.414147911593318 69.509966022684239 0 0 0 0 -13.989364702244529 -12.858780008653412 0 -12.858780008653412 64.060809924849309 0 0 0 0 -5.1210001265039864 0.5907728269812651 0 0.5907728269812651 67.818848753169732 0 0 0 0 -6.9200139027966543 5.4682121531950543 0 5.4682121531950543 74.737600384629332 0 0 0 0 -7.4002720607179526 2.1911671979250968 0 2.1911671979250968 70.758483026147587 0 0 0 0 3.542541397695345 13.485787999627064 0 13.485787999627064 60.436023185844533 0 0 0 0 -5.1944020155751787 -0.9217735460260883 0 -0.9217735460260883 59.166222270010621 0 0 0 0 3.1516744306018154 9.3045619337935932 0 9.3045619337935932 42.087027140092687 0 0 0 0 -1.9641298496173931 -4.9781057224317919 0 -4.9781057224317919 54.045951206877362 0 0 0 0 -6.9743105004667996 -1.2494394006425864 0 -1.2494394006425864 31.555055785443983 0 0 0 0 3.1387277543920504 -10.537039222792373 0 -10.537039222792373 23.784304778266232 0 0 0 0 -3.6941227616984 -1.0308405530446123 0 -1.0308405530446123 28.043422394976176 0 0 0 0 1.0829489471449043 -0.95677695850704936 0 -0.95677695850704936 18.352030050349413 0 0 0 0 -1.0698768134393613 0.41995668068113901 0 0.41995668068113901 17.207192197613352 0 0 0 0 18.203726606706368 -20.007093259497196 0 -20.007093259497196 37.729301603583735 0 0 0 0 2.2942396422981837 -9.3817035499124586 0 -9.3817035499124586 27.479118348041737 0 0 0 0 3.6847247501764286 5.9027899348147912 0 5.9027899348147912 36.693941453107982 0 0 0 0 -0.95733975757616907 3.9786959280248482 0 3.9786959280248482 25.249441492240052 0 0 0 0 1.6383140695116476 10.2171647056072 0 10.2171647056072 8.8193594539220612 0 0 0 0 -3.3073360417220101 3.2761426460347138 0 3.2761426460347138 22.819449050432013 0 0 0 0 -2.1681461457014848 -3.3435425763600506 0 -3.3435425763600506 58.76430891763448 0 0 0 0 -4.0907606645638452 7.1690677087462973 0 7.1690677087462973 11.174515539372806 0 0 0 0 -1.1894132081729079 4.3743353430908485 0 4.3743353430908485 27.264780266350442 0 0 0 0 -2.0845564277386082 -6.1452414300054841 0 -6.1452414300054841 29.612670868613961 0 0 0 0 -4.7985529248562004 2.48772320672321 0 2.48772320672321 30.829093739622408 0 0 0 0 -9.7342166656740119 4.1483051934992545 0 4.1483051934992545 26.565083315435913 0 0 0 0 -10.474113318499349 8.3068628771143267 0 8.3068628771143267 48.435747406329028 0 0 0 0 -33.610285772369025 28.733792277547764 0 28.733792277547764 56.262698955360975 0 0 0 0 -17.805998770933456 -15.599128761154134 0 -15.599128761154134 24.335451959239435 0 0 0 0 -5.6529823664368717 4.9351767973958971 0 4.9351767973958971 6.8461781934025225 0 0 0 0 -3.0620528736121839 -5.9386836652143273 0 -5.9386836652143273 38.93806010052873 0 0 0 0 -8.0962724532786901 3.10214447157081 0 3.10214447157081 22.96857020088828 0 0 0 0 0.031145958098022675 -11.154150081943953 0 -11.154150081943953 50.431271471257787 0 0 0 0 -2.0735174023537226 -9.7226963819648518 0 -9.7226963819648518 38.173878322646488 0 0 0 0 -1.9823342903491721 -7.5516158886093763 0 -7.5516158886093763 40.124529585009441 0 0 0 0 -5.0602061550318922 -9.589344601292396 0 -9.589344601292396 38.838539900214528 0 0 0 0 -0.76357886839423372 -7.6267824693095463 0 -7.6267824693095463 38.43109066215402 0 0 0 0 -0.14485781590906299 -10.42951497255126 0 -10.42951497255126 34.782864067179617 0 0 0 0 -1.5077999826103223 -9.3003343364907778 0 -9.3003343364907778 34.695673252397683 0 0 0 0 -2.7137940901680397 -7.3304221184711977 0 -7.3304221184711977 32.493416089196955 0 0 0 0 -10.506646063692642 -6.9904911099074525 0 -6.9904911099074525 37.988705729818321 0 0 0 0 -4.2932495627931848 -4.3612466540913601 0 -4.3612466540913601 16.291929390077257 0 0 0 0 -3.2058601617677311 -5.4503119729652099 0 -5.4503119729652099 27.532962070574285 0 0 0 0 -29.274708764162824 -14.26593881372537 0 -14.26593881372537 29.254739586962387 0 0 0 0 -1.4564864009922287 -6.585691009187542 0 -6.585691009187542 26.331447355089608 0 0 0 0 -9.7700513269082876 -44.49063842977921 0 -44.49063842977921 18.520437166269403 0 0 0 0 -5.8072936866605627 -8.4378452114705738 0 -8.4378452114705738 23.947795295013151 0 0 0 0 -73.386929497772144 -29.391487923567183 0 -29.391487923567183 43.877524943789467 0 0 0 0 -77.791012460294041 -35.88385534981353 0 -35.88385534981353 76.261739161476726 0 0 0 0 -70.713517849802884 -32.285417974417214 0 -32.285417974417214 46.49383480166216 0 0 0 0 -82.533151595398522 -50.874345896096202 0 -50.874345896096202 49.211145800632949 0 0 0 0 -50.561165345099653 -31.449257853993913 0 -31.449257853993913 22.08138592778414 0 0 0 0 -57.912924696589471 -50.466964233273757 0 -50.466964233273757 10.279953511868371 0 0 0 0 -71.683706800627988 -33.217809244037198 0 -33.217809244037198 52.685893427813426 0 0 0 0 -83.067149471709854 -28.931788546164171 0 -28.931788546164171 55.075259474426275 0 0 0 0 -85.845448601467069 14.609914820131962 0 14.609914820131962 59.561318869818933 0 0 0 0 0.66387339438527349 -3.3899457214696156 0 -3.3899457214696156 4.9544270846384251 0 0 0 0 -68.647341586907714 -25.101271345920395 0 -25.101271345920395 40.245018703833921 0 0 0 0 -59.607155142156444 -10.559576615094556 0 -10.559576615094556 68.91420436478802 0 0 0 0 -69.157518412879824 -17.212179594038389 0 -17.212179594038389 65.190376917889807 0 0 0 0 -26.949763711477317 23.00261783208407 0 23.00261783208407 65.468872533558169 0 0 0 0 -55.548321445881811 3.9321700407890603 0 3.9321700407890603 63.125525896233739 0 0 0 0 -13.778692158393824 10.284901084261946 0 10.284901084261946 39.369599645891867 0 0 0 0 -60.112887209017572 6.150613596488256 0 6.150613596488256 64.550771203315435 0 0 0 0 -69.808158573458059 -17.598769209042075 0 -17.598769209042075 35.812733035971178 0 0 0 0 -73.648753528543239 1.4592248934859526 0 1.4592248934859526 60.119798898769659 0 0 0 0 -61.91088795820724 -3.0974951658863574 0 -3.0974951658863574 42.688357727956827 0 0 0 0 -60.436185405422293 -2.8258087311478448 0 -2.8258087311478448 50.711693725635996 0 0 0 0 11.172793625806548 54.656916198287945 0 54.656916198287945 37.695433548069559 0 0 0 0 14.845020624289646 40.50632445714291 0 40.50632445714291 43.357253416383173 0 0 0 0 -29.740429590810891 32.003654733067378 0 32.003654733067378 42.872992448635159 0 0 0 0 -19.271894771013649 77.994246195536107 0 77.994246195536107 39.21937940875614 0 0 0 0 20.762155270969743 61.687772151599347 0 61.687772151599347 -2.3217513170966413 0 0 0 0 -2.7457966414522161 140.11732602733537 0 140.11732602733537 22.253839060605969 0 0 0 0 -19.129138463378467 93.642561211112479 0 93.642561211112479 135.20215613654 0 0 0 0 -39.664711156047133 40.521847505318874 0 40.521847505318874 152.28389705214067 0 0 0 0 -34.914266617061912 38.746552148688352 0 38.746552148688352 143.2931808141293 0 0 0 0 -42.613150844429583 27.441520109961857 0 27.441520109961857 84.642815051669459 0 0 0 0 -36.540314634549759 44.693224992210162 0 44.693224992210162 126.74564559033024 0 0 0 0 -39.917197774398119 24.199633724776504 0 24.199633724776504 88.313504460238619 0 0 0 0 -15.631167817509777 57.198194982149289 0 57.198194982149289 87.572358191711828 0 0 0 0 25.671745940359926 6.1437689869781025 0 6.1437689869781025 -22.270366940952954 0 0 0 0 139.77842750675561 339.79824777445992 0 339.79824777445992 -228.74974801432109 0 0 0 0 1.5113546106467279 -1.2620210086197829 0 -1.2620210086197829 0.33325486558933903 0 0 0 0 -23.853037160473377 -11.982256816714653 0 -11.982256816714653 322.48688019982001 0 0 0 0 -22.201922760759487 169.35156560971882 0 169.35156560971882 283.08711159641098 0 0 0 0 136.1565868131579 -59.907327531011106 0 -59.907327531011106 177.13492207566742 0 0 0 0 17.24014297376857 -7.929750999333919 0 -7.929750999333919 154.4177888624472 0 0 0 0 97.200938844932807 -20.575491118135687 0 -20.575491118135687 122.09136259395018 0 0 0 0 -48.512541705920739 7.028884923660371 0 7.028884923660371 106.63125214944012 0 0 0 0 -64.572169199526343 -11.465295496178442 0 -11.465295496178442 86.963867206475697 0 0 0 0 -41.761618798419477 -0.90858273685444146 0 -0.90858273685444146 115.80553743144628 0 0 0 0 -43.499812267637026 6.4149834478739649 0 6.4149834478739649 182.90242841980944 0 0 0 0 16.680976123687167 -45.827192016176241 0 -45.827192016176241 127.67129339516396 0 0 0 0 -30.721110905501064 -18.818994535307866 0 -18.818994535307866 113.76544391033531 0 0 0 0 -55.557910627896945 -36.073730384130613 0 -36.073730384130613 46.293542502360651 0 0 0 0 -57.050084776987205 -45.453111354960129 0 -45.453111354960129 102.01160758204969 0 0 0 0 -21.153979578117287 -57.974731924445223 0 -57.974731924445223 32.062986197706778 0 0 0 0 -21.676156649925588 -61.794986048525971 0 -61.794986048525971 5.1388352912617847 0 0 0 0 -61.499737391227427 -98.641991586220684 0 -98.641991586220684 84.166196690639481 0 0 0 0 -48.084815722580743 -243.77078562825409 0 -243.77078562825409 -45.132885874831118 0 0 0 0 205.94108685682022 -111.43854699894655 0 -111.43854699894655 -78.245759142184397 0 0 0 0 104.65896242360941 -137.10481075305142 0 -137.10481075305142 1.8993961466758265 0 0 0 0 14.869855369167453 -42.407683948535123 0 -42.407683948535123 -91.929668607568601 0 0 0 0 -377.59902496627319 -104.90258461920894 0 -104.90258461920894 193.19208183618321 0 0 0 0 -0.20430485056372982 52.753371879874067 0 52.753371879874067 101.96382771236853 0 0 0 0 -99.954761178087466 -94.171322670009431 0 -94.171322670009431 137.64185782212007 0 0 0 0 17.959796869498177 -14.483952621470962 0 -14.483952621470962 143.05648388261034 0 0 0 0 -22.674740519762963 -531.45387263037992 0 -531.45387263037992 670.28814301654347 0 0 0 0 -148.33701580694461 493.89091386226119 0 493.89091386226119 143.63293576911383 0 0 0 0 -260.76098704144533 228.01475917403877 0 228.01475917403877 479.16346635049558 0 0 0 0 631.12230581744097 568.43771481350996 0 568.43771481350996 -88.33934607898118 0 0 0 0 -1.6854248611935994 51.316717517169423 0 51.316717517169423 100.73156195633769 0 0 0 0 -393.362981977858 84.315956394610112 0 84.315956394610112 576.23831981945841 0 0 0 0 -179.21739300722129 289.13108550789184 0 289.13108550789184 512.56682034276309 0 0 0 0 5.8136686840388494 -3.2683156430192213 0 -3.2683156430192213 1.4541451232153406 0 0 0 0 367.10653962752031 -326.07095963723259 0 -326.07095963723259 -38.967047767473559 0 0 0 0 -158.76675749759352 -1091.4217501908279 0 -1091.4217501908279 256.08114747004583 0 0 0 0 -0.50084190626595437 -1.2705197991749237 0 -1.2705197991749237 13.966693843643498 0 0 0 0 648.91796353410416 248.0861663268588 0 248.0861663268588 150.44682855209976 0 0 0 0 154.88008830253511 300.20650781756558 0 300.20650781756558 430.20951853154111 0 0 0 0 -175.99190902410345 276.32481284828827 0 276.32481284828827 461.94388938427437 0 0 0 0 296.48627598235953 632.15592514498712 0 632.15592514498712 621.03862648137147 0 0 0 0 275.84873471563515 -47.623367320105899 0 -47.623367320105899 9.6038888837647391 0 0 0 0 -720.62835619972225 -775.29290505105018 0 -775.29290505105018 1370.7822335995734 0 0 0 0 0.205485591819764 1.5476354644450367 0 1.5476354644450367 12.186505200092313 0 0 0 0 -233.62707269357281 -738.26279451030678 0 -738.26279451030678 332.03839775855886 0 0 0 0 347.07025242217742 361.13259248789836 0 361.13259248789836 407.6155918907607 0 0 0 0 142.0434027695992 384.98718122346327 0 384.98718122346327 1106.2666438654269 0 0 0 0 156.65023096052664 254.78592349143582 0 254.78592349143582 434.35995335676125 0 0 0 0 314.81740936847564 130.08598032468581 0 130.08598032468581 -63.935311864333926 0 0 0 0 156.37811150783591 282.55985311736003 0 282.55985311736003 434.32597572574741 0 0 0 0 -489.94843551502129 754.37045729593774 0 754.37045729593774 500.28993291317602 0 0 0 0 -119.72482305639301 -27.116429777466692 0 -27.116429777466692 74.351617029053159 0 0 0 0 0.62429220414934461 1.3967576820588405 0 1.3967576820588405 31.289017220771711 0 0 0 0 17.861770212100964 -94.121894512238214 0 -94.121894512238214 -46.520409930430105 0 0 0 0 150.37347856295492 46.228750607260736 0 46.228750607260736 31.932907499896828 0 0 0 0 -26.563254582961235 4.2803403964644531 0 4.2803403964644531 29.445911817369051 0 0 0 0 17.369144089793735 -37.18789797226782 0 -37.18789797226782 23.161354356328957 0 0 0 0 10.630549978379884 -5.794461640196829 0 -5.794461640196829 10.815680920064068 0 0 0 0 -87.26842566369578 -69.454289047222119 0 -69.454289047222119 16.886020206398825 0 0 0 0 -99.096403872350493 -4.4637074044585461 0 -4.4637074044585461 -4.3731454066873994 0 0 0 0 -388.32864752484198 543.48192831669792 0 543.48192831669792 951.8223984829965 0 0 0 0 674.29429531714618 -577.84387504559709 0 -577.84387504559709 -215.05988501911634 0 0 0 0 -34.632477450721126 105.08488533519267 0 105.08488533519267 240.51759395560657 0 0 0 0 -36.970215814017592 120.89936916533043 0 120.89936916533043 309.63640468697122 0 0 0 0 -62.16855364866592 75.526812155425432 0 75.526812155425432 267.32799935652292 0 0 0 0 -49.821649171033187 60.701629777788185 0 60.701629777788185 275.4726565630408 0 0 0 0 -56.821647982684908 14.185740504588466 0 14.185740504588466 188.35118876531487 0 0 0 0 -22.044215519865702 56.554622837531497 0 56.554622837531497 155.57310951018007 0 0 0 0 1.4667401936808346 102.34208663936442 0 102.34208663936442 239.72659382953134 0 0 0 0 54.826825249894227 72.575711312907515 0 72.575711312907515 96.16170964557341 0 0 0 0 39.582428467893351 49.806074913954944 0 49.806074913954944 98.95127687708009 0 0 0 0 69.553747836082948 36.06664434063714 0 36.06664434063714 54.183904178447847 0 0 0 0 86.670424943275066 127.84265867533395 0 127.84265867533395 171.36149157313048 0 0 0 0 0.31579994239052667 171.03471266813358 0 171.03471266813358 311.31546210113447 0 0 0 0 6.2631715838001583 199.31154223308113 0 199.31154223308113 445.52466668028501 0 0 0 0 139.56157844767677 185.50666987236764 0 185.50666987236764 142.19144509855687 0 0 0 0 10.095528995389031 219.96383519044321 0 219.96383519044321 860.36862001384725 0 0 0 0 -0.2649612549662379 134.51732070852086 0 134.51732070852086 415.69543146714568 0 0 0 0 -50.299220562923438 130.80167726846412 0 130.80167726846412 476.11235543557632 0 0 0 0 -74.867874359786811 95.439156439082581 0 95.439156439082581 425.21402954770019 0 0 0 0 -75.635408395467948 109.06383763691701 0 109.06383763691701 340.02222531128791 0 0 0 0 -70.641090405645059 116.88722261941439 0 116.88722261941439 351.80442385221249 0 0 0 0 -79.246270929708771 118.1115263896063 0 118.1115263896063 351.770547828899 0 0 0 0 -67.087554739565803 100.06741839137976 0 100.06741839137976 347.85604106933897 0 0 0 0 -62.148527891216929 96.09514814166323 0 96.09514814166323 306.16420630094944 0 0 0 0 -69.30197806616502 130.34893849758373 0 130.34893849758373 316.25050243596343 0 0 0 0 39.350117271294835 193.67602944091777 0 193.67602944091777 269.06068608492205 0 0 0 0 -50.42577828799233 158.94773932395765 0 158.94773932395765 319.45509706647135 0 0 0 0 -4.2989933091726016 219.37909549023607 0 219.37909549023607 392.03021852031816 0 0 0 0 -57.634882000610446 156.90860321210494 0 156.90860321210494 366.89926303338143 0 0 0 0 -94.775986437116103 112.30024822961423 0 112.30024822961423 379.29708456223307 0 0 0 0 441.38204359875886 322.19184793803288 0 322.19184793803288 244.4175456482044 0 0 0 0 343.7224979220598 176.33477523598413 0 176.33477523598413 46.981662854115712 0 0 0 0 103.641229202771 18.05161197579946 0 18.05161197579946 4.1459347714262549 0 0 0 0 37.096490864219504 157.21286667748063 0 157.21286667748063 185.39689360902412 0 0 0 0 133.04520150315398 277.00596358698385 0 277.00596358698385 304.07328734223847 0 0 0 0 -6.5476561966111149 222.6569530434208 0 222.6569530434208 465.74823295784881 0 0 0 0 339.91369827591529 414.02355878951494 0 414.02355878951494 444.16733736019523 0 0 0 0 136.6148701027561 241.29581369539846 0 241.29581369539846 300.24832196254283 0 0 0 0 65.110059379623863 379.33545588301058 0 379.33545588301058 794.44362157367868 0 0 0 0 -63.886884713533888 212.30715703466558 0 212.30715703466558 581.57468882814283 0 0 0 0 -17.582722098378781 195.18539000715828 0 195.18539000715828 443.52755616095965 0 0 0 0 -146.84821388163743 -106.26006443570077 0 -106.26006443570077 489.56503233990588 0 0 0 0 -113.98534774167388 4.4907427529724373 0 4.4907427529724373 778.11202871266869 0 0 0 0 -96.286870893019568 92.768993450867129 0 92.768993450867129 377.84619203192415 0 0 0 0 -79.565885709507029 115.83014568882209 0 115.83014568882209 345.3428014407109 0 0 0 0 -88.750735072018642 81.959340129877091 0 81.959340129877091 348.28924501812435 0 0 0 0 -114.20985770546983 139.65039834823983 0 139.65039834823983 477.97185663532582 0 0 0 0 -109.5652958941445 101.72486306710925 0 101.72486306710925 372.68316275862162 0 0 0 0 -82.057475010630299 -103.83357383117982 0 -103.83357383117982 182.91314549536037 0 0 0 0 -90.085638081331126 -10.883881819157978 0 -10.883881819157978 371.20321209653503 0 0 0 0 -8.3977731326820049 -14.610379499994451 0 -14.610379499994451 93.842393946702941 0 0 0 0 -5.2460753599429406 0.56630855538264768 0 0.56630855538264768 -0.16614560233836073 0 0 0 0 -37.617781852489315 39.379487672544201 0 39.379487672544201 132.85704025250743 0 0 0 0 -11.526522195939378 -5.3771294973412296 0 -5.3771294973412296 87.261584893858526 0 0 0 0 1.6070166977422105 18.545788571289449 0 18.545788571289449 40.622761942024226 0 0 0 0 0.24342061653574865 1.5834579376559645 0 1.5834579376559645 0.61449088659888673 0 0 0 0 507.306049877021 -32.364595358456427 0 -32.364595358456427 70.505877572744794 0 0 0 0 6.6773856749834408 1.2021361624538258 0 1.2021361624538258 55.258727450302104 0 0 0 0 6.175718863843116 1.5232215995602019 0 1.5232215995602019 63.449884597212076 0 0 0 0 7.096181262935886 -7.2724751200548781 0 -7.2724751200548781 61.483045033732196 0 0 0 0 7.7278781203843891 -7.133268433422927 0 -7.133268433422927 52.205939808744006 0 0 0 0 -5.1108657694429667 -12.257050914340653 0 -12.257050914340653 71.66629889595788 0 0 0 0 -39.186031187769458 -13.579795517463936 0 -13.579795517463936 45.591535549800028 0 0 0 0 -1.1510126689267963 17.59969008473854 0 17.59969008473854 28.577808614936657 0 0 0 0 -2.746677459153716 -8.6899064976387308 0 -8.6899064976387308 59.004349455732154 0 0 0 0 -2.5505350348068987 -14.419557745866769 0 -14.419557745866769 22.221929431092576 0 0 0 0 -41.922813557072459 1.761146494129207 0 1.761146494129207 40.110783683281625 0 0 0 0 -1.460569154139796 0.97041906764385999 0 0.97041906764385999 4.642981992879669 0 0 0 0 -70.789233228169451 -35.622869864382665 0 -35.622869864382665 37.119872818439035 0 0 0 0 -63.879137891467963 -38.605863666598452 0 -38.605863666598452 8.6452929463303008 0 0 0 0 -5.7906091869440388 7.0121382080687908 0 7.0121382080687908 66.368206407729303 0 0 0 0 -0.7436759934629702 -3.1458703985735781 0 -3.1458703985735781 4.9722263791321666 0 0 0 0 -82.648645284284157 -13.959829665385769 0 -13.959829665385769 4.7873134711553575 0 0 0 0 -67.256333355583365 -47.168665597491781 0 -47.168665597491781 5.0397226086934097 0 0 0 0 -32.711322855578146 -11.25749416963663 0 -11.25749416963663 13.113718052467448 0 0 0 0 8.8481685077913426 116.93434090344817 0 116.93434090344817 44.792779515973962 0 0 0 0 -29.047553500865035 -107.08957479251148 0 -107.08957479251148 71.107058089299244 0 0 0 0 7.8938192277751114 -28.59295687872509 0 -28.59295687872509 -89.381115749187302 0 0 0 0 -23.790424848113616 10.409733079810394 0 10.409733079810394 39.896977207623422 0 0 0 0 87.579839688745778 106.27248042821884 0 106.27248042821884 -98.003346813784447 0 0 0 0 -39.732958878789304 -9.6305676698830212 0 -9.6305676698830212 147.02703546721932 0 0 0 0 -44.501874384074881 15.638272622934892 0 15.638272622934892 187.58280832130549 0 0 0 0 24.086537926978963 18.312439626002742 0 18.312439626002742 50.355357016524067 0 0 0 0 -11.569673151345862 -1.3721818984431309 0 -1.3721818984431309 6.5991799854542279 0 0 0 0 -27.732887728865535 -26.110384721236187 0 -26.110384721236187 60.90275558043777 0 0 0 0 -6.7241532573652876 24.493130244052736 0 24.493130244052736 95.038550285870087 0 0 0 0 7.8611398426564847 -14.46711228042841 0 -14.46711228042841 37.559035874728579 0 0 0 0 0.14667189260899249 -9.1375099949218566 0 -9.1375099949218566 38.731282595103039 0 0 0 0 5.1033152616954567 -16.52317159838276 0 -16.52317159838276 59.82921572093619 0 0 0 0 4.6466826563766874 -15.85023573952904 0 -15.85023573952904 20.030945749580383 0 0 0 0 -7.3282586335322693 3.7063937830203457 0 3.7063937830203457 23.591524759068051 0 0 0 0 -6.0155445538157437 9.3593313678065897 0 9.3593313678065897 43.975101268559229 0 0 0 0 21.033567234570455 -26.096520429724478 0 -26.096520429724478 37.45842773761251 0 0 0 0 -4.869907268067891 -16.136045681778342 0 -16.136045681778342 59.611903869372327 0 0 0 0 -58.976066927610646 10.249232476489851 0 10.249232476489851 68.518791777460137 0 0 0 0 -44.91805294562073 2.0264225118007744 0 2.0264225118007744 36.280191258993 0 0 0 0 -0.61542333580417186 0.27357120034795912 0 0.27357120034795912 0.47104764397121812 0 0 0 0 -29.77459845003159 36.18459002149757 0 36.18459002149757 -0.22404653833655175 0 0 0 0 -3.2987299254882601 -26.028844822052633 0 -26.028844822052633 88.367089525287156 0 0 0 0 -65.713816322750063 18.99745136545971 0 18.99745136545971 47.495226038619876 0 0 0 0 -39.839445458888349 -20.04069269678439 0 -20.04069269678439 45.672205338662025 0 0 0 0 -16.896861137411179 -65.044480825563369 0 -65.044480825563369 129.69040529329504 0 0 0 0 -28.723656562507358 -7.9333779247826897 0 -7.9333779247826897 61.863977362867445 0 0 0 0 -18.102664968935642 -10.684157042735023 0 -10.684157042735023 40.937227800641267 0 0 0 0 -24.098727244394013 -22.154132682233467 0 -22.154132682233467 54.096077083377168 0 0 0 0 -11.596121269205469 -39.577342677861452 0 -39.577342677861452 75.075142992296605 0 0 0 0 -14.139021822860741 6.9869146861601621 0 6.9869146861601621 7.9186713633025647 0 0 0 0 -14.008777044575254 -14.598500055377372 0 -14.598500055377372 30.954646598627733 0 0 0 0 -33.653530211190173 5.4476421164799831 0 5.4476421164799831 36.22208653355483 0 0 0 0 10.225532512008613 -51.523537753950222 0 -51.523537753950222 -12.980818424644895 0 0 0 0 -8.0154665490658772 -30.043205068461248 0 -30.043205068461248 34.683129030076088 0 0 0 0 29.951360575929357 -85.799659957687254 0 -85.799659957687254 45.972900362910877 0 0 0 0 -2.2484563364437236 -24.898038707811793 0 -24.898038707811793 39.193683578341734 0 0 0 0 1.9508756220830037 -42.136842527921544 0 -42.136842527921544 48.757264575076988 0 0 0 0 4.7540395490996161 -53.125452438718639 0 -53.125452438718639 61.015118520532269 0 0 0 0 0.17825185853507719 -22.12604550801916 0 -22.12604550801916 59.034478345769458 0 0 0 0 -0.12517232800035494 -1.8345133552097366 0 -1.8345133552097366 5.5058434885511929 0 0 0 0 -14.743673321827828 -10.036797324268264 0 -10.036797324268264 21.066482125155744 0 0 0 0 -10.558203411771956 3.4256964285668801 0 3.4256964285668801 11.239421316422522 0 0 0 0 -7.1106989652478205 -6.5466165938469203 0 -6.5466165938469203 -8.8950864151120186 0 0 0 0 6.177461903654148 10.776220546671539 0 10.776220546671539 60.734871791151818 0 0 0 0 3.6153775565604289 -2.1743349930658269 0 -2.1743349930658269 5.914252242914813 0 0 0 0 -2.2736871280344113 -1.027358351134211 0 -1.027358351134211 0.66030133098331589 0 0 0 0 -9.6641382461961598 11.858596155201667 0 11.858596155201667 115.86819647601806 0 0 0 0 -12.466258804865447 -9.1026274169562384 0 -9.1026274169562384 5.9138912533235271 0 0 0 0 52.009859230688562 -20.470201170537621 0 -20.470201170537621 81.142597744154045 0 0 0 0 24.410145712618942 32.827729927288601 0 32.827729927288601 73.612071107869269 0 0 0 0 -13.355460736784721 -18.355391533368675 0 -18.355391533368675 105.12948090134887 0 0 0 0 -3.9547593508295904 -0.39584457757882774 0 -0.39584457757882774 132.47971180611057 0 0 0 0 1.6993677322893266 -0.73129448147898302 0 -0.73129448147898302 0.58472173975090413 0 0 0 0 1.472292615805145 11.367555457894923 0 11.367555457894923 273.12434496640344 0 0 0 0 22.254940822253729 46.471709554203699 0 46.471709554203699 131.30707187642111 0 0 0 0 -37.65273894953134 22.473516670754179 0 22.473516670754179 536.07276857551187 0 0 0 0 50.102655232640245 -479.70814127288759 0 -479.70814127288759 110.16854731379863 0 0 0 0 22.202212668734774 -20.630032420202042 0 -20.630032420202042 24.872694531455636 0 0 0 0 -0.24895000797368994 6.0039648062956985 0 6.0039648062956985 -3.1632137915439671 0 0 0 0 -5.0693868205985382 -44.775326360409963 0 -44.775326360409963 207.98508370184572 0 0 0 0 0.80858635223414321 0.15270146524864003 0 0.15270146524864003 0.070310249140945302 0 0 0 0 46.441469867585056 -28.273192956694402 0 -28.273192956694402 -38.973660372197628 0 0 0 0 21.195375856425244 -27.882439875909768 0 -27.882439875909768 52.359379034925951 0 0 0 0 17.378975840638759 -11.358513523045985 0 -11.358513523045985 140.52311944165558 0 0 0 0 -24.402349911061719 -18.15516667337215 0 -18.15516667337215 111.19092617216302 0 0 0 0 -26.93906678654821 1.9569603560448741 0 1.9569603560448741 80.075219298101729 0 0 0 0 11.997090628061642 -0.72407500501867617 0 -0.72407500501867617 11.640378410505946 0 0 0 0 2.3159280368268638 -0.71437536897568066 0 -0.71437536897568066 0.39735397817944573 0 0 0 0 1.9034116002677091 2.9074990603143078 0 2.9074990603143078 8.8270319498863046 0 0 0 0 -16.079662301270105 4.0892937994140084 0 4.0892937994140084 23.467537579475902 0 0 0 0 53.705871607450376 -55.679995264468744 0 -55.679995264468744 75.673139833772439 0 0 0 0 -11.078052430877278 -8.7224197499817819 0 -8.7224197499817819 22.470701460041255 0 0 0 0 6.5160944504359346 -2.5222296397359827 0 -2.5222296397359827 -5.6294528750247252 0 0 0 0 64.33322702233454 -37.730416228587274 0 -37.730416228587274 19.106040233018575 0 0 0 0 1.2745029503055898 0.093653342339081291 0 0.093653342339081291 -0.37988958343640888 0 0 0 0 33.129358976113053 25.733493026826181 0 25.733493026826181 38.703474290283339 0 0 0 0 8.6641854336480719 -37.843098723795265 0 -37.843098723795265 95.946844930411316 0 0 0 0 92.175283367888369 -94.613319582131226 0 -94.613319582131226 118.21979740628012 0 0 0 0 99.962268303459183 0.2263502417035852 0 0.2263502417035852 57.885817803908139 0 0 0 0 55.916495695843878 -94.9074553209648 0 -94.9074553209648 117.89816623472143 0 0 0 0 22.60244110053759 -61.782193637118326 0 -61.782193637118326 99.350262595660752 0 0 0 0 -97.474350481461897 -61.001615970017156 0 -61.001615970017156 74.63913123041857 0 0 0 0 33.361778583869636 -58.942854732391424 0 -58.942854732391424 70.277179434924619 0 0 0 0 34.976649815956534 -43.360208425612655 0 -43.360208425612655 157.28135842195479 0 0 0 0 -0.33541147254687953 0.29036246916496111 0 0.29036246916496111 0.43532756529114636 0 0 0 0 57.965904788585249 -56.17074925583438 0 -56.17074925583438 56.847680770399165 0 0 0 0 43.302283042015915 -59.828599882792332 0 -59.828599882792332 56.347847834578715 0 0 0 0 32.747177359243778 -15.626535553805297 0 -15.626535553805297 23.63757728719429 0 0 0 0 36.226198360950548 -21.150142599508399 0 -21.150142599508399 14.275948700451409 0 0 0 0 75.092030928463373 -73.589273036050145 0 -73.589273036050145 22.531081868219189 0 0 0 0 9.0498689060520974 -22.154082343637128 0 -22.154082343637128 45.836147713664104 0 0 0 0 15.644471880820262 -51.043562733977524 0 -51.043562733977524 87.074465175668593 0 0 0 0 22.475646870925679 -64.241359905023728 0 -64.241359905023728 82.884397322850418 0 0 0 0 57.034246560500378 -42.296692486444954 0 -42.296692486444954 68.509845419066551 0 0 0 0 16.647917303917723 -63.433693156570371 0 -63.433693156570371 110.81017258654174 0 0 0 0 -0.14819896537378874 0.06177878193267361 0 0.06177878193267361 0.39195927317086898 0 0 0 0 44.754624727138776 -40.167713086029835 0 -40.167713086029835 63.39865616588213 0 0 0 0 -21.055106255627379 -48.543613599933451 0 -48.543613599933451 132.3053901958192 0 0 0 0 -0.015908434446373576 -14.873655615243479 0 -14.873655615243479 101.63262191529793 0 0 0 0 -11.500377719263156 -36.765279812156223 0 -36.765279812156223 70.428747307509184 0 0 0 0 -27.523985999518118 -5.4056036896217847 0 -5.4056036896217847 61.909852577708079 0 0 0 0 3.9495914636393081 -24.058058914226422 0 -24.058058914226422 36.844350981788011 0 0 0 0 -4.8942639005979913 -34.699781377334148 0 -34.699781377334148 74.932418458163738 0 0 0 0 -30.031148071736311 -28.523705569190497 0 -28.523705569190497 46.760336376726627 0 0 0 0 18.163267216919962 -35.58179801364895 0 -35.58179801364895 84.153771666940884 0 0 0 0 19.112410576301727 -23.426746507364442 0 -23.426746507364442 45.641835930968227 0 0 0 0 11.647586091096457 -36.745852497850137 0 -36.745852497850137 85.638610613183118 0 0 0 0 22.088363624747785 -50.97610890994838 0 -50.97610890994838 89.681085478288878 0 0 0 0 35.249986071532589 -48.474714369367575 0 -48.474714369367575 67.255720359575207 0 0 0 0 116.10307571440148 -120.9888091800749 0 -120.9888091800749 137.99206954223337 0 0 0 0 106.13689425080508 -133.23630506560585 0 -133.23630506560585 131.85900270563434 0 0 0 0 0.087021235365266056 1.9175862989415435 0 1.9175862989415435 4.2086400293562178 0 0 0 0 -0.091203471843164463 0.075802360522658319 0 0.075802360522658319 0.36720413759172743 0 0 0 0 82.905391346507599 -85.817662576954717 0 -85.817662576954717 93.202854737755843 0 0 0 0 69.506429254807017 -71.196214571216842 0 -71.196214571216842 77.565346254195902 0 0 0 0 7.0408274407851987 12.899931705404015 0 12.899931705404015 5.2249253879781463 0 0 0 0 -40.89832604629256 5.1626733826997224 0 5.1626733826997224 -4.3908139561099233 0 0 0 0 -0.052690473948514227 0.075362865643228361 0 0.075362865643228361 0.025793700803234287 0 0 0 0 48.80363835931081 -96.212625596373982 0 -96.212625596373982 133.32778804955524 0 0 0 0 6.2903722514173523 35.190290158556309 0 35.190290158556309 -0.5942174133961089 0 0 0 0 0.30753241636873857 3.1759676531429619 0 3.1759676531429619 5.6913205644756601 0 0 0 0 -12.091706900629475 -4.3517024786924594 0 -4.3517024786924594 8.3401880130986683 0 0 0 0 -7.2514050852696244 28.994107618011185 0 28.994107618011185 -1.1506700929021463 0 0 0 0 -7.3067268534336911 9.3785776061745594 0 9.3785776061745594 13.312893528840505 0 0 0 0 15.971735469634353 6.4103774469112977 0 6.4103774469112977 7.869489530006831 0 0 0 0 -3.9031706289006038 -15.293698091900296 0 -15.293698091900296 72.807093050912954 0 0 0 0 -0.66469102799699442 -12.253079230868025 0 -12.253079230868025 29.8212746845129 0 0 0 0 -11.721191166715698 6.3299539392319275 0 6.3299539392319275 44.830613703772542 0 0 0 0 23.959956159104415 -31.217630859984297 0 -31.217630859984297 47.682639615944936 0 0 0 0 -0.034626333424616157 -15.858305665311491 0 -15.858305665311491 77.549041287551518 0 0 0 0 18.263719691872772 -40.973509048722917 0 -40.973509048722917 91.393189212380094 0 0 0 0 25.068546102788723 14.860485976401833 0 14.860485976401833 47.490581390266016 0 0 0 0 3.4336992541104694 -5.5639907309196133 0 -5.5639907309196133 33.122444629378151 0 0 0 0 -5.3529777278419601 13.474359154934064 0 13.474359154934064 24.0678346684399 0 0 0 0 0.026512019311636371 -2.8306674447303521 0 -2.8306674447303521 27.04267975215771 0 0 0 0 -0.029057453563455276 0.01416024277023098 0 0.01416024277023098 0.0061105691777640914 0 0 0 0 16.7125563575805 -6.8011967003694735 0 -6.8011967003694735 -6.9304888453916647 0 0 0 0 -9.7605594292804305 28.427586299752875 0 28.427586299752875 -13.537648143290426 0 0 0 0 81.328289953335144 -105.47606604202883 0 -105.47606604202883 165.36963980075961 0 0 0 0 0.0036019098632022826 -6.2771587265488051 0 -6.2771587265488051 -15.687527773145121 0 0 0 0 -14.44944543826831 -11.81044014186773 0 -11.81044014186773 0.8662928799585643 0 0 0 0 -47.340266129176456 102.43268948563491 0 102.43268948563491 107.0229969706852 0 0 0 0 -0.025734963963745194 0.60014061669784269 0 0.60014061669784269 1.7956817376187075 0 0 0 0 15.237255700358702 28.413217642053496 0 28.413217642053496 493.45148423449427 0 0 0 0 40.674112445403409 42.467451880736917 0 42.467451880736917 423.73338448010327 0 0 0 0 0.015064433007967816 -61.794217887436389 0 -61.794217887436389 549.37678224936826 0 0 0 0 46.780827108436966 52.818051343369007 0 52.818051343369007 444.28358150002828 0 0 0 0 43.304670068887106 113.50520829453308 0 113.50520829453308 272.51096180820605 0 0 0 0 132.15131019010488 -136.14563577839908 0 -136.14563577839908 183.33860963715415 0 0 0 0 121.14598732755371 -190.50305628892238 0 -190.50305628892238 465.09092822676757 0 0 0 0 29.559784637027064 -33.054922510666074 0 -33.054922510666074 338.93592697120039 0 0 0 0 41.791934822840517 -85.535884385077225 0 -85.535884385077225 140.87455125692941 0 0 0 0 -21.220620623431955 -30.145686935546109 0 -30.145686935546109 149.57569685377348 0 0 0 0 36.372478239303575 -49.406531323587842 0 -49.406531323587842 121.70049632855807 0 0 0 0 6.1276614997800039 -22.296727931447094 0 -22.296727931447094 91.280395432520891 0 0 0 0 -1.0806524560650814 -30.947289589610591 0 -30.947289589610591 105.27596197380626 0 0 0 0 6.6680654634924394 -40.721041845536092 0 -40.721041845536092 85.75749997193634 0 0 0 0 9.3831525132859497 -56.428297185426345 0 -56.428297185426345 115.08959450651309 0 0 0 0 -42.294748784420278 5.4050697901984677 0 5.4050697901984677 102.39318611117778 0 0 0 0 51.812532022988648 23.830387530571898 0 23.830387530571898 -39.341007893657661 0 0 0 0 0.94373590718741984 1.2373624542417758 0 1.2373624542417758 0.64742603107389129 0 0 0 0 47.17960381988938 120.06709477165168 0 120.06709477165168 148.97528454425628 0 0 0 0 -180.80225771304822 172.68651391941239 0 172.68651391941239 666.40776988501239 0 0 0 0 -127.34126978451764 122.94299384296755 0 122.94299384296755 703.30367859834223 0 0 0 0 -163.26609048075613 237.08625797199056 0 237.08625797199056 895.11241041158792 0 0 0 0 -168.03128206177752 -17.095762557903072 0 -17.095762557903072 432.75810348067898 0 0 0 0 -221.05257666514854 -50.487657300094725 0 -50.487657300094725 904.9764674366138 0 0 0 0 448.17507714445094 170.96197634716373 0 170.96197634716373 141.14936396601843 0 0 0 0 -143.84990846951689 -156.53840390704863 0 -156.53840390704863 458.43951737112366 0 0 0 0 0.57481377603832962 2.0298728223217601 0 2.0298728223217601 7.4561998302559118 0 0 0 0 -142.7148151423462 -149.05960245844108 0 -149.05960245844108 467.92794538140879 0 0 0 0 -58.302870906422442 -34.183901825628709 0 -34.183901825628709 137.73052658457891 0 0 0 0 -105.59587409263224 -144.84334681902692 0 -144.84334681902692 60.45812366809696 0 0 0 0 -67.141586652192927 -32.21585236939427 0 -32.21585236939427 361.06368923261471 0 0 0 0 -40.384431981967964 -18.702269708432141 0 -18.702269708432141 146.8118819683441 0 0 0 0 -15.737547224164672 -76.601752150116226 0 -76.601752150116226 183.85495515924413 0 0 0 0 -0.59801099768551325 38.2185509216215 0 38.2185509216215 219.68573399880552 0 0 0 0 -0.0033085480609770057 55.210236829687346 0 55.210236829687346 289.82652321746718 0 0 0 0 24.827394863777318 -18.342889509043744 0 -18.342889509043744 359.58246365035302 0 0 0 0 -11.235604848085941 23.113215046811092 0 23.113215046811092 444.9053738987925 0 0 0 0 54.610027158655157 67.704492771390505 0 67.704492771390505 364.79945984513324 0 0 0 0 -0.81860499543657284 -4.3389407317121425 0 -4.3389407317121425 11.533368434040909 0 0 0 0 -3.0155649498364472 -5.2423679066923796 0 -5.2423679066923796 21.221788884460693 0 0 0 0 430.91888875594793 884.77157886225177 0 884.77157886225177 553.89690374562633 0 0 0 0 -0.00088724780693894131 -4.9698442888948193 0 -4.9698442888948193 6.1901887383355643 0 0 0 0 -0.30520435446130989 3.8038918315214687 0 3.8038918315214687 16.823604188291938 0 0 0 0 -0.81189490466860359 -0.032832615412800692 0 -0.032832615412800692 3.9644590777095914 0 0 0 0 579.81589979502189 882.73052674315113 0 882.73052674315113 607.40245013269305 0 0 0 0 394.5798008030747 59.512523778401373 0 59.512523778401373 19.19686789624393 0 0 0 0 -33.800731644753114 523.69274502836925 0 523.69274502836925 731.27223353755835 0 0 0 0 -158.93028130027164 109.94802957814682 0 109.94802957814682 124.88112108886708 0 0 0 0 291.62883958793975 760.58652767845706 0 760.58652767845706 560.43051242684305 0 0 0 0 -244.45367802826786 63.836894632600888 0 63.836894632600888 1540.1575632261229 0 0 0 0 -334.52231936935107 432.9861439177912 0 432.9861439177912 33.050813866138924 0 0 0 0 358.36817932674171 -1154.4016547698848 0 -1154.4016547698848 762.16143078211462 0 0 0 0 -3.4230039205137444 -1.628289738393093 0 -1.628289738393093 31.324281921376553 0 0 0 0 -321.32500773176127 92.79114315031984 0 92.79114315031984 511.38003514238517 0 0 0 0 -1184.1988736333205 102.51914596751158 0 102.51914596751158 630.03081911587651 0 0 0 0 676.65254916673859 332.70912036047957 0 332.70912036047957 -46.806936149354442 0 0 0 0 785.66801856879647 760.06324249598765 0 760.06324249598765 523.60096712963423 0 0 0 0 2.0434189345864073 -9.4491410148266084 0 -9.4491410148266084 27.238178955273384 0 0 0 0 -1086.6246012220608 -584.57385885383701 0 -584.57385885383701 61.87040387550951 0 0 0 0 -1.3278924145678292 -0.80930902536513116 0 -0.80930902536513116 14.614334432675776 0 0 0 0 2.2955822183518317 3.4244705736584251 0 3.4244705736584251 6.4401528381991966 0 0 0 0 280.9853073127324 -871.62108822220034 0 -871.62108822220034 -271.2048007892281 0 0 0 0 0.88206948407250829 1.9243580804456712 0 1.9243580804456712 26.275252835114259 0 0 0 0 -309.69473937723933 34.520346056691778 0 34.520346056691778 146.86361336271511 0 0 0 0 -718.6831318786426 1070.0722386417328 0 1070.0722386417328 4810.9104345326778 0 0 0 0 -3.7656438619095436 -8.6183614473076773 0 -8.6183614473076773 33.174251910884692 0 0 0 0 11.361425196019514 -19.334850276572979 0 -19.334850276572979 43.054901307492401 0 0 0 0 -842.90030679723895 -468.42296205827734 0 -468.42296205827734 3773.6863540501799 0 0 0 0 8.6470290907648213 6.6994329080316675 0 6.6994329080316675 39.20194988460571 0 0 0 0 -5.1660998016346174 -3.7246528064715676 0 -3.7246528064715676 62.251076464293874 0 0 0 0 3.3109196478407057 -5.5408955592865823 0 -5.5408955592865823 21.229126702717622 0 0 0 0 -0.00036285406565119685 -5.1272371932209353 0 -5.1272371932209353 25.069659282406064 0 0 0 0 -5.2310804458399218 -6.354362540616421 0 -6.354362540616421 37.708926055398479 0 0 0 0 -1.8937638520968492 -0.79794562005008629 0 -0.79794562005008629 41.201857607549755 0 0 0 0 2.1532397479087786 -14.219789739127009 0 -14.219789739127009 23.148356957011856 0 0 0 0 -0.017868174003542528 -8.6480368129850831 0 -8.6480368129850831 38.587574589706492 0 0 0 0 0.51004068529352509 -24.46318219845125 0 -24.46318219845125 53.216094406394404 0 0 0 0 7.8256593027870114 -10.279049620585283 0 -10.279049620585283 5.4234771010233089 0 0 0 0 -2.8763761062464042 -15.606549617928977 0 -15.606549617928977 22.769689594635565 0 0 0 0 -2.7606702947531931 -10.574968255823478 0 -10.574968255823478 12.672628657943278 0 0 0 0 0.028981388264758025 -8.9721960104325262 0 -8.9721960104325262 12.894070277216088 0 0 0 0 -15.432953183183127 0.69188820776616922 0 0.69188820776616922 9.8923159245605348 0 0 0 0 0.032074463708249901 0.49530797342589494 0 0.49530797342589494 1.3125726900032646 0 0 0 0 -0.069794274603855955 -0.023428798905996473 0 -0.023428798905996473 0.66593498546802721 0 0 0 0 74.463001927607365 -67.66861759602034 0 -67.66861759602034 61.967963812086964 0 0 0 0 -10.441471796475852 19.899088652940918 0 19.899088652940918 16.997373660982703 0 0 0 0 -11.230956160229482 -6.0020560998964356 0 -6.0020560998964356 33.580019782981253 0 0 0 0 48.68124302677429 -29.112358733618748 0 -29.112358733618748 21.30154486875108 0 0 0 0 15.414259060243214 -12.034461421797459 0 -12.034461421797459 13.507838532052119 0 0 0 0 30.637292708451469 -31.968817623353971 0 -31.968817623353971 23.2063052256417 0 0 0 0 -8.2971129829339816 -33.176514479433536 0 -33.176514479433536 26.704836163946311 0 0 0 0 5.4329430953978077 -11.39626454469871 0 -11.39626454469871 21.90964946157311 0 0 0 0 -85.398039012943627 0.0021291001066856552 0 0.0021291001066856552 47.795153499551816 0 0 0 0 -5.3329885877296874 67.728127927417518 0 67.728127927417518 52.285803052800475 0 0 0 0 4.5494539940462442 -10.115886297000458 0 -10.115886297000458 25.512834070972815 0 0 0 0 1.340301329704138 -1.7257433418335353 0 -1.7257433418335353 4.0920652074536861 0 0 0 0 -2.8750416186738725 -7.3401461006069439 0 -7.3401461006069439 21.048883802242926 0 0 0 0 7.9316940390391579 -24.615069453087926 0 -24.615069453087926 14.054786564207689 0 0 0 0 28.128657842256779 -17.055750374616764 0 -17.055750374616764 13.018434363693814 0 0 0 0 -12.624266651983191 5.5910110578115564 0 5.5910110578115564 77.137865078060713 0 0 0 0 -2.7935075121244188 2.3674844836501023 0 2.3674844836501023 4.2705613295190687 0 0 0 0 -2.6157063483508622 -2.7471384462073871 0 -2.7471384462073871 32.659118844333364 0 0 0 0 17.705510492012763 1.2945988168285112 0 1.2945988168285112 28.240994381267228 0 0 0 0 -6.5888881454837929 -4.4223567151311727 0 -4.4223567151311727 26.972997551245498 0 0 0 0 1.8071978653340821 -16.803815418247495 0 -16.803815418247495 31.174695329554254 0 0 0 0 13.055105827444095 -196.43693676357725 0 -196.43693676357725 -91.293994339663186 0 0 0 0 68.956937455063326 23.860603241362696 0 23.860603241362696 -7.7380339986411855 0 0 0 0 6.8082453318833362 -21.28471005871117 0 -21.28471005871117 31.84973516317504 0 0 0 0 133.15904773849434 -50.892966381099541 0 -50.892966381099541 28.006311834611552 0 0 0 0 -7.6665640890446412 -25.928551797722321 0 -25.928551797722321 23.640069206783664 0 0 0 0 -27.894144739748754 45.727379101328552 0 45.727379101328552 146.99985639215447 0 0 0 0 -59.544786609174935 -67.636366032667866 0 -67.636366032667866 27.897558929405932 0 0 0 0 122.96114715467729 -109.16104695743707 0 -109.16104695743707 21.880911388459936 0 0 0 0 -12.802758313433287 16.49622537038158 0 16.49622537038158 36.478086812101537 0 0 0 0 1.4424740632147444 0.62432861234142933 0 0.62432861234142933 -0.094689150223359775 0 0 0 0 2.0001322302016877 -1.3079189525350898 0 -1.3079189525350898 10.688573137162777 0 0 0 0 14.154590238576361 -3.1345971685732366 0 -3.1345971685732366 27.007767242961563 0 0 0 0 -29.686882515713702 -39.080843415100162 0 -39.080843415100162 70.491628729476361 0 0 0 0 18.008061804607678 -3.232126084054471 0 -3.232126084054471 12.474029346696625 0 0 0 0 13.073312099597615 2.2446841447090264 0 2.2446841447090264 9.5516278539871564 0 0 0 0 6.5030134574868441 -21.483779796350063 0 -21.483779796350063 9.2311540266673546 0 0 0 0 19.603751240671727 -10.647308598716336 0 -10.647308598716336 -0.88550961160217412 0 0 0 0 5.4123842590759068 -10.148887505377857 0 -10.148887505377857 19.874177574131579 0 0 0 0 4.3300976994402163 -38.239513189999343 0 -38.239513189999343 -10.753004858750501 0 0 0 0 34.798549751901646 -9.5949451602500631 0 -9.5949451602500631 -21.275669749971712 0 0 0 0 7.4951605634288585 -16.589154900442821 0 -16.589154900442821 25.761644837112442 0 0 0 0 18.449613742399379 -58.956446521267935 0 -58.956446521267935 13.015354227701664 0 0 0 0 10.231043888139084 -6.5897738360217772 0 -6.5897738360217772 28.230323698546272 0 0 0 0 12.041909237336426 -9.7270015180038172 0 -9.7270015180038172 33.551144722485333 0 0 0 0 10.486031914235809 -21.202757425475284 0 -21.202757425475284 6.1510045511859062 0 0 0 0 19.747342132101409 -13.225858883022738 0 -13.225858883022738 17.666341390780872 0 0 0 0 43.983209841117286 -48.127654354510014 0 -48.127654354510014 20.092872480017832 0 0 0 0 7.0447834900776414 -6.1938339695643805 0 -6.1938339695643805 -2.2339381873898105 0 0 0 0 39.997395848729866 -32.019498089983244 0 -32.019498089983244 -22.04373690596185 0 0 0 0 5.8203286492071129 -5.9142592360003619 0 -5.9142592360003619 7.8466040338971652 0 0 0 0 16.020975140823793 -9.4170984890079126 0 -9.4170984890079126 18.10238882127851 0 0 0 0 13.354781513850547 -14.301126782502308 0 -14.301126782502308 17.749499879671873 0 0 0 0 10.887522742450988 -15.829125089415271 0 -15.829125089415271 30.15729902556393 0 0 0 0 9.7464972882462284 -9.9561300571357521 0 -9.9561300571357521 6.4615213003882559 0 0 0 0 6.7502685966075493 -7.7412877933050481 0 -7.7412877933050481 9.5744626342435311 0 0 0 0 11.360731452492701 -3.6340304421807303 0 -3.6340304421807303 -0.63168566099707846 0 0 0 0 6.0085601478201625 -4.9485779385795468 0 -4.9485779385795468 16.464013105294725 0 0 0 0 50.158860270183141 16.680155758673209 0 16.680155758673209 -12.778797743163523 0 0 0 0 35.255787862894067 -9.3008609263488324 0 -9.3008609263488324 -10.074863215573714 0 0 0 0 0.73065874622718319 6.1327645062790452 0 6.1327645062790452 -3.9519266643494575 0 0 0 0 2.7211465218988451 -80.131224130629562 0 -80.131224130629562 -72.967151993128937 0 0 0 0 103.05272967086148 -10.938306020834716 0 -10.938306020834716 -87.331617309875583 0 0 0 0 122.01848477444219 14.617771394820011 0 14.617771394820011 4.4999909009311523 0 0 0 0 37.810909271167475 8.5578262917952088 0 8.5578262917952088 4.4838711258926196 0 0 0 0 -1.2044076714806771 1.6100436630013704 0 1.6100436630013704 -0.54527480657608862 0 0 0 0 241.8525266129227 461.45868138376318 0 461.45868138376318 271.74558255201555 0 0 0 0 307.54675514640621 956.11175303837081 0 956.11175303837081 1406.8892566126888 0 0 0 0 1332.9481598141338 682.40158426648122 0 682.40158426648122 316.07949516600638 0 0 0 0 57.079235907624025 322.66391903923068 0 322.66391903923068 1697.3514269182342 0 0 0 0 480.74906321121216 -280.27274107184348 0 -280.27274107184348 1018.9217803517749 0 0 0 0 416.35763070815028 12.005695832067431 0 12.005695832067431 133.67263810099394 0 0 0 0 66.924855422084192 -26.871928032422147 0 -26.871928032422147 136.59795746758755 0 0 0 0 91.674758261694024 -56.418811495648697 0 -56.418811495648697 792.84156831502332 0 0 0 0 118.00208112822565 -90.261745334290026 0 -90.261745334290026 173.06964268931915 0 0 0 0 -139.02941289291903 -180.23055798230052 0 -180.23055798230052 49.549759273257223 0 0 0 0 -96.526699679219746 -6.6278891194597236 0 -6.6278891194597236 146.92599498051277 0 0 0 0 -31.637379639998017 -27.999351106955146 0 -27.999351106955146 1.5396406212530565 0 0 0 0 46.777582643551796 263.98630968062025 0 263.98630968062025 648.64784883269749 0 0 0 0 80.068342402706094 582.35055810671474 0 582.35055810671474 307.55365800262371 0 0 0 0 110.18384772799209 287.1941389763233 0 287.1941389763233 606.4261686095997 0 0 0 0 159.16400875263116 433.71477875131677 0 433.71477875131677 836.66913523635321 0 0 0 0 379.87263319138856 173.57565844875353 0 173.57565844875353 1008.3712046574146 0 0 0 0 -67.779041059262909 462.794120748149 0 462.794120748149 1107.9935413644707 0 0 0 0 515.44130218810005 534.08534917815996 0 534.08534917815996 311.68709593365929 0 0 0 0 629.04561218897425 275.95370272543732 0 275.95370272543732 552.52684363161097 0 0 0 0 431.19962713027121 336.9559482310724 0 336.9559482310724 231.20917112566531 0 0 0 0 320.74675916371007 387.43474020980648 0 387.43474020980648 763.43057771078747 0 0 0 0 1.183894157238579 -1.4764453695939022 0 -1.4764453695939022 20.446052817276041 0 0 0 0 616.81770942914454 -387.32208918420201 0 -387.32208918420201 398.72482454336568 0 0 0 0 910.73934372908298 930.93473627723506 0 930.93473627723506 881.61038526243283 0 0 0 0 -321.39281076862562 391.9183959579459 0 391.9183959579459 361.35955955292593 0 0 0 0 -415.52244161266731 -508.94955349127486 0 -508.94955349127486 -62.327077342779376 0 0 0 0 56.284500685247252 -158.33979981459561 0 -158.33979981459561 -119.89683238287398 0 0 0 0 34.155368818817806 21.403614999515412 0 21.403614999515412 113.70925908822392 0 0 0 0 -986.50715695690451 -254.12793377725757 0 -254.12793377725757 212.24940832018183 0 0 0 0 -28.52171912947415 47.886529165636603 0 47.886529165636603 7.7405944272177294 0 0 0 0 -91.818313660069634 18.399021326349612 0 18.399021326349612 30.877418819291051 0 0 0 0 -0.14200465633920523 -9.4272073570724988 0 -9.4272073570724988 26.03924767770809 0 0 0 0 -725.53631344514713 -263.4015477140083 0 -263.4015477140083 4.6802878721355228 0 0 0 0 1.8292231602172251 45.819043512950884 0 45.819043512950884 -9.2842956712192972 0 0 0 0 -663.27149996872072 -44.73307560750618 0 -44.73307560750618 -19.009121002076427 0 0 0 0 -0.73852678291067075 -2.3271667366330107 0 -2.3271667366330107 10.013332528494544 0 0 0 0 14.945657282752109 -20.443587556488637 0 -20.443587556488637 -6.4752359564545259 0 0 0 0 -111.3051849685894 -63.003765185512748 0 -63.003765185512748 216.32329264716827 0 0 0 0 -0.49285246594745546 -6.0283366296599681 0 -6.0283366296599681 27.076474013068406 0 0 0 0 -77.049703578203207 -148.28697099382589 0 -148.28697099382589 15.43230668126489 0 0 0 0 92.359063318913854 140.22924445487479 0 140.22924445487479 295.48802408758638 0 0 0 0 -115.31544089890872 -163.61405211289457 0 -163.61405211289457 589.34034473354404 0 0 0 0 209.83192835173986 -154.87722878980276 0 -154.87722878980276 12.563348125941047 0 0 0 0 179.54017683319103 -331.83024983987434 0 -331.83024983987434 -411.98176681406039 0 0 0 0 292.48146324788468 319.83279033303552 0 319.83279033303552 -93.530181038742739 0 0 0 0 -1076.1356864566101 -142.47010535799973 0 -142.47010535799973 358.94925495630014 0 0 0 0 -118.47416495363404 175.53416415229549 0 175.53416415229549 150.83436787953542 0 0 0 0 360.50826514011169 945.07193018099497 0 945.07193018099497 716.81173378600579 0 0 0 0 7.5276127329873361 -23.381249310676139 0 -23.381249310676139 600.3219612631874 0 0 0 0 537.54789489534983 843.38052926551973 0 843.38052926551973 711.34333856066223 0 0 0 0 -272.15216198936287 674.04148420373167 0 674.04148420373167 1189.1329772034514 0 0 0 0 226.13391673703154 472.04192959726424 0 472.04192959726424 1269.7829784385976 0 0 0 0 418.62466250156604 500.84957663511159 0 500.84957663511159 543.8109032745997 0 0 0 0 346.8860149164725 151.40945136381924 0 151.40945136381924 -87.695192257211602 0 0 0 0 3.9646416620159215 5.0503571166058805 0 5.0503571166058805 4.0244733684876905 0 0 0 0 32.567530336395976 63.598000912534189 0 63.598000912534189 6.3843495207984233 0 0 0 0 2.2835517735799868 -3.769429333777282 0 -3.769429333777282 13.627002886020136 0 0 0 0 -102.58436839713158 -214.38818072657159 0 -214.38818072657159 172.74423952163488 0 0 0 0 120.41455982604111 -77.558420997564099 0 -77.558420997564099 191.50309374547942 0 0 0 0 445.43326676954518 145.50185191376659 0 145.50185191376659 31.251934253872605 0 0 0 0 57.504746599600821 -124.86972632267134 0 -124.86972632267134 -345.23580058012158 0 0 0 0 19.178788788185557 2.7843847216281574 0 2.7843847216281574 20.697501983908296 0 0 0 0 3.9211390553019174 -12.507846231993994 0 -12.507846231993994 31.967536297659109 0 0 0 0 268.43586325691535 175.83726282034149 0 175.83726282034149 108.07121740514413 0 0 0 0 161.96885431028477 -2.1764227134990506 0 -2.1764227134990506 -190.17132796398073 0 0 0 0 -0.35228650523185934 -62.905806808470516 0 -62.905806808470516 74.020656947483076 0 0 0 0 -13.564704078878322 -22.868036113532071 0 -22.868036113532071 38.018706528062467 0 0 0 0 0.63669825151660753 1.4908431566901577 0 1.4908431566901577 -0.39537782876953997 0 0 0 0 -1.2899524972694962 -35.985505527598434 0 -35.985505527598434 38.41220394152333 0 0 0 0 -2.6830048901381414 -2.2741842670722292 0 -2.2741842670722292 10.388248037471158 0 0 0 0 199.29698539737473 304.1505971706215 0 304.1505971706215 221.83517849117925 0 0 0 0 178.39871183397463 288.44082416174933 0 288.44082416174933 214.74186663958244 0 0 0 0 254.65722968476348 216.75451193012123 0 216.75451193012123 116.99554569315478 0 0 0 0 216.67653617910219 81.690578967463807 0 81.690578967463807 -34.288975499483058 0 0 0 0 160.68141152636986 161.7144725801918 0 161.7144725801918 135.81503418859211 0 0 0 0 383.58576623787212 261.10381953496108 0 261.10381953496108 115.70208782202008 0 0 0 0 395.83180920841642 370.07372511308586 0 370.07372511308586 256.7157733333006 0 0 0 0 287.02809196429007 168.51414270575697 0 168.51414270575697 77.585024687839905 0 0 0 0 375.05095134348448 439.66758009253681 0 439.66758009253681 258.56615848585716 0 0 0 0 48.282213376497566 417.17299544670823 0 417.17299544670823 636.27588419644599 0 0 0 0 -22.92475624771555 168.5058485227255 0 168.5058485227255 419.45624327503901 0 0 0 0 220.03649594502645 704.20180807313409 0 704.20180807313409 1573.8720010014658 0 0 0 0 742.93638491245565 151.73143687019183 0 151.73143687019183 375.6276970546096 0 0 0 0 0.19068434481030716 -1.6302498369680274 0 -1.6302498369680274 12.076966991332426 0 0 0 0 466.3572449012612 -390.88957170530284 0 -390.88957170530284 201.55694154271623 0 0 0 0 -372.9322313118314 269.16275724559819 0 269.16275724559819 643.76888670654444 0 0 0 0 -450.73365854628673 -203.05288475481939 0 -203.05288475481939 225.25202708374127 0 0 0 0 -99.293344106810764 -146.75973466081996 0 -146.75973466081996 -212.11115836671524 0 0 0 0 -61.106218220478695 2.0394523865616065 0 2.0394523865616065 62.057576727970627 0 0 0 0 -106.68789503002199 -121.63621163349308 0 -121.63621163349308 52.916029937812709 0 0 0 0 -312.98017204662574 -13.141145336852787 0 -13.141145336852787 442.07285910483188 0 0 0 0 -35.194736718074637 133.8501603777986 0 133.8501603777986 402.20824539850582 0 0 0 0 -70.096732222287869 170.08333129860512 0 170.08333129860512 368.36580020248948 0 0 0 0 -23.859799332537023 -3.1052943211507227 0 -3.1052943211507227 371.10199158194155 0 0 0 0 -154.57917990582337 -33.07793082734679 0 -33.07793082734679 364.25226250875858 0 0 0 0 20.10255596649381 5.0875365863012121 0 5.0875365863012121 318.68976470034249 0 0 0 0 190.43817296939687 233.74536573622754 0 233.74536573622754 383.66471092078064 0 0 0 0 201.31469513658817 284.28125597454482 0 284.28125597454482 307.38421271077823 0 0 0 0 -159.91417647327444 -211.5264332524057 0 -211.5264332524057 126.04270377822104 0 0 0 0 -169.34052171155599 114.57403569666349 0 114.57403569666349 65.138564033157309 0 0 0 0 -63.473238136826922 63.033079311173424 0 63.033079311173424 262.58492265523819 0 0 0 0 -87.276557854672774 -106.71272848709486 0 -106.71272848709486 224.87100755956089 0 0 0 0 -161.34448901411884 -117.87805076142649 0 -117.87805076142649 438.13350474814797 0 0 0 0 -87.630407879440327 72.767934335217433 0 72.767934335217433 505.31366815511865 0 0 0 0 -95.603127527785546 -79.405621291371062 0 -79.405621291371062 183.07754602082423 0 0 0 0 -104.10325670665861 10.067395201978798 0 10.067395201978798 268.65172300584527 0 0 0 0 -59.434830259485352 12.931408449745504 0 12.931408449745504 131.52626118377157 0 0 0 0 50.276727951021712 -25.176259481107991 0 -25.176259481107991 -16.290828683646396 0 0 0 0 -31.243321547784333 -6.6202985749161343 0 -6.6202985749161343 21.303259668981561 0 0 0 0 -47.021986902695517 -40.067202358444774 0 -40.067202358444774 147.89729926047585 0 0 0 0 7.1490313363828655 -33.470472181807182 0 -33.470472181807182 81.742619607123146 0 0 0 0 -29.541895324844063 -39.312964766597361 0 -39.312964766597361 97.297621854748286 0 0 0 0 -10.506888776558025 -0.96597775295660426 0 -0.96597775295660426 -3.788075716725352 0 0 0 0 -120.33507676703437 103.28951555519598 0 103.28951555519598 50.543770566397143 0 0 0 0 -325.21407440116127 -569.68202162856323 0 -569.68202162856323 162.09683033727924 0 0 0 0 -269.29160891281663 140.32906084176943 0 140.32906084176943 304.97683242931089 0 0 0 0 -178.18602225802465 -163.60693193674524 0 -163.60693193674524 255.07201077319769 0 0 0 0 -192.52786208753832 -81.642533387057483 0 -81.642533387057483 385.39472672415286 0 0 0 0 -45.027618527950153 -13.614157657044416 0 -13.614157657044416 164.74418080107716 0 0 0 0 -177.05487715798483 -93.092380723561291 0 -93.092380723561291 215.75569548523345 0 0 0 0 -151.34400908214616 -176.4566707869526 0 -176.4566707869526 156.25578990719441 0 0 0 0 28.980111213848659 -209.44617544348876 0 -209.44617544348876 130.18007447594573 0 0 0 0 -333.50158837070376 -608.18701363768196 0 -608.18701363768196 85.798694160912419 0 0 0 0 0.91232501037548541 -2.385518297793304 0 -2.385518297793304 3.450111248823589 0 0 0 0 -158.686063735164 -102.87279685752219 0 -102.87279685752219 -158.80977560927568 0 0 0 0 -0.75670297669484532 -2.2771435145156715 0 -2.2771435145156715 4.5140530380051871 0 0 0 0 -338.25093235697614 104.35775393708172 0 104.35775393708172 -152.57944714546284 0 0 0 0 -336.13478075324383 -116.67453181307064 0 -116.67453181307064 -100.77519174848567 0 0 0 0 183.86321855376832 -193.37657968461644 0 -193.37657968461644 87.031680217754911 0 0 0 0 246.42527026701748 -211.8415508508624 0 -211.8415508508624 45.228339676556061 0 0 0 0 -2.4389588212463202 -1.9552730452988101 0 -1.9552730452988101 20.391801640539327 0 0 0 0 -19.377844504835593 -53.440479990789754 0 -53.440479990789754 38.781083304394997 0 0 0 0 -28.396645498513408 -1.4197557403458632 0 -1.4197557403458632 124.0268294378493 0 0 0 0 -16.892509244974349 -22.295427241060679 0 -22.295427241060679 137.48698892270477 0 0 0 0 11.407380670634666 -90.092015175228426 0 -90.092015175228426 76.963308408565354 0 0 0 0 8.103651812629181 -27.482053626298679 0 -27.482053626298679 78.870032602696725 0 0 0 0 48.962167533803552 -134.31992469224861 0 -134.31992469224861 118.55648496679351 0 0 0 0 131.89784352243294 -279.88788010240387 0 -279.88788010240387 369.52664488423034 0 0 0 0 -34.101185845131681 -61.144016525118786 0 -61.144016525118786 167.15228224037855 0 0 0 0 142.18247443030225 36.461209382169727 0 36.461209382169727 221.18823494145909 0 0 0 0 81.390356655128755 90.402149562291015 0 90.402149562291015 -21.212037092256651 0 0 0 0 2.8590430180889501 32.305025921712442 0 32.305025921712442 39.527890982196617 0 0 0 0 -3.5346220429308488 10.375782561182859 0 10.375782561182859 284.94965599475108 0 0 0 0 422.86991181180741 110.44536344641529 0 110.44536344641529 -241.85942266892016 0 0 0 0 4.3838765355100833 0.36769486001358587 0 0.36769486001358587 10.592378002805447 0 0 0 0 -116.12650873203961 85.905881770937413 0 85.905881770937413 -37.540191660940764 0 0 0 0 -364.50010751033278 -1.5121821047578123 0 -1.5121821047578123 112.09175824070553 0 0 0 0 -344.65412522692031 -3.1217373747858801 0 -3.1217373747858801 32.12628323034005 0 0 0 0 -336.46140764857472 -96.253832825155314 0 -96.253832825155314 73.201870886827237 0 0 0 0 -58.39334414477446 28.696100658968135 0 28.696100658968135 -31.96493766081403 0 0 0 0 -298.51676477180172 -46.658131091498944 0 -46.658131091498944 15.942642539877852 0 0 0 0 -106.67153938759884 56.2010688775772 0 56.2010688775772 23.875414369853388 0 0 0 0 -78.858503972567178 -66.91902416620178 0 -66.91902416620178 53.935665627635899 0 0 0 0 -219.49383197775774 -46.846079825802008 0 -46.846079825802008 1102.4910494651122 0 0 0 0 335.77349372172171 -533.03943493955012 0 -533.03943493955012 -253.23338018141658 0 0 0 0 -0.74688602251572056 -1.0635300009857538 0 -1.0635300009857538 10.242549186439192 0 0 0 0 147.21796420592835 -341.86465171228338 0 -341.86465171228338 579.03301773160638 0 0 0 0 -0.09015100369118062 -0.1118073757867073 0 -0.1118073757867073 6.1564133413146465 0 0 0 0 288.07002456615783 36.60157677328607 0 36.60157677328607 -272.05148273559325 0 0 0 0 37.004373438127118 354.82059286851381 0 354.82059286851381 427.73147796992271 0 0 0 0 15.72808833327781 -52.694817313764361 0 -52.694817313764361 58.42815946918563 0 0 0 0 -44.98749066728783 -208.84448605860598 0 -208.84448605860598 318.86151862652332 0 0 0 0 -248.47431296978698 -3.5097229577659164 0 -3.5097229577659164 1172.7596979330774 0 0 0 0 -243.10013139765948 -74.350226507711113 0 -74.350226507711113 785.04815489717294 0 0 0 0 40.629263113051536 -172.51531457436795 0 -172.51531457436795 1099.1500116648604 0 0 0 0 135.78643623772177 -11.701368676902348 0 -11.701368676902348 565.11055007544564 0 0 0 0 293.74905490428563 98.562605952140075 0 98.562605952140075 258.79147639834264 0 0 0 0 107.26412090577415 -58.506143852673631 0 -58.506143852673631 279.25877148407744 0 0 0 0 79.014169655449649 -4.4688891989790136 0 -4.4688891989790136 574.61004348107963 0 0 0 0 101.67071536837472 -268.94486447062286 0 -268.94486447062286 1040.6242326914216 0 0 0 0 -568.55489458219404 -285.76965936957095 0 -285.76965936957095 3030.1531952457663 0 0 0 0 21.584037966762821 -339.50595536005858 0 -339.50595536005858 1271.1118575386135 0 0 0 0 -211.42051434704013 -262.47016709434683 0 -262.47016709434683 1879.3142897074322 0 0 0 0 19.825011449454053 -458.417520940533 0 -458.417520940533 1629.3634579608988 0 0 0 0 93.677993029757261 -412.98949979189638 0 -412.98949979189638 932.91542333469624 0 0 0 0 90.807744091487876 -500.04669661825392 0 -500.04669661825392 1153.692901084476 0 0 0 0 -293.63957742942995 -722.74317508247123 0 -722.74317508247123 2263.7506770036634 0 0 0 0 -312.75316702832038 -616.02979847226288 0 -616.02979847226288 1933.960654350918 0 0 0 0 -159.72050380801534 -206.20872780019999 0 -206.20872780019999 2013.9285727652605 0 0 0 0 -178.79834623314457 -116.57047695415167 0 -116.57047695415167 1660.0477932050344 0 0 0 0 198.00753732752256 80.447780640771271 0 80.447780640771271 1008.6465587860148 0 0 0 0 236.69596938769985 -107.85134514002493 0 -107.85134514002493 1105.8890869105089 0 0 0 0 -374.14775488327382 234.72827504490488 0 234.72827504490488 1570.7546422169398 0 0 0 0 -472.98127137818847 164.82944157577731 0 164.82944157577731 906.74458818225685 0 0 0 0 -311.46901476728567 179.40927267184452 0 179.40927267184452 3093.4641033838334 0 0 0 0 -416.05249460097247 436.79508202013767 0 436.79508202013767 744.15860838636581 0 0 0 0 -480.15038975597099 116.41970994338772 0 116.41970994338772 1147.4378801211133 0 0 0 0 -458.32245688089091 582.26003869342821 0 582.26003869342821 2869.1011158886868 0 0 0 0 -410.64767543293874 537.43037770838419 0 537.43037770838419 3499.9063256602176 0 0 0 0 -1.2560049321548377 83.212517564506015 0 83.212517564506015 490.23772940030176 0 0 0 0 -81.072310385596666 -73.252882188062358 0 -73.252882188062358 701.57312531384378 0 0 0 0 -145.20779632521135 317.7127837558146 0 317.7127837558146 1.9822608854447026 0 0 0 0 -2.1378844083810273 3.5211658532602854 0 3.5211658532602854 2.8141133650768495 0 0 0 0 -125.4324451891555 400.7910334847511 0 400.7910334847511 3506.9210909103313 0 0 0 0 0.60321328683211162 5.3371559607323888 0 5.3371559607323888 2.2164380252770002 0 0 0 0 286.27786866137006 681.72629348977352 0 681.72629348977352 -1080.717434665683 0 0 0 0 -131.92190989975325 417.52245306182886 0 417.52245306182886 -42.970801850002317 0 0 0 0 -14.017043015544001 7.0215157933835712 0 7.0215157933835712 2.5258564734786439 0 0 0 0 -500.85194180804683 272.8384253017357 0 272.8384253017357 1319.0584952221107 0 0 0 0 76.842656564659293 24.202887428014947 0 24.202887428014947 -755.83049497824686 0 0 0 0 59.154284316649751 864.6539612613924 0 864.6539612613924 -558.7606959036566 0 0 0 0 60.870118125873091 929.48681468816358 0 929.48681468816358 1887.8321001099903 0 0 0 0 -7.5823957175112904 7.8881355029031539 0 7.8881355029031539 3.7252776526814451 0 0 0 0 510.57931161326042 -276.5472520983385 0 -276.5472520983385 739.67499773995223 0 0 0 0 333.19049860591622 286.30691670661326 0 286.30691670661326 556.84970079171762 0 0 0 0 -773.42169523562097 -141.42771820994676 0 -141.42771820994676 849.38002435652015 0 0 0 0 -1150.1176248779575 1295.4758972531563 0 1295.4758972531563 413.03950065557183 0 0 0 0 -108.07783144597096 268.88845978874019 0 268.88845978874019 1005.0132533382566 0 0 0 0 -144.19243732490031 -172.94614535616711 0 -172.94614535616711 299.19427939625621 0 0 0 0 -195.39818206864834 -444.18797689996791 0 -444.18797689996791 1331.1811297157838 0 0 0 0 -246.48633258838163 -217.22116238483432 0 -217.22116238483432 348.62330128328176 0 0 0 0 -319.24020702951657 -411.85897616342845 0 -411.85897616342845 534.48695145952661 0 0 0 0 46.327220883079008 -441.64471670667263 0 -441.64471670667263 167.81044763635873 0 0 0 0 -118.31110947773595 -301.11175976456434 0 -301.11175976456434 90.177112603996648 0 0 0 0 -119.36518338190626 -297.07802154898854 0 -297.07802154898854 89.510201444543782 0 0 0 0 -362.57240924462212 19.621393705201626 0 19.621393705201626 11.299722155570635 0 0 0 0 -139.99716776117063 72.292039813228712 0 72.292039813228712 -100.09878896240843 0 0 0 0 -105.38351721966683 -147.96519863534195 0 -147.96519863534195 -67.686413280272973 0 0 0 0 -127.36331909378441 -164.06295510478958 0 -164.06295510478958 -13.277411356859375 0 0 0 0 209.43203375838129 -271.98920688044745 0 -271.98920688044745 -59.178764983342262 0 0 0 0 21.284266664716597 -413.1035988787371 0 -413.1035988787371 234.93043726211181 0 0 0 0 82.531997354646478 -41.553607158315572 0 -41.553607158315572 -130.54727888255729 0 0 0 0 436.38480192482564 -317.56485125695963 0 -317.56485125695963 73.29684069470386 0 0 0 0 0.49329902143522641 -6.0069539697338072 0 -6.0069539697338072 7.6360583617064037 0 0 0 0 321.6919235604355 -704.56607686751522 0 -704.56607686751522 481.38688743380771 0 0 0 0 -335.0972394060239 162.81313602915804 0 162.81313602915804 795.91181604267331 0 0 0 0 -335.69716175176563 85.681590899715957 0 85.681590899715957 1221.4287655440203 0 0 0 0 -46.528202857795804 345.72556413476559 0 345.72556413476559 697.09055225529301 0 0 0 0 -381.15300162879157 4.7957519100382342 0 4.7957519100382342 700.5481012090313 0 0 0 0 -310.75104873698774 -2.9880435219602077 0 -2.9880435219602077 731.18550715857418 0 0 0 0 -298.44737811679897 47.094185191876022 0 47.094185191876022 398.7937288510002 0 0 0 0 -298.74949567627596 32.014108299707004 0 32.014108299707004 410.96028655146074 0 0 0 0 -318.48408135975114 -148.79798573216249 0 -148.79798573216249 141.17218074150878 0 0 0 0 -221.10051829371969 -68.27837561009801 0 -68.27837561009801 71.929205124848522 0 0 0 0 -243.47533400160273 47.390555315534584 0 47.390555315534584 60.640206020703772 0 0 0 0 -195.57070524067512 -143.19633623054688 0 -143.19633623054688 201.15127335662692 0 0 0 0 -179.30308842384738 -16.893220631864097 0 -16.893220631864097 130.85481154726585 0 0 0 0 -420.95113690280687 -192.70705622746027 0 -192.70705622746027 -77.193323349812999 0 0 0 0 -248.27196158682773 147.94125888366762 0 147.94125888366762 35.865698463458102 0 0 0 0 -320.78873676352305 169.10861471721728 0 169.10861471721728 445.79110654482793 0 0 0 0 -320.28817783716408 -133.6418924235295 0 -133.6418924235295 104.23877830067067 0 0 0 0 -279.5035222509523 -267.6063318313536 0 -267.6063318313536 -229.92010294851571 0 0 0 0 -8.9468532654989765 5.180966315013606 0 5.180966315013606 14.6854101979105 0 0 0 0 0.21495154799014829 -11.941763233707807 0 -11.941763233707807 15.329901518613639 0 0 0 0 -541.98301534745906 -312.74550012926193 0 -312.74550012926193 25.441725632714224 0 0 0 0 -2.9236266138953315 -0.18958293976857732 0 -0.18958293976857732 11.361819877209825 0 0 0 0 -44.685869250879932 -15.46372134363628 0 -15.46372134363628 12.367191362820449 0 0 0 0 -41.800151373070548 8.4485598811952514 0 8.4485598811952514 12.738681361050112 0 0 0 0 -565.333602971868 -152.20696233231138 0 -152.20696233231138 53.60002665722277 0 0 0 0 -240.89468858783857 1.187361479489482 0 1.187361479489482 30.679536196170375 0 0 0 0 -204.18494649486138 -56.767671929621429 0 -56.767671929621429 -39.805936526507139 0 0 0 0 -316.33577414867432 -204.15134534671961 0 -204.15134534671961 -55.523003641443211 0 0 0 0 -372.18723532145395 -117.32441815532366 0 -117.32441815532366 90.700573274018097 0 0 0 0 -261.69718768858365 -102.93350362609635 0 -102.93350362609635 -47.975505343905752 0 0 0 0 -429.63851703623413 -21.689126913574 0 -21.689126913574 -80.242264930828242 0 0 0 0 -412.85111336304828 -218.0110090444914 0 -218.0110090444914 -190.46014512916736 0 0 0 0 -9.773789263247977 -40.906542900010209 0 -40.906542900010209 24.63111378258327 0 0 0 0 -371.14524161163672 -315.01406518732256 0 -315.01406518732256 -27.092583859175647 0 0 0 0 -530.69397825574697 15.283700446518196 0 15.283700446518196 -124.96802169295552 0 0 0 0 -329.3775520668496 -223.05104990152904 0 -223.05104990152904 -103.78041659564587 0 0 0 0 -45.899733099412515 -224.9927235081268 0 -224.9927235081268 72.525369417960064 0 0 0 0 -55.718590972317543 -147.88995915092528 0 -147.88995915092528 -125.78602326259715 0 0 0 0 -114.14758624335536 -224.80949877142666 0 -224.80949877142666 -30.333637512725545 0 0 0 0 -248.48103759993955 -275.47724238532101 0 -275.47724238532101 -0.54401770431286423 0 0 0 0 -96.356702297201309 -280.90534044491324 0 -280.90534044491324 54.75634419976268 0 0 0 0 -107.11719533771611 -322.48731637304445 0 -322.48731637304445 51.424189149183803 0 0 0 0 -500.46598280287083 -138.60418836489589 0 -138.60418836489589 60.498153945081867 0 0 0 0 -290.34508802687378 -234.49175275724701 0 -234.49175275724701 10.431469114555512 0 0 0 0 -284.26694000226598 -153.0495616702392 0 -153.0495616702392 -14.438844664400676 0 0 0 0 -20.024217502947067 -148.99706491934194 0 -148.99706491934194 72.851610273759434 0 0 0 0 -19.624938221717457 -253.26386419447226 0 -253.26386419447226 50.528607349493541 0 0 0 0 153.65726929398716 -213.21322921026149 0 -213.21322921026149 -30.581267817047774 0 0 0 0 278.41580104010859 -67.290196739496423 0 -67.290196739496423 1.8270112005848205 0 0 0 0 85.05378357394892 208.79800118455569 0 208.79800118455569 315.77895631909632 0 0 0 0 1.8517576308838661 -7.0384792527230644 0 -7.0384792527230644 58.10269205332898 0 0 0 0 127.39848146263205 498.51912231069218 0 498.51912231069218 378.38478374213446 0 0 0 0 242.20912723448404 374.02400441739155 0 374.02400441739155 499.13896498252871 0 0 0 0 44.477165966143055 50.719166576469888 0 50.719166576469888 654.3452968524507 0 0 0 0 50.841906881521027 -127.30116880738933 0 -127.30116880738933 172.04031168049096 0 0 0 0 214.23322271944016 205.77900354002486 0 205.77900354002486 210.49700957939785 0 0 0 0 -79.015253779681643 225.20057112856011 0 225.20057112856011 -125.99260087712901 0 0 0 0 2.2061257668978271 -0.061277638905067988 0 -0.061277638905067988 -4.0195764140315191 0 0 0 0 -146.72217988398552 -14.944854108049185 0 -14.944854108049185 282.79646715076524 0 0 0 0 -133.29410880247542 88.43379414905985 0 88.43379414905985 67.909148974154959 0 0 0 0 -2.1722630784449066 -7.9296450158714435 0 -7.9296450158714435 22.143000940337259 0 0 0 0 -322.99665323691261 58.952143604612502 0 58.952143604612502 78.163036803882278 0 0 0 0 -25.859710624745439 -22.945305558184558 0 -22.945305558184558 25.422203299275679 0 0 0 0 -57.582134748350654 -66.74242361555298 0 -66.74242361555298 140.03127278725879 0 0 0 0 -94.043397019030181 -58.798466468487277 0 -58.798466468487277 137.83700242097257 0 0 0 0 -2.0018127198688092 -13.255959228970108 0 -13.255959228970108 91.244972948473617 0 0 0 0 -170.02589588792762 -146.19890913814743 0 -146.19890913814743 116.69869939434284 0 0 0 0 -129.9715657989982 -225.81502833685227 0 -225.81502833685227 253.2179113502425 0 0 0 0 -300.04175003641103 -76.731588256632676 0 -76.731588256632676 318.41009971072344 0 0 0 0 -378.98965888266935 -161.50319938078428 0 -161.50319938078428 236.78480999552994 0 0 0 0 -34.822087869371899 -735.73986356829846 0 -735.73986356829846 1424.1487220069685 0 0 0 0 367.99996891192859 -100.41353848224389 0 -100.41353848224389 218.81946767153568 0 0 0 0 1095.8325486829306 -507.2440064780385 0 -507.2440064780385 3499.716237865463 0 0 0 0 -860.05612266786738 515.85824687171498 0 515.85824687171498 -102.95394147504703 0 0 0 0 -5.1449550426155373 -5.2418321033623556 0 -5.2418321033623556 -4.1561259771435601 0 0 0 0 -60.254531405668104 -268.23521422730482 0 -268.23521422730482 883.10295053591835 0 0 0 0 457.36316920988611 -934.5380878878932 0 -934.5380878878932 906.97295163560466 0 0 0 0 845.96886586997425 -749.55041229203925 0 -749.55041229203925 390.96038500340364 0 0 0 0 -28.750390195714857 -156.80693381867241 0 -156.80693381867241 542.13829126532073 0 0 0 0 -10.926003856829931 0.31201930767687713 0 0.31201930767687713 121.85978404979269 0 0 0 0 13.128070231341106 582.57542669629584 0 582.57542669629584 -386.58914934209315 0 0 0 0 -85.724510381013516 -423.42205090081916 0 -423.42205090081916 1232.9579036960349 0 0 0 0 183.72443974117107 532.05389102349727 0 532.05389102349727 1633.6736617550196 0 0 0 0 -826.51673126235073 374.78124091720383 0 374.78124091720383 -180.32738454455512 0 0 0 0 -0.021742619254975004 10.548445853835247 0 10.548445853835247 25.293154561999671 0 0 0 0 -1557.5286002880198 1298.7516139488434 0 1298.7516139488434 -201.02636499931396 0 0 0 0 -8.2601396191874876 0.98001518032565116 0 0.98001518032565116 0.47436887611316081 0 0 0 0 -249.22151272030564 668.33053930033202 0 668.33053930033202 -1294.8912533030525 0 0 0 0 47.06799335885114 126.18470250417158 0 126.18470250417158 -1053.5844883485406 0 0 0 0 -109.4996329678913 323.76171636896561 0 323.76171636896561 1814.6843494373461 0 0 0 0 284.92126644994136 2019.9007139702735 0 2019.9007139702735 4579.0188623400554 0 0 0 0 1218.0892039115488 -2374.1591860732369 0 -2374.1591860732369 2234.5227604102256 0 0 0 0 3.0386296544625098 -5.3817271648447687 0 -5.3817271648447687 19.975170839044097 0 0 0 0 2919.3893078102715 -1833.7625246340322 0 -1833.7625246340322 650.33401498275634 0 0 0 0 1422.933203060287 -573.01740499137668 0 -573.01740499137668 118.17309090373237 0 0 0 0 412.57437182715665 -1485.5779550082534 0 -1485.5779550082534 2217.881239481052 0 0 0 0 63.728598709177938 -848.41083491932477 0 -848.41083491932477 1359.8726731343049 0 0 0 0 79.751156362689272 -354.60672232294019 0 -354.60672232294019 573.74162790339324 0 0 0 0 502.11984197146819 -86.570714500194299 0 -86.570714500194299 220.31282261200977 0 0 0 0 -1.1763025098553297 -8.5605787354632383 0 -8.5605787354632383 50.721412821606634 0 0 0 0 -23.360913341059813 -15.012847100029205 0 -15.012847100029205 14.817949307914589 0 0 0 0 -76.457545352681336 -40.791276078871306 0 -40.791276078871306 166.09904785308754 0 0 0 0 -64.89278828824763 -32.838391430123011 0 -32.838391430123011 160.80986274992028 0 0 0 0 8.8835944974175618 -95.044563815783476 0 -95.044563815783476 176.57908797503478 0 0 0 0 11.12955851157156 -99.115513477190689 0 -99.115513477190689 116.05838556283561 0 0 0 0 274.27274224526423 -539.98380938975606 0 -539.98380938975606 838.23511476703425 0 0 0 0 -7.4403116028779257 -7.8754316604747316 0 -7.8754316604747316 -5.322554372472311 0 0 0 0 -381.47122635332909 -1255.7466127314401 0 -1255.7466127314401 3606.2496032540766 0 0 0 0 -1.280371011476344 -2.6634407526964594 0 -2.6634407526964594 0.21511456311888821 0 0 0 0 132.94516946923622 -1134.5043800528765 0 -1134.5043800528765 1877.6241159771671 0 0 0 0 6.4751103776866614 -506.52563644609836 0 -506.52563644609836 1805.0012717653954 0 0 0 0 259.21176708814335 -829.54984089845675 0 -829.54984089845675 1344.2352366431733 0 0 0 0 0.57912268513679777 -131.93041986131539 0 -131.93041986131539 2021.0363201972796 0 0 0 0 -227.33227504685078 -310.15783153259326 0 -310.15783153259326 2931.8900331543846 0 0 0 0 357.77846296093003 -426.88509744941257 0 -426.88509744941257 1514.3934069644092 0 0 0 0 335.98859966690782 -490.42302005643069 0 -490.42302005643069 1336.765382536425 0 0 0 0 -0.20162744706432426 70.786782273393328 0 70.786782273393328 1094.0935785025067 0 0 0 0 261.3284317823306 351.69095552692033 0 351.69095552692033 1337.9069794176467 0 0 0 0 461.36371436360463 -368.23346599027263 0 -368.23346599027263 860.45626615321089 0 0 0 0 158.65010120693285 187.23930759257928 0 187.23930759257928 294.81560457347223 0 0 0 0 146.05781853084864 -232.75394613452954 0 -232.75394613452954 240.21429995962535 0 0 0 0 -85.814570342199886 226.59121244126436 0 226.59121244126436 703.89068093715832 0 0 0 0 23.825666533497269 190.67600168051922 0 190.67600168051922 664.81402835200424 0 0 0 0 129.03329993200259 632.29719824007771 0 632.29719824007771 1519.9338341698967 0 0 0 0 1173.3748147245512 1052.2054026467376 0 1052.2054026467376 780.22936339026637 0 0 0 0 438.11920153052995 453.17054323692355 0 453.17054323692355 319.55168041372963 0 0 0 0 173.24396364060021 631.58482020382507 0 631.58482020382507 663.78076113380007 0 0 0 0 189.30009477089766 529.75443206818454 0 529.75443206818454 352.85477457702291 0 0 0 0 220.75571781783594 540.16207545355428 0 540.16207545355428 202.35475607735134 0 0 0 0 -2.8196055909717019 -0.81528428953792798 0 -0.81528428953792798 28.048818716216147 0 0 0 0 14.886155645629287 437.8803374456329 0 437.8803374456329 342.71404903777875 0 0 0 0 -640.68941260249039 -154.96325745810464 0 -154.96325745810464 355.77934766293765 0 0 0 0 57.874182562624554 225.98516470774848 0 225.98516470774848 -16.687846399916452 0 0 0 0 1.4680055660702556 83.641868104827779 0 83.641868104827779 272.81268068304053 0 0 0 0 24.388654464630122 193.03413376597746 0 193.03413376597746 503.76077548780086 0 0 0 0 -220.37108650768798 -214.99045293826202 0 -214.99045293826202 974.46503474468773 0 0 0 0 -0.6732502970086861 0.28378680385450394 0 0.28378680385450394 11.519804418472347 0 0 0 0 -316.30639434209911 -514.79036623085995 0 -514.79036623085995 61.24275588990713 0 0 0 0 -267.10538783516569 -16.004448816337117 0 -16.004448816337117 20.951862221743795 0 0 0 0 -136.65776915373641 -279.7004410309388 0 -279.7004410309388 1254.6896464469705 0 0 0 0 -1.8976061736097418 -5.5965445058124299 0 -5.5965445058124299 31.713979080771843 0 0 0 0 0.98546687493250218 2.902789973797018 0 2.902789973797018 9.523732860397466 0 0 0 0 -101.66143002517087 -315.08750947892202 0 -315.08750947892202 548.57985068121798 0 0 0 0 470.83349274750026 205.79441797214827 0 205.79441797214827 -217.46265301408494 0 0 0 0 -230.89157791245691 51.570325488149365 0 51.570325488149365 961.10686702035923 0 0 0 0 132.24468941039703 107.37866012244058 0 107.37866012244058 -364.32819637162754 0 0 0 0 179.0759400903606 748.44967761813552 0 748.44967761813552 271.4627972665437 0 0 0 0 -167.9836590525498 -94.174323599800118 0 -94.174323599800118 -70.960341422971396 0 0 0 0 -334.41143601748007 -175.0912097338005 0 -175.0912097338005 -5.5710747204193467 0 0 0 0 -163.52299319631106 -115.19318588765191 0 -115.19318588765191 -11.926226462081104 0 0 0 0 -80.566458801520923 23.485030483567698 0 23.485030483567698 20.67573706836265 0 0 0 0 -131.47557922687116 -82.568636010160844 0 -82.568636010160844 -31.5341916125235 0 0 0 0 -94.788967889189081 -6.8675584349794008 0 -6.8675584349794008 12.273368457245851 0 0 0 0 20.639696420822617 34.732097642272493 0 34.732097642272493 7.9720048539984418 0 0 0 0 -3.7201722893287865 -18.199627753684581 0 -18.199627753684581 -16.340513857010592 0 0 0 0 -23.311141361837244 -12.603138626481496 0 -12.603138626481496 59.055465138106229 0 0 0 0 24.739406725945855 20.255459994516968 0 20.255459994516968 -0.90318466962889943 0 0 0 0 -22.830785680013378 -17.830676715968366 0 -17.830676715968366 -25.611794467647087 0 0 0 0 -166.32110380062039 38.074412511341279 0 38.074412511341279 89.992367351325811 0 0 0 0 -211.26138737752527 -86.464137325690899 0 -86.464137325690899 -92.577183722924019 0 0 0 0 -142.97659498311009 64.166795704178185 0 64.166795704178185 355.93314183216989 0 0 0 0 -443.46420182279144 -200.31885865346158 0 -200.31885865346158 -0.29515598707075696 0 0 0 0 -367.75225075918894 -261.41915560767666 0 -261.41915560767666 -10.83776230397234 0 0 0 0 -328.53084133571122 -150.62192997156262 0 -150.62192997156262 129.77451516446308 0 0 0 0 12.282739995665224 14.140538422720965 0 14.140538422720965 76.269255401347436 0 0 0 0 41.774959201963185 -54.160091893803838 0 -54.160091893803838 118.09890145834652 0 0 0 0 -97.35685990186289 -140.76120081739555 0 -140.76120081739555 -246.14824513194799 0 0 0 0 -57.315537012677737 -47.995836916015378 0 -47.995836916015378 -34.675793273738236 0 0 0 0 -1.3413880947764454 -0.98906807657827756 0 -0.98906807657827756 0.65693175753867106 0 0 0 0 -388.50623500335894 -297.45115306787284 0 -297.45115306787284 -313.06311402454048 0 0 0 0 66.855122881968754 236.91050397009212 0 236.91050397009212 354.64001539818537 0 0 0 0 263.26370975051208 272.28211988961607 0 272.28211988961607 -73.584345661608495 0 0 0 0 337.9815773426638 452.86304960019686 0 452.86304960019686 49.215270474845056 0 0 0 0 -1.886277259392791 -2.1747640920550224 0 -2.1747640920550224 20.904684220897721 0 0 0 0 56.827072355187852 317.04381468445035 0 317.04381468445035 -30.026320191692321 0 0 0 0 -313.46582557195097 255.16040350551066 0 255.16040350551066 111.01612402180263 0 0 0 0 1.2533943845536233 7.2609166877402966 0 7.2609166877402966 26.224747023723992 0 0 0 0 -371.46597380576156 38.677042519060933 0 38.677042519060933 145.46678769316372 0 0 0 0 153.11831926652189 -67.857639021988916 0 -67.857639021988916 114.96335606462367 0 0 0 0 -100.79529023662622 -9.1334097559704333 0 -9.1334097559704333 374.75904137445559 0 0 0 0 -68.586112666591248 -6.6362893208361129 0 -6.6362893208361129 37.911460508240907 0 0 0 0 -82.500833967354026 -236.50901727036535 0 -236.50901727036535 202.67579259851186 0 0 0 0 -6.6969433117694734 -218.13875369153777 0 -218.13875369153777 463.35908262477824 0 0 0 0 41.037284471325165 -177.44219589669945 0 -177.44219589669945 248.22615186077883 0 0 0 0 -21.908278218390706 -106.08607575600877 0 -106.08607575600877 344.92733111053735 0 0 0 0 14.809102253177628 8.6808822553760479 0 8.6808822553760479 64.130508691392606 0 0 0 0 38.200845883673679 98.024768392241327 0 98.024768392241327 13.919200201104104 0 0 0 0 127.13075877384631 122.87355368810381 0 122.87355368810381 151.74374882340283 0 0 0 0 0.3615055040163081 -1.1385509945503098 0 -1.1385509945503098 3.5190685927743122 0 0 0 0 7.4991292442623489 43.612117774983744 0 43.612117774983744 29.925428471487152 0 0 0 0 29.737264306648513 12.34149009905741 0 12.34149009905741 28.828433780962769 0 0 0 0 -69.700634121692474 81.821810311223317 0 81.821810311223317 31.280999177733975 0 0 0 0 7.876031312233998 38.564911489515012 0 38.564911489515012 17.313758871882783 0 0 0 0 8.2129180223846561 64.595825829093428 0 64.595825829093428 14.234205812401342 0 0 0 0 -231.67756504124941 29.552777555448756 0 29.552777555448756 345.1014763860021 0 0 0 0 -163.36880247719182 -144.44494025262838 0 -144.44494025262838 467.72965409459812 0 0 0 0 -156.18260715526867 -148.86246336393447 0 -148.86246336393447 376.42846011901565 0 0 0 0 -16.81505243051808 -167.96339052734265 0 -167.96339052734265 227.24490765620931 0 0 0 0 -41.396507224082711 2.2953607176987134 0 2.2953607176987134 9.9330989786521968 0 0 0 0 -6.5119347799001162 96.165881573783963 0 96.165881573783963 41.453433385255977 0 0 0 0 92.863813024078922 186.34025761279463 0 186.34025761279463 80.416402567459727 0 0 0 0 -39.928329179531829 23.551843174662579 0 23.551843174662579 267.32794887994851 0 0 0 0 6.4022059801752036 -6.792793404566055 0 -6.792793404566055 -2.7686761660735328 0 0 0 0 16.736697672638115 -4.7970171204918302 0 -4.7970171204918302 -60.68095615203606 0 0 0 0 3.5063655949859367 22.500422710968792 0 22.500422710968792 -19.875840293009276 0 0 0 0 29.176909278718085 67.485272872369478 0 67.485272872369478 -94.084635048785231 0 0 0 0 -72.909026734005351 42.508245003754297 0 42.508245003754297 12.466139266288451 0 0 0 0 -5.8244839125634371 9.0306563294579973 0 9.0306563294579973 28.207836954421509 0 0 0 0 -3.3926643394109917 13.708403230324301 0 13.708403230324301 6.941553357835355 0 0 0 0 4.3673467634962435 22.511695482177856 0 22.511695482177856 7.3239347663075023 0 0 0 0 -10.179183228835097 9.4040544465255955 0 9.4040544465255955 16.151906006915642 0 0 0 0 -3.1490214983711553 16.957591973358646 0 16.957591973358646 15.288138393521194 0 0 0 0 -23.385107214904565 3.7532528470801481 0 3.7532528470801481 -5.3495507153820654 0 0 0 0 -6.1876044236944967 29.97406915963802 0 29.97406915963802 3.8732015305104142 0 0 0 0 -2.0473386400428573 4.7834733762488462 0 4.7834733762488462 18.8035202499401 0 0 0 0 -0.94139280571835116 2.0233837436762769 0 2.0233837436762769 55.082937219428914 0 0 0 0 -9.8690102298201339 12.785249720243002 0 12.785249720243002 35.045879529615888 0 0 0 0 3.1426037693546434 48.658416579704863 0 48.658416579704863 30.978634191194942 0 0 0 0 3.2698346450447997 22.516638833489516 0 22.516638833489516 21.716372147834051 0 0 0 0 -10.762363145241125 32.526239611615892 0 32.526239611615892 -4.2965021853306098 0 0 0 0 -33.060391179446981 35.435579270303435 0 35.435579270303435 32.504200608871542 0 0 0 0 -30.196265857153179 55.653921044219942 0 55.653921044219942 16.952168780988359 0 0 0 0 -2.4127778079686113 14.201461155729973 0 14.201461155729973 7.4090386239037969 0 0 0 0 -8.341295504550672 15.036689105375256 0 15.036689105375256 22.249737625224554 0 0 0 0 -4.6517057040175587 51.268907659607066 0 51.268907659607066 3.1072796224052581 0 0 0 0 -9.7503216231043552 37.718604841787965 0 37.718604841787965 2.1908693501818561 0 0 0 0 -9.1324025373260156 21.381090773120377 0 21.381090773120377 -2.9956096962559968 0 0 0 0 -1.9459937966223322 3.0385410553615628 0 3.0385410553615628 9.6560836524691123 0 0 0 0 37.125301731090531 37.99936924907729 0 37.99936924907729 3.5425349029542303 0 0 0 0 -16.357532679709394 19.069504729058835 0 19.069504729058835 17.232059218371433 0 0 0 0 15.507917507592197 17.175187726942681 0 17.175187726942681 2.128115715309832 0 0 0 0 -2.1946971594058438 10.975523891891065 0 10.975523891891065 0.64254935445252137 0 0 0 0 -8.1852543539148428 53.705968522497642 0 53.705968522497642 14.703081015295538 0 0 0 0 -9.5184634296974764 24.002888364073442 0 24.002888364073442 18.217076862070826 0 0 0 0 -7.0671123253135741 15.559294217551045 0 15.559294217551045 27.838340010154209 0 0 0 0 -9.6991355438451592 24.218338888182188 0 24.218338888182188 18.839911012739321 0 0 0 0 -15.553082889244003 27.015304142085977 0 27.015304142085977 16.241398279101968 0 0 0 0 -10.12282646100266 23.935903327972483 0 23.935903327972483 18.651902478210104 0 0 0 0 -16.058279958285141 22.246559112064915 0 22.246559112064915 74.277506517253642 0 0 0 0 -20.073331831355972 10.451960399655945 0 10.451960399655945 102.426567233284 0 0 0 0 -10.810005100738106 9.2691248798349513 0 9.2691248798349513 15.29295975238395 0 0 0 0 -14.697312735786909 7.1911335714394227 0 7.1911335714394227 -13.427824564256298 0 0 0 0 -2.3654602264775644 1.4028926015852008 0 1.4028926015852008 1.0321853160346208 0 0 0 0 -69.044405525208276 43.924381865363102 0 43.924381865363102 6.8112855965409835 0 0 0 0 4.2116691634928429 -18.767147803897387 0 -18.767147803897387 48.14806417516229 0 0 0 0 -11.082638164797487 -9.7011321188626454 0 -9.7011321188626454 18.455896142847287 0 0 0 0 -3.0297896863432108 17.258175751245219 0 17.258175751245219 44.25064356965931 0 0 0 0 -7.9332183220191741 12.910657763676388 0 12.910657763676388 20.346951356330866 0 0 0 0 -6.4671286364091358 7.1380736604292778 0 7.1380736604292778 59.401699046509158 0 0 0 0 -8.789024706685268 25.426413143759419 0 25.426413143759419 17.683390272562974 0 0 0 0 -5.2801373744459283 6.7385235637120786 0 6.7385235637120786 13.976956844882807 0 0 0 0 -17.393008518430179 25.25791892073903 0 25.25791892073903 7.8699618225800805 0 0 0 0 -16.147495071080488 23.745934137214423 0 23.745934137214423 25.42864396579769 0 0 0 0 -7.9623331454776611 34.811254931364701 0 34.811254931364701 3.0771361461801376 0 0 0 0 -3.7967316209741582 17.534373794606822 0 17.534373794606822 9.7059293505073114 0 0 0 0 -3.9783577732983968 0.86412206571429806 0 0.86412206571429806 40.95434282126746 0 0 0 0 -11.316686996275337 -5.2587570118562326 0 -5.2587570118562326 39.86929301195778 0 0 0 0 -5.5199308601706889 18.253596577046437 0 18.253596577046437 2.1165044942608802 0 0 0 0 -8.7506350606131491 23.333363960486167 0 23.333363960486167 21.058966814780433 0 0 0 0 -8.9436554304320453 24.348855352283863 0 24.348855352283863 18.415620892243169 0 0 0 0 -9.7111783091289396 25.785832037669707 0 25.785832037669707 19.719041878182907 0 0 0 0 -9.0803773133952337 27.264558947059292 0 27.264558947059292 6.4664606046210409 0 0 0 0 -12.550186069014671 18.082392569631338 0 18.082392569631338 78.285921161375882 0 0 0 0 -26.2554233888618 27.417175573389613 0 27.417175573389613 107.68023930110212 0 0 0 0 -7.0885435059814128 18.274120208590634 0 18.274120208590634 18.050937431789599 0 0 0 0 -12.399096661887597 30.575313185021514 0 30.575313185021514 -6.6037146918242797 0 0 0 0 2.8805040130337147 20.023405740157614 0 20.023405740157614 85.970937342332036 0 0 0 0 -47.383782439235802 33.931619171527927 0 33.931619171527927 98.655656511346024 0 0 0 0 -192.35345454327216 -107.73234435989616 0 -107.73234435989616 156.36328473626054 0 0 0 0 -0.3123585665334202 2.2719084643506839 0 2.2719084643506839 2.8585988293502282 0 0 0 0 164.28404399547435 -117.77906361123132 0 -117.77906361123132 23.587387537569157 0 0 0 0 56.85148995708164 95.874231392916045 0 95.874231392916045 206.82135956802085 0 0 0 0 -4.3836526032697343 5.6746776948434352 0 5.6746776948434352 84.318558356853629 0 0 0 0 -13.200314894076655 -279.32799001990134 0 -279.32799001990134 159.83790062531625 0 0 0 0 -104.97558563779421 186.22612297106389 0 186.22612297106389 161.43279179043748 0 0 0 0 -0.36006293872435924 3.9261686892381586 0 3.9261686892381586 73.179808965335368 0 0 0 0 -49.462793406042238 -2.8122926446940255 0 -2.8122926446940255 94.64825658382324 0 0 0 0 -15.435551547490377 32.977661111131965 0 32.977661111131965 69.177256968294387 0 0 0 0 -98.579401949543495 -3.4696462603042164 0 -3.4696462603042164 127.06591308264615 0 0 0 0 -98.166449027092369 58.238711016407251 0 58.238711016407251 301.38487813602842 0 0 0 0 -480.97883025686997 331.34973792112044 0 331.34973792112044 -32.323009973838907 0 0 0 0 -14.384692239232601 0.97916140136508023 0 0.97916140136508023 76.660583866643705 0 0 0 0 -61.626586085620829 -252.43519599524708 0 -252.43519599524708 666.48737020742328 0 0 0 0 38.344232700125303 58.598277698740276 0 58.598277698740276 17.843502368014015 0 0 0 0 26.501700687161929 74.97402483139922 0 74.97402483139922 229.39220586818556 0 0 0 0 16.475875563939326 29.763911225601987 0 29.763911225601987 -6.2609978976911407 0 0 0 0 3.3233906173293519 -1.1818696650403027 0 -1.1818696650403027 -0.57539912280162753 0 0 0 0 -21.504675494274125 79.206451879534143 0 79.206451879534143 229.08674108943433 0 0 0 0 -1.7039489881657914 119.51247096162842 0 119.51247096162842 91.119463124246977 0 0 0 0 6.6230598199954329 -29.085232341145456 0 -29.085232341145456 191.80393285046011 0 0 0 0 22.282609404258437 111.77720833455896 0 111.77720833455896 205.30443994319648 0 0 0 0 27.493953950871777 -52.508144332310621 0 -52.508144332310621 -21.160363130071346 0 0 0 0 -282.20444390138073 10.213371329898109 0 10.213371329898109 92.217105824377086 0 0 0 0 -193.47757859144758 220.55094254026577 0 220.55094254026577 -319.92954575090812 0 0 0 0 -246.84795878378372 360.20741197256609 0 360.20741197256609 -276.35823704230847 0 0 0 0 -328.07123223469762 194.08389170179896 0 194.08389170179896 -98.451680414719547 0 0 0 0 259.37420836390334 -62.555913124402423 0 -62.555913124402423 460.91637916088621 0 0 0 0 470.76335510304813 -362.20745948891931 0 -362.20745948891931 413.61701515619643 0 0 0 0 -112.14433650150022 -218.20642382987899 0 -218.20642382987899 557.02307173306326 0 0 0 0 181.1663004756137 -88.311460706036542 0 -88.311460706036542 198.89195558216852 0 0 0 0 8.5218236231075934 6.6954397621453765 0 6.6954397621453765 6.1003597311912614 0 0 0 0 -377.2470712599179 526.66865033560873 0 526.66865033560873 -344.55946018262591 0 0 0 0 -170.83141064903475 -950.35705743652943 0 -950.35705743652943 1167.6256235575493 0 0 0 0 3.9257841674198062 -272.72771028781062 0 -272.72771028781062 323.41869129682345 0 0 0 0 -1369.9282117116281 -371.64210936937889 0 -371.64210936937889 1528.0807432502015 0 0 0 0 -55.706213281368946 82.373955679389383 0 82.373955679389383 6.9635595154741168 0 0 0 0 -169.66119029326873 1713.2572836163074 0 1713.2572836163074 562.58821842206089 0 0 0 0 -5.2916770732393594 1.3747290184804335 0 1.3747290184804335 22.76226242175656 0 0 0 0 -644.3001260915471 -108.87961123515379 0 -108.87961123515379 153.18964444620912 0 0 0 0 -1.9607929334381069 12.247526563967941 0 12.247526563967941 48.743306856754899 0 0 0 0 -568.95728419111856 41.07877784899938 0 41.07877784899938 -8.220599697842772 0 0 0 0 -0.89896351218267689 2.5841129860327801 0 2.5841129860327801 11.480311205912146 0 0 0 0 -456.22019780707268 -196.04773066857206 0 -196.04773066857206 70.847775899175758 0 0 0 0 -391.49108317830928 -51.763090673075567 0 -51.763090673075567 40.27394101664504 0 0 0 0 -639.93797463432895 -134.94573603144249 0 -134.94573603144249 298.70921320138223 0 0 0 0 -106.08864558828122 -72.413084167905254 0 -72.413084167905254 198.62197383285894 0 0 0 0 -80.971180733644815 -190.212859043565 0 -190.212859043565 -19.978535106647541 0 0 0 0 65.160083200695738 -71.475149905622857 0 -71.475149905622857 49.189517981318204 0 0 0 0 -158.24345407175281 -99.376340961018741 0 -99.376340961018741 52.499683835811084 0 0 0 0 -145.82022567463909 -112.03474688030292 0 -112.03474688030292 62.486592437462605 0 0 0 0 -19.386561905509154 -88.008294483011923 0 -88.008294483011923 19.073827410617014 0 0 0 0 -149.28732961170368 -50.129172061854888 0 -50.129172061854888 20.991006913653109 0 0 0 0 -323.81075021955417 -68.786788378007259 0 -68.786788378007259 11.581608673433948 0 0 0 0 -191.47155341221929 -132.51916125218099 0 -132.51916125218099 39.602251076747052 0 0 0 0 -329.00746535061853 -101.83360936775989 0 -101.83360936775989 69.040959911901155 0 0 0 0 -1.262794735083351 -4.0720391674153422 0 -4.0720391674153422 31.663341915660261 0 0 0 0 -36.913229486410899 -91.663148336542719 0 -91.663148336542719 -145.62917188095355 0 0 0 0 -298.4652827133184 -233.24424370320503 0 -233.24424370320503 65.96088928728409 0 0 0 0 6.0659364431677432 26.879587494786847 0 26.879587494786847 96.772756798659429 0 0 0 0 20.269771748372136 39.174449847858341 0 39.174449847858341 23.03733566098299 0 0 0 0 -20.90644089930182 -41.362089373385061 0 -41.362089373385061 10.370330524427118 0 0 0 0 -27.191605355728797 15.79285232361508 0 15.79285232361508 72.570535989463679 0 0 0 0 67.462140841184691 -0.5345809027494397 0 -0.5345809027494397 73.197759942160701 0 0 0 0 -1.208623514530025 30.787925752760657 0 30.787925752760657 190.65828823609991 0 0 0 0 66.710507444414247 72.856788528173183 0 72.856788528173183 100.94125814937524 0 0 0 0 88.522435016985582 38.088072748684681 0 38.088072748684681 177.43831914771226 0 0 0 0 26.742597534375847 66.635206952538738 0 66.635206952538738 167.90144566304298 0 0 0 0 59.24211210085673 104.06685318432142 0 104.06685318432142 220.962105605131 0 0 0 0 51.361492047936849 63.035004976334676 0 63.035004976334676 244.02653359621945 0 0 0 0 143.75813341101934 -19.495883488395521 0 -19.495883488395521 325.16976766599055 0 0 0 0 98.54779083463481 92.284541837396318 0 92.284541837396318 261.10974200329838 0 0 0 0 48.847104648692607 -21.075850518459902 0 -21.075850518459902 401.50986190741241 0 0 0 0 153.02345988967426 -23.726370240326105 0 -23.726370240326105 202.72861555448276 0 0 0 0 80.907894223181245 77.914508238906819 0 77.914508238906819 262.59184359677965 0 0 0 0 227.02370698949778 -119.21912331814565 0 -119.21912331814565 366.87937890478224 0 0 0 0 154.72552925553151 54.800241551469298 0 54.800241551469298 480.1846172366113 0 0 0 0 99.573836968945784 99.934890549993725 0 99.934890549993725 863.46074017390856 0 0 0 0 215.44425628766808 -128.9422032771472 0 -128.9422032771472 431.90263195689477 0 0 0 0 259.84261260808552 52.536515592611408 0 52.536515592611408 369.71087669705412 0 0 0 0 21.444040164603333 22.020633197894576 0 22.020633197894576 20.689813530916922 0 0 0 0 54.027923261458341 -29.667055824351337 0 -29.667055824351337 376.42695166265275 0 0 0 0 100.89085630880311 -40.504290741969271 0 -40.504290741969271 345.06637432695243 0 0 0 0 94.022458706201292 -30.826311599266774 0 -30.826311599266774 643.26917347461495 0 0 0 0 41.171587360516511 -114.41122814572162 0 -114.41122814572162 486.90943335721749 0 0 0 0 -28.31161869293328 -89.756349348702315 0 -89.756349348702315 309.55863906405557 0 0 0 0 41.409745864777896 -100.72065614813309 0 -100.72065614813309 259.24240985881806 0 0 0 0 51.982153782573846 4.8555073168085983 0 4.8555073168085983 173.27523662489148 0 0 0 0 -57.113612277389109 -38.466938537100305 0 -38.466938537100305 241.20451584931652 0 0 0 0 30.676116709287498 100.34070656542917 0 100.34070656542917 200.45081046491941 0 0 0 0 6.4916829251128547 88.006022037346156 0 88.006022037346156 216.55451724331942 0 0 0 0 -66.15193544976546 278.04731092489328 0 278.04731092489328 -260.67909287879775 0 0 0 0 -0.32554814183929004 1.2829611449217229 0 1.2829611449217229 1.7153548147414472 0 0 0 0 -70.88283403417779 -163.83495637621354 0 -163.83495637621354 -46.485417263730142 0 0 0 0 -24.940657398817791 -15.455034582695816 0 -15.455034582695816 105.55182801724914 0 0 0 0 -44.491886708530387 -127.41537647106998 0 -127.41537647106998 186.18889910877806 0 0 0 0 -33.655728078006419 -41.40115369457817 0 -41.40115369457817 150.47371327387918 0 0 0 0 -237.61090419246045 -16.892619806087623 0 -16.892619806087623 154.14357949904092 0 0 0 0 333.89108502366571 299.77585129657109 0 299.77585129657109 -891.02247975776481 0 0 0 0 1514.2272724478848 223.9151377169519 0 223.9151377169519 -0.55610590379183122 0 0 0 0 -457.67847622894601 -156.10780622424954 0 -156.10780622424954 -70.388295875630774 0 0 0 0 -2.4425309955499421 3.8000164278461703 0 3.8000164278461703 1.9916189635044823 0 0 0 0 -11.291728205045501 -131.54463772577219 0 -131.54463772577219 358.26867184465664 0 0 0 0 -62.411009132688037 50.78996514048913 0 50.78996514048913 283.70843608795076 0 0 0 0 78.438077785025456 -50.549382033969778 0 -50.549382033969778 204.07311926805414 0 0 0 0 32.197051067081901 -202.69774918109482 0 -202.69774918109482 597.28172850855299 0 0 0 0 -40.350154474848523 115.53565812261695 0 115.53565812261695 86.452513522757499 0 0 0 0 -29.463862047418871 42.99198030724051 0 42.99198030724051 55.017415460115444 0 0 0 0 63.060389538015784 -13.601688397390717 0 -13.601688397390717 100.41139670393568 0 0 0 0 17.558080508865828 99.767509252506443 0 99.767509252506443 54.061943579590206 0 0 0 0 54.566613405720659 17.644752957806759 0 17.644752957806759 19.164002928908303 0 0 0 0 -4.1189535363383811 39.931805227260156 0 39.931805227260156 147.13381347311019 0 0 0 0 21.50965163209468 80.752521021504407 0 80.752521021504407 219.68520961137256 0 0 0 0 23.204122030983058 57.354370903900417 0 57.354370903900417 170.77071672179227 0 0 0 0 75.911857703220903 72.009774425720025 0 72.009774425720025 135.66069658399806 0 0 0 0 1.5314262689284988 87.725488811603554 0 87.725488811603554 418.90079296311433 0 0 0 0 564.85792186163962 354.48412343251402 0 354.48412343251402 131.61034309655224 0 0 0 0 -0.24207101471842218 -1.1483419159156121 0 -1.1483419159156121 6.2378178678696941 0 0 0 0 137.30658160539497 394.94345637875085 0 394.94345637875085 374.07151303461433 0 0 0 0 241.92258784116439 142.15030062546066 0 142.15030062546066 112.02030214681872 0 0 0 0 5.2978468230676299 114.0027092706805 0 114.0027092706805 157.43151849607239 0 0 0 0 5.3536285362415583 113.94801743624703 0 113.94801743624703 108.97578336896549 0 0 0 0 -205.60246879286024 252.73355450598683 0 252.73355450598683 384.9720770240383 0 0 0 0 -8.6895414192167912 -1.1575756202283474 0 -1.1575756202283474 105.9300569067899 0 0 0 0 -41.471436308812827 16.226429556849325 0 16.226429556849325 101.48343678938545 0 0 0 0 -19.936951033157651 3.5563458745145624 0 3.5563458745145624 108.0564200064326 0 0 0 0 -6.0159628822457307 112.71517369072171 0 112.71517369072171 203.85332513003959 0 0 0 0 -270.19443524736562 18.186472943281842 0 18.186472943281842 228.83787747765018 0 0 0 0 -11.899392923805863 66.760875676685828 0 66.760875676685828 155.51896025585302 0 0 0 0 -18.452512372450151 41.164766924919341 0 41.164766924919341 123.40500209610414 0 0 0 0 -8.0251337545743624 -3.2234012086914419 0 -3.2234012086914419 91.880990997712388 0 0 0 0 -58.197174183876086 28.287545795901679 0 28.287545795901679 61.456177918211324 0 0 0 0 -16.450412280266622 25.422556849455823 0 25.422556849455823 115.57454958441498 0 0 0 0 4.2941594095195796 -103.83480127440635 0 -103.83480127440635 195.92477764645082 0 0 0 0 -166.27857191263138 787.18298877767666 0 787.18298877767666 -395.23413778273607 0 0 0 0 -11.792834841851644 -1.9901687604833675 0 -1.9901687604833675 23.394381867445588 0 0 0 0 -454.43140250878969 55.153436118409445 0 55.153436118409445 -522.57005018756172 0 0 0 0 38.210308636028685 1128.379504812784 0 1128.379504812784 133.66956010280046 0 0 0 0 -413.8326060809004 269.0918969279428 0 269.0918969279428 315.33887980902364 0 0 0 0 41.767917584301202 -45.289547771381535 0 -45.289547771381535 98.643639668625838 0 0 0 0 -113.65507785699683 -29.969388268448711 0 -29.969388268448711 245.22833171032153 0 0 0 0 -170.31127381158342 98.14945544484317 0 98.14945544484317 189.52217341422283 0 0 0 0 -4.8140880316217807 12.420073548805945 0 12.420073548805945 98.273559108656585 0 0 0 0 -28.97544865109694 11.276454698239831 0 11.276454698239831 108.52656917619606 0 0 0 0 -4.0892649594616159 -2.6220554831816116 0 -2.6220554831816116 107.59737431773124 0 0 0 0 -9.2696924050915186 -4.7741832335832441 0 -4.7741832335832441 101.77323752384325 0 0 0 0 -17.893020443705691 -16.366589693985475 0 -16.366589693985475 99.960206697985043 0 0 0 0 -3.4328646024600857 4.6584618441656858 0 4.6584618441656858 114.10848061413344 0 0 0 0 1.9329205451708731 -9.5527170616187504 0 -9.5527170616187504 115.28804927679835 0 0 0 0 -69.107645573603804 -131.62522574132163 0 -131.62522574132163 -24.740525814278044 0 0 0 0 -283.46050120677319 -346.82618375075981 0 -346.82618375075981 379.2174533108726 0 0 0 0 267.54342695588548 88.572960500885529 0 88.572960500885529 29.02012166181521 0 0 0 0 -12.504865438527077 -41.989391512921429 0 -41.989391512921429 76.760434628722578 0 0 0 0 12.608948062062154 -26.020325757257524 0 -26.020325757257524 80.278485046277638 0 0 0 0 -19.318672697793041 -18.501590318064281 0 -18.501590318064281 106.34500170026261 0 0 0 0 1.08807380166642 6.9011150060237725 0 6.9011150060237725 23.20290244752124 0 0 0 0 3.8802439854416662 -0.16006568985812919 0 -0.16006568985812919 143.83280866405039 0 0 0 0 9.8436128170978918 11.87849606515374 0 11.87849606515374 42.480689065723709 0 0 0 0 -6.7452226881594513 5.606010225762958 0 5.606010225762958 7.5999510144473383 0 0 0 0 -9.1044928933843039 -5.5622545082969737 0 -5.5622545082969737 130.53086330179576 0 0 0 0 1.1688879929443168 1.8278044704878766 0 1.8278044704878766 6.2460747087333814 0 0 0 0 -13.889255711163059 -14.573685276049218 0 -14.573685276049218 65.442016898348811 0 0 0 0 -4.3200056231378312 1.2346295715378801 0 1.2346295715378801 120.27582422681007 0 0 0 0 -8.6748604294211873 -1.5379130615019676 0 -1.5379130615019676 118.86485423401609 0 0 0 0 -4.410645850811413 7.1181524988194731 0 7.1181524988194731 102.28799906019046 0 0 0 0 -5.3340935518772312 -6.3000934947467613 0 -6.3000934947467613 115.16968236173852 0 0 0 0 -10.833379145045001 2.695742398578659 0 2.695742398578659 55.947568044228319 0 0 0 0 -6.3017551374036733 -4.3513130965598279 0 -4.3513130965598279 63.554260028279828 0 0 0 0 -8.4017078834804124 5.2636414965381846 0 5.2636414965381846 77.442274506356625 0 0 0 0 7.4689203068610368 9.6908367273499607 0 9.6908367273499607 73.336867911406443 0 0 0 0 -2.7224675951823372 6.5184655204770721 0 6.5184655204770721 33.742050915108294 0 0 0 0 -1.6861050824681527 1.9556685788343913 0 1.9556685788343913 48.192780931815292 0 0 0 0 -8.4747584193223489 -4.3706872723872223 0 -4.3706872723872223 37.462018904844285 0 0 0 0 -5.5560947941048653 2.4272250263165915 0 2.4272250263165915 43.393223382503493 0 0 0 0 67.222423312914742 104.86170795695364 0 104.86170795695364 108.13944247768814 0 0 0 0 4.825663265942655 -4.1191694677420259 0 -4.1191694677420259 11.045273681852876 0 0 0 0 1.0344344374391312 84.553035365101096 0 84.553035365101096 146.3418910720211 0 0 0 0 63.109176533143568 35.732572770008346 0 35.732572770008346 74.233479549642652 0 0 0 0 10.696443410470238 62.778155240092019 0 62.778155240092019 116.77927263455058 0 0 0 0 -31.67563723098192 36.019323237342178 0 36.019323237342178 120.06676474511914 0 0 0 0 80.779688259038267 80.415679194378754 0 80.415679194378754 139.85505351687243 0 0 0 0 -106.03865187918382 101.30978383490583 0 101.30978383490583 211.59674814149912 0 0 0 0 98.960993223419791 -94.129617551123374 0 -94.129617551123374 41.467636214109007 0 0 0 0 2.0745113608833385 -2.2741335002813656 0 -2.2741335002813656 2.3870641091491507 0 0 0 0 187.26606015911671 264.4254226696803 0 264.4254226696803 317.26738807873335 0 0 0 0 -39.127114165874445 0.6294786278376705 0 0.6294786278376705 56.820456026427564 0 0 0 0 21.609567334264739 38.370845769475636 0 38.370845769475636 -17.931123444745026 0 0 0 0 30.868243868565514 -34.22335091451896 0 -34.22335091451896 8.9584725337153941 0 0 0 0 1.4175543537740403 1.2030132923926971 0 1.2030132923926971 -1.6147048054163307 0 0 0 0 60.055313938289601 -37.166816850001851 0 -37.166816850001851 129.27244413408334 0 0 0 0 92.487932147007996 -146.43512158584053 0 -146.43512158584053 140.70678631999181 0 0 0 0 31.484999268078354 -82.299013011670468 0 -82.299013011670468 81.805648011035373 0 0 0 0 -27.775750054059472 -17.136158082592374 0 -17.136158082592374 234.39326987253298 0 0 0 0 27.785508627364834 -66.370706555098877 0 -66.370706555098877 118.43812427952435 0 0 0 0 15.871619172394276 -38.918679957587301 0 -38.918679957587301 71.303619178484951 0 0 0 0 21.570643947827648 -54.716189888989902 0 -54.716189888989902 109.55510156578384 0 0 0 0 0.34975391316333448 -0.49685289033664404 0 -0.49685289033664404 0.29731062469407554 0 0 0 0 22.956702008804541 2.2852291054623493 0 2.2852291054623493 52.27092121372425 0 0 0 0 19.715524618586869 25.137231642036568 0 25.137231642036568 60.665161536723645 0 0 0 0 29.489749017750796 4.0438310377085145 0 4.0438310377085145 41.497321426772032 0 0 0 0 26.503826641494925 27.94468067190337 0 27.94468067190337 15.588173777261545 0 0 0 0 9.9921578664875881 32.332297221774752 0 32.332297221774752 23.140979817269908 0 0 0 0 -0.19584540711047449 0.3514293076532411 0 0.3514293076532411 -1.2673762489721607 0 0 0 0 24.669447962303423 10.296731257186138 0 10.296731257186138 46.263952554532807 0 0 0 0 66.677678456823969 40.735684295125793 0 40.735684295125793 13.85983378943456 0 0 0 0 -73.810339058290765 25.944200043639739 0 25.944200043639739 96.932378319259442 0 0 0 0 -3.6739592446231595 9.0737100358888743 0 9.0737100358888743 13.534769237391636 0 0 0 0 -64.550097888751566 -9.3734172658448642 0 -9.3734172658448642 66.865981121567529 0 0 0 0 24.659732455778794 21.865621858532904 0 21.865621858532904 63.381130328803124 0 0 0 0 4.5742190862647476 6.5748988923496654 0 6.5748988923496654 74.342995332081045 0 0 0 0 -12.759833597751907 5.2902832426771056 0 5.2902832426771056 56.740654599328991 0 0 0 0 0.48519387788079382 3.2140278836075193 0 3.2140278836075193 51.746047830718908 0 0 0 0 -9.057138067002251 -0.569069644575805 0 -0.569069644575805 55.493802103188116 0 0 0 0 -5.7596526985286474 12.731311548970375 0 12.731311548970375 46.619012332462546 0 0 0 0 1.8050293897913434 36.378258374750203 0 36.378258374750203 75.384271256421926 0 0 0 0 -4.7794478795985924 -0.61255008024454582 0 -0.61255008024454582 59.048044677114376 0 0 0 0 -3.365436851596816 15.2140609781626 0 15.2140609781626 41.913790580459214 0 0 0 0 -2.0171064450695511 2.3357200680973076 0 2.3357200680973076 13.822627388442832 0 0 0 0 -1.2504900156081931 11.24461631966642 0 11.24461631966642 50.150885738765737 0 0 0 0 0.64775953537847908 -2.2219919442106431 0 -2.2219919442106431 21.983752902690689 0 0 0 0 -41.447138673166137 48.210525944725305 0 48.210525944725305 102.8066315306678 0 0 0 0 0.054207619758017245 4.8782989399696817 0 4.8782989399696817 78.538967382316514 0 0 0 0 -24.25810010023838 -0.18909937901662488 0 -0.18909937901662488 124.18829601822927 0 0 0 0 4.8644316099145612 -11.763433874806879 0 -11.763433874806879 97.655065675277001 0 0 0 0 -7.5142284879155437 13.244147335530906 0 13.244147335530906 88.60579771057067 0 0 0 0 -37.569132671027546 38.041893982283 0 38.041893982283 108.49178984438186 0 0 0 0 -23.914762955125525 24.318910890560801 0 24.318910890560801 95.896521544644202 0 0 0 0 -16.949033048533238 23.859903042735823 0 23.859903042735823 94.390217506334011 0 0 0 0 -34.954602994829656 -5.4485350958930212 0 -5.4485350958930212 123.97394199950395 0 0 0 0 -98.63175855766076 -46.531320984639024 0 -46.531320984639024 99.825311780834454 0 0 0 0 -27.599733328318052 39.372255327837593 0 39.372255327837593 103.81686682289023 0 0 0 0 -5.7151957328229201 8.2488494799193823 0 8.2488494799193823 90.85194302491027 0 0 0 0 -3.2123238771228122 -2.1208571139167667 0 -2.1208571139167667 23.315170433616601 0 0 0 0 -1.813064217200349 8.0279318032153242 0 8.0279318032153242 125.26643602684453 0 0 0 0 13.540002405281825 -0.28259491609503584 0 -0.28259491609503584 145.4004859622255 0 0 0 0 16.721215989101779 8.9880383798017647 0 8.9880383798017647 115.85117734381311 0 0 0 0 -1.3061929356614144 -11.087510764496756 0 -11.087510764496756 175.91374483340223 0 0 0 0 29.010875941994868 -27.685746799499611 0 -27.685746799499611 100.70180015581354 0 0 0 0 -10.982666207042485 -98.80694906939425 0 -98.80694906939425 -49.170614419061167 0 0 0 0 -2.1936419940553336 -1.4939296807743236 0 -1.4939296807743236 -1.259629887631819 0 0 0 0 -13.664116449363519 -6.0277552661927984 0 -6.0277552661927984 217.56739958597836 0 0 0 0 -42.232107585756239 -56.503176049989634 0 -56.503176049989634 56.773955372763339 0 0 0 0 -68.130827854256339 -91.882371231763841 0 -91.882371231763841 73.849757432304614 0 0 0 0 -69.59025481715571 -72.662110361251507 0 -72.662110361251507 122.3022086368137 0 0 0 0 -46.667622958491847 -29.221594696229658 0 -29.221594696229658 94.869535735352656 0 0 0 0 -91.211954545497065 -46.291745040193291 0 -46.291745040193291 90.182310163785587 0 0 0 0 -6.3767424898246521 7.7664076105498845 0 7.7664076105498845 93.603350553250039 0 0 0 0 -29.606199858358195 32.171613746038929 0 32.171613746038929 94.313212037359335 0 0 0 0 -2.584450733813469 0.17669184620125122 0 0.17669184620125122 24.554030844938989 0 0 0 0 -29.28579314322451 29.770629197524613 0 29.770629197524613 102.86898952623233 0 0 0 0 5.1472816056257216 6.1803116370538191 0 6.1803116370538191 80.520700356505586 0 0 0 0 -34.031814695681078 4.1297050190814844 0 4.1297050190814844 126.35576090642644 0 0 0 0 -8.6319548759771134 35.540387625283252 0 35.540387625283252 30.403509201194517 0 0 0 0 -20.383734559322875 -33.429525287000615 0 -33.429525287000615 150.30924638675788 0 0 0 0 -157.44453023208553 358.09364545372955 0 358.09364545372955 -74.04424891114104 0 0 0 0 26.642752955421201 -282.03317741097635 0 -282.03317741097635 455.01971339104057 0 0 0 0 -26.586780408059429 16.496591277515208 0 16.496591277515208 50.281466077083564 0 0 0 0 -48.691618231122447 -120.84001612511565 0 -120.84001612511565 146.75160978647909 0 0 0 0 -46.212836132053781 -91.718165411090013 0 -91.718165411090013 243.26869686173086 0 0 0 0 68.388533834377995 -34.97358667201479 0 -34.97358667201479 134.48384239909501 0 0 0 0 -160.19523463651217 420.71092868817414 0 420.71092868817414 -233.58031794606995 0 0 0 0 -18.522362554183271 -5.2485373968673139 0 -5.2485373968673139 128.48940154488085 0 0 0 0 -20.702200733554946 -2.8713061654507328 0 -2.8713061654507328 181.05911155979902 0 0 0 0 1.5757272338369654 -9.7867929697074931 0 -9.7867929697074931 31.930836714892088 0 0 0 0 180.6941703814816 -16.571391758021718 0 -16.571391758021718 -27.454408242372665 0 0 0 0 -44.989147259581848 121.35114588269175 0 121.35114588269175 -5.0425583825144713 0 0 0 0 37.280676088192649 -33.449391709089468 0 -33.449391709089468 212.24340328996186 0 0 0 0 20.331023350944633 22.132731960558885 0 22.132731960558885 251.18974177721429 0 0 0 0 3.3886047545312334 0.64515859167080869 0 0.64515859167080869 -0.62271060255244493 0 0 0 0 36.17971452472807 74.791123266847535 0 74.791123266847535 246.04626609170555 0 0 0 0 7.9441398266937995 122.11953652411103 0 122.11953652411103 178.94972268810989 0 0 0 0 -9.7508627062293396 10.998108941262704 0 10.998108941262704 85.240602554001441 0 0 0 0 -287.94417271654231 47.791821665350199 0 47.791821665350199 323.05505618749521 0 0 0 0 61.15947389069953 62.263213072210419 0 62.263213072210419 -38.92580515264126 0 0 0 0 6.3932948127191311 38.350470011220537 0 38.350470011220537 32.353291317273815 0 0 0 0 31.314239703350268 85.121181547618107 0 85.121181547618107 30.464992692181113 0 0 0 0 20.755900384633605 203.87813198803997 0 203.87813198803997 499.63482669696896 0 0 0 0 -45.475045431030594 -164.91183559768615 0 -164.91183559768615 307.49852832666511 0 0 0 0 109.60938300574344 117.15307919431143 0 117.15307919431143 -319.28361564631268 0 0 0 0 6.2499675187975967 38.123219857294615 0 38.123219857294615 34.091913215041487 0 0 0 0 92.834286813371364 -11.490560787720824 0 -11.490560787720824 -56.292375631046525 0 0 0 0 138.68875102406787 -273.08598552553576 0 -273.08598552553576 108.29544099885243 0 0 0 0 -2.3182956499149441 -14.981398810588871 0 -14.981398810588871 475.78820685609935 0 0 0 0 29.875649665272476 -59.341484177301936 0 -59.341484177301936 72.96901171409263 0 0 0 0 -71.483038503833541 4.5495976387701376 0 4.5495976387701376 126.28908099854016 0 0 0 0 -12.745486866871943 -91.807987067102658 0 -91.807987067102658 128.49757849491652 0 0 0 0 -548.43375272454341 386.07075974262989 0 386.07075974262989 1378.7398575427796 0 0 0 0 699.97836675164035 -625.87491006822529 0 -625.87491006822529 363.58307711703128 0 0 0 0 1.6174197534713843 -6.4984871237977053 0 -6.4984871237977053 14.417115545746441 0 0 0 0 -437.78610310112981 316.77073269905668 0 316.77073269905668 600.19494742990719 0 0 0 0 -367.26244060244198 20.584307637072925 0 20.584307637072925 1007.6529310268306 0 0 0 0 889.36291641972286 -899.51674543978879 0 -899.51674543978879 278.27740539328079 0 0 0 0 -85.734511977068678 18.835435040789889 0 18.835435040789889 424.95199702656464 0 0 0 0 -115.70712079989153 127.47857168817427 0 127.47857168817427 521.04203987567962 0 0 0 0 -344.82103074159096 88.546742363911108 0 88.546742363911108 514.45739687096648 0 0 0 0 -38.22106594482841 126.99187734106454 0 126.99187734106454 316.95494646196312 0 0 0 0 58.529584076619471 -72.409235141149111 0 -72.409235141149111 507.53609597193645 0 0 0 0 -52.441847352829598 66.006289739279964 0 66.006289739279964 466.47118318088178 0 0 0 0 219.00414784753639 -164.10987935953381 0 -164.10987935953381 296.68410739515093 0 0 0 0 310.62664868485297 -493.05176804191433 0 -493.05176804191433 852.59871034090611 0 0 0 0 126.62263066633538 -96.432355524850209 0 -96.432355524850209 410.99142899388971 0 0 0 0 84.578465168965067 -208.8932270778605 0 -208.8932270778605 422.7570448366987 0 0 0 0 47.16202954465075 -61.577636239531785 0 -61.577636239531785 -157.20995504757593 0 0 0 0 -300.98706973608046 233.11774094875727 0 233.11774094875727 256.87211666227086 0 0 0 0 473.90613673949679 -652.57610398975885 0 -652.57610398975885 805.97894897225342 0 0 0 0 -512.60387004535232 -327.40274353038694 0 -327.40274353038694 254.3297379906071 0 0 0 0 476.5379733959162 -151.68859820798752 0 -151.68859820798752 106.96397726862051 0 0 0 0 -905.65864293795858 -151.23378580830104 0 -151.23378580830104 531.88423070380668 0 0 0 0 -564.15939789414301 -782.5215524248124 0 -782.5215524248124 -200.32801089113491 0 0 0 0 2.0451158233384179 -12.828837899258099 0 -12.828837899258099 38.621021375519945 0 0 0 0 -225.0743203236816 346.34711079723638 0 346.34711079723638 100.19872084068629 0 0 0 0 155.52271143954749 -159.04305275599654 0 -159.04305275599654 -25.795659351944778 0 0 0 0 67.068642552813799 -175.65584633200706 0 -175.65584633200706 -24.97767705188744 0 0 0 0 684.03460145021199 548.11395496033128 0 548.11395496033128 190.95948578937532 0 0 0 0 174.53709847275877 -102.14133043706533 0 -102.14133043706533 -239.44137770804446 0 0 0 0 -221.24965320447785 541.75485376652614 0 541.75485376652614 3495.0136341434481 0 0 0 0 8.0427562509267432 271.36890135538124 0 271.36890135538124 2043.4609989620476 0 0 0 0 14.289225156776105 -6.4171120292535093 0 -6.4171120292535093 5.1729480204543989 0 0 0 0 689.6851804175609 1050.8077439826848 0 1050.8077439826848 2574.6234854093345 0 0 0 0 2.6935036683698401 -6.363206881198737 0 -6.363206881198737 24.212801339917661 0 0 0 0 -2.8741726591335919 1684.5756964148386 0 1684.5756964148386 2799.9121250203752 0 0 0 0 1815.4037320650334 -695.01459517496005 0 -695.01459517496005 -2166.3322366540961 0 0 0 0 -217.79395624025403 -1530.2175711413474 0 -1530.2175711413474 3494.924660089293 0 0 0 0 1918.7303967109822 -1239.879524479803 0 -1239.879524479803 200.39438984854496 0 0 0 0 973.57906714633907 -2043.25301842921 0 -2043.25301842921 2072.191488727738 0 0 0 0 469.65687366915211 -1159.5537564132028 0 -1159.5537564132028 1349.1451106930053 0 0 0 0 405.03849107641815 -782.68628756435646 0 -782.68628756435646 671.96599626074021 0 0 0 0 175.34138108174056 -147.31482708581825 0 -147.31482708581825 43.961059756438772 0 0 0 0 55.496365956985699 -89.831274556118842 0 -89.831274556118842 445.71211057472465 0 0 0 0 7.7048383504943887 8.3108368888550217 0 8.3108368888550217 50.737580950404805 0 0 0 0 -107.15814450289599 -30.99962590941368 0 -30.99962590941368 87.977176309384959 0 0 0 0 -7.8884697446200267 13.369963186934227 0 13.369963186934227 16.632897753397142 0 0 0 0 12.296179515856238 -40.832989883779192 0 -40.832989883779192 43.778342593541311 0 0 0 0 53.425978698438676 -30.231041207218027 0 -30.231041207218027 33.800730409806299 0 0 0 0 1.2940317199609126 -80.529611996560561 0 -80.529611996560561 112.92904643686961 0 0 0 0 -6.3272245723073866 -43.675482839811593 0 -43.675482839811593 97.925958560557774 0 0 0 0 174.75058593986955 -113.93098807540719 0 -113.93098807540719 -43.034218227840029 0 0 0 0 39.796826457829063 -19.784407210642328 0 -19.784407210642328 9.1155708346315549 0 0 0 0 98.832178639778817 -332.35958924963961 0 -332.35958924963961 1035.2590322391115 0 0 0 0 200.37417838211996 146.24847294511346 0 146.24847294511346 340.7851893752777 0 0 0 0 -640.04355504499529 -133.39558719527304 0 -133.39558719527304 2947.2556488245318 0 0 0 0 -151.74215643036962 549.03869849540479 0 549.03869849540479 1958.7592350111227 0 0 0 0 -362.96722061622847 42.860809228284779 0 42.860809228284779 2182.8769828273671 0 0 0 0 -490.54953372967611 -848.54645558332231 0 -848.54645558332231 3496.4795925057233 0 0 0 0 15.304530758062015 134.88975540505271 0 134.88975540505271 706.73616605070856 0 0 0 0 529.18737179524987 -838.8794451976446 0 -838.8794451976446 1071.0780159983315 0 0 0 0 1.13123011880809 4.2823645088057631 0 4.2823645088057631 21.051445948577722 0 0 0 0 900.03823519491459 -1717.7743371331635 0 -1717.7743371331635 2363.764188166293 0 0 0 0 -198.02117137370468 837.45860792400003 0 837.45860792400003 2318.7390621417153 0 0 0 0 -255.12078069104854 -1079.186512976612 0 -1079.186512976612 3497.1379688323168 0 0 0 0 -191.2715008858313 578.02808752947112 0 578.02808752947112 3477.1400021892164 0 0 0 0 788.28033236727128 756.60833863248536 0 756.60833863248536 483.69993307549157 0 0 0 0 -129.31855422766765 -734.61632488993564 0 -734.61632488993564 1770.292245667446 0 0 0 0 -0.38700125699458465 8.0489081242985776 0 8.0489081242985776 17.022881667573639 0 0 0 0 61.196343713588817 -184.51068985552683 0 -184.51068985552683 195.99304717642633 0 0 0 0 138.67495745880615 -93.955713131492587 0 -93.955713131492587 25.081176992303881 0 0 0 0 -93.490493640139675 -7.5029429316646201 0 -7.5029429316646201 157.8766809296576 0 0 0 0 119.37923061678552 -192.14612162898152 0 -192.14612162898152 136.71051947802334 0 0 0 0 1.2426205951568272 10.830274645032063 0 10.830274645032063 18.848135049153914 0 0 0 0 98.200626947819259 -75.04255765945436 0 -75.04255765945436 100.06584328968574 0 0 0 0 77.961950265224175 -119.89111845494017 0 -119.89111845494017 7.7562010019919398 0 0 0 0 -35.606624058789009 -23.146018844296123 0 -23.146018844296123 46.186759619128679 0 0 0 0 -112.08676477675112 -109.16976566747417 0 -109.16976566747417 -30.906781380152097 0 0 0 0 279.71168350514739 -85.496641892538719 0 -85.496641892538719 -14.095166591238012 0 0 0 0 31.567480532421087 -179.84934378791149 0 -179.84934378791149 219.68119626304178 0 0 0 0 68.649675068059707 470.46863294250488 0 470.46863294250488 859.69269742124379 0 0 0 0 143.18474475326266 -70.27292978839057 0 -70.27292978839057 30.762296242366574 0 0 0 0 102.62189074282924 -65.163481868219606 0 -65.163481868219606 65.427851635275147 0 0 0 0 20.42835191845279 28.948804668099001 0 28.948804668099001 -55.852431432538197 0 0 0 0 0.28836154504012912 12.600162902939354 0 12.600162902939354 13.297508971078447 0 0 0 0 1.4443226553263937 1.7532339069854928 0 1.7532339069854928 0.74503522611530748 0 0 0 0 29.936339358263467 -79.49472431173308 0 -79.49472431173308 7.4937709136320336 0 0 0 0 80.503814981253271 -58.739311880674904 0 -58.739311880674904 43.950717988569522 0 0 0 0 198.75924182305812 42.129243251754815 0 42.129243251754815 119.25221182581299 0 0 0 0 57.291220397931738 22.00877697188389 0 22.00877697188389 152.19425100569424 0 0 0 0 14.858965817870057 4.6043762276217421 0 4.6043762276217421 198.62851528965621 0 0 0 0 63.459364898490435 66.613050047228171 0 66.613050047228171 164.02762674348196 0 0 0 0 32.970410719750021 62.350077355936264 0 62.350077355936264 197.81793312394802 0 0 0 0 99.521099261978691 -19.333494166666242 0 -19.333494166666242 129.8165401079832 0 0 0 0 237.89541065577737 -120.16726604923406 0 -120.16726604923406 193.3910696807061 0 0 0 0 141.84180931921912 -62.20875718330899 0 -62.20875718330899 30.689826980622456 0 0 0 0 152.54802819603742 -44.045823714478502 0 -44.045823714478502 37.022921935011254 0 0 0 0 175.1511333908042 -83.539563207380525 0 -83.539563207380525 42.309805729099025 0 0 0 0 212.7802038069311 -40.72964311524197 0 -40.72964311524197 35.454023845737538 0 0 0 0 109.44302399256262 -66.659109981432266 0 -66.659109981432266 47.359531590816005 0 0 0 0 -57.659687542901111 -74.267434722379676 0 -74.267434722379676 49.714037649550846 0 0 0 0 107.59035668904801 -48.203295918893104 0 -48.203295918893104 -20.319187326098472 0 0 0 0 -142.45793581175724 52.583591561538015 0 52.583591561538015 -14.766160138917257 0 0 0 0 -207.54354143154353 -118.41857336969065 0 -118.41857336969065 155.2876018842926 0 0 0 0 -151.98765635682855 -33.725983144076963 0 -33.725983144076963 135.78472122408493 0 0 0 0 92.537881156957269 -56.490107502339924 0 -56.490107502339924 29.056044371466669 0 0 0 0 89.079383125825331 105.74228053496108 0 105.74228053496108 60.53734030580722 0 0 0 0 -436.16836925044288 192.83847853798511 0 192.83847853798511 35.72921880193644 0 0 0 0 -253.04189503049454 -60.005511531520824 0 -60.005511531520824 262.17116598365919 0 0 0 0 159.98920309407134 87.292358059473372 0 87.292358059473372 -60.926859919167896 0 0 0 0 170.61200509954406 27.471978746723835 0 27.471978746723835 162.72080859318612 0 0 0 0 -243.50241977110272 -276.0330850707619 0 -276.0330850707619 -56.824823881644079 0 0 0 0 647.50632630654604 446.63452064123021 0 446.63452064123021 281.68335873656542 0 0 0 0 -0.72528245405297143 -0.065612509965194299 0 -0.065612509965194299 6.5593657567079156 0 0 0 0 -226.43644942213359 -219.43422702547696 0 -219.43422702547696 96.200205685968285 0 0 0 0 348.98500678329037 178.35246479190755 0 178.35246479190755 207.22400068917659 0 0 0 0 -75.116976197942279 56.82554765490562 0 56.82554765490562 437.08463161635791 0 0 0 0 61.27218644149761 84.09956044611522 0 84.09956044611522 494.57772077874961 0 0 0 0 -21.592566783971961 145.38817594529428 0 145.38817594529428 135.63619969405897 0 0 0 0 143.8552152934742 114.47141555556868 0 114.47141555556868 -44.263591335111414 0 0 0 0 87.702459981751758 31.476665320057919 0 31.476665320057919 -32.376034588290167 0 0 0 0 0.28553550270385131 128.67771855900378 0 128.67771855900378 555.72190364716425 0 0 0 0 6.8378472486282362 16.991863893626601 0 16.991863893626601 106.25236263765146 0 0 0 0 -102.53025541148372 -0.28304372425009205 0 -0.28304372425009205 209.09428002259006 0 0 0 0 -316.95993416357999 91.456167355933076 0 91.456167355933076 81.543849617855585 0 0 0 0 1.349067384332288 9.1606970207739664 0 9.1606970207739664 37.046731530205612 0 0 0 0 -45.872750962842815 53.590219877873324 0 53.590219877873324 -11.619222546059746 0 0 0 0 -86.512634502598075 119.54400511588278 0 119.54400511588278 -6.2490823832847582 0 0 0 0 -83.109746166739001 70.727193640180303 0 70.727193640180303 46.031523063375971 0 0 0 0 -434.31620424766834 56.187585334035248 0 56.187585334035248 129.65720494529978 0 0 0 0 -239.46837730650475 100.25827021159012 0 100.25827021159012 39.387066370544744 0 0 0 0 1.5507550826924852 9.5400013704643669 0 9.5400013704643669 42.534992198535036 0 0 0 0 1.1606741134413445 11.030333619725397 0 11.030333619725397 44.950858888864978 0 0 0 0 -166.30475256108741 -79.626704540772607 0 -79.626704540772607 55.009743600079673 0 0 0 0 -127.79191297383522 81.613504524491418 0 81.613504524491418 16.543312881361999 0 0 0 0 -258.64667642366885 -26.341415422614773 0 -26.341415422614773 69.172603134190922 0 0 0 0 -93.928787537438552 66.06610407372267 0 66.06610407372267 10.242122791066322 0 0 0 0 -99.536839986798213 86.109660658773009 0 86.109660658773009 9.2651671828275539 0 0 0 0 -101.00825831292354 73.529023723748196 0 73.529023723748196 7.6946474663978961 0 0 0 0 -18.90532987245922 35.145036528078322 0 35.145036528078322 -58.733000345921027 0 0 0 0 0.79344686943738907 -16.240191100516768 0 -16.240191100516768 -11.290451188404404 0 0 0 0 38.889725373343197 55.886290699110305 0 55.886290699110305 -51.307389135870835 0 0 0 0 -48.967312333163591 92.219175866656315 0 92.219175866656315 -20.603651494652695 0 0 0 0 3.407333777633994 109.60305812806018 0 109.60305812806018 -14.979992162363033 0 0 0 0 39.862922605554104 53.077469441016092 0 53.077469441016092 -64.581494889477199 0 0 0 0 86.298469913173676 32.171391699167543 0 32.171391699167543 -119.72318311510662 0 0 0 0 0.0249351712513044 -0.52316866819209507 0 -0.52316866819209507 1.1020997550284068 0 0 0 0 -0.33624040039939018 -25.845794170229851 0 -25.845794170229851 -83.848579918578707 0 0 0 0 -9.8641782200502348 -11.531183549921479 0 -11.531183549921479 -75.10731465319941 0 0 0 0 -172.22266613352826 84.657812048119922 0 84.657812048119922 60.260527471461444 0 0 0 0 -98.76918653270809 4.7858748742019088 0 4.7858748742019088 73.487295286058725 0 0 0 0 -386.41362719657513 194.22160421632339 0 194.22160421632339 -69.004678240174371 0 0 0 0 -110.00672575776821 68.830684991053204 0 68.830684991053204 -44.614765161413288 0 0 0 0 11.168038165721157 -105.38828905146613 0 -105.38828905146613 3.6217570306357629 0 0 0 0 -166.17316474249492 5.0167501675964559 0 5.0167501675964559 72.533175849751387 0 0 0 0 -317.08283614107722 150.97483902876434 0 150.97483902876434 -14.847040587421361 0 0 0 0 -4.2813845390068579 -3.0406449401681233 0 -3.0406449401681233 9.0229324997962728 0 0 0 0 -110.59296613741958 68.828940389461422 0 68.828940389461422 9.1723953287282711 0 0 0 0 -123.62489381890146 88.672347717446883 0 88.672347717446883 8.173813865631999 0 0 0 0 0.71715784847640096 5.8197879328527327 0 5.8197879328527327 19.538028491805083 0 0 0 0 -117.24823154487513 -90.6447180639816 0 -90.6447180639816 -41.137890800841433 0 0 0 0 1.500027460114133 7.4770559716198832 0 7.4770559716198832 23.641501378464241 0 0 0 0 -211.72392879443885 65.485252853461134 0 65.485252853461134 108.8376921888339 0 0 0 0 -57.135455918697062 -6.6912876961960137 0 -6.6912876961960137 11.381760345300904 0 0 0 0 22.813610964456082 40.195305810359514 0 40.195305810359514 12.348678976029987 0 0 0 0 156.28361870713888 -176.7416297788036 0 -176.7416297788036 -140.0772189625809 0 0 0 0 551.04215367972972 687.99563680109623 0 687.99563680109623 766.5069503286677 0 0 0 0 -111.65702321950576 -247.15785995625936 0 -247.15785995625936 3395.8757571968526 0 0 0 0 1.1895078056397437 2.8783718589954432 0 2.8783718589954432 10.097194852744298 0 0 0 0 -101.87396876874625 -87.988186956489699 0 -87.988186956489699 167.65203811603396 0 0 0 0 -0.91756975859224998 2.4757831039287712 0 2.4757831039287712 8.8791235867925842 0 0 0 0 226.09683063014236 335.38148764757972 0 335.38148764757972 -186.61672201180863 0 0 0 0 -0.29129306451978643 -0.26637294390386934 0 -0.26637294390386934 2.63150662486348 0 0 0 0 -371.76606956422199 -197.51028529728404 0 -197.51028529728404 -121.58517992388079 0 0 0 0 326.22599594939084 23.737884664935791 0 23.737884664935791 -1115.7894043768592 0 0 0 0 5.7795494758788806 10.775231466653095 0 10.775231466653095 13.519859041074938 0 0 0 0 454.71659386166863 636.55833248595923 0 636.55833248595923 384.6452457404107 0 0 0 0 -312.89779618087584 726.11266287694298 0 726.11266287694298 3493.1022162019153 0 0 0 0 -309.30109804404765 -306.96567450478085 0 -306.96567450478085 1223.3625941007467 0 0 0 0 -252.82085663557226 90.064496992188197 0 90.064496992188197 3984.1119364106935 0 0 0 0 3.1971893086880634 5.3755894560441302 0 5.3755894560441302 8.4747415100774024 0 0 0 0 204.80378345434224 1019.2302920107184 0 1019.2302920107184 395.39615345585389 0 0 0 0 440.35963911213366 1097.3717671228594 0 1097.3717671228594 303.57296907271393 0 0 0 0 647.88773730857929 363.7096931573451 0 363.7096931573451 3502.7722790279595 0 0 0 0 -148.53021257112721 57.36227033877185 0 57.36227033877185 3424.9307004562929 0 0 0 0 362.22497278577595 1234.9084286997204 0 1234.9084286997204 1380.6440208592826 0 0 0 0 184.5945585227966 375.64258270946402 0 375.64258270946402 1164.533976366291 0 0 0 0 240.72017157138879 213.58603181855551 0 213.58603181855551 549.01465628814685 0 0 0 0 506.4716542072112 419.84046052395661 0 419.84046052395661 397.01956553482569 0 0 0 0 289.51143402323078 -162.62680152007533 0 -162.62680152007533 1509.2079376098554 0 0 0 0 -560.49000214120804 -596.03935212257375 0 -596.03935212257375 3492.3178682277749 0 0 0 0 -177.47088705978689 277.29696124065299 0 277.29696124065299 1825.2120081734283 0 0 0 0 -183.40567046980738 -1179.2874454743537 0 -1179.2874454743537 931.21927753275759 0 0 0 0 -0.22432225968385511 -2.3557363600660937 0 -2.3557363600660937 15.567162809545692 0 0 0 0 -309.00110812453096 496.58946773663047 0 496.58946773663047 1188.4309833271236 0 0 0 0 491.35497900406051 1877.698523318465 0 1877.698523318465 3494.2112681035123 0 0 0 0 -662.98707931312833 200.64813208781106 0 200.64813208781106 1300.3479110096014 0 0 0 0 -1.398792630549313 -8.1123813868733805 0 -8.1123813868733805 31.5470274420537 0 0 0 0 278.68561626441971 138.00085586752377 0 138.00085586752377 8.7898351916956017 0 0 0 0 -125.84449725679299 448.4186599276145 0 448.4186599276145 350.25340577363386 0 0 0 0 332.27761062063394 290.61090095531699 0 290.61090095531699 194.19817543360568 0 0 0 0 404.51806414038379 300.14725420550621 0 300.14725420550621 189.97275350723976 0 0 0 0 -346.12585573544561 -77.763706841584053 0 -77.763706841584053 166.72932089682035 0 0 0 0 36.868332773006273 283.62150579642002 0 283.62150579642002 317.63545457177815 0 0 0 0 43.987507623342594 276.33051678735683 0 276.33051678735683 323.65581770367498 0 0 0 0 47.843138875989212 281.90117334548268 0 281.90117334548268 330.94046195802002 0 0 0 0 393.80309897449831 381.67441119999648 0 381.67441119999648 209.7450106204933 0 0 0 0 -0.27848182435891061 -0.1642200504430289 0 -0.1642200504430289 2.1454745680165566 0 0 0 0 76.791804204729075 384.06230869674437 0 384.06230869674437 485.52514134725243 0 0 0 0 39.031863952972628 272.40308172443247 0 272.40308172443247 355.61151907207932 0 0 0 0 33.814769434135826 285.94050070400772 0 285.94050070400772 356.84008160654889 0 0 0 0 0.53238512656179182 15.597074005879676 0 15.597074005879676 255.92963082016342 0 0 0 0 -0.27851561210584297 -1.2306082081896195 0 -1.2306082081896195 5.3393257225390141 0 0 0 0 -32.652254953668489 -12.841234629296991 0 -12.841234629296991 14.118835759798458 0 0 0 0 346.00023607966102 347.8313116430063 0 347.8313116430063 202.86153975982927 0 0 0 0 40.582693130893858 -68.152130392216577 0 -68.152130392216577 48.296974416995596 0 0 0 0 13.973191389069711 8.0123246628754714 0 8.0123246628754714 54.731430399588675 0 0 0 0 -23.641565098235333 13.396080231603264 0 13.396080231603264 25.770459989165374 0 0 0 0 37.743259898890756 -43.288097830012475 0 -43.288097830012475 -10.285781499747713 0 0 0 0 0.47435710377307072 -1.5313719356255189 0 -1.5313719356255189 4.0969226128090614 0 0 0 0 183.12555428546199 280.42310693662557 0 280.42310693662557 291.35514091167533 0 0 0 0 308.18099571595081 222.16250544709828 0 222.16250544709828 316.65522184164161 0 0 0 0 69.417510246326401 -725.6233275149707 0 -725.6233275149707 1887.3525746438936 0 0 0 0 9.025465010435255 -340.27663624924025 0 -340.27663624924025 751.63852036893331 0 0 0 0 312.77119907187529 -800.94447175269306 0 -800.94447175269306 777.15539183237911 0 0 0 0 83.335335066811353 -609.65127487640166 0 -609.65127487640166 814.03813534714573 0 0 0 0 1170.6207882654512 -1609.4330748634311 0 -1609.4330748634311 1257.0343544481148 0 0 0 0 -241.45918792796277 -780.40309593778102 0 -780.40309593778102 1881.4096731833924 0 0 0 0 -195.7214034749436 -945.83251990748613 0 -945.83251990748613 2467.2733525904332 0 0 0 0 -586.19815377612167 -588.07050764364431 0 -588.07050764364431 3499.6682300334942 0 0 0 0 8.0132163653522639 -443.5813194649063 0 -443.5813194649063 1203.4088749164202 0 0 0 0 4.22831037202684 -255.56766873831384 0 -255.56766873831384 1182.4715377953198 0 0 0 0 -196.48747869518161 -44.561787797532816 0 -44.561787797532816 1954.0845475795234 0 0 0 0 -163.3087854805957 176.89519576265138 0 176.89519576265138 968.28991372518067 0 0 0 0 -685.22740017694514 22.201317559471136 0 22.201317559471136 1948.1908101024706 0 0 0 0 -748.02956336014688 300.61498716741903 0 300.61498716741903 3500.2300541603581 0 0 0 0 -361.3879035750644 831.40152900376142 0 831.40152900376142 1903.678852880108 0 0 0 0 -390.13854936563439 73.00581765258903 0 73.00581765258903 1521.4921407531374 0 0 0 0 44.365390376958203 -226.90893151981254 0 -226.90893151981254 -276.15120127984665 0 0 0 0 -478.8131315957595 498.16467123916391 0 498.16467123916391 597.86788796905967 0 0 0 0 -1059.9132668275372 -935.25061711034323 0 -935.25061711034323 536.15914411351241 0 0 0 0 19.993397273082195 234.98189995502287 0 234.98189995502287 336.09233637968282 0 0 0 0 -0.0087393227933441064 -8.8436797094340793 0 -8.8436797094340793 26.976155156436988 0 0 0 0 99.562676037052483 208.10476967641807 0 208.10476967641807 341.66509195847175 0 0 0 0 -189.05322702007902 -24.740757002768987 0 -24.740757002768987 23.156390194257256 0 0 0 0 -27.51788273447761 54.091483092269755 0 54.091483092269755 -619.55720411142647 0 0 0 0 -65.668998860900047 -82.92645904795063 0 -82.92645904795063 49.649570338524427 0 0 0 0 111.08941030545623 -226.51162989280601 0 -226.51162989280601 971.61753038623101 0 0 0 0 6.0830405136196752 2.2514892545920873 0 2.2514892545920873 1.039463315024161 0 0 0 0 10.097800856878905 -341.09390757017263 0 -341.09390757017263 859.76933434991588 0 0 0 0 33.039433563908915 -130.8107026770449 0 -130.8107026770449 -290.32695409212101 0 0 0 0 -16.931399366654976 11.386792723789313 0 11.386792723789313 51.773970518290241 0 0 0 0 24.045367925901246 30.865132767430623 0 30.865132767430623 52.724913424290207 0 0 0 0 32.694402093156441 -165.16212204037129 0 -165.16212204037129 15.028767547316193 0 0 0 0 -95.085407471412054 83.328922720120318 0 83.328922720120318 75.176328490335436 0 0 0 0 26.886418487968307 27.088905940208861 0 27.088905940208861 -29.852723297750344 0 0 0 0 -19.23299704918038 62.287239159617457 0 62.287239159617457 -13.455013029379188 0 0 0 0 18.900542886271154 2.7616359287176451 0 2.7616359287176451 6.4561343680342773 0 0 0 0 -17.233050996269757 5.9954241300970921 0 5.9954241300970921 44.746492857718181 0 0 0 0 29.65331255203273 -38.93310295424817 0 -38.93310295424817 70.799352022178937 0 0 0 0 73.294023943008142 -1.9329071378379012 0 -1.9329071378379012 68.629809382593521 0 0 0 0 344.44688571134623 -317.34287628104721 0 -317.34287628104721 727.38705213999856 0 0 0 0 -11.797832538839913 -16.843847164056569 0 -16.843847164056569 111.25114715109521 0 0 0 0 -26.381729638552088 -30.19030206269781 0 -30.19030206269781 113.81312243488355 0 0 0 0 -14.71635166207443 54.287959862970865 0 54.287959862970865 52.000382630460081 0 0 0 0 -62.040630068918745 7.5235818460323571 0 7.5235818460323571 81.245532367189298 0 0 0 0 -12.722844378699735 15.965409816920452 0 15.965409816920452 56.758285034259401 0 0 0 0 -354.6872747880559 600.46900906171959 0 600.46900906171959 976.55167783124489 0 0 0 0 94.875680139816581 -718.67588099021805 0 -718.67588099021805 -261.10076259185553 0 0 0 0 -330.33718062485292 -285.23341777501446 0 -285.23341777501446 73.460523405216009 0 0 0 0 -447.98006087503046 -630.84883747030835 0 -630.84883747030835 -381.74845844543552 0 0 0 0 1.6473518227181927 -4.1249857456471766 0 -4.1249857456471766 9.5992395912595541 0 0 0 0 502.07225596359893 415.18284331672157 0 415.18284331672157 342.26594744997237 0 0 0 0 503.28749372670109 837.42166926428763 0 837.42166926428763 995.86943400808559 0 0 0 0 139.85905908510813 202.57553195148103 0 202.57553195148103 337.96094529531001 0 0 0 0 -8.7625673490666145 33.759446326789657 0 33.759446326789657 809.43956253802571 0 0 0 0 -48.80452854111968 -31.56757087326605 0 -31.56757087326605 1396.5519861980247 0 0 0 0 101.9268557167905 -75.598893377199147 0 -75.598893377199147 -29.937688921019799 0 0 0 0 -31.374214161138866 -24.978918185710427 0 -24.978918185710427 -154.62960592002491 0 0 0 0 -11.341767739591134 17.728317782147045 0 17.728317782147045 53.912968306312941 0 0 0 0 -61.85340287403767 45.32133822987953 0 45.32133822987953 -34.946271966435432 0 0 0 0 123.55509219596036 312.69443943785382 0 312.69443943785382 -476.83156388763678 0 0 0 0 0.5405035045259865 -11.640036336091725 0 -11.640036336091725 23.057410694913415 0 0 0 0 -11.741678261419226 17.464172237331226 0 17.464172237331226 27.12166532822685 0 0 0 0 -10.764706720272443 4.8797635579871894 0 4.8797635579871894 23.161403319429155 0 0 0 0 -0.78841509940660259 -1.43854275479897 0 -1.43854275479897 4.4677985848580626 0 0 0 0 0.79030900891848432 -49.549057905895097 0 -49.549057905895097 36.460746766907278 0 0 0 0 -7.0540395499911028 -6.1606834338908811 0 -6.1606834338908811 26.007470572370949 0 0 0 0 -9.2641674708260524 -7.5816937677979048 0 -7.5816937677979048 18.300756263457998 0 0 0 0 -19.642798652979764 23.465981806935815 0 23.465981806935815 135.8209269151248 0 0 0 0 -21.251560225143749 29.060349014249368 0 29.060349014249368 211.33687599029872 0 0 0 0 -2.8161379200016565 -18.539305429722617 0 -18.539305429722617 22.592106854289021 0 0 0 0 -4.376419638423755 -10.374916234018364 0 -10.374916234018364 25.669799367823622 0 0 0 0 5.3590726477723365 -8.2923212023670203 0 -8.2923212023670203 -25.880344307199039 0 0 0 0 -0.85201232384498304 -1.8624831523154768 0 -1.8624831523154768 -1.6402905704085278 0 0 0 0 -11.101848788553525 -5.4910479531117744 0 -5.4910479531117744 67.987459297844907 0 0 0 0 -10.602624169399576 -8.4662716075292792 0 -8.4662716075292792 72.829934022636735 0 0 0 0 -10.207642260397279 -14.440868089262949 0 -14.440868089262949 84.70793395583496 0 0 0 0 -8.5086571634257773 -4.2300582179880948 0 -4.2300582179880948 14.763104074105703 0 0 0 0 0.4348573156224802 -11.318843167326122 0 -11.318843167326122 54.334643553300339 0 0 0 0 -11.054196319662926 -16.858631361146259 0 -16.858631361146259 24.419432578592037 0 0 0 0 -11.922479330052738 -3.855037421486486 0 -3.855037421486486 50.641066488649358 0 0 0 0 -4.5498369926509969 -2.1266896395116959 0 -2.1266896395116959 38.371038976621946 0 0 0 0 2.875947774207134 -15.857050502847414 0 -15.857050502847414 85.287769231676066 0 0 0 0 0.20634704848439611 -9.9659634328935454 0 -9.9659634328935454 38.810745315342501 0 0 0 0 1.0734777755169489 -17.577147670562226 0 -17.577147670562226 66.701434270142272 0 0 0 0 -11.146438652059434 -0.61088974941867491 0 -0.61088974941867491 8.6667733956942357 0 0 0 0 -4.5171944177133128 16.898893985436644 0 16.898893985436644 4.2288914019381991 0 0 0 0 -1.3559887045489298 -16.210322548145172 0 -16.210322548145172 -4.2863225422279356 0 0 0 0 -1.5089153973357727 -0.60713115930156025 0 -0.60713115930156025 1.4268571261926493 0 0 0 0 0.3600089048017292 -1.6126243024392402 0 -1.6126243024392402 2.5847740952559022 0 0 0 0 129.60576713081969 -88.69415607963856 0 -88.69415607963856 -278.95864150653165 0 0 0 0 -69.912557399572052 -210.89182471192453 0 -210.89182471192453 -199.96926933145483 0 0 0 0 107.42070868072346 60.938548668384556 0 60.938548668384556 -97.221920042687543 0 0 0 0 -73.614077521321633 -60.30105396190811 0 -60.30105396190811 -94.892875537338568 0 0 0 0 43.332224031918713 -35.36468856011561 0 -35.36468856011561 -167.44167662250493 0 0 0 0 13.906449238163699 5.2697392583265739 0 5.2697392583265739 8.1510314157085304 0 0 0 0 -14.73159026948565 -2.0605837390012312 0 -2.0605837390012312 14.200757664029879 0 0 0 0 -8.7372746001247847 2.6514167757522955 0 2.6514167757522955 7.6331613630272841 0 0 0 0 -15.661349930589253 0.55708051398517 0 0.55708051398517 7.7035975684684672 0 0 0 0 -53.41351596274751 -30.073523460212527 0 -30.073523460212527 137.51617518549926 0 0 0 0 -1.6097784115328801 -0.50785607572690061 0 -0.50785607572690061 5.0288870037640976 0 0 0 0 -2.572953875316188 -0.19419996524008987 0 -0.19419996524008987 5.5107989308095284 0 0 0 0 229.26133842947871 235.58838364203029 0 235.58838364203029 89.367091196230831 0 0 0 0 -88.526661374095795 142.28245093996884 0 142.28245093996884 414.08543288398732 0 0 0 0 144.42306947294446 256.74446813301438 0 256.74446813301438 337.43666322335866 0 0 0 0 67.475230561273975 315.1707206442577 0 315.1707206442577 323.10546015866748 0 0 0 0 63.353492461873472 36.640457046084748 0 36.640457046084748 -6.3718411510817532 0 0 0 0 -64.885467042976188 -151.48091193222126 0 -151.48091193222126 46.703365571038375 0 0 0 0 -2.2893878270516268 -2.1571121528691037 0 -2.1571121528691037 7.917084193239134 0 0 0 0 -1.3288448205248642 10.244370544252888 0 10.244370544252888 6.2654587597944555 0 0 0 0 -7.4092559732735133 -1.8268189913637016 0 -1.8268189913637016 6.3199776426181931 0 0 0 0 -0.39974454200854581 -2.8004187719321108 0 -2.8004187719321108 2.3112409456348288 0 0 0 0 -8.0349228691527799 -6.3660967755134834 0 -6.3660967755134834 3.7910487123444909 0 0 0 0 -11.385041940970495 -7.8368068496938577 0 -7.8368068496938577 3.9134655727157224 0 0 0 0 -5.1251948706192119 2.5436085198770311 0 2.5436085198770311 3.5266686013507602 0 0 0 0 -0.93976792399507758 5.6225473763661284 0 5.6225473763661284 19.489688953904988 0 0 0 0 -5.3008241288744173 0.75690758533887248 0 0.75690758533887248 9.2485660447913745 0 0 0 0 -11.724160429385847 -5.0221324749445557 0 -5.0221324749445557 19.628124796604425 0 0 0 0 -30.797457607463002 -15.847229268892988 0 -15.847229268892988 15.158247033582029 0 0 0 0 -6.1001411046131579 -23.024877775906134 0 -23.024877775906134 -3.8470995050774945 0 0 0 0 37.222192228073709 3.7724778721212715 0 3.7724778721212715 3.6060367843656422 0 0 0 0 -60.860917810755382 -10.030838527078231 0 -10.030838527078231 100.14405941847144 0 0 0 0 -12.657508473763301 -0.45245944318321563 0 -0.45245944318321563 24.112417014684979 0 0 0 0 -735.972786008909 -73.818968764574038 0 -73.818968764574038 470.98657912085946 0 0 0 0 -1.08206853622195 -0.17041846240119174 0 -0.17041846240119174 8.9905596501246912 0 0 0 0 6.8307845819599606 -7.3180368148596244 0 -7.3180368148596244 3.8227128114768902 0 0 0 0 -3.3921905524141263 0.65626293990990447 0 0.65626293990990447 3.4247322831488951 0 0 0 0 -5.7938178228168908 10.541177642620823 0 10.541177642620823 38.30178821888876 0 0 0 0 -87.847776797634623 419.42354044757349 0 419.42354044757349 866.57435424347705 0 0 0 0 0.75300724044234357 -429.10214078144168 0 -429.10214078144168 429.62893718580017 0 0 0 0 -215.13082956634952 -52.109799863831995 0 -52.109799863831995 -188.75818653435635 0 0 0 0 -182.52077734715971 -80.767093377233763 0 -80.767093377233763 -63.929893716600418 0 0 0 0 -179.96243939909743 -435.80195111666217 0 -435.80195111666217 -154.67768435600283 0 0 0 0 -2.405436246026456 -1.2132093492898584 0 -1.2132093492898584 5.2742340777033583 0 0 0 0 543.84619222469428 -186.08983637054826 0 -186.08983637054826 -122.33344121667324 0 0 0 0 371.48572223873146 310.97053970561819 0 310.97053970561819 157.07934591649064 0 0 0 0 129.30598292727268 -283.43194802968878 0 -283.43194802968878 181.15233187760214 0 0 0 0 0.61051734094208865 2.3588453600707471 0 2.3588453600707471 9.8140969550964918 0 0 0 0 456.91430688575906 417.12046352347352 0 417.12046352347352 192.58860782878128 0 0 0 0 -179.99124373260878 41.47552096584559 0 41.47552096584559 -150.39930409770568 0 0 0 0 4.677745361636596 200.38855965430128 0 200.38855965430128 544.97077129459103 0 0 0 0 138.84420210700432 -71.411423574391847 0 -71.411423574391847 183.77843563480565 0 0 0 0 -12.107752370713172 100.35940596722571 0 100.35940596722571 -21.247010363442314 0 0 0 0 0.40387500135411625 3.4161811139970277 0 3.4161811139970277 27.039032320966555 0 0 0 0 -180.24568256505131 35.395589872308847 0 35.395589872308847 232.11776617727992 0 0 0 0 -180.03101297209696 -20.692249870268824 0 -20.692249870268824 145.43371713076249 0 0 0 0 -40.125118317022043 -65.723577730048419 0 -65.723577730048419 15.191825192428951 0 0 0 0 -25.659209692554896 -4.6501922391144035 0 -4.6501922391144035 3.8095307906005473 0 0 0 0 -25.038940562485777 5.8554427343951829 0 5.8554427343951829 153.64878266703818 0 0 0 0 24.899138798534068 -68.684409148485429 0 -68.684409148485429 26.348004849356585 0 0 0 0 -40.344979876478192 -38.027860684862389 0 -38.027860684862389 -4.7616070515652211 0 0 0 0 0.33237812216702878 -40.660239088516391 0 -40.660239088516391 -4.7203328946125112 0 0 0 0 -59.307289962437835 37.076232560132667 0 37.076232560132667 34.354824206668127 0 0 0 0 2.7492318344716296 61.952600361347322 0 61.952600361347322 -107.93600358072854 0 0 0 0 0.6499618087937673 3.3319248014788165 0 3.3319248014788165 -9.702236801508807 0 0 0 0 -1.1219032154520083 -1.8146841432366116 0 -1.8146841432366116 1.4264786147106605 0 0 0 0 -11.983532784405725 36.034338903471507 0 36.034338903471507 -23.911214754058165 0 0 0 0 -63.348878283580689 -51.535106736444504 0 -51.535106736444504 12.309156559429539 0 0 0 0 -1.7514922979434417 8.1632663488110406 0 8.1632663488110406 38.985626701423726 0 0 0 0 -108.08476590068244 53.657342072901656 0 53.657342072901656 47.086864242316551 0 0 0 0 -13.357007140140922 4.0115413868734322 0 4.0115413868734322 113.50530613016417 0 0 0 0 49.660098889223946 88.209111550117541 0 88.209111550117541 -55.425207079581014 0 0 0 0 -5.8787923550287555 28.769747211954879 0 28.769747211954879 16.646670023233462 0 0 0 0 -21.902288050259131 11.194223068363044 0 11.194223068363044 -36.387803077997887 0 0 0 0 27.550786625045248 16.427554116898136 0 16.427554116898136 -85.693809418101409 0 0 0 0 2.1670686970217301 -0.91515568930222813 0 -0.91515568930222813 -2.840080504680671 0 0 0 0 81.47522409466842 59.926406402944622 0 59.926406402944622 109.44967296794312 0 0 0 0 -48.565139797148277 47.443716784809112 0 47.443716784809112 144.18672006862016 0 0 0 0 -25.811650396139839 123.77923643595705 0 123.77923643595705 198.87408145600057 0 0 0 0 -89.532224255373876 10.250675049554047 0 10.250675049554047 369.78679837551317 0 0 0 0 -17.327255186214757 176.29469128314327 0 176.29469128314327 514.4403265868259 0 0 0 0 295.60922884119691 105.32753831150603 0 105.32753831150603 110.312601168889 0 0 0 0 -68.294850301208498 -71.733714787549616 0 -71.733714787549616 570.60669796696288 0 0 0 0 -224.24799092315402 402.27097215870936 0 402.27097215870936 369.2202270646103 0 0 0 0 -0.27567452903147405 1.5856011483082302 0 1.5856011483082302 4.2968042069079253 0 0 0 0 160.94293986399191 -202.13635689957351 0 -202.13635689957351 201.43952802003514 0 0 0 0 33.0982641652854 -9.8342891893880733 0 -9.8342891893880733 32.119801839035517 0 0 0 0 -68.429291979494238 -65.186586686130966 0 -65.186586686130966 251.87474338899301 0 0 0 0 44.035093890581948 -102.95929399673895 0 -102.95929399673895 127.72932677306198 0 0 0 0 -61.742875733846631 -50.642572574460246 0 -50.642572574460246 246.17761801051529 0 0 0 0 -52.53631401691473 -54.989230020261402 0 -54.989230020261402 167.48664973490304 0 0 0 0 -53.317293305502972 -9.049848069635118 0 -9.049848069635118 239.30836293949869 0 0 0 0 -45.718344578768665 -19.035863840776074 0 -19.035863840776074 237.1492590454809 0 0 0 0 -32.820989052900586 -20.032411589574622 0 -20.032411589574622 205.64525946862523 0 0 0 0 -35.038373447026061 -21.422519833551178 0 -21.422519833551178 218.15601519349366 0 0 0 0 -7.7514098796455073 46.068103041729046 0 46.068103041729046 164.58348881374877 0 0 0 0 -15.627478814678398 66.466081142849362 0 66.466081142849362 236.39278466446376 0 0 0 0 -55.451661829049044 15.636089676721895 0 15.636089676721895 219.3170656859993 0 0 0 0 9.408667644354864 10.542255604647835 0 10.542255604647835 217.39610480470219 0 0 0 0 -26.294916050170286 21.176899682503063 0 21.176899682503063 204.46867033744093 0 0 0 0 -60.394435886086285 35.52788611744927 0 35.52788611744927 198.4339351967692 0 0 0 0 -26.221372571342727 12.090205652614713 0 12.090205652614713 244.83056340436565 0 0 0 0 -88.253960277728766 12.413934582821639 0 12.413934582821639 227.04443169152546 0 0 0 0 -64.23230748194419 12.438959489948502 0 12.438959489948502 218.2049779000281 0 0 0 0 -12.593497007055248 -21.788761143610827 0 -21.788761143610827 46.850543282878789 0 0 0 0 -6.7936008355699116 -22.35129111652855 0 -22.35129111652855 46.058007625004421 0 0 0 0 -7.6110086695915742 -17.45667599794524 0 -17.45667599794524 86.545266331762832 0 0 0 0 -15.787004988540923 -4.822628099797047 0 -4.822628099797047 40.869322928551554 0 0 0 0 -16.575972565239681 0.63748781294781764 0 0.63748781294781764 41.727572371588749 0 0 0 0 -7.4075052380985653 -17.622025397442485 0 -17.622025397442485 73.552517100120895 0 0 0 0 14.958055895318466 -59.524101994486045 0 -59.524101994486045 42.844491897476473 0 0 0 0 -36.750892847587238 -32.338507556257355 0 -32.338507556257355 121.99272726020899 0 0 0 0 -6.1398256130291955 -19.148118967876496 0 -19.148118967876496 50.934102521390756 0 0 0 0 5.2456944852556262 -36.66117523361163 0 -36.66117523361163 77.292164074739048 0 0 0 0 -7.1182882415440858 -4.8998804390155355 0 -4.8998804390155355 16.610871440988223 0 0 0 0 -10.413847275457101 -39.203478438120783 0 -39.203478438120783 231.7144606374568 0 0 0 0 33.823874666566553 85.968778479566026 0 85.968778479566026 78.782842926250368 0 0 0 0 16.329937766746298 85.728639788197597 0 85.728639788197597 252.41046325913703 0 0 0 0 -72.336934799179289 11.025586216144802 0 11.025586216144802 202.24175297696365 0 0 0 0 -68.653906754597529 60.395941219529846 0 60.395941219529846 373.99905798077089 0 0 0 0 38.12717703276212 95.143084975617967 0 95.143084975617967 215.70447890558376 0 0 0 0 172.00356334703974 177.16572985910352 0 177.16572985910352 257.33834672623925 0 0 0 0 -5.4309753128661349 -16.919794370439746 0 -16.919794370439746 16.991723446954126 0 0 0 0 12.906802987535684 16.292995718964676 0 16.292995718964676 108.89601477614451 0 0 0 0 163.14155140229923 134.31715073419946 0 134.31715073419946 177.00141350941794 0 0 0 0 27.793937508624367 197.72989023320042 0 197.72989023320042 533.38029189278677 0 0 0 0 -148.09292170133995 -642.34009408434213 0 -642.34009408434213 720.08825238958161 0 0 0 0 7.496859719983977 33.477197828335051 0 33.477197828335051 16.738844086919585 0 0 0 0 59.809106402844918 -73.638939926913736 0 -73.638939926913736 -48.787927806370135 0 0 0 0 -27.216155315571996 29.209446754897726 0 29.209446754897726 190.26513839440258 0 0 0 0 27.000360241862836 35.631639732782787 0 35.631639732782787 37.732826723053222 0 0 0 0 -6.1968531961156259 -8.8058073726979273 0 -8.8058073726979273 121.64225496512154 0 0 0 0 20.81967991120473 37.003781405383506 0 37.003781405383506 59.704446105017269 0 0 0 0 4.9653804872520872 27.455710104321881 0 27.455710104321881 18.46968897594094 0 0 0 0 -48.44073887278546 83.229385184520652 0 83.229385184520652 140.63914140565248 0 0 0 0 -10.962446838474534 65.927193472821273 0 65.927193472821273 41.459222282727751 0 0 0 0 -42.275665342625871 -10.159904952632132 0 -10.159904952632132 146.56422001931151 0 0 0 0 4.6284112632156393 -16.913828773091154 0 -16.913828773091154 51.570212334692769 0 0 0 0 0.78377936137267312 31.264963551227751 0 31.264963551227751 18.745771467043326 0 0 0 0 -1.8851081706234254 12.82607127972733 0 12.82607127972733 123.03961864444318 0 0 0 0 -1.3373048292725329 25.291867408893467 0 25.291867408893467 18.279046079033236 0 0 0 0 26.454449315810052 37.547011573493364 0 37.547011573493364 27.54651226156966 0 0 0 0 16.508996622595987 14.499678846224924 0 14.499678846224924 37.767149730563688 0 0 0 0 -12.214195289779752 42.947041585300838 0 42.947041585300838 27.018167954323872 0 0 0 0 8.8809713636437664 34.606990764601505 0 34.606990764601505 13.530134321423247 0 0 0 0 -2.5885561275057345 0.6495212441448075 0 0.6495212441448075 21.298364312320558 0 0 0 0 -11.575587948957583 10.868470890828007 0 10.868470890828007 47.299719152397302 0 0 0 0 -25.3263115595405 22.47360716914045 0 22.47360716914045 40.036529909699311 0 0 0 0 1.0915892279244872 41.993254047115443 0 41.993254047115443 12.4863731500227 0 0 0 0 -4.8624127123612197 38.481571712381992 0 38.481571712381992 29.724809170991648 0 0 0 0 2.0592636563391302 26.48661932056288 0 26.48661932056288 18.784558208582332 0 0 0 0 -7.584211041823437 53.907330579455447 0 53.907330579455447 37.850425326574623 0 0 0 0 -8.5255184172335703 59.237860426751013 0 59.237860426751013 12.320551517143031 0 0 0 0 39.519041364100303 100.45043484196503 0 100.45043484196503 47.600946244172519 0 0 0 0 -26.626913309474276 35.16452305673738 0 35.16452305673738 27.228718587079129 0 0 0 0 -61.705237354082783 46.494355775434087 0 46.494355775434087 33.664301295928453 0 0 0 0 -34.708136945926526 45.039525661639345 0 45.039525661639345 92.436835020771468 0 0 0 0 63.561494006949943 57.614072940134065 0 57.614072940134065 73.064235905942041 0 0 0 0 -34.470477504850351 7.805166981946968 0 7.805166981946968 22.442751565864455 0 0 0 0 -55.433114563790696 50.345628152110294 0 50.345628152110294 53.450643319276423 0 0 0 0 -121.02469865046623 -5.9718205692297488 0 -5.9718205692297488 41.63136389434294 0 0 0 0 -1.4726704526062395 -1.706860741870031 0 -1.706860741870031 13.392106676983815 0 0 0 0 97.712229154095439 106.1265580085892 0 106.1265580085892 103.80575254466385 0 0 0 0 -26.029437602239341 74.620890144091391 0 74.620890144091391 139.85077538634505 0 0 0 0 -36.373326195456684 84.120314476411295 0 84.120314476411295 174.51187799587206 0 0 0 0 3.7726686123678519 79.069966012197256 0 79.069966012197256 139.32816441501291 0 0 0 0 15.483839235623236 25.919703852989187 0 25.919703852989187 56.419781330510887 0 0 0 0 -18.764563145889952 50.529679197901714 0 50.529679197901714 103.64785391992336 0 0 0 0 -2.2099395134882798 54.782590890874417 0 54.782590890874417 99.903391372987244 0 0 0 0 -5.2829718389348272 39.303488268271394 0 39.303488268271394 63.394504155148752 0 0 0 0 -4.7061224971894262 30.308858093336312 0 30.308858093336312 74.461669890057237 0 0 0 0 -9.7089368031847698 39.549616097638136 0 39.549616097638136 99.17458419992181 0 0 0 0 -17.863782322436236 38.098043977348425 0 38.098043977348425 99.572105358056433 0 0 0 0 -16.258792207642728 26.921792860070127 0 26.921792860070127 130.40985798861948 0 0 0 0 -44.558799295726203 26.281875684006081 0 26.281875684006081 134.24443689788677 0 0 0 0 -19.472199209385508 48.464145241796359 0 48.464145241796359 129.60781782898994 0 0 0 0 -56.637687537733655 53.853973910336208 0 53.853973910336208 170.81441217321844 0 0 0 0 -38.853138498402586 39.896461891559738 0 39.896461891559738 148.44793875289179 0 0 0 0 -33.510167990681111 10.59412488451926 0 10.59412488451926 154.72307836149412 0 0 0 0 -29.662738095714303 -10.118877450244327 0 -10.118877450244327 168.36017706283747 0 0 0 0 32.154018849802014 -15.239813716885692 0 -15.239813716885692 123.85585713876935 0 0 0 0 9.1962029493533919 16.174417719190387 0 16.174417719190387 98.170270266789885 0 0 0 0 -6.4349194991045806 12.909215803847474 0 12.909215803847474 108.78092160261076 0 0 0 0 -5.0357968559073925 8.2068321341648698 0 8.2068321341648698 122.54651392377855 0 0 0 0 21.955504198524068 18.246597229546751 0 18.246597229546751 95.888846046469553 0 0 0 0 -3.1926791868027067 28.8279338212742 0 28.8279338212742 101.53640508425451 0 0 0 0 -9.2211720192085522 20.603971383063254 0 20.603971383063254 93.339230196914286 0 0 0 0 -1.060541013065631 25.102706598969235 0 25.102706598969235 86.834140880908308 0 0 0 0 -1.7357399710308528 22.307081259616098 0 22.307081259616098 85.327405928423104 0 0 0 0 -3.7707472556703578 20.84928824826784 0 20.84928824826784 95.564027205597085 0 0 0 0 -15.574861222256459 25.413969025083134 0 25.413969025083134 106.21236634721572 0 0 0 0 -3.830584177036144 27.236963854404166 0 27.236963854404166 93.240132138646004 0 0 0 0 -4.7798569698825304 32.13591783674201 0 32.13591783674201 87.327638111513807 0 0 0 0 2.4873243290512619 25.029746248877927 0 25.029746248877927 66.183935862078215 0 0 0 0 1.8937404096213868 8.528901787900395 0 8.528901787900395 64.578814467393386 0 0 0 0 -5.697710151154995 15.161588559869969 0 15.161588559869969 1.810471721127882 0 0 0 0 -19.562834153316317 12.101101555408604 0 12.101101555408604 84.689988487356459 0 0 0 0 -0.58291503425789415 13.0328673748445 0 13.0328673748445 72.9482017316152 0 0 0 0 -6.4339606615000022 14.572989851730064 0 14.572989851730064 13.022254076583986 0 0 0 0 -13.437365324332859 0.57861614350986201 0 0.57861614350986201 93.744461458853038 0 0 0 0 -13.684593745742859 22.40835563170549 0 22.40835563170549 -5.1597758709704067 0 0 0 0 5.248989130739119 -19.650372498133038 0 -19.650372498133038 87.03777767388965 0 0 0 0 -5.1093419084287284 8.9501595075682232 0 8.9501595075682232 27.512833710016022 0 0 0 0 -2.4889694602724797 16.879959289765022 0 16.879959289765022 -2.7296447562377466 0 0 0 0 -11.627949481639353 44.005038112442264 0 44.005038112442264 -8.5654937964161206 0 0 0 0 -3.444675907952842 3.1276918153816951 0 3.1276918153816951 64.901138240027649 0 0 0 0 -9.0883396402171179 7.116132542003875 0 7.116132542003875 16.048750431680254 0 0 0 0 -8.3327847751710689 20.25951137765886 0 20.25951137765886 5.0501183071371614 0 0 0 0 -4.6086042911732141 18.903084801369189 0 18.903084801369189 21.303862906342133 0 0 0 0 -7.7666235617234634 17.398646384048334 0 17.398646384048334 0.37507217557140393 0 0 0 0 -27.800457496454328 19.054357538771001 0 19.054357538771001 -9.9049471050493594 0 0 0 0 -7.7410569008825405 23.055853640835267 0 23.055853640835267 -24.871554634461063 0 0 0 0 -8.7125308588736914 31.188775913822688 0 31.188775913822688 -3.3223720070632652 0 0 0 0 -12.956895473747924 24.693727505326006 0 24.693727505326006 20.86894667795924 0 0 0 0 -5.8733427790066344 -3.5923552368221863 0 -3.5923552368221863 92.141976862520096 0 0 0 0 -6.202734902106954 8.7818834386703202 0 8.7818834386703202 83.359991627767158 0 0 0 0 -4.7679622928344543 4.52329608976288 0 4.52329608976288 71.205809644492547 0 0 0 0 10.126302312735788 -1.1829834281943477 0 -1.1829834281943477 68.819261710144929 0 0 0 0 -8.7675361632254862 -13.304605514964351 0 -13.304605514964351 77.049241501226788 0 0 0 0 -26.637053239768647 17.101436747354455 0 17.101436747354455 48.960735338063387 0 0 0 0 -8.0584673479917015 11.938340321598979 0 11.938340321598979 12.805005339373835 0 0 0 0 -7.5342417831425337 26.960289415936131 0 26.960289415936131 68.701082211216999 0 0 0 0 -8.039737227747537 15.678675468965594 0 15.678675468965594 47.517513768842036 0 0 0 0 -0.14261136204400415 -1.0936142039021348 0 -1.0936142039021348 5.1273459969424238 0 0 0 0 -1.7680396207133526 33.599472617293941 0 33.599472617293941 53.009552366755088 0 0 0 0 -4.9400377632747627 13.862452830398155 0 13.862452830398155 12.317686996324078 0 0 0 0 21.154730424659192 -3.0137299090947636 0 -3.0137299090947636 45.846101943301619 0 0 0 0 15.11792860586047 26.09879505054414 0 26.09879505054414 0.8879818057466764 0 0 0 0 -13.036054784584849 17.120590508064197 0 17.120590508064197 60.930928245122232 0 0 0 0 -0.54706459213412018 29.233523350208998 0 29.233523350208998 64.869424687007267 0 0 0 0 -8.3882711210226262 29.697798458648322 0 29.697798458648322 77.89950587120984 0 0 0 0 0.25068816491373624 0.6202482278564645 0 0.6202482278564645 -5.4449856087270589 0 0 0 0 12.263713056155211 -33.928998368377506 0 -33.928998368377506 22.915862995603675 0 0 0 0 -10.950927178247639 -21.5862927609287 0 -21.5862927609287 82.802841924858512 0 0 0 0 5.8765981052224561 -27.154289486530615 0 -27.154289486530615 18.367641429880678 0 0 0 0 -17.922249496834841 -19.294188958356788 0 -19.294188958356788 54.341390745030367 0 0 0 0 26.539435857005628 3.3003353420790518 0 3.3003353420790518 15.863527029570832 0 0 0 0 23.43341269648954 27.09064083515841 0 27.09064083515841 85.10682077385718 0 0 0 0 48.806161978784075 -7.0483896453151829 0 -7.0483896453151829 61.958917554675281 0 0 0 0 35.960926418929375 34.855514743467211 0 34.855514743467211 82.876109539691242 0 0 0 0 63.038454538084807 32.639083661139011 0 32.639083661139011 73.675999269231397 0 0 0 0 126.49239045497097 23.985445876092854 0 23.985445876092854 55.34025251372077 0 0 0 0 89.011408082193157 38.94455632174504 0 38.94455632174504 106.51767501927679 0 0 0 0 61.535241825789853 62.33142631323426 0 62.33142631323426 148.47688661660504 0 0 0 0 72.459746357642416 48.622249160123829 0 48.622249160123829 226.09036584575369 0 0 0 0 28.711255503830216 23.177785625463002 0 23.177785625463002 121.75560118004796 0 0 0 0 -28.344151652248911 -130.57459080906847 0 -130.57459080906847 247.59405725795659 0 0 0 0 36.46192532008854 -109.39839709554872 0 -109.39839709554872 2.0953631400770973 0 0 0 0 139.87744740985181 -32.990585977961018 0 -32.990585977961018 116.68090869083971 0 0 0 0 110.5099313701221 80.397508232243126 0 80.397508232243126 -29.146791882209072 0 0 0 0 88.161902174280385 64.598155097417475 0 64.598155097417475 -25.806949650941533 0 0 0 0 53.950232542747074 150.99015229620909 0 150.99015229620909 59.900958098536648 0 0 0 0 58.998335375572424 15.317792310976074 0 15.317792310976074 -21.528301138190727 0 0 0 0 18.485069584447047 53.924212341375096 0 53.924212341375096 -14.223591987451073 0 0 0 0 14.899148971415602 21.0527353426926 0 21.0527353426926 33.999136454509113 0 0 0 0 47.590709452832471 39.91178530119214 0 39.91178530119214 54.911800810572458 0 0 0 0 20.936980254502487 -22.573903172509745 0 -22.573903172509745 -8.7129763622870087 0 0 0 0 0.061666724758953961 0.4009071451552586 0 0.4009071451552586 0.47261084345535664 0 0 0 0 44.466076242713825 -21.380866196475836 0 -21.380866196475836 -8.6562514135559923 0 0 0 0 -9.5711839607700995 98.530968498473158 0 98.530968498473158 17.649887272884371 0 0 0 0 15.457033656500778 22.0384190623531 0 22.0384190623531 29.930569806869045 0 0 0 0 36.60943438220329 -12.644915730881621 0 -12.644915730881621 36.810922448894416 0 0 0 0 46.337280953350046 -69.44378879789474 0 -69.44378879789474 234.03354769227735 0 0 0 0 106.95501281506859 -51.272209450256923 0 -51.272209450256923 24.073991813801968 0 0 0 0 2.5157557967659159 -6.0655818065642961 0 -6.0655818065642961 45.144413637241996 0 0 0 0 13.472615625032022 20.374952016554914 0 20.374952016554914 29.532091942629108 0 0 0 0 4.2166535456345855 28.324113216752266 0 28.324113216752266 33.684777606664284 0 0 0 0 0.1992090854135391 0.54059618170208523 0 0.54059618170208523 0.61698321455264704 0 0 0 0 -9.0787044333582116 1.1374226689758871 0 1.1374226689758871 54.442828523118806 0 0 0 0 -17.389225397479549 -7.7876192969051772 0 -7.7876192969051772 99.985625692297617 0 0 0 0 -0.17135940464966026 0.3061204570188778 0 0.3061204570188778 0.51900806575295633 0 0 0 0 14.14362131442158 0.71632424544077367 0 0.71632424544077367 21.736592770008428 0 0 0 0 3.3246571438598949 -16.172981402160076 0 -16.172981402160076 34.374426725342346 0 0 0 0 98.127035821776644 47.760952315478789 0 47.760952315478789 23.182599586350989 0 0 0 0 81.284723584548374 51.499869006409426 0 51.499869006409426 79.572614476099261 0 0 0 0 -13.725261381427572 11.69445555758648 0 11.69445555758648 118.4146180732223 0 0 0 0 0.19830677025842647 0.55149156152206302 0 0.55149156152206302 1.0809413702498887 0 0 0 0 78.772113909197969 43.606217776529775 0 43.606217776529775 -38.711813434587384 0 0 0 0 -14.468389697120983 23.982811444497202 0 23.982811444497202 -11.274552922001021 0 0 0 0 -28.004981241286487 63.853378033020817 0 63.853378033020817 -43.622606482167612 0 0 0 0 24.899195321101615 22.323588505005318 0 22.323588505005318 -23.925738564943458 0 0 0 0 27.53431418205173 30.566140579585408 0 30.566140579585408 1.8361268082080642 0 0 0 0 -12.958626285749688 -16.476006713437528 0 -16.476006713437528 20.892950769743038 0 0 0 0 5.9531160072771456 -9.1572554181413253 0 -9.1572554181413253 22.182978375865787 0 0 0 0 0.69357053546109881 1.5102036364259703 0 1.5102036364259703 2.4150984469862351 0 0 0 0 -25.087763845430345 13.460548009188642 0 13.460548009188642 18.377548262724304 0 0 0 0 -8.3833230389791424 12.2299360340985 0 12.2299360340985 -45.810063506211463 0 0 0 0 -17.887053912839662 4.8453755487070573 0 4.8453755487070573 -2.6346785284476937 0 0 0 0 -81.326010550056708 34.533199758010596 0 34.533199758010596 16.354089036953155 0 0 0 0 -35.517153266550849 110.53921460734637 0 110.53921460734637 -18.328251995553728 0 0 0 0 0.64358448659258194 1.7615964750018804 0 1.7615964750018804 2.9734237689245901 0 0 0 0 -76.400600751603179 22.825648901105524 0 22.825648901105524 17.5816508249045 0 0 0 0 24.802428417575356 57.772514288910315 0 57.772514288910315 27.638181472095312 0 0 0 0 0.31476011970535112 3.3896834702586887 0 3.3896834702586887 10.496230420174186 0 0 0 0 3.2531707099378764 5.1473288513034277 0 5.1473288513034277 108.28363843898114 0 0 0 0 -2.0390302719372144 0.45259866911844426 0 0.45259866911844426 11.780470506701967 0 0 0 0 -27.556129727765438 15.082691792733385 0 15.082691792733385 39.438014149010996 0 0 0 0 -21.347813203136411 -22.312482395034749 0 -22.312482395034749 127.48523755406495 0 0 0 0 -75.999888802075475 -17.9355221683727 0 -17.9355221683727 139.58280317855679 0 0 0 0 -54.520863592342721 15.310899551870534 0 15.310899551870534 157.83210610690003 0 0 0 0 -47.801514388676878 -69.498005297373311 0 -69.498005297373311 106.61506013971666 0 0 0 0 -41.401807935490979 -19.267245768765861 0 -19.267245768765861 -28.497439318677152 0 0 0 0 -23.872734296071712 -1.9200187009791989 0 -1.9200187009791989 38.573330594990693 0 0 0 0 -8.9916841297590508 34.300425559276846 0 34.300425559276846 20.550751856870193 0 0 0 0 6.6615824324680943 17.627501715678591 0 17.627501715678591 88.557526823788066 0 0 0 0 -5.7035192110015807 -18.092937514168504 0 -18.092937514168504 43.456329353440722 0 0 0 0 7.1151380032193181 27.810605145362331 0 27.810605145362331 23.602362612179093 0 0 0 0 7.0106291129665479 33.427381648571142 0 33.427381648571142 37.438353471052991 0 0 0 0 25.476532900392556 424.35832141454847 0 424.35832141454847 307.31330696051737 0 0 0 0 -3.8657496594432814 4.4973733616898244 0 4.4973733616898244 116.68045312310096 0 0 0 0 -9.1651095866086507 -46.918963649984178 0 -46.918963649984178 79.174640128174303 0 0 0 0 10.82215369440155 -122.68159289345385 0 -122.68159289345385 192.64455092653225 0 0 0 0 -1.8554401137371315 -20.881528697871545 0 -20.881528697871545 136.91573084868287 0 0 0 0 -14.189342663345087 -30.263189440738643 0 -30.263189440738643 200.73501066001336 0 0 0 0 1.0418842765284353 -38.339524119513953 0 -38.339524119513953 161.4444115741062 0 0 0 0 -5.8513149562104445 -9.5525918047460436 0 -9.5525918047460436 150.67310633407033 0 0 0 0 6.781648103088628 -19.641131877287989 0 -19.641131877287989 141.5867131085688 0 0 0 0 -10.947785022981407 -13.276825848537555 0 -13.276825848537555 147.53485949332389 0 0 0 0 -6.6805633088279137 2.4708625760758878 0 2.4708625760758878 124.37336272247194 0 0 0 0 -2.367296405354864 -18.010002208684455 0 -18.010002208684455 136.690692671953 0 0 0 0 -15.663971128438789 -13.169593396720302 0 -13.169593396720302 139.70435018329772 0 0 0 0 -13.053299580904511 -6.6971999942688569 0 -6.6971999942688569 69.986906562717138 0 0 0 0 -13.884548766282023 -19.519895550060028 0 -19.519895550060028 125.76124882759177 0 0 0 0 -8.3875864415640535 -12.015510970784817 0 -12.015510970784817 119.68221246176472 0 0 0 0 -2.3933664841115387 -12.436292497619093 0 -12.436292497619093 119.58327920809097 0 0 0 0 -27.22280282374868 4.3192939068758278 0 4.3192939068758278 175.26548019148686 0 0 0 0 -28.43521770794905 35.402338906882505 0 35.402338906882505 147.72569677733554 0 0 0 0 -44.888789165280286 56.532181976301217 0 56.532181976301217 195.82919344640686 0 0 0 0 -47.579557948451111 43.371032927073429 0 43.371032927073429 175.21452934283298 0 0 0 0 -62.324885193522277 28.314711078601249 0 28.314711078601249 189.92316796111118 0 0 0 0 -23.090971591396737 17.473009896668373 0 17.473009896668373 162.94705180666642 0 0 0 0 -1.2524913085997902 -0.9278905037202918 0 -0.9278905037202918 23.116244166784817 0 0 0 0 -22.046421600200119 11.123793234015466 0 11.123793234015466 107.27870165227432 0 0 0 0 -0.0035836556126014329 1.6352622148697264 0 1.6352622148697264 169.20465358826186 0 0 0 0 -0.94161055067706911 7.1038729833890102 0 7.1038729833890102 137.44067569238541 0 0 0 0 10.327755832013281 0.46680727674538502 0 0.46680727674538502 127.78964941973754 0 0 0 0 8.1667082108779141 -15.458553084783489 0 -15.458553084783489 153.07156558948918 0 0 0 0 -0.2101592201127751 -1.2172125954155462 0 -1.2172125954155462 12.972524254610477 0 0 0 0 3.609344244850945 -11.89301141143369 0 -11.89301141143369 151.01195038900187 0 0 0 0 1.7761629146158597 -13.366154096985213 0 -13.366154096985213 27.003600322864749 0 0 0 0 1.3096071307345483 -16.348919200059754 0 -16.348919200059754 142.47137297777226 0 0 0 0 6.9207131932125776 -13.976693017233629 0 -13.976693017233629 104.54374974260281 0 0 0 0 3.2158203109956958 -12.496461022125004 0 -12.496461022125004 104.63810655311681 0 0 0 0 6.7503703130732902 38.120984883404162 0 38.120984883404162 121.83119177883782 0 0 0 0 7.140099205331353 -10.452866809209809 0 -10.452866809209809 102.84650587596843 0 0 0 0 8.8183687611035566 -10.682566135859815 0 -10.682566135859815 102.2350103360659 0 0 0 0 -2.4691041014336026 -19.987546633996502 0 -19.987546633996502 44.0715506016885 0 0 0 0 6.9529554848196096 -1.0742010611452031 0 -1.0742010611452031 11.450097794978198 0 0 0 0 3.5527528533257282 -25.491280935995746 0 -25.491280935995746 108.45019929076079 0 0 0 0 24.888115026962623 -35.346269197965739 0 -35.346269197965739 112.28453980427003 0 0 0 0 7.8364148790851686 -10.660621346934931 0 -10.660621346934931 96.390300751176255 0 0 0 0 2.1627121296106679 23.60532526404495 0 23.60532526404495 62.137060966721037 0 0 0 0 7.5845019813677936 -3.199747447792106 0 -3.199747447792106 68.745062617352232 0 0 0 0 6.6300976476193796 41.276389911088017 0 41.276389911088017 40.305613603821257 0 0 0 0 5.1948620089558446 -5.5469093257232203 0 -5.5469093257232203 -11.738482254231059 0 0 0 0 2.1129549836750812 27.85998920124257 0 27.85998920124257 106.32646507884601 0 0 0 0 -23.558934245588802 24.775918492658093 0 24.775918492658093 106.8969736168583 0 0 0 0 -1.2642643198141741 -12.903405500765075 0 -12.903405500765075 95.985235696120071 0 0 0 0 31.446592481362813 17.932253437145846 0 17.932253437145846 71.684476762369741 0 0 0 0 -25.228119864448672 8.3393676009145565 0 8.3393676009145565 71.751384551633123 0 0 0 0 21.247764461776114 -8.7491970172413858 0 -8.7491970172413858 27.717065670876764 0 0 0 0 -2.6052257586943597 17.626693631267699 0 17.626693631267699 62.037314637607778 0 0 0 0 65.028737420754169 -7.6208621520345332 0 -7.6208621520345332 138.95087744150078 0 0 0 0 -9.623429529656498 -17.126254329867514 0 -17.126254329867514 39.006996761349171 0 0 0 0 -23.86169456475659 -20.503699214750668 0 -20.503699214750668 35.097029856569861 0 0 0 0 200.65307455177845 -6.2045386027239147 0 -6.2045386027239147 237.12558240469662 0 0 0 0 0.80811109423327565 3.1156633750755987 0 3.1156633750755987 6.3862381531886001 0 0 0 0 3.7665307833117621 -0.43177046183406276 0 -0.43177046183406276 8.9619721548272366 0 0 0 0 -51.132848523630173 20.632322827339522 0 20.632322827339522 41.722521642936044 0 0 0 0 -40.721699758050818 4.7289052642227034 0 4.7289052642227034 59.175485269355704 0 0 0 0 -29.006865515148206 34.56249601708987 0 34.56249601708987 -17.205877854372375 0 0 0 0 41.726594680300991 -31.670075733726208 0 -31.670075733726208 150.4869879958278 0 0 0 0 4.3314600495141349 107.79930823085306 0 107.79930823085306 102.92845888779266 0 0 0 0 4.5634030306864588 134.30162682945229 0 134.30162682945229 188.95973641891032 0 0 0 0 5.5557553638764148 150.52778348846186 0 150.52778348846186 316.95812874188414 0 0 0 0 -59.718617758800974 35.645075718668522 0 35.645075718668522 307.76909624745895 0 0 0 0 -36.386870602729687 64.982334876724053 0 64.982334876724053 187.23666088960454 0 0 0 0 -38.906600850090399 83.080251488543581 0 83.080251488543581 243.21766942198155 0 0 0 0 -61.300370144185763 5.837239156189753 0 5.837239156189753 226.95904568622063 0 0 0 0 0.16815830617856342 0.76740530877039959 0 0.76740530877039959 1.6827976257373791 0 0 0 0 -42.850566329058665 -45.251708149115075 0 -45.251708149115075 224.81490302504972 0 0 0 0 74.537938496220704 112.55038646916 0 112.55038646916 -1.1756716525705997 0 0 0 0 72.371664383949451 140.20912831142687 0 140.20912831142687 82.289547622698592 0 0 0 0 65.33447080802398 139.67008392277057 0 139.67008392277057 105.37547265319154 0 0 0 0 76.097796853058753 111.13253518215788 0 111.13253518215788 101.82639317317444 0 0 0 0 96.847724177460634 106.80454783207347 0 106.80454783207347 73.620081093700719 0 0 0 0 95.662850638777854 93.884840741651715 0 93.884840741651715 58.405063742982747 0 0 0 0 86.961950498181068 103.00614147444503 0 103.00614147444503 48.871122757336707 0 0 0 0 78.61816733642263 120.46804271620931 0 120.46804271620931 36.031014831693028 0 0 0 0 70.108939658059171 83.474131069800933 0 83.474131069800933 36.587828535130711 0 0 0 0 65.486315050462508 68.706347767983971 0 68.706347767983971 50.848234171360218 0 0 0 0 86.079016123711426 78.063910848830346 0 78.063910848830346 52.568697947077453 0 0 0 0 39.81986650984436 23.355175955068262 0 23.355175955068262 72.812242927895568 0 0 0 0 41.694281159909224 30.262761855330609 0 30.262761855330609 -55.715317722810141 0 0 0 0 -1.5043547975410547 14.767617619341763 0 14.767617619341763 32.818582394080295 0 0 0 0 -28.20576621826558 -27.959718579491891 0 -27.959718579491891 -13.982460216881009 0 0 0 0 65.99870546423945 41.005620248900527 0 41.005620248900527 -10.784106807201169 0 0 0 0 80.584749111420933 81.520414016129507 0 81.520414016129507 10.685853830465931 0 0 0 0 -7.5482629432125012 -13.72603233622624 0 -13.72603233622624 33.335662865228898 0 0 0 0 -48.750746091418023 -137.91410115054168 0 -137.91410115054168 -104.78134812923236 0 0 0 0 -17.982714863991077 -61.807226653720136 0 -61.807226653720136 -151.31029681401924 0 0 0 0 -83.067703587364122 80.690965886518825 0 80.690965886518825 -115.55704378605151 0 0 0 0 -222.75837247882555 135.80700673146566 0 135.80700673146566 250.16022675143904 0 0 0 0 -97.295222974700891 37.930995797381911 0 37.930995797381911 120.33766090479912 0 0 0 0 -55.139244359956137 -114.58060973629472 0 -114.58060973629472 -5.4890995391906472 0 0 0 0 -34.962035595041016 -90.405002290644916 0 -90.405002290644916 -30.135252037027385 0 0 0 0 131.81318757186727 140.72472283588286 0 140.72472283588286 181.46915316408558 0 0 0 0 -89.64357906006444 35.281557376001729 0 35.281557376001729 -93.893347073011682 0 0 0 0 0.42524248737444115 -0.46433757396128073 0 -0.46433757396128073 1.2586246484319474 0 0 0 0 130.37061090704083 87.449575820981408 0 87.449575820981408 85.025047755196283 0 0 0 0 85.759547260996442 70.077371175146254 0 70.077371175146254 90.058163104185951 0 0 0 0 21.06591376065947 -169.82362445918261 0 -169.82362445918261 342.53816794030718 0 0 0 0 2.0061495349336722 -1.217962335404394 0 -1.217962335404394 -0.32754781569494185 0 0 0 0 -9.2732706555896094 -12.720392231454497 0 -12.720392231454497 38.347775640937854 0 0 0 0 -0.50318696211866154 -86.002664180108695 0 -86.002664180108695 -7.5063782827928662 0 0 0 0 20.580209184105751 193.15889303657787 0 193.15889303657787 -13.238835924639716 0 0 0 0 0.49920969397924431 -5.2915966411412327 0 -5.2915966411412327 -1.2166122342822518 0 0 0 0 -0.064612174959449931 -105.81347920628468 0 -105.81347920628468 96.742934187408537 0 0 0 0 -127.57104010071362 -41.597675204109692 0 -41.597675204109692 154.95294794437359 0 0 0 0 -45.143896865910392 -24.945572337041085 0 -24.945572337041085 153.37801457135174 0 0 0 0 -55.794086450780014 -139.01982773201962 0 -139.01982773201962 287.18044215408736 0 0 0 0 -96.470709432614399 20.563329179556604 0 20.563329179556604 178.65876124045462 0 0 0 0 -92.79326437400141 -8.1642278614017414 0 -8.1642278614017414 155.51926851561439 0 0 0 0 -44.403568312202289 25.212597499608023 0 25.212597499608023 145.46476699113555 0 0 0 0 1.9837998082550712 -32.90383101606858 0 -32.90383101606858 80.853526747974684 0 0 0 0 -0.8000828363610708 17.699843719841738 0 17.699843719841738 76.741301991526598 0 0 0 0 -1.9932487193802899 21.430341915409372 0 21.430341915409372 65.092163554101717 0 0 0 0 -9.0353566410522035 17.843903547851369 0 17.843903547851369 34.520530861409497 0 0 0 0 9.1906134491105149 -5.7312509636685718 0 -5.7312509636685718 -48.558027578226756 0 0 0 0 5.9183400724558766 -31.057119784003589 0 -31.057119784003589 16.851153244060697 0 0 0 0 3.157783612204895 -28.436898125692096 0 -28.436898125692096 30.427009872473718 0 0 0 0 2.0608045001956441 11.580812400763534 0 11.580812400763534 62.126869641040685 0 0 0 0 3.82474495662251 7.5111923343320086 0 7.5111923343320086 40.99755301643745 0 0 0 0 -16.287073746508895 21.120587446217542 0 21.120587446217542 66.274288744200021 0 0 0 0 -13.22901450457266 21.315117211575853 0 21.315117211575853 36.364258732945018 0 0 0 0 -15.844570009623112 3.7147431965568103 0 3.7147431965568103 32.847153134731343 0 0 0 0 2.3525591585687353 -0.72977167017187128 0 -0.72977167017187128 -1.0569051839351573 0 0 0 0 -27.550703773499578 9.5794639491359703 0 9.5794639491359703 98.862632457152358 0 0 0 0 19.28316965224758 -14.870063897134969 0 -14.870063897134969 13.241415056068945 0 0 0 0 2.6223281934642841 4.5365750070923241 0 4.5365750070923241 71.043368716644181 0 0 0 0 -2.4849038409331801 -0.32997032528250259 0 -0.32997032528250259 0.70914190134621791 0 0 0 0 12.225833770550821 21.293245765173197 0 21.293245765173197 47.065631926372589 0 0 0 0 13.335303924556229 -10.546967399015557 0 -10.546967399015557 -10.89899004092149 0 0 0 0 10.129758491693906 17.284319477459576 0 17.284319477459576 62.904970249219332 0 0 0 0 -9.1988295671121705 -36.751235444804479 0 -36.751235444804479 94.862960629754525 0 0 0 0 3.0425367152385974 16.60329523879409 0 16.60329523879409 39.0635470826237 0 0 0 0 23.62178571929212 -25.396272901281918 0 -25.396272901281918 7.6755100227310322 0 0 0 0 -0.83183803673675438 1.7639139017197181 0 1.7639139017197181 1.2892784294557913 0 0 0 0 -7.5338566900028923 -25.342049359718658 0 -25.342049359718658 81.643997573846718 0 0 0 0 -2.1915670842516874 -35.463926634736708 0 -35.463926634736708 79.168152493060916 0 0 0 0 -11.969670621060686 -24.745730043701769 0 -24.745730043701769 89.563983418964199 0 0 0 0 8.0926026895207883 -38.092630651636682 0 -38.092630651636682 48.775105591543252 0 0 0 0 -0.24500470528168705 1.9607394422391593 0 1.9607394422391593 -0.16349603812257385 0 0 0 0 7.7259036557311447 -14.36007569557114 0 -14.36007569557114 58.114299247925373 0 0 0 0 -4.0454618790208769 19.663089725319878 0 19.663089725319878 60.443170448270394 0 0 0 0 10.442086291914165 -27.188167139043799 0 -27.188167139043799 81.453216732512374 0 0 0 0 10.928212454254208 -12.401155954044953 0 -12.401155954044953 61.631642244319664 0 0 0 0 0.89866059256556419 0.10623824201938703 0 0.10623824201938703 11.224161112084133 0 0 0 0 2.6839854784702766 -10.681003693141975 0 -10.681003693141975 95.726174337120028 0 0 0 0 19.148145328507781 -21.816123014054028 0 -21.816123014054028 66.576454582231236 0 0 0 0 0.13649857092968887 -21.573234278883319 0 -21.573234278883319 87.043927836246439 0 0 0 0 12.448955725835731 -14.964648426459462 0 -14.964648426459462 88.433695467136204 0 0 0 0 -2.000399593912789 -11.605541745149822 0 -11.605541745149822 83.999183746331255 0 0 0 0 -3.7748807160310207 -24.996318868710659 0 -24.996318868710659 90.384517626142042 0 0 0 0 -7.5454088904764376 -22.862666655733847 0 -22.862666655733847 112.88174882765452 0 0 0 0 -1.9569382384120217 -13.654051811314275 0 -13.654051811314275 114.37401709017286 0 0 0 0 15.22186314427654 -27.873636538202845 0 -27.873636538202845 118.10289660660237 0 0 0 0 9.0554170535542653 -12.862054823015569 0 -12.862054823015569 128.89017403543403 0 0 0 0 7.8824131372052761 -38.524881321187422 0 -38.524881321187422 142.32353020872688 0 0 0 0 -250.39449965386848 -289.63594275878859 0 -289.63594275878859 -108.23349007006618 0 0 0 0 -166.822281384495 -43.198205424501793 0 -43.198205424501793 164.9032509994795 0 0 0 0 -21.45853942601585 31.24189628034749 0 31.24189628034749 62.381121624761448 0 0 0 0 -6.927853705952657 -6.1221980294794776 0 -6.1221980294794776 143.50793220654305 0 0 0 0 -55.891305324950963 -12.726471521964413 0 -12.726471521964413 165.1874967038475 0 0 0 0 -73.75777849055612 -32.266936247742706 0 -32.266936247742706 235.90946391540638 0 0 0 0 -4.9885761650666609 -58.391529829397768 0 -58.391529829397768 84.245483634629636 0 0 0 0 -3.8072486074349996 -63.398539704334326 0 -63.398539704334326 96.631080069564632 0 0 0 0 -25.342064743057335 -45.628487633512123 0 -45.628487633512123 173.33219208523406 0 0 0 0 -25.716055628255162 -33.756832971190306 0 -33.756832971190306 113.31375744016259 0 0 0 0 -4.8383319504137194 7.7061251937935467 0 7.7061251937935467 27.393391408268158 0 0 0 0 -4.804369663436078 11.347326850548061 0 11.347326850548061 35.793205073398411 0 0 0 0 -59.683366065310011 -1.4354406062739145 0 -1.4354406062739145 71.054315388668329 0 0 0 0 -45.195467949093654 23.430267586169066 0 23.430267586169066 37.788404148945119 0 0 0 0 -12.347016120152944 13.980504195355024 0 13.980504195355024 31.646178174065426 0 0 0 0 -8.0125343321710716 -7.4545219500543567 0 -7.4545219500543567 68.687172303480097 0 0 0 0 -5.6149864034380794 -8.3503830094665332 0 -8.3503830094665332 40.675354255725892 0 0 0 0 -23.070826789411512 14.953037966566626 0 14.953037966566626 70.185674188134726 0 0 0 0 -3.6452339414172457 -6.1168242559651844 0 -6.1168242559651844 19.77426504320465 0 0 0 0 -16.565078235023492 4.0096262941482799 0 4.0096262941482799 44.864518461495038 0 0 0 0 -11.951168932263622 6.5084981170669209 0 6.5084981170669209 31.832565703748074 0 0 0 0 -3.9095311819580374 -12.125404219055184 0 -12.125404219055184 14.832565779597585 0 0 0 0 0.45852814081081306 -7.7208173411927419 0 -7.7208173411927419 111.11657123336045 0 0 0 0 -6.6466282741730538 -13.185555160212971 0 -13.185555160212971 106.54285069758771 0 0 0 0 11.332218877818377 -5.6369920798097155 0 -5.6369920798097155 54.11336277348164 0 0 0 0 -14.732068277950471 0.87570154738980932 0 0.87570154738980932 30.736741705479531 0 0 0 0 -9.6872539467676688 -7.109016989612428 0 -7.109016989612428 54.328801005896821 0 0 0 0 -2.4825366981157799 -39.078391234790615 0 -39.078391234790615 73.155706153600477 0 0 0 0 -0.54499894340634114 -41.570739013288403 0 -41.570739013288403 23.846090220351471 0 0 0 0 9.4439924955015613 6.8356144486460835 0 6.8356144486460835 -3.5249471759561857 0 0 0 0 8.1297100689192803 14.869319875440851 0 14.869319875440851 73.320465778886927 0 0 0 0 33.915301391190496 77.146502888306713 0 77.146502888306713 181.09985389214125 0 0 0 0 -12.494575140027003 3.259179318977246 0 3.259179318977246 23.450739682440812 0 0 0 0 7.5995211848021427 -32.264798642456299 0 -32.264798642456299 121.9281174671778 0 0 0 0 -13.96892369380771 -26.521283193845193 0 -26.521283193845193 55.699262443464249 0 0 0 0 0.97742018972921585 -24.539347642244891 0 -24.539347642244891 52.090536563887071 0 0 0 0 1.7245608249536417 -24.484707705874825 0 -24.484707705874825 55.638870358976419 0 0 0 0 -4.1573627083198517 -6.742305931460578 0 -6.742305931460578 82.621950131957419 0 0 0 0 1.4417512364238654 -10.278615850766087 0 -10.278615850766087 5.9593092131685061 0 0 0 0 4.0630501924997589 -30.603715159653802 0 -30.603715159653802 74.652993230207358 0 0 0 0 2.9917843054354307 -1.1714841309876647 0 -1.1714841309876647 40.535222404301749 0 0 0 0 6.2797632986009013 -20.259901258513509 0 -20.259901258513509 34.735420328079158 0 0 0 0 6.2587763542496759 -13.031333851544332 0 -13.031333851544332 56.877762460149825 0 0 0 0 3.3048140278758495 1.5581797439957654 0 1.5581797439957654 41.507146622942017 0 0 0 0 9.2841518153206977 -13.879541622904796 0 -13.879541622904796 17.080212594608525 0 0 0 0 17.980008072132478 -7.0621409226769174 0 -7.0621409226769174 94.370142388994282 0 0 0 0 22.114692941859175 -21.569932430076733 0 -21.569932430076733 77.74043226610047 0 0 0 0 554.91564269741934 374.52211770806389 0 374.52211770806389 -31.152076621918241 0 0 0 0 -166.30167894079432 -59.059818135716341 0 -59.059818135716341 1.6054691711178748 0 0 0 0 -16.17353447493997 -55.171586205371568 0 -55.171586205371568 -170.70584890074679 0 0 0 0 -3.9330575043355864 4.0245800928593098 0 4.0245800928593098 9.599699759197506 0 0 0 0 -81.392618975636651 26.402248824462731 0 26.402248824462731 64.922436306434975 0 0 0 0 -8.0566219142154818 18.802055962207646 0 18.802055962207646 53.768400410721497 0 0 0 0 -8.8660678522628071 160.61071094754465 0 160.61071094754465 17.997233249123383 0 0 0 0 -18.651845028875186 0.74835037470256793 0 0.74835037470256793 -28.541227501198591 0 0 0 0 -27.438597089802236 24.613573515669472 0 24.613573515669472 62.537723056151123 0 0 0 0 -63.737516580873489 -63.455309710909205 0 -63.455309710909205 175.09791602924815 0 0 0 0 -102.83044853597903 76.872060769754171 0 76.872060769754171 251.0762399310297 0 0 0 0 58.499141507143349 164.30242210399865 0 164.30242210399865 -18.284072758135153 0 0 0 0 -5.5028902128429031 20.457639941884388 0 20.457639941884388 56.211454679159033 0 0 0 0 -17.152577901164705 151.01415977194119 0 151.01415977194119 118.72835588921589 0 0 0 0 -158.05246228717056 -41.806491157192795 0 -41.806491157192795 111.56735029147967 0 0 0 0 -53.757456654814632 -79.220572002137487 0 -79.220572002137487 115.86491235508583 0 0 0 0 -119.31708973709192 -40.472551545954047 0 -40.472551545954047 182.58839689851447 0 0 0 0 -51.966116912013604 -36.631761093893147 0 -36.631761093893147 117.54804354189037 0 0 0 0 37.757552230848887 -89.77977254709549 0 -89.77977254709549 83.029273189205924 0 0 0 0 32.557499634199303 -117.18241590715479 0 -117.18241590715479 178.46041100758885 0 0 0 0 7.6270133654961683 -6.8057820311805699 0 -6.8057820311805699 200.60309396404773 0 0 0 0 127.22267485127452 72.978230247868851 0 72.978230247868851 51.305495411848824 0 0 0 0 8.309577979422194 -19.432893435301366 0 -19.432893435301366 333.0881700553291 0 0 0 0 169.37573644943382 -141.34233420964665 0 -141.34233420964665 105.26628755406637 0 0 0 0 28.65972971198488 -115.12992193978425 0 -115.12992193978425 285.72524194790458 0 0 0 0 -0.00079867823991384979 -1.7561241236385219 0 -1.7561241236385219 2.6999470268817021 0 0 0 0 -22.930356466360124 43.642969471619381 0 43.642969471619381 250.36674548729206 0 0 0 0 -0.50621511814165243 6.8559098406266408 0 6.8559098406266408 -4.2389688627403217 0 0 0 0 74.509432953640726 -111.954610319106 0 -111.954610319106 210.11411006244907 0 0 0 0 -27.349167209077052 27.050633058905078 0 27.050633058905078 127.2314931769215 0 0 0 0 65.745112489490282 -69.585206822866894 0 -69.585206822866894 72.264762152721232 0 0 0 0 313.93566236355593 121.18345855677399 0 121.18345855677399 123.8194439009967 0 0 0 0 11.835069863243971 -8.5872418762740672 0 -8.5872418762740672 34.396320970187297 0 0 0 0 2.5208342253972518 1.4026610231524401 0 1.4026610231524401 13.688664728373965 0 0 0 0 0.16265611656308465 -4.229551573509525 0 -4.229551573509525 18.619678295581252 0 0 0 0 -2.7376795379584369 7.8233193902187921 0 7.8233193902187921 19.762261539170964 0 0 0 0 -4.0416091605457041 7.7516257932693406 0 7.7516257932693406 23.082019720575772 0 0 0 0 -6.28058053437735 5.2047343756530609 0 5.2047343756530609 25.052159894978104 0 0 0 0 -7.468212581215937 8.021313409389677 0 8.021313409389677 19.355552406836068 0 0 0 0 -7.7489244477172852 13.363373619634309 0 13.363373619634309 16.192440792141539 0 0 0 0 -32.255413114415973 10.77143344349679 0 10.77143344349679 22.09051705271122 0 0 0 0 20.103908141412148 24.426586667073934 0 24.426586667073934 -13.496559107050416 0 0 0 0 1.4637046586304905 -6.3531892287153369 0 -6.3531892287153369 19.585607865985367 0 0 0 0 -0.5890069830608734 -0.68834278115508862 0 -0.68834278115508862 7.362888054553224 0 0 0 0 9.3931468535140539 13.376389141894833 0 13.376389141894833 21.437995583481097 0 0 0 0 12.779056592756206 -54.727052871901833 0 -54.727052871901833 43.454609394015279 0 0 0 0 2.9991885610952522 -4.1115044356920407 0 -4.1115044356920407 22.775507731796552 0 0 0 0 1.703180322448191 -10.046443093786557 0 -10.046443093786557 -2.2825734252540144 0 0 0 0 72.030283250488537 -41.818493235638016 0 -41.818493235638016 19.554775521028205 0 0 0 0 -2.6594393346843641 3.5418456582267561 0 3.5418456582267561 44.294405926077516 0 0 0 0 -3.6079954482893299 12.124560857115284 0 12.124560857115284 81.025158189553622 0 0 0 0 -4.1993775029709468 7.0689729770547274 0 7.0689729770547274 20.897136277744721 0 0 0 0 0.78335905198081868 5.140431454295566 0 5.140431454295566 17.743014393234574 0 0 0 0 2.4177778428760135 -18.11095370892442 0 -18.11095370892442 37.352276535850535 0 0 0 0 -14.611858093672708 -38.120897351611347 0 -38.120897351611347 66.863361799397069 0 0 0 0 0.3308891707119983 -14.944873521897534 0 -14.944873521897534 60.09156280159732 0 0 0 0 0.54580989901825916 -1.6818509987827923 0 -1.6818509987827923 8.8825896977308645 0 0 0 0 -110.55874545557026 74.219567890315375 0 74.219567890315375 50.583560784580186 0 0 0 0 2.2488911611818594 -23.73015687388488 0 -23.73015687388488 92.647087532801379 0 0 0 0 -7.2766830953310091 -17.533362979673257 0 -17.533362979673257 89.151731844769529 0 0 0 0 -16.992333060385135 102.06218217314381 0 102.06218217314381 0.94733860726410057 0 0 0 0 10.214029882454227 23.300346925884824 0 23.300346925884824 15.003286700170335 0 0 0 0 -135.60370963498175 -696.45518271012588 0 -696.45518271012588 3501.0390894708471 0 0 0 0 -423.12611103063603 65.82768648781348 0 65.82768648781348 2461.2170869438269 0 0 0 0 -485.47730976861635 84.038852053321079 0 84.038852053321079 3492.8228989467225 0 0 0 0 -17.748690448115212 9.3597900331988058 0 9.3597900331988058 123.60949467632236 0 0 0 0 -17.240649350016888 19.540603993296145 0 19.540603993296145 77.03913188088336 0 0 0 0 10.131437244626561 24.541700366369966 0 24.541700366369966 21.497938393402592 0 0 0 0 796.74522026969828 1027.9237947201 0 1027.9237947201 1304.4272888429996 0 0 0 0 2.3873567548246029 4.4581857508878695 0 4.4581857508878695 6.1562168924334912 0 0 0 0 0.70025763548234599 2.7783907256852975 0 2.7783907256852975 16.914660020731702 0 0 0 0 217.53652492988095 -1692.5598120349077 0 -1692.5598120349077 3494.3610501124881 0 0 0 0 2004.9217682061105 -1562.8280745245538 0 -1562.8280745245538 1387.4949980515376 0 0 0 0 -5.500977387001285 8.3882046697053738 0 8.3882046697053738 24.061452376539819 0 0 0 0 720.39420222099238 -321.65374714122754 0 -321.65374714122754 229.68238890725479 0 0 0 0 -8.0831775635531358 12.875591746962527 0 12.875591746962527 5.2687038606964052 0 0 0 0 0.33335123154859048 7.7793161730667251 0 7.7793161730667251 22.381808699093448 0 0 0 0 65.731355878269824 267.04411743411038 0 267.04411743411038 -115.20174386983854 0 0 0 0 -14.428402784922582 4.2396925039938651 0 4.2396925039938651 27.752721239696257 0 0 0 0 -2.3670163516161997 -0.7716836454285243 0 -0.7716836454285243 39.360173484796057 0 0 0 0 1.0327862537749917 17.017228320496343 0 17.017228320496343 13.470824881005527 0 0 0 0 -4.0849436304151885 -3.2735283692440333 0 -3.2735283692440333 35.448693492224081 0 0 0 0 280.22466042405267 145.1441747160352 0 145.1441747160352 -331.56040704245606 0 0 0 0 6.1811910574813975 2.5440071633571435 0 2.5440071633571435 22.733766235826977 0 0 0 0 -175.93454273978205 -302.65942109112075 0 -302.65942109112075 305.83258902620582 0 0 0 0 2.9035941898076025 3.0925417803530486 0 3.0925417803530486 2.2736749089764245 0 0 0 0 489.70545642204615 -598.63553934384981 0 -598.63553934384981 155.863470193377 0 0 0 0 603.81566806871797 -160.25958311748036 0 -160.25958311748036 -182.8042750540917 0 0 0 0 11.267216819951885 83.984621461633651 0 83.984621461633651 90.956042410660302 0 0 0 0 -0.15637941858237436 47.5296337763304 0 47.5296337763304 76.434960584946452 0 0 0 0 -108.29096622963493 163.3640784304298 0 163.3640784304298 95.035770362930634 0 0 0 0 -55.644030377415191 -21.659434058436091 0 -21.659434058436091 197.79331790807191 0 0 0 0 -45.930926261604952 11.36219193344732 0 11.36219193344732 135.82523220904841 0 0 0 0 41.970295293821209 -41.233540947421716 0 -41.233540947421716 45.913215454434976 0 0 0 0 -10.875588798882655 39.029924864096486 0 39.029924864096486 68.63809204286207 0 0 0 0 -130.04807922646353 -2.1170037251508802 0 -2.1170037251508802 -23.406286668920075 0 0 0 0 47.186584749202893 147.63072132104935 0 147.63072132104935 101.61072310346117 0 0 0 0 -103.58850996483238 222.81762658985826 0 222.81762658985826 -21.18985213598819 0 0 0 0 0.84239743372480547 1.0259061713814361 0 1.0259061713814361 -0.14941321494347903 0 0 0 0 42.725057476303732 -138.4219983965213 0 -138.4219983965213 257.19834656121384 0 0 0 0 73.700722087287431 19.933116438016441 0 19.933116438016441 49.41989703783679 0 0 0 0 -79.318922283575375 15.524606091345049 0 15.524606091345049 203.8583229046053 0 0 0 0 -73.654109898395347 -93.662037329135273 0 -93.662037329135273 277.88747698687803 0 0 0 0 -138.11503088275822 -0.72210407487727934 0 -0.72210407487727934 205.23419953241296 0 0 0 0 -87.36195975152657 52.485727608014713 0 52.485727608014713 252.48032233634149 0 0 0 0 -11.534501103126217 166.07984601353928 0 166.07984601353928 -115.0266750694027 0 0 0 0 7.5345177079341825 15.496477287770858 0 15.496477287770858 12.119241820894786 0 0 0 0 66.033443076723387 -756.77835888638947 0 -756.77835888638947 3188.0270036484362 0 0 0 0 314.65358501383906 -1050.3078713034593 0 -1050.3078713034593 3499.298120105097 0 0 0 0 3.2235749953957966 4.9593797090064413 0 4.9593797090064413 6.2579263206574467 0 0 0 0 389.97801827357762 397.610792422136 0 397.610792422136 -416.34110220492948 0 0 0 0 264.95899562669894 77.872491419013386 0 77.872491419013386 88.446741863852367 0 0 0 0 -79.973845217229467 -82.366983913583681 0 -82.366983913583681 364.09437219384563 0 0 0 0 1.1282086513680389 -2.2059062900006836 0 -2.2059062900006836 -0.70812995520273958 0 0 0 0 -511.74768670824636 -95.313449307719566 0 -95.313449307719566 3493.0451738609299 0 0 0 0 471.72164902525168 864.3763913027924 0 864.3763913027924 1634.1820591156866 0 0 0 0 -304.3701025740263 -201.93104384616709 0 -201.93104384616709 2400.3791455521787 0 0 0 0 -0.47744973174833338 -3.8555218117528653 0 -3.8555218117528653 18.624915777441956 0 0 0 0 207.85105300231982 -1139.2233929970862 0 -1139.2233929970862 3499.4065929436256 0 0 0 0 3.3217694562287519 4.2133526103169316 0 4.2133526103169316 -2.7372418397303591 0 0 0 0 188.30050061531801 175.75285934275598 0 175.75285934275598 89.73980364536601 0 0 0 0 -64.351818045269056 -92.041498809992845 0 -92.041498809992845 -128.54312839516206 0 0 0 0 -125.1341878721787 281.031954148355 0 281.031954148355 -25.366501844633603 0 0 0 0 -45.231386912788153 97.742171780847229 0 97.742171780847229 175.59350403826102 0 0 0 0 9.5493645702836965 56.707649028846646 0 56.707649028846646 73.013557121015282 0 0 0 0 81.81410798878278 85.32380353618646 0 85.32380353618646 -46.775037348413207 0 0 0 0 -92.408548728278106 25.037621159785886 0 25.037621159785886 200.64210076800373 0 0 0 0 -42.618183088116439 65.191514769750938 0 65.191514769750938 240.27573367308651 0 0 0 0 192.01447115188444 -31.794080126801418 0 -31.794080126801418 203.8535532419337 0 0 0 0 16.787872644761137 150.61678488892721 0 150.61678488892721 333.40103792212903 0 0 0 0 -26.258039468314564 -142.18838278397743 0 -142.18838278397743 489.72145708119933 0 0 0 0 -77.521657271388904 96.287585974998365 0 96.287585974998365 733.38306588793421 0 0 0 0 -1.331866686412468 -59.306757410427963 0 -59.306757410427963 526.36732647858116 0 0 0 0 -28.278203571952872 12.958019838093605 0 12.958019838093605 403.19132609620283 0 0 0 0 65.265460078822798 136.37637269085099 0 136.37637269085099 281.77882453847997 0 0 0 0 135.53192096745806 107.47848071259796 0 107.47848071259796 240.19366436701966 0 0 0 0 -24.25891076744756 199.06385464656341 0 199.06385464656341 411.43247545418853 0 0 0 0 66.376688861636239 117.22934912564642 0 117.22934912564642 279.67899590957677 0 0 0 0 29.483974733428113 148.84162161859422 0 148.84162161859422 260.46565245101374 0 0 0 0 140.28764449873324 199.90233675307536 0 199.90233675307536 177.77589826621988 0 0 0 0 127.04104064799049 69.206658739989507 0 69.206658739989507 76.832560907059815 0 0 0 0 2.4116680580341487 0.80974201363591192 0 0.80974201363591192 -0.76649199321612116 0 0 0 0 76.713210843901379 177.04758622009467 0 177.04758622009467 169.60108951237635 0 0 0 0 501.67043390549793 951.2353202622071 0 951.2353202622071 1805.648286518539 0 0 0 0 -449.52708539832747 -592.76781394166755 0 -592.76781394166755 3493.0972251413541 0 0 0 0 -63.107513232367637 115.78050149751652 0 115.78050149751652 -296.92313588420802 0 0 0 0 356.24196040655261 204.30259568027395 0 204.30259568027395 -301.71788366294641 0 0 0 0 17.711589756713543 49.06636122333299 0 49.06636122333299 33.098006387328539 0 0 0 0 -386.4525741287614 -579.55181135841485 0 -579.55181135841485 3444.4280676665512 0 0 0 0 56.752909319619675 -25.622291589044835 0 -25.622291589044835 -237.59089391364978 0 0 0 0 23.168009054029934 41.822422466390378 0 41.822422466390378 7.1756037341954553 0 0 0 0 337.30464793953792 -928.90051262191264 0 -928.90051262191264 3500.671863380383 0 0 0 0 1532.0805607373768 2451.693322426232 0 2451.693322426232 3497.938934352238 0 0 0 0 501.91665410363566 1475.1942460349528 0 1475.1942460349528 4287.1427516646218 0 0 0 0 0.97786116858348315 -1.4958655924277053 0 -1.4958655924277053 -3.4238854109845676 0 0 0 0 8.6531772103984572 25.783489965882907 0 25.783489965882907 50.70178946894066 0 0 0 0 18.853273774477376 19.557308159048873 0 19.557308159048873 -23.685498415264135 0 0 0 0 2271.1867767262902 2418.4118984972411 0 2418.4118984972411 2540.4294570027359 0 0 0 0 -87.075827098396076 158.69360379879072 0 158.69360379879072 68.52559928799019 0 0 0 0 39.459292059141603 -51.565349753986084 0 -51.565349753986084 -120.0516628055484 0 0 0 0 17.581542079155042 40.805335737240966 0 40.805335737240966 -71.021862180023163 0 0 0 0 5.5433299024485052 0.067475049437547341 0 0.067475049437547341 -0.7750736820306372 0 0 0 0 122.33196323172342 72.612121039936028 0 72.612121039936028 -118.3603077387379 0 0 0 0 1722.0900243353149 2440.4301268508825 0 2440.4301268508825 2984.3954971515122 0 0 0 0 966.09615592996079 1923.8120940702647 0 1923.8120940702647 3472.9599077791427 0 0 0 0 1042.2691171258575 1806.3076204164936 0 1806.3076204164936 2772.0664030786174 0 0 0 0 13.40322421348189 4.3620359695853352 0 4.3620359695853352 -12.210575213164191 0 0 0 0 -597.50309171717163 815.36603810610541 0 815.36603810610541 -240.78238760975364 0 0 0 0 -111.92223347571053 -232.29704779721214 0 -232.29704779721214 449.2539529116184 0 0 0 0 68.322954969915372 -233.29584422002517 0 -233.29584422002517 106.033461755811 0 0 0 0 1.6112948458103205 -1.5526215480081191 0 -1.5526215480081191 1.1603113786208752 0 0 0 0 -296.7354478094021 22.911391678346263 0 22.911391678346263 582.10184054126148 0 0 0 0 -258.1069241757848 -183.06728517123156 0 -183.06728517123156 408.80047274083336 0 0 0 0 -41.326872778432516 199.5339129425447 0 199.5339129425447 644.9039843500359 0 0 0 0 -2.2724833712121981 0.18102082895016736 0 0.18102082895016736 3.0888610117478947 0 0 0 0 185.14404713266867 232.78963581116841 0 232.78963581116841 503.52071009821793 0 0 0 0 151.26609256742086 343.49910198514408 0 343.49910198514408 198.83746988201165 0 0 0 0 -83.492172269069215 -96.15064455465108 0 -96.15064455465108 281.28028837905731 0 0 0 0 -33.829130867801496 169.27110552168415 0 169.27110552168415 502.94750481801748 0 0 0 0 5.4488991060143377 -1.4094688462313627 0 -1.4094688462313627 0.20238889493481338 0 0 0 0 307.93424446566314 -264.02500915669953 0 -264.02500915669953 -269.90279653864854 0 0 0 0 81.886261768262557 174.49408407684678 0 174.49408407684678 64.951645571258268 0 0 0 0 202.55104963674785 -346.33384843850217 0 -346.33384843850217 701.46064463275252 0 0 0 0 464.3933384136617 135.88487585140683 0 135.88487585140683 379.44162286643405 0 0 0 0 -505.00953377576297 -335.09801971821435 0 -335.09801971821435 1071.1079981830408 0 0 0 0 502.86084421480882 696.75223350537999 0 696.75223350537999 651.90309355888894 0 0 0 0 -1.3804799072204048 0.25405189038256282 0 0.25405189038256282 5.8937241230082122 0 0 0 0 -173.26719362091171 238.58624908851198 0 238.58624908851198 1262.6632327065017 0 0 0 0 410.98206003018822 -87.58272205866524 0 -87.58272205866524 630.11794486676808 0 0 0 0 425.90393955435684 462.05969407994417 0 462.05969407994417 686.38284451220534 0 0 0 0 -487.82135883158662 92.553429547129781 0 92.553429547129781 1043.917671524192 0 0 0 0 -145.03208781048488 -194.10684718478296 0 -194.10684718478296 561.80621068316395 0 0 0 0 1.0341638346807063 -2.4684632487207558 0 -2.4684632487207558 11.963967068964337 0 0 0 0 -26.476835429758921 -161.75844757598679 0 -161.75844757598679 76.223421615984989 0 0 0 0 745.28421378681651 412.24549605505308 0 412.24549605505308 -130.29224797630013 0 0 0 0 -112.53653065738354 51.776980435166479 0 51.776980435166479 247.97750228998484 0 0 0 0 -111.7076819326403 -47.562428922494291 0 -47.562428922494291 -36.079435025967541 0 0 0 0 46.740689828890936 256.19076591225894 0 256.19076591225894 273.08789564653853 0 0 0 0 229.10780226442353 134.66411468185288 0 134.66411468185288 201.18785255952389 0 0 0 0 69.062405317637968 254.27755860750767 0 254.27755860750767 209.02626043204873 0 0 0 0 37.134034505689669 164.45961140219151 0 164.45961140219151 201.33871199873829 0 0 0 0 -3.298653639078708 0.26411804233998737 0 0.26411804233998737 11.500831523450415 0 0 0 0 -42.012248334888227 148.64016350012025 0 148.64016350012025 308.55845650359697 0 0 0 0 48.374749831845293 168.62156309636339 0 168.62156309636339 89.312936829199316 0 0 0 0 -3.4208248871100757 0.70174237464715361 0 0.70174237464715361 9.8881431722149955 0 0 0 0 -233.79051751324369 -54.385908784737694 0 -54.385908784737694 181.10171413247735 0 0 0 0 150.43610800316173 213.89884948242434 0 213.89884948242434 146.50338601158001 0 0 0 0 87.743343612758508 64.982817288240767 0 64.982817288240767 145.72413915986448 0 0 0 0 -127.98603040787907 -60.571690997928272 0 -60.571690997928272 -16.050513750204118 0 0 0 0 -240.30972938722425 -96.248378424010298 0 -96.248378424010298 3.9187501866108505 0 0 0 0 1.262878109742914 -7.7329439667662285 0 -7.7329439667662285 38.326271851702984 0 0 0 0 192.9144757751119 240.17647147936805 0 240.17647147936805 141.93632551933842 0 0 0 0 -200.24494841499654 -69.140928769724269 0 -69.140928769724269 -15.616450635128786 0 0 0 0 -126.3042700989572 -116.6969824530679 0 -116.6969824530679 -33.585154127504211 0 0 0 0 -79.648179554666058 -72.760350037708122 0 -72.760350037708122 -32.608142881581443 0 0 0 0 -47.493788114847121 -17.528952599732293 0 -17.528952599732293 -3.4487721521145431 0 0 0 0 -84.233151367800019 -66.936871193007391 0 -66.936871193007391 -39.458281018851267 0 0 0 0 -92.402655277504891 -58.579171972574841 0 -58.579171972574841 -15.63925851368549 0 0 0 0 -34.589271817485042 -1.3631011124671204 0 -1.3631011124671204 13.636395922905649 0 0 0 0 -22.561913275627376 -24.56845960055216 0 -24.56845960055216 -13.649466036432386 0 0 0 0 -1.8969654792550115 -5.8336208352435932 0 -5.8336208352435932 3.59641883116484 0 0 0 0 17.03502496604824 -2.8501083393857698 0 -2.8501083393857698 -5.4581067359977169 0 0 0 0 1.4020618561667106 -0.39982681659967056 0 -0.39982681659967056 1.5015265663532773 0 0 0 0 -18.311533192525985 26.836180307429458 0 26.836180307429458 6.4196139224695798 0 0 0 0 -4.5522619374168141 -3.4144777049696557 0 -3.4144777049696557 6.099002516671419 0 0 0 0 -20.186763565060573 -1.4947891064730356 0 -1.4947891064730356 28.333824792254745 0 0 0 0 25.611961756388155 -2.469591130851768 0 -2.469591130851768 -15.185920014700969 0 0 0 0 28.306054212086565 -35.20669918157364 0 -35.20669918157364 18.378394359058802 0 0 0 0 45.764365203273428 -71.94452597295458 0 -71.94452597295458 54.766577314025199 0 0 0 0 -26.60665276503687 -18.101496980860247 0 -18.101496980860247 43.628103365117568 0 0 0 0 -2.7679019554507249 -34.838878868453321 0 -34.838878868453321 -6.9331461930487421 0 0 0 0 -37.186029426784607 -37.337540456404298 0 -37.337540456404298 5.774961608578451 0 0 0 0 -5.5773136274534396 -6.5524940196238219 0 -6.5524940196238219 -0.3596810792852807 0 0 0 0 -1.4840690252128661 -2.786926677039645 0 -2.786926677039645 10.306429585644537 0 0 0 0 36.813654086781753 -8.7242522208180162 0 -8.7242522208180162 -58.317379283616901 0 0 0 0 15.398312234818604 0.46981863230757881 0 0.46981863230757881 17.161166123012663 0 0 0 0 92.437380536448472 -58.707936516439077 0 -58.707936516439077 10.553102663639947 0 0 0 0 57.401011712452146 -153.23396197482361 0 -153.23396197482361 197.49422534370387 0 0 0 0 -34.502770565613048 59.926760345724574 0 59.926760345724574 171.38081208888616 0 0 0 0 0.30105524431752806 -2.0973300703387441 0 -2.0973300703387441 3.9841087068244292 0 0 0 0 -60.947214865889691 -54.988061037744046 0 -54.988061037744046 528.17077987014272 0 0 0 0 215.95906517225123 -199.4581238998378 0 -199.4581238998378 169.21171580861846 0 0 0 0 5.8314947367643981 -74.785594257456978 0 -74.785594257456978 96.886213674064493 0 0 0 0 -579.11787543828177 334.18095764831378 0 334.18095764831378 404.44216454602429 0 0 0 0 -191.37601641405854 -19.05378027172992 0 -19.05378027172992 -47.685028652776964 0 0 0 0 35.427032566732123 -216.48486115449487 0 -216.48486115449487 671.58306945410823 0 0 0 0 -2.9079870587325996 -1.3254239612929268 0 -1.3254239612929268 2.5436884920187026 0 0 0 0 -128.81435469480857 -108.69244472875289 0 -108.69244472875289 -19.393030131381238 0 0 0 0 -96.190068217037833 -89.524091533854516 0 -89.524091533854516 -16.836233508220175 0 0 0 0 -172.6304238020814 -41.863617543058353 0 -41.863617543058353 8.4830179620039416 0 0 0 0 -5.000106693314506 -3.1039513768218825 0 -3.1039513768218825 1.6638417833915469 0 0 0 0 30.34521868261254 41.545655855217774 0 41.545655855217774 90.262606232203552 0 0 0 0 -491.06984198565283 579.6526583565028 0 579.6526583565028 3497.791376521036 0 0 0 0 -0.0020517845075950503 275.51435250805844 0 275.51435250805844 2580.732668876004 0 0 0 0 79.716020587178889 120.93001457866922 0 120.93001457866922 759.38664126516232 0 0 0 0 0.60102875714482851 2.797846477330495 0 2.797846477330495 4.9632677633404114 0 0 0 0 -217.11035532006991 -147.01056877459541 0 -147.01056877459541 1524.8041653620021 0 0 0 0 -165.36345200479491 132.12011637636897 0 132.12011637636897 2806.3626785354718 0 0 0 0 -196.98326799889827 155.59889471590941 0 155.59889471590941 2782.5517605008281 0 0 0 0 -321.02131005418727 656.73216118152413 0 656.73216118152413 2539.585772074779 0 0 0 0 -150.14583100391624 378.56892797927867 0 378.56892797927867 1883.1824724041944 0 0 0 0 -194.74339945203246 591.40142761654715 0 591.40142761654715 2519.7559855941508 0 0 0 0 -270.5003126804645 539.90547748881363 0 539.90547748881363 2530.6874288628787 0 0 0 0 253.88098762627362 675.69813153856376 0 675.69813153856376 753.68077751702367 0 0 0 0 -38.653725832818964 741.94461375492392 0 741.94461375492392 1669.937188478958 0 0 0 0 89.488970054463152 671.52837005212496 0 671.52837005212496 1617.8532470686696 0 0 0 0 24.581041230047845 589.3806081834191 0 589.3806081834191 1696.5995856426016 0 0 0 0 97.701480207486071 580.43401648427562 0 580.43401648427562 1691.1238507957023 0 0 0 0 396.10132040566657 1211.2410440471649 0 1211.2410440471649 1634.0335534252299 0 0 0 0 260.57094567570346 551.18081785207323 0 551.18081785207323 1116.0948489593648 0 0 0 0 539.96367843936309 1300.1491608094511 0 1300.1491608094511 2281.264373646758 0 0 0 0 47.431105781706918 779.03228899607075 0 779.03228899607075 1992.2699687933637 0 0 0 0 67.56353782345559 866.60553870443255 0 866.60553870443255 1863.3622321233888 0 0 0 0 -288.16465824379191 767.31158660372148 0 767.31158660372148 2902.7207641040295 0 0 0 0 15.531493227356158 1312.9626693754035 0 1312.9626693754035 3499.9326709152178 0 0 0 0 1066.2741242815168 1660.2986919250905 0 1660.2986919250905 2527.0669152964911 0 0 0 0 299.1795485333796 1224.791792144144 0 1224.791792144144 2781.289776016034 0 0 0 0 582.99950763651395 -349.71282749254897 0 -349.71282749254897 750.39691619100631 0 0 0 0 574.31806424472757 1111.8722299999354 0 1111.8722299999354 2132.1371750891158 0 0 0 0 966.72766659472131 1405.2694031685751 0 1405.2694031685751 2017.4527450938549 0 0 0 0 676.38650650328225 1004.7185418419576 0 1004.7185418419576 1483.364189035492 0 0 0 0 176.45631250973202 174.33052737625349 0 174.33052737625349 192.15067492157687 0 0 0 0 8.7681513846466608 -1.7423785676181893 0 -1.7423785676181893 2.6121569294528797 0 0 0 0 -3.2235779517836125 0.48148085111587591 0 0.48148085111587591 4.3207012496718562 0 0 0 0 61.044999046920111 188.84408703663212 0 188.84408703663212 207.67359762071283 0 0 0 0 79.961016827787091 257.41765857751398 0 257.41765857751398 320.79858688727836 0 0 0 0 5.0633303649401693 -5.3986538461599736 0 -5.3986538461599736 9.7415316071264613 0 0 0 0 528.17042082009868 966.91253686004347 0 966.91253686004347 1493.1391784866446 0 0 0 0 -37.808872564754211 -8.7846650993051298 0 -8.7846650993051298 208.26998868174996 0 0 0 0 -2.1132098727272659 0.52173371615580777 0 0.52173371615580777 2.6262697935036385 0 0 0 0 302.8261045423576 382.90776488438496 0 382.90776488438496 281.5588502685132 0 0 0 0 -9.2225772622505247 186.68384269371745 0 186.68384269371745 96.680071795155527 0 0 0 0 -64.517427001690521 134.05404700379222 0 134.05404700379222 329.81634667600883 0 0 0 0 -319.09273302032079 -206.18532021994906 0 -206.18532021994906 54.252107334674292 0 0 0 0 111.91254499415345 134.85994532948098 0 134.85994532948098 183.74330537720834 0 0 0 0 15.314466578164684 16.338624271425942 0 16.338624271425942 196.59096461230365 0 0 0 0 159.63044860852131 182.57110210420069 0 182.57110210420069 299.72633731932729 0 0 0 0 53.065237413188697 98.630464126625156 0 98.630464126625156 309.40271423703052 0 0 0 0 118.45562856001331 204.18854925677488 0 204.18854925677488 295.03908236359712 0 0 0 0 170.00603575064133 166.65320926436834 0 166.65320926436834 301.27457065723866 0 0 0 0 244.89803467859338 283.9247038952235 0 283.9247038952235 397.83731910251663 0 0 0 0 3.9729123637685664 -7.4931622475282609 0 -7.4931622475282609 12.787464494586118 0 0 0 0 225.73296646299747 440.9869332113949 0 440.9869332113949 1104.4079099352821 0 0 0 0 180.00700503976486 322.94148655347817 0 322.94148655347817 353.74062233786572 0 0 0 0 461.596486609208 1150.6396433050513 0 1150.6396433050513 1800.1476448377944 0 0 0 0 -0.36447496627554177 0.85169980704094428 0 0.85169980704094428 2.6098747003209581 0 0 0 0 450.02089760496193 410.2598500323802 0 410.2598500323802 1108.5981371751077 0 0 0 0 218.13477105665061 659.92069172272932 0 659.92069172272932 1396.280191377271 0 0 0 0 42.158329760980905 650.53546634234954 0 650.53546634234954 1772.7330741655896 0 0 0 0 815.87140414867281 780.88609362341231 0 780.88609362341231 1695.0931593924324 0 0 0 0 0.30541291185316188 1.9528007292256575 0 1.9528007292256575 2.8735692125141128 0 0 0 0 0.10023409425396013 1.4135611634279712 0 1.4135611634279712 2.5239383946717595 0 0 0 0 45.229318026456838 10.389593510211853 0 10.389593510211853 2073.5802522503582 0 0 0 0 -538.73084957522178 391.35002828756114 0 391.35002828756114 2685.8877061034727 0 0 0 0 0.85622892848740184 2.5140162409854838 0 2.5140162409854838 3.6716801910675088 0 0 0 0 101.07049159572892 408.32377900222673 0 408.32377900222673 1079.2802406226547 0 0 0 0 131.9795730386291 462.15721213561483 0 462.15721213561483 1094.1744458398753 0 0 0 0 266.29790621743314 398.63949296170904 0 398.63949296170904 970.93302368320292 0 0 0 0 110.51075164072023 298.75114028315011 0 298.75114028315011 945.61096978091518 0 0 0 0 319.81255902062884 675.50838133931211 0 675.50838133931211 912.81728959517204 0 0 0 0 170.33207290412543 346.81794531886408 0 346.81794531886408 1202.4270440790351 0 0 0 0 385.62743145758327 437.64252603887871 0 437.64252603887871 583.68699517091045 0 0 0 0 142.93094955442677 217.08769807609497 0 217.08769807609497 560.96629252309503 0 0 0 0 3.3765362458254398 -7.453528656851546 0 -7.453528656851546 12.440472315230807 0 0 0 0 343.43700896064672 248.57422741372284 0 248.57422741372284 564.95926402119221 0 0 0 0 239.94431839938869 361.45811147754534 0 361.45811147754534 457.42992634412076 0 0 0 0 148.54128964318275 268.12679145857965 0 268.12679145857965 532.78555949735164 0 0 0 0 102.6635503583359 145.67855023127777 0 145.67855023127777 380.22176929655689 0 0 0 0 367.92224697896097 679.38509008986148 0 679.38509008986148 752.45589293905141 0 0 0 0 1.4928305347167636 -4.4274097198612026 0 -4.4274097198612026 8.9709736753063112 0 0 0 0 -0.90931967432785976 -0.33867823432224498 0 -0.33867823432224498 4.1640331099135324 0 0 0 0 253.84692219405804 434.64753096927416 0 434.64753096927416 595.51336823168094 0 0 0 0 186.90508727301506 196.2998611313742 0 196.2998611313742 356.31232644621196 0 0 0 0 105.5064025319536 166.24342274143419 0 166.24342274143419 365.00493361205372 0 0 0 0 -0.089376401518325821 160.98816380538483 0 160.98816380538483 432.31665574370709 0 0 0 0 127.50267615190573 354.27229737607558 0 354.27229737607558 585.08408660000714 0 0 0 0 0.42795983088564549 217.58369166818738 0 217.58369166818738 722.11634191212943 0 0 0 0 80.561398751985962 396.62285569349478 0 396.62285569349478 913.3575180507687 0 0 0 0 -0.26053549488090599 0.77333250268932829 0 0.77333250268932829 1.9449405900739123 0 0 0 0 -13.53970747882704 91.482906775949232 0 91.482906775949232 1052.6437786261522 0 0 0 0 133.87457842822113 217.9781474061092 0 217.9781474061092 765.18373119377793 0 0 0 0 71.863731742609772 35.431551529005446 0 35.431551529005446 861.48372854889021 0 0 0 0 -0.36396380266341216 132.85503142555535 0 132.85503142555535 908.53005073068198 0 0 0 0 0.30471349038484308 134.0565878114212 0 134.0565878114212 908.33392462556367 0 0 0 0 31.650695064580944 6.9634808287009946 0 6.9634808287009946 1053.2088272936635 0 0 0 0 1.0754136125924958 -130.58946816957769 0 -130.58946816957769 635.50189341523219 0 0 0 0 99.443283707809002 -18.728248677107331 0 -18.728248677107331 590.23437877207471 0 0 0 0 40.929257766554315 30.929908564066864 0 30.929908564066864 999.4175181540777 0 0 0 0 71.669864274260874 4.894902064006601 0 4.894902064006601 542.0985355990997 0 0 0 0 37.06528353109843 -65.941796132130548 0 -65.941796132130548 609.24577935626439 0 0 0 0 270.61208550721733 318.34104675186973 0 318.34104675186973 600.65123189612495 0 0 0 0 1.6614213104685602 -66.932965700349556 0 -66.932965700349556 390.2869266730122 0 0 0 0 -0.33717128677164976 -0.4557962955582866 0 -0.4557962955582866 4.152567940228721 0 0 0 0 221.55005543482812 526.47384703681018 0 526.47384703681018 1226.4458239263313 0 0 0 0 222.18003066571677 663.37031269575527 0 663.37031269575527 566.74798999039922 0 0 0 0 158.95542943971807 230.32170954332105 0 230.32170954332105 243.1311236450565 0 0 0 0 0.35845444684753247 93.797109245254902 0 93.797109245254902 215.71872356037784 0 0 0 0 0.26893443243269333 -0.82685552506922022 0 -0.82685552506922022 3.4431552596997221 0 0 0 0 429.82760733941734 202.09294147605942 0 202.09294147605942 506.39798794372473 0 0 0 0 -0.95574446728412266 -1.4360547178067122 0 -1.4360547178067122 6.8426066586863215 0 0 0 0 189.09171465808117 188.47865954027657 0 188.47865954027657 393.77984468977957 0 0 0 0 177.84130563287169 254.80548061829177 0 254.80548061829177 377.38108240499605 0 0 0 0 106.73119292913225 218.83263876162528 0 218.83263876162528 378.18983821825532 0 0 0 0 177.79469490610188 251.01834538194089 0 251.01834538194089 289.18069908635516 0 0 0 0 432.01320816095256 633.05791791599768 0 633.05791791599768 639.18322956543125 0 0 0 0 162.33592738371658 216.07269559887936 0 216.07269559887936 233.62361057831731 0 0 0 0 96.989868728880992 110.10991737111181 0 110.10991737111181 217.13751032846631 0 0 0 0 104.03224055800558 161.1141833739448 0 161.1141833739448 266.86809647930204 0 0 0 0 95.047093779141051 189.108693140588 0 189.108693140588 314.17018907115562 0 0 0 0 65.97910151477663 132.56616579418551 0 132.56616579418551 341.15254607467796 0 0 0 0 158.11700362574595 224.08328936501857 0 224.08328936501857 376.92278579446429 0 0 0 0 -0.39139502627105482 -0.39043485536467415 0 -0.39043485536467415 1.5235237351380988 0 0 0 0 35.290728558464025 120.45860439868557 0 120.45860439868557 612.35122167769441 0 0 0 0 50.437641300956329 -18.497185936503229 0 -18.497185936503229 536.75769046039932 0 0 0 0 52.20902205946345 -5.8686590010620421 0 -5.8686590010620421 511.59138928387256 0 0 0 0 41.067507964707147 -93.694702521359432 0 -93.694702521359432 414.17368860084389 0 0 0 0 31.170909358625522 -3.1697439228155417 0 -3.1697439228155417 429.41182581934117 0 0 0 0 54.195520972227996 -27.719600149845064 0 -27.719600149845064 362.38252196658868 0 0 0 0 40.791510651386716 2.7015331397851696 0 2.7015331397851696 218.76307765599267 0 0 0 0 40.594124228835199 15.063337307601614 0 15.063337307601614 342.25474149464571 0 0 0 0 22.032894974872988 6.7687501471577889 0 6.7687501471577889 231.5665477282746 0 0 0 0 38.996523250940754 109.54183128753357 0 109.54183128753357 282.1165661762243 0 0 0 0 -0.29477726666425319 -0.66077721843686277 0 -0.66077721843686277 1.6611453902751236 0 0 0 0 43.451494518380059 99.056492138308386 0 99.056492138308386 306.79338956095307 0 0 0 0 75.354741391812468 141.69994824650348 0 141.69994824650348 341.20449135234958 0 0 0 0 142.68884120442135 169.79361349137616 0 169.79361349137616 268.31343730469234 0 0 0 0 84.002442771107326 99.297889725157347 0 99.297889725157347 299.17858601649641 0 0 0 0 -0.48621514171378344 -0.59090360729089753 0 -0.59090360729089753 1.2995661615979088 0 0 0 0 -7.3094402255419482 94.674960055774136 0 94.674960055774136 253.1507411841776 0 0 0 0 15.186863799482353 71.468011245142407 0 71.468011245142407 231.57077193903388 0 0 0 0 -5.7754556482875614 83.540339342306652 0 83.540339342306652 302.7329905989609 0 0 0 0 -133.64627985860443 81.319406614682521 0 81.319406614682521 318.78219662459742 0 0 0 0 73.033544582166542 72.218480738509243 0 72.218480738509243 172.96001544733008 0 0 0 0 26.749479794015315 127.2172214580205 0 127.2172214580205 232.93314466424636 0 0 0 0 -28.743261650506611 83.58361673134641 0 83.58361673134641 222.84933760736931 0 0 0 0 -80.020174715275971 64.820753125284682 0 64.820753125284682 121.58242323683226 0 0 0 0 0.15844618831761181 18.442369403837802 0 18.442369403837802 148.03233663138235 0 0 0 0 15.475049141672798 88.06454976315581 0 88.06454976315581 167.33048886418692 0 0 0 0 21.266806674912459 -2.7982976081621018 0 -2.7982976081621018 122.3727293534248 0 0 0 0 -45.072108780505005 14.631270895966736 0 14.631270895966736 192.32970336450308 0 0 0 0 -25.476299572788093 10.735448001274563 0 10.735448001274563 66.90795967032318 0 0 0 0 -143.8803648128096 -25.688994568205089 0 -25.688994568205089 102.25932882426059 0 0 0 0 -116.73332977753626 -84.41652820460331 0 -84.41652820460331 105.76265917616547 0 0 0 0 -72.897920487876036 -0.16039989408272959 0 -0.16039989408272959 161.20702495936712 0 0 0 0 40.266171915504856 -62.644241850422986 0 -62.644241850422986 83.162274492868164 0 0 0 0 -59.568953147240791 -124.55061730023408 0 -124.55061730023408 176.39458289132745 0 0 0 0 -104.03463976554508 -12.347813267120728 0 -12.347813267120728 37.124054829560919 0 0 0 0 -247.0052640589397 -220.5927847458006 0 -220.5927847458006 105.75653704575961 0 0 0 0 -482.04076468997619 -165.02474354264996 0 -165.02474354264996 239.35155275998113 0 0 0 0 5.7538276558338284 -29.606160276969725 0 -29.606160276969725 117.7562526635034 0 0 0 0 -280.04753698342665 87.069113805991947 0 87.069113805991947 159.53979894820077 0 0 0 0 153.70261687601487 -328.33471557316807 0 -328.33471557316807 372.18972427198605 0 0 0 0 70.306170976921749 -26.56572705207509 0 -26.56572705207509 45.650247666839277 0 0 0 0 86.068400681266212 -72.699619331651775 0 -72.699619331651775 161.11747181096871 0 0 0 0 163.70800353082291 -179.41038347930953 0 -179.41038347930953 196.35495804675156 0 0 0 0 2.698142820379493 0.27981840922154788 0 0.27981840922154788 0.083723460246801551 0 0 0 0 31.128568188172267 47.069135355999606 0 47.069135355999606 -155.83222766655672 0 0 0 0 2.7551319699923624 46.577291227658861 0 46.577291227658861 -35.701872455974808 0 0 0 0 8.1432258628340399 1.2322910900753357 0 1.2322910900753357 -0.15715253796460615 0 0 0 0 86.085023490052663 -66.886551607582078 0 -66.886551607582078 -21.27620771167949 0 0 0 0 114.67135795912247 -209.66532700882453 0 -209.66532700882453 314.7890297735139 0 0 0 0 105.65665707847029 -139.19826205424033 0 -139.19826205424033 228.52203298127279 0 0 0 0 132.38377553266014 -143.77010259614326 0 -143.77010259614326 197.89374812309688 0 0 0 0 114.93133937915718 -155.84355368610704 0 -155.84355368610704 220.03348891763744 0 0 0 0 90.380980565154232 -86.314532638007222 0 -86.314532638007222 146.66456713620573 0 0 0 0 40.735501178712639 -90.04952399348258 0 -90.04952399348258 191.45186077033577 0 0 0 0 73.18783335820217 -92.141289994986437 0 -92.141289994986437 165.12764124001842 0 0 0 0 73.840458010066868 -87.724461916390283 0 -87.724461916390283 180.10419369997908 0 0 0 0 84.783216506280155 -120.96761826434522 0 -120.96761826434522 281.09389472023759 0 0 0 0 67.617570565066217 -80.072632340401469 0 -80.072632340401469 248.46694208817644 0 0 0 0 62.152660383440661 -136.47251000343385 0 -136.47251000343385 307.41317199553305 0 0 0 0 66.591981221230199 -74.551341077302823 0 -74.551341077302823 403.08543553229538 0 0 0 0 81.702641371599611 -133.78887112079974 0 -133.78887112079974 371.11811010797101 0 0 0 0 53.97785424165636 -123.80393494078453 0 -123.80393494078453 435.82353927355871 0 0 0 0 -0.54579268056793784 -0.49596413179710908 0 -0.49596413179710908 1.0775287979122936 0 0 0 0 -121.31010558046046 -123.8142393049493 0 -123.8142393049493 -107.41921747353626 0 0 0 0 84.987361743354256 -256.32982522787279 0 -256.32982522787279 146.63159393897513 0 0 0 0 89.842705501163437 -273.6466419462231 0 -273.6466419462231 -27.397891629108926 0 0 0 0 115.16671058492102 -127.79139889252838 0 -127.79139889252838 -73.666983538947534 0 0 0 0 74.146242768215416 -51.214243146037916 0 -51.214243146037916 89.318597670062445 0 0 0 0 78.595289523936572 -58.855548859748524 0 -58.855548859748524 -10.177954123413656 0 0 0 0 -439.89516336357906 -5.6712141269090353 0 -5.6712141269090353 -7.600773134152405 0 0 0 0 3.4247000972694788 -1.2185418133348662 0 -1.2185418133348662 -1.2312293381107224 0 0 0 0 -350.12801982207384 111.45957146870205 0 111.45957146870205 -43.82996124541387 0 0 0 0 58.589522985711938 -81.621811042714398 0 -81.621811042714398 171.19003424159018 0 0 0 0 93.777467727197632 -153.18941448439728 0 -153.18941448439728 118.98790322773857 0 0 0 0 96.32956910699977 -158.12426187476376 0 -158.12426187476376 21.217811569280457 0 0 0 0 80.97533553662106 -160.07037386047159 0 -160.07037386047159 323.62289612321911 0 0 0 0 103.8884567195546 -130.03724809680716 0 -130.03724809680716 161.97776891932881 0 0 0 0 83.764682334399367 -158.23216807920107 0 -158.23216807920107 202.35690920728666 0 0 0 0 114.85726631529894 -151.46396796397676 0 -151.46396796397676 193.94335551315453 0 0 0 0 106.65013880097331 -138.83348912785004 0 -138.83348912785004 215.45068653703493 0 0 0 0 14.026797014320231 1.7952487335211913 0 1.7952487335211913 -0.64615995786201097 0 0 0 0 93.050117139096756 -129.80679530893394 0 -129.80679530893394 188.35320105100982 0 0 0 0 115.89397826614766 -134.34480063897718 0 -134.34480063897718 160.42993532191031 0 0 0 0 77.645340407753338 -32.835178826715492 0 -32.835178826715492 -34.111330580912181 0 0 0 0 -43.283751802397319 15.763598634017399 0 15.763598634017399 -17.771561188732448 0 0 0 0 -43.064030647453023 0.32127214049978647 0 0.32127214049978647 -11.696859763549583 0 0 0 0 -58.171082099520277 20.729510820252472 0 20.729510820252472 -18.889239555785025 0 0 0 0 -65.014615162201949 6.0845161207980709 0 6.0845161207980709 -12.662399981065391 0 0 0 0 -72.82083331048085 -13.106125442332996 0 -13.106125442332996 -3.0274494353798218 0 0 0 0 -64.768851133980888 5.5717969148390694 0 5.5717969148390694 -11.594115367362974 0 0 0 0 -10.118731466942773 -7.3625162640155395 0 -7.3625162640155395 0.42435340546740008 0 0 0 0 -86.349382418812013 0.21108106354586198 0 0.21108106354586198 -2.2371152679552324 0 0 0 0 -71.066532607542285 15.557003418231034 0 15.557003418231034 -18.868554970045807 0 0 0 0 -69.73873943569356 17.810615277994657 0 17.810615277994657 -17.232557463823468 0 0 0 0 -89.457763464240543 10.717614263645373 0 10.717614263645373 -12.314399476526887 0 0 0 0 -127.18629416771103 2.5228188367327675 0 2.5228188367327675 -2.3305384998093359 0 0 0 0 -85.331463599668155 50.472472511653905 0 50.472472511653905 -18.656634583778214 0 0 0 0 2.5572471206664535 -2.4437890725542957 0 -2.4437890725542957 -1.5933077404976359 0 0 0 0 -216.77555562962925 119.18702446663519 0 119.18702446663519 -27.542452549794689 0 0 0 0 -199.02772063450522 -21.466610013687387 0 -21.466610013687387 0.97228150843875483 0 0 0 0 -124.84384309703705 -32.17289118336339 0 -32.17289118336339 -5.3790943172934931 0 0 0 0 -32.015068308361379 -40.778939567462658 0 -40.778939567462658 -51.780146651144605 0 0 0 0 -0.2505693240984106 -1.005034772398318 0 -1.005034772398318 1.8185529925810044 0 0 0 0 -1.2682639182446565 8.434147783802473 0 8.434147783802473 -87.196796913165599 0 0 0 0 -160.93338381340254 -150.69939747516764 0 -150.69939747516764 -62.815650296979584 0 0 0 0 -55.589574535821612 -8.1750273785437457 0 -8.1750273785437457 -8.6807111064117635 0 0 0 0 -218.3233774895084 6.2441390843305271 0 6.2441390843305271 -28.62050775194075 0 0 0 0 -116.89692793396352 -6.3675628886558115 0 -6.3675628886558115 0.11376053534331731 0 0 0 0 -74.648790608270815 -23.406664429705415 0 -23.406664429705415 -5.6605474443058483 0 0 0 0 -68.555062424701418 -30.614843439529068 0 -30.614843439529068 -0.23725357258808799 0 0 0 0 -80.904573866090914 -28.969191973446868 0 -28.969191973446868 -5.3189776558392623 0 0 0 0 -96.09797445269578 -7.5814198966545518 0 -7.5814198966545518 -4.1471171784796752 0 0 0 0 -62.480102844433873 -26.751713637306239 0 -26.751713637306239 -6.7111054486995272 0 0 0 0 -58.42034299405384 -26.549691696403897 0 -26.549691696403897 -8.7018588010068925 0 0 0 0 -64.210755037632964 -28.943008459980774 0 -28.943008459980774 -9.1309498022310436 0 0 0 0 -50.789438236238198 -12.972047532210127 0 -12.972047532210127 -7.3379088815618161 0 0 0 0 -72.468716587468407 -15.223488594725495 0 -15.223488594725495 -6.8754250262427377 0 0 0 0 -60.580384881915677 -31.176854669611203 0 -31.176854669611203 -11.01744952640729 0 0 0 0 -0.058343811697832468 -0.62612030631460402 0 -0.62612030631460402 2.1672435891987902 0 0 0 0 -10.370006939001673 3.0490605383274669 0 3.0490605383274669 1.4189137138309889 0 0 0 0 -62.510349601509404 -32.450294347981981 0 -32.450294347981981 -5.5643332224281039 0 0 0 0 0.09711253241488417 -0.42824947170289973 0 -0.42824947170289973 0.89963306680778032 0 0 0 0 -34.385509660497213 32.816512877629066 0 32.816512877629066 -53.841333555697929 0 0 0 0 -0.34158925981924809 -0.00096414092547547625 0 -0.00096414092547547625 0.49304220492174977 0 0 0 0 0.062347783258003484 -3.3129066851179232 0 -3.3129066851179232 -3.1459253983848612 0 0 0 0 -0.30681543152346741 -25.984919150076166 0 -25.984919150076166 -32.093075759723433 0 0 0 0 -21.3888861625774 -26.528532681164506 0 -26.528532681164506 -23.961579256239929 0 0 0 0 91.367604281533545 27.38632152658829 0 27.38632152658829 -90.133173710495612 0 0 0 0 11.027875792935788 68.907749407750089 0 68.907749407750089 -29.897623054028372 0 0 0 0 -20.853362511433374 -46.026508542738156 0 -46.026508542738156 281.61815411911812 0 0 0 0 -322.51800571826595 -140.43497947424476 0 -140.43497947424476 -44.057784012577031 0 0 0 0 134.33344038827863 -112.10600804971182 0 -112.10600804971182 31.515913843424642 0 0 0 0 37.957421671660313 -187.94925907091238 0 -187.94925907091238 348.87292542313662 0 0 0 0 -21.643015994963093 -63.635685262808693 0 -63.635685262808693 311.54001767843147 0 0 0 0 54.852390413150033 -200.2107231663249 0 -200.2107231663249 371.4719917964685 0 0 0 0 31.442917533851528 -194.9122705495829 0 -194.9122705495829 484.14095267227094 0 0 0 0 63.046194526250105 -102.978435754565 0 -102.978435754565 499.8272305719438 0 0 0 0 0.31192281115013998 -106.07155675900867 0 -106.07155675900867 630.3984013388399 0 0 0 0 -101.6186903009865 45.995770647990867 0 45.995770647990867 523.19338689142023 0 0 0 0 -0.018198188144143986 -0.040048241478524593 0 -0.040048241478524593 0.86679478222538364 0 0 0 0 29.479735094265905 -166.20033613695705 0 -166.20033613695705 551.93122980717453 0 0 0 0 98.239361732138775 -173.73060246345267 0 -173.73060246345267 289.1363810858893 0 0 0 0 19.529131946902908 -4.7695842901066499 0 -4.7695842901066499 298.47017932859308 0 0 0 0 6.3616109492768373 -46.613088725072885 0 -46.613088725072885 173.2760065577022 0 0 0 0 23.609529591013597 -38.403407557285391 0 -38.403407557285391 181.78570404998027 0 0 0 0 55.824665559740424 -89.832384459557943 0 -89.832384459557943 202.76879213781649 0 0 0 0 -1.0223769483407121 -0.99220345242690655 0 -0.99220345242690655 2.5834206909674435 0 0 0 0 110.82790600153248 -114.28632726665819 0 -114.28632726665819 163.03691025607986 0 0 0 0 119.75864061177163 8.9044896467894432 0 8.9044896467894432 29.142592527066881 0 0 0 0 90.774703570641805 -81.176218276779764 0 -81.176218276779764 145.19605615711771 0 0 0 0 110.83105135921323 -25.568379988086235 0 -25.568379988086235 53.371703889497439 0 0 0 0 193.82401978201597 111.36767196524306 0 111.36767196524306 144.64340748407994 0 0 0 0 117.21471906464376 -76.579655884634121 0 -76.579655884634121 -70.447155186280725 0 0 0 0 159.77094008535778 -149.71865800948581 0 -149.71865800948581 205.69242856773781 0 0 0 0 -120.59641971991778 -150.82428753220302 0 -150.82428753220302 -8.1446600866838708 0 0 0 0 -34.486412681915226 -60.207986784400418 0 -60.207986784400418 24.828993811232067 0 0 0 0 -109.88502390610665 0.86511122024967335 0 0.86511122024967335 3.9119831122516189 0 0 0 0 -26.948603413038654 -71.05385671784461 0 -71.05385671784461 63.711107925658325 0 0 0 0 17.580221996263845 -9.1724284222291317 0 -9.1724284222291317 67.438770112518796 0 0 0 0 -12.386780515884766 -118.01460685877828 0 -118.01460685877828 128.0978552793822 0 0 0 0 -31.459067198793491 61.289406329829944 0 61.289406329829944 182.59582177007542 0 0 0 0 -96.940347536275738 17.678018537047137 0 17.678018537047137 261.16086678026477 0 0 0 0 -46.466503932003889 84.202399522502674 0 84.202399522502674 386.76914919109549 0 0 0 0 -55.990043304193023 29.820483076706296 0 29.820483076706296 150.67175105879141 0 0 0 0 160.31759403646129 147.58544074287141 0 147.58544074287141 110.66785409237491 0 0 0 0 64.128856722932142 -142.70138642491656 0 -142.70138642491656 170.25459125607449 0 0 0 0 0.10528779565715365 -1.1823442557931267 0 -1.1823442557931267 2.5640749930990978 0 0 0 0 -0.32912383859229521 8.9364274620238575 0 8.9364274620238575 40.90585307629226 0 0 0 0 -14.86782304862345 -15.564529820614553 0 -15.564529820614553 46.340948974699131 0 0 0 0 -0.0081244541042873319 -2.2515186962267677 0 -2.2515186962267677 6.8449445482477529 0 0 0 0 10.420712737571876 -1.6183073744141439 0 -1.6183073744141439 52.108309980976628 0 0 0 0 17.660365814232591 53.951332300988724 0 53.951332300988724 110.25820631241368 0 0 0 0 16.636599677834965 12.797567000663548 0 12.797567000663548 22.079943969125452 0 0 0 0 34.910886508472913 45.805934877051186 0 45.805934877051186 56.031179198282189 0 0 0 0 13.216842950695536 34.465465300861979 0 34.465465300861979 59.869976586967823 0 0 0 0 -5.4332341098065626 1.2535215192037867 0 1.2535215192037867 56.507638997780759 0 0 0 0 -2.3281840881308868 -1.0754246677451249 0 -1.0754246677451249 2.412624566342231 0 0 0 0 4.9285051644435498 -7.3668178902917134 0 -7.3668178902917134 -1.6483699932869058 0 0 0 0 -1.6166483403006584 -2.3293672285712006 0 -2.3293672285712006 3.3409064484471571 0 0 0 0 -3.1408224194324248 -4.5231870899333444 0 -4.5231870899333444 5.2485863274341682 0 0 0 0 -2.5547664965224612 -3.9992127587465802 0 -3.9992127587465802 7.0235310573480092 0 0 0 0 2.7170817790455324 1.3381081296710278 0 1.3381081296710278 0.9506284208766651 0 0 0 0 4.1418452296284158 0.18911684294289444 0 0.18911684294289444 -10.995572514311789 0 0 0 0 33.459550811333429 -16.827298241623794 0 -16.827298241623794 14.759741436479089 0 0 0 0 67.598649483259578 -67.711815308015503 0 -67.711815308015503 91.422199911990901 0 0 0 0 -14.248033296460562 4.8431040427749394 0 4.8431040427749394 58.151500188338105 0 0 0 0 56.708180995196017 -67.66925300101866 0 -67.66925300101866 127.6890526979405 0 0 0 0 1.1646611290518578 1.7867107889250065 0 1.7867107889250065 -0.32686652976466846 0 0 0 0 -31.520056392825609 -35.03698948645615 0 -35.03698948645615 -35.717668155812135 0 0 0 0 -17.188674897921373 -46.952841968428402 0 -46.952841968428402 -26.555796433989599 0 0 0 0 -126.19494405996011 -47.435587082298298 0 -47.435587082298298 93.313747225711268 0 0 0 0 -69.50637944020491 -172.94880514214128 0 -172.94880514214128 30.584456875774777 0 0 0 0 -359.90291629249532 -189.55663875309983 0 -189.55663875309983 81.770018293653266 0 0 0 0 2.2809425003752075 -14.490297855173498 0 -14.490297855173498 64.283329872034926 0 0 0 0 -162.76328198553506 -169.74654994368848 0 -169.74654994368848 -14.744046596933913 0 0 0 0 -290.52720458241856 -11.442592809187772 0 -11.442592809187772 91.729095855991545 0 0 0 0 -0.99296275724373118 -119.16826783913712 0 -119.16826783913712 81.833212974568596 0 0 0 0 77.736627301776025 -48.830290806661651 0 -48.830290806661651 67.39100645239705 0 0 0 0 468.14055447659484 471.48179843277467 0 471.48179843277467 308.77616209740518 0 0 0 0 -49.16412496292287 228.72913251217688 0 228.72913251217688 519.52921171637718 0 0 0 0 -1.8420078468694108 0.82407177595673886 0 0.82407177595673886 4.5240394370534887 0 0 0 0 75.255622488190966 138.49931138280226 0 138.49931138280226 107.33264694527315 0 0 0 0 -231.88374830754128 75.740612754925678 0 75.740612754925678 310.50684359032311 0 0 0 0 -266.39855277788138 -214.25825834349598 0 -214.25825834349598 80.512476451225211 0 0 0 0 -59.183258486566956 -74.467038972768933 0 -74.467038972768933 308.06711464821274 0 0 0 0 -73.526731329011881 -27.779094020927005 0 -27.779094020927005 -4.1900644281995483 0 0 0 0 -132.67419575243412 34.840535991694196 0 34.840535991694196 153.7600754393352 0 0 0 0 3.6390919884045339 -20.224093960776575 0 -20.224093960776575 84.33892955708103 0 0 0 0 -395.17666013630878 -222.98551765294178 0 -222.98551765294178 151.71813444251893 0 0 0 0 -391.83324249806992 -60.096548064771923 0 -60.096548064771923 69.169022619269526 0 0 0 0 4.968261097118293 -24.453760726263059 0 -24.453760726263059 98.391903222563258 0 0 0 0 -127.32920967021164 -114.58848017237324 0 -114.58848017237324 -24.304253700716799 0 0 0 0 -331.56004819728787 -161.17064431195467 0 -161.17064431195467 96.681154229139793 0 0 0 0 -62.857299158469687 -31.528671667256276 0 -31.528671667256276 158.45427269175525 0 0 0 0 -160.06374074702762 -129.78465933520783 0 -129.78465933520783 184.75331069200911 0 0 0 0 -0.29789783799063729 -1.9026511181585786 0 -1.9026511181585786 0.74389704679259694 0 0 0 0 -73.496427168762239 -88.096551719820127 0 -88.096551719820127 65.978374092177546 0 0 0 0 -24.820939488143722 -24.528010685500703 0 -24.528010685500703 40.859009167797922 0 0 0 0 -11.223378261328435 -38.411717140817927 0 -38.411717140817927 34.933056900628799 0 0 0 0 -10.216729647378088 -41.20464042895037 0 -41.20464042895037 -25.812276317930809 0 0 0 0 -25.536843857732947 -25.240976758698707 0 -25.240976758698707 -41.646979341217957 0 0 0 0 -0.30394492268925266 -2.4578011661622856 0 -2.4578011661622856 1.4568164541728947 0 0 0 0 -181.20706727734159 -39.375261143301032 0 -39.375261143301032 35.743432998035132 0 0 0 0 -181.37244185066811 -19.084286784487631 0 -19.084286784487631 61.164214648772031 0 0 0 0 -363.36929858628082 -55.462445216733613 0 -55.462445216733613 9.6309318210041965 0 0 0 0 -208.70980624592949 -91.88028994205888 0 -91.88028994205888 39.488852718728594 0 0 0 0 -223.46813760938494 -105.89396058504281 0 -105.89396058504281 26.186325165579547 0 0 0 0 -297.98965536809283 -267.37948215340839 0 -267.37948215340839 -45.873011143659824 0 0 0 0 -327.74277223485069 -132.21428301309788 0 -132.21428301309788 129.86920923574144 0 0 0 0 6.0527724949979742 -28.12508315804353 0 -28.12508315804353 109.83439238012562 0 0 0 0 -188.47461658374777 -42.767505969255581 0 -42.767505969255581 -7.9666673604160678 0 0 0 0 143.98659044525903 -120.58502930582836 0 -120.58502930582836 -75.335741593924467 0 0 0 0 -93.291987372195308 -184.27724276887238 0 -184.27724276887238 145.62160807728651 0 0 0 0 237.12839963549413 71.487681006998173 0 71.487681006998173 177.40300136662245 0 0 0 0 -682.40975630235425 -403.91473435054286 0 -403.91473435054286 267.40344451187411 0 0 0 0 -26.345170065736511 -35.675077267625966 0 -35.675077267625966 98.454017065276275 0 0 0 0 22.36847074140951 -46.326133127866342 0 -46.326133127866342 98.293589875822363 0 0 0 0 -0.04214504005969355 -1.611131688063141 0 -1.611131688063141 0.67372052453927722 0 0 0 0 -224.75105944625193 57.735793850017217 0 57.735793850017217 173.44989586245356 0 0 0 0 -93.229600132427549 -46.569548435250908 0 -46.569548435250908 256.17100413344451 0 0 0 0 -80.033586791214475 34.005239215191978 0 34.005239215191978 241.05546322740702 0 0 0 0 -59.224939304331201 -17.825631370425981 0 -17.825631370425981 348.55123568891577 0 0 0 0 -61.654099158579356 -24.524771944470558 0 -24.524771944470558 330.66190953202022 0 0 0 0 66.70528498405838 -136.01231176094007 0 -136.01231176094007 253.10411735247544 0 0 0 0 -0.11254342051097055 0.12649325241586951 0 0.12649325241586951 3.9227080859895125 0 0 0 0 108.72483425937935 -91.467341512121493 0 -91.467341512121493 95.918167492956854 0 0 0 0 220.5820595290752 -258.29845172114983 0 -258.29845172114983 316.90344974123582 0 0 0 0 87.576131595596962 -45.772720805456629 0 -45.772720805456629 62.789154437268735 0 0 0 0 189.99546319296451 54.010305241867172 0 54.010305241867172 668.58217046846403 0 0 0 0 94.939748587596114 -36.516012759595469 0 -36.516012759595469 71.455404863856529 0 0 0 0 -51.826627484191476 -663.35580009760542 0 -663.35580009760542 299.3018328131875 0 0 0 0 21.881979957395743 -47.249313459156838 0 -47.249313459156838 143.87320426878432 0 0 0 0 99.133060244767421 -46.333272731610123 0 -46.333272731610123 55.35472363824374 0 0 0 0 54.470165562475358 -12.897965093769017 0 -12.897965093769017 6.559138250988326 0 0 0 0 89.40838744116536 -54.424956195696723 0 -54.424956195696723 55.316255786604728 0 0 0 0 278.26960554719426 -27.247921076956118 0 -27.247921076956118 -75.854950138236745 0 0 0 0 -0.47055638894913621 0.27340801729582864 0 0.27340801729582864 6.896349256112245 0 0 0 0 196.91705174593699 -49.342286268511089 0 -49.342286268511089 -81.772264185463428 0 0 0 0 138.15129573114609 -35.254332512784458 0 -35.254332512784458 -83.803914179399726 0 0 0 0 108.78137786648063 -43.611808286759697 0 -43.611808286759697 6.194228981701599 0 0 0 0 49.160541284535611 -61.70514534924223 0 -61.70514534924223 -1.8781664270136389 0 0 0 0 -0.87107607553309663 -0.403503174254638 0 -0.403503174254638 5.1253100003141299 0 0 0 0 9.3313875012867165 -2.3472277755677027 0 -2.3472277755677027 9.5918336048441688 0 0 0 0 10.862178118608426 -86.495581888062588 0 -86.495581888062588 -57.267030820148648 0 0 0 0 -67.834734880588258 -95.033578618371394 0 -95.033578618371394 -190.37154337731772 0 0 0 0 -6.7382350332521179 -5.018685719710902 0 -5.018685719710902 12.304985337164226 0 0 0 0 47.370360146548592 -7.3099994677686482 0 -7.3099994677686482 -132.2420028509805 0 0 0 0 -144.91434734334734 -140.26162128026044 0 -140.26162128026044 -69.584578073918237 0 0 0 0 -10.772618536189839 -17.640006752240879 0 -17.640006752240879 -28.655469050660031 0 0 0 0 128.72560930658983 25.411306351474195 0 25.411306351474195 -18.32843208538543 0 0 0 0 127.2074027101462 -49.088460798811866 0 -49.088460798811866 -50.459017879064049 0 0 0 0 226.67872369963857 52.471194153844408 0 52.471194153844408 -31.774216653881012 0 0 0 0 3.751487253790593 -2.0472508138833803 0 -2.0472508138833803 0.09978312667294631 0 0 0 0 8.5519195992746972 25.467627770798572 0 25.467627770798572 22.339195029242546 0 0 0 0 124.89972196341796 39.683371200440888 0 39.683371200440888 -30.35707977678976 0 0 0 0 25.595738736742533 -7.5770584464371495 0 -7.5770584464371495 2.6850424347067019 0 0 0 0 45.02920835870782 26.912198738547886 0 26.912198738547886 46.372041336406255 0 0 0 0 80.139133454600824 -52.237751031772859 0 -52.237751031772859 86.540996952986461 0 0 0 0 22.899655754000833 -7.0477494211991143 0 -7.0477494211991143 100.58862090241746 0 0 0 0 19.281382353994559 -32.2112431987116 0 -32.2112431987116 331.65462785461568 0 0 0 0 163.18253731299228 -35.535552298548282 0 -35.535552298548282 82.184959498314129 0 0 0 0 146.64651277372741 -118.72905457892193 0 -118.72905457892193 -160.50486049646861 0 0 0 0 115.02048905650918 46.533315825221507 0 46.533315825221507 40.216033702017739 0 0 0 0 56.285062115865003 39.352070150955115 0 39.352070150955115 394.93440877238027 0 0 0 0 127.45926162143314 -30.953965417167637 0 -30.953965417167637 80.138964575457067 0 0 0 0 109.14967464308575 -87.751261311961571 0 -87.751261311961571 145.53120778185257 0 0 0 0 69.60757873222974 -213.20132301593731 0 -213.20132301593731 391.93743138084392 0 0 0 0 65.478138082493388 -216.82597945031739 0 -216.82597945031739 407.91417507440724 0 0 0 0 273.38378811581561 -122.8784569058007 0 -122.8784569058007 268.16432549466117 0 0 0 0 -21.598861260788055 32.48519987789723 0 32.48519987789723 250.91529457215802 0 0 0 0 9.3650583799695823 -139.53417294541805 0 -139.53417294541805 433.86015748771752 0 0 0 0 2.1970797513084506 -0.97907670188821783 0 -0.97907670188821783 0.44825044616689524 0 0 0 0 148.04370558470737 -84.3979648041568 0 -84.3979648041568 -4.630831226164446 0 0 0 0 -63.242765509743549 68.967842534151714 0 68.967842534151714 457.3772805456465 0 0 0 0 -32.208857819748118 114.25711786096508 0 114.25711786096508 312.36851968316114 0 0 0 0 -24.648079064155809 39.9794591236423 0 39.9794591236423 485.45875689844252 0 0 0 0 1.3688720927347759 -0.31776921884741682 0 -0.31776921884741682 0.82604344989955791 0 0 0 0 205.69999246074076 390.99334914732026 0 390.99334914732026 35.121841505345401 0 0 0 0 9.1771017223718445 29.484360096605087 0 29.484360096605087 172.31316862219683 0 0 0 0 3.2061467633588165 -1.6221107044074046 0 -1.6221107044074046 1.0898024579134642 0 0 0 0 90.861262954664198 -22.487385636002728 0 -22.487385636002728 -6.0789696687061223 0 0 0 0 -222.50326348847284 -75.151814411437954 0 -75.151814411437954 101.35986098021385 0 0 0 0 66.844426485587064 -152.97965311621374 0 -152.97965311621374 -71.618750086606269 0 0 0 0 14.532273768987579 56.645858760326519 0 56.645858760326519 171.38501021961201 0 0 0 0 96.635259554609547 -19.595288080039609 0 -19.595288080039609 -5.5170497502485887 0 0 0 0 13.921289032380173 -34.030912069145415 0 -34.030912069145415 287.95814767148113 0 0 0 0 3.5672722993040225 -19.503122451962554 0 -19.503122451962554 519.02451186002145 0 0 0 0 -42.379149639242314 -74.006011041106831 0 -74.006011041106831 259.8637647746109 0 0 0 0 -84.486939657551375 -33.57670597170727 0 -33.57670597170727 327.67853963333619 0 0 0 0 -107.4133023174536 -14.179351253225832 0 -14.179351253225832 475.86312129473663 0 0 0 0 -44.526147469373427 16.459347255895409 0 16.459347255895409 298.56191554704128 0 0 0 0 21.358686205849153 -20.342077534882264 0 -20.342077534882264 127.32109464526002 0 0 0 0 179.53976962419165 284.86890355720971 0 284.86890355720971 610.08415238471571 0 0 0 0 -88.549798282368101 -460.52057894776499 0 -460.52057894776499 116.46220405148779 0 0 0 0 -225.56231081244732 502.77748998033712 0 502.77748998033712 568.69497686068644 0 0 0 0 -44.032454617395615 48.368592655895554 0 48.368592655895554 500.265711529908 0 0 0 0 -304.68216412978018 -290.0471688432317 0 -290.0471688432317 30.747757516146521 0 0 0 0 -140.82789813539057 -8.477989183349564 0 -8.477989183349564 471.73792458913886 0 0 0 0 714.97360309880423 541.94147825986147 0 541.94147825986147 159.71819943990704 0 0 0 0 -0.47242061538577396 -0.40594496310205486 0 -0.40594496310205486 7.153641609726094 0 0 0 0 -0.074482711680904146 -4.2498316942566561 0 -4.2498316942566561 19.258145744311008 0 0 0 0 -429.74122936670301 -117.62384342693986 0 -117.62384342693986 128.2307058299557 0 0 0 0 82.648508006639531 26.660526372983441 0 26.660526372983441 61.016926626754866 0 0 0 0 -175.57398897178973 127.53507928583713 0 127.53507928583713 136.90303857457002 0 0 0 0 -129.78959302689145 77.616317685948161 0 77.616317685948161 222.99476363687427 0 0 0 0 -43.028545898587254 19.428067647919306 0 19.428067647919306 -31.635457836804562 0 0 0 0 -221.59646051924352 -556.71504940093666 0 -556.71504940093666 -746.39928767591482 0 0 0 0 -1.2367625935387494 -0.20477868950567313 0 -0.20477868950567313 1.1690772302890196 0 0 0 0 155.70865946833419 256.84596159433931 0 256.84596159433931 299.03301163294964 0 0 0 0 -8.1179026247798234 1.5098649985191201 0 1.5098649985191201 4.735398036731624 0 0 0 0 -493.08395133495287 -1104.1344383155811 0 -1104.1344383155811 -581.45388576609548 0 0 0 0 -374.59681827993245 -103.67491626161427 0 -103.67491626161427 -52.617901818375685 0 0 0 0 707.28442465784246 -311.86981335965538 0 -311.86981335965538 -274.65947927309753 0 0 0 0 1254.555166211994 -510.93803264424332 0 -510.93803264424332 928.61117031265167 0 0 0 0 1220.6808338910137 736.15481201293028 0 736.15481201293028 813.39746428729268 0 0 0 0 -57.843738663916156 231.83825913978217 0 231.83825913978217 902.96191693545916 0 0 0 0 4.2117144089261274 -123.85929293672962 0 -123.85929293672962 2157.0635203524726 0 0 0 0 98.997481117838106 -83.231893739219231 0 -83.231893739219231 819.03179628167709 0 0 0 0 -62.919524330301556 -596.35754782071854 0 -596.35754782071854 660.99394084900268 0 0 0 0 -314.98619184602831 -114.36587078317098 0 -114.36587078317098 -246.07810691075247 0 0 0 0 -923.71280262673099 -228.68103667494302 0 -228.68103667494302 519.37857990585326 0 0 0 0 -405.64154947778525 47.106487809950522 0 47.106487809950522 915.10689286966226 0 0 0 0 -390.01167601389716 -34.07162373320898 0 -34.07162373320898 293.12186797353206 0 0 0 0 -225.88759824932094 323.35224309106707 0 323.35224309106707 328.67145244107815 0 0 0 0 -416.89165741834768 294.93080994357297 0 294.93080994357297 601.76533461995859 0 0 0 0 -598.97285722814468 16.599824623779568 0 16.599824623779568 280.75331121843192 0 0 0 0 -217.64630256880446 274.45133081443782 0 274.45133081443782 148.41105125583999 0 0 0 0 -307.71680668987665 284.77450977946137 0 284.77450977946137 325.67172055783522 0 0 0 0 3.1515470930735319 530.4130992378341 0 530.4130992378341 391.79915770073058 0 0 0 0 414.88116239821102 670.32059647023561 0 670.32059647023561 281.94381105312641 0 0 0 0 255.62653420285733 460.11369109627412 0 460.11369109627412 9.1784439590555849 0 0 0 0 431.94407730121384 403.75920282828156 0 403.75920282828156 -200.5345967636531 0 0 0 0 405.77672909472358 996.33957782109064 0 996.33957782109064 1261.5120920579066 0 0 0 0 518.19583818688807 716.00893906999227 0 716.00893906999227 317.2315933528007 0 0 0 0 112.9865916943254 751.34345641711116 0 751.34345641711116 867.75938247128215 0 0 0 0 239.37975802414439 535.42854765251104 0 535.42854765251104 305.19081885101514 0 0 0 0 -213.45286098167162 54.455842315303016 0 54.455842315303016 143.14800289468985 0 0 0 0 -134.37616583803901 64.204366370791831 0 64.204366370791831 94.258719210716663 0 0 0 0 -99.130609755973637 12.893026886355074 0 12.893026886355074 153.50359353554086 0 0 0 0 153.83048583060736 223.67269922181731 0 223.67269922181731 146.79069342353614 0 0 0 0 -909.0748289676834 -699.38403441710284 0 -699.38403441710284 -64.647742150264094 0 0 0 0 -17.91538272698801 7.1963641852193803 0 7.1963641852193803 2.8843016579347989 0 0 0 0 -431.84446161080041 51.149438380794891 0 51.149438380794891 144.5581392266613 0 0 0 0 -429.79836071992395 -50.272682861817884 0 -50.272682861817884 -50.08268950648926 0 0 0 0 -392.1282353728061 70.492729913610674 0 70.492729913610674 83.428965965547832 0 0 0 0 -27.127847770276226 21.901380709914861 0 21.901380709914861 6.7416061227571618 0 0 0 0 -443.72161637415184 -23.179044077857725 0 -23.179044077857725 44.347831788894837 0 0 0 0 -55.354463781241066 161.41156184340434 0 161.41156184340434 139.25375316728105 0 0 0 0 36.496455253296972 -31.629252184204233 0 -31.629252184204233 274.70460901646584 0 0 0 0 -348.79645983961052 99.955749044769618 0 99.955749044769618 36.473372427546792 0 0 0 0 7.5769837908369411 22.940849396845252 0 22.940849396845252 29.819687291093942 0 0 0 0 -359.19985133968419 156.30861436337727 0 156.30861436337727 142.43382505580303 0 0 0 0 -233.87438426490826 130.94925231506932 0 130.94925231506932 1.9041024126199773 0 0 0 0 79.814276854780474 235.78244160123722 0 235.78244160123722 -110.76760007034682 0 0 0 0 341.25524787780978 -588.84693747361234 0 -588.84693747361234 999.69847226972342 0 0 0 0 181.93344619274058 599.51918027901411 0 599.51918027901411 91.411368205415783 0 0 0 0 6.378505290224795 7.0237068119510582 0 7.0237068119510582 10.733257844368211 0 0 0 0 158.60752322170902 -216.08146625523659 0 -216.08146625523659 238.95598159355359 0 0 0 0 7.6241618925992043 -221.66991316067288 0 -221.66991316067288 603.54030857911857 0 0 0 0 128.64295132347615 96.414824205661716 0 96.414824205661716 -11.276392853578727 0 0 0 0 334.06514298496768 345.6887712286989 0 345.6887712286989 -105.94350815196958 0 0 0 0 336.09583216333158 297.53279977914644 0 297.53279977914644 -201.00953517164453 0 0 0 0 195.31491468278955 404.78664022642261 0 404.78664022642261 14.389669354641228 0 0 0 0 21.794326691747301 369.96075386547454 0 369.96075386547454 145.69670741459936 0 0 0 0 113.04191567662156 346.98493797235642 0 346.98493797235642 15.156148648820817 0 0 0 0 135.37408073635743 425.12864880159032 0 425.12864880159032 20.335147196840353 0 0 0 0 -221.55522948756698 394.50076805279241 0 394.50076805279241 448.05947913650016 0 0 0 0 -102.55166287574139 281.89584501973877 0 281.89584501973877 270.29590183385881 0 0 0 0 -73.620497189762318 224.05647419381421 0 224.05647419381421 384.94151182635687 0 0 0 0 69.024116394370139 351.22680571372621 0 351.22680571372621 247.6111371464649 0 0 0 0 10.733323542911421 218.09700691755097 0 218.09700691755097 72.310447111449321 0 0 0 0 -167.7291275898915 108.55523310702847 0 108.55523310702847 222.66511895981967 0 0 0 0 -109.56532684671765 154.47672282102576 0 154.47672282102576 252.08832235184673 0 0 0 0 -73.401290752957721 188.6551245112787 0 188.6551245112787 248.11049335260032 0 0 0 0 -60.726023736189745 260.56831300642079 0 260.56831300642079 209.58135629490425 0 0 0 0 -71.453406170807284 162.99815042900445 0 162.99815042900445 67.191054850816727 0 0 0 0 -149.15085018152422 252.23409442373668 0 252.23409442373668 393.26261441964016 0 0 0 0 -177.78160032587402 182.65793982387549 0 182.65793982387549 262.98220276226493 0 0 0 0 -54.819678420050877 -215.99324408810207 0 -215.99324408810207 -399.72569131640194 0 0 0 0 -697.24126293707559 -214.99118560620991 0 -214.99118560620991 398.96328947495203 0 0 0 0 293.59717527683461 105.95023614799538 0 105.95023614799538 -503.29366488519008 0 0 0 0 118.57751897393337 242.28631641200627 0 242.28631641200627 -36.066933398348283 0 0 0 0 128.20265956372714 -285.25362521404168 0 -285.25362521404168 57.777581656944676 0 0 0 0 -231.0692148317421 544.7875481923802 0 544.7875481923802 553.58615972695407 0 0 0 0 -4.7482036081119077 7.1238804102595168 0 7.1238804102595168 -36.027939889638219 0 0 0 0 7.2476838169346038 2.6628486967688332 0 2.6628486967688332 -3.2243040409349248 0 0 0 0 -286.08364933645498 -221.73285483452491 0 -221.73285483452491 -639.15353003525524 0 0 0 0 16.183305208292985 22.57877090682021 0 22.57877090682021 30.779495361618928 0 0 0 0 -63.892733867338393 233.12458428331593 0 233.12458428331593 -28.167789821105544 0 0 0 0 10.178212604509099 2.9607954727107426 0 2.9607954727107426 -21.882993742467079 0 0 0 0 8.4274108659865306 9.6963283318691538 0 9.6963283318691538 -7.1445764607924502 0 0 0 0 -2.975632913170557 1.3897216684781597 0 1.3897216684781597 -17.629534197825706 0 0 0 0 1.8837266837244897 3.9065467162326968 0 3.9065467162326968 -17.908099884333751 0 0 0 0 38.340506111067043 27.805078553421481 0 27.805078553421481 -13.975006570050027 0 0 0 0 16.924334399258441 12.287434485617268 0 12.287434485617268 8.0484386507305317 0 0 0 0 21.742780195456362 15.789433256461052 0 15.789433256461052 -21.00098289030575 0 0 0 0 5.6853207910009047 3.205088646351129 0 3.205088646351129 0.85876295855486617 0 0 0 0 -35.833148571764468 38.645472951140619 0 38.645472951140619 567.86137095886806 0 0 0 0 17.718560827676811 19.707230452306248 0 19.707230452306248 -37.673696662983275 0 0 0 0 6.5561819680315239 4.4385332732199458 0 4.4385332732199458 -49.904229064462015 0 0 0 0 7.8125547025365449 -0.89344742600223981 0 -0.89344742600223981 -43.194894932588795 0 0 0 0 1.8244655442783895 1.4300752104964403 0 1.4300752104964403 0.65894822981257306 0 0 0 0 -6.1122410103680522 13.01105989028656 0 13.01105989028656 696.97884859463738 0 0 0 0 8.6640638616054275 -9.3642685191935016 0 -9.3642685191935016 607.49340827268315 0 0 0 0 -65.963788918257706 64.187410899219685 0 64.187410899219685 612.37211755544195 0 0 0 0 -29.45326676832974 71.625478177349578 0 71.625478177349578 494.04688818682189 0 0 0 0 -35.503803473733569 98.396842105456017 0 98.396842105456017 457.55169965116511 0 0 0 0 -73.511087113424992 44.503149933698296 0 44.503149933698296 801.02954583716928 0 0 0 0 -27.601762532657631 198.88724008391728 0 198.88724008391728 494.51524437323678 0 0 0 0 244.30326799937939 55.609368316414475 0 55.609368316414475 563.72452183247515 0 0 0 0 100.97694786992543 238.2152418471378 0 238.2152418471378 1471.4032592595177 0 0 0 0 -29.562198132365609 180.54244417069845 0 180.54244417069845 894.17762556308298 0 0 0 0 13.567797342009726 -4.8287853846268263 0 -4.8287853846268263 795.64516365437885 0 0 0 0 8.0652251477483787 9.6038532471403784 0 9.6038532471403784 11.985614776118808 0 0 0 0 20.479586693734518 -372.00284566122718 0 -372.00284566122718 633.75328840619477 0 0 0 0 412.7974144932632 448.93823229113696 0 448.93823229113696 -171.70710816625797 0 0 0 0 35.418236324254394 -279.97920668484585 0 -279.97920668484585 1139.8568734057917 0 0 0 0 -48.122917084217988 -89.284556818638521 0 -89.284556818638521 661.26597802477045 0 0 0 0 171.25615776985796 -103.6869851997144 0 -103.6869851997144 645.18109322484815 0 0 0 0 -50.242334610187754 -98.060524137057655 0 -98.060524137057655 1009.9107426664777 0 0 0 0 -0.028533031192545986 -87.620407189733669 0 -87.620407189733669 131.27659535555722 0 0 0 0 -46.639444373255856 -81.937391465733526 0 -81.937391465733526 152.79562192406229 0 0 0 0 -45.598743290420117 -88.845126748732582 0 -88.845126748732582 154.96477614320611 0 0 0 0 -41.359854686494174 -92.570594015065581 0 -92.570594015065581 156.11590337358939 0 0 0 0 -41.853361458697407 -77.462820088505396 0 -77.462820088505396 156.79953255872533 0 0 0 0 -73.104044488564284 -38.5163278584605 0 -38.5163278584605 120.9473051232053 0 0 0 0 -65.256176175181295 -83.7766015953448 0 -83.7766015953448 193.22076986101456 0 0 0 0 11.358173032830162 -56.218423870763218 0 -56.218423870763218 170.74837374451454 0 0 0 0 -18.321204031020798 -109.37455487265106 0 -109.37455487265106 170.41646996888448 0 0 0 0 0.064944090833196202 -79.919808400689362 0 -79.919808400689362 207.64091568192089 0 0 0 0 57.881830778027833 -45.592662239287165 0 -45.592662239287165 40.470176217786502 0 0 0 0 -117.39106451499906 8.0386814203777703 0 8.0386814203777703 84.310094604821643 0 0 0 0 -0.048319444546583296 -0.13973031851380524 0 -0.13973031851380524 0.95540167908973217 0 0 0 0 0.046798819830719589 11.406704579644908 0 11.406704579644908 -12.792418943427037 0 0 0 0 -59.869205869508505 -30.303155445828452 0 -30.303155445828452 -18.343691880902043 0 0 0 0 -58.11844457236981 -25.786340186961752 0 -25.786340186961752 -11.979799137130613 0 0 0 0 -51.615543402252115 -13.179274334295769 0 -13.179274334295769 -4.4763690384716028 0 0 0 0 -63.028012717660886 12.164034841203829 0 12.164034841203829 -16.095660017017508 0 0 0 0 -52.761490716700109 -19.436512805899838 0 -19.436512805899838 -32.408094260463258 0 0 0 0 -45.741414611231903 -15.553462724463316 0 -15.553462724463316 -4.6196313021500828 0 0 0 0 -42.062279552346297 -2.764093562043854 0 -2.764093562043854 4.3714658884855453 0 0 0 0 -47.855597877355194 -16.145790537368157 0 -16.145790537368157 52.300677064587944 0 0 0 0 -62.574815260729849 7.4958952728338772 0 7.4958952728338772 28.802163043103064 0 0 0 0 -97.497098200094683 -30.943554116762243 0 -30.943554116762243 157.3207828718223 0 0 0 0 -69.642268936413188 -0.73949626678222558 0 -0.73949626678222558 64.607357754284749 0 0 0 0 -58.209996498746648 -32.033846988982987 0 -32.033846988982987 123.42211848616716 0 0 0 0 -42.171746046364746 -20.73616625494833 0 -20.73616625494833 77.866968760004966 0 0 0 0 -39.25390703306573 -18.669428715438698 0 -18.669428715438698 56.277328524403856 0 0 0 0 -17.690494386596129 -12.723401546034438 0 -12.723401546034438 21.014541532204021 0 0 0 0 -50.401537266453929 2.2965535566381732 0 2.2965535566381732 38.810979510715697 0 0 0 0 -39.078207108843117 -14.157695317931939 0 -14.157695317931939 24.903950762134627 0 0 0 0 -39.296458241874973 5.0461126603586308 0 5.0461126603586308 12.611872682522517 0 0 0 0 -31.247486036726116 -4.9973213181729079 0 -4.9973213181729079 2.2692322034272365 0 0 0 0 -46.645709119465096 -15.996044985688059 0 -15.996044985688059 -5.827026670507621 0 0 0 0 -49.830984291783537 0.93265646402687707 0 0.93265646402687707 1.4619744074298069 0 0 0 0 -30.467709044956564 3.1292821500537684 0 3.1292821500537684 -5.9433334235363873 0 0 0 0 -31.300095637017407 21.283743887432365 0 21.283743887432365 -13.232869942570687 0 0 0 0 -10.774105128498984 -6.2030478141544023 0 -6.2030478141544023 3.1061582187969634 0 0 0 0 -24.636296441545198 -12.376979896074772 0 -12.376979896074772 45.333045034465613 0 0 0 0 -12.836794910593653 -1.4495520291493449 0 -1.4495520291493449 -10.310449234981206 0 0 0 0 6.2411917515385085 -33.205780072508787 0 -33.205780072508787 66.308013938003569 0 0 0 0 -21.589134009442972 -7.2332972986496316 0 -7.2332972986496316 63.63820038526319 0 0 0 0 -6.7878885475897732 -31.438455493855145 0 -31.438455493855145 54.559164955222514 0 0 0 0 -12.952786908395865 -50.834860408678651 0 -50.834860408678651 90.357476346587646 0 0 0 0 -47.369576305954766 -55.865446255271308 0 -55.865446255271308 118.3264185616863 0 0 0 0 -25.624238593920211 -31.392765684511687 0 -31.392765684511687 85.586949621749227 0 0 0 0 -15.811208854768211 -62.05511715177272 0 -62.05511715177272 120.467559145618 0 0 0 0 -5.3973849245369365 -89.251230952882906 0 -89.251230952882906 141.70597370396717 0 0 0 0 -4.5092018445358235 -117.89444537340023 0 -117.89444537340023 172.2059648296854 0 0 0 0 -37.490095697883703 -86.490313162314123 0 -86.490313162314123 150.48312884476036 0 0 0 0 49.294167411668013 -80.092650685917761 0 -80.092650685917761 124.7316051168018 0 0 0 0 21.102761977634827 -58.745630288060056 0 -58.745630288060056 135.41376598131689 0 0 0 0 41.471907832037687 -34.995488984772237 0 -34.995488984772237 114.69330648522009 0 0 0 0 -10.82504968466003 -34.882941442119773 0 -34.882941442119773 115.04038931729156 0 0 0 0 15.373053283063655 -54.393386008945527 0 -54.393386008945527 92.620758403398213 0 0 0 0 -11.926517392933818 -28.226688818635012 0 -28.226688818635012 85.911653015115007 0 0 0 0 -17.463026502067919 -40.376362152237562 0 -40.376362152237562 126.19589891698706 0 0 0 0 -8.2457468820107351 -31.496372265195532 0 -31.496372265195532 133.23633207051171 0 0 0 0 8.7597602498931337 -38.870983615881414 0 -38.870983615881414 69.184531900202273 0 0 0 0 -14.945668409977358 -22.951274729763099 0 -22.951274729763099 80.4214750941901 0 0 0 0 -2.1293102097353085 -71.167516073175648 0 -71.167516073175648 142.96432941223611 0 0 0 0 -3.9852354704072468 -47.146659274989361 0 -47.146659274989361 48.975944962789072 0 0 0 0 -23.839962100967909 16.714320046987268 0 16.714320046987268 17.655782596481004 0 0 0 0 -20.734820177813958 -19.614020838827855 0 -19.614020838827855 36.002063302192255 0 0 0 0 -23.746733224735181 -40.300493676608312 0 -40.300493676608312 53.741955373014207 0 0 0 0 -8.5038787256298747 34.996976321079273 0 34.996976321079273 -29.96700338536175 0 0 0 0 85.621387274294193 -107.94582194949908 0 -107.94582194949908 33.335214082049788 0 0 0 0 -9.5154389450072685 -3.7881068058583907 0 -3.7881068058583907 4.5783598785050117 0 0 0 0 -178.52338140813617 -146.49856889985676 0 -146.49856889985676 47.494087016275444 0 0 0 0 21.565944204197649 -51.729037879151292 0 -51.729037879151292 63.070280363506754 0 0 0 0 22.120097929191616 -47.317743594077911 0 -47.317743594077911 -103.34104054453201 0 0 0 0 159.90219084385194 -231.94983856822364 0 -231.94983856822364 27.444237150572008 0 0 0 0 -819.13161028325021 -135.13530294492557 0 -135.13530294492557 557.93127385379194 0 0 0 0 -12.590637589186827 -159.08533451172843 0 -159.08533451172843 58.664820126221457 0 0 0 0 5.3818376615845898 -27.8641076147855 0 -27.8641076147855 113.22065052630046 0 0 0 0 151.16936104297656 266.12085974271031 0 266.12085974271031 46.609376765189381 0 0 0 0 0.17363760276766715 -15.60110402549207 0 -15.60110402549207 101.24524281070873 0 0 0 0 -26.764355825786424 -79.9755995721207 0 -79.9755995721207 77.703148965714718 0 0 0 0 -7.6521527195895143 -7.5306619027769983 0 -7.5306619027769983 15.978215779361847 0 0 0 0 -189.51719299375827 11.471554507679684 0 11.471554507679684 161.3399912159075 0 0 0 0 -203.10050988466173 -8.3885934948120848 0 -8.3885934948120848 96.289951819897396 0 0 0 0 -3.9563312785276459 -0.22829805884505916 0 -0.22829805884505916 38.845804974520576 0 0 0 0 6.0072894043487395 76.392587585720321 0 76.392587585720321 110.08200955636858 0 0 0 0 -187.81229589106169 -52.655057018972002 0 -52.655057018972002 71.823220061283791 0 0 0 0 -29.985455736440272 -15.994970785873463 0 -15.994970785873463 95.96357799245709 0 0 0 0 -6.8189566581054137 -2.5710691663015552 0 -2.5710691663015552 59.583434376898879 0 0 0 0 -27.738331122476666 -6.4760375090991147 0 -6.4760375090991147 37.412849161133636 0 0 0 0 -143.922170111382 58.332310138648609 0 58.332310138648609 90.765112908738956 0 0 0 0 -2.6743258001571277 -3.3897782646007215 0 -3.3897782646007215 25.657586811681796 0 0 0 0 43.081379676430515 -19.593377915101883 0 -19.593377915101883 25.015900255340966 0 0 0 0 -7.0133143272247809 9.9966936191888678 0 9.9966936191888678 8.7257752561145594 0 0 0 0 -22.276517397732505 118.32782034327101 0 118.32782034327101 155.98206240573199 0 0 0 0 142.0818819725155 -137.49515335277101 0 -137.49515335277101 135.14031108150084 0 0 0 0 -8.9673994724779789 7.0259193536874989 0 7.0259193536874989 93.126180558998726 0 0 0 0 -56.067473235864327 92.085303507221397 0 92.085303507221397 214.30657170643099 0 0 0 0 -12.476571455071849 139.18042831213825 0 139.18042831213825 177.13799938929151 0 0 0 0 13.441474812330831 -35.677045227959354 0 -35.677045227959354 28.277222857070726 0 0 0 0 30.100860245602234 -30.727045418374473 0 -30.727045418374473 61.870525133577758 0 0 0 0 258.72823769389834 -95.950276740069967 0 -95.950276740069967 155.35835159771887 0 0 0 0 25.70520731119359 -25.254610555974068 0 -25.254610555974068 64.766827201747219 0 0 0 0 38.254674965019149 -39.289997234780458 0 -39.289997234780458 73.864617035142146 0 0 0 0 35.111299283269545 -32.134966072291718 0 -32.134966072291718 81.270507894427283 0 0 0 0 38.18666853961804 -41.854813311510952 0 -41.854813311510952 65.723683217249345 0 0 0 0 -17.408909739734099 -12.073971040595097 0 -12.073971040595097 90.874613042440615 0 0 0 0 25.516117685212521 -22.210115768568357 0 -22.210115768568357 79.049970257561654 0 0 0 0 12.725063122237771 -8.8376250701694516 0 -8.8376250701694516 51.225215167040005 0 0 0 0 13.999660189834685 0.1891723320732126 0 0.1891723320732126 67.117423446790781 0 0 0 0 2.9039758999388141 -16.858295557205565 0 -16.858295557205565 56.186871248079115 0 0 0 0 -8.9847133546500118 2.503157728635415 0 2.503157728635415 49.450606724625686 0 0 0 0 -11.933607898952687 -10.700731351142167 0 -10.700731351142167 9.6204530638278811 0 0 0 0 -18.091184136587753 -4.3033600832698937 0 -4.3033600832698937 74.095742398984868 0 0 0 0 2.6380989720907007 -0.35908580082987385 0 -0.35908580082987385 -0.79010830969178869 0 0 0 0 -15.029624918682048 10.859763761588326 0 10.859763761588326 52.74290109932474 0 0 0 0 -11.253047773523576 23.033156684410642 0 23.033156684410642 52.755640036892146 0 0 0 0 27.344780837031067 18.594934327033116 0 18.594934327033116 46.103736232085794 0 0 0 0 3.7100968090853712 28.329231529103708 0 28.329231529103708 52.267256210339838 0 0 0 0 -4.1465585219641063 7.2270920902980862 0 7.2270920902980862 15.307685456808372 0 0 0 0 38.292690680954536 -79.921151777762134 0 -79.921151777762134 245.1185528151982 0 0 0 0 10.616048052812403 -41.043128717821673 0 -41.043128717821673 73.482554355592583 0 0 0 0 76.714480150892996 7.4999749078851892 0 7.4999749078851892 95.48627192134154 0 0 0 0 5.0533075198163715 -35.312214535631938 0 -35.312214535631938 175.17004682031984 0 0 0 0 -47.071661101361315 -149.76287863997277 0 -149.76287863997277 536.84628059151873 0 0 0 0 58.101540732431317 83.022807291626123 0 83.022807291626123 294.7285818871751 0 0 0 0 -59.119247355026346 -52.992975348119217 0 -52.992975348119217 401.39171792982961 0 0 0 0 -4.1162287527668013 -168.54332775307557 0 -168.54332775307557 433.73925658467124 0 0 0 0 78.377091632307383 -153.48951997387485 0 -153.48951997387485 443.76652531060972 0 0 0 0 -3.9032714663771912 -154.71681325051031 0 -154.71681325051031 510.60099551432359 0 0 0 0 48.733806898885632 -23.830974931108358 0 -23.830974931108358 484.5335314271797 0 0 0 0 -59.505902794040594 -38.741959015598695 0 -38.741959015598695 486.45936429336143 0 0 0 0 36.581579821061496 -29.937267478955619 0 -29.937267478955619 94.887732696253806 0 0 0 0 -41.060874131376295 -91.663508406058099 0 -91.663508406058099 583.57538606497837 0 0 0 0 1.2064788069951646 1.7965551938091835 0 1.7965551938091835 0.11098719291611303 0 0 0 0 72.4779329812161 1.1490454200547902 0 1.1490454200547902 118.79650876918458 0 0 0 0 44.838644051635583 -48.239625423120742 0 -48.239625423120742 93.304144149267813 0 0 0 0 13.306951746359118 -33.91791171177465 0 -33.91791171177465 96.414953231549589 0 0 0 0 -3.2711113714744897 -71.139280623596278 0 -71.139280623596278 429.25272418718669 0 0 0 0 -35.685216950214453 5.6325547430606093 0 5.6325547430606093 408.63555465024547 0 0 0 0 -95.267037094541593 14.705093384523934 0 14.705093384523934 457.11676841050576 0 0 0 0 -154.03149160643352 1.0595622979381005 0 1.0595622979381005 481.74297591540153 0 0 0 0 -123.81474316638923 -20.231972356294136 0 -20.231972356294136 425.7111751006596 0 0 0 0 -120.49203990074147 55.357224489693181 0 55.357224489693181 479.99676158328657 0 0 0 0 -39.362726976087288 55.382469509320799 0 55.382469509320799 260.92354652982249 0 0 0 0 -60.239814004773507 21.782532188106416 0 21.782532188106416 279.95422219237662 0 0 0 0 -31.125044796619477 66.138421928542812 0 66.138421928542812 259.50947378015553 0 0 0 0 -10.041635342608629 -24.872557485185098 0 -24.872557485185098 103.17306088436817 0 0 0 0 5.8441794845413781 0.10826671061769844 0 0.10826671061769844 12.984970177041475 0 0 0 0 15.789837401290553 -35.694733105760264 0 -35.694733105760264 8.6872565808927291 0 0 0 0 8.3235895002308098 -26.326354878976417 0 -26.326354878976417 99.322921802129713 0 0 0 0 8.3706795961170428 -25.676660406883457 0 -25.676660406883457 85.483619265171001 0 0 0 0 -85.18302270591704 -3.332102092441346 0 -3.332102092441346 154.50686198059702 0 0 0 0 -119.85899033527255 -69.304660504814819 0 -69.304660504814819 319.78011234803125 0 0 0 0 26.313098981465032 -62.58462353690993 0 -62.58462353690993 140.17182273279468 0 0 0 0 -31.814702917587283 -43.029222136581666 0 -43.029222136581666 181.13618494162802 0 0 0 0 -30.639382617203864 -38.144626276680356 0 -38.144626276680356 153.76229890453396 0 0 0 0 81.657974446287653 -147.05958538649429 0 -147.05958538649429 167.6223809250605 0 0 0 0 -7.5631499650834257 -41.442595886052004 0 -41.442595886052004 165.82597104438173 0 0 0 0 36.080644688246593 -6.5571076925698435 0 -6.5571076925698435 189.84758861429873 0 0 0 0 48.421787378675788 -164.89215914811939 0 -164.89215914811939 268.28123983394471 0 0 0 0 139.24158431751789 -60.800634860803257 0 -60.800634860803257 135.40241333281756 0 0 0 0 -16.759880732788133 -79.792333334029536 0 -79.792333334029536 164.29876446073831 0 0 0 0 -54.950471407490909 -105.03915201839845 0 -105.03915201839845 189.12914728006581 0 0 0 0 1.2684308889745186 -2.598281156890323 0 -2.598281156890323 2.4984402049140328 0 0 0 0 9.3556416848764741 -3.2431895498521044 0 -3.2431895498521044 44.764417107740883 0 0 0 0 9.2695804221792741 31.936944502245751 0 31.936944502245751 238.60573100346846 0 0 0 0 3.5295351532534722 -1.6092013602755202 0 -1.6092013602755202 -1.7557022683356536 0 0 0 0 -54.899440440340072 -28.005706397991162 0 -28.005706397991162 28.914594216024852 0 0 0 0 -10.719162072447745 -36.902614205988357 0 -36.902614205988357 29.102649261330953 0 0 0 0 9.8291469219464283 -17.444529633652536 0 -17.444529633652536 20.139755231034428 0 0 0 0 12.354229447412029 -22.973009668137934 0 -22.973009668137934 21.81220881033309 0 0 0 0 10.739414867656251 -20.083643589608982 0 -20.083643589608982 24.740810616058297 0 0 0 0 11.65130115272704 -15.502414080955219 0 -15.502414080955219 5.2175874532790942 0 0 0 0 10.529552391108155 -15.654608766519232 0 -15.654608766519232 38.636070113047026 0 0 0 0 32.887573512047823 -55.38266174383898 0 -55.38266174383898 97.361019803152885 0 0 0 0 54.274176845816328 149.04704031685833 0 149.04704031685833 -335.28655578532198 0 0 0 0 14.249833753965557 -17.654517887084268 0 -17.654517887084268 4.3322327378685372 0 0 0 0 -46.624804916601533 382.36599342690897 0 382.36599342690897 232.43721688845835 0 0 0 0 -205.4696439174968 150.94381176635943 0 150.94381176635943 665.85874595446512 0 0 0 0 -177.74786581196713 163.68867128370766 0 163.68867128370766 297.17298365442912 0 0 0 0 -248.5134299240533 25.149905438725 0 25.149905438725 568.51139090035576 0 0 0 0 -195.77953968222846 -26.100211448680056 0 -26.100211448680056 617.96463480547391 0 0 0 0 -250.62136030399256 27.905019604326753 0 27.905019604326753 1764.6944337564346 0 0 0 0 213.32587882193639 -561.39066250466567 0 -561.39066250466567 579.23808617987379 0 0 0 0 -0.052081698211743799 -0.65835399791610172 0 -0.65835399791610172 21.106775032383439 0 0 0 0 -17.744559280312501 133.96430244545263 0 133.96430244545263 45.193577576399548 0 0 0 0 490.73707219030439 979.82455634682265 0 979.82455634682265 547.0619502467016 0 0 0 0 558.50542904712711 259.89919681069296 0 259.89919681069296 -1036.6457833117747 0 0 0 0 -680.59074916401141 -861.39757971846484 0 -861.39757971846484 581.89521805440017 0 0 0 0 -32.878331137077168 -42.997603465031716 0 -42.997603465031716 91.025246985562262 0 0 0 0 -2.3370554368730305 -4.5642214659604861 0 -4.5642214659604861 16.65769356917346 0 0 0 0 8.7013363761831535 -27.245664367708258 0 -27.245664367708258 58.588830441179965 0 0 0 0 -29.886757675622533 -40.304714064406653 0 -40.304714064406653 40.878329509112518 0 0 0 0 789.87364993743086 1619.3914800440471 0 1619.3914800440471 549.33078017394814 0 0 0 0 1.6807103875430984 -12.887309157728481 0 -12.887309157728481 45.638421503554412 0 0 0 0 1521.2427121284722 -1643.2792874013503 0 -1643.2792874013503 652.71427125591435 0 0 0 0 -28.532555955214619 -37.928996581133106 0 -37.928996581133106 32.467909885759582 0 0 0 0 -0.022561916882416051 -43.220389325651922 0 -43.220389325651922 29.16410529971472 0 0 0 0 -16.274919595339902 -30.419618927596275 0 -30.419618927596275 26.584282160096336 0 0 0 0 -18.088469098959138 -45.822767485675286 0 -45.822767485675286 38.394033996286453 0 0 0 0 -20.904882354372852 -50.062793215787678 0 -50.062793215787678 45.851145930733765 0 0 0 0 -0.0089348596860618912 -67.493570532376907 0 -67.493570532376907 53.779158738892875 0 0 0 0 -17.7676030712651 -53.904275802844495 0 -53.904275802844495 46.813404085280126 0 0 0 0 -29.119395605899285 -78.303969953911292 0 -78.303969953911292 37.899412422149908 0 0 0 0 -24.287449730833032 -67.338452807292924 0 -67.338452807292924 -17.735304507797991 0 0 0 0 -40.880679222382184 -50.792458976357011 0 -50.792458976357011 64.595607596980699 0 0 0 0 -24.692507245684538 -54.941072743669793 0 -54.941072743669793 65.304805094354379 0 0 0 0 -82.698907984915209 -45.64374578893694 0 -45.64374578893694 139.60504048896837 0 0 0 0 -10.535302157509721 -68.622953594520368 0 -68.622953594520368 99.263164680131013 0 0 0 0 -30.047477379288953 -51.231398140207602 0 -51.231398140207602 91.087535368991666 0 0 0 0 -12.675911104200077 -11.711817070889083 0 -11.711817070889083 116.48994863798725 0 0 0 0 -15.259534273203769 -4.6509950556719559 0 -4.6509950556719559 104.30141994598671 0 0 0 0 -0.0054973109169846098 -8.853308510959323 0 -8.853308510959323 97.252121991856256 0 0 0 0 -5.8200314085043336 -3.2471992357011743 0 -3.2471992357011743 20.009089510688128 0 0 0 0 -10.29904213533073 -2.2122187253544254 0 -2.2122187253544254 88.434903360552994 0 0 0 0 -1029.0890984106854 -652.29438155241587 0 -652.29438155241587 418.74065281494404 0 0 0 0 -6.1669027294670631 -17.794404529836463 0 -17.794404529836463 78.934110338837741 0 0 0 0 251.49533974273891 -511.70626197909587 0 -511.70626197909587 -1362.2352449314089 0 0 0 0 5.4447225071641299 -1267.2261736621513 0 -1267.2261736621513 352.70854007077287 0 0 0 0 -0.20409034047003363 -1.3766525084143808 0 -1.3766525084143808 16.974973817565854 0 0 0 0 1242.5875122979407 1854.7703261501738 0 1854.7703261501738 1039.3135119271101 0 0 0 0 -304.724918555773 515.2153035332376 0 515.2153035332376 2616.5897645692748 0 0 0 0 -0.037603937400689777 -18.792962898533006 0 -18.792962898533006 14.817365898110438 0 0 0 0 -28.083902116243451 -23.130731146590506 0 -23.130731146590506 22.353528044710401 0 0 0 0 -41.570417214962617 661.28550286345489 0 661.28550286345489 497.15226771528251 0 0 0 0 615.37542058120903 181.08772881656478 0 181.08772881656478 519.27975514640275 0 0 0 0 -905.32894110058623 555.28409395126073 0 555.28409395126073 987.42829584752326 0 0 0 0 0.42192874931085456 -7.5313727553959922 0 -7.5313727553959922 56.514147965892732 0 0 0 0 -44.149129148550173 -466.5107471723004 0 -466.5107471723004 -119.39988516495214 0 0 0 0 -181.02618019090664 -39.455072714435119 0 -39.455072714435119 145.81370572083688 0 0 0 0 40.894729868738978 -46.148717908505205 0 -46.148717908505205 45.463445632405637 0 0 0 0 40.509329922824186 -223.42863209257371 0 -223.42863209257371 405.67735396545322 0 0 0 0 -38.163923998789869 -14.934805787972437 0 -14.934805787972437 171.18043837371079 0 0 0 0 -29.119289736866001 -26.549786564529398 0 -26.549786564529398 154.47456278582104 0 0 0 0 -12.527010927631636 11.836977241757268 0 11.836977241757268 45.82172714339265 0 0 0 0 -90.543510589752941 8.9153990960094234 0 8.9153990960094234 102.3122158408878 0 0 0 0 -28.927584995964025 21.622546366877941 0 21.622546366877941 73.720305865972477 0 0 0 0 -24.353001976349788 -19.845636488981654 0 -19.845636488981654 37.846059341100045 0 0 0 0 -44.177104286289875 -6.0122135004699544 0 -6.0122135004699544 19.532793152229125 0 0 0 0 -85.429525131003174 -36.929377903710702 0 -36.929377903710702 103.38160567450768 0 0 0 0 -25.705712301192762 -18.219538758319686 0 -18.219538758319686 65.189301573685952 0 0 0 0 -32.961247375061774 -5.4887939163297119 0 -5.4887939163297119 -2.3541396188031101 0 0 0 0 -31.941154221230875 -19.632017078769422 0 -19.632017078769422 71.221551688402542 0 0 0 0 -22.257776108483931 -5.4973724132116075 0 -5.4973724132116075 0.23456315765620506 0 0 0 0 -32.978044277318759 -15.410855150206771 0 -15.410855150206771 62.687260916369269 0 0 0 0 -14.931343790868709 -21.272612082102569 0 -21.272612082102569 27.042243317325301 0 0 0 0 0.18597508816083064 -1.5627584035501059 0 -1.5627584035501059 44.279847345773305 0 0 0 0 -42.632133788443298 17.394111718524073 0 17.394111718524073 185.53432848078228 0 0 0 0 -27.87121163141137 -57.391017445153921 0 -57.391017445153921 227.78533105792303 0 0 0 0 -81.96998209227786 9.3082241517149669 0 9.3082241517149669 397.68267838695465 0 0 0 0 -83.264725746828731 1.0929686718031917 0 1.0929686718031917 415.17663830491074 0 0 0 0 -19.639139962319859 47.666304069876787 0 47.666304069876787 201.38424156880865 0 0 0 0 -37.762718743467758 83.11908522779413 0 83.11908522779413 453.74804151996796 0 0 0 0 -27.479810175408602 -37.702588696331077 0 -37.702588696331077 443.56948226456007 0 0 0 0 -29.572025337472496 -95.719691212776524 0 -95.719691212776524 497.9483495347813 0 0 0 0 -62.277081058135082 -90.130584407888819 0 -90.130584407888819 534.78492828764502 0 0 0 0 -5.9417759391394611 200.80225590119517 0 200.80225590119517 572.79630318363343 0 0 0 0 12.086040584075818 68.885812586804605 0 68.885812586804605 140.93962412304973 0 0 0 0 -33.676369567012443 12.706348246625566 0 12.706348246625566 52.870662844667095 0 0 0 0 9.8742973153471212 -4.6102102074073628 0 -4.6102102074073628 -13.181698507789406 0 0 0 0 -32.816877864096568 -27.441946186161658 0 -27.441946186161658 113.14159655697586 0 0 0 0 -32.524887493913411 15.985752341781335 0 15.985752341781335 191.83359093463514 0 0 0 0 1.6139289270381596 -34.712923367831536 0 -34.712923367831536 33.644941476741224 0 0 0 0 -27.054049364123756 -17.852845500066906 0 -17.852845500066906 43.782266928647005 0 0 0 0 6.4304792758682652 -8.4813871951391775 0 -8.4813871951391775 -7.6029456474643666 0 0 0 0 -12.778122121660203 -5.4359392078003737 0 -5.4359392078003737 -0.34621101386775832 0 0 0 0 -16.729445778608806 -8.099581666643644 0 -8.099581666643644 13.723599257631577 0 0 0 0 27.944094933427664 -22.220121423280943 0 -22.220121423280943 1.9370392573036952 0 0 0 0 -4.3024741525400714 -37.252868746141758 0 -37.252868746141758 44.95838946247386 0 0 0 0 1.4262854939597673 -57.898027198909404 0 -57.898027198909404 93.927097119943937 0 0 0 0 -6.8298785223730647 -37.762164713240054 0 -37.762164713240054 94.246149119083043 0 0 0 0 -22.146656450564649 -44.819247441693733 0 -44.819247441693733 121.45449295430444 0 0 0 0 71.262717659016516 -82.4616188433356 0 -82.4616188433356 74.705621428664017 0 0 0 0 -5.5955804509561631 -52.860338217999015 0 -52.860338217999015 172.20813020394417 0 0 0 0 11.406524082438409 -15.853431290684966 0 -15.853431290684966 142.28830687491427 0 0 0 0 -10.310520059307009 -15.847336587074096 0 -15.847336587074096 169.70559755366412 0 0 0 0 24.197422042956646 19.919994935658906 0 19.919994935658906 112.78842070337851 0 0 0 0 13.111056832094278 28.238844795996556 0 28.238844795996556 141.10576810383645 0 0 0 0 5.0770624987466135 12.571956442501687 0 12.571956442501687 118.45651562124112 0 0 0 0 6.3223510938157688 9.4008103600644972 0 9.4008103600644972 102.28590656497545 0 0 0 0 -14.247612805699021 -5.5536660685029346 0 -5.5536660685029346 132.0183695848682 0 0 0 0 -24.706063725829523 -19.432805413460301 0 -19.432805413460301 133.78680058813916 0 0 0 0 -9.8539365730564654 -18.203996897992511 0 -18.203996897992511 120.79986223006563 0 0 0 0 -25.698920081123134 -30.477467362004518 0 -30.477467362004518 111.74977444933029 0 0 0 0 -38.886622205908679 -32.92224912893289 0 -32.92224912893289 117.02668344352423 0 0 0 0 -15.185595170777859 -18.329766553072204 0 -18.329766553072204 106.48267218410911 0 0 0 0 -64.501839157604991 -35.23539699209141 0 -35.23539699209141 117.31706717282941 0 0 0 0 -41.976377311228362 -27.97169076407954 0 -27.97169076407954 114.10813746695931 0 0 0 0 -51.188775366081927 -36.895492056715739 0 -36.895492056715739 114.42702993779676 0 0 0 0 -41.337852896745289 -35.422073768306291 0 -35.422073768306291 110.63716474633839 0 0 0 0 -50.439162202854277 -25.813246689351217 0 -25.813246689351217 100.50377346080495 0 0 0 0 -22.957439492832805 -36.182004461621545 0 -36.182004461621545 92.661456794667174 0 0 0 0 -40.468293669557625 -30.039813946044887 0 -30.039813946044887 115.83995143408538 0 0 0 0 -31.903153453946857 -35.959501694072969 0 -35.959501694072969 92.692205607096184 0 0 0 0 -30.396953290078727 -31.121338331628067 0 -31.121338331628067 67.963001213254756 0 0 0 0 -40.774274701174591 -25.9020399739602 0 -25.9020399739602 100.50458726569923 0 0 0 0 -41.285563289713082 -0.041478431277937489 0 -0.041478431277937489 108.47805254896957 0 0 0 0 -45.147621732165135 -11.577414353349013 0 -11.577414353349013 74.501787443128705 0 0 0 0 -33.133495600158312 26.643846296115953 0 26.643846296115953 43.433955854910892 0 0 0 0 -93.691856754584251 2.125614804514953 0 2.125614804514953 224.2551877622609 0 0 0 0 -93.324655166465618 2.3609273857200606 0 2.3609273857200606 167.64544297980319 0 0 0 0 -55.409236382426116 -21.92125227269571 0 -21.92125227269571 125.07573448801122 0 0 0 0 -73.468206636036484 -4.2202474046862335 0 -4.2202474046862335 107.99889658141183 0 0 0 0 -68.01812331059682 -31.728574860819208 0 -31.728574860819208 123.6039204730132 0 0 0 0 -72.927073773963002 -36.170723777118837 0 -36.170723777118837 121.05624776698824 0 0 0 0 -71.740948289310836 -36.369523143548577 0 -36.369523143548577 120.89695933219627 0 0 0 0 -62.667398094209148 -34.663846940984513 0 -34.663846940984513 103.64139155266457 0 0 0 0 -68.256034568019459 -27.27429699604545 0 -27.27429699604545 92.514154584612697 0 0 0 0 -56.669800571360611 -21.252039106781012 0 -21.252039106781012 94.404904747401815 0 0 0 0 -57.680804739677114 -48.122556063040975 0 -48.122556063040975 126.68365577036457 0 0 0 0 -50.744760784993105 -37.33006868677694 0 -37.33006868677694 73.121221676352434 0 0 0 0 -74.809972514438414 -41.353710028663045 0 -41.353710028663045 147.82032016896119 0 0 0 0 -74.100930228819379 -44.394303262386529 0 -44.394303262386529 130.90048220366589 0 0 0 0 -74.781941596460911 -62.786314598204626 0 -62.786314598204626 206.08219915286463 0 0 0 0 -61.655579954060158 -81.902447041822597 0 -81.902447041822597 174.68875541766465 0 0 0 0 -64.24315811849192 -71.307242178278102 0 -71.307242178278102 136.70933083152522 0 0 0 0 -10.752376755587647 -101.09909252660873 0 -101.09909252660873 102.93660771028954 0 0 0 0 -13.689564232838165 -72.807884149420715 0 -72.807884149420715 99.666079339178395 0 0 0 0 -22.96592463768684 -61.786601304673241 0 -61.786601304673241 30.163888982788194 0 0 0 0 -38.015417947657625 -67.51130166031362 0 -67.51130166031362 135.7784810994126 0 0 0 0 -37.413977626218184 -13.544901164437761 0 -13.544901164437761 38.006753497829777 0 0 0 0 -33.027084017126981 -27.111675629173988 0 -27.111675629173988 78.998220210531144 0 0 0 0 -19.035645048286824 -3.8955942280954332 0 -3.8955942280954332 16.559836253902176 0 0 0 0 -72.073279499240925 22.203176787275879 0 22.203176787275879 45.859942425682675 0 0 0 0 -51.138425145577457 38.619458749541081 0 38.619458749541081 28.487714703776874 0 0 0 0 -46.521526408991122 23.250038090336602 0 23.250038090336602 75.219851269328501 0 0 0 0 -68.647647801247786 3.2563127892499324 0 3.2563127892499324 58.163485124270665 0 0 0 0 -4.2772686227882533 7.210688175619012 0 7.210688175619012 62.0493615066286 0 0 0 0 -135.67745956110048 6.4493691251336713 0 6.4493691251336713 60.7014644650626 0 0 0 0 106.11778156292166 -2.12630878094933 0 -2.12630878094933 298.28356817504391 0 0 0 0 3.085878490060292 2.1409244661507927 0 2.1409244661507927 19.410541111298585 0 0 0 0 -12.881863692979771 12.498869191447739 0 12.498869191447739 90.942073021913529 0 0 0 0 -116.22264231033114 58.546447498585621 0 58.546447498585621 20.522244806750678 0 0 0 0 -42.14614900593233 47.329293732174847 0 47.329293732174847 -70.070906602908508 0 0 0 0 -0.85767376013524466 -0.16501063224995249 0 -0.16501063224995249 6.3579385977301399 0 0 0 0 130.90085435028368 66.794906146489666 0 66.794906146489666 -368.30728367564734 0 0 0 0 0.71228922367390624 -127.88609971699771 0 -127.88609971699771 115.20407086254272 0 0 0 0 -0.040145841045710902 2.8374678439322181 0 2.8374678439322181 65.059211980871623 0 0 0 0 11.702305077485562 -74.953467799321515 0 -74.953467799321515 -51.717092663326184 0 0 0 0 -7.1600149230916692 3.509014788796776 0 3.509014788796776 68.21327836276032 0 0 0 0 21.392044706890374 24.782917560951319 0 24.782917560951319 906.53831442334922 0 0 0 0 -0.00092748967812335921 -4.5857014631515849 0 -4.5857014631515849 76.286399221935426 0 0 0 0 -4.7952818711731355 2.8910695920504423 0 2.8910695920504423 78.80415649179605 0 0 0 0 -4.5708169188847023 -165.18630115784617 0 -165.18630115784617 195.22371599721373 0 0 0 0 -46.893036714055143 -188.82942539256692 0 -188.82942539256692 354.09449421302998 0 0 0 0 -140.91772494722682 79.705075611862412 0 79.705075611862412 120.70374594286841 0 0 0 0 56.351220592974641 707.58898015620071 0 707.58898015620071 94.993745344792842 0 0 0 0 -169.27026195859798 90.074901661922922 0 90.074901661922922 721.56643298841664 0 0 0 0 -127.11304713368463 -114.54298711780939 0 -114.54298711780939 -29.661046155233635 0 0 0 0 45.895718811990264 -0.48679808698943816 0 -0.48679808698943816 -367.51507579156896 0 0 0 0 -6.1306436278773617 71.177583620366931 0 71.177583620366931 116.64846454219332 0 0 0 0 -5.7429926145649999 1.9426527718169382 0 1.9426527718169382 78.754378434328828 0 0 0 0 -32.904460516561812 -63.356143790631904 0 -63.356143790631904 41.130584928381722 0 0 0 0 -19.536562577080574 -29.244369692136928 0 -29.244369692136928 32.591089150185354 0 0 0 0 -30.094838767265173 -39.762287665318581 0 -39.762287665318581 70.173534109359025 0 0 0 0 -28.786951129792214 -78.735768979579007 0 -78.735768979579007 88.230776407202939 0 0 0 0 -5.0208740351863526 -29.423310724036128 0 -29.423310724036128 -26.879754686524393 0 0 0 0 17.91132294117142 -13.511916120605747 0 -13.511916120605747 48.396970983500069 0 0 0 0 -69.965462807479071 14.095969971127488 0 14.095969971127488 92.687559337147832 0 0 0 0 -16.493886117820637 -23.5075764420708 0 -23.5075764420708 37.95124407696062 0 0 0 0 -15.978484149186105 -29.600131256079933 0 -29.600131256079933 15.589722042121281 0 0 0 0 -12.142082572634536 -11.37003232241841 0 -11.37003232241841 34.569745761255945 0 0 0 0 -17.593115267665532 -31.160421423042038 0 -31.160421423042038 54.252112630282284 0 0 0 0 -16.398975429811799 6.7781313306659285 0 6.7781313306659285 88.582379152678186 0 0 0 0 -65.103280778193493 -7.0676016717188759 0 -7.0676016717188759 127.81438131500704 0 0 0 0 -20.859920815211908 -14.92230939665059 0 -14.92230939665059 15.320933449731118 0 0 0 0 -14.415787818126546 -15.613889481232036 0 -15.613889481232036 134.9917981807306 0 0 0 0 -14.307352859982318 -15.871816286579261 0 -15.871816286579261 -2.0107544782044631 0 0 0 0 -34.754365607999716 -20.337263725516095 0 -20.337263725516095 99.379702840483105 0 0 0 0 -19.434817461242687 -16.896058124588308 0 -16.896058124588308 150.41424210539117 0 0 0 0 6.8063671530360352 -15.545577563156257 0 -15.545577563156257 34.304954203507805 0 0 0 0 -37.237468809667803 2.8654708521326029 0 2.8654708521326029 29.537471879324585 0 0 0 0 -22.409517737213719 -36.828510880386602 0 -36.828510880386602 19.45705047251613 0 0 0 0 -14.82986551220165 11.273237281214278 0 11.273237281214278 36.891198739627725 0 0 0 0 -32.105331808512396 -5.6317620257026135 0 -5.6317620257026135 39.345180123015055 0 0 0 0 -79.033769797271816 38.218875067148474 0 38.218875067148474 72.260266601282638 0 0 0 0 -102.85159281285451 48.826106448250357 0 48.826106448250357 68.727381836331915 0 0 0 0 -75.362303683625214 4.2056238807999762 0 4.2056238807999762 76.719710145436693 0 0 0 0 28.194262928716853 29.124311485924409 0 29.124311485924409 55.709544854347769 0 0 0 0 -3.5434668156012776 -5.7721144057177298 0 -5.7721144057177298 45.637300884169235 0 0 0 0 -13.515437703732539 2.425679039601107 0 2.425679039601107 23.156399574805477 0 0 0 0 3.3532273683928153 7.4197955662376245 0 7.4197955662376245 17.729544292178915 0 0 0 0 11.241866557083995 56.056288712519745 0 56.056288712519745 81.366348806492169 0 0 0 0 29.320349026174881 7.3827943854848854 0 7.3827943854848854 68.212378767362679 0 0 0 0 19.625579685684897 48.898493936303566 0 48.898493936303566 52.384044775855727 0 0 0 0 29.809564075411799 32.360619814735401 0 32.360619814735401 10.538632424024399 0 0 0 0 19.255066460078524 19.743513398119831 0 19.743513398119831 13.41548242373392 0 0 0 0 18.567216730121192 29.615837267810576 0 29.615837267810576 38.005904621377368 0 0 0 0 -1.2487740056614598 6.4009361242073908 0 6.4009361242073908 14.664779940067916 0 0 0 0 13.359541993599123 32.224899206034024 0 32.224899206034024 8.4144679881283082 0 0 0 0 -26.951051159645431 328.56083975365618 0 328.56083975365618 222.70268443325767 0 0 0 0 -115.20240598470991 40.696359232868417 0 40.696359232868417 64.59565353825019 0 0 0 0 -139.58478128661045 -3.4244158223737031 0 -3.4244158223737031 46.954722404305357 0 0 0 0 12.007267092885741 13.017236882253201 0 13.017236882253201 -16.240878372685984 0 0 0 0 20.920648680583326 25.275425020692637 0 25.275425020692637 -1.8420262389117852 0 0 0 0 -119.17141456299578 -18.677811212575762 0 -18.677811212575762 0.076169604784809053 0 0 0 0 -57.693460808164673 32.915668225985428 0 32.915668225985428 -88.662630299542798 0 0 0 0 -57.175477482076531 81.396547227181145 0 81.396547227181145 25.203531973616919 0 0 0 0 -69.743231188960635 14.467894165798498 0 14.467894165798498 80.29596034536371 0 0 0 0 -92.692971851072798 -5.3821220308163902 0 -5.3821220308163902 63.130405324136518 0 0 0 0 -94.062786491787847 17.296578819383285 0 17.296578819383285 32.31419277752866 0 0 0 0 -130.96421862189527 19.541787493828451 0 19.541787493828451 74.30715812354174 0 0 0 0 -88.61357822586433 -1.2120264401819441 0 -1.2120264401819441 75.321716840837325 0 0 0 0 -28.015650324840863 -20.425872726995294 0 -20.425872726995294 81.158434048673371 0 0 0 0 -55.484381517357178 -34.736107916112815 0 -34.736107916112815 95.596745847913553 0 0 0 0 -13.957260266117373 -83.416056190621021 0 -83.416056190621021 125.07653193030274 0 0 0 0 -19.354675824655715 -49.04438139883132 0 -49.04438139883132 114.31428931246046 0 0 0 0 -17.603952085530182 -69.79528396949172 0 -69.79528396949172 74.207394928191206 0 0 0 0 -55.947249966095114 -33.162935075932182 0 -33.162935075932182 109.93533162117819 0 0 0 0 -36.238924303361273 -56.74984582986508 0 -56.74984582986508 137.73368969422881 0 0 0 0 -63.307486705198244 -7.6226138356869342 0 -7.6226138356869342 138.83092079588937 0 0 0 0 -46.58030922233047 -40.488638362301572 0 -40.488638362301572 201.26080874822219 0 0 0 0 -103.55082484447303 33.907915910123847 0 33.907915910123847 206.44796703360043 0 0 0 0 -59.533046667749659 -8.2522618997572863 0 -8.2522618997572863 130.15640451904619 0 0 0 0 -60.598723893615897 77.735321163134358 0 77.735321163134358 114.09371792926686 0 0 0 0 -70.820149408282305 69.917668990237871 0 69.917668990237871 109.10779980994266 0 0 0 0 -129.87344193150034 109.4770960203191 0 109.4770960203191 323.03572988553788 0 0 0 0 -128.74669509841988 121.7035898599861 0 121.7035898599861 174.20930956341908 0 0 0 0 -73.717917001125898 56.258765646271058 0 56.258765646271058 208.06743686314439 0 0 0 0 -140.8476337847278 31.000702873981936 0 31.000702873981936 439.94687220320338 0 0 0 0 -130.04513756046799 31.048284834600054 0 31.048284834600054 246.21710978729243 0 0 0 0 6.3409592760071973 -138.43594277270313 0 -138.43594277270313 247.47759306438093 0 0 0 0 -277.27167661752242 -123.52442057939516 0 -123.52442057939516 799.60785529902205 0 0 0 0 -247.59030234962484 -156.55415002984228 0 -156.55415002984228 268.72334563373443 0 0 0 0 -246.59672733127809 127.14190523777506 0 127.14190523777506 355.51963200409227 0 0 0 0 -234.87591743287703 237.0670229899697 0 237.0670229899697 790.59951427386841 0 0 0 0 558.57258552375879 -601.85232327106496 0 -601.85232327106496 -96.285419816602371 0 0 0 0 -122.1652815790701 669.61006246076431 0 669.61006246076431 1200.9429533081711 0 0 0 0 -526.45296003916701 -192.04338208079571 0 -192.04338208079571 1425.899433900373 0 0 0 0 -511.58573891103151 -449.48464703040372 0 -449.48464703040372 412.32748244862887 0 0 0 0 -616.40756705432796 -192.81646339771396 0 -192.81646339771396 210.48655431697262 0 0 0 0 97.565012437235964 -241.18285912951251 0 -241.18285912951251 75.461426497349748 0 0 0 0 152.85477496268868 -242.22106792550767 0 -242.22106792550767 137.99757488110845 0 0 0 0 0.58044741506627595 -1.2700068517237924 0 -1.2700068517237924 -7.2283950344221353 0 0 0 0 -529.08364874359359 23.246661641536775 0 23.246661641536775 277.86896712938324 0 0 0 0 102.79402095937166 -79.853986690199235 0 -79.853986690199235 88.758473666457576 0 0 0 0 -56.958500460146752 -59.077892931025417 0 -59.077892931025417 167.97977962229925 0 0 0 0 19.412978798117365 -107.04645155866456 0 -107.04645155866456 180.8276775823615 0 0 0 0 -99.996385526723316 -251.69400684024731 0 -251.69400684024731 152.4891710883312 0 0 0 0 -21.149569213599989 -49.838606537239684 0 -49.838606537239684 670.78140697930939 0 0 0 0 6.5981324536519423 -91.139543340024829 0 -91.139543340024829 728.43708369074739 0 0 0 0 -101.59885994992328 194.78708735951659 0 194.78708735951659 823.84801696581417 0 0 0 0 -96.45228960145505 -74.624578806840873 0 -74.624578806840873 1398.5484251495727 0 0 0 0 341.65941223510072 446.95614724391635 0 446.95614724391635 995.43524054285081 0 0 0 0 864.47397436914935 150.2091521835373 0 150.2091521835373 33.357959640299669 0 0 0 0 350.22652659376263 -33.501979805132578 0 -33.501979805132578 -83.321360796209774 0 0 0 0 67.686400287630022 -194.32902965512767 0 -194.32902965512767 35.688601407639055 0 0 0 0 112.07289286270588 78.765207591699436 0 78.765207591699436 168.91601369408079 0 0 0 0 120.5040392177516 -21.21538844571478 0 -21.21538844571478 170.72454778569227 0 0 0 0 -326.56254827039493 -133.72209967633535 0 -133.72209967633535 363.01700617218739 0 0 0 0 -0.13660236480815527 0.43205977590058353 0 0.43205977590058353 0.73329537777806308 0 0 0 0 143.31534635628759 75.02353313023923 0 75.02353313023923 -100.29475387666753 0 0 0 0 -145.6050435711868 105.18921667305403 0 105.18921667305403 -48.022650409762718 0 0 0 0 -1.9424109156680718 -1.1128780446595314 0 -1.1128780446595314 -0.28253355330099339 0 0 0 0 91.394988069611827 32.991137168079149 0 32.991137168079149 -134.38579704154836 0 0 0 0 22.576150468406013 1.0225244260836917 0 1.0225244260836917 -86.712957068026299 0 0 0 0 -26.103836609357586 -20.419731979294738 0 -20.419731979294738 185.95733274640224 0 0 0 0 -36.019642740612653 56.107907936013362 0 56.107907936013362 92.422358307841932 0 0 0 0 -2.0438352886977911 -1.1364938925728838 0 -1.1364938925728838 0.67664026992275694 0 0 0 0 64.952389212311573 19.375897892954526 0 19.375897892954526 -32.723153111669262 0 0 0 0 -5.1789509617946425 -6.552805657033673 0 -6.552805657033673 -0.77418807016607927 0 0 0 0 12.326405661130593 -20.351317777691293 0 -20.351317777691293 33.060875065304572 0 0 0 0 -0.0076509226088123938 -2.2899472894373218 0 -2.2899472894373218 1.8823151222703984 0 0 0 0 13.172781020787625 12.229158251830086 0 12.229158251830086 -126.39994829945499 0 0 0 0 9.3175880233407042 -73.3279062500078 0 -73.3279062500078 77.562456449464662 0 0 0 0 -4.3994768438852336 -15.401197168210274 0 -15.401197168210274 -5.2618854202332841 0 0 0 0 37.67698264223236 -53.035747928646742 0 -53.035747928646742 86.432234551990405 0 0 0 0 -179.06577509429462 -52.92064396778369 0 -52.92064396778369 9.5857495731615927 0 0 0 0 -128.676508964194 -147.52028919479199 0 -147.52028919479199 39.236939068832726 0 0 0 0 75.013746980249607 -111.08846719037138 0 -111.08846719037138 -68.803514017126872 0 0 0 0 -49.436142343874963 -65.183233376454154 0 -65.183233376454154 -73.919000954054354 0 0 0 0 -5.479927557578371 -7.8165686099275291 0 -7.8165686099275291 1.5941571059891175 0 0 0 0 -1.9802959527169151 60.750694670292432 0 60.750694670292432 7.6670010584421107 0 0 0 0 -15.254088913901796 19.101034624909516 0 19.101034624909516 -26.049879337166203 0 0 0 0 -65.117813413899057 18.685294161748971 0 18.685294161748971 87.767647682703682 0 0 0 0 -77.911998573555138 -13.967866574021173 0 -13.967866574021173 31.388770265308267 0 0 0 0 -21.486486682848408 -16.346261714010325 0 -16.346261714010325 29.013080916134641 0 0 0 0 3.8520149022812902 -20.387733578263919 0 -20.387733578263919 9.3350508883521499 0 0 0 0 -9.9729540766165883 -19.879167733859504 0 -19.879167733859504 35.933954784210073 0 0 0 0 -10.666591626199079 -19.143821760430001 0 -19.143821760430001 37.023580249990118 0 0 0 0 -11.368421035753272 -16.980455805489328 0 -16.980455805489328 34.59660746800364 0 0 0 0 -9.9677039664566109 -19.657605466127279 0 -19.657605466127279 34.778435269968213 0 0 0 0 39.332142608487629 -17.866709835994698 0 -17.866709835994698 45.265123947676329 0 0 0 0 -0.18669296537744628 -11.683889116408523 0 -11.683889116408523 36.006306879362569 0 0 0 0 -3.3020541177264788 -13.446671129732991 0 -13.446671129732991 23.760140023664746 0 0 0 0 -33.463482583896621 46.518110184062607 0 46.518110184062607 68.789836432348238 0 0 0 0 -5.8688458226996767 -0.45624504458173476 0 -0.45624504458173476 62.371793073977443 0 0 0 0 -53.851872034758344 -20.810788702932769 0 -20.810788702932769 89.969402254762826 0 0 0 0 -11.647334853439361 9.6149506855217624 0 9.6149506855217624 50.456666746671544 0 0 0 0 -5.7373669120547319 0.86018652012445784 0 0.86018652012445784 14.032220253084404 0 0 0 0 -75.963775932752469 -8.4799938318355998 0 -8.4799938318355998 151.19922955389484 0 0 0 0 20.804344072964341 10.178365369894891 0 10.178365369894891 75.286638328201661 0 0 0 0 24.513622761216538 44.483465313736815 0 44.483465313736815 -314.2578053563775 0 0 0 0 24.350986082361715 -87.601712218095599 0 -87.601712218095599 164.59016773593612 0 0 0 0 3.3107333266566776 2.2779456100598168 0 2.2779456100598168 0.46690923724797528 0 0 0 0 -1.1337181768874967 2.2771579560505302 0 2.2771579560505302 14.881588892225849 0 0 0 0 -43.179178141623652 -11.186983830077224 0 -11.186983830077224 115.79386230723321 0 0 0 0 638.65344661358688 784.64323689219782 0 784.64323689219782 -405.40461664757458 0 0 0 0 -14.675543302051892 18.711473881050551 0 18.711473881050551 60.026628551408066 0 0 0 0 -103.78315875369364 -105.505459362088 0 -105.505459362088 95.144332148309331 0 0 0 0 -5.2987758939643754 131.34906188653258 0 131.34906188653258 3.2249052364750241 0 0 0 0 42.21187080485106 70.220695344029082 0 70.220695344029082 -21.344195225945441 0 0 0 0 14.076113709440051 -118.80534640295082 0 -118.80534640295082 243.01587095647847 0 0 0 0 65.768755867684831 84.500736582092941 0 84.500736582092941 -197.60081257656566 0 0 0 0 1.2497105061765499 0.56907515258941999 0 0.56907515258941999 0.34823646975463873 0 0 0 0 60.958044452067497 -64.648801713708963 0 -64.648801713708963 120.55143772038355 0 0 0 0 -8.2306764052841572 -87.271189761559071 0 -87.271189761559071 -23.592679699242581 0 0 0 0 32.2359392657022 -92.016866806152393 0 -92.016866806152393 121.78492975958943 0 0 0 0 0.087838344464432949 1.1501551570218429 0 1.1501551570218429 0.64475493069591039 0 0 0 0 -88.753330484813432 93.210192354083119 0 93.210192354083119 25.574971399168135 0 0 0 0 -40.605001746534526 50.77552681339148 0 50.77552681339148 -2.7151548225810984 0 0 0 0 22.891021590176706 -52.674822448354462 0 -52.674822448354462 247.06225856012315 0 0 0 0 143.2552938744916 -43.482637355213228 0 -43.482637355213228 160.73693080919475 0 0 0 0 -13.271468044110748 10.712250173822213 0 10.712250173822213 142.12627894809702 0 0 0 0 115.60986289458202 -28.548795380402225 0 -28.548795380402225 279.20291217307386 0 0 0 0 27.117734763437625 32.090720699381563 0 32.090720699381563 157.39604654860159 0 0 0 0 9.1694980262334411 38.667984885585611 0 38.667984885585611 374.91094499488827 0 0 0 0 0.85029639971009452 -1.4179786731643418 0 -1.4179786731643418 2.3232429712969349 0 0 0 0 413.12985883950068 -797.94417085538589 0 -797.94417085538589 314.41569001384778 0 0 0 0 -141.50893635331067 222.15679907857702 0 222.15679907857702 572.14467070807041 0 0 0 0 -180.23198478351924 -384.59284565073176 0 -384.59284565073176 402.83409218094312 0 0 0 0 -118.58237876120802 184.39563330130841 0 184.39563330130841 345.14453861973016 0 0 0 0 -85.520396331898326 -47.710088203137275 0 -47.710088203137275 80.345303994268761 0 0 0 0 0.54779669335691228 2.6109120094818792 0 2.6109120094818792 11.946970387398295 0 0 0 0 40.389524717767927 222.90198937997775 0 222.90198937997775 159.08879836257256 0 0 0 0 221.89774345250896 -387.32874320974952 0 -387.32874320974952 213.36685565680818 0 0 0 0 -1.2661229115639585 -0.68053025153493962 0 -0.68053025153493962 8.9859502946529233 0 0 0 0 304.30561296295991 -233.57386573636177 0 -233.57386573636177 -95.402333739926689 0 0 0 0 279.29874491946612 159.80236605739628 0 159.80236605739628 100.54566953172616 0 0 0 0 -15.164187870092519 163.1634465074676 0 163.1634465074676 233.14155215842766 0 0 0 0 74.137027914028295 324.14808519592771 0 324.14808519592771 521.08012327648612 0 0 0 0 16.061940948093707 -16.739764008918428 0 -16.739764008918428 3.2389397554070456 0 0 0 0 144.6077998208649 97.12188015619904 0 97.12188015619904 39.028192178710015 0 0 0 0 -36.164658246027102 92.971421339869266 0 92.971421339869266 195.95604020135215 0 0 0 0 42.188218859354947 165.46526237315265 0 165.46526237315265 144.65906460786937 0 0 0 0 -2.2601200144394511 7.8968674652242044 0 7.8968674652242044 -50.586622692404489 0 0 0 0 -81.289770860978024 447.80284460727489 0 447.80284460727489 -41.034431327949278 0 0 0 0 405.40972195051188 11.415366770692344 0 11.415366770692344 -522.45339266950032 0 0 0 0 43.014726883737694 136.89632058219649 0 136.89632058219649 28.20532746904064 0 0 0 0 -63.396242605222142 13.499077100175782 0 13.499077100175782 7.4800448841706384 0 0 0 0 -478.98293909581162 428.42597918911633 0 428.42597918911633 699.16236451061559 0 0 0 0 -0.91311659684532875 9.7849674220576688 0 9.7849674220576688 15.528400960563772 0 0 0 0 -38.541870915690282 8.8308849101485976 0 8.8308849101485976 -6.034016356425127 0 0 0 0 -721.44771396000579 82.432831142476061 0 82.432831142476061 522.48780196094594 0 0 0 0 -15.915849560403133 25.244223625285471 0 25.244223625285471 42.800042417179625 0 0 0 0 -458.97245070045665 -483.98970883913717 0 -483.98970883913717 928.19868681759544 0 0 0 0 -184.35722782592984 -25.432505060129188 0 -25.432505060129188 152.31295386908459 0 0 0 0 -8.3466866010107452 13.066769616084201 0 13.066769616084201 68.393550040672295 0 0 0 0 149.75203603696809 26.247702734523045 0 26.247702734523045 63.454548985086149 0 0 0 0 44.11426826782008 -7.8505979668771033 0 -7.8505979668771033 -54.820469296324973 0 0 0 0 178.40549915382326 -361.10443121528078 0 -361.10443121528078 270.46429317977163 0 0 0 0 -35.790818956924568 94.349400952774886 0 94.349400952774886 22.912954575120239 0 0 0 0 1.309198003383262 3.1583996980443345 0 3.1583996980443345 6.4116046695918385 0 0 0 0 -201.52448720173197 -126.14777064426744 0 -126.14777064426744 683.00123060920509 0 0 0 0 -18.641818553333906 82.654896463831392 0 82.654896463831392 -0.50138495483952283 0 0 0 0 -56.68942909867792 -33.616219907180493 0 -33.616219907180493 48.867619631542766 0 0 0 0 36.176023884967847 -85.43531683759727 0 -85.43531683759727 70.886725835487596 0 0 0 0 0.24132955026277969 4.101047843475726 0 4.101047843475726 27.521233259892853 0 0 0 0 -25.262694445435272 -77.753380592572285 0 -77.753380592572285 108.33084465844149 0 0 0 0 -26.249565867510228 -5.0865389831669745 0 -5.0865389831669745 145.52215831033391 0 0 0 0 -10.485786757339611 20.636558025340491 0 20.636558025340491 181.65417501413322 0 0 0 0 -13.371532603495922 -24.003632560061305 0 -24.003632560061305 115.74455717558885 0 0 0 0 -24.538304868058731 83.181580903175927 0 83.181580903175927 163.3507431385442 0 0 0 0 -4.8007029742561826 17.039573316003953 0 17.039573316003953 89.189538140730292 0 0 0 0 -35.477331999462876 -25.376638693876885 0 -25.376638693876885 233.52236574364179 0 0 0 0 -47.339222469558536 38.147329830400849 0 38.147329830400849 250.73492257693579 0 0 0 0 -34.365027010789618 24.249267251492711 0 24.249267251492711 181.53108570589688 0 0 0 0 -39.87466365634441 27.323272967751109 0 27.323272967751109 186.4293235312507 0 0 0 0 -27.063574706025065 -20.039989650118514 0 -20.039989650118514 174.66795062467008 0 0 0 0 -16.110160833666246 26.838038474789983 0 26.838038474789983 3.7913662828377284 0 0 0 0 -38.428971812150849 65.933991863334086 0 65.933991863334086 -27.704383102653082 0 0 0 0 -6.2126932227861724 4.7680940584096732 0 4.7680940584096732 -3.4449217129363632 0 0 0 0 -132.65337458799502 78.735970715089934 0 78.735970715089934 399.00732499937294 0 0 0 0 -94.742663012879575 64.564440910831763 0 64.564440910831763 -44.169165266415803 0 0 0 0 -13.41179746073966 30.080046183871701 0 30.080046183871701 24.090558236260591 0 0 0 0 -102.81645575810762 95.405323756072903 0 95.405323756072903 315.92826678667916 0 0 0 0 19.082258242488024 83.50029317602457 0 83.50029317602457 20.432013044235646 0 0 0 0 -43.029418984588119 73.120817267918028 0 73.120817267918028 142.84314190648001 0 0 0 0 -46.489633904802758 -2.3527920820633881 0 -2.3527920820633881 107.4649922339886 0 0 0 0 -2.9904200264157801 -2.2537990705162088 0 -2.2537990705162088 8.903096838456122 0 0 0 0 -119.32274923207797 17.143912809151516 0 17.143912809151516 236.40898112335708 0 0 0 0 15.712092900715106 114.62711806999869 0 114.62711806999869 114.19025647430681 0 0 0 0 -82.831777107326161 37.540271963967825 0 37.540271963967825 353.14946931146187 0 0 0 0 -134.51593938371252 89.635511735752516 0 89.635511735752516 317.09568645610125 0 0 0 0 -126.11435320920282 129.46181214223907 0 129.46181214223907 464.22715710207922 0 0 0 0 -5.4011740311607355 37.594972262595547 0 37.594972262595547 -10.757739515283902 0 0 0 0 -113.32449819590556 17.533121709240731 0 17.533121709240731 387.80736256817181 0 0 0 0 -39.253499645657939 -57.177093643246735 0 -57.177093643246735 376.91599384492292 0 0 0 0 0.96317000020902732 16.054327815706245 0 16.054327815706245 7.2561710354711693 0 0 0 0 18.422125134587084 25.033605572988691 0 25.033605572988691 3.5608851214439312 0 0 0 0 -24.205889345182186 15.963078737335309 0 15.963078737335309 -18.570000997016905 0 0 0 0 8.6524825251362927 53.769536472900654 0 53.769536472900654 -50.818400464806473 0 0 0 0 1.9247663989082362 12.173632328963208 0 12.173632328963208 11.706246660726904 0 0 0 0 18.584168897692688 6.5523044216058679 0 6.5523044216058679 -4.9961783920025482 0 0 0 0 -132.04265865394427 167.0882831016861 0 167.0882831016861 -66.854394153509929 0 0 0 0 -79.077031832359353 22.575534067880653 0 22.575534067880653 12.581642824865412 0 0 0 0 91.308899552853291 137.02902233934947 0 137.02902233934947 37.380982795701129 0 0 0 0 -54.804054844074926 68.878142294524878 0 68.878142294524878 22.363418675909998 0 0 0 0 -172.84458293304669 -14.980779658908432 0 -14.980779658908432 84.395204390166327 0 0 0 0 -48.246187200442364 34.674322242392009 0 34.674322242392009 102.99297713916167 0 0 0 0 -48.388231639615498 16.237625625960519 0 16.237625625960519 -0.087413156478156395 0 0 0 0 -15.788360941303836 38.937361799897189 0 38.937361799897189 -14.887610195750312 0 0 0 0 -76.093004493545777 96.716528436449153 0 96.716528436449153 39.193766892247368 0 0 0 0 -17.914445910760605 -11.586247117817038 0 -11.586247117817038 106.09403359036514 0 0 0 0 260.70372486799721 250.51988896407784 0 250.51988896407784 -85.145498731246335 0 0 0 0 267.76733481531198 433.25986931933949 0 433.25986931933949 11.549938474214287 0 0 0 0 371.84917310633682 467.49408433606004 0 467.49408433606004 -19.979826303199388 0 0 0 0 300.0566728100257 172.68565163209132 0 172.68565163209132 -175.55964008517185 0 0 0 0 76.303413865105995 236.68282970743894 0 236.68282970743894 165.17025774356443 0 0 0 0 -326.10395769742627 128.22314760059089 0 128.22314760059089 193.93755295115989 0 0 0 0 -134.728652261364 148.18183331770706 0 148.18183331770706 130.19527427179855 0 0 0 0 -110.22156524427555 130.77675478124002 0 130.77675478124002 240.2281682807843 0 0 0 0 -46.019088363603601 346.72294384453744 0 346.72294384453744 301.24391216789081 0 0 0 0 46.338349865380223 341.20711468734953 0 341.20711468734953 192.1231538025022 0 0 0 0 13.787135294488394 315.81503441813038 0 315.81503441813038 173.38343498195172 0 0 0 0 794.35014117583273 629.50828936906328 0 629.50828936906328 222.1164138260865 0 0 0 0 616.85940517385529 410.14919847940473 0 410.14919847940473 -13.80305968166067 0 0 0 0 129.44257269654281 591.15052341017144 0 591.15052341017144 590.50360738493328 0 0 0 0 27.767641307315898 111.28165543224895 0 111.28165543224895 280.83142714939459 0 0 0 0 254.88298530620978 -717.38305273600781 0 -717.38305273600781 -245.2019044165354 0 0 0 0 -8.9604910021000048 -0.17348089860479377 0 -0.17348089860479377 1.4407174558770919 0 0 0 0 203.0659936117022 -56.436115283169784 0 -56.436115283169784 748.76602732739411 0 0 0 0 -53.388863481837234 -1061.198282721416 0 -1061.198282721416 830.3723812511671 0 0 0 0 142.88788576010143 488.7521868370477 0 488.7521868370477 1517.7447487708705 0 0 0 0 48.436542756985091 155.90743609068522 0 155.90743609068522 -49.963168914109701 0 0 0 0 -103.06057758390881 -259.52376282507248 0 -259.52376282507248 1068.1709646740455 0 0 0 0 -7.3222378796745033 250.52147829823662 0 250.52147829823662 -140.82015644530475 0 0 0 0 -222.18609686446143 288.32428644120228 0 288.32428644120228 36.88806097455381 0 0 0 0 -35.837760137145779 159.87433303350554 0 159.87433303350554 70.576090414382634 0 0 0 0 1.4801354986191964 1.1177989900674135 0 1.1177989900674135 1.2194332656298883 0 0 0 0 -68.968953389197395 38.957973958291404 0 38.957973958291404 718.08230426412774 0 0 0 0 -5.5114145411449726 -55.628209317843357 0 -55.628209317843357 104.65078550788894 0 0 0 0 -50.713957151183195 23.283849343133625 0 23.283849343133625 210.4146208418606 0 0 0 0 -44.200120644070239 42.383405581822444 0 42.383405581822444 158.8949664837528 0 0 0 0 -28.86308346821902 3.9941071890870461 0 3.9941071890870461 0.76196619669540411 0 0 0 0 -51.507835261960849 25.067459992409567 0 25.067459992409567 288.49051059599878 0 0 0 0 -16.691866505002508 -16.090678233085782 0 -16.090678233085782 331.93169882410439 0 0 0 0 76.237819080065378 -67.151861384701988 0 -67.151861384701988 268.01392691736692 0 0 0 0 -11.407277159997761 -53.583089942410879 0 -53.583089942410879 251.30082035403393 0 0 0 0 43.449581350449876 -22.458881248245234 0 -22.458881248245234 215.69261556871788 0 0 0 0 -13.14204176962096 -39.314040308885524 0 -39.314040308885524 145.73994942701393 0 0 0 0 -27.93626637524153 -27.157884800362808 0 -27.157884800362808 220.41410930854727 0 0 0 0 -0.80402117733183331 -24.238099484296981 0 -24.238099484296981 119.63240688781661 0 0 0 0 -7.0639170387767276 -16.79691131741906 0 -16.79691131741906 3.7431539896912907 0 0 0 0 -15.289536257401778 -22.261518946412252 0 -22.261518946412252 125.09303754754364 0 0 0 0 -19.851074861795723 -8.192409152719847 0 -8.192409152719847 74.850296350734425 0 0 0 0 -48.418492224349393 -23.259124438513027 0 -23.259124438513027 27.832256308414799 0 0 0 0 -12.394344523562632 -2.4622190707633393 0 -2.4622190707633393 18.452229415891622 0 0 0 0 -12.9673056357924 -3.9136687727041135 0 -3.9136687727041135 26.947167626552982 0 0 0 0 -5.945062162276451 1.0160565914940278 0 1.0160565914940278 18.72059362142079 0 0 0 0 -10.766447398002013 -4.0644911599062965 0 -4.0644911599062965 5.4593805031226514 0 0 0 0 -64.137583689964458 -11.076213809559704 0 -11.076213809559704 48.506513399097457 0 0 0 0 72.943096236271231 -101.04996903685969 0 -101.04996903685969 109.07653481187299 0 0 0 0 -12.182325718087668 -5.660142191367413 0 -5.660142191367413 29.540690725654713 0 0 0 0 -0.33237944359499128 -2.7808898542974383 0 -2.7808898542974383 -1.1961506817415284 0 0 0 0 -1.5133490052718437 2.2653075712568835 0 2.2653075712568835 10.742163378322601 0 0 0 0 -25.519144088288613 -46.355860017789382 0 -46.355860017789382 77.419269483765561 0 0 0 0 -3.12249952753344 -4.1371736221064594 0 -4.1371736221064594 -0.73453003480006585 0 0 0 0 70.656911739635007 -6.0614481333941512 0 -6.0614481333941512 -20.849155718758993 0 0 0 0 -3.5422417536243529 -14.775667754285678 0 -14.775667754285678 41.239600875480392 0 0 0 0 -1.754230873873567 -8.1654834534244856 0 -8.1654834534244856 28.465670467121527 0 0 0 0 -7.9880382019564422 -0.94663995004157186 0 -0.94663995004157186 15.830148455541348 0 0 0 0 -1.7944238165862316 -7.5349085961970559 0 -7.5349085961970559 22.258821508217807 0 0 0 0 8.3181498828759004 -9.4347960715194858 0 -9.4347960715194858 15.323589655417891 0 0 0 0 -1.3799081927204497 -18.37126177317441 0 -18.37126177317441 19.216386896165204 0 0 0 0 27.694900886738196 -18.339687874584342 0 -18.339687874584342 4.1195832226258062 0 0 0 0 3.6443759014932766 -17.789509812057076 0 -17.789509812057076 6.166225580003811 0 0 0 0 18.644538621619176 2.5781574917964463 0 2.5781574917964463 10.799207926113013 0 0 0 0 -1.6632546363803158 -3.4022560679641174 0 -3.4022560679641174 12.139243281460949 0 0 0 0 -1.3878358218948024 2.5854307193161574 0 2.5854307193161574 15.688684713861022 0 0 0 0 -61.476259180555644 -3.9979243195193703 0 -3.9979243195193703 40.072661061234612 0 0 0 0 -20.753458336193944 3.2818173271080013 0 3.2818173271080013 91.840588335318898 0 0 0 0 54.867550135766578 49.117001009937667 0 49.117001009937667 23.669842129245808 0 0 0 0 7.2348438133012678 33.540505135686544 0 33.540505135686544 18.593460567037255 0 0 0 0 8.873187697735375 -13.862425369808989 0 -13.862425369808989 5.3392658912853221 0 0 0 0 -28.047130616978393 25.683630857005483 0 25.683630857005483 28.546610987126769 0 0 0 0 -18.109562970621425 3.376382475522405 0 3.376382475522405 25.124527347819821 0 0 0 0 0.50616396102787631 6.009993613925964 0 6.009993613925964 17.403396922293894 0 0 0 0 -13.720487531489198 11.565886854408745 0 11.565886854408745 101.07724081618653 0 0 0 0 -18.129834390036763 8.3483400817167421 0 8.3483400817167421 12.5334260394593 0 0 0 0 -25.160105981554238 -28.299961723325396 0 -28.299961723325396 18.063691797389765 0 0 0 0 -0.39928577588193548 -13.506474592149971 0 -13.506474592149971 23.684581581677776 0 0 0 0 -9.5648066501101141 -5.6332548736172612 0 -5.6332548736172612 50.094047666938422 0 0 0 0 0.25385895851741225 -15.065634727474389 0 -15.065634727474389 25.220387368532101 0 0 0 0 3.1458527823503277 -3.9677418604504169 0 -3.9677418604504169 -0.56700656073561806 0 0 0 0 39.817982241960181 50.916117181750451 0 50.916117181750451 40.760362770850861 0 0 0 0 7.3140679611057351 -1.6073299241070345 0 -1.6073299241070345 23.758751884226058 0 0 0 0 3.5672798920357822 7.0183637055016703 0 7.0183637055016703 22.086439231395445 0 0 0 0 -3.5865935765666563 2.5469169206735387 0 2.5469169206735387 45.31834976985192 0 0 0 0 7.7974249178856887 -2.5931088748267825 0 -2.5931088748267825 5.2634507857413091 0 0 0 0 28.084614111400697 -16.580004501374788 0 -16.580004501374788 153.71924478880101 0 0 0 0 -47.874834512024592 0.6859400769203603 0 0.6859400769203603 205.14590759530984 0 0 0 0 -53.177857433148347 25.340962532813137 0 25.340962532813137 387.8620475081625 0 0 0 0 -115.70432389687915 73.550998425957914 0 73.550998425957914 535.02976211740315 0 0 0 0 -125.64975167907778 35.173003237490775 0 35.173003237490775 388.07437522571178 0 0 0 0 -102.31868545024236 -61.443116636299237 0 -61.443116636299237 643.11277775016788 0 0 0 0 9.2963933269900281 -56.29833482889444 0 -56.29833482889444 103.87867337156058 0 0 0 0 -5.5497485025637729 97.265517902710144 0 97.265517902710144 187.10004082793603 0 0 0 0 207.01015812203354 -7.3906064812472323 0 -7.3906064812472323 -151.83151755484869 0 0 0 0 192.46155921779564 323.03663699710887 0 323.03663699710887 456.2433582361482 0 0 0 0 -5.2920894989035787 161.42290881810914 0 161.42290881810914 359.92539099158239 0 0 0 0 0.10222703738759265 88.921582815019065 0 88.921582815019065 191.60068468993632 0 0 0 0 -172.27602183631529 103.07401246339577 0 103.07401246339577 896.23326837493369 0 0 0 0 -173.24580647826838 58.96922892332077 0 58.96922892332077 536.45287148540228 0 0 0 0 -104.97635434436415 221.56105699700129 0 221.56105699700129 471.51254495551439 0 0 0 0 65.189463112251815 604.61060354126676 0 604.61060354126676 1305.9820591136668 0 0 0 0 850.62905147277843 611.03811209629202 0 611.03811209629202 192.42070169710496 0 0 0 0 0.69088677389391662 4.4167713625006417 0 4.4167713625006417 17.032428986739433 0 0 0 0 -74.95231823520669 -207.50205037017076 0 -207.50205037017076 332.94497786842476 0 0 0 0 -174.25023121405457 -221.2341457273069 0 -221.2341457273069 907.89260217452829 0 0 0 0 -19.869861200271259 -100.36684273637138 0 -100.36684273637138 325.05667752838053 0 0 0 0 -10.811594730467391 55.908320684153296 0 55.908320684153296 121.54059623748253 0 0 0 0 -34.720186952062136 -20.119468050646446 0 -20.119468050646446 24.407378439987951 0 0 0 0 -64.922428313913812 108.86565107086108 0 108.86565107086108 46.089325349043065 0 0 0 0 77.099039012880709 86.673114098239807 0 86.673114098239807 -13.516428132010333 0 0 0 0 -98.161311192627977 192.52016343478863 0 192.52016343478863 574.35391516338132 0 0 0 0 -100.2245293052776 99.381038284039278 0 99.381038284039278 302.74282291408599 0 0 0 0 -104.18235353320028 68.47808120798436 0 68.47808120798436 510.24253433477134 0 0 0 0 -9.7191871056919652 38.162645340840982 0 38.162645340840982 276.79504262449336 0 0 0 0 -12.370595359708204 385.33587935456308 0 385.33587935456308 273.06885506080653 0 0 0 0 308.77648720285515 57.527446670152131 0 57.527446670152131 -86.416135479385048 0 0 0 0 -47.829315274234659 148.06202322606987 0 148.06202322606987 498.36156913195373 0 0 0 0 376.61101741312609 -282.18501200621176 0 -282.18501200621176 710.88786069043999 0 0 0 0 730.29717895165572 170.25287010352258 0 170.25287010352258 344.53402746684242 0 0 0 0 18.245365678151686 -82.03282216234993 0 -82.03282216234993 274.61665068300499 0 0 0 0 45.502919678889839 -102.92169224922873 0 -102.92169224922873 213.92699950691167 0 0 0 0 78.166170767007316 -124.80278091430955 0 -124.80278091430955 -18.589114619349857 0 0 0 0 -53.172585283229182 -173.91783250869594 0 -173.91783250869594 156.73068144619174 0 0 0 0 -55.711604812222504 63.193151602779835 0 63.193151602779835 262.32594197399521 0 0 0 0 -28.646763356891825 89.718908188764544 0 89.718908188764544 199.6143363054689 0 0 0 0 256.06403119090737 -30.668480732176249 0 -30.668480732176249 211.85770126459909 0 0 0 0 -25.416930756009151 140.55371146052858 0 140.55371146052858 776.81221132336213 0 0 0 0 24.648274166532929 238.25622555153132 0 238.25622555153132 544.60887022144379 0 0 0 0 -83.900485894128906 364.97476455968172 0 364.97476455968172 682.89307779177761 0 0 0 0 -52.13633170086996 -22.59774633073539 0 -22.59774633073539 726.21595303986032 0 0 0 0 -100.31110818113025 242.8657355975937 0 242.8657355975937 827.48878972777675 0 0 0 0 133.69082703833215 279.53459883778669 0 279.53459883778669 506.70880954835229 0 0 0 0 -100.47754521649398 236.04630630268878 0 236.04630630268878 586.57818605729699 0 0 0 0 481.5630047582888 422.50598704357253 0 422.50598704357253 231.38469094763605 0 0 0 0 3.1099133792873821 4.0926381985412661 0 4.0926381985412661 6.2598338788698129 0 0 0 0 78.432826100641023 -33.727416105808516 0 -33.727416105808516 82.847790867012918 0 0 0 0 17.084886683340983 -62.0587073763636 0 -62.0587073763636 341.07993823368361 0 0 0 0 -1.3302429177840622 -72.906816159469599 0 -72.906816159469599 344.25041976896318 0 0 0 0 49.95097801159784 404.69034735766945 0 404.69034735766945 1012.9647011650959 0 0 0 0 89.848220458131721 -403.36429153329846 0 -403.36429153329846 1211.0507697161374 0 0 0 0 10.021850218145289 283.02305763458298 0 283.02305763458298 1396.2486474184989 0 0 0 0 -146.40645069214224 -6.3527259871607384 0 -6.3527259871607384 23.239359722923837 0 0 0 0 -131.71666382939475 -27.454501129956043 0 -27.454501129956043 10.382816549322115 0 0 0 0 -110.83202395045919 26.236530319494705 0 26.236530319494705 20.46519684298255 0 0 0 0 -85.236246302847576 25.173796213257447 0 25.173796213257447 13.246954250360432 0 0 0 0 -98.706630359984047 15.230198211484094 0 15.230198211484094 29.652217270420806 0 0 0 0 3.8279727934641414 -0.044033387148374459 0 -0.044033387148374459 6.7214247669326141 0 0 0 0 -108.21726476814638 -14.585763834555109 0 -14.585763834555109 9.2873424738718313 0 0 0 0 -73.225158472017256 -3.2531915810791361 0 -3.2531915810791361 7.7101466958629317 0 0 0 0 1.7554178508965421 2.846020753868892 0 2.846020753868892 6.4983648770798368 0 0 0 0 -0.005810070965083014 0.2820292682070189 0 0.2820292682070189 9.6207659309406068 0 0 0 0 28.691691925926534 78.41698915158122 0 78.41698915158122 37.624456860430655 0 0 0 0 -0.16269638119194241 -4.8293621353225831 0 -4.8293621353225831 10.283224165292921 0 0 0 0 -16.194229144424185 59.708365643545903 0 59.708365643545903 38.190501066834258 0 0 0 0 -12.878770642868403 7.0767687173502054 0 7.0767687173502054 -84.137976205718587 0 0 0 0 -274.88377563434551 31.046820336257952 0 31.046820336257952 54.933407480392816 0 0 0 0 2.2822231799798143 3.585896250845785 0 3.585896250845785 9.3257556165046367 0 0 0 0 0.22835909744181393 -6.3546369184736733 0 -6.3546369184736733 13.736916318919853 0 0 0 0 -169.54638051361871 -142.88036208698031 0 -142.88036208698031 10.727511744436924 0 0 0 0 -164.04200497823331 -73.560468493036751 0 -73.560468493036751 67.354329231820884 0 0 0 0 -169.73135694389657 -88.445615833774355 0 -88.445615833774355 145.15867086094659 0 0 0 0 -28.237567745900378 355.22232543603695 0 355.22232543603695 9.2008850346246618 0 0 0 0 1.8680627947171047 2.7278228489073655 0 2.7278228489073655 2.9945539556765226 0 0 0 0 -6.1271362535708249 1.6526372244079539 0 1.6526372244079539 821.98713555306222 0 0 0 0 -0.51641595137789409 150.05944845353952 0 150.05944845353952 978.11859785722481 0 0 0 0 79.713243168984718 -163.80740414676075 0 -163.80740414676075 222.38347610025812 0 0 0 0 -3.5572818857544917 93.72195749076127 0 93.72195749076127 63.475176445059333 0 0 0 0 -9.6853467125120005 -193.95011331258138 0 -193.95011331258138 873.53850301630428 0 0 0 0 -13.982933895965289 74.360484558303142 0 74.360484558303142 1251.7113275552128 0 0 0 0 13.533614796098846 204.66547888189234 0 204.66547888189234 705.88495037309622 0 0 0 0 46.080030430360466 -101.07763272313832 0 -101.07763272313832 209.63766373783437 0 0 0 0 73.160345806863461 -17.448761527724855 0 -17.448761527724855 211.35754077831371 0 0 0 0 4.5845004601487744 57.866223715183878 0 57.866223715183878 795.19476979797037 0 0 0 0 71.983462738238359 14.347206308848399 0 14.347206308848399 140.82886316291842 0 0 0 0 -151.38044627225463 98.779900279780122 0 98.779900279780122 1191.3171002697163 0 0 0 0 -33.701461474043981 -48.890260037144799 0 -48.890260037144799 358.600988487211 0 0 0 0 43.444018192485842 -12.842668681852622 0 -12.842668681852622 1.1310311620073885 0 0 0 0 -39.806608704747305 42.017364487775922 0 42.017364487775922 178.97877439803051 0 0 0 0 -33.64272297247453 -21.646255216475765 0 -21.646255216475765 379.48029071701058 0 0 0 0 201.20968433427151 -312.11575129830453 0 -312.11575129830453 46.897755652862543 0 0 0 0 219.61889113682628 200.23435689806502 0 200.23435689806502 703.65231427401523 0 0 0 0 42.129901713101347 -10.533100282547863 0 -10.533100282547863 0.57660349256383148 0 0 0 0 19.999539841065484 -387.71159701856322 0 -387.71159701856322 -106.01291486870468 0 0 0 0 0.098728076744922788 -2.2963011485668261 0 -2.2963011485668261 3.125519029096111 0 0 0 0 35.528784778299723 -118.90339075427073 0 -118.90339075427073 266.80315103352768 0 0 0 0 59.365223002980201 -74.069717911023872 0 -74.069717911023872 -138.01156290880317 0 0 0 0 -148.87989750564702 37.004605568148691 0 37.004605568148691 737.25702215524507 0 0 0 0 112.41690606347584 -190.62416093355205 0 -190.62416093355205 313.29368968712879 0 0 0 0 -191.55064339617002 65.888476971138516 0 65.888476971138516 311.62809181565171 0 0 0 0 -136.00994093334702 1.5660193390394852 0 1.5660193390394852 369.0225855929275 0 0 0 0 0.70342599906844328 -3.9123034819704543 0 -3.9123034819704543 5.3962857020845547 0 0 0 0 -2.8326483145553993 -100.67207008840705 0 -100.67207008840705 21.285980554646812 0 0 0 0 -132.99589571770275 -80.746082457388184 0 -80.746082457388184 152.74971384671153 0 0 0 0 -53.398675954626697 -4.6589752844047325 0 -4.6589752844047325 149.5433422962974 0 0 0 0 175.97702191050848 -328.60621137356429 0 -328.60621137356429 360.85896115369792 0 0 0 0 -252.70068060485301 119.92194626845048 0 119.92194626845048 362.69923508041757 0 0 0 0 -82.708619720971456 49.017799660807214 0 49.017799660807214 85.966656294280256 0 0 0 0 7.7462144965829278 8.5780259015161988 0 8.5780259015161988 19.943899860773996 0 0 0 0 4.7477436196173812 7.923229580217594 0 7.923229580217594 67.362717516341945 0 0 0 0 125.02888375779366 63.462790867484728 0 63.462790867484728 -166.71289963076197 0 0 0 0 16.88042206773904 -5.6354865332078958 0 -5.6354865332078958 5.1693579309806985 0 0 0 0 35.316637587128739 -8.5874468649778777 0 -8.5874468649778777 -1.0525635673997953 0 0 0 0 82.628949918753278 98.622133370776282 0 98.622133370776282 256.43295629219574 0 0 0 0 332.71524189564479 68.10175919138419 0 68.10175919138419 -433.08275707295741 0 0 0 0 -29.178110222487703 -248.90063184842893 0 -248.90063184842893 171.43236795740086 0 0 0 0 6.3609901590516529 -169.33811730641537 0 -169.33811730641537 297.80128637282496 0 0 0 0 -312.48992434613137 58.382692077208048 0 58.382692077208048 271.76879041779466 0 0 0 0 -68.352538607421593 -65.356993415700344 0 -65.356993415700344 286.02116074848163 0 0 0 0 542.38437000362137 -232.55751768561458 0 -232.55751768561458 -197.87833586895431 0 0 0 0 49.251060673058419 2.0399164642658434 0 2.0399164642658434 198.26148650205505 0 0 0 0 152.3713001108689 348.67876074492824 0 348.67876074492824 -73.098669715924188 0 0 0 0 147.11729474569893 2.813041719404282 0 2.813041719404282 135.48818023179047 0 0 0 0 221.29552229200453 -178.23782367286913 0 -178.23782367286913 57.453648466005689 0 0 0 0 111.1157431557375 -210.26425746392283 0 -210.26425746392283 941.60847172614012 0 0 0 0 542.5374702882782 -277.84983968031884 0 -277.84983968031884 175.63907198354809 0 0 0 0 446.38576670886869 92.911898464575643 0 92.911898464575643 -109.67522899918777 0 0 0 0 -133.08078780912552 -50.445599018696157 0 -50.445599018696157 190.99635266457335 0 0 0 0 68.025491089242678 25.714174162254494 0 25.714174162254494 54.093866925348266 0 0 0 0 -137.01549170683757 -154.64959072062868 0 -154.64959072062868 756.49401314194256 0 0 0 0 98.121926591928968 -172.67354419259209 0 -172.67354419259209 184.30324660178303 0 0 0 0 0.77291569261880966 2.4964921591521616 0 2.4964921591521616 4.4373062809617352 0 0 0 0 2.0774612324126984 6.156908678454279 0 6.156908678454279 10.456981456979165 0 0 0 0 16.596229647569089 -439.93129393576601 0 -439.93129393576601 350.78017069502675 0 0 0 0 100.8350319691408 -235.19167843870673 0 -235.19167843870673 327.05521044175475 0 0 0 0 75.510703110921213 -286.39732891064341 0 -286.39732891064341 283.18169117673824 0 0 0 0 66.991187129584887 -334.05000663551255 0 -334.05000663551255 38.63317158564314 0 0 0 0 48.230907054347881 -436.54682174499794 0 -436.54682174499794 -224.44089488417376 0 0 0 0 235.63088146542486 528.77615437251916 0 528.77615437251916 1126.7691555842225 0 0 0 0 1.1212500112283479 -3.1452563075938258 0 -3.1452563075938258 8.5603966711327928 0 0 0 0 161.8017963698378 287.89014497885273 0 287.89014497885273 468.79348254124488 0 0 0 0 -35.431025031279887 -183.37555934840248 0 -183.37555934840248 -84.016275680231047 0 0 0 0 -515.4855959720453 -327.57316945067214 0 -327.57316945067214 59.068872513578754 0 0 0 0 2.1850076607832722 -8.98608448944222 0 -8.98608448944222 22.866660307726264 0 0 0 0 -277.84595819396054 7.4053621321363607 0 7.4053621321363607 138.47960312285431 0 0 0 0 64.982192851383843 -107.93655626952386 0 -107.93655626952386 183.96557731317807 0 0 0 0 18.996081888797107 -56.067637986910086 0 -56.067637986910086 409.93100199826586 0 0 0 0 -68.438447335374462 -99.078065593970223 0 -99.078065593970223 222.87810958475893 0 0 0 0 30.026793212555503 40.779792760785313 0 40.779792760785313 337.69885064119444 0 0 0 0 94.334702895426972 -52.998311206391008 0 -52.998311206391008 474.07653839297382 0 0 0 0 -0.20948070268021102 -1.7827863552001304 0 -1.7827863552001304 3.2541276639005048 0 0 0 0 -5.3319117528965307 135.90973897819822 0 135.90973897819822 567.25542293610488 0 0 0 0 -5.7094635129629268 122.25559834133657 0 122.25559834133657 302.97307053943223 0 0 0 0 -103.10515558231373 82.717390221832829 0 82.717390221832829 435.50926352641909 0 0 0 0 30.109825511623967 46.905382667177037 0 46.905382667177037 383.84735883357644 0 0 0 0 -17.950751672438855 170.828086911235 0 170.828086911235 356.19350243404915 0 0 0 0 -59.56638847929662 81.114343207416823 0 81.114343207416823 346.15998108144822 0 0 0 0 -115.98629731216027 161.46984261508464 0 161.46984261508464 448.28743867232697 0 0 0 0 15.634641415242186 166.17492821029373 0 166.17492821029373 331.88180822563118 0 0 0 0 -20.784695456136433 134.50141099732718 0 134.50141099732718 341.91576843056828 0 0 0 0 12.312325064029892 121.32225028561879 0 121.32225028561879 161.22053204874828 0 0 0 0 -495.21056723745551 -330.82142213363841 0 -330.82142213363841 -36.33640734040091 0 0 0 0 2.9092964958355587 -12.812255585255073 0 -12.812255585255073 32.146605609266999 0 0 0 0 -134.54505546371456 -54.930748683844286 0 -54.930748683844286 187.5728997254073 0 0 0 0 17.691759672161652 -9.5705028727998069 0 -9.5705028727998069 16.75417044162532 0 0 0 0 94.835187582035587 66.80869539016021 0 66.80869539016021 231.06486849422072 0 0 0 0 -49.903562989994725 106.98842628258444 0 106.98842628258444 339.60786121064302 0 0 0 0 -0.41425939259033839 -71.717124285196405 0 -71.717124285196405 341.33384429032776 0 0 0 0 131.05630063563876 71.947739257684589 0 71.947739257684589 69.803219651912514 0 0 0 0 0.36726039624571971 -1.4610545034359745 0 -1.4610545034359745 1.5386452671590405 0 0 0 0 125.73336650988699 -51.459968482271506 0 -51.459968482271506 372.85624742817163 0 0 0 0 155.97555044730063 -30.638415343720226 0 -30.638415343720226 331.80759376761853 0 0 0 0 44.573269699840239 -21.706703161660698 0 -21.706703161660698 -13.490882584901556 0 0 0 0 36.240185700896291 -41.642314847766102 0 -41.642314847766102 -33.222266819895594 0 0 0 0 78.900385510013166 40.48288901084743 0 40.48288901084743 11.865780756328604 0 0 0 0 89.047795822756768 -47.571078921545904 0 -47.571078921545904 1.3953862847920391 0 0 0 0 206.44853294289419 -29.676798501736812 0 -29.676798501736812 4.1058432128047571 0 0 0 0 65.254719451758319 -73.728644485796394 0 -73.728644485796394 -46.791672118881252 0 0 0 0 -22.407841242149061 -95.620472821372459 0 -95.620472821372459 -35.232870191282927 0 0 0 0 -182.66514363900023 52.856169964070432 0 52.856169964070432 144.49796942973262 0 0 0 0 3.244975697486236 -14.254386495424008 0 -14.254386495424008 37.613490564976445 0 0 0 0 -128.89572570947485 -122.05581426315257 0 -122.05581426315257 77.108141383083421 0 0 0 0 -185.02850892840979 -4.4665814202235197 0 -4.4665814202235197 64.570442133233882 0 0 0 0 -371.91012617706838 -170.29486956696564 0 -170.29486956696564 77.005994043702231 0 0 0 0 -85.589570362912127 48.242098347829597 0 48.242098347829597 123.03373070318776 0 0 0 0 -110.875370526398 53.274269358165839 0 53.274269358165839 198.29170012403483 0 0 0 0 -61.272607266003661 128.73713328493795 0 128.73713328493795 213.02814089348976 0 0 0 0 -81.14787397701366 76.224005224838038 0 76.224005224838038 190.9969883636586 0 0 0 0 -87.218094141614529 60.96004108222769 0 60.96004108222769 180.47360033773293 0 0 0 0 -97.92219816351826 73.8429000530341 0 73.8429000530341 164.97168768965639 0 0 0 0 -98.168496755153683 42.878368291254446 0 42.878368291254446 183.9424828345509 0 0 0 0 -85.021904819760493 29.805643999643507 0 29.805643999643507 192.41005382114963 0 0 0 0 -109.6806801030516 -2.5427082521819102 0 -2.5427082521819102 190.21369297135971 0 0 0 0 -113.88610105959015 35.809388837849838 0 35.809388837849838 127.82863162751892 0 0 0 0 -154.8683862120597 33.984952168400923 0 33.984952168400923 192.40042968540206 0 0 0 0 -164.88025543846356 -16.228803111752313 0 -16.228803111752313 130.52212591354328 0 0 0 0 -265.92162982922855 -70.408809831426879 0 -70.408809831426879 108.93312967719976 0 0 0 0 -173.23674681059674 59.220302685302158 0 59.220302685302158 169.34462728209292 0 0 0 0 -142.22600381782468 51.236649717495311 0 51.236649717495311 16.496911533344246 0 0 0 0 3.6127353192007892 -17.056872925624319 0 -17.056872925624319 36.489654380615093 0 0 0 0 5.4882685001860363 -4.2830184596868648 0 -4.2830184596868648 -6.0836974961757448 0 0 0 0 44.103854120055985 96.081879421843041 0 96.081879421843041 322.4486046982056 0 0 0 0 16.56087694461894 26.475250451898319 0 26.475250451898319 183.2424448227539 0 0 0 0 0.85616603121232515 -2.5947180681129396 0 -2.5947180681129396 5.9405073970560096 0 0 0 0 -181.9543965505527 25.626530369110696 0 25.626530369110696 245.24494592213887 0 0 0 0 -93.055204947897437 -79.435080786031904 0 -79.435080786031904 287.46124980685272 0 0 0 0 -40.733709663389163 -60.0960846404123 0 -60.0960846404123 233.10268153632296 0 0 0 0 -23.837937081109203 -25.932292964115732 0 -25.932292964115732 157.70339747224352 0 0 0 0 -13.310647059024632 -34.764397487895621 0 -34.764397487895621 158.98421571355721 0 0 0 0 82.345067644839219 -124.29844069483806 0 -124.29844069483806 237.45037307955499 0 0 0 0 -65.467891619167858 -19.832869289140945 0 -19.832869289140945 391.35967939579859 0 0 0 0 2.8509408973359314 -64.895030048031913 0 -64.895030048031913 142.48528259578234 0 0 0 0 86.552761358318321 13.289863488688866 0 13.289863488688866 131.58297580869112 0 0 0 0 20.185648144619336 -8.7079563008956029 0 -8.7079563008956029 132.10512466339424 0 0 0 0 4.8816048477392542 36.069206123975164 0 36.069206123975164 95.510541880401433 0 0 0 0 6.0651085188056868 -40.669490907820546 0 -40.669490907820546 -23.6996304832428 0 0 0 0 91.844753771875276 -86.200237506303893 0 -86.200237506303893 54.167298747408495 0 0 0 0 8.2578632328467929 -18.856743298890464 0 -18.856743298890464 -15.0793266562046 0 0 0 0 2.6767939292703886 -55.962310817449179 0 -55.962310817449179 211.15284137231174 0 0 0 0 -0.35040402493621237 0.037433339955818212 0 0.037433339955818212 3.2551248410776168 0 0 0 0 -358.31500757773347 -185.54182852532358 0 -185.54182852532358 99.954174355218129 0 0 0 0 -178.93924596014858 51.709968197024864 0 51.709968197024864 390.9570171084215 0 0 0 0 4.7797129662067164 195.54551306620851 0 195.54551306620851 447.20576614116908 0 0 0 0 41.852204538872229 142.07553712266053 0 142.07553712266053 499.50637051800732 0 0 0 0 84.912173030341364 88.493945114554663 0 88.493945114554663 266.00232938572844 0 0 0 0 -30.62587164120805 71.610886834203484 0 71.610886834203484 513.86560596118943 0 0 0 0 27.145848692067375 9.6925204683429911 0 9.6925204683429911 30.84363112948995 0 0 0 0 -212.54455660452413 -10.384275986623834 0 -10.384275986623834 355.66832319864625 0 0 0 0 52.820631279932968 218.99806497709869 0 218.99806497709869 215.40837270989141 0 0 0 0 501.99261631521949 500.03186205204838 0 500.03186205204838 336.87879029083615 0 0 0 0 118.31695751391953 132.82813216069553 0 132.82813216069553 234.50881109886541 0 0 0 0 52.619719858569169 134.24914457272644 0 134.24914457272644 159.12370270938118 0 0 0 0 82.56363776766193 88.047387747421453 0 88.047387747421453 121.64676815244638 0 0 0 0 -1.7488675637357698 0.048294514154179069 0 0.048294514154179069 9.501078839358911 0 0 0 0 256.65595534941485 242.5504838541674 0 242.5504838541674 156.49319427511364 0 0 0 0 -206.22564807028311 -19.276339907193687 0 -19.276339907193687 45.88358505526412 0 0 0 0 -32.531092800764782 41.992048764586798 0 41.992048764586798 -5.6029263848331539 0 0 0 0 -35.73169114208514 67.127117382240613 0 67.127117382240613 85.81514835186681 0 0 0 0 63.496275637457074 33.681900890069301 0 33.681900890069301 73.025680855156679 0 0 0 0 110.53327138901932 29.205797412374523 0 29.205797412374523 25.543256488581846 0 0 0 0 88.077527693222919 11.737050817087948 0 11.737050817087948 33.20382416916982 0 0 0 0 206.53386351553559 63.845063530116931 0 63.845063530116931 41.423444880630996 0 0 0 0 92.416846801414067 120.47708850712479 0 120.47708850712479 281.9878897230883 0 0 0 0 85.568968963460975 375.99943207341312 0 375.99943207341312 797.12059095354198 0 0 0 0 36.505071672498161 64.876374593208311 0 64.876374593208311 311.43500574837708 0 0 0 0 -107.37306306606024 -490.28202556093311 0 -490.28202556093311 1563.4974654385878 0 0 0 0 590.97653057282355 98.830732297737995 0 98.830732297737995 361.12706625493956 0 0 0 0 2.1802998890230896 5.1979925379989069 0 5.1979925379989069 11.164363622685613 0 0 0 0 -107.9468519262565 -510.64965681306057 0 -510.64965681306057 1788.469186990922 0 0 0 0 333.5795198444489 282.67584736336357 0 282.67584736336357 47.993742286119414 0 0 0 0 38.050830952180149 -45.467315124667948 0 -45.467315124667948 69.8474457724883 0 0 0 0 -127.4142778831731 139.40480816989657 0 139.40480816989657 382.67942556438356 0 0 0 0 7.9889971231886427 14.257107161270213 0 14.257107161270213 22.813582938658442 0 0 0 0 -48.057879472767809 77.72562607738837 0 77.72562607738837 24.843467261023761 0 0 0 0 -17.767314578436071 -6.0295026267740468 0 -6.0295026267740468 55.14896927987138 0 0 0 0 33.565774818295949 13.493243296993569 0 13.493243296993569 55.685624880643445 0 0 0 0 35.834384988438615 23.351919481498044 0 23.351919481498044 62.915178133171139 0 0 0 0 -41.755339397815078 44.413478473557916 0 44.413478473557916 52.375582363521744 0 0 0 0 144.18241870522343 -157.65108915272504 0 -157.65108915272504 130.62865592396429 0 0 0 0 11.603487526544589 18.366608929378785 0 18.366608929378785 27.192796853439859 0 0 0 0 14.628041961211466 43.77055232784187 0 43.77055232784187 28.004005844039057 0 0 0 0 231.35981499149057 -106.03923427598056 0 -106.03923427598056 182.93378512874915 0 0 0 0 -12.582229241211962 82.632032517840344 0 82.632032517840344 61.918320433549525 0 0 0 0 59.75153704305427 -135.3108990743649 0 -135.3108990743649 327.56103664970578 0 0 0 0 75.477825402953385 -193.58728528963911 0 -193.58728528963911 377.71378538475983 0 0 0 0 164.10501780072218 -161.13004802295745 0 -161.13004802295745 310.84258832814521 0 0 0 0 85.941383878429917 -171.79010381475382 0 -171.79010381475382 338.91259253303724 0 0 0 0 66.279615994544429 -261.12788135964001 0 -261.12788135964001 620.97595675188495 0 0 0 0 -3.1555135693406555 8.2542810879313038 0 8.2542810879313038 560.22540011968522 0 0 0 0 97.863465446951523 -141.62185127475823 0 -141.62185127475823 321.61243865139113 0 0 0 0 -19.223643661289316 52.125689838234393 0 52.125689838234393 489.29922842262386 0 0 0 0 317.82131017191523 -288.10116899980494 0 -288.10116899980494 172.56106742075644 0 0 0 0 99.792063354600486 -150.33552272828456 0 -150.33552272828456 410.00508991616516 0 0 0 0 -80.136611514192282 -38.512118407765229 0 -38.512118407765229 1336.1136748748577 0 0 0 0 365.57135235713145 -543.03390443318858 0 -543.03390443318858 836.75641370122321 0 0 0 0 110.20405151534999 245.10662789609796 0 245.10662789609796 357.94833932432812 0 0 0 0 59.145078231765638 369.38520802236599 0 369.38520802236599 833.18083889883565 0 0 0 0 -39.717905494450974 -13.545595280191264 0 -13.545595280191264 698.10056876434828 0 0 0 0 13.866682908000257 136.83247829984612 0 136.83247829984612 743.37548301692368 0 0 0 0 112.74861980350079 208.99991235426478 0 208.99991235426478 523.04581789860094 0 0 0 0 103.31364233785149 132.40605146764619 0 132.40605146764619 445.17255188184208 0 0 0 0 138.62522510171402 112.79220397637255 0 112.79220397637255 458.01928084261453 0 0 0 0 68.565759249970142 132.05930345771776 0 132.05930345771776 476.85281503407168 0 0 0 0 62.245333737431793 31.993443624756765 0 31.993443624756765 276.02390113576257 0 0 0 0 -7.1040966694909002 -7.0831184520357056 0 -7.0831184520357056 275.38882941919292 0 0 0 0 94.661920073811416 72.923695333491196 0 72.923695333491196 239.26538058271763 0 0 0 0 -39.16225130462044 -18.441813693567383 0 -18.441813693567383 286.62138287948619 0 0 0 0 57.628984736243638 145.64770811383642 0 145.64770811383642 442.36177609507286 0 0 0 0 -34.391176584185359 64.341014926381831 0 64.341014926381831 559.87651549057773 0 0 0 0 -21.838783467163012 43.82803367267843 0 43.82803367267843 500.94173997145117 0 0 0 0 -21.062027211457007 30.602374613165011 0 30.602374613165011 630.82873868291063 0 0 0 0 -2.6170912796422954 72.963468267298595 0 72.963468267298595 553.79112381120649 0 0 0 0 8.9587627986402367 87.652526628051419 0 87.652526628051419 555.66683617372473 0 0 0 0 106.47998328120889 43.86645062853313 0 43.86645062853313 490.41397969156969 0 0 0 0 -28.332278675057296 44.26968514334294 0 44.26968514334294 568.70714281335859 0 0 0 0 -17.627663813688741 38.145646779661547 0 38.145646779661547 470.49589059102436 0 0 0 0 9.285909352682733 5.0222306832575043 0 5.0222306832575043 1.6692401830492045 0 0 0 0 -0.23726269708822656 18.946684255126456 0 18.946684255126456 -0.62671473478258122 0 0 0 0 60.879813893027404 107.01643755236364 0 107.01643755236364 334.50747540922748 0 0 0 0 25.404034070328635 141.14365792281751 0 141.14365792281751 512.03186115956305 0 0 0 0 -10.092900924599689 19.102531562291915 0 19.102531562291915 5.9051697168833925 0 0 0 0 -1.2014841023105074 3.6686252014129614 0 3.6686252014129614 12.060377470653719 0 0 0 0 -3.475338168662347 28.165960996426293 0 28.165960996426293 15.815445697659015 0 0 0 0 5.7176642853319208 23.358298971928889 0 23.358298971928889 1.9636127373596537 0 0 0 0 11.174814994514236 10.788176486297743 0 10.788176486297743 -18.086727742484072 0 0 0 0 2.5190058140542533 24.259477623822022 0 24.259477623822022 1.7125803903036285 0 0 0 0 82.992200575514289 -22.604583993870619 0 -22.604583993870619 17.584309921585373 0 0 0 0 14.045621967078205 -9.4346513710697764 0 -9.4346513710697764 108.42769963132014 0 0 0 0 14.279820226401586 -40.035259299735173 0 -40.035259299735173 90.461727344823885 0 0 0 0 -26.386154788659724 53.375155243422341 0 53.375155243422341 87.496568897317047 0 0 0 0 55.54572546819054 -22.22008183619073 0 -22.22008183619073 107.57243125583045 0 0 0 0 39.758039885236258 5.9880658801193931 0 5.9880658801193931 304.88373237065389 0 0 0 0 90.05862682201041 -62.355972154393385 0 -62.355972154393385 56.557732214409043 0 0 0 0 2.2838462847292966 0.97884930013858629 0 0.97884930013858629 1.3612045599898579 0 0 0 0 135.50890580501277 -59.062252628942588 0 -59.062252628942588 38.319954057908035 0 0 0 0 38.277270502460851 -78.686480049749662 0 -78.686480049749662 374.60914438249529 0 0 0 0 72.285786491904219 -2.0410542594472645 0 -2.0410542594472645 -5.2543786621426989 0 0 0 0 -0.58208724251901955 2.7460593713650781 0 2.7460593713650781 2.798029009572069 0 0 0 0 41.394737459339012 0.1307586885013734 0 0.1307586885013734 45.735849052985941 0 0 0 0 31.969125063363208 10.54362474494701 0 10.54362474494701 20.498257962492062 0 0 0 0 18.703724154921474 -1.0476127654546872 0 -1.0476127654546872 14.078971493436256 0 0 0 0 25.213890158919412 -14.893387975174846 0 -14.893387975174846 9.3984508895227918 0 0 0 0 15.012007613375488 -49.712116517030154 0 -49.712116517030154 4.6447450686100638 0 0 0 0 44.033436785153071 -27.870284707846622 0 -27.870284707846622 18.310055866910261 0 0 0 0 -23.221898529914597 -16.021365199432694 0 -16.021365199432694 10.519096097486909 0 0 0 0 -65.446901243447201 -40.097428358385514 0 -40.097428358385514 10.297276763601985 0 0 0 0 -33.00904185731406 7.3382498975770432 0 7.3382498975770432 46.353540616935788 0 0 0 0 -29.967138038565963 7.5106242539304731 0 7.5106242539304731 -55.698554261674872 0 0 0 0 -180.27343919109489 140.7222448025932 0 140.7222448025932 98.929533254438866 0 0 0 0 231.90732097089972 -63.986993016842462 0 -63.986993016842462 163.26570447931863 0 0 0 0 -89.027828592358787 10.53598363873607 0 10.53598363873607 18.878526972497639 0 0 0 0 -0.87762648534051757 2.7132616964078622 0 2.7132616964078622 12.174207274831645 0 0 0 0 72.609827031937698 -162.84534809807883 0 -162.84534809807883 192.24242229283118 0 0 0 0 61.884788620577638 -112.01862919961059 0 -112.01862919961059 185.7738102161311 0 0 0 0 4.4474433655852694 8.838989976891007 0 8.838989976891007 13.582115702159413 0 0 0 0 93.808300429812817 -156.73457939969796 0 -156.73457939969796 150.37859027428203 0 0 0 0 215.48652637311443 -309.42694568265506 0 -309.42694568265506 175.20011271482281 0 0 0 0 88.597656271503411 -286.59449279514865 0 -286.59449279514865 421.97953804286954 0 0 0 0 111.13506189318741 -349.08172435641791 0 -349.08172435641791 379.33942426500289 0 0 0 0 52.49168772565713 -290.32539864352202 0 -290.32539864352202 1062.4405509769276 0 0 0 0 -14.493046945189235 -74.525022048730534 0 -74.525022048730534 445.72494732932682 0 0 0 0 665.36710255326307 -396.50695170852487 0 -396.50695170852487 430.43799373617685 0 0 0 0 692.89570431587549 168.00476333306142 0 168.00476333306142 834.99128848053806 0 0 0 0 -80.586691623994966 -138.75699653111224 0 -138.75699653111224 1869.6203197237774 0 0 0 0 -52.69229660990959 -490.01752384689462 0 -490.01752384689462 1237.14495238362 0 0 0 0 2.1277384012625209 5.4014124040308928 0 5.4014124040308928 9.8303681084737491 0 0 0 0 -57.615757975680935 -466.86755357171205 0 -466.86755357171205 1568.9658962347712 0 0 0 0 373.78130423265361 436.31209659760498 0 436.31209659760498 259.80125351346214 0 0 0 0 -0.98825716824774812 0.31003654954844251 0 0.31003654954844251 4.868352883944965 0 0 0 0 0.34863019287672614 -685.95048241789846 0 -685.95048241789846 98.422276470286306 0 0 0 0 -154.30447946904223 32.203225896977528 0 32.203225896977528 289.45476978720399 0 0 0 0 347.17519945465739 168.55027326973232 0 168.55027326973232 51.140240395499859 0 0 0 0 5.8443590724164451 10.91011253110787 0 10.91011253110787 16.021845931377783 0 0 0 0 612.46940710373974 -306.59995654437444 0 -306.59995654437444 7.1898152706344263 0 0 0 0 
</DataArray>
<DataArray type="Float64" Name="cross_section_updated" format="ascii">
1 1 1 0.011664232014225655 1 1 1 1 0.012125740298130606 1 1 0.013785827429549195 1 1 1 1 1 1 1 1 1 1 1 1 1 1 1 1 1 1 1 1 1 1 1 0.012547039477612806 1 1 1 1 1 1 1 1 1 1 1 1 1 1 1 1 1 1 1 1 1 1 0.0097893219104991849 1 1 1 1 1 1 1 1 1 0.009703212997662896 1 1 1 0.0078252573159152423 0.0091487690178960242 1 1 0.0091247782737161817 1 1 0.0085303282592693961 1 1 1 0.016617842147141376 1 0.017301500067223398 0.0098550163775590702 1 1 1 1 0.0099007287748171455 1 1 1 1 1 1 1 1 0.016333530681162479 1 1 1 1 1 1 1 0.019533301674920629 1 1 1 0.0094295524913645505 1 1 0.016861162806559932 1 1 0.012647507047100428 1 1 1 1 1 1 1 1 1 0.010259884204216111 1 1 1 1 1 1 1 1 1 1 1 1 1 1 0.010259078604633673 1 1 1 1 1 1 1 1 1 1 1 1 1 1 1 1 1 1 1 1 1 1 1 0.010727530929699573 1 1 0.0099771777890253887 1 1 1 1 1 1 1 1 1 1 1 1 1 1 1 1 1 1 1 1 1 1 1 1 1 1 1 1 1 1 1 1 1 1 1 1 1 1 1 1 1 1 1 1 1 0.010768790340453844 1 1 1 1 1 1 1 1 1 1 0.0082518018268272226 1 1 0.0098993827448032104 1 1 0.011341325837031874 1 1 0.010978056389068808 1 1 1 0.0082180330442986008 0.0081558264423046527 1 1 0.014868371240755978 1 0.0070956064488249572 1 1 1 1 0.012585101307822812 1 0.009804881446333652 1 1 0.010853157973438341 1 0.0095563711602562572 1 1 1 1 1 1 1 0.012390462311881525 1 1 1 1 0.0092086644334123148 0.010006719376553626 1 1 1 0.010693339217172561 1 1 1 1 1 0.0098436036586790586 0.015918204183668457 1 1 0.0099934218071479307 1 1 1 1 0.0081281102135045934 1 1 1 1 0.017413645715390363 1 1 1 1 1 0.017552878482908908 1 1 0.0079475302239242866 1 1 1 0.0098967761684529629 1 1 1 1 1 1 1 1 1 1 1 1 1 1 1 1 1 1 1 1 1 1 1 1 1 1 1 1 1 1 1 1 1 1 1 1 1 1 1 1 1 1 1 1 1 1 1 1 1 1 1 1 1 1 1 1 1 1 1 1 1 1 1 0.011978266943961466 1 1 1 0.010854094045371812 1 1 1 1 1 1 1 1 1 1 0.011044905182675237 1 1 1 1 1 1 1 1 1 1 1 1 1 1 1 1 1 0.013072558393595893 1 1 1 1 1 1 1 1 1 1 1 1 1 1 0.0098794996090030406 1 1 1 0.010150437829514872 1 1 1 1 1 1 1 1 1 1 1 1 1 1 1 1 0.009908310047103892 1 1 1 0.016103981230625855 1 1 0.010762416542206471 1 1 1 1 1 1 1 1 1 1 1 0.0099354831840241433 1 1 1 1 0.0090255400507904381 1 1 1 1 1 0.0099366435646827782 1 1 1 1 0.0099778885947483641 1 1 1 1 1 1 1 1 1 1 1 1 1 1 1 1 1 1 1 1 1 1 1 1 1 1 1 1 1 1 1 1 1 1 1 1 1 1 0.010069468955803261 1 0.010069648230248335 1 1 1 1 1 1 1 1 1 1 1 1 1 1 0.010434292167243845 1 1 1 1 1 1 0.010121898710846131 1 1 1 1 1 1 1 0.010220888128750478 1 1 1 1 1 1 1 1 1 1 1 1 1 1 1 1 0.011358740887134178 1 1 1 1 1 1 0.010697047255498192 1 1 1 1 1 1 1 1 1 1 1 1 1 1 1 1 1 0.01009872959327943 1 1 1 0.011161101561971355 1 1 1 1 1 1 1 1 1 1 1 1 1 1 1 1 1 1 1 1 1 1 1 1 1 1 1 1 1 1 1 1 1 1 1 1 1 1 1 1 1 1 1 1 1 1 1 1 1 1 1 1 1 1 1 1 1 0.011057273561548814 1 0.0099111786210885899 1 0.013003425133468034 0.0091996437974617273 1 1 1 1 1 1 1 1 1 1 0.0094350830694584099 1 1 0.011846986837766575 0.012578795002974125 1 1 1 1 0.0090918336736312104 1 1 0.0097825360115310084 1 1 1 1 1 1 1 1 1 1 0.013755977029499709 0.0089533652719715959 1 0.009699515952682803 1 0.011545311639799324 1 1 1 1 1 1 1 1 0.0099668666697468929 0.010829554294304655 0.0098734105777477325 1 1 1 1 1 1 1 1 1 1 1 1 1 1 1 1 1 1 1 1 1 1 1 1 1 1 1 1 1 1 1 1 1 1 1 1 1 1 1 1 0.012198621105500962 1 1 1 1 1 1 1 1 1 0.0098583496858129314 1 1 1 0.010814985443482319 1 0.015329975465249765 1 1 1 1 0.013033840702646848 1 1 1 1 0.010956054655738883 1 1 1 1 1 1 1 0.012820079310730835 0.01142584566244546 1 1 1 0.010695092584941571 1 1 1 1 0.010722639836103533 1 1 1 1 1 1 0.0091366187355869603 1 1 1 1 1 0.012827689799922423 1 1 1 1 1 1 1 1 1 1 1 1 0.0099796645306715562 1 1 1 1 0.009899147139597381 1 1 1 1 1 1 1 1 1 1 0.0098047406223455511 1 1 1 1 1 1 1 1 1 1 1 1 1 1 1 1 1 1 1 0.013435144594784501 1 1 1 0.011272599606855456 1 1 1 1 1 1 0.010699666442571329 1 1 0.0098751412267310944 1 1 1 1 1 1 1 1 1 1 1 1 0.011835882417241983 0.013446920068331059 1 1 1 1 1 1 0.011352682547916344 1 1 1 1 1 1 1 1 1 1 1 1 1 1 1 1 0.012951473135722306 1 1 1 1 1 1 1 1 1 1 1 1 1 0.011140013619197267 1 1 0.010245117165236389 1 1 1 0.010717069984935676 1 1 1 1 1 1 0.0096492865392723368 1 1 1 1 1 1 1 1 0.010471952819699298 1 1 1 1 1 1 0.010623665436107634 1 1 1 1 1 1 1 1 1 1 1 1 1 1 1 0.010334327430249306 1 1 1 1 1 1 1 1 1 1 1 1 1 1 1 1 1 1 1 1 1 1 1 1 1 1 1 0.012801888217164339 1 0.010819855645282702 1 0.012272610024239163 0.010001914063070279 1 1 1 1 1 1 1 1 1 1 1 1 0.010048897392115209 1 0.010011139899138065 1 0.014094528300596376 0.012721730616486871 1 0.010011885404599477 0.013822016355523423 1 1 1 1 0.013055230991219531 0.012400386220638855 1 0.01001668804671952 0.014518565047263544 1 1 0.011836565477118992 1 1 0.01448640175825789 1 1 1 1 1 1 1 1 0.011259414280898978 1 1 0.010719731362387214 1 1 1 1 0.013520359179347179 1 1 1 1 0.010021554062312832 1 0.009999162704470814 1 1 1 1 1 0.0099839279532887987 1 1 1 1 1 1 0.012971286086583364 1 1 0.0099924542664379355 1 1 1 1 1 1 1 1 1 0.010008499678164688 1 1 0.011281714542514511 1 1 1 1 0.012729149372987261 1 1 0.011097167715236105 1 1 1 1 1 1 1 1 1 1 1 1 1 1 1 1 1 0.010228913989459774 1 1 1 0.0099407125707844397 1 1 1 1 1 1 0.0098666605603000262 1 1 1 0.0098945423624585728 1 1 1 1 1 1 1 1 1 1 1 1 1 1 1 1 1 0.0099016037606053028 1 1 1 1 0.010629320957139459 1 1 0.010296502785927069 1 1 1 1 1 0.0096882993698532861 1 1 1 1 1 0.0078728079911898584 1 1 0.010146953536530256 0.0076765909894508585 1 1 1 1 1 1 1 0.010389038135224692 1 1 1 1 1 1 1 0.010165907403065607 1 1 1 1 1 1 1 1 1 1 1 1 1 1 1 1 1 1 1 1 1 1 0.010005135855311617 0.010631512629309083 1 1 1 1 0.0099838707315770027 1 1 1 1 1 1 1 1 1 1 1 1 0.011421411925880942 1 0.011242069823326768 1 1 1 1 1 1 1 1 0.01086422307896728 1 1 1 1 0.0096123014011052638 1 1 1 1 1 1 0.0088638073198041289 1 1 1 1 0.014787893958051334 1 0.016774742005840462 1 1 1 1 0.0090349831693534843 1 1 1 0.010014166235833654 1 1 1 1 1 1 1 1 1 0.014079099185489675 1 1 1 1 0.010327121433311926 1 1 1 0.010048903050617885 1 1 1 0.0099862063753384592 1 0.012934793963662258 1 1 1 1 1 1 1 1 1 1 1 0.010767483991338936 0.010259771542313454 1 1 1 1 1 0.011188873120707578 1 1 1 1 1 1 1 1 1 1 1 1 1 1 1 1 0.0094341165609129959 1 1 1 1 0.0096245064739156148 1 1 1 1 1 1 1 1 1 0.010078895992507933 1 1 1 1 1 1 1 0.010286516702261392 1 1 1 1 1 1 1 1 0.010009107289875281 1 0.014912749211234241 0.010490124124931163 1 1 1 1 1 1 1 1 1 1 1 1 1 1 1 1 1 1 1 1 1 0.010894003130971438 1 1 1 1 1 1 1 1 1 1 0.0143321470466888 1 1 0.013356092838795504 1 1 1 0.01508886168721665 1 1 1 1 1 0.010668871912849293 0.010600662843015574 1 1 0.010318256533634078 1 1 1 1 1 0.011044155317477057 1 1 1 0.013146812458115002 0.011007294984496482 1 1 1 0.0088692433793613919 1 1 0.012566394250842605 0.010090694772479274 1 1 1 1 1 1 1 1 1 1 1 1 1 1 1 0.010108095429532908 1 1 1 1 1 0.01016897716815148 1 1 1 1 0.01004435213173081 1 1 1 1 1 1 0.0086612429939400826 1 1 1 0.011010840376831933 1 1 0.010017148803796271 0.0099784608857940715 1 1 1 1 1 1 1 1 0.010034955395753997 1 1 1 1 1 1 0.013731009386759269 1 1 1 1 1 1 1 1 1 1 1 1 1 1 1 1 1 1 1 1 1 1 1 1 1 1 1 1 1 1 1 1 1 1 0.010732621767416265 1 1 0.012548093198837526 1 1 1 1 1 1 1 1 1 1 1 1 1 1 1 1 0.014453920392194008 1 1 1 1 1 1 1 1 1 1 0.011040593384697489 1 1 1 1 1 0.010337552107159821 1 1 1 1 1 0.010031685047452528 1 1 0.010419197418712561 1 1 0.010099957410461709 1 1 0.01166501942049109 1 1 0.0096890119536700379 1 1 1 1 1 1 1 1 1 1 1 1 1 1 1 1 1 1 0.0098167362373699843 1 1 1 1 1 1 1 1 1 0.010198642657183975 1 1 1 1 1 0.01234352993026705 0.010949145428363775 1 1 1 1 1 1 1 1 1 1 1 1 1 1 1 0.011016560614124846 1 1 1 1 1 1 1 1 1 1 1 1 1 0.0098513440001200357 1 1 1 1 1 1 0.011153845863474041 1 1 1 1 0.010620004873219041 1 1 1 0.010631223649735863 1 1 1 1 1 0.010670045414667154 1 1 1 1 1 1 1 1 1 1 1 1 1 1 1 1 1 1 1 1 1 1 0.013194721769369193 1 1 1 1 0.012351595363104704 1 1 1 1 1 1 1 1 1 0.010861046589424935 1 1 1 1 1 1 1 1 1 1 0.010345654881539783 1 1 1 1 1 0.012250376315972419 1 1 1 1 1 1 1 1 0.010983570392446518 1 1 0.010817652711603737 1 1 1 1 1 1 0.0099755840186542214 1 1 1 1 1 1 1 1 1 1 0.010740527192087023 0.010046335104618295 1 1 1 0.010420575169741368 1 0.010780559986308426 1 1 0.009921359957484055 1 1 1 1 1 0.011502520604381831 1 0.010015181606362642 1 1 0.0099871460242440466 0.011008204379148623 0.0095247483449164942 1 0.0099976005963749795 1 1 1 0.0088773865853287968 1 1 0.020773747199319261 1 0.010598710573714349 1 1 1 0.014104651459619312 1 0.0090061092138360322 1 1 1 1 0.010959197810874503 1 1 1 0.009958701090474413 1 1 0.010007398176976339 0.0084811226387600282 0.011844088547155362 1 0.009457896383813634 1 0.010959185587438219 0.0090852263161637133 1 1 1 1 0.010586813844464594 1 1 1 1 1 1 1 1 0.0090261336156346409 1 0.010773499684976044 1 1 1 1 1 1 1 1 1 1 1 1 1 1 0.015948771466195642 1 0.020236807149440587 1 1 1 1 1 1 1 1 1 0.02900261214622471 1 1 0.0087057673372051836 1 1 1 1 1 1 1 0.019446774818572904 1 1 0.009981900772540811 1 0.0076588808127736191 1 0.028460765893464465 1 0.01020889998395897 1 1 1 1 0.0096474946583692458 1 0.0086487056751420738 1 1 1 1 1 1 1 1 1 1 1 1 1 1 1 1 1 1 1 1 1 1 1 1 1 1 1 1 1 0.010020315130468652 1 1 1 1 1 1 1 1 1 1 1 0.026810994181063617 1 1 0.010464841211824253 1 1 1 0.013949733669274067 1 1 1 1 0.024664311171857349 0.016155295192940851 1 1 0.014599291441739338 1 1 1 1 1 1 0.0098481530020517773 1 1 1 1 1 1 1 0.009481768167975111 1 1 1 1 1 1 1 0.0099896334557623839 1 1 1 0.0099065301948973762 1 1 1 1 1 1 0.0089923465623673801 1 1 1 1 0.033131168899926199 1 1 1 0.031011894429391056 1 1 1 1 1 1 1 1 1 1 1 1 1 1 1 1 1 1 1 1 1 1 1 0.011549869877003611 1 1 1 1 1 0.028194181031315973 1 1 1 1 1 1 1 1 1 1 1 1 1 1 1 1 1 1 1 1 1 1 1 1 1 1 1 1 1 1 1 1 1 1 1 1 1 1 1 1 1 1 1 1 1 1 1 1 0.011340503845508535 1 1 1 0.011898781366356324 1 1 1 1 0.0096790541768807924 1 1 1 1 0.014797480318790265 1 1 1 1 1 1 1 1 1 1 0.0091095126637204243 1 1 1 0.016798648375425315 1 0.010044303946030644 1 1 1 1 1 1 1 1 1 1 1 1 1 1 1 0.0088610462471214492 1 1 0.0079640286590013445 0.011647586893869096 1 1 1 1 1 0.012227018982044806 1 1 0.010146928863464117 1 1 1 1 1 1 1 1 1 1 1 1 1 1 1 1 1 1 1 1 1 1 1 1 1 1 1 1 1 1 1 1 1 1 1 1 1 1 1 1 1 0.01374225765918115 1 1 1 1 1 1 1 1 1 1 1 1 1 1 1 1 1 1 1 1 1 1 1 1 1 1 1 1 1 1 1 1 1 1 1 0.0099855778047175849 1 1 1 1 1 1 1 1 1 1 1 0.009958389963147591 1 1 1 0.0097444403127042948 1 0.01030046898649466 0.011219702980176513 0.0093155499002659653 0.010306604778754539 1 1 1 1 1 1 1 1 1 1 0.0094724315373434127 1 1 1 0.0082617896297661822 1 1 1 1 1 1 1 1 1 1 1 1 1 1 1 0.0094963761086993091 1 0.01084945444007936 1 1 0.011201730594430869 1 1 0.012197663528546785 1 0.010075973213251902 0.017850554557125128 1 1 0.0066439901548259244 1 1 1 1 1 1 1 1 1 1 1 1 1 1 1 0.015387730468752334 1 1 1 1 1 1 1 0.011999406277309475 1 1 1 1 1 1 1 0.0085001369736049902 1 1 1 1 0.010235443521591288 0.0099269097335970679 1 1 1 1 1 1 1 1 1 1 1 1 1 1 1 1 1 1 1 0.013881860508420898 1 1 1 1 1 1 1 1 1 0.011689472726243358 1 1 1 1 1 1 0.0096451645996677576 1 1 1 1 1 1 1 1 1 1 1 1 1 1 1 1 1 1 1 1 1 1 1 1 1 1 1 1 1 1 1 1 0.010014962692354372 1 1 1 1 0.010015011600158384 1 1 1 1 1 1 1 1 1 1 1 1 1 1 1 1 1 1 1 1 1 1 1 1 1 1 1 1 1 1 1 1 1 1 1 0.012751846802275745 1 1 1 1 0.011162130611436932 1 1 1 1 1 1 1 0.010452859706938971 1 1 1 1 1 1 1 1 1 1 1 1 1 1 1 1 1 0.024978691315038756 1 1 1 1 1 1 1 1 1 1 1 1 1 1 1 1 1 1 1 1 1 1 1 0.016705818168497782 1 0.0087701952537130156 1 1 1 1 1 1 1 1 0.020127324251206464 1 0.012025332557761743 1 1 1 0.013462274206495071 1 1 1 1 1 1 1 0.0090528994069281818 1 1 0.017017749804011197 1 1 1 0.013052609110571696 1 1 1 1 1 1 1 1 1 1 1 1 1 1 1 1 1 1 0.012092213441241485 1 1 1 1 1 1 1 1 1 1 1 1 1 0.013903312785549453 1 1 1 1 1 1 1 1 1 1 1 1 1 1 1 1 1 1 1 1 1 0.01243569992627871 1 1 0.010675103560796749 1 1 1 1 1 1 1 1 0.012819737349564748 1 0.0086841918084870524 0.010715874852343493 1 1 1 1 1 1 1 1 0.0082755609066885727 1 1 1 1 1 1 1 1 1 1 0.011377340455720043 1 1 0.011119911196524786 1 0.011830636467623907 1 0.010225061848223868 1 0.013547148706458146 0.010746396066057411 1 1 0.012445474863647634 0.011655098369597473 1 1 1 1 1 1 1 1 1 0.0099199135155318384 1 1 1 1 0.0096585196647952683 1 1 1 1 1 1 0.010007479838266171 1 1 0.0093253248269719556 1 0.0092650583795621279 1 1 0.010963222582864767 1 0.010810886157069124 1 0.010731581626747436 1 1 0.011760173580790102 1 0.012323737894085182 1 1 1 1 1 0.010993213557215395 0.0095354756665385048 1 0.01035106101860888 1 1 1 1 0.010622628204111945 1 1 1 1 1 1 1 0.010469575146789143 1 1 1 0.012081452192798671 1 1 1 0.0099529009780889924 1 1 1 1 1 1 1 1 1 0.0099102992354086952 1 1 0.012056047358653023 0.012225626886654658 1 1 1 1 1 1 1 0.010955321969957127 1 1 1 1 1 1 1 1 1 1 1 1 1 1 1 1 1 1 1 1 1 1 1 1 1 1 1 1 1 1 1 1 1 1 1 1 1 1 1 1 1 1 1 1 1 1 1 1 1 1 1 1 1 1 1 1 1 1 1 1 1 1 1 1 1 1 1 1 1 1 0.012731776036220251 1 1 0.012051121458720166 1 1 1 1 1 0.010890535015839864 1 1 1 1 1 1 1 1 1 1 1 1 1 1 1 1 1 1 1 1 1 1 1 1 1 1 1 1 1 1 1 1 1 1 1 1 1 1 1 1 1 0.011219168358287745 1 0.011215423416567265 1 1 1 0.013223697615537303 1 1 1 1 1 1 0.0099908926754674575 1 0.0098867516075040809 1 1 1 1 1 1 1 1 1 1 1 0.012121719591244693 1 1 1 1 1 1 1 1 1 1 1 1 1 1 1 1 1 0.016674359433855385 1 1 1 1 1 1 1 1 1 1 0.010158807983331422 1 0.018598451763301379 1 1 1 1 1 1 1 1 1 1 1 1 1 1 1 1 0.019310687782846968 1 1 1 1 1 1 1 1 1 1 1 1 1 1 1 1 1 1 1 1 1 0.0086531075538888117 1 1 1 1 1 0.020408614460203554 1 1 1 0.0096509791285556683 1 1 0.013892117405524124 1 1 1 1 1 0.015359692364580223 1 1 1 1 1 1 0.011404757170820116 1 1 1 1 1 1 1 0.020712562418433184 0.010025064820251246 1 1 1 1 1 1 1 1 0.010762255693116209 1 1 1 1 1 1 1 1 1 1 1 0.0098692727742529674 1 1 1 1 1 0.014545760917623218 1 0.010378646912178402 1 1 1 0.014605437201664812 1 1 1 0.00936993247396916 0.016625514035852853 1 1 1 1 0.010046259855702974 1 0.010920465337302974 1 1 1 1 0.010279811819919219 1 1 1 1 1 1 1 0.011494347946571113 1 1 1 0.0096199692224495786 1 1 1 1 1 1 1 1 1 1 1 1 1 1 1 1 1 1 1 1 1 1 0.010625819950937076 1 1 1 0.01175617742186482 1 1 0.010022920892139643 1 1 1 1 1 1 1 1 1 1 1 1 1 1 1 1 1 1 1 1 0.010109062281519841 1 1 1 0.011375472387087549 1 1 1 1 1 1 1 1 1 1 1 1 1 1 1 1 1 1 1 1 1 1 1 0.0098711510166285751 1 0.0091970378142109052 1 1 1 1 1 1 0.009751360818033742 1 1 1 1 1 1 1 1 1 1 1 1 1 1 1 1 1 1 1 1 1 1 1 1 1 1 1 1 1 0.009640235318552591 1 1 1 1 1 1 1 1 1 1 1 0.009577373933362528 1 1 1 1 0.0127943413039627 1 0.008768601233915518 1 0.01026192784491408 0.011121889060824364 1 1 1 1 1 1 1 1 1 1 1 1 1 1 1 1 1 1 1 1 1 1 1 1 1 1 1 1 1 1 1 1 1 0.010779662115685297 1 1 0.012143462185147204 1 1 0.010130383527271143 1 1 0.010370778365382388 0.013537471972332751 0.0099970304439967444 1 1 0.011165374867609462 1 1 0.015087986805194666 1 0.0099046512123193674 1 1 1 1 0.010248910365403173 1 1 1 1 0.0098155312225854576 1 1 1 1 1 0.010096272932867557 1 1 1 1 1 1 1 0.010186272388069736 0.010186816772851687 1 1 1 1 1 1 1 1 1 1 1 0.012038434125547968 1 1 1 1 1 0.014453644449901916 1 1 1 1 1 1 0.010149425807878996 1 1 1 1 1 1 0.010736771784434579 1 1 1 1 1 1 1 1 1 1 1 1 0.011997086920445941 1 1 1 1 1 1 0.014690015292500573 1 1 0.011089666774117221 1 0.010020490518203508 1 1 1 0.01112894375915314 1 1 0.010017882236624752 1 1 1 1 1 0.01092465651001254 1 1 1 1 1 1 1 1 1 1 0.01142078703601237 1 1 1 1 1 1 0.011140776090799658 1 1 1 1 1 1 1 1 1 1 1 1 1 1 1 1 1 1 0.011827753344417678 1 1 1 1 1 1 1 1 0.022137365025299054 1 1 1 1 1 1 1 1 0.024216740864959643 1 1 1 1 0.010149122467612222 0.0099943293617295939 1 1 1 1 1 1 1 0.0098411980093709231 1 0.0087602025902911908 1 1 1 1 1 0.0088634471610374022 1 0.018290814712429923 0.0099907559016304236 1 1 1 0.013626526918540388 1 0.011997992084504638 0.010573258445710472 1 1 1 0.01051962524967053 1 0.010175604807893042 1 1 1 1 1 1 1 1 0.011370421809685186 1 1 0.010029753413041263 1 1 0.012884672495127706 0.010204832386862777 1 1 0.013423900187306338 1 0.010618988980341781 0.0099995427949933768 1 0.012901597261078146 1 0.011096912753808632 1 1 0.010164146568907793 0.011268042871615785 0.011260856219273998 1 1 1 0.011132793729984748 1 1 0.0097818565734195794 1 1 1 1 1 1 1 0.011726107501341565 1 1 1 0.014528555342937096 0.010843835431927719 1 0.011230335921136319 1 1 1 1 1 1 1 1 1 1 0.013399510055636941 1 1 0.010064715019069356 1 1 0.012708984776489336 1 1 1 0.0097679353876563742 0.012820736639380449 0.01141569959830489 1 1 0.010548952663109134 1 0.010701601327357115 1 1 1 1 1 1 1 1 0.010728186605493763 1 1 1 1 1 1 1 1 1 1 1 1 1 1 1 1 0.01116195812141201 1 1 1 1 1 1 1 0.011543890391413026 1 1 1 1 0.013025740607398431 1 1 0.010856834495894144 1 1 0.010480009239839664 0.010922449085706552 1 1 1 1 1 1 1 1 1 0.010257486066044257 1 0.010602710037780679 1 0.011617822639643484 1 0.010521080950624364 0.0099936128571907652 1 0.010334943011364003 1 1 1 0.011138538721493963 1 1 1 1 1 1 0.010903844495950589 1 1 1 1 1 1 1 1 1 1 0.010772696603650803 0.010513678611711395 1 1 1 1 1 1 1 1 1 1 0.010059441229516958 1 1 1 1 1 1 1 1 1 1 1 1 1 1 1 1 1 1 1 1 0.010188459123532825 1 1 1 1 1 0.010409530780511673 1 1 1 1 1 1 1 1 1 1 1 1 1 1 1 1 1 1 1 1 0.011175194957588805 1 1 1 1 0.012192655627954961 1 1 0.016543133390560592 1 1 0.010030160165922798 0.01011281201857085 1 0.013255820459605638 1 1 0.0097922534574824277 1 1 1 1 1 1 1 1 1 1 1 1 1 1 1 1 1 1 1 1 1 1 1 1 1 1 1 1 1 1 1 1 1 1 1 0.0095820097337164997 1 1 1 1 0.0099373964217601262 1 1 1 1 1 1 0.013982728475719543 0.014286647257566709 1 1 1 0.01491640157771734 1 0.015096710437041307 1 0.010002664632701688 1 1 1 1 1 1 1 1 1 1 1 1 1 1 0.014751772981400889 1 1 1 1 0.0098115771094191666 1 1 0.014344279642171463 0.018866660936952905 1 1 1 0.014606685078212058 1 1 1 1 1 0.013563509855135044 1 1 0.010089529692542266 1 1 0.0090374769048935065 1 1 1 0.010064054230649979 1 1 0.010221071656978855 1 1 1 1 1 1 1 1 0.010067361253002564 1 1 0.0099937869620997204 0.015410674871580529 1 1 0.018082127722321931 1 1 1 1 0.014719263610441425 1 1 1 1 1 1 1 1 1 1 1 1 1 1 1 1 0.012642471792310518 1 1 1 1 0.013122906284945487 1 1 1 1 1 0.010005964069882897 0.010642400489396867 1 0.01096905039683755 1 0.0096042100315551666 1 1 0.010408374827630261 1 1 1 1 1 0.013142422153519878 1 1 0.013597633105559016 1 1 1 1 1 1 1 1 1 1 0.0098944495411247592 1 1 1 0.0099910939875802497 1 1 1 1 0.010102720907013417 1 0.014032666996467427 1 1 1 1 1 1 1 0.010334846747164998 1 1 1 1 1 1 1 1 1 1 1 1 0.014036807567125402 1 1 1 1 1 1 1 1 1 1 0.010003169248838768 1 0.0093203935985869332 1 1 0.013071756906814558 1 1 1 1 0.01241282268764007 1 0.011059199379266155 1 0.010084817646910089 1 1 1 0.012045279100387911 1 0.010013603381969934 1 1 0.012874520187564699 0.0099348731990254908 1 1 1 0.010000191087807806 0.0099924020902708559 1 0.013577707576069662 1 1 1 1 1 0.013512838502980512 1 1 1 1 1 1 0.013372829779001318 1 1 1 1 0.0099629181617143757 1 1 0.0097797484058631118 1 0.012132790280632135 1 1 1 1 1 1 1 1 1 1 1 1 1 1 1 1 1 1 1 1 1 1 1 1 1 1 1 1 1 1 1 1 1 1 1 1 1 1 1 0.010312585455636965 1 1 1 1 1 1 1 1 1 0.017611153543476251 1 1 1 0.017778958693223768 1 1 1 1 1 1 1 1 1 1 1 1 1 1 1 1 1 1 1 1 1 1 1 1 1 1 1 1 1 1 1 0.0099764944862321403 1 0.010071575908712639 1 1 1 1 1 1 1 1 1 1 1 1 1 1 1 1 1 1 1 1 1 1 1 1 1 1 1 1 1 1 1 1 1 1 0.015743499187179509 1 1 0.01000542943001223 1 1 0.0099985389908656998 1 0.0091331297875754183 1 1 0.0080901929572485751 1 1 0.01173320377892758 0.011732301349706199 1 1 1 1 1 0.011366442127144528 1 1 1 1 1 0.011125433117300708 1 1 1 1 1 1 1 1 1 1 1 1 1 1 1 1 1 1 1 1 1 1 1 1 1 1 1 1 1 1 0.0098525664907111767 1 1 1 1 1 0.010001171538750488 1 1 1 1 1 1 1 0.010083693024987579 1 1 0.011093173320173877 1 1 1 0.011924403983356056 0.012236184101211082 0.011481106214439533 1 1 1 1 0.012478284454253544 0.012268929503254089 1 1 0.010000217460369751 0.010977139118587697 1 1 0.010000457027442816 1 1 1 0.01084506607124055 1 1 0.010282536955949747 1 0.012776055706424642 1 1 1 1 1 1 1 1 0.01001059100462167 0.014212728516866724 1 0.011912480546869152 1 1 1 1 1 0.010167822187779275 1 0.014082683765509569 1 0.011086557450355522 1 1 1 0.010972758202217561 0.010003062537313583 1 0.0095494875370059577 0.011843174387305469 1 1 1 1 0.010972519209511795 0.013627416596368389 1 0.0099578587127131159 1 0.013745529188876003 1 1 1 1 1 1 1 1 1 0.011555860434358779 0.01231956671481272 1 1 1 1 1 1 1 0.010621775182290329 1 1 1 1 0.010210053946880049 1 1 1 1 1 1 1 1 1 1 1 1 1 1 0.01305937769047337 1 0.012769810607303613 0.012500865235321779 1 1 1 1 0.011620661953039284 1 1 1 0.01142274013386539 1 1 1 1 0.010506652412152831 0.012554054734068364 1 1 0.0076829110003956268 1 1 0.0079994579536914329 1 1 1 1 1 0.010903717865535043 1 1 1 1 1 1 0.012007463751079689 1 0.009226375217102508 1 1 1 0.010183784843984914 1 1 1 1 1 1 1 1 1 1 1 1 1 1 1 1 1 1 1 1 1 1 1 1 1 1 1 1 1 1 1 1 1 1 1 1 0.011411252647188215 0.0099650307120699149 1 1 1 1 1 1 1 1 1 1 1 1 1 0.014570527835955638 1 1 0.012196787378424195 1 1 0.012137892828368642 1 1 0.014966617357614696 1 1 1 1 1 0.013510394820716747 1 0.014802816657334862 1 1 1 1 1 1 1 1 1 1 1 1 1 1 0.013084787461147537 1 1 1 0.012051350779792254 1 0.010674248420203657 1 1 1 1 1 1 1 1 1 1 1 1 1 1 1 1 1 1 1 1 1 1 1 0.010736991022601417 1 1 1 1 1 1 1 1 1 1 1 1 1 1 1 1 1 1 1 1 1 1 0.015603255194946307 0.011159650094219084 1 1 1 1 1 1 1 1 1 1 1 1 0.016686512338703566 1 1 1 1 1 1 1 1 1 0.012605680863014503 1 1 1 1 0.01023204386866002 1 1 0.01113305071263454 1 1 1 1 1 1 1 1 0.011080034913049356 1 0.011507600473352413 1 1 1 1 1 1 1 1 1 1 1 1 1 0.010362441261883551 1 1 1 1 1 1 1 1 1 1 1 1 1 1 1 1 1 1 1 1 0.021437446250114352 1 1 1 1 1 1 0.021723739195915848 1 1 1 1 1 1 1 1 1 1 1 1 1 1 1 1 1 1 1 1 1 1 1 1 1 1 1 1 0.010204051404555502 1 0.0097979347527289481 1 1 1 1 1 1 1 0.0093750624697128346 1 1 1 1 0.009997036139208262 0.013605345305714485 1 0.0099803995470965894 1 1 1 1 0.010004868070118807 1 1 1 1 1 1 1 1 1 0.0099632667809227016 1 0.010117948270740081 0.014087876904274895 1 1 1 1 1 1 1 1 1 1 0.010751335321325963 1 1 1 1 1 1 1 1 1 1 1 0.0100264661486026 1 0.0099540576496721066 1 1 1 1 1 1 0.011456469634082473 1 0.01062169735088744 1 1 1 1 1 1 1 1 1 1 1 0.017593975372531871 1 1 0.012515404807341894 0.011402260522061679 1 1 1 1 0.016107689760340601 1 0.013943458075469761 0.0099839558625932755 1 1 1 1 0.010009430316153265 1 0.010198540299608035 1 1 1 1 1 1 1 1 1 1 1 1 1 1 1 1 1 1 1 1 1 0.013524286548507321 1 0.011611146629895914 1 0.0086630522940813921 1 0.011480958191493678 1 1 1 1 1 1 1 1 1 1 1 1 1 1 1 1 1 1 1 1 1 1 1 1 1 1 1 1 1 1 1 1 1 1 1 1 1 1 1 1 1 1 1 1 1 1 1 1 1 1 1 1 1 1 1 1 1 1 0.0098250132443891344 1 1 1 1 1 1 1 1 0.010009588862963964 1 1 1 1 1 1 0.020263300142919757 1 1 1 1 1 1 1 1 1 1 1 0.0097434312730438326 1 1 1 1 1 1 1 0.011602310849729992 0.011412761997023638 1 1 0.0092695403236018395 1 1 1 0.0090698822894439354 0.013260130685635165 0.01762282647437639 0.020255039621709325 1 1 1 1 1 1 0.0099970924018254123 1 1 1 1 0.010000585210294656 1 1 1 0.0086434158029406669 1 1 0.0099445001016989325 0.012430066627614223 1 1 1 1 1 1 1 0.011105765290478469 1 1 1 1 1 1 1 1 1 1 1 1 1 0.010389076819936966 1 1 1 1 1 1 0.010717359044113851 1 1 1 1 1 1 1 0.013053129766376639 1 1 1 1 1 1 1 1 0.011835775576817318 1 1 1 0.010679359080828095 1 1 0.0098917839192986905 1 0.0096623991137247851 1 1 1 1 1 1 1 1 1 1 0.017163545021942048 1 0.0084062424350922187 1 0.0095042986856013582 1 1 1 1 1 1 0.0096763428282652109 1 1 1 1 1 1 0.011206101426181801 1 1 1 1 1 1 1 1 1 1 1 1 1 0.017178121961764041 0.014255983882164714 1 1 1 1 0.0100493728254663 1 1 1 0.025538457683862079 1 1 0.010187218624788203 1 1 0.023560462176169954 1 1 1 1 1 0.025614615481566808 1 1 1 1 1 0.014710580798647102 1 1 1 1 1 0.017142585311247308 1 0.0086450881283818143 1 0.0099894791528330681 1 1 1 1 1 1 1 1 1 1 0.011788314499945371 1 1 1 1 1 1 1 1 1 1 1 1 1 1 0.0097860693178769692 1 1 1 1 1 0.014382734319702731 1 1 0.0099794971378435529 1 1 1 0.016904212623794067 1 1 1 0.012846511698610667 1 1 1 1 1 1 1 1 1 1 1 1 1 1 0.013867807393171772 1 1 1 1 1 1 1 1 1 1 1 1 1 1 1 1 1 1 1 1 1 1 1 0.011176605706742601 0.012634776252887486 0.016582852073826281 1 1 1 1 0.010888525406550309 1 1 1 1 1 1 1 1 1 1 1 1 1 1 1 1 1 1 1 1 1 1 1 1 1 1 1 1 1 1 1 1 1 1 1 1 1 1 0.01069348771828132 0.012054032822604026 1 1 0.011172991294460699 1 1 1 1 1 0.014497274594209349 1 1 1 1 0.013637502920851747 1 1 1 1 1 0.010003617681624388 1 0.013795452130213569 1 1 1 0.0093441775463279 1 0.009911165824566243 1 1 0.010123733549566492 0.010002496708459201 1 1 1 1 1 1 1 0.01214600078043301 1 1 1 1 0.013596005310853913 1 1 1 1 1 1 0.014859673183866931 1 1 1 1 1 1 1 1 1 0.01002208649182927 1 1 1 1 1 1 1 1 1 1 1 1 1 1 1 1 1 0.010103092806402168 1 1 1 1 1 1 0.010081006314572901 1 1 1 1 1 1 1 0.010240455076260901 1 1 1 1 0.0099653993591560762 1 1 1 1 1 0.010452372836935312 1 1 1 1 1 1 0.0110544435964948 1 1 0.010281593923922699 1 1 1 1 0.010519599377379365 1 1 1 1 0.010249856585350006 1 1 1 1 1 1 1 1 1 1 1 1 1 1 1 1 1 1 1 1 1 1 1 1 1 1 0.021619404041470319 1 1 1 1 0.021297169212000398 1 1 1 1 1 1 0.010001243281819545 0.0097380614875681136 1 1 1 1 1 1 1 1 1 0.01035107533453546 0.010035623745704931 1 1 1 1 1 0.012458210015909122 1 1 1 1 1 1 0.013267798189810659 1 1 1 0.011356444396992843 1 1 0.010007157077702127 1 1 0.012816894840276039 0.012976001487314114 1 1 1 0.0097304874303893937 0.010116164221784971 1 1 1 0.011843416311756855 1 1 1 1 1 1 1 1 1 1 1 1 1 1 1 1 1 1 1 1 1 0.010667839996300808 1 1 1 1 1 0.010017833658058983 0.010539218419430719 1 0.010476901638832262 1 1 1 0.011504341292932192 1 1 1 1 1 1 1 1 1 1 1 1 1 1 1 1 1 1 1 1 1 1 1 1 1 1 1 1 1 1 1 0.011264676622075857 1 1 0.010035891271927078 1 1 1 1 1 1 1 1 1 1 1 1 1 1 1 1 1 1 1 0.010942820428238978 0.010035093443593955 1 0.0097938855911193085 1 1 1 1 1 1 1 1 1 1 1 1 1 1 1 0.011916179126503952 1 0.013644839582488048 0.010033451459497198 1 1 0.01102043642469394 1 0.013201672579053629 1 0.010027119867738882 1 1 1 0.0090796064863880813 1 1 1 0.012968929475076513 0.012337004816053461 0.010003113261116005 1 1 1 0.013874477360114676 1 1 0.0096495241356723219 1 1 1 0.011801640387001261 1 1 1 1 0.011982472451840675 1 1 1 1 0.010322244670218124 1 1 1 0.010006712699200424 0.010498475177752712 0.010852693356606494 1 1 1 1 1 1 1 1 1 0.011866436812047503 1 1 1 1 1 1 1 1 1 1 1 1 1 1 1 1 1 1 0.010259981055607421 1 1 1 1 0.010108546622763864 1 1 1 1 1 1 1 1 1 0.010016503479143159 1 1 1 1 1 1 1 1 1 1 1 1 1 1 1 1 1 1 1 1 0.010712653172316804 1 1 1 1 0.0098885707608785019 1 0.010289487487843465 1 1 1 1 1 1 1 1 0.010167937911986717 1 1 1 1 1 1 1 1 1 1 1 1 1 1 1 1 1 1 1 1 1 0.00999060093501224 1 1 0.0096032618464642512 1 1 1 1 1 1 1 1 1 1 1 1 1 1 1 1 1 1 1 1 0.0084327361210102779 1 1 1 1 0.017012841541916859 0.0098709749939932291 1 1 1 1 1 1 1 1 0.019060724970073977 1 1 0.0087713645569051403 1 0.0088528911628088895 1 1 1 0.00999679037366797 0.0076042162332335891 1 1 0.0099238425035256071 0.009988787985919366 1 1 1 1 0.0097645869926832798 1 0.0097860667525712167 1 1 1 1 1 1 1 1 1 1 1 1 1 1 1 1 1 0.0090511302469287874 1 1 1 0.010188980047916636 1 1 1 1 1 0.010058084960092629 1 1 1 1 1 1 1 1 0.01232695073769049 1 1 1 0.011903651246993385 1 1 1 1 1 0.014965523624071084 1 0.0081720356021989377 0.0099579115155904209 0.01041276989018294 1 1 1 1 0.009449932369037661 1 1 1 0.0099997106384983273 1 1 1 1 0.014091197212608989 0.013741122575226356 1 1 0.012257551194471396 1 0.0096068385124888373 1 0.0099992455624813969 1 1 1 1 1 1 1 1 1 1 1 0.010348727695237014 1 1 0.013995211155643044 1 0.010068879902454673 0.013011402565238346 1 0.0099011511346328469 0.0099990214975738262 1 1 0.014906193939308417 1 1 1 0.013613195389971196 1 0.013825966611238659 1 1 1 0.0096599609063194401 1 1 0.0099996248570220145 1 0.0098629823181820286 1 1 1 1 1 1 1 1 1 1 1 1 1 1 1 1 1 1 1 1 1 1 1 1 1 1 1 1 1 0.010277085040176676 1 1 1 1 1 0.0092092011493262634 0.013300975812755697 0.0095746418396412663 1 1 1 1 0.0100075241174218 1 1 1 1 1 1 1 1 1 1 1 1 1 1 1 1 1 1 1 1 1 1 1 1 1 1 1 1 1 1 1 1 1 1 1 1 1 1 1 1 0.015359776380960201 1 1 1 1 0.011782001167219511 1 1 1 1 1 1 1 1 1 1 1 0.01046901000053092 0.014772263815406281 1 1 1 1 1 1 0.014772060914839052 1 0.013121781097137903 1 1 1 1 1 1 1 1 1 1 1 1 1 1 1 1 1 1 1 1 0.0097780001711974922 1 1 1 1 0.010673230403832286 0.0092052222296316929 1 0.008348733420564431 1 1 1 1 1 1 1 1 1 1 1 1 1 1 1 1 1 1 1 1 1 1 1 1 0.018876259166921969 1 1 1 1 1 1 1 1 1 1 1 1 1 1 1 1 1 1 1 1 1 1 1 1 1 1 1 1 0.010123132200908318 1 1 1 1 1 1 1 1 1 1 1 1 0.01057220624573494 1 1 1 1 1 1 0.011554813396853592 1 1 1 1 0.010277081472459201 0.010908601802054413 0.014497709082159716 1 1 1 1 1 1 1 1 1 1 0.01181561888176879 1 1 1 1 1 1 1 1 1 1 1 1 1 1 1 0.0084402827111688603 1 1 1 1 0.0095059864621104308 1 1 1 0.012319517498591011 1 1 1 1 1 1 1 0.010046467602053483 1 1 1 0.010553040809777653 1 1 1 1 1 0.01686617136222986 0.012304158650810634 1 1 1 0.01824912358037506 0.011041742115993871 1 1 1 1 0.01240012159105398 1 0.011806511448390768 1 0.011282712424608652 1 0.010037159340460629 1 1 0.015731387082508208 0.019580465587969359 1 0.012218830706133284 1 1 0.015032144277042032 1 1 0.010002888049857828 1 1 0.010949259284519539 1 0.0084482916178394638 1 0.0059802530925381148 1 1 0.0091312127150850863 1 1 0.0099505343246821202 1 0.012410119360667639 0.014981685130770825 1 0.0076038295873347411 1 1 1 0.015223116846573079 1 1 1 1 1 1 1 1 1 1 1 0.010100508114082137 1 1 1 1 1 1 1 1 1 1 1 1 1 1 1 1 1 1 0.010074924445069895 1 1 1 0.010146391756609145 1 1 0.012591002052264447 1 0.01951625649120757 1 1 1 0.0066077538065930468 1 0.014406574212715153 1 0.016696118542302438 1 1 0.010127796731354312 1 1 1 1 1 0.0074565794075776015 1 0.013601301752508566 1 1 1 1 1 1 1 1 1 1 0.01002443664764064 1 0.015078586194922427 1 1 1 1 0.021527437186478666 1 1 0.0099643676901507595 1 0.010207965922171353 0.01811675654318599 1 1 1 1 1 1 0.0083344309680245948 1 1 0.014978609770172669 1 1 1 1 0.010752712321709441 1 1 1 0.0097338919672400361 0.010234566760745942 1 1 1 0.010612346001595326 1 0.021874176983896869 1 1 1 1 1 1 1 1 1 0.010076875359854735 1 1 0.0097751790310522634 1 1 1 1 1 1 1 1 1 1 1 1 1 1 1 1 1 1 1 1 1 1 1 1 1 1 1 1 1 1 1 1 1 1 1 1 1 1 1 1 1 1 1 1 1 1 1 1 1 1 1 1 1 1 1 1 1 1 1 1 1 1 1 1 1 1 1 1 1 1 1 1 1 1 1 1 1 1 1 1 1 1 1 1 1 1 1 0.015089045971466642 1 1 1 1 1 1 1 1 1 0.018912119250558159 1 0.010007666355093515 1 1 1 1 1 1 1 1 1 1 1 1 1 1 1 1 1 1 1 1 1 1 1 1 1 1 1 1 1 1 1 1 1 1 1 1 1 1 1 1 1 1 1 1 1 1 1 1 0.017977854711103618 1 1 1 0.011789150393602829 1 0.010007759937849067 1 0.025685238150287844 1 1 1 1 1 1 1 1 1 1 1 1 1 1 0.010097327987681971 0.015871742192215522 0.015776507190095448 1 1 0.01025521347766232 1 1 1 1 1 1 1 1 0.014549258124056903 1 0.010445536730476577 1 0.015372868133524741 1 1 1 0.01623404228972495 1 1 1 1 0.014527388544099679 1 1 1 1 1 1 1 1 1 1 1 1 1 1 1 1 1 1 1 1 0.011943603422602221 1 1 0.011471774359005042 1 1 1 1 1 1 1 1 1 1 0.019848428395154247 0.010136892709358383 1 1 1 1 1 1 1 1 1 1 1 1 1 1 0.016749140717866096 1 1 1 1 0.010293927871724656 1 1 1 1 1 1 1 1 1 1 1 0.010916644174624785 1 1 1 1 1 1 1 1 1 1 1 1 1 1 1 1 1 1 1 1 0.010073613306605594 1 1 1 1 1 0.013075118055599494 0.010157101775433476 1 1 1 1 1 1 1 1 1 1 1 1 1 1 1 1 1 0.014392540694179411 0.012705505451299948 1 0.0099261783964505503 1 1 1 1 1 1 1 1 1 0.015859270763293673 1 0.0090374738063608538 1 0.01000298025342294 1 1 0.011652621060370818 0.01432499728588958 0.010491325113847432 1 1 0.010107876174875262 1 1 0.011057192459136087 1 0.0111110732752067 1 1 1 1 1 1 0.0097667175225511233 1 1 1 1 0.015473495832869701 1 1 1 1 1 1 1 1 1 1 1 1 1 1 1 1 1 1 1 1 1 1 1 1 1 1 1 1 1 1 1 1 1 1 1 1 1 1 1 1 1 1 1 1 0.0090620989437294498 1 1 1 0.010920337225674943 1 1 1 1 1 1 1 1 1 1 1 1 1 1 1 1 1 1 1 0.011957725945761673 1 1 1 1 0.010006116803361607 1 1 1 1 1 1 1 1 1 1 0.012640884204674255 1 1 1 1 0.0099959938756475838 0.009871419635124631 0.010101625164807412 1 1 0.012185941362472398 1 1 0.010001716594594163 1 1 1 1 1 1 1 1 1 0.0099913100124070543 1 1 1 1 1 0.010311194355521282 1 1 1 1 1 0.010329925554601776 1 1 1 1 1 1 0.015687882199200233 0.010628002337893893 1 1 0.016944998904022263 1 1 0.010298076783292117 1 1 1 0.011127626783248896 1 1 1 1 1 1 0.011816386036983137 1 0.01019686318406178 0.015583790910227095 1 1 1 1 1 1 1 0.013691889087286833 0.0098504818940452783 1 1 1 1 1 1 0.017445852072300594 1 1 0.010032775862039127 1 1 1 1 1 1 1 1 1 1 0.011696900367766164 1 0.027232467455221232 1 1 1 1 0.0094356983816739817 1 1 1 1 1 1 1 1 1 1 1 1 0.013349738824531486 1 1 1 1 1 0.010607045586143969 1 1 1 1 0.010042075146430473 1 1 1 0.010160792052470925 1 0.011328435435160669 1 1 0.010251200835397748 1 0.014152720913478386 1 1 1 0.010567804899584123 0.010310278588596828 0.013322817272922427 1 0.011639167396735255 1 0.013668413625876466 0.013051242663656742 1 0.010249635234608055 1 0.010661542556253357 1 0.010000334749254316 1 0.012509380703605757 1 1 1 0.013845121859235135 1 1 0.010595940942723307 0.010709618673707956 1 1 1 0.010222785215413609 0.010453377560726791 0.011573108672023498 0.011758926989090271 1 1 1 0.01003830231427987 1 0.012796581132090715 0.013660464387635622 1 0.012126739535881025 1 1 1 0.010046979673825035 1 1 1 1 0.0096994984007114197 1 1 1 0.011673595014874277 0.010181178195205772 1 1 1 1 1 1 0.010027887305611688 1 1 1 1 1 1 1 1 1 1 1 1 1 1 1 1 1 1 1 1 1 1 1 1 0.01794445035421479 0.012233474975715326 1 1 1 1 1 1 1 0.015897329431189433 0.015906045827633886 1 0.011517349571326073 1 1 1 0.012887423699733402 1 1 1 1 1 1 1 1 1 0.011043530061182793 0.010261471446497519 1 1 0.012477936912719978 1 1 1 0.014061705593334866 1 1 1 1 0.0091425373417219034 1 1 1 1 1 0.0098934437481775009 0.0088780103634259547 1 1 0.015056143066973827 1 1 0.01343188734765376 1 1 0.010656288494026367 1 1 1 1 1 1 0.01587828361070024 1 0.010342544803218976 1 1 0.010108902132995678 1 0.014990572649904842 1 0.0099562033495308507 1 1 1 0.0091154081025480276 1 0.010072253167390815 1 0.010124038915876092 1 1 0.006251157693024271 1 1 0.014476350829274214 1 0.017077650818901797 0.02066491305153581 1 1 0.015675467420241777 0.010084395483905842 1 0.026709729154842661 1 1 1 1 1 1 0.010660574133517495 0.0075155384717335051 1 1 1 1 1 0.010012206889070285 1 1 1 1 0.027163140300255916 1 1 0.0085432015612936056 1 1 1 1 1 0.0095053306377472953 1 1 1 1 1 1 1 1 1 1 1 1 1 1 1 0.010519403978432231 1 1 1 1 1 1 1 1 0.011027540060386695 1 0.010585645188430021 1 1 1 1 1 0.0071312855801358953 1 0.0099767930639568288 1 1 0.0094695076929254673 1 1 0.010376775006013314 1 1 0.017583154732290825 1 1 1 1 1 1 1 1 0.01145286456155262 1 1 1 1 1 1 1 1 1 1 1 1 1 1 1 0.017561099521637657 1 1 1 1 1 1 1 0.0097783798298444954 1 1 0.0070640327273741709 1 1 1 1 0.012429829051772708 1 1 1 1 1 1 1 1 1 1 1 1 1 0.011599854013431728 1 1 1 1 0.013944925466400372 1 1 1 1 1 1 0.011448238797906489 0.0095942127072450329 1 1 1 1 1 0.014120187761707459 1 0.012544310453433499 1 1 1 1 1 1 0.010877563365987306 1 1 0.012862637138408795 1 1 1 1 1 1 1 1 1 0.014276946472698131 1 1 1 1 0.010842022606045167 1 1 1 1 1 1 1 1 0.01443604318192067 1 0.019026387930915455 1 1 0.013796356841908594 1 1 0.022884485874088201 1 1 1 1 1 1 1 1 1 1 0.022444422799804464 1 1 1 1 1 1 1 1 1 1 1 1 1 1 1 1 1 1 1 1 1 1 1 1 1 1 1 1 1 1 1 1 1 1 1 1 1 1 1 1 1 1 1 1 1 1 1 1 1 1 0.011786037796397834 1 1 0.0097863603467277134 0.010643424481178198 1 0.011356683867251256 1 1 1 0.010310912646805956 1 1 1 1 1 1 1 1 1 1 1 1 0.011036289735900328 1 0.010694382390251365 1 1 1 1 1 1 1 1 1 1 1 1 1 1 1 1 1 1 1 1 1 1 1 1 1 1 1 1 1 1 0.010458313680930616 1 1 1 1 1 1 0.013468095368765472 1 1 0.010003048800744686 1 1 1 0.0099895947623650505 1 1 0.012431450600150244 1 1 1 0.011283611452414674 0.01017658001569798 0.012617915002502976 1 1 0.011377101537822711 1 0.010703846495018149 0.011325914015318876 1 1 0.010011871515037407 1 1 0.01065627755889287 1 1 0.011189005309742416 1 0.010798826818738217 1 0.010852674671564729 0.01041496432165649 1 1 0.010701683686079469 0.01341067860456846 0.010562436999970148 1 1 1 1 1 1 1 1 1 0.009755314906526865 1 1 1 1 1 1 1 1 1 1 1 1 0.010473295124144478 0.010331877153265497 0.010934085616923396 1 0.011627385945203217 1 0.010652702125370872 0.011153718612717536 1 1 1 0.011872252562915846 0.0098712600688985533 0.013081291382121919 1 1 1 1 0.0093117571962222541 0.013643438245250099 0.011197636289826618 1 1 1 1 1 1 1 0.012973588168051782 1 0.0094981095728305914 1 1 0.012393095098134698 1 0.011300266143392921 1 1 1 1 1 1 1 1 1 0.0099943928490658137 1 1 1 1 1 1 1 1 1 1 1 1 1 1 1 1 1 1 1 1 1 1 1 1 1 1 0.010165266268646901 1 1 1 1 1 1 1 1 1 1 1 1 1 1 1 1 1 1 1 1 1 0.020317598290858673 1 1 1 1 1 1 0.02003815842669053 1 1 0.010738197939666598 1 1 0.01132687834041661 1 1 1 1 1 1 0.011238020875882403 1 1 1 1 1 1 1 1 0.013106659970774218 1 1 1 1 0.011625965320513494 1 1 1 1 1 1 1 1 1 1 1 1 1 1 1 1 1 1 1 1 1 1 1 1 1 1 1 1 1 1 1 1 1 1 1 1 1 1 1 1 1 1 1 1 1 1 1 1 1 1 1 1 1 1 0.0094951369563084486 1 1 1 0.010061133224151118 1 1 1 1 1 1 1 1 1 1 1 0.0099804754336987773 1 1 1 0.0099249275675768814 1 1 1 1 1 1 1 1 1 1 1 0.0088357676834782458 1 1 1 1 1 0.012539967508370749 0.011326667310805448 1 1 1 1 1 0.009977669616083925 1 1 1 1 1 1 1 1 1 1 1 1 1 1 1 1 1 1 1 0.0099456820228739987 1 1 1 1 0.010601376016356006 0.0097442117984631923 1 1 1 1 1 1 0.010205696775511135 1 1 1 1 1 1 1 0.010078169831846008 1 1 1 1 1 1 0.010241170238352724 0.010820513248814667 1 1 1 0.0098039172392061207 1 0.0099983678626713972 1 1 1 1 1 1 1 1 1 0.010000034285147686 1 1 1 1 1 1 1 1 1 1 0.0099983292724387177 1 1 1 1 1 1 1 1 1 1 1 1 1 1 1 0.01040251466833284 0.01000375099920919 1 1 1 1 0.0099977414410405349 1 1 0.010612266600483417 1 1 1 1 1 1 1 1 1 1 1 1 1 1 0.0099977298693475006 1 1 1 1 1 1 0.01014673642400598 1 1 1 1 1 1 1 1 1 1 1 1 1 1 1 1 1 0.010122342791724682 1 1 1 1 1 1 1 1 0.010788877119763396 1 1 1 1 1 1 1 1 1 1 1 0.010978482610148006 1 1 1 1 0.010164350859454954 1 1 1 1 1 1 1 1 0.01288296469873991 1 1 1 1 0.012427040188779843 1 0.011350711150862069 0.01083149954337545 1 0.012332224301602593 1 1 0.012358779711961115 1 1 1 1 1 1 1 1 1 1 1 1 1 1 1 1 0.010146544038730963 0.010052037602969743 1 1 1 1 1 1 1 0.012757978125870127 1 1 0.012883454707061578 0.010230640451364806 1 1 1 1 0.010026089138277697 0.012444981506991259 1 1 0.013350451134187596 1 1 0.014079183073233512 1 1 1 1 1 1 0.010101093368182414 0.01032950102658463 1 1 1 1 1 1 0.01249807842292347 1 1 0.013334738435213676 1 1 1 1 1 1 0.0096302598376493392 1 1 1 0.012103726372355392 0.010450966071225637 0.011803544957356393 0.011094067126675575 0.010184729941732458 1 1 1 0.0091979380696617583 1 1 1 1 0.0097961435972227021 1 1 1 1 1 1 1 1 1 1 1 1 1 1 1 1 1 1 1 1 1 1 0.012044326602026478 1 1 1 1 1 1 1 1 1 0.012699155298409846 1 1 1 0.011001130612580253 1 1 0.012765297671236847 1 1 1 1 1 1 1 1 1 1 1 1 1 1 1 0.010904338808433618 1 0.011422205655634787 1 1 1 1 1 0.013610182171174205 1 1 1 1 0.010004281459744923 1 0.0099422979887259406 1 1 1 1 1 1 1 1 1 1 1 1 1 0.011221958836791938 1 1 1 1 1 1 1 1 1 1 1 1 1 1 1 1 1 1 1 1 1 1 1 1 0.0068149439080349844 1 0.01918224418010038 1 0.0089371970687270319 1 1 1 1 1 1 1 1 1 1 0.010478959369998972 1 0.010366933710542328 1 1 1 1 0.010006803183465925 1 1 1 1 0.018469970686582481 1 1 1 1 1 0.013381392390385391 1 1 0.010867518805260929 1 1 1 1 1 1 1 1 1 1 0.010963398260397439 1 0.010596464549855106 1 1 1 1 1 1 1 1 1 1 1 1 1 1 1 1 1 1 1 1 1 1 1 1 1 1 1 1 1 1 1 1 1 1 0.0098534415846945403 1 0.01038044607249955 1 1 0.0087377740928437884 1 1 1 1 0.0093925434622804775 1 1 1 1 1 1 1 1 1 1 1 1 1 1 1 1 1 1 1 1 0.011089002079072128 1 1 1 1 1 1 1 1 1 1 1 1 1 1 1 1 1 1 0.010716760846421624 0.011611226137532763 1 0.010924114410570998 1 1 1 1 1 1 1 1 1 1 1 1 1 1 1 1 1 1 1 1 1 1 1 1 1 1 1 1 0.015891628669270005 1 1 1 1 1 1 0.01001187805049193 1 1 0.0098321451293298216 1 0.0069348836456106285 1 1 0.019307230298163152 1 1 1 1 1 1 1 1 0.0090263066715892838 1 1 1 1 0.021867939878391612 1 1 1 1 0.010829829613267112 1 0.0091986722152578686 1 1 1 1 1 0.012120329377184505 1 1 1 1 1 1 0.015209487399311786 0.0071482017429371214 1 1 1 1 1 0.0088241148216415925 1 0.0097329307688390054 1 1 1 1 1 1 1 1 1 1 1 1 1 1 1 1 1 1 1 1 0.012545409119059277 1 1 1 1 1 1 0.011013155571181432 1 1 1 0.013049323824542271 0.01103388013167636 1 1 1 1 1 1 1 1 1 1 1 1 1 1 1 1 1 1 1 1 1 1 1 1 1 1 0.0099142225806278222 1 1 1 1 0.011889608311876148 1 1 0.012810445839019722 1 1 1 1 1 1 1 1 1 1 1 0.010359333752424227 1 1 1 1 1 1 1 1 1 1 1 1 1 1 1 1 1 1 1 0.010482000690671131 1 0.0090101986119016635 1 1 1 0.0098097281767433337 1 1 1 0.011687582256928454 1 1 1 0.011419848975703188 0.010218865456975087 1 1 1 0.010943436245547051 1 1 1 0.0099976472654408396 1 1 0.0093396232140666169 1 0.0114353875804875 1 1 1 0.01146275008804909 1 0.010007829876727308 1 1 0.0088638235255836893 0.012621619656988851 0.010126707708151496 0.0093756138758281145 1 1 1 0.012395515858596337 0.01009626635036379 0.011716801396911211 0.0096056603235459073 1 1 1 1 1 0.010480407225516446 1 1 0.01167012367896475 1 1 1 1 0.010269928004950513 1 1 0.018389440694088054 1 1 0.017287522154337438 1 1 1 1 1 0.016159053775353406 1 1 1 1 0.010113023202293386 1 1 1 1 1 1 1 1 1 1 1 1 1 0.011411511783547105 1 1 1 1 1 1 0.0097666763036224815 1 0.013182102487873373 1 0.009917940225176447 1 1 1 1 1 1 1 1 1 1 1 1 1 0.012943949121253221 1 1 1 1 1 1 1 1 1 1 1 1 1 1 1 1 1 1 1 1 1 1 1 0.014280131331696653 1 1 1 1 1 1 1 1 1 1 1 0.010116455066011372 1 1 1 1 1 1 1 1 0.010162587533715921 1 1 1 1 1 1 1 1 1 1 1 1 1 1 1 0.010643430405035213 1 1 1 1 1 0.019220448379146358 1 0.017204894102154304 1 1 1 0.0233425753509897 0.011073549068517119 1 0.015941969204219874 1 1 0.0094113184249420695 1 1 1 1 1 1 0.019446371637275372 1 1 1 0.01839718138131359 1 1 1 1 1 1 1 0.019021501706419142 0.010435916495125758 1 1 0.0095787812942173863 1 0.010059673940528186 1 1 1 0.01947072896353632 1 1 0.014410664343987221 1 1 0.009757352140765535 0.010073718823454774 0.0126100567143943 1 1 0.011284240487037224 1 1 1 1 1 1 1 0.010443200121024109 1 1 1 1 0.010022976055034657 1 1 1 1 1 1 1 0.010016707645336321 1 1 1 1 1 0.0099433532533131502 1 1 1 0.0099150490097306802 1 1 1 1 0.014797364105903902 0.0099537679845109577 0.010067225539723034 1 1 0.01464277533584875 0.0098441958540263913 1 0.010057088310827916 1 1 1 1 0.018610819197457287 1 1 1 1 1 1 0.018513649153364578 0.0098768767240079262 1 1 1 1 1 1 0.009844835948331911 1 1 1 1 1 1 0.018719517295445211 1 0.0098496194084204194 1 1 1 0.01251947263468392 1 1 1 0.0099387928986540818 1 1 1 1 0.020849852504202494 1 0.0099448797273780816 1 1 1 1 0.010238670995675042 1 1 0.018144685914413611 1 1 0.014006831335037273 1 1 1 1 0.014008143939274343 1 1 1 1 1 1 1 1 0.01161598994670991 1 1 1 1 1 1 1 1 1 1 1 1 1 1 1 1 1 1 1 1 0.014176429847684083 1 1 1 1 1 1 1 0.011760229168803106 1 0.012561994273264427 1 1 1 1 1 1 1 1 1 0.01511293235829715 1 0.0086369514389088957 1 0.017393090739944456 1 1 1 0.014947051748369201 1 1 1 1 1 1 1 1 0.012152990294562512 1 1 1 1 1 1 0.011462457900713624 1 1 1 1 0.011906770668204898 1 1 1 1 1 1 1 1 1 1 0.011797840316733307 0.0099869323652677956 1 1 1 1 1 1 1 1 1 1 1 1 1 1 1 1 1 1 1 1 1 1 1 1 1 1 1 0.010545852037702048 1 1 1 1 1 1 1 1 1 1 1 0.013923372716371679 1 1 1 1 1 0.014464491926728728 0.01475486930597705 1 1 1 1 1 1 1 1 1 1 1 1 1 0.010117869473502974 1 1 1 1 1 1 1 1 1 0.0098733996938708112 1 1 0.011506157737692467 1 0.01257344343592978 1 1 1 1 1 1 0.011088598656610436 1 0.010557617572702396 1 0.010168702858119764 1 1 0.012002545140852498 1 1 1 1 0.011094745103500545 1 1 1 1 1 1 1 1 1 1 1 1 0.011362782525256184 1 1 1 0.013027904177599064 1 1 1 1 1 1 1 1 1 0.010215532444572802 1 1 1 1 0.010423159546022145 1 1 1 1 1 1 0.010410917286935609 1 1 1 1 1 1 1 1 1 1 1 1 1 1 1 1 1 1 1 1 1 1 0.012784813758392233 1 1 1 1 1 0.010691019718320474 1 1 0.013503545866935028 1 1 1 1 1 0.01193829482181657 0.012544545332866128 1 1 1 1 1 1 1 0.014420221227798071 1 1 1 1 0.01111758392486116 1 1 1 1 1 1 1 0.014480640796983555 1 1 1 0.0083753396582616317 1 0.0099462824932737004 1 1 0.011438537375858499 1 1 0.012151420922008598 0.0097389199321907972 1 0.010051917242833656 1 1 1 0.0092276194610957461 1 0.011469741558532335 1 0.0096028808782041945 1 1 1 1 1 1 0.0099904734681657836 0.010326554256037545 1 1 1 1 1 1 1 1 1 1 0.010506107998513552 0.010236437779275041 1 1 1 1 1 1 1 1 0.0098279900430776855 0.010255721916307192 1 1 0.0097449751243377132 1 0.0098276376042346989 1 1 1 1 1 1 1 0.010898551803570361 1 0.010001317555146209 1 1 1 1 1 1 0.010334855365714098 1 1 1 0.011013948384555319 1 1 1 1 1 0.012741960486166874 1 1 1 1 1 1 1 1 1 1 0.010068622447327535 0.0098013392736528548 1 1 0.014005114447648577 1 1 1 0.011142323855706914 1 1 0.0099649935272519558 1 1 1 1 1 1 1 1 0.010414519575635174 1 1 1 1 1 1 1 1 1 1 1 1 1 1 1 1 1 1 1 1 0.012905480399635428 1 0.010170935339294793 0.011476388430994239 1 1 1 0.01280302502035054 1 0.010048480593692189 1 1 1 1 1 1 1 0.010505747028985537 1 1 1 1 0.012628908336868914 1 1 1 1 1 0.012391608245221173 1 1 1 1 0.011907146344413018 1 0.011693435802099438 1 1 1 1 0.011655830820854108 1 1 1 1 0.012076074939034336 1 1 1 1 1 1 1 1 1 1 0.011205615109233145 1 1 1 1 1 1 1 1 1 1 1 1 1 1 1 1 1 1 1 1 1 1 1 1 1 1 1 1 1 1 1 1 1 0.009474810199412825 1 1 0.0093997171334102951 1 1 1 0.010229723741002434 0.010004924310118219 0.0098653757135190832 1 0.0096737279633970635 0.011386932831684137 0.012174833116338114 1 1 1 0.010177236750932704 0.010303892052041488 1 1 1 1 1 1 0.0099972471017824131 1 1 0.0099826479310207786 1 0.010581307098623125 1 1 1 1 1 0.0099997723858457656 1 1 1 1 1 1 1 1 1 1 1 1 1 1 1 1 1 1 1 1 1 1 0.014690951441637361 1 1 0.010050545965243494 1 1 0.014569297455356071 1 1 1 1 0.014301432388332548 1 0.010076449326999994 1 1 0.010025903361756492 1 1 1 1 1 0.010127964109752394 1 1 1 1 1 1 1 0.01032249434923522 1 1 1 1 1 0.010379514809259438 1 1 0.01002140320299796 1 0.0099816594927905917 1 1 1 1 1 1 1 1 1 0.012518515998349628 0.012662954348116861 0.012745000487589555 1 1 0.015945815463021314 1 1 1 1 1 1 1 1 1 1 0.015834362227952661 1 1 1 1 1 1 1 1 1 0.010017242351662353 1 1 1 1 1 0.010004240787704363 1 0.010397135749005904 1 1 1 1 1 1 0.013835706777948646 0.010714393676773858 1 1 1 1 1 1 0.01000729084763727 1 1 1 1 1 1 1 1 0.013716959854223032 1 1 0.010007849121923726 0.010653361749480608 1 1 1 1 1 1 1 1 1 1 1 0.010184984569776609 1 1 1 1 1 1 1 1 1 1 1 1 1 1 1 1 1 1 0.012320281932124144 1 1 1 1 1 1 1 1 1 0.0101392953140097 1 1 1 0.010216802803590448 0.012331905275394215 1 1 0.010457056046558347 1 1 1 1 1 1 1 1 1 1 1 1 1 1 1 1 1 1 1 0.010244419353998033 1 1 1 0.009758444727569985 1 1 1 1 1 1 0.010017181925044843 1 1 1 1 0.010072375257127644 1 1 1 1 0.010161718621966666 1 1 1 1 1 1 1 1 1 1 1 1 1 0.01411922939128079 1 1 1 1 1 1 1 0.011983044308275712 0.013860625945820867 1 1 1 0.0093580984078332815 0.010406664825661958 1 1 0.014146563484844634 0.011122448860431259 0.0098057461046436069 1 1 1 0.010361087440313763 1 1 1 1 1 1 0.010043484686918293 1 1 0.014838969830363709 1 1 0.01030421265738355 1 1 0.013924027339990895 1 0.010653575189454666 0.012660141041964508 1 1 1 1 1 0.0097519470016793047 1 0.014327650686458086 1 1 0.013112326276987243 1 1 1 0.014742519221768119 1 1 1 1 1 1 1 1 1 1 1 1 0.010252703450765855 1 0.010009737647888848 1 1 1 1 0.012923528932837307 0.011052756867180342 1 0.012045450093292564 1 1 1 0.0088707364656829477 1 1 1 0.010727952845378537 1 1 1 0.010000693085104158 1 0.01429142681996122 1 1 0.01025090142056242 0.01340748500611093 1 1 0.010325658025449456 1 1 1 1 0.012361999215616848 1 1 1 1 1 0.012478923407335391 1 0.010464857039053702 0.011714191214370286 1 1 1 1 1 0.012106247179096608 1 1 0.01007508646683029 0.011505910251957347 0.0097450684590004756 1 0.010900802358021638 1 0.0099624338497887426 1 1 1 0.017555477511443915 1 1 1 1 0.015768918445606288 1 1 1 0.010134455148960372 1 1 1 1 1 1 1 0.011656949858652899 1 1 0.010624832616732477 1 1 1 0.010036961163220996 1 1 1 0.0098789918013219291 1 0.010509075409816632 1 1 1 1 0.018914135360712098 1 1 1 1 1 1 1 1 1 1 1 1 1 1 1 1 0.010159581323441864 1 1 1 1 1 0.013390824648514797 1 1 0.013619952532768584 1 1 1 0.010037951399592085 0.010055703119108141 0.0082134537838970748 1 1 1 1 0.010485611465809713 1 1 1 1 0.0098588884836991707 1 1 1 0.010250615002929783 1 1 1 0.010044666343190104 1 1 1 1 0.010576645145297629 1 1 1 1 1 1 0.010403075874988099 1 1 1 1 1 0.011241587531955366 1 1 1 1 1 1 1 1 0.010792230403483245 1 1 0.010628119244222391 1 1 1 1 1 0.013950523233066061 1 1 1 1 1 1 1 1 1 0.010357003157141453 1 1 1 0.0099875631844157566 1 1 1 1 1 1 1 0.0092151496058678131 0.011029377667381032 1 1 1 1 1 0.010397461312011649 1 1 1 1 1 1 0.0099742540004981103 1 1 1 0.0096889691225744978 1 1 1 1 0.010238718546040344 1 1 1 1 1 1 1 1 1 1 1 1 1 1 1 1 1 1 1 1 1 1 1 1 1 1 0.010795366983429222 0.010037670362343066 1 1 0.011229721609793046 1 1 0.0099930040191529533 1 1 1 1 1 1 1 1 1 1 1 0.011496694287420544 1 1 1 0.0099413264399121175 1 1 1 1 0.0099434752356138897 0.0099517952061371658 1 1 0.010237959018706028 1 1 1 1 1 1 1 1 0.011443401701263713 1 1 1 1 1 0.010892128064154689 0.010211793852801999 1 1 1 1 1 1 1 0.0099495600776086449 1 1 1 1 1 1 1 1 1 1 1 1 1 0.010249764159538825 1 1 1 1 0.010238651212553981 1 0.010461132363155233 1 1 1 1 1 1 1 1 1 1 1 0.010027856429702645 1 1 1 1 1 1 1 1 1 1 0.010059504485137125 1 1 1 1 0.010031648055434477 1 1 1 1 1 1 1 1 1 1 1 1 1 1 1 1 1 1 1 1 1 0.022477656181511631 1 1 1 1 1 0.010245520972483642 1 1 0.010763276245684295 1 1 1 1 1 1 1 1 1 1 1 1 1 1 1 0.010062084316231132 1 1 1 1 1 1 1 0.0099259830437450729 1 1 1 1 1 1 1 1 1 0.011283387443740982 1 1 1 1 1 1 1 1 1 0.0089618684514283821 1 1 1 1 1 1 0.0099981388251443818 1 1 1 1 0.010160418947327887 1 1 1 1 1 1 1 1 1 1 1 1 1 1 1 0.010217834472180089 1 1 0.010090728436585136 1 0.010000769566884648 1 1 1 1 1 1 1 1 1 1 1 1 1 1 1 0.010086744455599067 1 1 1 1 1 1 0.010141009758238716 1 1 1 1 1 1 1 1 1 1 1 1 1 1 1 1 1 1 1 0.010255872001944001 1 1 0.010683473607960346 1 1 1 1 1 1 0.010004694876676068 1 0.0098769223762811571 1 1 0.010250179233525895 1 1 1 1 1 0.010088230759725092 1 1 1 1 1 0.016711698216389764 1 1 1 1 1 1 0.010238964715727238 1 1 1 1 1 1 0.018878320670110148 1 1 0.020411390155850945 1 1 1 1 0.010081416406193831 1 1 1 1 1 0.010154744277373009 1 1 1 1 1 1 1 0.021672297412391697 1 1 1 1 1 1 1 0.010073327871179184 1 1 1 1 1 1 0.010345885181603919 1 1 1 1 1 1 1 1 1 1 1 0.010607867999826603 1 1 1 1 0.010402992576461408 0.011175845156962089 1 1 0.009962086589061522 1 1 1 1 1 1 0.010423662571583352 1 1 1 1 1 1 1 1 1 1 1 1 1 1 1 1 1 1 0.010255030658588789 1 1 1 1 0.010149145675607835 1 1 0.01040417633419663 1 1 1 1 1 1 1 1 1 1 1 1 1 1 1 1 1 1 1 0.01063148974138811 0.011941772180199086 1 1 1 1 1 1 0.010031431996645374 1 0.0097583871030226879 1 1 1 1 1 1 1 1 1 1 1 1 1 1 1 1 1 1 1 1 1 1 1 1 1 1 1 1 1 1 1 0.008659298909073538 1 1 1 0.007010446170010393 1 1 1 1 0.014386914562991761 1 1 1 1 1 0.011590906563306847 1 1 1 1 1 1 1 1 1 1 1 1 1 1 1 1 1 1 1 1 1 1 1 1 1 1 1 1 0.010440244612891369 1 0.014711310041121963 1 1 1 1 1 1 1 1 0.010608108843145008 1 1 1 1 0.010200523566129457 1 1 1 1 1 1 1 1 1 1 1 0.011982517054112157 1 1 1 1 1 1 1 1 1 1 1 1 1 1 1 1 1 1 0.010095783794362954 1 1 1 1 1 1 1 1 1 1 1 1 1 1 1 1 1 1 1 1 1 1 1 1 0.0092222485421530505 1 1 1 1 1 1 1 1 1 1 1 1 1 1 1 1 1 1 1 1 1 1 1 1 1 1 1 1 1 0.0095931435094829057 1 1 1 1 1 1 0.021962442663988377 1 0.02014190981700633 1 0.010035090088524427 1 1 0.013268322808317514 1 1 0.018870500094287767 0.013347405483039629 1 1 0.0099503293846360703 1 0.010186515442157595 1 1 0.016349758543007735 1 1 0.012681519738587013 1 1 1 1 1 1 1 1 1 1 1 1 1 0.0086567209798434266 0.0099971311174712196 0.013900831635753516 1 1 1 0.009957756931531182 1 1 1 1 1 1 1 1 1 1 1 1 1 1 0.01022564943772122 1 1 1 1 1 1 1 1 1 1 1 1 1 0.010680502994445812 0.012843089667478387 1 1 1 1 1 1 1 1 1 1 1 1 1 1 0.0099705705155334612 1 1 0.010077181094261565 1 1 0.01323792924527217 0.012096257939486753 1 0.010061214463569893 1 1 1 0.012028630994302885 1 1 1 1 1 1 1 0.012034371900437532 1 1 1 1 1 0.0099949813130576302 0.017012931494668794 1 1 0.014653138020877376 1 1 1 1 1 1 1 1 1 1 1 1 1 1 1 1 1 1 0.0094103886505902054 0.01845009617847608 1 0.018244037159816397 1 1 0.011427105501003607 1 1 1 1 1 1 1 0.015700308623679268 1 1 1 1 1 1 1 1 1 1 0.0055684440385482493 1 1 0.0066908168859943634 1 0.0077610197179266167 1 1 1 1 1 1 1 1 1 1 1 1 1 1 1 1 1 1 1 1 1 0.0087089837821240929 1 1 1 1 1 1 1 1 1 1 1 1 1 1 1 1 1 1 1 1 1 1 1 1 1 1 1 1 1 1 1 1 1 1 1 1 1 1 1 1 1 1 1 1 1 1 1 1 1 1 1 1 1 1 1 1 1 1 1 1 1 0.015563127154282208 1 1 0.011766126631330434 1 1 1 0.010606912746274195 1 1 1 1 1 1 1 0.017340504222786105 1 1 1 1 1 1 1 1 1 1 0.012404932067781252 1 1 1 1 1 0.0082935213880621448 0.012146256798143823 1 0.010733556645514326 1 1 0.0078777924990355453 1 0.0085303474691683055 1 1 1 1 1 1 0.01000897324440634 1 1 1 1 1 0.010828999506001535 0.010037304949827155 1 1 1 1 1 0.015931579376492054 0.01134665269498975 1 1 1 1 1 1 1 1 1 1 1 1 1 1 1 1 1 1 1 1 1 1 1 1 1 1 1 1 1 1 1 1 1 1 1 1 1 1 1 1 1 1 1 1 0.0093743020626286516 1 1 1 1 1 1 1 1 1 1 1 1 1 1 1 1 0.010073705877352838 1 1 0.0099707698238646614 1 1 1 1 0.010066664515377223 1 0.0094660274107263766 1 0.01002335952945959 1 1 0.0081317700222033711 1 1 1 1 1 0.0094328566930848932 1 1 1 1 1 0.010335054832694535 1 1 1 1 1 0.012206683024018748 0.011230624519176814 1 0.015450822372995478 1 1 0.0099690083769789113 1 1 1 1 0.010454018209154817 0.010332685093346127 1 1 1 1 1 1 1 1 0.010152411545915944 1 1 1 0.010065480685114259 1 1 1 1 1 1 1 1 0.010289338005858321 1 1 1 1 1 0.011179739031353849 1 1 0.010742003599793271 1 1 1 1 1 1 1 1 1 1 1 1 1 1 0.011985118682538499 1 1 0.011317099786431594 1 1 0.016808335059946396 1 1 1 1 0.010784096465068966 1 1 1 1 0.012383007780219326 1 1 1 1 1 1 1 1 1 1 1 0.0068873343728878926 1 0.0099693608914278621 1 1 0.011568439001357907 1 1 1 1 0.0099886437434676921 1 1 1 1 1 1 1 1 0.011414085022684217 0.013682815836312819 1 1 0.011277555766774196 0.011495856044938042 1 1 1 1 1 1 0.0046845639409513213 1 1 1 1 1 1 1 1 1 1 1 1 1 1 1 1 1 1 1 0.0092390865129071964 1 1 1 1 1 1 1 1 0.01024594252479716 1 1 1 1 0.0072078182259528063 1 1 1 1 1 1 1 1 0.0092523892598449058 1 1 1 0.010207416749826455 1 0.011728615395515278 0.0089135877135628344 1 1 1 0.009995152429583553 0.010692608873523272 1 0.0096775934104163883 1 1 1 1 1 1 1 1 1 1 1 0.01139432629804042 1 1 1 1 1 1 1 0.011822535897675696 1 1 1 1 1 1 0.010304753481932398 1 1 0.01233683789402841 1 0.010773315312476592 1 1 1 1 1 1 1 1 1 1 1 1 1 1 1 1 1 0.011748437824326888 1 1 1 1 1 1 1 1 1 1 1 1 1 1 1 1 1 1 1 1 1 1 1 1 1 1 1 1 1 1 1 0.010903812208742676 1 1 1 1 1 1 1 1 1 1 1 1 1 1 0.010777538023959643 0.010444214573183265 1 0.010979846301926954 1 1 1 0.011075703039488457 0.011321936716504258 1 1 1 1 0.010499455411410591 1 1 1 1 1 1 1 1 1 1 1 1 1 0.01431211875515645 1 1 1 1 0.014186408790580817 1 0.010340878275417737 1 1 1 1 1 1 0.010617415637856955 1 1 1 1 1 1 0.012428155872365239 1 1 0.011673980147056506 0.013509954623233972 1 1 1 1 1 1 1 1 1 1 1 1 1 1 1 1 1 1 0.010496460235411759 0.0112109703831054 1 1 1 1 1 1 0.010938914623137713 1 1 1 0.012538266180292211 1 1 1 1 1 1 0.010276537362439206 1 1 1 1 1 1 1 1 1 1 1 0.013579875136584931 1 1 1 1 1 1 0.010197509982423967 1 1 1 1 1 1 1 1 1 1 0.014119994527959605 1 1 1 1 1 1 1 1 1 1 1 1 1 1 1 1 1 1 0.014291822889334322 0.010066730428623516 1 1 0.0099793640233285658 1 1 1 1 1 1 1 1 1 1 1 1 1 0.0088666767279082202 1 0.01025859832228871 1 1 1 1 1 1 1 1 1 1 1 1 1 0.010746559534990931 1 1 1 1 1 1 1 1 1 1 1 1 1 0.01126143248931525 1 1 1 1 0.01307872036087955 1 1 1 1 1 1 0.013889305628866585 1 1 1 1 1 1 1 1 1 1 1 1 1 1 1 1 1 1 1 1 1 1 1 1 1 1 1 1 1 1 1 1 1 1 1 1 0.010990583234791766 1 1 1 1 0.011004097338870217 1 1 1 1 1 1 1 1 1 1 1 0.010100837111675913 1 1 1 0.0099788816240380038 1 1 1 1 1 1 1 1 1 1 1 1 1 0.011110544993264117 1 1 0.011750559277228663 1 1 1 1 1 1 1 1 1 1 0.011109209565688239 1 1 0.010358733182826468 1 1 1 0.012145258695223246 1 
</DataArray>
</CellData>
</Piece>
</UnstructuredGrid>
</VTKFile>
