<?xml version="1.0"?>
<VTKFile type="UnstructuredGrid" version="0.1" byte_order="LittleEndian">
<UnstructuredGrid>
<Piece NumberOfPoints="31938" NumberOfCells="11229">
<Points>
<DataArray type="Float64" NumberOfComponents="3" format="ascii">
-0.5 -0.5 0 -0.44726781941254989 -0.47819601817682189 0 -0.41125833763128877 -0.5 0 -0.5 -0.5 0 -0.47677418566113811 -0.47226591654547062 0 -0.44726781941254989 -0.47819601817682189 0 -0.5 -0.5 0 -0.49999999999999961 -0.48079158807978961 0 -0.47677418566113811 -0.47226591654547062 0 -0.49999999999999961 -0.48079158807978961 0 -0.47677418566113811 -0.47226591654547062 0 -0.47677418566113811 -0.47226591654547062 0 -0.44726781941254989 -0.47819601817682189 0 -0.45354837132227649 -0.46374024501115152 0 -0.44251345449664742 -0.446267939543326 0 -0.4565573651062389 -0.44066179865068988 0 -0.43441323328287967 -0.43349896710203939 0 -0.44251345449664742 -0.446267939543326 0 -0.45354837132227649 -0.46374024501115152 0 -0.4565573651062389 -0.44066179865068988 0 -0.44251345449664742 -0.446267939543326 0 -0.45354837132227649 -0.46374024501115152 0 -0.43032255698341509 -0.45521457347683247 0 -0.45354837132227649 -0.46374024501115152 0 -0.43032255698341509 -0.45521457347683247 0 -0.44726781941254989 -0.47819601817682189 0 -0.45354837132227649 -0.46374024501115152 0 -0.43032255698341509 -0.45521457347683247 0 -0.47677418566113811 -0.47226591654547062 0 -0.45354837132227649 -0.46374024501115152 0 -0.4734066104760557 -0.45317059373215901 0 -0.47677418566113811 -0.47226591654547062 0 -0.45354837132227649 -0.46374024501115152 0 -0.45354837132227649 -0.46374024501115152 0 -0.4565573651062389 -0.44066179865068988 0 -0.4734066104760557 -0.45317059373215901 0 -0.4565573651062389 -0.44066179865068988 0 -0.48015313029062501 -0.4380826266216909 0 -0.4734066104760557 -0.45317059373215901 0 -0.47677418566113811 -0.47226591654547062 0 -0.4734066104760557 -0.45317059373215901 0 -0.5 -0.45110238183179191 0 -0.49999999999999961 -0.48079158807978961 0 -0.47677418566113811 -0.47226591654547062 0 -0.5 -0.45110238183179191 0 -0.48015313029062501 -0.4380826266216909 0 -0.4734066104760557 -0.45317059373215901 0 -0.5 -0.45110238183179191 0 -0.48015313029062501 -0.4380826266216909 0 -0.5 -0.4214131755837941 0 -0.46569579133502531 -0.41925717541023849 0 -0.5 -0.4214131755837941 0 -0.47526778257535468 -0.3960463478059823 0 -0.46569579133502531 -0.41925717541023849 0 -0.48015313029062501 -0.4380826266216909 0 -0.5 -0.45110238183179191 0 -0.5 -0.4214131755837941 0 -0.48512354646623262 -0.37845451176912731 0 -0.5 -0.39172396933579651 0 -0.47526778257535468 -0.3960463478059823 0 -0.48512354646623262 -0.37845451176912731 0 -0.5 -0.39172396933579651 0 -0.5 -0.36203476308779881 0 -0.5 -0.4214131755837941 0 -0.5 -0.39172396933579651 0 -0.47526778257535468 -0.3960463478059823 0 -0.48512354646623262 -0.37845451176912731 0 -0.47526778257535468 -0.3960463478059823 0 -0.46632774584278519 -0.366218592632641 0 -0.45467336078224002 -0.38653695153103662 0 -0.46632774584278519 -0.366218592632641 0 -0.43840205183134873 -0.37327149302653928 0 -0.47526778257535468 -0.3960463478059823 0 -0.45467336078224002 -0.38653695153103662 0 -0.46632774584278519 -0.366218592632641 0 -0.47526778257535468 -0.3960463478059823 0 -0.45467336078224002 -0.38653695153103662 0 -0.45612463221827632 -0.40301768298745461 0 -0.47526778257535468 -0.3960463478059823 0 -0.45612463221827632 -0.40301768298745461 0 -0.46569579133502531 -0.41925717541023849 0 -0.45612463221827632 -0.40301768298745461 0 -0.44555011804718231 -0.41648402294867082 0 -0.43664677819207132 -0.39461019324690672 0 -0.45467336078224002 -0.38653695153103662 0 -0.45612463221827632 -0.40301768298745461 0 -0.43664677819207132 -0.39461019324690672 0 -0.45467336078224002 -0.38653695153103662 0 -0.43664677819207132 -0.39461019324690672 0 -0.43840205183134873 -0.37327149302653928 0 -0.4565573651062389 -0.44066179865068988 0 -0.46569579133502531 -0.41925717541023849 0 -0.44555011804718231 -0.41648402294867082 0 -0.4565573651062389 -0.44066179865068988 0 -0.48015313029062501 -0.4380826266216909 0 -0.46569579133502531 -0.41925717541023849 0 -0.45612463221827632 -0.40301768298745461 0 -0.46569579133502531 -0.41925717541023849 0 -0.44555011804718231 -0.41648402294867082 0 -0.4565573651062389 -0.44066179865068988 0 -0.44555011804718231 -0.41648402294867082 0 -0.43441323328287967 -0.43349896710203939 0 -0.43441323328287967 -0.43349896710203939 0 -0.41878792609240728 -0.43877004790664148 0 -0.44555011804718231 -0.41648402294867082 0 -0.43441323328287967 -0.43349896710203939 0 -0.43246201599272982 -0.42020224759738151 0 -0.43441323328287967 -0.43349896710203939 0 -0.41979095212567957 -0.42257677103220642 0 -0.41878792609240728 -0.43877004790664148 0 -0.43441323328287967 -0.43349896710203939 0 -0.43246201599272982 -0.42020224759738151 0 -0.41979095212567957 -0.42257677103220642 0 -0.44555011804718231 -0.41648402294867082 0 -0.43246201599272982 -0.42020224759738151 0 -0.42714828224681067 -0.40782891081931161 0 -0.44555011804718231 -0.41648402294867082 0 -0.42714828224681067 -0.40782891081931161 0 -0.43664677819207132 -0.39461019324690672 0 -0.43246201599272982 -0.42020224759738151 0 -0.42714828224681067 -0.40782891081931161 0 -0.41979095212567957 -0.42257677103220642 0 -0.41407448751549403 -0.40799100044148351 0 -0.41979095212567957 -0.42257677103220642 0 -0.40330871272756408 -0.41980414477326378 0 -0.41407448751549403 -0.40799100044148351 0 -0.40345480655319249 -0.39556716083528382 0 -0.40330871272756408 -0.41980414477326378 0 -0.42714828224681067 -0.40782891081931161 0 -0.41407448751549403 -0.40799100044148351 0 -0.41979095212567957 -0.42257677103220642 0 -0.41126255246189652 -0.43129802310583892 0 -0.41979095212567957 -0.42257677103220642 0 -0.41878792609240728 -0.43877004790664148 0 -0.41126255246189652 -0.43129802310583892 0 -0.41979095212567957 -0.42257677103220642 0 -0.40330871272756408 -0.41980414477326378 0 -0.42467989906095949 -0.38357616753810653 0 -0.43664677819207132 -0.39461019324690672 0 -0.43840205183134873 -0.37327149302653928 0 -0.42467989906095949 -0.38357616753810653 0 -0.43840205183134873 -0.37327149302653928 0 -0.41833152443854382 -0.37077521388388007 0 -0.42714828224681067 -0.40782891081931161 0 -0.43664677819207132 -0.39461019324690672 0 -0.41989193607327929 -0.3954431299435795 0 -0.42467989906095949 -0.38357616753810653 0 -0.43664677819207132 -0.39461019324690672 0 -0.41989193607327929 -0.3954431299435795 0 -0.41989193607327929 -0.3954431299435795 0 -0.41334736287114798 -0.38308534678038508 0 -0.40345480655319249 -0.39556716083528382 0 -0.41407448751549403 -0.40799100044148351 0 -0.41989193607327929 -0.3954431299435795 0 -0.40345480655319249 -0.39556716083528382 0 -0.42714828224681067 -0.40782891081931161 0 -0.41407448751549403 -0.40799100044148351 0 -0.41989193607327929 -0.3954431299435795 0 -0.41334736287114798 -0.38308534678038508 0 -0.40345480655319249 -0.39556716083528382 0 -0.40360090037882101 -0.37133017689730369 0 -0.42467989906095949 -0.38357616753810653 0 -0.41989193607327929 -0.3954431299435795 0 -0.41334736287114798 -0.38308534678038508 0 -0.41334736287114798 -0.38308534678038508 0 -0.41833152443854382 -0.37077521388388007 0 -0.40360090037882101 -0.37133017689730369 0 -0.42467989906095949 -0.38357616753810653 0 -0.41334736287114798 -0.38308534678038508 0 -0.41833152443854382 -0.37077521388388007 0 -0.40345480655319249 -0.39556716083528382 0 -0.40360090037882101 -0.37133017689730369 0 -0.39619478813844722 -0.38324387396841109 0 -0.40345480655319249 -0.39556716083528382 0 -0.40360090037882101 -0.37133017689730369 0 -0.39619478813844722 -0.38324387396841109 0 -0.38625554332273548 -0.37540101329966569 0 -0.39491524436931091 -0.37363015639529162 0 -0.39619478813844722 -0.38324387396841109 0 -0.40360090037882101 -0.37133017689730369 0 -0.39491524436931091 -0.37363015639529162 0 -0.40345480655319249 -0.39556716083528382 0 -0.38749974168635931 -0.39976248933738279 0 -0.40330871272756408 -0.41980414477326378 0 -0.39619478813844722 -0.38324387396841109 0 -0.40345480655319249 -0.39556716083528382 0 -0.38749974168635931 -0.39976248933738279 0 -0.38749974168635931 -0.39976248933738279 0 -0.3769664123283914 -0.4109003045795378 0 -0.37469442256259078 -0.39815904361029281 0 -0.38749974168635931 -0.39976248933738279 0 -0.37913170969305299 -0.38884127204369368 0 -0.37469442256259078 -0.39815904361029281 0 -0.39619478813844722 -0.38324387396841109 0 -0.38749974168635931 -0.39976248933738279 0 -0.38625554332273548 -0.37540101329966569 0 -0.38749974168635931 -0.39976248933738279 0 -0.37913170969305299 -0.38884127204369368 0 -0.38625554332273548 -0.37540101329966569 0 -0.38749974168635931 -0.39976248933738279 0 -0.38625554332273548 -0.37540101329966569 0 -0.37913170969305299 -0.38884127204369368 0 -0.38625554332273548 -0.37540101329966569 0 -0.36863989712025741 -0.38042445352763138 0 -0.41126255246189652 -0.43129802310583892 0 -0.40330871272756408 -0.41980414477326378 0 -0.403162618901935 -0.4440411287112439 0 -0.40330871272756408 -0.41980414477326378 0 -0.38874394004998297 -0.42412396537509989 0 -0.403162618901935 -0.4440411287112439 0 -0.40330871272756408 -0.41980414477326378 0 -0.403162618901935 -0.4440411287112439 0 -0.40345480655319249 -0.39556716083528382 0 -0.40330871272756408 -0.41980414477326378 0 -0.38749974168635931 -0.39976248933738279 0 -0.40330871272756408 -0.41980414477326378 0 -0.38874394004998297 -0.42412396537509989 0 -0.3769664123283914 -0.4109003045795378 0 -0.38874394004998297 -0.42412396537509989 0 -0.3720968394384 -0.42320741441149762 0 -0.38749974168635931 -0.39976248933738279 0 -0.38874394004998297 -0.42412396537509989 0 -0.38749974168635931 -0.39976248933738279 0 -0.3769664123283914 -0.4109003045795378 0 -0.38874394004998297 -0.42412396537509989 0 -0.38874394004998297 -0.42412396537509989 0 -0.3899881384136073 -0.44848544141281699 0 -0.37488048530459422 -0.43700727243122528 0 -0.38874394004998297 -0.42412396537509989 0 -0.3899881384136073 -0.44848544141281699 0 -0.38874394004998297 -0.42412396537509989 0 -0.37488048530459422 -0.43700727243122528 0 -0.3720968394384 -0.42320741441149762 0 -0.3899881384136073 -0.44848544141281699 0 -0.36989399782307791 -0.45526404982419771 0 -0.37488048530459422 -0.43700727243122528 0 -0.41125833763128877 -0.5 0 -0.34706674106729751 -0.5 0 -0.36941405988811121 -0.47850166055742371 0 -0.3899881384136073 -0.44848544141281699 0 -0.36989399782307791 -0.45526404982419771 0 -0.38874394004998297 -0.42412396537509989 0 -0.3899881384136073 -0.44848544141281699 0 -0.403162618901935 -0.4440411287112439 0 -0.3899881384136073 -0.44848544141281699 0 -0.403162618901935 -0.4440411287112439 0 -0.403162618901935 -0.4440411287112439 0 -0.40308051418616431 -0.45766231132334712 0 -0.3899881384136073 -0.44848544141281699 0 -0.403162618901935 -0.4440411287112439 0 -0.40308051418616431 -0.45766231132334712 0 -0.3899881384136073 -0.44848544141281699 0 -0.40308051418616431 -0.45766231132334712 0 -0.39109311815093578 -0.4701210086825735 0 -0.40308051418616431 -0.45766231132334712 0 -0.39109311815093578 -0.4701210086825735 0 -0.41517611869776261 -0.47155016131889571 0 -0.3899881384136073 -0.44848544141281699 0 -0.38258409246157993 -0.45970958420396663 0 -0.39109311815093578 -0.4701210086825735 0 -0.3899881384136073 -0.44848544141281699 0 -0.39109311815093578 -0.4701210086825735 0 -0.3899881384136073 -0.44848544141281699 0 -0.38258409246157993 -0.45970958420396663 0 -0.36989399782307791 -0.45526404982419771 0 -0.38258409246157993 -0.45970958420396663 0 -0.39109311815093578 -0.4701210086825735 0 -0.36941405988811121 -0.47850166055742371 0 -0.39109311815093578 -0.4701210086825735 0 -0.41125833763128877 -0.5 0 -0.36941405988811121 -0.47850166055742371 0 -0.39109311815093578 -0.4701210086825735 0 -0.41517611869776261 -0.47155016131889571 0 -0.41125833763128877 -0.5 0 -0.44726781941254989 -0.47819601817682189 0 -0.41517611869776261 -0.47155016131889571 0 -0.41125833763128877 -0.5 0 -0.44726781941254989 -0.47819601817682189 0 -0.41517611869776261 -0.47155016131889571 0 -0.43032255698341509 -0.45521457347683247 0 -0.43441323328287967 -0.43349896710203939 0 -0.43032255698341509 -0.45521457347683247 0 -0.41878792609240728 -0.43877004790664148 0 -0.44251345449664742 -0.446267939543326 0 -0.43441323328287967 -0.43349896710203939 0 -0.43032255698341509 -0.45521457347683247 0 -0.403162618901935 -0.4440411287112439 0 -0.41878792609240728 -0.43877004790664148 0 -0.41126255246189652 -0.43129802310583892 0 -0.403162618901935 -0.4440411287112439 0 -0.41878792609240728 -0.43877004790664148 0 -0.43032255698341509 -0.45521457347683247 0 -0.41554410378925533 -0.45299442140706198 0 -0.41878792609240728 -0.43877004790664148 0 -0.403162618901935 -0.4440411287112439 0 -0.41554410378925533 -0.45299442140706198 0 -0.41878792609240728 -0.43877004790664148 0 -0.403162618901935 -0.4440411287112439 0 -0.40308051418616431 -0.45766231132334712 0 -0.41554410378925533 -0.45299442140706198 0 -0.41517611869776261 -0.47155016131889571 0 -0.43032255698341509 -0.45521457347683247 0 -0.41554410378925533 -0.45299442140706198 0 -0.40308051418616431 -0.45766231132334712 0 -0.41517611869776261 -0.47155016131889571 0 -0.41554410378925533 -0.45299442140706198 0 -0.43932345906701242 -0.26840506038995982 0 -0.45697176271692003 -0.25705989673299151 0 -0.4354576440753809 -0.2535912274846438 0 -0.45697176271692003 -0.25705989673299151 0 -0.4354576440753809 -0.2535912274846438 0 -0.45697176271692003 -0.25705989673299151 0 -0.4354576440753809 -0.2535912274846438 0 -0.44283674427152059 -0.24637665446568971 0 -0.43932345906701242 -0.26840506038995982 0 -0.4603563420090937 -0.27505415637453312 0 -0.44318927405864261 -0.28321889329527611 0 -0.43932345906701242 -0.26840506038995982 0 -0.4603563420090937 -0.27505415637453312 0 -0.45697176271692003 -0.25705989673299151 0 -0.43932345906701242 -0.26840506038995982 0 -0.44318927405864261 -0.28321889329527611 0 -0.4603563420090937 -0.27505415637453312 0 -0.45697176271692003 -0.25705989673299151 0 -0.47848588135845921 -0.26052856598133872 0 -0.45697176271692003 -0.25705989673299151 0 -0.47848588135845921 -0.26052856598133872 0 -0.46640273863866238 -0.24810959993952919 0 -0.45697176271692003 -0.25705989673299151 0 -0.47848588135845921 -0.26052856598133872 0 -0.47848588135845921 -0.26052856598133872 0 -0.47757018411114027 -0.24248545189784851 0 -0.46640273863866238 -0.24810959993952919 0 -0.47848588135845921 -0.26052856598133872 0 -0.49999999999999828 -0.26399723522968549 0 -0.5 -0.24116489137494579 0 -0.47848588135845921 -0.26052856598133872 0 -0.49999999999999828 -0.26399723522968549 0 -0.47848588135845921 -0.26052856598133872 0 -0.49999999999999828 -0.26399723522968549 0 -0.48243991995785951 -0.27859841029531268 0 -0.49999999999999828 -0.26399723522968549 0 -0.48243991995785951 -0.27859841029531268 0 -0.5 -0.28332679291074447 0 -0.4603563420090937 -0.27505415637453312 0 -0.47848588135845921 -0.26052856598133872 0 -0.48243991995785951 -0.27859841029531268 0 -0.4603563420090937 -0.27505415637453312 0 -0.48243991995785951 -0.27859841029531268 0 -0.46995573680468222 -0.28949006934584348 0 -0.48243991995785951 -0.27859841029531268 0 -0.46995573680468222 -0.28949006934584348 0 -0.48274080377450962 -0.29619263101961069 0 -0.46995573680468222 -0.28949006934584348 0 -0.48274080377450962 -0.29619263101961069 0 -0.46806086374434602 -0.30029087722449349 0 -0.48243991995785951 -0.27859841029531268 0 -0.48274080377450962 -0.29619263101961069 0 -0.5 -0.28332679291074447 0 -0.48274080377450962 -0.29619263101961069 0 -0.5 -0.28332679291074447 0 -0.50000000000000044 -0.30265635059180351 0 -0.48274080377450962 -0.29619263101961069 0 -0.50000000000000044 -0.30265635059180351 0 -0.47632701325503518 -0.32081845492297201 0 -0.50000000000000044 -0.30265635059180351 0 -0.47632701325503518 -0.32081845492297201 0 -0.48274080377450962 -0.29619263101961069 0 -0.46806086374434602 -0.30029087722449349 0 -0.47632701325503518 -0.32081845492297201 0 -0.45462855779171613 -0.3051650103045267 0 -0.46806086374434602 -0.30029087722449349 0 -0.47632701325503518 -0.32081845492297201 0 -0.45462855779171613 -0.3051650103045267 0 -0.46806086374434602 -0.30029087722449349 0 -0.4566522070957868 -0.28978822052951492 0 -0.4603563420090937 -0.27505415637453312 0 -0.4566522070957868 -0.28978822052951492 0 -0.44318927405864261 -0.28321889329527611 0 -0.46995573680468222 -0.28949006934584348 0 -0.46806086374434602 -0.30029087722449349 0 -0.4566522070957868 -0.28978822052951492 0 -0.4603563420090937 -0.27505415637453312 0 -0.46995573680468222 -0.28949006934584348 0 -0.4566522070957868 -0.28978822052951492 0 -0.4566522070957868 -0.28978822052951492 0 -0.44318927405864261 -0.28321889329527611 0 -0.44058443645945089 -0.29794477020706062 0 -0.45462855779171613 -0.3051650103045267 0 -0.44058443645945089 -0.29794477020706062 0 -0.44396708088736531 -0.31751625333295719 0 -0.44058443645945089 -0.29794477020706062 0 -0.44396708088736531 -0.31751625333295719 0 -0.430051923747509 -0.30980049197414672 0 -0.45462855779171613 -0.3051650103045267 0 -0.4566522070957868 -0.28978822052951492 0 -0.44058443645945089 -0.29794477020706062 0 -0.44396708088736531 -0.31751625333295719 0 -0.45265402651006992 -0.33898055925414 0 -0.47632701325503518 -0.32081845492297201 0 -0.45462855779171613 -0.3051650103045267 0 -0.44396708088736531 -0.31751625333295719 0 -0.47632701325503518 -0.32081845492297201 0 -0.45265402651006992 -0.33898055925414 0 -0.44244656020315781 -0.35412848842191452 0 -0.42930798588068142 -0.3343424393830286 0 -0.44396708088736531 -0.31751625333295719 0 -0.45265402651006992 -0.33898055925414 0 -0.42930798588068142 -0.3343424393830286 0 -0.45265402651006992 -0.33898055925414 0 -0.47632701325503518 -0.32081845492297201 0 -0.50000000000000044 -0.30265635059180351 0 -0.47632701325503518 -0.32081845492297201 0 -0.5 -0.33234555683980121 0 -0.47632701325503518 -0.32081845492297201 0 -0.5 -0.33234555683980121 0 -0.479323036386192 -0.34388428911831509 0 -0.45265402651006992 -0.33898055925414 0 -0.47632701325503518 -0.32081845492297201 0 -0.479323036386192 -0.34388428911831509 0 -0.48512354646623262 -0.37845451176912731 0 -0.5 -0.36203476308779881 0 -0.46632774584278519 -0.366218592632641 0 -0.479323036386192 -0.34388428911831509 0 -0.5 -0.36203476308779881 0 -0.46632774584278519 -0.366218592632641 0 -0.5 -0.33234555683980121 0 -0.479323036386192 -0.34388428911831509 0 -0.5 -0.36203476308779881 0 -0.45265402651006992 -0.33898055925414 0 -0.46632774584278519 -0.366218592632641 0 -0.44244656020315781 -0.35412848842191452 0 -0.45265402651006992 -0.33898055925414 0 -0.479323036386192 -0.34388428911831509 0 -0.46632774584278519 -0.366218592632641 0 -0.46632774584278519 -0.366218592632641 0 -0.44244656020315781 -0.35412848842191452 0 -0.43840205183134873 -0.37327149302653928 0 -0.44244656020315781 -0.35412848842191452 0 -0.43840205183134873 -0.37327149302653928 0 -0.42554099095090397 -0.35782935781322389 0 -0.43840205183134873 -0.37327149302653928 0 -0.42554099095090397 -0.35782935781322389 0 -0.41833152443854382 -0.37077521388388007 0 -0.44244656020315781 -0.35412848842191452 0 -0.42554099095090397 -0.35782935781322389 0 -0.42930798588068142 -0.3343424393830286 0 -0.42554099095090397 -0.35782935781322389 0 -0.41474144118454698 -0.34574148402694288 0 -0.42930798588068142 -0.3343424393830286 0 -0.41474144118454698 -0.34574148402694288 0 -0.40621852669303649 -0.35672651955194529 0 -0.39867866347188652 -0.34249273185709511 0 -0.42554099095090397 -0.35782935781322389 0 -0.41474144118454698 -0.34574148402694288 0 -0.40621852669303649 -0.35672651955194529 0 -0.42554099095090397 -0.35782935781322389 0 -0.41833152443854382 -0.37077521388388007 0 -0.40621852669303649 -0.35672651955194529 0 -0.41833152443854382 -0.37077521388388007 0 -0.40360090037882101 -0.37133017689730369 0 -0.40621852669303649 -0.35672651955194529 0 -0.40360090037882101 -0.37133017689730369 0 -0.39360974563723988 -0.3645455614157862 0 -0.40621852669303649 -0.35672651955194529 0 -0.38625554332273548 -0.37540101329966569 0 -0.39360974563723988 -0.3645455614157862 0 -0.39491524436931091 -0.37363015639529162 0 -0.40360090037882101 -0.37133017689730369 0 -0.39360974563723988 -0.3645455614157862 0 -0.39491524436931091 -0.37363015639529162 0 -0.39360974563723988 -0.3645455614157862 0 -0.38093996207336889 -0.36714747753266519 0 -0.37491991041615952 -0.35321838529164901 0 -0.38625554332273548 -0.37540101329966569 0 -0.39360974563723988 -0.3645455614157862 0 -0.38093996207336889 -0.36714747753266519 0 -0.38625554332273548 -0.37540101329966569 0 -0.38093996207336889 -0.36714747753266519 0 -0.36863989712025741 -0.38042445352763138 0 -0.39360974563723988 -0.3645455614157862 0 -0.37491991041615952 -0.35321838529164901 0 -0.39360974563723988 -0.3645455614157862 0 -0.38954161812038218 -0.35183326699998207 0 -0.37491991041615952 -0.35321838529164901 0 -0.38954161812038218 -0.35183326699998207 0 -0.39867866347188652 -0.34249273185709511 0 -0.37819079360169477 -0.33904837211736988 0 -0.37819079360169477 -0.33904837211736988 0 -0.37491991041615952 -0.35321838529164901 0 -0.38954161812038218 -0.35183326699998207 0 -0.37819079360169477 -0.33904837211736988 0 -0.37491991041615952 -0.35321838529164901 0 -0.39360974563723988 -0.3645455614157862 0 -0.38954161812038218 -0.35183326699998207 0 -0.40621852669303649 -0.35672651955194529 0 -0.38954161812038218 -0.35183326699998207 0 -0.40621852669303649 -0.35672651955194529 0 -0.39867866347188652 -0.34249273185709511 0 -0.39867866347188652 -0.34249273185709511 0 -0.39454150867288312 -0.326979089423311 0 -0.41062380758676231 -0.33282581492579522 0 -0.39867866347188652 -0.34249273185709511 0 -0.37819079360169477 -0.33904837211736988 0 -0.39454150867288312 -0.326979089423311 0 -0.37819079360169477 -0.33904837211736988 0 -0.3798629668396365 -0.32482804654631869 0 -0.39454150867288312 -0.326979089423311 0 -0.3798629668396365 -0.32482804654631869 0 -0.39454150867288312 -0.326979089423311 0 -0.39147072120311183 -0.31072134582655708 0 -0.3798629668396365 -0.32482804654631869 0 -0.39147072120311183 -0.31072134582655708 0 -0.37719615907044179 -0.31201771505523451 0 -0.39454150867288312 -0.326979089423311 0 -0.41246684787897431 -0.31614261336313709 0 -0.39147072120311183 -0.31072134582655708 0 -0.39454150867288312 -0.326979089423311 0 -0.41246684787897431 -0.31614261336313709 0 -0.41062380758676231 -0.33282581492579522 0 -0.41246684787897431 -0.31614261336313709 0 -0.41062380758676231 -0.33282581492579522 0 -0.42930798588068142 -0.3343424393830286 0 -0.41474144118454698 -0.34574148402694288 0 -0.41062380758676231 -0.33282581492579522 0 -0.42930798588068142 -0.3343424393830286 0 -0.41474144118454698 -0.34574148402694288 0 -0.39867866347188652 -0.34249273185709511 0 -0.41062380758676231 -0.33282581492579522 0 -0.44396708088736531 -0.31751625333295719 0 -0.42930798588068142 -0.3343424393830286 0 -0.430051923747509 -0.30980049197414672 0 -0.41246684787897431 -0.31614261336313709 0 -0.42930798588068142 -0.3343424393830286 0 -0.430051923747509 -0.30980049197414672 0 -0.44058443645945089 -0.29794477020706062 0 -0.430051923747509 -0.30980049197414672 0 -0.42697642013493398 -0.29174327672154893 0 -0.430051923747509 -0.30980049197414672 0 -0.42697642013493398 -0.29174327672154893 0 -0.41761906753114408 -0.30297443644642758 0 -0.44318927405864261 -0.28321889329527611 0 -0.44058443645945089 -0.29794477020706062 0 -0.42697642013493398 -0.29174327672154893 0 -0.44318927405864261 -0.28321889329527611 0 -0.42697642013493398 -0.29174327672154893 0 -0.42975846337254331 -0.27724912314215178 0 -0.42697642013493398 -0.29174327672154893 0 -0.41559379501285643 -0.27831000248164939 0 -0.42975846337254331 -0.27724912314215178 0 -0.42697642013493398 -0.29174327672154893 0 -0.41315208469472342 -0.2919693827343558 0 -0.41761906753114408 -0.30297443644642758 0 -0.42697642013493398 -0.29174327672154893 0 -0.41315208469472342 -0.2919693827343558 0 -0.41559379501285643 -0.27831000248164939 0 -0.41315208469472342 -0.2919693827343558 0 -0.40161286674396168 -0.28536667819205069 0 -0.41559379501285643 -0.27831000248164939 0 -0.41246684787897431 -0.31614261336313709 0 -0.41761906753114408 -0.30297443644642758 0 -0.40356622480102111 -0.300462020459353 0 -0.41315208469472342 -0.2919693827343558 0 -0.41761906753114408 -0.30297443644642758 0 -0.40356622480102111 -0.300462020459353 0 -0.41246684787897431 -0.31614261336313709 0 -0.430051923747509 -0.30980049197414672 0 -0.41761906753114408 -0.30297443644642758 0 -0.41246684787897431 -0.31614261336313709 0 -0.40356622480102111 -0.300462020459353 0 -0.39147072120311183 -0.31072134582655708 0 -0.40356622480102111 -0.300462020459353 0 -0.39147072120311183 -0.31072134582655708 0 -0.38580026176742188 -0.29456222805049043 0 -0.37719615907044179 -0.31201771505523451 0 -0.38580026176742188 -0.29456222805049043 0 -0.36720891156492752 -0.29782595209587509 0 -0.39147072120311183 -0.31072134582655708 0 -0.37719615907044179 -0.31201771505523451 0 -0.38580026176742188 -0.29456222805049043 0 -0.38580026176742188 -0.29456222805049043 0 -0.38920282767694792 -0.27694150998667488 0 -0.3762108453312456 -0.27871096070824458 0 -0.38580026176742188 -0.29456222805049043 0 -0.3762108453312456 -0.27871096070824458 0 -0.36720891156492752 -0.29782595209587509 0 -0.38580026176742188 -0.29456222805049043 0 -0.40161286674396168 -0.28536667819205069 0 -0.38920282767694792 -0.27694150998667488 0 -0.40356622480102111 -0.300462020459353 0 -0.38580026176742188 -0.29456222805049043 0 -0.40161286674396168 -0.28536667819205069 0 -0.41315208469472342 -0.2919693827343558 0 -0.40356622480102111 -0.300462020459353 0 -0.40161286674396168 -0.28536667819205069 0 -0.40161286674396168 -0.28536667819205069 0 -0.40135886548790661 -0.2718453662836095 0 -0.41559379501285643 -0.27831000248164939 0 -0.40135886548790661 -0.2718453662836095 0 -0.3920919275131729 -0.26820408872215312 0 -0.38920282767694792 -0.27694150998667488 0 -0.40135886548790661 -0.2718453662836095 0 -0.3920919275131729 -0.26820408872215312 0 -0.39559587231203169 -0.25892549115302049 0 -0.40161286674396168 -0.28536667819205069 0 -0.40135886548790661 -0.2718453662836095 0 -0.38920282767694792 -0.27694150998667488 0 -0.3762108453312456 -0.27871096070824458 0 -0.38221014457580549 -0.26510398746530722 0 -0.37167989672784851 -0.25627262037112741 0 -0.3920919275131729 -0.26820408872215312 0 -0.38920282767694792 -0.27694150998667488 0 -0.38221014457580549 -0.26510398746530722 0 -0.38920282767694792 -0.27694150998667488 0 -0.3762108453312456 -0.27871096070824458 0 -0.38221014457580549 -0.26510398746530722 0 -0.38089513924397672 -0.25142371241438871 0 -0.39559587231203169 -0.25892549115302049 0 -0.38944469955622107 -0.24133701782607611 0 -0.38089513924397672 -0.25142371241438871 0 -0.37167989672784851 -0.25627262037112741 0 -0.37367033827505741 -0.25148678553651221 0 -0.38089513924397672 -0.25142371241438871 0 -0.38221014457580549 -0.26510398746530722 0 -0.37167989672784851 -0.25627262037112741 0 -0.38089513924397672 -0.25142371241438871 0 -0.37167989672784851 -0.25627262037112741 0 -0.3920919275131729 -0.26820408872215312 0 -0.38221014457580549 -0.26510398746530722 0 -0.39559587231203169 -0.25892549115302049 0 -0.38089513924397672 -0.25142371241438871 0 -0.38221014457580549 -0.26510398746530722 0 -0.39559587231203169 -0.25892549115302049 0 -0.39559587231203169 -0.25892549115302049 0 -0.41020766522609209 -0.26527601461350042 0 -0.40992198791325701 -0.24947417548071479 0 -0.40135886548790661 -0.2718453662836095 0 -0.39559587231203169 -0.25892549115302049 0 -0.41020766522609209 -0.26527601461350042 0 -0.41020766522609209 -0.26527601461350042 0 -0.423709368589271 -0.26456838282232448 0 -0.40992198791325701 -0.24947417548071479 0 -0.40135886548790661 -0.2718453662836095 0 -0.41020766522609209 -0.26527601461350042 0 -0.41559379501285643 -0.27831000248164939 0 -0.41020766522609209 -0.26527601461350042 0 -0.41559379501285643 -0.27831000248164939 0 -0.423709368589271 -0.26456838282232448 0 -0.41559379501285643 -0.27831000248164939 0 -0.42975846337254331 -0.27724912314215178 0 -0.423709368589271 -0.26456838282232448 0 -0.43932345906701242 -0.26840506038995982 0 -0.44318927405864261 -0.28321889329527611 0 -0.42975846337254331 -0.27724912314215178 0 -0.43932345906701242 -0.26840506038995982 0 -0.42975846337254331 -0.27724912314215178 0 -0.423709368589271 -0.26456838282232448 0 -0.43932345906701242 -0.26840506038995982 0 -0.4354576440753809 -0.2535912274846438 0 -0.43932345906701242 -0.26840506038995982 0 -0.4354576440753809 -0.2535912274846438 0 -0.423709368589271 -0.26456838282232448 0 -0.4354576440753809 -0.2535912274846438 0 -0.423709368589271 -0.26456838282232448 0 -0.40992198791325701 -0.24947417548071479 0 -0.4354576440753809 -0.2535912274846438 0 -0.40992198791325701 -0.24947417548071479 0 -0.32217121299208129 -0.25443420877968947 0 -0.32216010565072362 -0.2692770719731577 0 -0.33829816503805671 -0.24422995393675501 0 -0.31867308332327832 -0.25378710081672701 0 -0.30997779029908012 -0.26425488083538479 0 -0.31258572357348707 -0.24620079465722061 0 -0.32217121299208129 -0.25443420877968947 0 -0.32216010565072362 -0.2692770719731577 0 -0.32217121299208129 -0.25443420877968947 0 -0.31867308332327832 -0.25378710081672701 0 -0.32216010565072362 -0.2692770719731577 0 -0.31867308332327832 -0.25378710081672701 0 -0.32215250979866228 -0.27942749315439752 0 -0.30997779029908012 -0.26425488083538479 0 -0.31867308332327832 -0.25378710081672701 0 -0.32215250979866228 -0.27942749315439752 0 -0.31867308332327832 -0.25378710081672701 0 -0.32215250979866228 -0.27942749315439752 0 -0.32216010565072362 -0.2692770719731577 0 -0.32215250979866228 -0.27942749315439752 0 -0.31000848285488408 -0.28087178741051477 0 -0.30997779029908012 -0.26425488083538479 0 -0.32215250979866228 -0.27942749315439752 0 -0.32215033458481768 -0.2823342554880246 0 -0.31000848285488408 -0.28087178741051477 0 -0.32215250979866228 -0.27942749315439752 0 -0.32216010565072362 -0.2692770719731577 0 -0.32215250979866228 -0.27942749315439752 0 -0.32215033458481768 -0.2823342554880246 0 -0.32215250979866228 -0.27942749315439752 0 -0.32216010565072362 -0.2692770719731577 0 -0.34710021197282243 -0.26920604331405268 0 -0.32215250979866228 -0.27942749315439752 0 -0.34710021197282243 -0.26920604331405268 0 -0.32215033458481768 -0.2823342554880246 0 -0.34710021197282243 -0.26920604331405268 0 -0.32215033458481768 -0.2823342554880246 0 -0.34710021197282243 -0.26920604331405268 0 -0.34117531910023169 -0.29153333602334058 0 -0.32215033458481768 -0.2823342554880246 0 -0.32216010565072362 -0.2692770719731577 0 -0.33829816503805671 -0.24422995393675501 0 -0.32216010565072362 -0.2692770719731577 0 -0.34710021197282243 -0.26920604331405268 0 -0.33829816503805671 -0.24422995393675501 0 -0.35038968845556839 -0.2503545795214504 0 -0.34710021197282243 -0.26920604331405268 0 -0.33829816503805671 -0.24422995393675501 0 -0.35038968845556839 -0.2503545795214504 0 -0.34710021197282243 -0.26920604331405268 0 -0.3627033311314895 -0.24973241025013371 0 -0.37167989672784851 -0.25627262037112741 0 -0.34710021197282243 -0.26920604331405268 0 -0.3627033311314895 -0.24973241025013371 0 -0.37167989672784851 -0.25627262037112741 0 -0.34710021197282243 -0.26920604331405268 0 -0.37167989672784851 -0.25627262037112741 0 -0.37367033827505741 -0.25148678553651221 0 -0.3627033311314895 -0.24973241025013371 0 -0.37167989672784851 -0.25627262037112741 0 -0.37367033827505741 -0.25148678553651221 0 -0.37167989672784851 -0.25627262037112741 0 -0.34710021197282243 -0.26920604331405268 0 -0.36116302967452107 -0.28155946627999262 0 -0.3762108453312456 -0.27871096070824458 0 -0.37167989672784851 -0.25627262037112741 0 -0.36116302967452107 -0.28155946627999262 0 -0.37167989672784851 -0.25627262037112741 0 -0.36116302967452107 -0.28155946627999262 0 -0.34710021197282243 -0.26920604331405268 0 -0.36116302967452107 -0.28155946627999262 0 -0.34117531910023169 -0.29153333602334058 0 -0.36116302967452107 -0.28155946627999262 0 -0.35064616262119258 -0.30684631218885722 0 -0.36116302967452107 -0.28155946627999262 0 -0.35064616262119258 -0.30684631218885722 0 -0.34117531910023169 -0.29153333602334058 0 -0.3762108453312456 -0.27871096070824458 0 -0.36116302967452107 -0.28155946627999262 0 -0.36720891156492752 -0.29782595209587509 0 -0.36116302967452107 -0.28155946627999262 0 -0.36720891156492752 -0.29782595209587509 0 -0.35064616262119258 -0.30684631218885722 0 -0.37719615907044179 -0.31201771505523451 0 -0.36720891156492752 -0.29782595209587509 0 -0.35064616262119258 -0.30684631218885722 0 -0.34117531910023169 -0.29153333602334058 0 -0.32542405318954548 -0.3035359652504156 0 -0.33702485707061941 -0.31288841564598219 0 -0.35064616262119258 -0.30684631218885722 0 -0.34117531910023169 -0.29153333602334058 0 -0.33702485707061941 -0.31288841564598219 0 -0.34117531910023169 -0.29153333602334058 0 -0.32215033458481768 -0.2823342554880246 0 -0.32542405318954548 -0.3035359652504156 0 -0.32215033458481768 -0.2823342554880246 0 -0.30433750461683667 -0.29170707153844833 0 -0.32214697007686038 -0.28683028471179278 0 -0.31410615250000468 -0.30007038043574291 0 -0.32542405318954548 -0.3035359652504156 0 -0.32214697007686038 -0.28683028471179278 0 -0.31410615250000468 -0.30007038043574291 0 -0.30433750461683667 -0.29170707153844833 0 -0.32214697007686038 -0.28683028471179278 0 -0.32215033458481768 -0.2823342554880246 0 -0.32542405318954548 -0.3035359652504156 0 -0.32214697007686038 -0.28683028471179278 0 -0.32215033458481768 -0.2823342554880246 0 -0.30433750461683667 -0.29170707153844833 0 -0.32215033458481768 -0.2823342554880246 0 -0.32542405318954548 -0.3035359652504156 0 -0.32214697007686038 -0.28683028471179278 0 -0.32215033458481768 -0.2823342554880246 0 -0.31410615250000468 -0.30007038043574291 0 -0.31789211098228881 -0.31461544700556621 0 -0.30635074561345732 -0.31695621525982293 0 -0.31410615250000468 -0.30007038043574291 0 -0.32542405318954548 -0.3035359652504156 0 -0.31789211098228881 -0.31461544700556621 0 -0.32542405318954548 -0.3035359652504156 0 -0.31789211098228881 -0.31461544700556621 0 -0.32826268447693169 -0.32494127051638938 0 -0.32542405318954548 -0.3035359652504156 0 -0.32826268447693169 -0.32494127051638938 0 -0.31789211098228881 -0.31461544700556621 0 -0.31531691913150439 -0.32757340356546027 0 -0.32826268447693169 -0.32494127051638938 0 -0.31789211098228881 -0.31461544700556621 0 -0.31531691913150439 -0.32757340356546027 0 -0.30635074561345732 -0.31695621525982293 0 -0.3228205582904996 -0.33695961683759101 0 -0.32826268447693169 -0.32494127051638938 0 -0.33208731660970908 -0.3526385083134555 0 -0.31531691913150439 -0.32757340356546027 0 -0.31561531294385309 -0.34268528495505862 0 -0.3228205582904996 -0.33695961683759101 0 -0.31531691913150439 -0.32757340356546027 0 -0.3228205582904996 -0.33695961683759101 0 -0.32826268447693169 -0.32494127051638938 0 -0.32826268447693169 -0.32494127051638938 0 -0.33208731660970908 -0.3526385083134555 0 -0.34012929556786409 -0.33213315809772181 0 -0.32826268447693169 -0.32494127051638938 0 -0.33783524240760548 -0.33764899931507752 0 -0.32826268447693169 -0.32494127051638938 0 -0.33208731660970908 -0.3526385083134555 0 -0.33783524240760548 -0.33764899931507752 0 -0.34012929556786409 -0.33213315809772181 0 -0.32826268447693169 -0.32494127051638938 0 -0.33783524240760548 -0.33764899931507752 0 -0.34012929556786409 -0.33213315809772181 0 -0.32542405318954548 -0.3035359652504156 0 -0.33702485707061941 -0.31288841564598219 0 -0.32826268447693169 -0.32494127051638938 0 -0.34012929556786409 -0.33213315809772181 0 -0.33702485707061941 -0.31288841564598219 0 -0.32826268447693169 -0.32494127051638938 0 -0.35064616262119258 -0.30684631218885722 0 -0.34012929556786409 -0.33213315809772181 0 -0.33702485707061941 -0.31288841564598219 0 -0.35064616262119258 -0.30684631218885722 0 -0.34012929556786409 -0.33213315809772181 0 -0.36424977599548891 -0.32625825939824782 0 -0.35064616262119258 -0.30684631218885722 0 -0.34012929556786409 -0.33213315809772181 0 -0.37719615907044179 -0.31201771505523451 0 -0.35064616262119258 -0.30684631218885722 0 -0.36424977599548891 -0.32625825939824782 0 -0.3798629668396365 -0.32482804654631869 0 -0.37719615907044179 -0.31201771505523451 0 -0.36424977599548891 -0.32625825939824782 0 -0.37819079360169477 -0.33904837211736988 0 -0.36424977599548891 -0.32625825939824782 0 -0.35752460299201172 -0.34267577169468549 0 -0.37819079360169477 -0.33904837211736988 0 -0.3798629668396365 -0.32482804654631869 0 -0.36424977599548891 -0.32625825939824782 0 -0.34012929556786409 -0.33213315809772181 0 -0.35752460299201172 -0.34267577169468549 0 -0.33783524240760548 -0.33764899931507752 0 -0.35752460299201172 -0.34267577169468549 0 -0.34538744137778221 -0.34914180370282999 0 -0.33783524240760548 -0.33764899931507752 0 -0.34012929556786409 -0.33213315809772181 0 -0.35752460299201172 -0.34267577169468549 0 -0.34012929556786409 -0.33213315809772181 0 -0.36424977599548891 -0.32625825939824782 0 -0.35752460299201172 -0.34267577169468549 0 -0.35752460299201172 -0.34267577169468549 0 -0.34538744137778221 -0.34914180370282999 0 -0.35237484667998781 -0.36420071680673688 0 -0.37819079360169477 -0.33904837211736988 0 -0.35752460299201172 -0.34267577169468549 0 -0.37491991041615952 -0.35321838529164901 0 -0.35752460299201172 -0.34267577169468549 0 -0.37491991041615952 -0.35321838529164901 0 -0.35752460299201172 -0.34267577169468549 0 -0.37491991041615952 -0.35321838529164901 0 -0.35237484667998781 -0.36420071680673688 0 -0.38093996207336889 -0.36714747753266519 0 -0.37491991041615952 -0.35321838529164901 0 -0.36863989712025741 -0.38042445352763138 0 -0.37491991041615952 -0.35321838529164901 0 -0.36863989712025741 -0.38042445352763138 0 -0.37491991041615952 -0.35321838529164901 0 -0.35237484667998781 -0.36420071680673688 0 -0.36863989712025741 -0.38042445352763138 0 -0.33208731660970908 -0.3526385083134555 0 -0.31868242348725911 -0.37052796873382299 0 -0.33584705405812221 -0.3803445523830587 0 -0.35237484667998781 -0.36420071680673688 0 -0.33208731660970908 -0.3526385083134555 0 -0.33584705405812221 -0.3803445523830587 0 -0.33208731660970908 -0.3526385083134555 0 -0.33584705405812221 -0.3803445523830587 0 -0.34538744137778221 -0.34914180370282999 0 -0.35237484667998781 -0.36420071680673688 0 -0.33208731660970908 -0.3526385083134555 0 -0.33783524240760548 -0.33764899931507752 0 -0.34538744137778221 -0.34914180370282999 0 -0.33208731660970908 -0.3526385083134555 0 -0.31561531294385309 -0.34268528495505862 0 -0.33208731660970908 -0.3526385083134555 0 -0.31422729749953149 -0.35685687261487298 0 -0.31561531294385309 -0.34268528495505862 0 -0.3228205582904996 -0.33695961683759101 0 -0.33208731660970908 -0.3526385083134555 0 -0.33208731660970908 -0.3526385083134555 0 -0.31422729749953149 -0.35685687261487298 0 -0.31868242348725911 -0.37052796873382299 0 -0.31422729749953149 -0.35685687261487298 0 -0.31868242348725911 -0.37052796873382299 0 -0.30275996053215831 -0.3665329042913868 0 -0.31868242348725911 -0.37052796873382299 0 -0.30275996053215831 -0.3665329042913868 0 -0.30919573188590821 -0.38567980327496681 0 -0.31422729749953149 -0.35685687261487298 0 -0.30275996053215831 -0.3665329042913868 0 -0.30213839958074729 -0.34969402953243811 0 -0.31561531294385309 -0.34268528495505862 0 -0.31422729749953149 -0.35685687261487298 0 -0.30213839958074729 -0.34969402953243811 0 -0.30275996053215831 -0.3665329042913868 0 -0.30213839958074729 -0.34969402953243811 0 -0.28211155982915709 -0.35456281667167 0 -0.30213839958074729 -0.34969402953243811 0 -0.28211155982915709 -0.35456281667167 0 -0.29305350780738743 -0.33703390206723471 0 -0.30275996053215831 -0.3665329042913868 0 -0.28211155982915709 -0.35456281667167 0 -0.28984414950446341 -0.38084723950316601 0 -0.28211155982915709 -0.35456281667167 0 -0.2702172579421101 -0.37459206478479767 0 -0.28984414950446341 -0.38084723950316601 0 -0.28211155982915709 -0.35456281667167 0 -0.2702172579421101 -0.37459206478479767 0 -0.26570149180532548 -0.3562060601892138 0 -0.2702172579421101 -0.37459206478479767 0 -0.2524325929932697 -0.36239213815041132 0 -0.26570149180532548 -0.3562060601892138 0 -0.2702172579421101 -0.37459206478479767 0 -0.2524325929932697 -0.36239213815041132 0 -0.2440125419064042 -0.37989641923614048 0 -0.2524325929932697 -0.36239213815041132 0 -0.25178814730042742 -0.34428927636418571 0 -0.26570149180532548 -0.3562060601892138 0 -0.25178814730042742 -0.34428927636418571 0 -0.26570149180532548 -0.3562060601892138 0 -0.26652000185485009 -0.34142815004643401 0 -0.28211155982915709 -0.35456281667167 0 -0.26570149180532548 -0.3562060601892138 0 -0.26652000185485009 -0.34142815004643401 0 -0.28211155982915709 -0.35456281667167 0 -0.2795759959516389 -0.3389697766418075 0 -0.26652000185485009 -0.34142815004643401 0 -0.2795759959516389 -0.3389697766418075 0 -0.27070710544586241 -0.32928325887821869 0 -0.28267301209246032 -0.32709305388928062 0 -0.2795759959516389 -0.3389697766418075 0 -0.27070710544586241 -0.32928325887821869 0 -0.26652000185485009 -0.34142815004643401 0 -0.25178814730042742 -0.34428927636418571 0 -0.26652000185485009 -0.34142815004643401 0 -0.25866175722663598 -0.33255465875843171 0 -0.27070710544586241 -0.32928325887821869 0 -0.26652000185485009 -0.34142815004643401 0 -0.25866175722663598 -0.33255465875843171 0 -0.27070710544586241 -0.32928325887821869 0 -0.25866175722663598 -0.33255465875843171 0 -0.26239338119919781 -0.32405676094116809 0 -0.25866175722663598 -0.33255465875843171 0 -0.25390682657738312 -0.32645758333369929 0 -0.24819641634333209 -0.33199188044070538 0 -0.25178814730042742 -0.34428927636418571 0 -0.25866175722663598 -0.33255465875843171 0 -0.24819641634333209 -0.33199188044070538 0 -0.25597022341668191 -0.31987087985855389 0 -0.25275742533580808 -0.31607509636174619 0 -0.2475039738205797 -0.32151826324637461 0 -0.25275742533580808 -0.31607509636174619 0 -0.25604501612508368 -0.31225133793710769 0 -0.24796026642219021 -0.31462946628777722 0 -0.25597022341668191 -0.31987087985855389 0 -0.25275742533580808 -0.31607509636174619 0 -0.25604501612508368 -0.31225133793710769 0 -0.25597022341668191 -0.31987087985855389 0 -0.25390682657738312 -0.32645758333369929 0 -0.26239338119919781 -0.32405676094116809 0 -0.25597022341668191 -0.31987087985855389 0 -0.25390682657738312 -0.32645758333369929 0 -0.2475039738205797 -0.32151826324637461 0 -0.25866175722663598 -0.33255465875843171 0 -0.25390682657738312 -0.32645758333369929 0 -0.26239338119919781 -0.32405676094116809 0 -0.25597022341668191 -0.31987087985855389 0 -0.26239338119919781 -0.32405676094116809 0 -0.26310885577606852 -0.31636759619270988 0 -0.26310885577606852 -0.31636759619270988 0 -0.26296448035662018 -0.31133995515404811 0 -0.25604501612508368 -0.31225133793710769 0 -0.25597022341668191 -0.31987087985855389 0 -0.26310885577606852 -0.31636759619270988 0 -0.25604501612508368 -0.31225133793710769 0 -0.26310885577606852 -0.31636759619270988 0 -0.26871184468087728 -0.31045270363930111 0 -0.26296448035662018 -0.31133995515404811 0 -0.27267043940245289 -0.31932836499554879 0 -0.2781600136492785 -0.31153599325653197 0 -0.26871184468087728 -0.31045270363930111 0 -0.26239338119919781 -0.32405676094116809 0 -0.26310885577606852 -0.31636759619270988 0 -0.27267043940245289 -0.31932836499554879 0 -0.26310885577606852 -0.31636759619270988 0 -0.27267043940245289 -0.31932836499554879 0 -0.26871184468087728 -0.31045270363930111 0 -0.27070710544586241 -0.32928325887821869 0 -0.26239338119919781 -0.32405676094116809 0 -0.27267043940245289 -0.31932836499554879 0 -0.27070710544586241 -0.32928325887821869 0 -0.27267043940245289 -0.31932836499554879 0 -0.28267301209246032 -0.32709305388928062 0 -0.27267043940245289 -0.31932836499554879 0 -0.28473309586492679 -0.31528301680240339 0 -0.28267301209246032 -0.32709305388928062 0 -0.27267043940245289 -0.31932836499554879 0 -0.28473309586492679 -0.31528301680240339 0 -0.2781600136492785 -0.31153599325653197 0 -0.28473309586492679 -0.31528301680240339 0 -0.29529792808249361 -0.32266000395047062 0 -0.29937228408188071 -0.30593270694159191 0 -0.28473309586492679 -0.31528301680240339 0 -0.29529792808249361 -0.32266000395047062 0 -0.28267301209246032 -0.32709305388928062 0 -0.2795759959516389 -0.3389697766418075 0 -0.28267301209246032 -0.32709305388928062 0 -0.29305350780738743 -0.33703390206723471 0 -0.28211155982915709 -0.35456281667167 0 -0.2795759959516389 -0.3389697766418075 0 -0.29305350780738743 -0.33703390206723471 0 -0.29529792808249361 -0.32266000395047062 0 -0.28267301209246032 -0.32709305388928062 0 -0.29305350780738743 -0.33703390206723471 0 -0.30213839958074729 -0.34969402953243811 0 -0.29305350780738743 -0.33703390206723471 0 -0.30491953234552432 -0.33331524556219322 0 -0.31561531294385309 -0.34268528495505862 0 -0.30213839958074729 -0.34969402953243811 0 -0.30491953234552432 -0.33331524556219322 0 -0.29529792808249361 -0.32266000395047062 0 -0.29305350780738743 -0.33703390206723471 0 -0.30491953234552432 -0.33331524556219322 0 -0.31531691913150439 -0.32757340356546027 0 -0.31561531294385309 -0.34268528495505862 0 -0.30491953234552432 -0.33331524556219322 0 -0.29529792808249361 -0.32266000395047062 0 -0.30491953234552432 -0.33331524556219322 0 -0.30635074561345732 -0.31695621525982293 0 -0.31531691913150439 -0.32757340356546027 0 -0.30491953234552432 -0.33331524556219322 0 -0.30635074561345732 -0.31695621525982293 0 -0.29529792808249361 -0.32266000395047062 0 -0.30635074561345732 -0.31695621525982293 0 -0.29937228408188071 -0.30593270694159191 0 -0.31410615250000468 -0.30007038043574291 0 -0.30635074561345732 -0.31695621525982293 0 -0.29937228408188071 -0.30593270694159191 0 -0.31410615250000468 -0.30007038043574291 0 -0.29937228408188071 -0.30593270694159191 0 -0.30433750461683667 -0.29170707153844833 0 -0.32215033458481768 -0.2823342554880246 0 -0.30433750461683667 -0.29170707153844833 0 -0.31000848285488408 -0.28087178741051477 0 -0.30433750461683667 -0.29170707153844833 0 -0.29304890711061399 -0.28262806119123018 0 -0.31000848285488408 -0.28087178741051477 0 -0.29304890711061399 -0.28262806119123018 0 -0.27950951050484502 -0.289636958714519 0 -0.27641893600504608 -0.27602358371584002 0 -0.29304890711061399 -0.28262806119123018 0 -0.286524674648857 -0.30107988758887472 0 -0.27950951050484502 -0.289636958714519 0 -0.30433750461683667 -0.29170707153844833 0 -0.29304890711061399 -0.28262806119123018 0 -0.286524674648857 -0.30107988758887472 0 -0.30433750461683667 -0.29170707153844833 0 -0.286524674648857 -0.30107988758887472 0 -0.29937228408188071 -0.30593270694159191 0 -0.30433750461683667 -0.29170707153844833 0 -0.286524674648857 -0.30107988758887472 0 -0.28473309586492679 -0.31528301680240339 0 -0.29937228408188071 -0.30593270694159191 0 -0.286524674648857 -0.30107988758887472 0 -0.28473309586492679 -0.31528301680240339 0 -0.286524674648857 -0.30107988758887472 0 -0.2781600136492785 -0.31153599325653197 0 -0.286524674648857 -0.30107988758887472 0 -0.26871184468087728 -0.31045270363930111 0 -0.286524674648857 -0.30107988758887472 0 -0.2781600136492785 -0.31153599325653197 0 -0.26871184468087728 -0.31045270363930111 0 -0.286524674648857 -0.30107988758887472 0 -0.27364563681470128 -0.30010461298092123 0 -0.26871184468087728 -0.31045270363930111 0 -0.286524674648857 -0.30107988758887472 0 -0.27364563681470128 -0.30010461298092123 0 -0.27950951050484502 -0.289636958714519 0 -0.27364563681470128 -0.30010461298092123 0 -0.26781945452627159 -0.30427781741775339 0 -0.2649281317650567 -0.30026577020371792 0 -0.27364563681470128 -0.30010461298092123 0 -0.2649281317650567 -0.30026577020371792 0 -0.26753587329328082 -0.29040429985163813 0 -0.27364563681470128 -0.30010461298092123 0 -0.26781945452627159 -0.30427781741775339 0 -0.26871184468087728 -0.31045270363930111 0 -0.26781945452627159 -0.30427781741775339 0 -0.26871184468087728 -0.31045270363930111 0 -0.26399220484445129 -0.30628818284707371 0 -0.26871184468087728 -0.31045270363930111 0 -0.26296448035662018 -0.31133995515404811 0 -0.26399220484445129 -0.30628818284707371 0 -0.26399220484445129 -0.30628818284707371 0 -0.25604501612508368 -0.31225133793710769 0 -0.23813643731406919 -0.31293775671068769 0 -0.26399220484445129 -0.30628818284707371 0 -0.2556584030007607 -0.30328163000246061 0 -0.23813643731406919 -0.31293775671068769 0 -0.26399220484445129 -0.30628818284707371 0 -0.23813643731406919 -0.31293775671068769 0 -0.26296448035662018 -0.31133995515404811 0 -0.26399220484445129 -0.30628818284707371 0 -0.25604501612508368 -0.31225133793710769 0 -0.26781945452627159 -0.30427781741775339 0 -0.26399220484445129 -0.30628818284707371 0 -0.2649281317650567 -0.30026577020371792 0 -0.26399220484445129 -0.30628818284707371 0 -0.2649281317650567 -0.30026577020371792 0 -0.2556584030007607 -0.30328163000246061 0 -0.2649281317650567 -0.30026577020371792 0 -0.2556584030007607 -0.30328163000246061 0 -0.25936006694350539 -0.29657320145773991 0 -0.25001168909301708 -0.30057752097653467 0 -0.2556584030007607 -0.30328163000246061 0 -0.25936006694350539 -0.29657320145773991 0 -0.25464423063513009 -0.28843416517731169 0 -0.26753587329328082 -0.29040429985163813 0 -0.26019740639501338 -0.27356252251881252 0 -0.25001168909301708 -0.30057752097653467 0 -0.25464423063513009 -0.28843416517731169 0 -0.25936006694350539 -0.29657320145773991 0 -0.25464423063513009 -0.28843416517731169 0 -0.25936006694350539 -0.29657320145773991 0 -0.26753587329328082 -0.29040429985163813 0 -0.2649281317650567 -0.30026577020371792 0 -0.25936006694350539 -0.29657320145773991 0 -0.26753587329328082 -0.29040429985163813 0 -0.27364563681470128 -0.30010461298092123 0 -0.26753587329328082 -0.29040429985163813 0 -0.27950951050484502 -0.289636958714519 0 -0.26753587329328082 -0.29040429985163813 0 -0.27950951050484502 -0.289636958714519 0 -0.27641893600504608 -0.27602358371584002 0 -0.27641893600504608 -0.27602358371584002 0 -0.26019740639501338 -0.27356252251881252 0 -0.26770346747418677 -0.25928916750627601 0 -0.26753587329328082 -0.29040429985163813 0 -0.27641893600504608 -0.27602358371584002 0 -0.26019740639501338 -0.27356252251881252 0 -0.27641893600504608 -0.27602358371584002 0 -0.26770346747418677 -0.25928916750627601 0 -0.28007145099645059 -0.26346989511416508 0 -0.26019740639501338 -0.27356252251881252 0 -0.24427302006970211 -0.26157178666814868 0 -0.24625083453410199 -0.27824681512846489 0 -0.25464423063513009 -0.28843416517731169 0 -0.26019740639501338 -0.27356252251881252 0 -0.24625083453410199 -0.27824681512846489 0 -0.26770346747418677 -0.25928916750627601 0 -0.24427302006970211 -0.26157178666814868 0 -0.25883125425809528 -0.24231024443891411 0 -0.24427302006970211 -0.26157178666814868 0 -0.25883125425809528 -0.24231024443891411 0 -0.26019740639501338 -0.27356252251881252 0 -0.26770346747418677 -0.25928916750627601 0 -0.24427302006970211 -0.26157178666814868 0 -0.26770346747418677 -0.25928916750627601 0 -0.27362796391945138 -0.24879504023949131 0 -0.25883125425809528 -0.24231024443891411 0 -0.28007145099645059 -0.26346989511416508 0 -0.28518716776289688 -0.25145844467286299 0 -0.27362796391945138 -0.24879504023949131 0 -0.26770346747418677 -0.25928916750627601 0 -0.28007145099645059 -0.26346989511416508 0 -0.27362796391945138 -0.24879504023949131 0 -0.28518716776289688 -0.25145844467286299 0 -0.29979584939405929 -0.2535686853433215 0 -0.29304378587810098 -0.24519285983212741 0 -0.28518716776289688 -0.25145844467286299 0 -0.2920215836859501 -0.26650000491773662 0 -0.29979584939405929 -0.2535686853433215 0 -0.28007145099645059 -0.26346989511416508 0 -0.28518716776289688 -0.25145844467286299 0 -0.2920215836859501 -0.26650000491773662 0 -0.27641893600504608 -0.27602358371584002 0 -0.28007145099645059 -0.26346989511416508 0 -0.2920215836859501 -0.26650000491773662 0 -0.29304890711061399 -0.28262806119123018 0 -0.2920215836859501 -0.26650000491773662 0 -0.30188009293224299 -0.27308047584861611 0 -0.29304890711061399 -0.28262806119123018 0 -0.27641893600504608 -0.27602358371584002 0 -0.2920215836859501 -0.26650000491773662 0 -0.2920215836859501 -0.26650000491773662 0 -0.30188009293224299 -0.27308047584861611 0 -0.30997779029908012 -0.26425488083538479 0 -0.29304890711061399 -0.28262806119123018 0 -0.30188009293224299 -0.27308047584861611 0 -0.31000848285488408 -0.28087178741051477 0 -0.30188009293224299 -0.27308047584861611 0 -0.31000848285488408 -0.28087178741051477 0 -0.30997779029908012 -0.26425488083538479 0 -0.30997779029908012 -0.26425488083538479 0 -0.29979584939405929 -0.2535686853433215 0 -0.31258572357348707 -0.24620079465722061 0 -0.30997779029908012 -0.26425488083538479 0 -0.31258572357348707 -0.24620079465722061 0 -0.2920215836859501 -0.26650000491773662 0 -0.30997779029908012 -0.26425488083538479 0 -0.29979584939405929 -0.2535686853433215 0 -0.33627525945958131 -0.45769363829847892 0 -0.32790797676483657 -0.44899542315262542 0 -0.32814814672229009 -0.46934670123877692 0 -0.33627525945958131 -0.45769363829847892 0 -0.32814814672229009 -0.46934670123877692 0 -0.34979985723254858 -0.46204265823557839 0 -0.32814814672229009 -0.46934670123877692 0 -0.34979985723254858 -0.46204265823557839 0 -0.33627525945958131 -0.45769363829847892 0 -0.34230358286924861 -0.4481455212111784 0 -0.34979985723254858 -0.46204265823557839 0 -0.32790797676483657 -0.44899542315262542 0 -0.34336652895494829 -0.43575664052226498 0 -0.32526648882920139 -0.43245218198156171 0 -0.34230358286924861 -0.4481455212111784 0 -0.32790797676483657 -0.44899542315262542 0 -0.34336652895494829 -0.43575664052226498 0 -0.33627525945958131 -0.45769363829847892 0 -0.34230358286924861 -0.4481455212111784 0 -0.32790797676483657 -0.44899542315262542 0 -0.31547361382360067 -0.44168444969351778 0 -0.32790797676483657 -0.44899542315262542 0 -0.32526648882920139 -0.43245218198156171 0 -0.31547361382360067 -0.44168444969351778 0 -0.32790797676483657 -0.44899542315262542 0 -0.31160745101047999 -0.4611825090011738 0 -0.32790797676483657 -0.44899542315262542 0 -0.32814814672229009 -0.46934670123877692 0 -0.31160745101047999 -0.4611825090011738 0 -0.32679768948130999 -0.48541226257266951 0 -0.34706674106729751 -0.5 0 -0.30063881679268922 -0.5 0 -0.32679768948130999 -0.48541226257266951 0 -0.32814814672229009 -0.46934670123877692 0 -0.31194947799049277 -0.48001293440087373 0 -0.32814814672229009 -0.46934670123877692 0 -0.31160745101047999 -0.4611825090011738 0 -0.31194947799049277 -0.48001293440087373 0 -0.32679768948130999 -0.48541226257266951 0 -0.30063881679268922 -0.5 0 -0.31194947799049277 -0.48001293440087373 0 -0.32679768948130999 -0.48541226257266951 0 -0.34618526483378043 -0.47770167722369677 0 -0.34706674106729751 -0.5 0 -0.32679768948130999 -0.48541226257266951 0 -0.32814814672229009 -0.46934670123877692 0 -0.34618526483378043 -0.47770167722369677 0 -0.32814814672229009 -0.46934670123877692 0 -0.34618526483378043 -0.47770167722369677 0 -0.34979985723254858 -0.46204265823557839 0 -0.3584217612361652 -0.4702414269198345 0 -0.34618526483378043 -0.47770167722369677 0 -0.34979985723254858 -0.46204265823557839 0 -0.3584217612361652 -0.4702414269198345 0 -0.34618526483378043 -0.47770167722369677 0 -0.36941405988811121 -0.47850166055742371 0 -0.34618526483378043 -0.47770167722369677 0 -0.34979985723254858 -0.46204265823557839 0 -0.34618526483378043 -0.47770167722369677 0 -0.34706674106729751 -0.5 0 -0.36941405988811121 -0.47850166055742371 0 -0.38258409246157993 -0.45970958420396663 0 -0.36941405988811121 -0.47850166055742371 0 -0.36989399782307791 -0.45526404982419771 0 -0.36989399782307791 -0.45526404982419771 0 -0.34979985723254858 -0.46204265823557839 0 -0.36266355272216821 -0.44728764262264942 0 -0.36989399782307791 -0.45526404982419771 0 -0.34979985723254858 -0.46204265823557839 0 -0.3584217612361652 -0.4702414269198345 0 -0.36941405988811121 -0.47850166055742371 0 -0.36989399782307791 -0.45526404982419771 0 -0.3584217612361652 -0.4702414269198345 0 -0.36989399782307791 -0.45526404982419771 0 -0.34979985723254858 -0.46204265823557839 0 -0.34979985723254858 -0.46204265823557839 0 -0.35607987052845208 -0.43483658999959618 0 -0.34230358286924861 -0.4481455212111784 0 -0.34979985723254858 -0.46204265823557839 0 -0.35607987052845208 -0.43483658999959618 0 -0.34979985723254858 -0.46204265823557839 0 -0.36266355272216821 -0.44728764262264942 0 -0.35607987052845208 -0.43483658999959618 0 -0.34230358286924861 -0.4481455212111784 0 -0.35607987052845208 -0.43483658999959618 0 -0.34336652895494829 -0.43575664052226498 0 -0.36989399782307791 -0.45526404982419771 0 -0.36266355272216821 -0.44728764262264942 0 -0.37488048530459422 -0.43700727243122528 0 -0.36266355272216821 -0.44728764262264942 0 -0.37488048530459422 -0.43700727243122528 0 -0.35607987052845208 -0.43483658999959618 0 -0.37488048530459422 -0.43700727243122528 0 -0.3720968394384 -0.42320741441149762 0 -0.35607987052845208 -0.43483658999959618 0 -0.3720968394384 -0.42320741441149762 0 -0.3623598838243548 -0.4076305217636137 0 -0.35607987052845208 -0.43483658999959618 0 -0.3769664123283914 -0.4109003045795378 0 -0.3720968394384 -0.42320741441149762 0 -0.3623598838243548 -0.4076305217636137 0 -0.3623598838243548 -0.4076305217636137 0 -0.34987613153425451 -0.42138528482706078 0 -0.33960679150653528 -0.4080505964526619 0 -0.3623598838243548 -0.4076305217636137 0 -0.34987613153425451 -0.42138528482706078 0 -0.35607987052845208 -0.43483658999959618 0 -0.34987613153425451 -0.42138528482706078 0 -0.34336652895494829 -0.43575664052226498 0 -0.33960679150653528 -0.4080505964526619 0 -0.3623598838243548 -0.4076305217636137 0 -0.35607987052845208 -0.43483658999959618 0 -0.34987613153425451 -0.42138528482706078 0 -0.35607987052845208 -0.43483658999959618 0 -0.34336652895494829 -0.43575664052226498 0 -0.37913170969305299 -0.38884127204369368 0 -0.36863989712025741 -0.38042445352763138 0 -0.37469442256259078 -0.39815904361029281 0 -0.3623598838243548 -0.4076305217636137 0 -0.36863989712025741 -0.38042445352763138 0 -0.35221770418587212 -0.39096154273384898 0 -0.3623598838243548 -0.4076305217636137 0 -0.36863989712025741 -0.38042445352763138 0 -0.37469442256259078 -0.39815904361029281 0 -0.3623598838243548 -0.4076305217636137 0 -0.36863989712025741 -0.38042445352763138 0 -0.3769664123283914 -0.4109003045795378 0 -0.3623598838243548 -0.4076305217636137 0 -0.37469442256259078 -0.39815904361029281 0 -0.3623598838243548 -0.4076305217636137 0 -0.35221770418587212 -0.39096154273384898 0 -0.33960679150653528 -0.4080505964526619 0 -0.35237484667998781 -0.36420071680673688 0 -0.35221770418587212 -0.39096154273384898 0 -0.33584705405812221 -0.3803445523830587 0 -0.35237484667998781 -0.36420071680673688 0 -0.36863989712025741 -0.38042445352763138 0 -0.35221770418587212 -0.39096154273384898 0 -0.33584705405812221 -0.3803445523830587 0 -0.31727750771156732 -0.40358854374038061 0 -0.33960679150653528 -0.4080505964526619 0 -0.33584705405812221 -0.3803445523830587 0 -0.33960679150653528 -0.4080505964526619 0 -0.35221770418587212 -0.39096154273384898 0 -0.33584705405812221 -0.3803445523830587 0 -0.33960679150653528 -0.4080505964526619 0 -0.33584705405812221 -0.3803445523830587 0 -0.31727750771156732 -0.40358854374038061 0 -0.30919573188590821 -0.38567980327496681 0 -0.31868242348725911 -0.37052796873382299 0 -0.33584705405812221 -0.3803445523830587 0 -0.30919573188590821 -0.38567980327496681 0 -0.34336652895494829 -0.43575664052226498 0 -0.32638060474683872 -0.4177759530185593 0 -0.32526648882920139 -0.43245218198156171 0 -0.34336652895494829 -0.43575664052226498 0 -0.33960679150653528 -0.4080505964526619 0 -0.34336652895494829 -0.43575664052226498 0 -0.33960679150653528 -0.4080505964526619 0 -0.32638060474683872 -0.4177759530185593 0 -0.31727750771156732 -0.40358854374038061 0 -0.32638060474683872 -0.4177759530185593 0 -0.30769916900080752 -0.42459658622587682 0 -0.31727750771156732 -0.40358854374038061 0 -0.33960679150653528 -0.4080505964526619 0 -0.32638060474683872 -0.4177759530185593 0 -0.31547361382360067 -0.44168444969351778 0 -0.32526648882920139 -0.43245218198156171 0 -0.30769916900080752 -0.42459658622587682 0 -0.32638060474683872 -0.4177759530185593 0 -0.32526648882920139 -0.43245218198156171 0 -0.30769916900080752 -0.42459658622587682 0 -0.31547361382360067 -0.44168444969351778 0 -0.30769916900080752 -0.42459658622587682 0 -0.30145814628253143 -0.44481961317121033 0 -0.30769916900080752 -0.42459658622587682 0 -0.28582428600794019 -0.43614526124727909 0 -0.30145814628253143 -0.44481961317121033 0 -0.30769916900080752 -0.42459658622587682 0 -0.28648936026143201 -0.41922135547857081 0 -0.29744572699821192 -0.40306547602939963 0 -0.31727750771156732 -0.40358854374038061 0 -0.30769916900080752 -0.42459658622587682 0 -0.29744572699821192 -0.40306547602939963 0 -0.28648936026143201 -0.41922135547857081 0 -0.29744572699821192 -0.40306547602939963 0 -0.27733465983923478 -0.40065037196677539 0 -0.30769916900080752 -0.42459658622587682 0 -0.28648936026143201 -0.41922135547857081 0 -0.28582428600794019 -0.43614526124727909 0 -0.30919573188590821 -0.38567980327496681 0 -0.29744572699821192 -0.40306547602939963 0 -0.28984414950446341 -0.38084723950316601 0 -0.30275996053215831 -0.3665329042913868 0 -0.30919573188590821 -0.38567980327496681 0 -0.28984414950446341 -0.38084723950316601 0 -0.31727750771156732 -0.40358854374038061 0 -0.30919573188590821 -0.38567980327496681 0 -0.29744572699821192 -0.40306547602939963 0 -0.29744572699821192 -0.40306547602939963 0 -0.28984414950446341 -0.38084723950316601 0 -0.27733465983923478 -0.40065037196677539 0 -0.2702172579421101 -0.37459206478479767 0 -0.28984414950446341 -0.38084723950316601 0 -0.27733465983923478 -0.40065037196677539 0 -0.2702172579421101 -0.37459206478479767 0 -0.27733465983923478 -0.40065037196677539 0 -0.25507406669576571 -0.3994661597393776 0 -0.2702172579421101 -0.37459206478479767 0 -0.25507406669576571 -0.3994661597393776 0 -0.2440125419064042 -0.37989641923614048 0 -0.28648936026143201 -0.41922135547857081 0 -0.28582428600794019 -0.43614526124727909 0 -0.26469731725901491 -0.42792406329103699 0 -0.28582428600794019 -0.43614526124727909 0 -0.26469731725901491 -0.42792406329103699 0 -0.2656249499718184 -0.44801529941311707 0 -0.27733465983923478 -0.40065037196677539 0 -0.25507406669576571 -0.3994661597393776 0 -0.26469731725901491 -0.42792406329103699 0 -0.28648936026143201 -0.41922135547857081 0 -0.27733465983923478 -0.40065037196677539 0 -0.26469731725901491 -0.42792406329103699 0 -0.25507406669576571 -0.3994661597393776 0 -0.26469731725901491 -0.42792406329103699 0 -0.24060555723141649 -0.41658862585932188 0 -0.26469731725901491 -0.42792406329103699 0 -0.24688897737010099 -0.43867593833793961 0 -0.24060555723141649 -0.41658862585932188 0 -0.26469731725901491 -0.42792406329103699 0 -0.2656249499718184 -0.44801529941311707 0 -0.24688897737010099 -0.43867593833793961 0 -0.2656249499718184 -0.44801529941311707 0 -0.24688897737010099 -0.43867593833793961 0 -0.24023016236454309 -0.46293270078912058 0 -0.2656249499718184 -0.44801529941311707 0 -0.26778223569959358 -0.4701167690124548 0 -0.24023016236454309 -0.46293270078912058 0 -0.2656249499718184 -0.44801529941311707 0 -0.28377859297516761 -0.45172957552927989 0 -0.26778223569959358 -0.4701167690124548 0 -0.28582428600794019 -0.43614526124727909 0 -0.2656249499718184 -0.44801529941311707 0 -0.28377859297516761 -0.45172957552927989 0 -0.28582428600794019 -0.43614526124727909 0 -0.28377859297516761 -0.45172957552927989 0 -0.30145814628253143 -0.44481961317121033 0 -0.28377859297516761 -0.45172957552927989 0 -0.2934310307445897 -0.46350490943055722 0 -0.26778223569959358 -0.4701167690124548 0 -0.28377859297516761 -0.45172957552927989 0 -0.2934310307445897 -0.46350490943055722 0 -0.30145814628253143 -0.44481961317121033 0 -0.2934310307445897 -0.46350490943055722 0 -0.31160745101047999 -0.4611825090011738 0 -0.30145814628253143 -0.44481961317121033 0 -0.2934310307445897 -0.46350490943055722 0 -0.31160745101047999 -0.4611825090011738 0 -0.2893289783429534 -0.48059125450058571 0 -0.31547361382360067 -0.44168444969351778 0 -0.31160745101047999 -0.4611825090011738 0 -0.30145814628253143 -0.44481961317121033 0 -0.30063881679268922 -0.5 0 -0.2893289783429534 -0.48059125450058571 0 -0.26705050567542749 -0.49999999999999839 0 -0.30063881679268922 -0.5 0 -0.31194947799049277 -0.48001293440087373 0 -0.2893289783429534 -0.48059125450058571 0 -0.31160745101047999 -0.4611825090011738 0 -0.31194947799049277 -0.48001293440087373 0 -0.2893289783429534 -0.48059125450058571 0 -0.31160745101047999 -0.4611825090011738 0 -0.2893289783429534 -0.48059125450058571 0 -0.2934310307445897 -0.46350490943055722 0 -0.2893289783429534 -0.48059125450058571 0 -0.26778223569959358 -0.4701167690124548 0 -0.2893289783429534 -0.48059125450058571 0 -0.26705050567542749 -0.49999999999999839 0 -0.2893289783429534 -0.48059125450058571 0 -0.26705050567542749 -0.49999999999999839 0 -0.26778223569959358 -0.4701167690124548 0 -0.26705050567542749 -0.49999999999999839 0 -0.26778223569959358 -0.4701167690124548 0 -0.24655346615070631 -0.48153009508571482 0 -0.26778223569959358 -0.4701167690124548 0 -0.24655346615070631 -0.48153009508571482 0 -0.24023016236454309 -0.46293270078912058 0 -0.26705050567542749 -0.49999999999999839 0 -0.23947449207693011 -0.5 0 -0.24655346615070631 -0.48153009508571482 0 -0.23947449207693011 -0.5 0 -0.24655346615070631 -0.48153009508571482 0 -0.2258511172564153 -0.48494212285525462 0 -0.24655346615070631 -0.48153009508571482 0 -0.2258511172564153 -0.48494212285525462 0 -0.24023016236454309 -0.46293270078912058 0 -0.2258511172564153 -0.48494212285525462 0 -0.24023016236454309 -0.46293270078912058 0 -0.21499812654834161 -0.46700965391592808 0 -0.23947449207693011 -0.5 0 -0.2258511172564153 -0.48494212285525462 0 -0.2118984784784326 -0.5 0 -0.24688897737010099 -0.43867593833793961 0 -0.24023016236454309 -0.46293270078912058 0 -0.22334849094808079 -0.44334622139537899 0 -0.24688897737010099 -0.43867593833793961 0 -0.22334849094808079 -0.44334622139537899 0 -0.23310580098801079 -0.43133616533429242 0 -0.24023016236454309 -0.46293270078912058 0 -0.22334849094808079 -0.44334622139537899 0 -0.21499812654834161 -0.46700965391592808 0 -0.22334849094808079 -0.44334622139537899 0 -0.21499812654834161 -0.46700965391592808 0 -0.20132084844143749 -0.44803709072853071 0 -0.21499812654834161 -0.46700965391592808 0 -0.19551979712121911 -0.46410208621503762 0 -0.20132084844143749 -0.44803709072853071 0 -0.19551979712121911 -0.46410208621503762 0 -0.20132084844143749 -0.44803709072853071 0 -0.1749889768343342 -0.4474666467034904 0 -0.20132084844143749 -0.44803709072853071 0 -0.1822184339172041 -0.42881913224379842 0 -0.2258511172564153 -0.48494212285525462 0 -0.2118984784784326 -0.5 0 -0.20290025811704601 -0.48439034231366002 0 -0.2258511172564153 -0.48494212285525462 0 -0.21499812654834161 -0.46700965391592808 0 -0.20290025811704601 -0.48439034231366002 0 -0.21499812654834161 -0.46700965391592808 0 -0.19551979712121911 -0.46410208621503762 0 -0.20290025811704601 -0.48439034231366002 0 -0.19551979712121911 -0.46410208621503762 0 -0.20290025811704601 -0.48439034231366002 0 -0.183390775664936 -0.47360669741357891 0 -0.2118984784784326 -0.5 0 -0.20290025811704601 -0.48439034231366002 0 -0.19179257449553769 -0.5 0 -0.20290025811704601 -0.48439034231366002 0 -0.19179257449553769 -0.5 0 -0.183390775664936 -0.47360669741357891 0 -0.19179257449553769 -0.5 0 -0.183390775664936 -0.47360669741357891 0 -0.1843224648799352 -0.5 0 -0.16817815111704071 -0.48231638280880101 0 -0.183390775664936 -0.47360669741357891 0 -0.19179257449553769 -0.5 0 -0.1843224648799352 -0.5 0 -0.183390775664936 -0.47360669741357891 0 -0.1843224648799352 -0.5 0 -0.1567464512814378 -0.5 0 -0.16817815111704071 -0.48231638280880101 0 -0.16817815111704071 -0.48231638280880101 0 -0.183390775664936 -0.47360669741357891 0 -0.16292893021386121 -0.46114293628385639 0 -0.1567464512814378 -0.5 0 -0.16817815111704071 -0.48231638280880101 0 -0.14949069397166201 -0.47042309090129869 0 -0.16817815111704071 -0.48231638280880101 0 -0.16292893021386121 -0.46114293628385639 0 -0.14949069397166201 -0.47042309090129869 0 -0.19551979712121911 -0.46410208621503762 0 -0.183390775664936 -0.47360669741357891 0 -0.1749889768343342 -0.4474666467034904 0 -0.183390775664936 -0.47360669741357891 0 -0.1749889768343342 -0.4474666467034904 0 -0.183390775664936 -0.47360669741357891 0 -0.1749889768343342 -0.4474666467034904 0 -0.16292893021386121 -0.46114293628385639 0 -0.20132084844143749 -0.44803709072853071 0 -0.1749889768343342 -0.4474666467034904 0 -0.1822184339172041 -0.42881913224379842 0 -0.1749889768343342 -0.4474666467034904 0 -0.15792632724221731 -0.44327071060825479 0 -0.16292893021386121 -0.46114293628385639 0 -0.1749889768343342 -0.4474666467034904 0 -0.15792632724221731 -0.44327071060825479 0 -0.1584100250955584 -0.43027142018504411 0 -0.16292893021386121 -0.46114293628385639 0 -0.14359865645297709 -0.44977408926771523 0 -0.14949069397166201 -0.47042309090129869 0 -0.15792632724221731 -0.44327071060825479 0 -0.16292893021386121 -0.46114293628385639 0 -0.14359865645297709 -0.44977408926771523 0 -0.15792632724221731 -0.44327071060825479 0 -0.14359865645297709 -0.44977408926771523 0 -0.1466626886516576 -0.43470181299669869 0 -0.14359865645297709 -0.44977408926771523 0 -0.13582146940353421 -0.43851143824850319 0 -0.1466626886516576 -0.43470181299669869 0 -0.14359865645297709 -0.44977408926771523 0 -0.13582146940353421 -0.43851143824850319 0 -0.12785827924443599 -0.44659413372527879 0 -0.14359865645297709 -0.44977408926771523 0 -0.12785827924443599 -0.44659413372527879 0 -0.1258364287862383 -0.45987739188392718 0 -0.13582146940353421 -0.43851143824850319 0 -0.12785827924443599 -0.44659413372527879 0 -0.1188471097390532 -0.43682505683876099 0 -0.14359865645297709 -0.44977408926771523 0 -0.1258364287862383 -0.45987739188392718 0 -0.14949069397166201 -0.47042309090129869 0 -0.1258364287862383 -0.45987739188392718 0 -0.13182319766427061 -0.48022876550816812 0 -0.14949069397166201 -0.47042309090129869 0 -0.1567464512814378 -0.5 0 -0.13182319766427061 -0.48022876550816812 0 -0.1291704376829402 -0.5 0 -0.13182319766427061 -0.48022876550816812 0 -0.1291704376829402 -0.5 0 -0.11538243088369141 -0.48804797390108651 0 -0.1567464512814378 -0.5 0 -0.13182319766427061 -0.48022876550816812 0 -0.14949069397166201 -0.47042309090129869 0 -0.14401360486873721 -0.39038321527433378 0 -0.16311601939297071 -0.40960117375906607 0 -0.14401360486873721 -0.39038321527433378 0 -0.14882172785711439 -0.40925505080048019 0 -0.16311601939297071 -0.40960117375906607 0 -0.14401360486873721 -0.39038321527433378 0 -0.16311601939297071 -0.40960117375906607 0 -0.1607453363240805 -0.3909117361345722 0 -0.14401360486873721 -0.39038321527433378 0 -0.13469635783585379 -0.40786593226579682 0 -0.14882172785711439 -0.40925505080048019 0 -0.15120155562087789 -0.37710158249035408 0 -0.14401360486873721 -0.39038321527433378 0 -0.1607453363240805 -0.3909117361345722 0 -0.15120155562087789 -0.37710158249035408 0 -0.14401360486873721 -0.39038321527433378 0 -0.12491119034450179 -0.37116525678960349 0 -0.14401360486873721 -0.39038321527433378 0 -0.12491119034450179 -0.37116525678960349 0 -0.121863003589462 -0.38809550939407572 0 -0.14401360486873721 -0.39038321527433378 0 -0.12491119034450179 -0.37116525678960349 0 -0.14401360486873721 -0.39038321527433378 0 -0.13469635783585379 -0.40786593226579682 0 -0.121863003589462 -0.38809550939407572 0 -0.13469635783585379 -0.40786593226579682 0 -0.13670136828800661 -0.42645151304094281 0 -0.14751828542765219 -0.41993170662973273 0 -0.1270471591766624 -0.42004321858464022 0 -0.13469635783585379 -0.40786593226579682 0 -0.11689044457147869 -0.40210657920042181 0 -0.1270471591766624 -0.42004321858464022 0 -0.13469635783585379 -0.40786593226579682 0 -0.13670136828800661 -0.42645151304094281 0 -0.1270471591766624 -0.42004321858464022 0 -0.13670136828800661 -0.42645151304094281 0 -0.1188471097390532 -0.43682505683876099 0 -0.13582146940353421 -0.43851143824850319 0 -0.13670136828800661 -0.42645151304094281 0 -0.1188471097390532 -0.43682505683876099 0 -0.13582146940353421 -0.43851143824850319 0 -0.13670136828800661 -0.42645151304094281 0 -0.1466626886516576 -0.43470181299669869 0 -0.13670136828800661 -0.42645151304094281 0 -0.1466626886516576 -0.43470181299669869 0 -0.14751828542765219 -0.41993170662973273 0 -0.14751828542765219 -0.41993170662973273 0 -0.15691739861710879 -0.41764853859048501 0 -0.1584100250955584 -0.43027142018504411 0 -0.1466626886516576 -0.43470181299669869 0 -0.14751828542765219 -0.41993170662973273 0 -0.1584100250955584 -0.43027142018504411 0 -0.15792632724221731 -0.44327071060825479 0 -0.1466626886516576 -0.43470181299669869 0 -0.1584100250955584 -0.43027142018504411 0 -0.13469635783585379 -0.40786593226579682 0 -0.14751828542765219 -0.41993170662973273 0 -0.14882172785711439 -0.40925505080048019 0 -0.14751828542765219 -0.41993170662973273 0 -0.14882172785711439 -0.40925505080048019 0 -0.15691739861710879 -0.41764853859048501 0 -0.16311601939297071 -0.40960117375906607 0 -0.16658717800373249 -0.421326595993402 0 -0.1822184339172041 -0.42881913224379842 0 -0.14882172785711439 -0.40925505080048019 0 -0.16311601939297071 -0.40960117375906607 0 -0.15691739861710879 -0.41764853859048501 0 -0.16311601939297071 -0.40960117375906607 0 -0.15691739861710879 -0.41764853859048501 0 -0.16658717800373249 -0.421326595993402 0 -0.1749889768343342 -0.4474666467034904 0 -0.16658717800373249 -0.421326595993402 0 -0.1584100250955584 -0.43027142018504411 0 -0.1749889768343342 -0.4474666467034904 0 -0.16658717800373249 -0.421326595993402 0 -0.15691739861710879 -0.41764853859048501 0 -0.16658717800373249 -0.421326595993402 0 -0.1584100250955584 -0.43027142018504411 0 -0.1749889768343342 -0.4474666467034904 0 -0.16658717800373249 -0.421326595993402 0 -0.1822184339172041 -0.42881913224379842 0 -0.16311601939297071 -0.40960117375906607 0 -0.1822184339172041 -0.42881913224379842 0 -0.18077924667784609 -0.41161318542178682 0 -0.16311601939297071 -0.40960117375906607 0 -0.1822184339172041 -0.42881913224379842 0 -0.1822184339172041 -0.42881913224379842 0 -0.18077924667784609 -0.41161318542178682 0 -0.19192462886780659 -0.41903822682387021 0 -0.17564440301342391 -0.39676305366367259 0 -0.18575631599114231 -0.38214608881950879 0 -0.19352312741622241 -0.40202339446724827 0 -0.16311601939297071 -0.40960117375906607 0 -0.18077924667784609 -0.41161318542178682 0 -0.17564440301342391 -0.39676305366367259 0 -0.18077924667784609 -0.41161318542178682 0 -0.17564440301342391 -0.39676305366367259 0 -0.19352312741622241 -0.40202339446724827 0 -0.16311601939297071 -0.40960117375906607 0 -0.17564440301342391 -0.39676305366367259 0 -0.1607453363240805 -0.3909117361345722 0 -0.17564440301342391 -0.39676305366367259 0 -0.1607453363240805 -0.3909117361345722 0 -0.1697510987243929 -0.38070965548543428 0 -0.15120155562087789 -0.37710158249035408 0 -0.1607453363240805 -0.3909117361345722 0 -0.1697510987243929 -0.38070965548543428 0 -0.15120155562087789 -0.37710158249035408 0 -0.1697510987243929 -0.38070965548543428 0 -0.16358185764711819 -0.36793730763811228 0 -0.17564440301342391 -0.39676305366367259 0 -0.1697510987243929 -0.38070965548543428 0 -0.18575631599114231 -0.38214608881950879 0 -0.1697510987243929 -0.38070965548543428 0 -0.18575631599114231 -0.38214608881950879 0 -0.1782023276319831 -0.3646332707155181 0 -0.18575631599114231 -0.38214608881950879 0 -0.20579439891043441 -0.3821276412497514 0 -0.19149326970478039 -0.36693932957744091 0 -0.18575631599114231 -0.38214608881950879 0 -0.19352312741622241 -0.40202339446724827 0 -0.20579439891043441 -0.3821276412497514 0 -0.19352312741622241 -0.40202339446724827 0 -0.2084741809051453 -0.3984804008739728 0 -0.20579439891043441 -0.3821276412497514 0 -0.2084741809051453 -0.3984804008739728 0 -0.222962278445068 -0.38735376840733871 0 -0.2233630081123987 -0.40397510735411563 0 -0.2084741809051453 -0.3984804008739728 0 -0.20579439891043441 -0.3821276412497514 0 -0.222962278445068 -0.38735376840733871 0 -0.20579439891043441 -0.3821276412497514 0 -0.222962278445068 -0.38735376840733871 0 -0.22526204561075441 -0.37112145518222789 0 -0.20132084844143749 -0.44803709072853071 0 -0.19192462886780659 -0.41903822682387021 0 -0.20648180455094539 -0.42038768304950591 0 -0.20132084844143749 -0.44803709072853071 0 -0.1822184339172041 -0.42881913224379842 0 -0.19192462886780659 -0.41903822682387021 0 -0.19352312741622241 -0.40202339446724827 0 -0.19192462886780659 -0.41903822682387021 0 -0.20648180455094539 -0.42038768304950591 0 -0.19352312741622241 -0.40202339446724827 0 -0.2084741809051453 -0.3984804008739728 0 -0.20648180455094539 -0.42038768304950591 0 -0.18077924667784609 -0.41161318542178682 0 -0.19352312741622241 -0.40202339446724827 0 -0.19192462886780659 -0.41903822682387021 0 -0.2084741809051453 -0.3984804008739728 0 -0.20648180455094539 -0.42038768304950591 0 -0.2233630081123987 -0.40397510735411563 0 -0.20648180455094539 -0.42038768304950591 0 -0.22366021367144101 -0.42138297466952279 0 -0.2233630081123987 -0.40397510735411563 0 -0.22334849094808079 -0.44334622139537899 0 -0.20648180455094539 -0.42038768304950591 0 -0.22366021367144101 -0.42138297466952279 0 -0.22334849094808079 -0.44334622139537899 0 -0.20132084844143749 -0.44803709072853071 0 -0.20648180455094539 -0.42038768304950591 0 -0.22334849094808079 -0.44334622139537899 0 -0.23310580098801079 -0.43133616533429242 0 -0.22366021367144101 -0.42138297466952279 0 -0.23310580098801079 -0.43133616533429242 0 -0.22366021367144101 -0.42138297466952279 0 -0.24060555723141649 -0.41658862585932188 0 -0.22366021367144101 -0.42138297466952279 0 -0.24060555723141649 -0.41658862585932188 0 -0.2233630081123987 -0.40397510735411563 0 -0.24688897737010099 -0.43867593833793961 0 -0.23310580098801079 -0.43133616533429242 0 -0.24060555723141649 -0.41658862585932188 0 -0.222962278445068 -0.38735376840733871 0 -0.2440125419064042 -0.37989641923614048 0 -0.22526204561075441 -0.37112145518222789 0 -0.222962278445068 -0.38735376840733871 0 -0.2233630081123987 -0.40397510735411563 0 -0.23685971213267221 -0.39484437534949463 0 -0.24060555723141649 -0.41658862585932188 0 -0.2233630081123987 -0.40397510735411563 0 -0.23685971213267221 -0.39484437534949463 0 -0.25507406669576571 -0.3994661597393776 0 -0.24060555723141649 -0.41658862585932188 0 -0.23685971213267221 -0.39484437534949463 0 -0.25507406669576571 -0.3994661597393776 0 -0.23685971213267221 -0.39484437534949463 0 -0.2440125419064042 -0.37989641923614048 0 -0.222962278445068 -0.38735376840733871 0 -0.23685971213267221 -0.39484437534949463 0 -0.2440125419064042 -0.37989641923614048 0 -0.2440125419064042 -0.37989641923614048 0 -0.22526204561075441 -0.37112145518222789 0 -0.23814458565106081 -0.35791960996248562 0 -0.2524325929932697 -0.36239213815041132 0 -0.2440125419064042 -0.37989641923614048 0 -0.23814458565106081 -0.35791960996248562 0 -0.22526204561075441 -0.37112145518222789 0 -0.22294178639392989 -0.34915792332013229 0 -0.21069941864765729 -0.36468612463786287 0 -0.22526204561075441 -0.37112145518222789 0 -0.22294178639392989 -0.34915792332013229 0 -0.23814458565106081 -0.35791960996248562 0 -0.22294178639392989 -0.34915792332013229 0 -0.23814458565106081 -0.35791960996248562 0 -0.2380465567536047 -0.341619395128619 0 -0.2524325929932697 -0.36239213815041132 0 -0.25178814730042742 -0.34428927636418571 0 -0.23814458565106081 -0.35791960996248562 0 -0.25178814730042742 -0.34428927636418571 0 -0.23814458565106081 -0.35791960996248562 0 -0.2380465567536047 -0.341619395128619 0 -0.25178814730042742 -0.34428927636418571 0 -0.24819641634333209 -0.33199188044070538 0 -0.2380465567536047 -0.341619395128619 0 -0.2383342834696599 -0.32854394916551649 0 -0.2380465567536047 -0.341619395128619 0 -0.2295834157387108 -0.33547492973095938 0 -0.24819641634333209 -0.33199188044070538 0 -0.2383342834696599 -0.32854394916551649 0 -0.2380465567536047 -0.341619395128619 0 -0.25604501612508368 -0.31225133793710769 0 -0.24796026642219021 -0.31462946628777722 0 -0.23813643731406919 -0.31293775671068769 0 -0.24796026642219021 -0.31462946628777722 0 -0.2433629286648516 -0.31713987994662712 0 -0.23813643731406919 -0.31293775671068769 0 -0.25275742533580808 -0.31607509636174619 0 -0.24796026642219021 -0.31462946628777722 0 -0.2475039738205797 -0.32151826324637461 0 -0.24796026642219021 -0.31462946628777722 0 -0.2433629286648516 -0.31713987994662712 0 -0.2475039738205797 -0.32151826324637461 0 -0.2433629286648516 -0.31713987994662712 0 -0.2475039738205797 -0.32151826324637461 0 -0.23985103710256739 -0.31947403354166881 0 -0.24819641634333209 -0.33199188044070538 0 -0.2383342834696599 -0.32854394916551649 0 -0.2475039738205797 -0.32151826324637461 0 -0.25390682657738312 -0.32645758333369929 0 -0.24819641634333209 -0.33199188044070538 0 -0.2475039738205797 -0.32151826324637461 0 -0.2383342834696599 -0.32854394916551649 0 -0.23512301756967399 -0.32213571828846099 0 -0.22967658711135799 -0.32617103265082531 0 -0.2383342834696599 -0.32854394916551649 0 -0.23512301756967399 -0.32213571828846099 0 -0.23985103710256739 -0.31947403354166881 0 -0.2383342834696599 -0.32854394916551649 0 -0.2475039738205797 -0.32151826324637461 0 -0.23985103710256739 -0.31947403354166881 0 -0.2433629286648516 -0.31713987994662712 0 -0.23985103710256739 -0.31947403354166881 0 -0.23813643731406919 -0.31293775671068769 0 -0.23512301756967399 -0.32213571828846099 0 -0.23985103710256739 -0.31947403354166881 0 -0.2326301625951113 -0.3143538577958348 0 -0.23813643731406919 -0.31293775671068769 0 -0.2326301625951113 -0.3143538577958348 0 -0.23985103710256739 -0.31947403354166881 0 -0.23813643731406919 -0.31293775671068769 0 -0.2326301625951113 -0.3143538577958348 0 -0.23985103710256739 -0.31947403354166881 0 -0.23813643731406919 -0.31293775671068769 0 -0.2326301625951113 -0.3143538577958348 0 -0.21891786496500151 -0.33188234838970387 0 -0.2150965497564169 -0.31886314391661519 0 -0.2326301625951113 -0.3143538577958348 0 -0.2150965497564169 -0.31886314391661519 0 -0.2326301625951113 -0.3143538577958348 0 -0.21891786496500151 -0.33188234838970387 0 -0.2326301625951113 -0.3143538577958348 0 -0.2150965497564169 -0.31886314391661519 0 -0.22563739803690611 -0.30434842848627941 0 -0.2326301625951113 -0.3143538577958348 0 -0.22967658711135799 -0.32617103265082531 0 -0.21891786496500151 -0.33188234838970387 0 -0.23512301756967399 -0.32213571828846099 0 -0.2326301625951113 -0.3143538577958348 0 -0.22967658711135799 -0.32617103265082531 0 -0.22294178639392989 -0.34915792332013229 0 -0.2295834157387108 -0.33547492973095938 0 -0.21891786496500151 -0.33188234838970387 0 -0.22294178639392989 -0.34915792332013229 0 -0.2380465567536047 -0.341619395128619 0 -0.2295834157387108 -0.33547492973095938 0 -0.2383342834696599 -0.32854394916551649 0 -0.22967658711135799 -0.32617103265082531 0 -0.2295834157387108 -0.33547492973095938 0 -0.22967658711135799 -0.32617103265082531 0 -0.2295834157387108 -0.33547492973095938 0 -0.21891786496500151 -0.33188234838970387 0 -0.21891786496500151 -0.33188234838970387 0 -0.2081826832524851 -0.32772598383757012 0 -0.20115338137079841 -0.33678601300656358 0 -0.21891786496500151 -0.33188234838970387 0 -0.20115338137079841 -0.33678601300656358 0 -0.2052055673348909 -0.34941083898357239 0 -0.22294178639392989 -0.34915792332013229 0 -0.21891786496500151 -0.33188234838970387 0 -0.2052055673348909 -0.34941083898357239 0 -0.21891786496500151 -0.33188234838970387 0 -0.2052055673348909 -0.34941083898357239 0 -0.2150965497564169 -0.31886314391661519 0 -0.197562936917723 -0.32337243003739741 0 -0.21363886139951621 -0.30210287946739051 0 -0.2150965497564169 -0.31886314391661519 0 -0.2081826832524851 -0.32772598383757012 0 -0.197562936917723 -0.32337243003739741 0 -0.197562936917723 -0.32337243003739741 0 -0.21363886139951621 -0.30210287946739051 0 -0.2150965497564169 -0.31886314391661519 0 -0.197562936917723 -0.32337243003739741 0 -0.21891786496500151 -0.33188234838970387 0 -0.2150965497564169 -0.31886314391661519 0 -0.2081826832524851 -0.32772598383757012 0 -0.197562936917723 -0.32337243003739741 0 -0.19370203390290849 -0.30584556358347359 0 -0.1832604841958401 -0.31558668608983798 0 -0.2081826832524851 -0.32772598383757012 0 -0.197562936917723 -0.32337243003739741 0 -0.20115338137079841 -0.33678601300656358 0 -0.197562936917723 -0.32337243003739741 0 -0.20115338137079841 -0.33678601300656358 0 -0.18712462716281711 -0.33718302969832759 0 -0.197562936917723 -0.32337243003739741 0 -0.18712462716281711 -0.33718302969832759 0 -0.197562936917723 -0.32337243003739741 0 -0.18763098725326591 -0.33496507714810148 0 -0.18712462716281711 -0.33718302969832759 0 -0.20115338137079841 -0.33678601300656358 0 -0.18992339748989129 -0.35090550833252171 0 -0.18712462716281711 -0.33718302969832759 0 -0.19149326970478039 -0.36693932957744091 0 -0.2052055673348909 -0.34941083898357239 0 -0.18992339748989129 -0.35090550833252171 0 -0.19149326970478039 -0.36693932957744091 0 -0.2052055673348909 -0.34941083898357239 0 -0.20115338137079841 -0.33678601300656358 0 -0.18992339748989129 -0.35090550833252171 0 -0.2052055673348909 -0.34941083898357239 0 -0.20579439891043441 -0.3821276412497514 0 -0.19149326970478039 -0.36693932957744091 0 -0.21069941864765729 -0.36468612463786287 0 -0.19149326970478039 -0.36693932957744091 0 -0.21069941864765729 -0.36468612463786287 0 -0.2052055673348909 -0.34941083898357239 0 -0.20579439891043441 -0.3821276412497514 0 -0.22526204561075441 -0.37112145518222789 0 -0.21069941864765729 -0.36468612463786287 0 -0.22294178639392989 -0.34915792332013229 0 -0.21069941864765729 -0.36468612463786287 0 -0.2052055673348909 -0.34941083898357239 0 -0.22266583670016341 -0.25396182014965002 0 -0.24427302006970211 -0.26157178666814868 0 -0.22971478588130931 -0.28083332889738372 0 -0.24427302006970211 -0.26157178666814868 0 -0.24501988422530691 -0.2470038165003057 0 -0.25883125425809528 -0.24231024443891411 0 -0.22266583670016341 -0.25396182014965002 0 -0.24427302006970211 -0.26157178666814868 0 -0.24501988422530691 -0.2470038165003057 0 -0.24427302006970211 -0.26157178666814868 0 -0.24625083453410199 -0.27824681512846489 0 -0.22971478588130931 -0.28083332889738372 0 -0.24427302006970211 -0.26157178666814868 0 -0.22971478588130931 -0.28083332889738372 0 -0.22266583670016341 -0.25396182014965002 0 -0.22971478588130931 -0.28083332889738372 0 -0.22266583670016341 -0.25396182014965002 0 -0.22971478588130931 -0.28083332889738372 0 -0.20809137964509339 -0.26705329034399322 0 -0.22971478588130931 -0.28083332889738372 0 -0.23703189612276071 -0.30872710239586842 0 -0.22971478588130931 -0.28083332889738372 0 -0.22563739803690611 -0.30434842848627941 0 -0.21363886139951621 -0.30210287946739051 0 -0.22971478588130931 -0.28083332889738372 0 -0.21363886139951621 -0.30210287946739051 0 -0.22971478588130931 -0.28083332889738372 0 -0.2411713887766104 -0.29396090453802232 0 -0.23703189612276071 -0.30872710239586842 0 -0.24625083453410199 -0.27824681512846489 0 -0.22971478588130931 -0.28083332889738372 0 -0.2411713887766104 -0.29396090453802232 0 -0.25464423063513009 -0.28843416517731169 0 -0.24625083453410199 -0.27824681512846489 0 -0.2411713887766104 -0.29396090453802232 0 -0.25001168909301708 -0.30057752097653467 0 -0.25464423063513009 -0.28843416517731169 0 -0.2411713887766104 -0.29396090453802232 0 -0.2411713887766104 -0.29396090453802232 0 -0.2390179163204838 -0.30618836400978588 0 -0.23703189612276071 -0.30872710239586842 0 -0.25001168909301708 -0.30057752097653467 0 -0.2556584030007607 -0.30328163000246061 0 -0.23813643731406919 -0.31293775671068769 0 -0.25001168909301708 -0.30057752097653467 0 -0.2411713887766104 -0.29396090453802232 0 -0.2390179163204838 -0.30618836400978588 0 -0.25001168909301708 -0.30057752097653467 0 -0.23813643731406919 -0.31293775671068769 0 -0.2390179163204838 -0.30618836400978588 0 -0.2390179163204838 -0.30618836400978588 0 -0.23703189612276071 -0.30872710239586842 0 -0.2326301625951113 -0.3143538577958348 0 -0.23703189612276071 -0.30872710239586842 0 -0.23813643731406919 -0.31293775671068769 0 -0.23703189612276071 -0.30872710239586842 0 -0.23813643731406919 -0.31293775671068769 0 -0.2326301625951113 -0.3143538577958348 0 -0.23703189612276071 -0.30872710239586842 0 -0.23813643731406919 -0.31293775671068769 0 -0.2390179163204838 -0.30618836400978588 0 -0.23703189612276071 -0.30872710239586842 0 -0.22971478588130931 -0.28083332889738372 0 -0.23703189612276071 -0.30872710239586842 0 -0.22563739803690611 -0.30434842848627941 0 -0.2326301625951113 -0.3143538577958348 0 -0.23703189612276071 -0.30872710239586842 0 -0.22563739803690611 -0.30434842848627941 0 -0.22971478588130931 -0.28083332889738372 0 -0.21363886139951621 -0.30210287946739051 0 -0.19802209048296379 -0.28635949996127641 0 -0.2150965497564169 -0.31886314391661519 0 -0.22563739803690611 -0.30434842848627941 0 -0.21363886139951621 -0.30210287946739051 0 -0.197562936917723 -0.32337243003739741 0 -0.21363886139951621 -0.30210287946739051 0 -0.19370203390290849 -0.30584556358347359 0 -0.21363886139951621 -0.30210287946739051 0 -0.19370203390290849 -0.30584556358347359 0 -0.19802209048296379 -0.28635949996127641 0 -0.19370203390290849 -0.30584556358347359 0 -0.19802209048296379 -0.28635949996127641 0 -0.17602579651849889 -0.30180632236146521 0 -0.22971478588130931 -0.28083332889738372 0 -0.19802209048296379 -0.28635949996127641 0 -0.20809137964509339 -0.26705329034399322 0 -0.19802209048296379 -0.28635949996127641 0 -0.20809137964509339 -0.26705329034399322 0 -0.1886979554505778 -0.26424866549365111 0 -0.20809137964509339 -0.26705329034399322 0 -0.1886979554505778 -0.26424866549365111 0 -0.201356229710452 -0.24986313721800499 0 -0.1886979554505778 -0.26424866549365111 0 -0.18302313500755071 -0.2439899936431944 0 -0.201356229710452 -0.24986313721800499 0 -0.22266583670016341 -0.25396182014965002 0 -0.20809137964509339 -0.26705329034399322 0 -0.201356229710452 -0.24986313721800499 0 -0.1886979554505778 -0.26424866549365111 0 -0.17207590190214231 -0.279982740924685 0 -0.15610572008234541 -0.25019938304154432 0 -0.1886979554505778 -0.26424866549365111 0 -0.15610572008234541 -0.25019938304154432 0 -0.18302313500755071 -0.2439899936431944 0 -0.19802209048296379 -0.28635949996127641 0 -0.1886979554505778 -0.26424866549365111 0 -0.17207590190214231 -0.279982740924685 0 -0.17207590190214231 -0.279982740924685 0 -0.15243307755876301 -0.2722263948370337 0 -0.15610572008234541 -0.25019938304154432 0 -0.17207590190214231 -0.279982740924685 0 -0.1529713384303687 -0.29254411394572361 0 -0.15243307755876301 -0.2722263948370337 0 -0.17207590190214231 -0.279982740924685 0 -0.17602579651849889 -0.30180632236146521 0 -0.1529713384303687 -0.29254411394572361 0 -0.19802209048296379 -0.28635949996127641 0 -0.17207590190214231 -0.279982740924685 0 -0.17602579651849889 -0.30180632236146521 0 -0.19370203390290849 -0.30584556358347359 0 -0.17602579651849889 -0.30180632236146521 0 -0.1832604841958401 -0.31558668608983798 0 -0.17602579651849889 -0.30180632236146521 0 -0.1832604841958401 -0.31558668608983798 0 -0.1722090615637106 -0.31605390931535082 0 -0.17602579651849889 -0.30180632236146521 0 -0.1722090615637106 -0.31605390931535082 0 -0.15703106403983411 -0.31587005547936448 0 -0.17602579651849889 -0.30180632236146521 0 -0.1529713384303687 -0.29254411394572361 0 -0.15703106403983411 -0.31587005547936448 0 -0.13467533938205981 -0.30828295766831881 0 -0.1344763400579474 -0.29173952059284802 0 -0.1529713384303687 -0.29254411394572361 0 -0.13467533938205981 -0.30828295766831881 0 -0.1529713384303687 -0.29254411394572361 0 -0.15703106403983411 -0.31587005547936448 0 -0.13467533938205981 -0.30828295766831881 0 -0.1344763400579474 -0.29173952059284802 0 -0.11906623650379231 -0.29247890852950659 0 -0.1344763400579474 -0.29173952059284802 0 -0.13737280003471319 -0.27655255631592041 0 -0.124027545577141 -0.27827750946148688 0 -0.1344763400579474 -0.29173952059284802 0 -0.124027545577141 -0.27827750946148688 0 -0.11906623650379231 -0.29247890852950659 0 -0.1344763400579474 -0.29173952059284802 0 -0.1529713384303687 -0.29254411394572361 0 -0.13737280003471319 -0.27655255631592041 0 -0.1529713384303687 -0.29254411394572361 0 -0.15243307755876301 -0.2722263948370337 0 -0.13737280003471319 -0.27655255631592041 0 -0.15243307755876301 -0.2722263948370337 0 -0.13737280003471319 -0.27655255631592041 0 -0.14222084982046851 -0.26248021145205319 0 -0.13737280003471319 -0.27655255631592041 0 -0.12884010628096551 -0.26371866305477693 0 -0.124027545577141 -0.27827750946148688 0 -0.13737280003471319 -0.27655255631592041 0 -0.12884010628096551 -0.26371866305477693 0 -0.14222084982046851 -0.26248021145205319 0 -0.12884010628096551 -0.26371866305477693 0 -0.14222084982046851 -0.26248021145205319 0 -0.1363525451455552 -0.2497040600109908 0 -0.12884010628096551 -0.26371866305477693 0 -0.12188719209648199 -0.25173808517605212 0 -0.1363525451455552 -0.2497040600109908 0 -0.15610572008234541 -0.25019938304154432 0 -0.14222084982046851 -0.26248021145205319 0 -0.1363525451455552 -0.2497040600109908 0 -0.15243307755876301 -0.2722263948370337 0 -0.15610572008234541 -0.25019938304154432 0 -0.14222084982046851 -0.26248021145205319 0 -0.16620253605695601 -0.35793890833011871 0 -0.16672438828367789 -0.34703180369526909 0 -0.14581778931409009 -0.35909853024243671 0 -0.16672438828367789 -0.34703180369526909 0 -0.14581778931409009 -0.35909853024243671 0 -0.16620253605695601 -0.35793890833011871 0 -0.16672438828367789 -0.34703180369526909 0 -0.17668631740791069 -0.35099362935925749 0 -0.16620253605695601 -0.35793890833011871 0 -0.16358185764711819 -0.36793730763811228 0 -0.14581778931409009 -0.35909853024243671 0 -0.1697510987243929 -0.38070965548543428 0 -0.16358185764711819 -0.36793730763811228 0 -0.1782023276319831 -0.3646332707155181 0 -0.16620253605695601 -0.35793890833011871 0 -0.16358185764711819 -0.36793730763811228 0 -0.1782023276319831 -0.3646332707155181 0 -0.18575631599114231 -0.38214608881950879 0 -0.19149326970478039 -0.36693932957744091 0 -0.1782023276319831 -0.3646332707155181 0 -0.18992339748989129 -0.35090550833252171 0 -0.19149326970478039 -0.36693932957744091 0 -0.1782023276319831 -0.3646332707155181 0 -0.18992339748989129 -0.35090550833252171 0 -0.1782023276319831 -0.3646332707155181 0 -0.17668631740791069 -0.35099362935925749 0 -0.16672438828367789 -0.34703180369526909 0 -0.17668631740791069 -0.35099362935925749 0 -0.18712462716281711 -0.33718302969832759 0 -0.16620253605695601 -0.35793890833011871 0 -0.1782023276319831 -0.3646332707155181 0 -0.17668631740791069 -0.35099362935925749 0 -0.17668631740791069 -0.35099362935925749 0 -0.18712462716281711 -0.33718302969832759 0 -0.18992339748989129 -0.35090550833252171 0 -0.17668631740791069 -0.35099362935925749 0 -0.18712462716281711 -0.33718302969832759 0 -0.197562936917723 -0.32337243003739741 0 -0.18763098725326591 -0.33496507714810148 0 -0.1746420217602265 -0.32926721997864677 0 -0.18763098725326591 -0.33496507714810148 0 -0.16672438828367789 -0.34703180369526909 0 -0.18712462716281711 -0.33718302969832759 0 -0.18763098725326591 -0.33496507714810148 0 -0.16672438828367789 -0.34703180369526909 0 -0.18763098725326591 -0.33496507714810148 0 -0.16672438828367789 -0.34703180369526909 0 -0.1746420217602265 -0.32926721997864677 0 -0.197562936917723 -0.32337243003739741 0 -0.1746420217602265 -0.32926721997864677 0 -0.197562936917723 -0.32337243003739741 0 -0.1746420217602265 -0.32926721997864677 0 -0.1832604841958401 -0.31558668608983798 0 -0.1746420217602265 -0.32926721997864677 0 -0.1832604841958401 -0.31558668608983798 0 -0.1722090615637106 -0.31605390931535082 0 -0.1746420217602265 -0.32926721997864677 0 -0.1722090615637106 -0.31605390931535082 0 -0.15703106403983411 -0.31587005547936448 0 -0.1746420217602265 -0.32926721997864677 0 -0.15703106403983411 -0.31587005547936448 0 -0.15172110660273019 -0.33516200991989692 0 -0.1746420217602265 -0.32926721997864677 0 -0.15172110660273019 -0.33516200991989692 0 -0.16672438828367789 -0.34703180369526909 0 -0.1746420217602265 -0.32926721997864677 0 -0.15172110660273019 -0.33516200991989692 0 -0.15703106403983411 -0.31587005547936448 0 -0.15172110660273019 -0.33516200991989692 0 -0.13731080488152331 -0.32567924503169687 0 -0.13467533938205981 -0.30828295766831881 0 -0.15703106403983411 -0.31587005547936448 0 -0.13731080488152331 -0.32567924503169687 0 -0.13467533938205981 -0.30828295766831881 0 -0.13731080488152331 -0.32567924503169687 0 -0.1161806664246349 -0.32159248562429521 0 -0.15172110660273019 -0.33516200991989692 0 -0.1288001914452338 -0.34105679986114701 0 -0.15172110660273019 -0.33516200991989692 0 -0.13731080488152331 -0.32567924503169687 0 -0.1288001914452338 -0.34105679986114701 0 -0.13731080488152331 -0.32567924503169687 0 -0.1288001914452338 -0.34105679986114701 0 -0.1161806664246349 -0.32159248562429521 0 -0.1288001914452338 -0.34105679986114701 0 -0.14581778931409009 -0.35909853024243671 0 -0.12491119034450179 -0.37116525678960349 0 -0.16672438828367789 -0.34703180369526909 0 -0.15172110660273019 -0.33516200991989692 0 -0.14581778931409009 -0.35909853024243671 0 -0.15172110660273019 -0.33516200991989692 0 -0.1288001914452338 -0.34105679986114701 0 -0.14581778931409009 -0.35909853024243671 0 -0.15120155562087789 -0.37710158249035408 0 -0.14581778931409009 -0.35909853024243671 0 -0.12491119034450179 -0.37116525678960349 0 -0.15120155562087789 -0.37710158249035408 0 -0.16358185764711819 -0.36793730763811228 0 -0.14581778931409009 -0.35909853024243671 0 -0.14581778931409009 -0.35909853024243671 0 -0.12491119034450179 -0.37116525678960349 0 -0.12491119034450179 -0.37116525678960349 0 -0.10838071844787101 -0.3545347977322133 0 -0.12491119034450179 -0.37116525678960349 0 -0.10838071844787101 -0.3545347977322133 0 -0.1067504328061353 -0.38164715752456629 0 -0.10838071844787101 -0.3545347977322133 0 -0.09236628708778144 -0.37130363089365997 0 -0.1067504328061353 -0.38164715752456629 0 -0.10838071844787101 -0.3545347977322133 0 -0.09236628708778144 -0.37130363089365997 0 -0.08952255696171274 -0.3548984164117932 0 -0.10838071844787101 -0.3545347977322133 0 -0.091850246551238274 -0.33790433867482511 0 -0.10838071844787101 -0.3545347977322133 0 -0.091850246551238274 -0.33790433867482511 0 -0.08952255696171274 -0.3548984164117932 0 -0.1288001914452338 -0.34105679986114701 0 -0.10838071844787101 -0.3545347977322133 0 -0.1068438246923958 -0.33723073960198829 0 -0.1288001914452338 -0.34105679986114701 0 -0.12491119034450179 -0.37116525678960349 0 -0.10838071844787101 -0.3545347977322133 0 -0.1288001914452338 -0.34105679986114701 0 -0.1161806664246349 -0.32159248562429521 0 -0.1068438246923958 -0.33723073960198829 0 -0.1161806664246349 -0.32159248562429521 0 -0.088388426191201935 -0.33034495980792111 0 -0.1161806664246349 -0.32159248562429521 0 -0.112004975040553 -0.306469805040955 0 -0.095112025540037975 -0.310458248801674 0 -0.1161806664246349 -0.32159248562429521 0 -0.088388426191201935 -0.33034495980792111 0 -0.095112025540037975 -0.310458248801674 0 -0.10838071844787101 -0.3545347977322133 0 -0.1068438246923958 -0.33723073960198829 0 -0.091850246551238274 -0.33790433867482511 0 -0.1068438246923958 -0.33723073960198829 0 -0.091850246551238274 -0.33790433867482511 0 -0.088388426191201935 -0.33034495980792111 0 -0.1161806664246349 -0.32159248562429521 0 -0.1068438246923958 -0.33723073960198829 0 -0.088388426191201935 -0.33034495980792111 0 -0.091850246551238274 -0.33790433867482511 0 -0.088388426191201935 -0.33034495980792111 0 -0.079994237050533934 -0.34554540233615788 0 -0.088388426191201935 -0.33034495980792111 0 -0.072436908924853383 -0.31177877252427649 0 -0.088388426191201935 -0.33034495980792111 0 -0.095112025540037975 -0.310458248801674 0 -0.072436908924853383 -0.31177877252427649 0 -0.088388426191201935 -0.33034495980792111 0 -0.068578917974998696 -0.324723400712083 0 -0.072436908924853383 -0.31177877252427649 0 -0.068578917974998696 -0.324723400712083 0 -0.072436908924853383 -0.31177877252427649 0 -0.051928635174287419 -0.3179765016429803 0 -0.088388426191201935 -0.33034495980792111 0 -0.079994237050533934 -0.34554540233615788 0 -0.061561701609652103 -0.33879336887315431 0 -0.088388426191201935 -0.33034495980792111 0 -0.068578917974998696 -0.324723400712083 0 -0.061561701609652103 -0.33879336887315431 0 -0.088388426191201935 -0.33034495980792111 0 -0.061561701609652103 -0.33879336887315431 0 -0.077573541810842708 -0.36425626021562602 0 -0.079994237050533934 -0.34554540233615788 0 -0.062055885636088777 -0.36155519625232529 0 -0.079994237050533934 -0.34554540233615788 0 -0.062055885636088777 -0.36155519625232529 0 -0.061561701609652103 -0.33879336887315431 0 -0.06945932632460064 -0.37325618088828821 0 -0.077573541810842708 -0.36425626021562602 0 -0.062055885636088777 -0.36155519625232529 0 -0.06945932632460064 -0.37325618088828821 0 -0.062055885636088777 -0.36155519625232529 0 -0.059746369669151492 -0.37677136141821199 0 -0.06945932632460064 -0.37325618088828821 0 -0.077573541810842708 -0.36425626021562602 0 -0.08044227863309307 -0.37776742347346493 0 -0.077573541810842708 -0.36425626021562602 0 -0.09236628708778144 -0.37130363089365997 0 -0.08952255696171274 -0.3548984164117932 0 -0.077573541810842708 -0.36425626021562602 0 -0.09236628708778144 -0.37130363089365997 0 -0.08044227863309307 -0.37776742347346493 0 -0.077573541810842708 -0.36425626021562602 0 -0.08952255696171274 -0.3548984164117932 0 -0.079994237050533934 -0.34554540233615788 0 -0.091850246551238274 -0.33790433867482511 0 -0.08952255696171274 -0.3548984164117932 0 -0.079994237050533934 -0.34554540233615788 0 -0.1054249736214137 -0.25814887186467689 0 -0.097006123974171576 -0.27507809008239731 0 -0.086024961793378582 -0.26010525318884481 0 -0.1054249736214137 -0.25814887186467689 0 -0.12188719209648199 -0.25173808517605212 0 -0.1142024385592648 -0.26541169281590288 0 -0.12884010628096551 -0.26371866305477693 0 -0.12188719209648199 -0.25173808517605212 0 -0.1142024385592648 -0.26541169281590288 0 -0.1054249736214137 -0.25814887186467689 0 -0.1142024385592648 -0.26541169281590288 0 -0.12884010628096551 -0.26371866305477693 0 -0.1142024385592648 -0.26541169281590288 0 -0.124027545577141 -0.27827750946148688 0 -0.1142024385592648 -0.26541169281590288 0 -0.124027545577141 -0.27827750946148688 0 -0.1102073520261629 -0.27976371545996648 0 -0.1054249736214137 -0.25814887186467689 0 -0.1142024385592648 -0.26541169281590288 0 -0.097006123974171576 -0.27507809008239731 0 -0.1142024385592648 -0.26541169281590288 0 -0.1102073520261629 -0.27976371545996648 0 -0.097006123974171576 -0.27507809008239731 0 -0.1054249736214137 -0.25814887186467689 0 -0.097006123974171576 -0.27507809008239731 0 -0.1102073520261629 -0.27976371545996648 0 -0.097006123974171576 -0.27507809008239731 0 -0.099578563411102466 -0.29207272934599932 0 -0.1102073520261629 -0.27976371545996648 0 -0.099578563411102466 -0.29207272934599932 0 -0.11906623650379231 -0.29247890852950659 0 -0.124027545577141 -0.27827750946148688 0 -0.1102073520261629 -0.27976371545996648 0 -0.11906623650379231 -0.29247890852950659 0 -0.099578563411102466 -0.29207272934599932 0 -0.11906623650379231 -0.29247890852950659 0 -0.112004975040553 -0.306469805040955 0 -0.13467533938205981 -0.30828295766831881 0 -0.1161806664246349 -0.32159248562429521 0 -0.112004975040553 -0.306469805040955 0 -0.13467533938205981 -0.30828295766831881 0 -0.11906623650379231 -0.29247890852950659 0 -0.112004975040553 -0.306469805040955 0 -0.099578563411102466 -0.29207272934599932 0 -0.112004975040553 -0.306469805040955 0 -0.095112025540037975 -0.310458248801674 0 -0.099578563411102466 -0.29207272934599932 0 -0.095112025540037975 -0.310458248801674 0 -0.083420793068516602 -0.29966989646994818 0 -0.095112025540037975 -0.310458248801674 0 -0.083420793068516602 -0.29966989646994818 0 -0.072436908924853383 -0.31177877252427649 0 -0.083420793068516602 -0.29966989646994818 0 -0.072436908924853383 -0.31177877252427649 0 -0.071639362207511811 -0.28971652081068028 0 -0.072436908924853383 -0.31177877252427649 0 -0.056485391658504698 -0.29321258524063198 0 -0.072436908924853383 -0.31177877252427649 0 -0.071639362207511811 -0.28971652081068028 0 -0.056485391658504698 -0.29321258524063198 0 -0.071639362207511811 -0.28971652081068028 0 -0.083796667800091915 -0.28451379557210471 0 -0.075320764430502202 -0.27228807911012959 0 -0.097006123974171576 -0.27507809008239731 0 -0.099578563411102466 -0.29207272934599932 0 -0.083796667800091915 -0.28451379557210471 0 -0.099578563411102466 -0.29207272934599932 0 -0.083420793068516602 -0.29966989646994818 0 -0.083796667800091915 -0.28451379557210471 0 -0.083420793068516602 -0.29966989646994818 0 -0.071639362207511811 -0.28971652081068028 0 -0.083796667800091915 -0.28451379557210471 0 -0.097006123974171576 -0.27507809008239731 0 -0.075320764430502202 -0.27228807911012959 0 -0.086024961793378582 -0.26010525318884481 0 -0.097006123974171576 -0.27507809008239731 0 -0.083796667800091915 -0.28451379557210471 0 -0.075320764430502202 -0.27228807911012959 0 -0.071639362207511811 -0.28971652081068028 0 -0.075320764430502202 -0.27228807911012959 0 -0.059001743984278127 -0.27571106300031611 0 -0.075320764430502202 -0.27228807911012959 0 -0.06284949686432259 -0.25801573334750111 0 -0.059001743984278127 -0.27571106300031611 0 -0.075320764430502202 -0.27228807911012959 0 -0.06284949686432259 -0.25801573334750111 0 -0.086024961793378582 -0.26010525318884481 0 -0.06284949686432259 -0.25801573334750111 0 -0.086024961793378582 -0.26010525318884481 0 -0.085165119336488848 -0.24138506873801399 0 -0.1054249736214137 -0.25814887186467689 0 -0.086024961793378582 -0.26010525318884481 0 -0.085165119336488848 -0.24138506873801399 0 -0.035363392125721753 -0.26123090180979081 0 -0.040533874392156027 -0.27464639795698742 0 -0.025056542967552751 -0.25663212200554403 0 -0.035363392125721753 -0.26123090180979081 0 -0.042285169195724857 -0.25789321941827531 0 -0.040533874392156027 -0.27464639795698742 0 -0.033577981947453352 -0.25575186785835669 0 -0.042285169195724857 -0.25789321941827531 0 -0.03865392236174741 -0.2428150274564457 0 -0.033577981947453352 -0.25575186785835669 0 -0.035363392125721753 -0.26123090180979081 0 -0.042285169195724857 -0.25789321941827531 0 -0.033577981947453352 -0.25575186785835669 0 -0.035363392125721753 -0.26123090180979081 0 -0.025056542967552751 -0.25663212200554403 0 -0.06284949686432259 -0.25801573334750111 0 -0.042285169195724857 -0.25789321941827531 0 -0.040533874392156027 -0.27464639795698742 0 -0.06284949686432259 -0.25801573334750111 0 -0.042285169195724857 -0.25789321941827531 0 -0.049183695989257412 -0.24870926544763969 0 -0.06284949686432259 -0.25801573334750111 0 -0.040533874392156027 -0.27464639795698742 0 -0.06284949686432259 -0.25801573334750111 0 -0.059001743984278127 -0.27571106300031611 0 -0.040533874392156027 -0.27464639795698742 0 -0.059001743984278127 -0.27571106300031611 0 -0.040533874392156027 -0.27464639795698742 0 -0.056485391658504698 -0.29321258524063198 0 -0.040533874392156027 -0.27464639795698742 0 -0.0285425590923278 -0.26918532549275431 0 -0.025056542967552751 -0.25663212200554403 0 -0.040533874392156027 -0.27464639795698742 0 -0.025056542967552751 -0.25663212200554403 0 -0.040533874392156027 -0.27464639795698742 0 -0.03670795814698239 -0.28070769409084212 0 -0.044257274802416272 -0.28648453035669541 0 -0.040533874392156027 -0.27464639795698742 0 -0.034463997954017993 -0.27546666935065017 0 -0.0285425590923278 -0.26918532549275431 0 -0.034463997954017993 -0.27546666935065017 0 -0.03670795814698239 -0.28070769409084212 0 -0.029140298800148359 -0.2790863475373303 0 -0.040533874392156027 -0.27464639795698742 0 -0.034463997954017993 -0.27546666935065017 0 -0.03670795814698239 -0.28070769409084212 0 -0.03670795814698239 -0.28070769409084212 0 -0.029416101704146928 -0.29377519393892931 0 -0.029140298800148359 -0.2790863475373303 0 -0.03670795814698239 -0.28070769409084212 0 -0.044257274802416272 -0.28648453035669541 0 -0.029416101704146928 -0.29377519393892931 0 -0.044257274802416272 -0.28648453035669541 0 -0.029416101704146928 -0.29377519393892931 0 -0.044257274802416272 -0.28648453035669541 0 -0.039320134698968411 -0.30065521837005688 0 -0.029416101704146928 -0.29377519393892931 0 -0.044257274802416272 -0.28648453035669541 0 -0.047874924214703407 -0.29635928845984449 0 -0.039320134698968411 -0.30065521837005688 0 -0.040533874392156027 -0.27464639795698742 0 -0.056485391658504698 -0.29321258524063198 0 -0.040533874392156027 -0.27464639795698742 0 -0.044257274802416272 -0.28648453035669541 0 -0.056485391658504698 -0.29321258524063198 0 -0.071639362207511811 -0.28971652081068028 0 -0.059001743984278127 -0.27571106300031611 0 -0.056485391658504698 -0.29321258524063198 0 -0.044257274802416272 -0.28648453035669541 0 -0.056485391658504698 -0.29321258524063198 0 -0.047874924214703407 -0.29635928845984449 0 -0.056485391658504698 -0.29321258524063198 0 -0.047874924214703407 -0.29635928845984449 0 -0.051436895698924297 -0.30508481987199387 0 -0.072436908924853383 -0.31177877252427649 0 -0.056485391658504698 -0.29321258524063198 0 -0.051436895698924297 -0.30508481987199387 0 -0.051436895698924297 -0.30508481987199387 0 -0.039320134698968411 -0.30065521837005688 0 -0.051928635174287419 -0.3179765016429803 0 -0.072436908924853383 -0.31177877252427649 0 -0.051436895698924297 -0.30508481987199387 0 -0.051928635174287419 -0.3179765016429803 0 -0.039320134698968411 -0.30065521837005688 0 -0.027061581683367791 -0.30773321804215731 0 -0.032730265491422918 -0.32748564145565751 0 -0.047874924214703407 -0.29635928845984449 0 -0.051436895698924297 -0.30508481987199387 0 -0.039320134698968411 -0.30065521837005688 0 -0.039320134698968411 -0.30065521837005688 0 -0.027061581683367791 -0.30773321804215731 0 -0.029416101704146928 -0.29377519393892931 0 -0.027061581683367791 -0.30773321804215731 0 -0.014574928605876889 -0.30106585752116172 0 -0.02101129624554357 -0.32015920007830101 0 -0.027061581683367791 -0.30773321804215731 0 -0.014574928605876889 -0.30106585752116172 0 -0.029416101704146928 -0.29377519393892931 0 -0.014574928605876889 -0.30106585752116172 0 -0.029416101704146928 -0.29377519393892931 0 -0.014574928605876889 -0.30106585752116172 0 0.0050813500114497926 -0.31072192134635379 0 -0.014574928605876889 -0.30106585752116172 0 -0.0034123820152559409 -0.29406145048692378 0 0.0050813500114497926 -0.31072192134635379 0 -0.014574928605876889 -0.30106585752116172 0 -0.007351979299727399 -0.28388755567895069 0 -0.018014626610461149 -0.27685981986507369 0 -0.014574928605876889 -0.30106585752116172 0 -0.0034123820152559409 -0.29406145048692378 0 -0.007351979299727399 -0.28388755567895069 0 -0.0034123820152559409 -0.29406145048692378 0 -0.007351979299727399 -0.28388755567895069 0 0.0005044884639468436 -0.28428256264433588 0 -0.007351979299727399 -0.28388755567895069 0 -0.00066879478938417663 -0.27607701057605472 0 0.0005044884639468436 -0.28428256264433588 0 -0.029416101704146928 -0.29377519393892931 0 -0.029140298800148359 -0.2790863475373303 0 -0.018014626610461149 -0.27685981986507369 0 -0.014574928605876889 -0.30106585752116172 0 -0.018014626610461149 -0.27685981986507369 0 -0.014574928605876889 -0.30106585752116172 0 -0.029416101704146928 -0.29377519393892931 0 -0.018014626610461149 -0.27685981986507369 0 -0.0285425590923278 -0.26918532549275431 0 -0.018014626610461149 -0.27685981986507369 0 -0.025056542967552751 -0.25663212200554403 0 -0.034463997954017993 -0.27546666935065017 0 -0.029140298800148359 -0.2790863475373303 0 -0.0285425590923278 -0.26918532549275431 0 -0.029140298800148359 -0.2790863475373303 0 -0.0285425590923278 -0.26918532549275431 0 -0.018014626610461149 -0.27685981986507369 0 -0.018014626610461149 -0.27685981986507369 0 -0.009525461094516758 -0.26505727646372912 0 -0.013174588291599849 -0.25738337056705513 0 -0.007351979299727399 -0.28388755567895069 0 -0.018014626610461149 -0.27685981986507369 0 -0.0074004233270929601 -0.27365044047833043 0 -0.007351979299727399 -0.28388755567895069 0 -0.00066879478938417663 -0.27607701057605472 0 -0.0074004233270929601 -0.27365044047833043 0 -0.00066879478938417663 -0.27607701057605472 0 -0.0074004233270929601 -0.27365044047833043 0 -0.0014412548413753219 -0.26637053980784359 0 -0.0074004233270929601 -0.27365044047833043 0 -0.0014412548413753219 -0.26637053980784359 0 -0.009525461094516758 -0.26505727646372912 0 -0.018014626610461149 -0.27685981986507369 0 -0.0074004233270929601 -0.27365044047833043 0 -0.009525461094516758 -0.26505727646372912 0 -0.009525461094516758 -0.26505727646372912 0 -0.0051894584258374019 -0.25740543027040808 0 -0.013174588291599849 -0.25738337056705513 0 -0.0014412548413753219 -0.26637053980784359 0 -0.009525461094516758 -0.26505727646372912 0 -0.0051894584258374019 -0.25740543027040808 0 -0.0014412548413753219 -0.26637053980784359 0 -0.0051894584258374019 -0.25740543027040808 0 0.0059536600781536506 -0.25117039767460608 0 -0.0051894584258374019 -0.25740543027040808 0 -0.0077596479798487331 -0.24704556683880691 0 0.0059536600781536506 -0.25117039767460608 0 -0.013174588291599849 -0.25738337056705513 0 -0.01436331776458151 -0.2491202803804608 0 -0.0077596479798487331 -0.24704556683880691 0 -0.0051894584258374019 -0.25740543027040808 0 -0.013174588291599849 -0.25738337056705513 0 -0.0077596479798487331 -0.24704556683880691 0 -0.018014626610461149 -0.27685981986507369 0 -0.021454324615046299 -0.25265378220898571 0 -0.018014626610461149 -0.27685981986507369 0 -0.013174588291599849 -0.25738337056705513 0 -0.021454324615046299 -0.25265378220898571 0 -0.013174588291599849 -0.25738337056705513 0 -0.021454324615046299 -0.25265378220898571 0 -0.01436331776458151 -0.2491202803804608 0 -0.018014626610461149 -0.27685981986507369 0 -0.021454324615046299 -0.25265378220898571 0 -0.025056542967552751 -0.25663212200554403 0 -0.033577981947453352 -0.25575186785835669 0 -0.025056542967552751 -0.25663212200554403 0 -0.02982894127401315 -0.24869091922283099 0 -0.021454324615046299 -0.25265378220898571 0 -0.025056542967552751 -0.25663212200554403 0 -0.02982894127401315 -0.24869091922283099 0 -0.034734977028102333 -0.34724177793838712 0 -0.034582898599232997 -0.3575042436104845 0 -0.026140396283877421 -0.35431606454125808 0 -0.045071666736046109 -0.35838494190906239 0 -0.034734977028102333 -0.34724177793838712 0 -0.034582898599232997 -0.3575042436104845 0 -0.045071666736046109 -0.35838494190906239 0 -0.034582898599232997 -0.3575042436104845 0 -0.032384554348906129 -0.37007419005323039 0 -0.045071666736046109 -0.35838494190906239 0 -0.032384554348906129 -0.37007419005323039 0 -0.047694060464751942 -0.37347413288773662 0 -0.045071666736046109 -0.35838494190906239 0 -0.047694060464751942 -0.37347413288773662 0 -0.062055885636088777 -0.36155519625232529 0 -0.047694060464751942 -0.37347413288773662 0 -0.062055885636088777 -0.36155519625232529 0 -0.059746369669151492 -0.37677136141821199 0 -0.045071666736046109 -0.35838494190906239 0 -0.062055885636088777 -0.36155519625232529 0 -0.061561701609652103 -0.33879336887315431 0 -0.045071666736046109 -0.35838494190906239 0 -0.034734977028102333 -0.34724177793838712 0 -0.061561701609652103 -0.33879336887315431 0 -0.034734977028102333 -0.34724177793838712 0 -0.061561701609652103 -0.33879336887315431 0 -0.068578917974998696 -0.324723400712083 0 -0.061561701609652103 -0.33879336887315431 0 -0.051928635174287419 -0.3179765016429803 0 -0.061561701609652103 -0.33879336887315431 0 -0.051928635174287419 -0.3179765016429803 0 -0.032730265491422918 -0.32748564145565751 0 -0.039320134698968411 -0.30065521837005688 0 -0.032730265491422918 -0.32748564145565751 0 -0.039320134698968411 -0.30065521837005688 0 -0.051928635174287419 -0.3179765016429803 0 -0.032730265491422918 -0.32748564145565751 0 -0.034734977028102333 -0.34724177793838712 0 -0.061561701609652103 -0.33879336887315431 0 -0.032730265491422918 -0.32748564145565751 0 -0.034734977028102333 -0.34724177793838712 0 -0.032730265491422918 -0.32748564145565751 0 -0.026140396283877421 -0.35431606454125808 0 -0.032730265491422918 -0.32748564145565751 0 -0.026140396283877421 -0.35431606454125808 0 -0.032730265491422918 -0.32748564145565751 0 -0.02045772913729892 -0.3372658055847837 0 -0.02101129624554357 -0.32015920007830101 0 -0.02045772913729892 -0.3372658055847837 0 -0.02101129624554357 -0.32015920007830101 0 -0.01057433678700309 -0.32921904890168052 0 -0.032730265491422918 -0.32748564145565751 0 -0.02045772913729892 -0.3372658055847837 0 -0.026140396283877421 -0.35431606454125808 0 -0.027061581683367791 -0.30773321804215731 0 -0.032730265491422918 -0.32748564145565751 0 -0.02101129624554357 -0.32015920007830101 0 -0.014574928605876889 -0.30106585752116172 0 -0.02101129624554357 -0.32015920007830101 0 -0.01057433678700309 -0.32921904890168052 0 -0.014574928605876889 -0.30106585752116172 0 -0.01057433678700309 -0.32921904890168052 0 0.0050813500114497926 -0.31072192134635379 0 -0.014574928605876889 -0.30106585752116172 0 -0.01057433678700309 -0.32921904890168052 0 -0.01057433678700309 -0.32921904890168052 0 -0.0077462043469716524 -0.35128538252732211 0 0.0081968511320427359 -0.33138442113628902 0 -0.02045772913729892 -0.3372658055847837 0 -0.01057433678700309 -0.32921904890168052 0 -0.0077462043469716524 -0.35128538252732211 0 -0.0077462043469716524 -0.35128538252732211 0 -0.0067772076658356058 -0.36990237411869542 0 0.010832911374833431 -0.34975313271834613 0 -0.02045772913729892 -0.3372658055847837 0 -0.0077462043469716524 -0.35128538252732211 0 -0.026140396283877421 -0.35431606454125808 0 -0.0077462043469716524 -0.35128538252732211 0 -0.026140396283877421 -0.35431606454125808 0 -0.01440732777612086 -0.36167739800451282 0 -0.026140396283877421 -0.35431606454125808 0 -0.016718864700541451 -0.36676058107283133 0 -0.019550527076331901 -0.38114648762685882 0 -0.032384554348906129 -0.37007419005323039 0 -0.026140396283877421 -0.35431606454125808 0 -0.019550527076331901 -0.38114648762685882 0 -0.034582898599232997 -0.3575042436104845 0 -0.032384554348906129 -0.37007419005323039 0 -0.026140396283877421 -0.35431606454125808 0 -0.026140396283877421 -0.35431606454125808 0 -0.019550527076331901 -0.38114648762685882 0 -0.026140396283877421 -0.35431606454125808 0 -0.016718864700541451 -0.36676058107283133 0 -0.01440732777612086 -0.36167739800451282 0 -0.016718864700541451 -0.36676058107283133 0 -0.0067772076658356058 -0.36990237411869542 0 -0.019550527076331901 -0.38114648762685882 0 -0.0077462043469716524 -0.35128538252732211 0 -0.01440732777612086 -0.36167739800451282 0 -0.0067772076658356058 -0.36990237411869542 0 -0.016718864700541451 -0.36676058107283133 0 -0.01440732777612086 -0.36167739800451282 0 -0.0067772076658356058 -0.36990237411869542 0 -0.0067772076658356058 -0.36990237411869542 0 -0.0095503609992233854 -0.38675620533217392 0 0.00075797251546615531 -0.38237517200786991 0 -0.0067772076658356058 -0.36990237411869542 0 -0.0095503609992233854 -0.38675620533217392 0 -0.024387326706504651 -0.39005161551904483 0 -0.0067772076658356058 -0.36990237411869542 0 -0.024387326706504651 -0.39005161551904483 0 -0.0095503609992233854 -0.38675620533217392 0 -0.0036743792100369151 -0.39310732864226139 0 0.00075797251546615531 -0.38237517200786991 0 -0.0036743792100369151 -0.39310732864226139 0 -0.01421558761864654 -0.40158085945158378 0 0.00023836058689544591 -0.40455715327592823 0 -0.0095503609992233854 -0.38675620533217392 0 -0.0036743792100369151 -0.39310732864226139 0 -0.01421558761864654 -0.40158085945158378 0 -0.01421558761864654 -0.40158085945158378 0 -0.024387326706504651 -0.39005161551904483 0 -0.024039353383981221 -0.40988447576821241 0 -0.024387326706504651 -0.39005161551904483 0 -0.041997445747173782 -0.41020085691939417 0 -0.024039353383981221 -0.40988447576821241 0 -0.0095503609992233854 -0.38675620533217392 0 -0.01421558761864654 -0.40158085945158378 0 -0.024387326706504651 -0.39005161551904483 0 -0.0067772076658356058 -0.36990237411869542 0 -0.019550527076331901 -0.38114648762685882 0 -0.024387326706504651 -0.39005161551904483 0 -0.024387326706504651 -0.39005161551904483 0 -0.029040020055602661 -0.38175840366586838 0 -0.038275882364768359 -0.38402197731135379 0 -0.019550527076331901 -0.38114648762685882 0 -0.024387326706504651 -0.39005161551904483 0 -0.029040020055602661 -0.38175840366586838 0 -0.032384554348906129 -0.37007419005323039 0 -0.019550527076331901 -0.38114648762685882 0 -0.029040020055602661 -0.38175840366586838 0 -0.032384554348906129 -0.37007419005323039 0 -0.029040020055602661 -0.38175840366586838 0 -0.038275882364768359 -0.38402197731135379 0 -0.032384554348906129 -0.37007419005323039 0 -0.047694060464751942 -0.37347413288773662 0 -0.038275882364768359 -0.38402197731135379 0 -0.047694060464751942 -0.37347413288773662 0 -0.038275882364768359 -0.38402197731135379 0 -0.05313131232901195 -0.38781855174333318 0 -0.024387326706504651 -0.39005161551904483 0 -0.038275882364768359 -0.38402197731135379 0 -0.041997445747173782 -0.41020085691939417 0 -0.038275882364768359 -0.38402197731135379 0 -0.05313131232901195 -0.38781855174333318 0 -0.041997445747173782 -0.41020085691939417 0 -0.024387326706504651 -0.39005161551904483 0 -0.041997445747173782 -0.41020085691939417 0 -0.05313131232901195 -0.38781855174333318 0 -0.041997445747173782 -0.41020085691939417 0 -0.065053914370978905 -0.39790170820262832 0 -0.059746369669151492 -0.37677136141821199 0 -0.05313131232901195 -0.38781855174333318 0 -0.068565848156350209 -0.38410858084424809 0 -0.05313131232901195 -0.38781855174333318 0 -0.068565848156350209 -0.38410858084424809 0 -0.065053914370978905 -0.39790170820262832 0 -0.047694060464751942 -0.37347413288773662 0 -0.059746369669151492 -0.37677136141821199 0 -0.05313131232901195 -0.38781855174333318 0 -0.054348148814060651 -0.42901791889636293 0 -0.041997445747173782 -0.41020085691939417 0 -0.065649221067782038 -0.41362546214262408 0 -0.041997445747173782 -0.41020085691939417 0 -0.065053914370978905 -0.39790170820262832 0 -0.065649221067782038 -0.41362546214262408 0 -0.041997445747173782 -0.41020085691939417 0 -0.027721768318730789 -0.42977846132794828 0 -0.024039353383981221 -0.40988447576821241 0 -0.054348148814060651 -0.42901791889636293 0 -0.027721768318730789 -0.42977846132794828 0 -0.040112630429779042 -0.4470624745814244 0 -0.054348148814060651 -0.42901791889636293 0 -0.041997445747173782 -0.41020085691939417 0 -0.027721768318730789 -0.42977846132794828 0 -0.027721768318730789 -0.42977846132794828 0 -0.024039353383981221 -0.40988447576821241 0 -0.01187463852885033 -0.41781058562309098 0 -0.01421558761864654 -0.40158085945158378 0 -0.024039353383981221 -0.40988447576821241 0 -0.01187463852885033 -0.41781058562309098 0 -0.01187463852885033 -0.41781058562309098 0 0.00023836058689544591 -0.40455715327592823 0 0.0098855530659783582 -0.42263406498122003 0 -0.01421558761864654 -0.40158085945158378 0 -0.01187463852885033 -0.41781058562309098 0 0.00023836058689544591 -0.40455715327592823 0 -0.01187463852885033 -0.41781058562309098 0 -0.0043419640350712179 -0.43578204779098217 0 0.0098855530659783582 -0.42263406498122003 0 -0.027721768318730789 -0.42977846132794828 0 -0.01187463852885033 -0.41781058562309098 0 -0.0043419640350712179 -0.43578204779098217 0 -0.0043419640350712179 -0.43578204779098217 0 -0.016620725161761961 -0.44734201252221928 0 0.0031868441554037852 -0.45433946608745762 0 -0.010152050097814161 -0.46633772337200008 0 -0.016620725161761961 -0.44734201252221928 0 0.0031868441554037852 -0.45433946608745762 0 -0.010152050097814161 -0.46633772337200008 0 0.0021010566397200461 -0.46756239227329749 0 0.0031868441554037852 -0.45433946608745762 0 -0.010152050097814161 -0.46633772337200008 0 -0.02040623520363366 -0.45996975832333109 0 -0.016620725161761961 -0.44734201252221928 0 -0.02040623520363366 -0.45996975832333109 0 -0.016620725161761961 -0.44734201252221928 0 -0.031601839310542917 -0.4591167864344553 0 -0.010152050097814161 -0.46633772337200008 0 -0.02040623520363366 -0.45996975832333109 0 -0.025663994105264851 -0.47044017381570657 0 -0.02040623520363366 -0.45996975832333109 0 -0.025663994105264851 -0.47044017381570657 0 -0.031601839310542917 -0.4591167864344553 0 -0.016620725161761961 -0.44734201252221928 0 -0.040112630429779042 -0.4470624745814244 0 -0.031601839310542917 -0.4591167864344553 0 -0.027721768318730789 -0.42977846132794828 0 -0.016620725161761961 -0.44734201252221928 0 -0.040112630429779042 -0.4470624745814244 0 -0.027721768318730789 -0.42977846132794828 0 -0.0043419640350712179 -0.43578204779098217 0 -0.016620725161761961 -0.44734201252221928 0 -0.0061707719464598023 -0.49770777556580809 0 -0.01606377084287354 -0.49996710571533137 0 0.00114793382667621 -0.49999999999999989 0 -0.0097154785912969069 -0.49659757064225962 0 -0.0061707719464598023 -0.49770777556580809 0 0.015760147356135481 -0.4907534662374532 0 -0.0061707719464598023 -0.49770777556580809 0 -0.01606377084287354 -0.49996710571533137 0 -0.0097154785912969069 -0.49659757064225962 0 -0.0061707719464598023 -0.49770777556580809 0 -0.01606377084287354 -0.49996710571533137 0 -0.0097154785912969069 -0.49659757064225962 0 -0.01750304415387785 -0.49838403690223998 0 -0.0097154785912969069 -0.49659757064225962 0 -0.01606377084287354 -0.49996710571533137 0 -0.01750304415387785 -0.49838403690223998 0 -0.0097154785912969069 -0.49659757064225962 0 -0.0061707719464598023 -0.49770777556580809 0 -0.0061707719464598023 -0.49770777556580809 0 0.00114793382667621 -0.49999999999999989 0 -0.0067532454619310166 -0.48728545322052552 0 -0.001243411789432144 -0.47807675656639181 0 0.001691648207849188 -0.4882926267913022 0 -0.0097154785912969069 -0.49659757064225962 0 -0.0067532454619310166 -0.48728545322052552 0 0.001691648207849188 -0.4882926267913022 0 -0.0097154785912969069 -0.49659757064225962 0 -0.0067532454619310166 -0.48728545322052552 0 -0.014966768960325019 -0.48981002278707902 0 -0.0067532454619310166 -0.48728545322052552 0 -0.014966768960325019 -0.48981002278707902 0 -0.010001080717659381 -0.48177285686595789 0 -0.0067532454619310166 -0.48728545322052552 0 -0.010001080717659381 -0.48177285686595789 0 -0.001243411789432144 -0.47807675656639181 0 -0.010152050097814161 -0.46633772337200008 0 -0.001243411789432144 -0.47807675656639181 0 0.0021010566397200461 -0.46756239227329749 0 -0.010152050097814161 -0.46633772337200008 0 -0.010001080717659381 -0.48177285686595789 0 -0.001243411789432144 -0.47807675656639181 0 -0.010152050097814161 -0.46633772337200008 0 -0.010001080717659381 -0.48177285686595789 0 -0.017943176692264862 -0.4769094434237513 0 -0.010001080717659381 -0.48177285686595789 0 -0.017943176692264862 -0.4769094434237513 0 -0.02595558184832036 -0.48908701964134021 0 -0.025663994105264851 -0.47044017381570657 0 -0.017943176692264862 -0.4769094434237513 0 -0.02595558184832036 -0.48908701964134021 0 -0.010152050097814161 -0.46633772337200008 0 -0.025663994105264851 -0.47044017381570657 0 -0.017943176692264862 -0.4769094434237513 0 -0.014966768960325019 -0.48981002278707902 0 -0.010001080717659381 -0.48177285686595789 0 -0.02595558184832036 -0.48908701964134021 0 -0.010001080717659381 -0.48177285686595789 0 -0.02595558184832036 -0.48908701964134021 0 -0.014966768960325019 -0.48981002278707902 0 -0.02595558184832036 -0.48908701964134021 0 -0.022874211114625169 -0.49247624521288008 0 -0.02909712327267721 -0.49052722420525019 0 -0.02595558184832036 -0.48908701964134021 0 -0.02909712327267721 -0.49052722420525019 0 -0.02595558184832036 -0.48908701964134021 0 -0.022874211114625169 -0.49247624521288008 0 -0.02909712327267721 -0.49052722420525019 0 -0.022874211114625169 -0.49247624521288008 0 -0.02595558184832036 -0.48908701964134021 0 -0.022874211114625169 -0.49247624521288008 0 -0.02909712327267721 -0.49052722420525019 0 -0.024547352155887329 -0.49999999999999978 0 -0.022874211114625169 -0.49247624521288008 0 -0.024547352155887329 -0.49999999999999978 0 -0.01750304415387785 -0.49838403690223998 0 -0.0097154785912969069 -0.49659757064225962 0 -0.022874211114625169 -0.49247624521288008 0 -0.0097154785912969069 -0.49659757064225962 0 -0.014966768960325019 -0.48981002278707902 0 -0.022874211114625169 -0.49247624521288008 0 -0.024547352155887329 -0.49999999999999978 0 -0.01606377084287354 -0.49996710571533137 0 -0.01750304415387785 -0.49838403690223998 0 -0.024547352155887329 -0.49999999999999978 0 -0.022874211114625169 -0.49247624521288008 0 -0.01750304415387785 -0.49838403690223998 0 -0.0097154785912969069 -0.49659757064225962 0 -0.022874211114625169 -0.49247624521288008 0 -0.01750304415387785 -0.49838403690223998 0 -0.022874211114625169 -0.49247624521288008 0 -0.01750304415387785 -0.49838403690223998 0 -0.01606377084287354 -0.49996710571533137 0 -0.01750304415387785 -0.49838403690223998 0 -0.02909712327267721 -0.49052722420525019 0 -0.051288744219387131 -0.48357679098041922 0 -0.049760241768835867 -0.50000000000000056 0 -0.02909712327267721 -0.49052722420525019 0 -0.049760241768835867 -0.50000000000000056 0 -0.02909712327267721 -0.49052722420525019 0 -0.051288744219387131 -0.48357679098041922 0 -0.02909712327267721 -0.49052722420525019 0 -0.024547352155887329 -0.49999999999999978 0 -0.049760241768835867 -0.50000000000000056 0 -0.025663994105264851 -0.47044017381570657 0 -0.02595558184832036 -0.48908701964134021 0 -0.044024751667305073 -0.4692125878706776 0 -0.02595558184832036 -0.48908701964134021 0 -0.044024751667305073 -0.4692125878706776 0 -0.02909712327267721 -0.49052722420525019 0 -0.044024751667305073 -0.4692125878706776 0 -0.051288744219387131 -0.48357679098041922 0 -0.02909712327267721 -0.49052722420525019 0 -0.02595558184832036 -0.48908701964134021 0 -0.044024751667305073 -0.4692125878706776 0 -0.051288744219387131 -0.48357679098041922 0 -0.073480365166097517 -0.47662635775558992 0 -0.051288744219387131 -0.48357679098041922 0 -0.060996633023387183 -0.46782078694715151 0 -0.073480365166097517 -0.47662635775558992 0 -0.044024751667305073 -0.4692125878706776 0 -0.051288744219387131 -0.48357679098041922 0 -0.060996633023387183 -0.46782078694715151 0 -0.051288744219387131 -0.48357679098041922 0 -0.059864494514103132 -0.49999999999999728 0 -0.073480365166097517 -0.47662635775558992 0 -0.051288744219387131 -0.48357679098041922 0 -0.059864494514103132 -0.49999999999999728 0 -0.049760241768835867 -0.50000000000000056 0 -0.025663994105264851 -0.47044017381570657 0 -0.044024751667305073 -0.4692125878706776 0 -0.031601839310542917 -0.4591167864344553 0 -0.044024751667305073 -0.4692125878706776 0 -0.040112630429779042 -0.4470624745814244 0 -0.031601839310542917 -0.4591167864344553 0 -0.044024751667305073 -0.4692125878706776 0 -0.040112630429779042 -0.4470624745814244 0 -0.062093921486289123 -0.44933815610001437 0 -0.044024751667305073 -0.4692125878706776 0 -0.060996633023387183 -0.46782078694715151 0 -0.062093921486289123 -0.44933815610001437 0 -0.044024751667305073 -0.4692125878706776 0 -0.062093921486289123 -0.44933815610001437 0 -0.054348148814060651 -0.42901791889636293 0 -0.040112630429779042 -0.4470624745814244 0 -0.062093921486289123 -0.44933815610001437 0 -0.062093921486289123 -0.44933815610001437 0 -0.087950391634558645 -0.45178643157053427 0 -0.080163091305273187 -0.42946372432935109 0 -0.062093921486289123 -0.44933815610001437 0 -0.080163091305273187 -0.42946372432935109 0 -0.060996633023387183 -0.46782078694715151 0 -0.062093921486289123 -0.44933815610001437 0 -0.071130327827583398 -0.46139293309332269 0 -0.062093921486289123 -0.44933815610001437 0 -0.071130327827583398 -0.46139293309332269 0 -0.087950391634558645 -0.45178643157053427 0 -0.071130327827583398 -0.46139293309332269 0 -0.087950391634558645 -0.45178643157053427 0 -0.073480365166097517 -0.47662635775558992 0 -0.060996633023387183 -0.46782078694715151 0 -0.071130327827583398 -0.46139293309332269 0 -0.073480365166097517 -0.47662635775558992 0 -0.087950391634558645 -0.45178643157053427 0 -0.073480365166097517 -0.47662635775558992 0 -0.087950391634558645 -0.45178643157053427 0 -0.073480365166097517 -0.47662635775558992 0 -0.075920265316988839 -0.47586217909938489 0 -0.090805323553252493 -0.46732495898314352 0 -0.087950391634558645 -0.45178643157053427 0 -0.075920265316988839 -0.47586217909938489 0 -0.059864494514103132 -0.49999999999999728 0 -0.075928249405047527 -0.48754230661971448 0 -0.073480365166097517 -0.47662635775558992 0 -0.059864494514103132 -0.49999999999999728 0 -0.075928249405047527 -0.48754230661971448 0 -0.080729459299272832 -0.5 0 -0.059864494514103132 -0.49999999999999728 0 -0.073480365166097517 -0.47662635775558992 0 -0.075928249405047527 -0.48754230661971448 0 -0.073480365166097517 -0.47662635775558992 0 -0.075920265316988839 -0.47586217909938489 0 -0.073480365166097517 -0.47662635775558992 0 -0.075920265316988839 -0.47586217909938489 0 -0.090805323553252493 -0.46732495898314352 0 -0.075920265316988839 -0.47586217909938489 0 -0.089646662728775361 -0.48522299624360049 0 -0.075928249405047527 -0.48754230661971448 0 -0.075920265316988839 -0.47586217909938489 0 -0.089646662728775361 -0.48522299624360049 0 -0.089646662728775361 -0.48522299624360049 0 -0.080729459299272832 -0.5 0 -0.1015944240844425 -0.50000000000000033 0 -0.075928249405047527 -0.48754230661971448 0 -0.089646662728775361 -0.48522299624360049 0 -0.080729459299272832 -0.5 0 -0.089646662728775361 -0.48522299624360049 0 -0.1015944240844425 -0.50000000000000033 0 -0.1032866637241168 -0.47438589220807242 0 -0.1015944240844425 -0.50000000000000033 0 -0.1032866637241168 -0.47438589220807242 0 -0.1015944240844425 -0.50000000000000033 0 -0.1032866637241168 -0.47438589220807242 0 -0.11538243088369141 -0.48804797390108651 0 -0.090805323553252493 -0.46732495898314352 0 -0.089646662728775361 -0.48522299624360049 0 -0.1032866637241168 -0.47438589220807242 0 -0.13182319766427061 -0.48022876550816812 0 -0.1032866637241168 -0.47438589220807242 0 -0.11538243088369141 -0.48804797390108651 0 -0.1258364287862383 -0.45987739188392718 0 -0.13182319766427061 -0.48022876550816812 0 -0.1032866637241168 -0.47438589220807242 0 -0.1291704376829402 -0.5 0 -0.1015944240844425 -0.50000000000000033 0 -0.11538243088369141 -0.48804797390108651 0 -0.087950391634558645 -0.45178643157053427 0 -0.10497890336379111 -0.44877178441614429 0 -0.10242041810301861 -0.42694650538547801 0 -0.087950391634558645 -0.45178643157053427 0 -0.10242041810301861 -0.42694650538547801 0 -0.090805323553252493 -0.46732495898314352 0 -0.1032866637241168 -0.47438589220807242 0 -0.10497890336379111 -0.44877178441614429 0 -0.090805323553252493 -0.46732495898314352 0 -0.087950391634558645 -0.45178643157053427 0 -0.10497890336379111 -0.44877178441614429 0 -0.1032866637241168 -0.47438589220807242 0 -0.10497890336379111 -0.44877178441614429 0 -0.1258364287862383 -0.45987739188392718 0 -0.1032866637241168 -0.47438589220807242 0 -0.10497890336379111 -0.44877178441614429 0 -0.12785827924443599 -0.44659413372527879 0 -0.1258364287862383 -0.45987739188392718 0 -0.1193801802833796 -0.44801709171602783 0 -0.1258364287862383 -0.45987739188392718 0 -0.10497890336379111 -0.44877178441614429 0 -0.1193801802833796 -0.44801709171602783 0 -0.10497890336379111 -0.44877178441614429 0 -0.1193801802833796 -0.44801709171602783 0 -0.1188471097390532 -0.43682505683876099 0 -0.12785827924443599 -0.44659413372527879 0 -0.1193801802833796 -0.44801709171602783 0 -0.1188471097390532 -0.43682505683876099 0 -0.1270471591766624 -0.42004321858464022 0 -0.1188471097390532 -0.43682505683876099 0 -0.11736396412266489 -0.42053313281200982 0 -0.1188471097390532 -0.43682505683876099 0 -0.1066711430034654 -0.42315767662421627 0 -0.11736396412266489 -0.42053313281200982 0 -0.10497890336379111 -0.44877178441614429 0 -0.1188471097390532 -0.43682505683876099 0 -0.1066711430034654 -0.42315767662421627 0 -0.10497890336379111 -0.44877178441614429 0 -0.10242041810301861 -0.42694650538547801 0 -0.1066711430034654 -0.42315767662421627 0 -0.10497890336379111 -0.44877178441614429 0 -0.1066711430034654 -0.42315767662421627 0 -0.10242041810301861 -0.42694650538547801 0 -0.1066711430034654 -0.42315767662421627 0 -0.11689044457147869 -0.40210657920042181 0 -0.10242041810301861 -0.42694650538547801 0 -0.098232261124257259 -0.40958929255868792 0 -0.11689044457147869 -0.40210657920042181 0 -0.10242041810301861 -0.42694650538547801 0 -0.11689044457147869 -0.40210657920042181 0 -0.1270471591766624 -0.42004321858464022 0 -0.11736396412266489 -0.42053313281200982 0 -0.11689044457147869 -0.40210657920042181 0 -0.1066711430034654 -0.42315767662421627 0 -0.11736396412266489 -0.42053313281200982 0 -0.11689044457147869 -0.40210657920042181 0 -0.11689044457147869 -0.40210657920042181 0 -0.121863003589462 -0.38809550939407572 0 -0.1035935648992227 -0.39595423664494322 0 -0.13469635783585379 -0.40786593226579682 0 -0.11689044457147869 -0.40210657920042181 0 -0.121863003589462 -0.38809550939407572 0 -0.12491119034450179 -0.37116525678960349 0 -0.1067504328061353 -0.38164715752456629 0 -0.121863003589462 -0.38809550939407572 0 -0.1067504328061353 -0.38164715752456629 0 -0.1035935648992227 -0.39595423664494322 0 -0.12491119034450179 -0.37116525678960349 0 -0.121863003589462 -0.38809550939407572 0 -0.1067504328061353 -0.38164715752456629 0 -0.1067504328061353 -0.38164715752456629 0 -0.088589675267768508 -0.3921290582595286 0 -0.09236628708778144 -0.37130363089365997 0 -0.1067504328061353 -0.38164715752456629 0 -0.088589675267768508 -0.3921290582595286 0 -0.1067504328061353 -0.38164715752456629 0 -0.1035935648992227 -0.39595423664494322 0 -0.088589675267768508 -0.3921290582595286 0 -0.098232261124257259 -0.40958929255868792 0 -0.1035935648992227 -0.39595423664494322 0 -0.088589675267768508 -0.3921290582595286 0 -0.098232261124257259 -0.40958929255868792 0 -0.11689044457147869 -0.40210657920042181 0 -0.1035935648992227 -0.39595423664494322 0 -0.088589675267768508 -0.3921290582595286 0 -0.065053914370978905 -0.39790170820262832 0 -0.080790105673287385 -0.40753062202679441 0 -0.098232261124257259 -0.40958929255868792 0 -0.088589675267768508 -0.3921290582595286 0 -0.080790105673287385 -0.40753062202679441 0 -0.088589675267768508 -0.3921290582595286 0 -0.08044227863309307 -0.37776742347346493 0 -0.068565848156350209 -0.38410858084424809 0 -0.09236628708778144 -0.37130363089365997 0 -0.088589675267768508 -0.3921290582595286 0 -0.08044227863309307 -0.37776742347346493 0 -0.06945932632460064 -0.37325618088828821 0 -0.08044227863309307 -0.37776742347346493 0 -0.068565848156350209 -0.38410858084424809 0 -0.06945932632460064 -0.37325618088828821 0 -0.059746369669151492 -0.37677136141821199 0 -0.068565848156350209 -0.38410858084424809 0 -0.088589675267768508 -0.3921290582595286 0 -0.068565848156350209 -0.38410858084424809 0 -0.065053914370978905 -0.39790170820262832 0 -0.065649221067782038 -0.41362546214262408 0 -0.080163091305273187 -0.42946372432935109 0 -0.080790105673287385 -0.40753062202679441 0 -0.065053914370978905 -0.39790170820262832 0 -0.065649221067782038 -0.41362546214262408 0 -0.080790105673287385 -0.40753062202679441 0 -0.054348148814060651 -0.42901791889636293 0 -0.065649221067782038 -0.41362546214262408 0 -0.080163091305273187 -0.42946372432935109 0 -0.054348148814060651 -0.42901791889636293 0 -0.062093921486289123 -0.44933815610001437 0 -0.080163091305273187 -0.42946372432935109 0 -0.087950391634558645 -0.45178643157053427 0 -0.10242041810301861 -0.42694650538547801 0 -0.080163091305273187 -0.42946372432935109 0 -0.10242041810301861 -0.42694650538547801 0 -0.098232261124257259 -0.40958929255868792 0 -0.080163091305273187 -0.42946372432935109 0 -0.098232261124257259 -0.40958929255868792 0 -0.080163091305273187 -0.42946372432935109 0 -0.098232261124257259 -0.40958929255868792 0 -0.080163091305273187 -0.42946372432935109 0 -0.080790105673287385 -0.40753062202679441 0 -0.087885528228072884 -0.087501678372896866 0 -0.084356431854777675 -0.06452420629228027 0 -0.096463818591280615 -0.066667908987913638 0 -0.087885528228072884 -0.087501678372896866 0 -0.084356431854777675 -0.06452420629228027 0 -0.072821709270830481 -0.078055569479704975 0 -0.087885528228072884 -0.087501678372896866 0 -0.084356431854777675 -0.06452420629228027 0 -0.084356431854777675 -0.06452420629228027 0 -0.072821709270830481 -0.078055569479704975 0 -0.056808105102391933 -0.066452464930766619 0 -0.072821709270830481 -0.078055569479704975 0 -0.070031712306141428 -0.095410001667352071 0 -0.048404448115184587 -0.09543052192708372 0 -0.087885528228072884 -0.087501678372896866 0 -0.072821709270830481 -0.078055569479704975 0 -0.070031712306141428 -0.095410001667352071 0 -0.070031712306141428 -0.095410001667352071 0 -0.068556660946916481 -0.11593475757817789 0 -0.080730928591751849 -0.101267320478968 0 -0.091414624601368094 -0.11047915045351341 0 -0.084464042263549005 -0.12306502599089519 0 -0.089176009727263056 -0.12940720270261721 0 -0.091414624601368094 -0.11047915045351341 0 -0.089176009727263056 -0.12940720270261721 0 -0.094943720974663998 -0.1334566225341299 0 -0.091414624601368094 -0.11047915045351341 0 -0.094943720974663998 -0.1334566225341299 0 -0.068556660946916481 -0.11593475757817789 0 -0.091414624601368094 -0.11047915045351341 0 -0.084464042263549005 -0.12306502599089519 0 -0.087885528228072884 -0.087501678372896866 0 -0.091414624601368094 -0.11047915045351341 0 -0.098603633051758927 -0.097717657622718848 0 -0.087885528228072884 -0.087501678372896866 0 -0.091414624601368094 -0.11047915045351341 0 -0.080730928591751849 -0.101267320478968 0 -0.087885528228072884 -0.087501678372896866 0 -0.091414624601368094 -0.11047915045351341 0 -0.087885528228072884 -0.087501678372896866 0 -0.070031712306141428 -0.095410001667352071 0 -0.080730928591751849 -0.101267320478968 0 -0.068556660946916481 -0.11593475757817789 0 -0.091414624601368094 -0.11047915045351341 0 -0.080730928591751849 -0.101267320478968 0 -0.098603633051758927 -0.097717657622718848 0 -0.10827519855767791 -0.10764277306652489 0 -0.1086854332230677 -0.091355052032898773 0 -0.091414624601368094 -0.11047915045351341 0 -0.098603633051758927 -0.097717657622718848 0 -0.10827519855767791 -0.10764277306652489 0 -0.091414624601368094 -0.11047915045351341 0 -0.10119645699692829 -0.1223175666550574 0 -0.094943720974663998 -0.1334566225341299 0 -0.091414624601368094 -0.11047915045351341 0 -0.10827519855767791 -0.10764277306652489 0 -0.10119645699692829 -0.1223175666550574 0 -0.10827519855767791 -0.10764277306652489 0 -0.10119645699692829 -0.1223175666550574 0 -0.1130612116976653 -0.11743926334590141 0 -0.10119645699692829 -0.1223175666550574 0 -0.1130612116976653 -0.11743926334590141 0 -0.1095224167774448 -0.12500943801932349 0 -0.1130612116976653 -0.11743926334590141 0 -0.12141654953633819 -0.1237391550570868 0 -0.1095224167774448 -0.12500943801932349 0 -0.10827519855767791 -0.10764277306652489 0 -0.1130612116976653 -0.11743926334590141 0 -0.1233103767900269 -0.11391983961638839 0 -0.1130612116976653 -0.11743926334590141 0 -0.1233103767900269 -0.11391983961638839 0 -0.12141654953633819 -0.1237391550570868 0 -0.1196943769995599 -0.1026894650061886 0 -0.1249758290592763 -0.088089041145386904 0 -0.1086854332230677 -0.091355052032898773 0 -0.10827519855767791 -0.10764277306652489 0 -0.1196943769995599 -0.1026894650061886 0 -0.1086854332230677 -0.091355052032898773 0 -0.10827519855767791 -0.10764277306652489 0 -0.1233103767900269 -0.11391983961638839 0 -0.1196943769995599 -0.1026894650061886 0 -0.1249758290592763 -0.088089041145386904 0 -0.1086854332230677 -0.091355052032898773 0 -0.1150949101028008 -0.077410137428806702 0 -0.087885528228072884 -0.087501678372896866 0 -0.098603633051758927 -0.097717657622718848 0 -0.1003403443424411 -0.078336534568293828 0 -0.1086854332230677 -0.091355052032898773 0 -0.1003403443424411 -0.078336534568293828 0 -0.10868517796611039 -0.065317853483212285 0 -0.1086854332230677 -0.091355052032898773 0 -0.10868517796611039 -0.065317853483212285 0 -0.098603633051758927 -0.097717657622718848 0 -0.1086854332230677 -0.091355052032898773 0 -0.1003403443424411 -0.078336534568293828 0 -0.087885528228072884 -0.087501678372896866 0 -0.1003403443424411 -0.078336534568293828 0 -0.096463818591280615 -0.066667908987913638 0 -0.1003403443424411 -0.078336534568293828 0 -0.096463818591280615 -0.066667908987913638 0 -0.10868517796611039 -0.065317853483212285 0 -0.1249758290592763 -0.088089041145386904 0 -0.1168303758842141 -0.063684848039456371 0 -0.1150949101028008 -0.077410137428806702 0 -0.1249758290592763 -0.088089041145386904 0 -0.1168303758842141 -0.063684848039456371 0 -0.1086854332230677 -0.091355052032898773 0 -0.10868517796611039 -0.065317853483212285 0 -0.1150949101028008 -0.077410137428806702 0 -0.10868517796611039 -0.065317853483212285 0 -0.1168303758842141 -0.063684848039456371 0 -0.1150949101028008 -0.077410137428806702 0 -0.1168303758842141 -0.063684848039456371 0 -0.1086849227091525 -0.039280654933525748 0 -0.10868517796611039 -0.065317853483212285 0 -0.1168303758842141 -0.063684848039456371 0 -0.1086849227091525 -0.039280654933525748 0 -0.1168303758842141 -0.063684848039456371 0 -0.1086849227091525 -0.039280654933525748 0 -0.13437411955032749 -0.049955449646558618 0 -0.1086849227091525 -0.039280654933525748 0 -0.12811296504878369 -0.028680234473229111 0 -0.13437411955032749 -0.049955449646558618 0 -0.1086849227091525 -0.039280654933525748 0 -0.094629227787703801 -0.051561931469246772 0 -0.084264045435959417 -0.025379109095011211 0 -0.10868517796611039 -0.065317853483212285 0 -0.1086849227091525 -0.039280654933525748 0 -0.094629227787703801 -0.051561931469246772 0 -0.10868517796611039 -0.065317853483212285 0 -0.1086849227091525 -0.039280654933525748 0 -0.096463818591280615 -0.066667908987913638 0 -0.10868517796611039 -0.065317853483212285 0 -0.094629227787703801 -0.051561931469246772 0 -0.11882490356417411 -0.003904598360146466 0 -0.10868467246495971 -0.013754777708714109 0 -0.1257243243116119 -0.013993145548155089 0 -0.11882490356417411 -0.003904598360146466 0 -0.10868467246495971 -0.013754777708714109 0 -0.1086844222207676 0.011771099516097561 0 -0.1086849227091525 -0.039280654933525748 0 -0.10868467246495971 -0.013754777708714109 0 -0.12811296504878369 -0.028680234473229111 0 -0.10868467246495971 -0.013754777708714109 0 -0.1257243243116119 -0.013993145548155089 0 -0.12811296504878369 -0.028680234473229111 0 -0.1086849227091525 -0.039280654933525748 0 -0.10868467246495971 -0.013754777708714109 0 -0.1086849227091525 -0.039280654933525748 0 -0.1002444259692802 -0.01399249626109764 0 -0.084264045435959417 -0.025379109095011211 0 -0.1086849227091525 -0.039280654933525748 0 -0.10868467246495971 -0.013754777708714109 0 -0.1002444259692802 -0.01399249626109764 0 -0.1086849227091525 -0.039280654933525748 0 -0.1002444259692802 -0.01399249626109764 0 -0.10868467246495971 -0.013754777708714109 0 -0.1086844222207676 0.011771099516097561 0 -0.10868467246495971 -0.013754777708714109 0 -0.096474233828364037 -0.0068040047894571357 0 -0.1086844222207676 0.011771099516097561 0 -0.10868467246495971 -0.013754777708714109 0 -0.1002444259692802 -0.01399249626109764 0 -0.096474233828364037 -0.0068040047894571357 0 -0.1002444259692802 -0.01399249626109764 0 -0.096474233828364037 -0.0068040047894571357 0 -0.084264045435959417 -0.025379109095011211 0 -0.096474233828364037 -0.0068040047894571357 0 -0.084456534393358026 -0.010309901482244329 0 -0.084264045435959417 -0.025379109095011211 0 -0.078334814199318203 -0.002763550018114088 0 -0.084456534393358026 -0.010309901482244329 0 -0.088518055910885796 0.001011111111938902 0 -0.096474233828364037 -0.0068040047894571357 0 -0.084456534393358026 -0.010309901482244329 0 -0.088518055910885796 0.001011111111938902 0 -0.078334814199318203 -0.002763550018114088 0 -0.084456534393358026 -0.010309901482244329 0 -0.072865412579994043 -0.014401514791519051 0 -0.096474233828364037 -0.0068040047894571357 0 -0.084264045435959417 -0.025379109095011211 0 -0.084456534393358026 -0.010309901482244329 0 -0.084264045435959417 -0.025379109095011211 0 -0.072865412579994043 -0.014401514791519051 0 -0.084264045435959417 -0.025379109095011211 0 -0.072865412579994043 -0.014401514791519051 0 -0.062237706730578629 -0.029129110296737561 0 -0.072865412579994043 -0.014401514791519051 0 -0.060446776131151923 -0.013687756836243559 0 -0.062237706730578629 -0.029129110296737561 0 -0.072865412579994043 -0.014401514791519051 0 -0.067452598589598109 -0.0051396610207635326 0 -0.060446776131151923 -0.013687756836243559 0 -0.078334814199318203 -0.002763550018114088 0 -0.072865412579994043 -0.014401514791519051 0 -0.067452598589598109 -0.0051396610207635326 0 -0.084356431854777675 -0.06452420629228027 0 -0.094629227787703801 -0.051561931469246772 0 -0.072053857043554798 -0.043954213400565309 0 -0.084356431854777675 -0.06452420629228027 0 -0.096463818591280615 -0.066667908987913638 0 -0.094629227787703801 -0.051561931469246772 0 -0.084264045435959417 -0.025379109095011211 0 -0.072053857043554798 -0.043954213400565309 0 -0.094629227787703801 -0.051561931469246772 0 -0.084264045435959417 -0.025379109095011211 0 -0.072053857043554798 -0.043954213400565309 0 -0.084264045435959417 -0.025379109095011211 0 -0.072053857043554798 -0.043954213400565309 0 -0.062237706730578629 -0.029129110296737561 0 -0.072053857043554798 -0.043954213400565309 0 -0.054904714888106693 -0.046385709650370283 0 -0.062237706730578629 -0.029129110296737561 0 -0.084356431854777675 -0.06452420629228027 0 -0.072053857043554798 -0.043954213400565309 0 -0.056808105102391933 -0.066452464930766619 0 -0.072053857043554798 -0.043954213400565309 0 -0.054904714888106693 -0.046385709650370283 0 -0.056808105102391933 -0.066452464930766619 0 -0.054904714888106693 -0.046385709650370283 0 -0.041750604227142288 -0.055286851311442897 0 -0.056808105102391933 -0.066452464930766619 0 -0.054904714888106693 -0.046385709650370283 0 -0.041066001644148073 -0.037264679750437547 0 -0.062237706730578629 -0.029129110296737561 0 -0.054904714888106693 -0.046385709650370283 0 -0.041066001644148073 -0.037264679750437547 0 -0.041750604227142288 -0.055286851311442897 0 -0.041066001644148073 -0.037264679750437547 0 -0.032763813354124142 -0.0238847138544372 0 -0.021347961344598591 -0.037360900307651337 0 -0.041066001644148073 -0.037264679750437547 0 -0.041750604227142288 -0.055286851311442897 0 -0.026507364832176739 -0.051722658825847583 0 -0.041750604227142288 -0.055286851311442897 0 -0.026507364832176739 -0.051722658825847583 0 -0.028252235283452609 -0.074926286275989393 0 -0.05314374056246722 -0.0011078366443659951 0 -0.050248319323078577 -0.010497638224936051 0 -0.039734266448735241 -0.0067888090409130609 0 -0.067452598589598109 -0.0051396610207635326 0 -0.05314374056246722 -0.0011078366443659951 0 -0.060446776131151923 -0.013687756836243559 0 -0.05314374056246722 -0.0011078366443659951 0 -0.060446776131151923 -0.013687756836243559 0 -0.050248319323078577 -0.010497638224936051 0 -0.060446776131151923 -0.013687756836243559 0 -0.050248319323078577 -0.010497638224936051 0 -0.047668494149959953 -0.020406150378221601 0 -0.041066001644148073 -0.037264679750437547 0 -0.047668494149959953 -0.020406150378221601 0 -0.062237706730578629 -0.029129110296737561 0 -0.060446776131151923 -0.013687756836243559 0 -0.047668494149959953 -0.020406150378221601 0 -0.062237706730578629 -0.029129110296737561 0 -0.041066001644148073 -0.037264679750437547 0 -0.047668494149959953 -0.020406150378221601 0 -0.032763813354124142 -0.0238847138544372 0 -0.047668494149959953 -0.020406150378221601 0 -0.032763813354124142 -0.0238847138544372 0 -0.039734266448735241 -0.0067888090409130609 0 -0.05314374056246722 -0.0011078366443659951 0 -0.039734266448735241 -0.0067888090409130609 0 -0.02986916218455692 0.00093512753027480411 0 -0.050248319323078577 -0.010497638224936051 0 -0.047668494149959953 -0.020406150378221601 0 -0.039734266448735241 -0.0067888090409130609 0 -0.005601158127135077 -0.013126242894221769 0 -0.02986916218455692 0.00093512753027480411 0 -0.01307847104267023 0.001682871512254519 0 -0.039734266448735241 -0.0067888090409130609 0 -0.013841038034362461 -0.020353312007358772 0 -0.005601158127135077 -0.013126242894221769 0 -0.02986916218455692 0.00093512753027480411 0 -0.013841038034362461 -0.020353312007358772 0 -0.005601158127135077 -0.013126242894221769 0 -0.02986916218455692 0.00093512753027480411 0 -0.039734266448735241 -0.0067888090409130609 0 -0.013841038034362461 -0.020353312007358772 0 -0.02986916218455692 0.00093512753027480411 0 -0.032763813354124142 -0.0238847138544372 0 -0.013841038034362461 -0.020353312007358772 0 -0.021347961344598591 -0.037360900307651337 0 -0.032763813354124142 -0.0238847138544372 0 -0.039734266448735241 -0.0067888090409130609 0 -0.013841038034362461 -0.020353312007358772 0 -0.013841038034362461 -0.020353312007358772 0 0.01205219038001208 -0.033917814973801461 0 -0.013841038034362461 -0.020353312007358772 0 -0.0058095277510595619 -0.036517986782931881 0 0.01205219038001208 -0.033917814973801461 0 -0.013841038034362461 -0.020353312007358772 0 -0.005601158127135077 -0.013126242894221769 0 0.01205219038001208 -0.033917814973801461 0 -0.005601158127135077 -0.013126242894221769 0 -0.01307847104267023 0.001682871512254519 0 0.0013368076600828139 0.00064641566715705325 0 -0.026507364832176739 -0.051722658825847583 0 -0.021347961344598591 -0.037360900307651337 0 -0.0081000224517206176 -0.054422050624895073 0 -0.026507364832176739 -0.051722658825847583 0 -0.0081000224517206176 -0.054422050624895073 0 -0.028252235283452609 -0.074926286275989393 0 -0.041066001644148073 -0.037264679750437547 0 -0.026507364832176739 -0.051722658825847583 0 -0.021347961344598591 -0.037360900307651337 0 -0.021347961344598591 -0.037360900307651337 0 -0.0058095277510595619 -0.036517986782931881 0 -0.0081000224517206176 -0.054422050624895073 0 -0.013841038034362461 -0.020353312007358772 0 -0.021347961344598591 -0.037360900307651337 0 -0.0058095277510595619 -0.036517986782931881 0 -0.0058095277510595619 -0.036517986782931881 0 -0.0081000224517206176 -0.054422050624895073 0 0.01205219038001208 -0.033917814973801461 0 -0.0081000224517206176 -0.054422050624895073 0 -0.0050141511229591469 -0.083295860522754159 0 0.005219015958159736 -0.06731093962953405 0 -0.0081000224517206176 -0.054422050624895073 0 -0.0050141511229591469 -0.083295860522754159 0 -0.028252235283452609 -0.074926286275989393 0 -0.0050141511229591469 -0.083295860522754159 0 -0.028252235283452609 -0.074926286275989393 0 -0.022548101037742779 -0.10060944902204889 0 -0.0081000224517206176 -0.054422050624895073 0 -0.028252235283452609 -0.074926286275989393 0 -0.041750604227142288 -0.055286851311442897 0 -0.028252235283452609 -0.074926286275989393 0 -0.056808105102391933 -0.066452464930766619 0 -0.028252235283452609 -0.074926286275989393 0 -0.048404448115184587 -0.09543052192708372 0 -0.028252235283452609 -0.074926286275989393 0 -0.056808105102391933 -0.066452464930766619 0 -0.048404448115184587 -0.09543052192708372 0 -0.028252235283452609 -0.074926286275989393 0 -0.048404448115184587 -0.09543052192708372 0 -0.022548101037742779 -0.10060944902204889 0 -0.072821709270830481 -0.078055569479704975 0 -0.056808105102391933 -0.066452464930766619 0 -0.048404448115184587 -0.09543052192708372 0 -0.054135194547901618 -0.1182635998006281 0 -0.048404448115184587 -0.09543052192708372 0 -0.04204608249371998 -0.1182596563514333 0 -0.068556660946916481 -0.11593475757817789 0 -0.054135194547901618 -0.1182635998006281 0 -0.048404448115184587 -0.09543052192708372 0 -0.054135194547901618 -0.1182635998006281 0 -0.04204608249371998 -0.1182596563514333 0 -0.049328208713744458 -0.1308894517020493 0 -0.068556660946916481 -0.11593475757817789 0 -0.054135194547901618 -0.1182635998006281 0 -0.062340572469942623 -0.1308036114443962 0 -0.070031712306141428 -0.095410001667352071 0 -0.068556660946916481 -0.11593475757817789 0 -0.048404448115184587 -0.09543052192708372 0 -0.068556660946916481 -0.11593475757817789 0 -0.048404448115184587 -0.09543052192708372 0 -0.048404448115184587 -0.09543052192708372 0 -0.04204608249371998 -0.1182596563514333 0 -0.022548101037742779 -0.10060944902204889 0 -0.0050141511229591469 -0.083295860522754159 0 -0.022548101037742779 -0.10060944902204889 0 0.0052588520052682464 -0.11514370574485849 0 -0.04204608249371998 -0.1182596563514333 0 -0.018587611551378631 -0.1174213722323726 0 -0.022548101037742779 -0.10060944902204889 0 -0.04204608249371998 -0.1182596563514333 0 -0.018587611551378631 -0.1174213722323726 0 -0.030630219449267471 -0.12664483948290001 0 -0.01829416010236987 -0.133605792362194 0 0.0052588520052682464 -0.11514370574485849 0 -0.018587611551378631 -0.1174213722323726 0 -0.022548101037742779 -0.10060944902204889 0 0.0052588520052682464 -0.11514370574485849 0 -0.018587611551378631 -0.1174213722323726 0 -0.01829416010236987 -0.133605792362194 0 0.0052588520052682464 -0.11514370574485849 0 -0.01829416010236987 -0.133605792362194 0 -0.003004005103060921 -0.15307056508902001 0 0.013646756960559409 -0.13380361011871339 0 -0.030630219449267471 -0.12664483948290001 0 -0.01829416010236987 -0.133605792362194 0 -0.041946627351864323 -0.13516376766548119 0 -0.018587611551378631 -0.1174213722323726 0 -0.030630219449267471 -0.12664483948290001 0 -0.01829416010236987 -0.133605792362194 0 -0.01829416010236987 -0.133605792362194 0 -0.02176639311578615 -0.1534462776731699 0 -0.041847172210008207 -0.1520678789795292 0 -0.01829416010236987 -0.133605792362194 0 -0.041847172210008207 -0.1520678789795292 0 -0.01829416010236987 -0.133605792362194 0 -0.02176639311578615 -0.1534462776731699 0 -0.003004005103060921 -0.15307056508902001 0 -0.02176639311578615 -0.1534462776731699 0 -0.003004005103060921 -0.15307056508902001 0 -0.0087818727483572646 -0.16854142425400009 0 -0.003004005103060921 -0.15307056508902001 0 -0.0087818727483572646 -0.16854142425400009 0 0.0073780211962345722 -0.1675384859478232 0 -0.0087818727483572646 -0.16854142425400009 0 -0.016419731306044179 -0.1835447213679208 0 0.0088310485035662332 -0.18499497339519749 0 -0.016419731306044179 -0.1835447213679208 0 0.0088310485035662332 -0.18499497339519749 0 -0.016419731306044179 -0.1835447213679208 0 -0.027613855814335789 -0.16714621076362121 0 -0.041670511115654667 -0.18209446934064419 0 -0.016419731306044179 -0.1835447213679208 0 -0.041670511115654667 -0.18209446934064419 0 -0.0087818727483572646 -0.16854142425400009 0 -0.016419731306044179 -0.1835447213679208 0 -0.027613855814335789 -0.16714621076362121 0 -0.016419731306044179 -0.1835447213679208 0 -0.041670511115654667 -0.18209446934064419 0 -0.029057726070055689 -0.19008395067250999 0 -0.02176639311578615 -0.1534462776731699 0 -0.0087818727483572646 -0.16854142425400009 0 -0.027613855814335789 -0.16714621076362121 0 -0.02176639311578615 -0.1534462776731699 0 -0.027613855814335789 -0.16714621076362121 0 -0.041847172210008207 -0.1520678789795292 0 -0.041670511115654667 -0.18209446934064419 0 -0.041847172210008207 -0.1520678789795292 0 -0.027613855814335789 -0.16714621076362121 0 -0.041670511115654667 -0.18209446934064419 0 -0.041847172210008207 -0.1520678789795292 0 -0.041670511115654667 -0.18209446934064419 0 -0.048431864628172762 -0.17255338457135219 0 -0.041847172210008207 -0.1520678789795292 0 -0.041670511115654667 -0.18209446934064419 0 -0.043794810287711809 -0.18197246244802351 0 -0.048431864628172762 -0.17255338457135219 0 -0.041670511115654667 -0.18209446934064419 0 -0.043794810287711809 -0.18197246244802351 0 -0.041670511115654667 -0.18209446934064419 0 -0.043794810287711809 -0.18197246244802351 0 -0.046486753295292269 -0.18776035817056361 0 -0.043794810287711809 -0.18197246244802351 0 -0.051814567160495227 -0.18491648200889449 0 -0.050285156331716097 -0.1792626494424415 0 -0.043794810287711809 -0.18197246244802351 0 -0.051814567160495227 -0.18491648200889449 0 -0.046486753295292269 -0.18776035817056361 0 -0.051814567160495227 -0.18491648200889449 0 -0.050285156331716097 -0.1792626494424415 0 -0.057099383250484623 -0.17760826874149591 0 -0.043794810287711809 -0.18197246244802351 0 -0.048431864628172762 -0.17255338457135219 0 -0.050285156331716097 -0.1792626494424415 0 -0.048431864628172762 -0.17255338457135219 0 -0.050285156331716097 -0.1792626494424415 0 -0.057099383250484623 -0.17760826874149591 0 -0.057099383250484623 -0.17760826874149591 0 -0.05665595973232522 -0.16367578359424639 0 -0.071464747254640193 -0.17528368820896609 0 -0.051814567160495227 -0.18491648200889449 0 -0.057099383250484623 -0.17760826874149591 0 -0.062811978210651931 -0.19069832870338349 0 -0.048431864628172762 -0.17255338457135219 0 -0.05665595973232522 -0.16367578359424639 0 -0.041847172210008207 -0.1520678789795292 0 -0.05665595973232522 -0.16367578359424639 0 -0.041847172210008207 -0.1520678789795292 0 -0.048431864628172762 -0.17255338457135219 0 -0.057099383250484623 -0.17760826874149591 0 -0.05665595973232522 -0.16367578359424639 0 -0.050944812305286941 -0.14511839464796281 0 -0.049328208713744458 -0.1308894517020493 0 -0.063616224475081307 -0.1473506911416953 0 -0.05665595973232522 -0.16367578359424639 0 -0.050944812305286941 -0.14511839464796281 0 -0.041847172210008207 -0.1520678789795292 0 -0.05665595973232522 -0.16367578359424639 0 -0.050944812305286941 -0.14511839464796281 0 -0.063616224475081307 -0.1473506911416953 0 -0.049328208713744458 -0.1308894517020493 0 -0.063616224475081307 -0.1473506911416953 0 -0.062340572469942623 -0.1308036114443962 0 -0.049328208713744458 -0.1308894517020493 0 -0.063616224475081307 -0.1473506911416953 0 -0.054135194547901618 -0.1182635998006281 0 -0.062340572469942623 -0.1308036114443962 0 -0.049328208713744458 -0.1308894517020493 0 -0.050944812305286941 -0.14511839464796281 0 -0.049328208713744458 -0.1308894517020493 0 -0.041946627351864323 -0.13516376766548119 0 -0.04204608249371998 -0.1182596563514333 0 -0.041946627351864323 -0.13516376766548119 0 -0.04204608249371998 -0.1182596563514333 0 -0.030630219449267471 -0.12664483948290001 0 -0.041946627351864323 -0.13516376766548119 0 -0.01829416010236987 -0.133605792362194 0 -0.041946627351864323 -0.13516376766548119 0 -0.041847172210008207 -0.1520678789795292 0 -0.04204608249371998 -0.1182596563514333 0 -0.049328208713744458 -0.1308894517020493 0 -0.041946627351864323 -0.13516376766548119 0 -0.041946627351864323 -0.13516376766548119 0 -0.041847172210008207 -0.1520678789795292 0 -0.050944812305286941 -0.14511839464796281 0 -0.041946627351864323 -0.13516376766548119 0 -0.041847172210008207 -0.1520678789795292 0 -0.021454324615046299 -0.25265378220898571 0 -0.024894022619631469 -0.22844774455289779 0 -0.021454324615046299 -0.25265378220898571 0 -0.02982894127401315 -0.24869091922283099 0 -0.024894022619631469 -0.22844774455289779 0 -0.021454324615046299 -0.25265378220898571 0 -0.015064710171831169 -0.23939840190699549 0 -0.024894022619631469 -0.22844774455289779 0 -0.02982894127401315 -0.24869091922283099 0 -0.024894022619631469 -0.22844774455289779 0 -0.03865392236174741 -0.2428150274564457 0 -0.021454324615046299 -0.25265378220898571 0 -0.01436331776458151 -0.2491202803804608 0 -0.015064710171831169 -0.23939840190699549 0 -0.0077596479798487331 -0.24704556683880691 0 -0.015064710171831169 -0.23939840190699549 0 -0.00358740078059251 -0.2301895122442239 0 -0.0077596479798487331 -0.24704556683880691 0 -0.00358740078059251 -0.2301895122442239 0 0.0059536600781536506 -0.25117039767460608 0 -0.01436331776458151 -0.2491202803804608 0 -0.0077596479798487331 -0.24704556683880691 0 -0.015064710171831169 -0.23939840190699549 0 -0.00358740078059251 -0.2301895122442239 0 -0.011399690766964839 -0.22117276912317491 0 -0.01239309956989133 -0.21082569514171151 0 -0.01288780847080284 -0.23035483981054389 0 -0.00358740078059251 -0.2301895122442239 0 -0.011399690766964839 -0.22117276912317491 0 -0.00358740078059251 -0.2301895122442239 0 -0.01239309956989133 -0.21082569514171151 0 0.0035297938300472001 -0.21986774507615159 0 -0.015064710171831169 -0.23939840190699549 0 -0.01288780847080284 -0.23035483981054389 0 -0.00358740078059251 -0.2301895122442239 0 -0.00358740078059251 -0.2301895122442239 0 -0.01239309956989133 -0.21082569514171151 0 -0.00358740078059251 -0.2301895122442239 0 -0.011399690766964839 -0.22117276912317491 0 -0.011399690766964839 -0.22117276912317491 0 -0.024894022619631469 -0.22844774455289779 0 -0.01952648859698981 -0.2099329676878649 0 -0.01288780847080284 -0.23035483981054389 0 -0.011399690766964839 -0.22117276912317491 0 -0.024894022619631469 -0.22844774455289779 0 -0.015064710171831169 -0.23939840190699549 0 -0.01288780847080284 -0.23035483981054389 0 -0.024894022619631469 -0.22844774455289779 0 -0.024894022619631469 -0.22844774455289779 0 -0.02833372062421663 -0.20424170689680979 0 -0.01952648859698981 -0.2099329676878649 0 -0.024894022619631469 -0.22844774455289779 0 -0.02833372062421663 -0.20424170689680979 0 -0.037940866292772123 -0.21051188677683011 0 -0.024894022619631469 -0.22844774455289779 0 -0.02833372062421663 -0.20424170689680979 0 -0.02833372062421663 -0.20424170689680979 0 -0.01952648859698981 -0.2099329676878649 0 -0.024847872510306349 -0.19623275656589639 0 -0.01952648859698981 -0.2099329676878649 0 -0.01239309956989133 -0.21082569514171151 0 -0.01529052549092823 -0.1986771338466988 0 -0.011399690766964839 -0.22117276912317491 0 -0.01952648859698981 -0.2099329676878649 0 -0.01239309956989133 -0.21082569514171151 0 -0.0015516111982930129 -0.21027501658404171 0 -0.01239309956989133 -0.21082569514171151 0 0.0035297938300472001 -0.21986774507615159 0 -0.0015516111982930129 -0.21027501658404171 0 -0.01239309956989133 -0.21082569514171151 0 -0.001394300706792132 -0.19959582481195021 0 -0.016419731306044179 -0.1835447213679208 0 -0.001394300706792132 -0.19959582481195021 0 0.0088310485035662332 -0.18499497339519749 0 -0.016419731306044179 -0.1835447213679208 0 -0.01529052549092823 -0.1986771338466988 0 -0.001394300706792132 -0.19959582481195021 0 -0.01239309956989133 -0.21082569514171151 0 -0.01529052549092823 -0.1986771338466988 0 -0.001394300706792132 -0.19959582481195021 0 -0.016419731306044179 -0.1835447213679208 0 -0.01529052549092823 -0.1986771338466988 0 -0.024847872510306349 -0.19623275656589639 0 -0.01952648859698981 -0.2099329676878649 0 -0.01529052549092823 -0.1986771338466988 0 -0.024847872510306349 -0.19623275656589639 0 -0.02833372062421663 -0.20424170689680979 0 -0.024847872510306349 -0.19623275656589639 0 -0.033292789348217583 -0.1984638554155787 0 -0.024847872510306349 -0.19623275656589639 0 -0.029057726070055689 -0.19008395067250999 0 -0.033292789348217583 -0.1984638554155787 0 -0.016419731306044179 -0.1835447213679208 0 -0.024847872510306349 -0.19623275656589639 0 -0.029057726070055689 -0.19008395067250999 0 -0.041670511115654667 -0.18209446934064419 0 -0.041552899962541759 -0.20208450692858149 0 -0.046486753295292269 -0.18776035817056361 0 -0.041670511115654667 -0.18209446934064419 0 -0.033292789348217583 -0.1984638554155787 0 -0.041552899962541759 -0.20208450692858149 0 -0.041670511115654667 -0.18209446934064419 0 -0.029057726070055689 -0.19008395067250999 0 -0.033292789348217583 -0.1984638554155787 0 -0.041670511115654667 -0.18209446934064419 0 -0.041552899962541759 -0.20208450692858149 0 -0.041552899962541759 -0.20208450692858149 0 -0.046486753295292269 -0.18776035817056361 0 -0.05080128034278316 -0.1945814553481594 0 -0.051814567160495227 -0.18491648200889449 0 -0.046486753295292269 -0.18776035817056361 0 -0.05080128034278316 -0.1945814553481594 0 -0.051814567160495227 -0.18491648200889449 0 -0.05080128034278316 -0.1945814553481594 0 -0.062811978210651931 -0.19069832870338349 0 -0.054159209166664168 -0.20611296919780109 0 -0.065227717149535278 -0.2021905259475599 0 -0.062811978210651931 -0.19069832870338349 0 -0.054159209166664168 -0.20611296919780109 0 -0.062811978210651931 -0.19069832870338349 0 -0.05080128034278316 -0.1945814553481594 0 -0.054159209166664168 -0.20611296919780109 0 -0.062811978210651931 -0.19069832870338349 0 -0.041552899962541759 -0.20208450692858149 0 -0.05080128034278316 -0.1945814553481594 0 -0.049092623122322487 -0.2013293668103612 0 -0.05080128034278316 -0.1945814553481594 0 -0.049092623122322487 -0.2013293668103612 0 -0.054159209166664168 -0.20611296919780109 0 -0.041552899962541759 -0.20208450692858149 0 -0.049092623122322487 -0.2013293668103612 0 -0.050583566010974697 -0.2127709265230571 0 -0.049092623122322487 -0.2013293668103612 0 -0.054159209166664168 -0.20611296919780109 0 -0.050583566010974697 -0.2127709265230571 0 -0.050583566010974697 -0.2127709265230571 0 -0.067874342673731852 -0.22707799763053549 0 -0.064051976659797616 -0.21310140631831889 0 -0.054159209166664168 -0.20611296919780109 0 -0.050583566010974697 -0.2127709265230571 0 -0.064051976659797616 -0.21310140631831889 0 -0.054159209166664168 -0.20611296919780109 0 -0.064051976659797616 -0.21310140631831889 0 -0.065227717149535278 -0.2021905259475599 0 -0.033292789348217583 -0.1984638554155787 0 -0.041552899962541759 -0.20208450692858149 0 -0.050583566010974697 -0.2127709265230571 0 -0.033292789348217583 -0.1984638554155787 0 -0.050583566010974697 -0.2127709265230571 0 -0.033292789348217583 -0.1984638554155787 0 -0.050583566010974697 -0.2127709265230571 0 -0.037940866292772123 -0.21051188677683011 0 -0.050583566010974697 -0.2127709265230571 0 -0.037940866292772123 -0.21051188677683011 0 -0.04104241036220288 -0.22491181879965849 0 -0.02833372062421663 -0.20424170689680979 0 -0.033292789348217583 -0.1984638554155787 0 -0.037940866292772123 -0.21051188677683011 0 -0.024894022619631469 -0.22844774455289779 0 -0.037940866292772123 -0.21051188677683011 0 -0.04104241036220288 -0.22491181879965849 0 -0.024894022619631469 -0.22844774455289779 0 -0.04104241036220288 -0.22491181879965849 0 -0.03865392236174741 -0.2428150274564457 0 -0.050583566010974697 -0.2127709265230571 0 -0.04104241036220288 -0.22491181879965849 0 -0.053111628645536049 -0.22521845613039701 0 -0.050583566010974697 -0.2127709265230571 0 -0.053111628645536049 -0.22521845613039701 0 -0.067874342673731852 -0.22707799763053549 0 -0.050583566010974697 -0.2127709265230571 0 -0.067874342673731852 -0.22707799763053549 0 -0.053111628645536049 -0.22521845613039701 0 -0.052946195535234782 -0.2361130815683368 0 -0.067874342673731852 -0.22707799763053549 0 -0.04104241036220288 -0.22491181879965849 0 -0.053111628645536049 -0.22521845613039701 0 -0.052946195535234782 -0.2361130815683368 0 -0.06284949686432259 -0.25801573334750111 0 -0.052946195535234782 -0.2361130815683368 0 -0.067874342673731852 -0.22707799763053549 0 -0.06284949686432259 -0.25801573334750111 0 -0.052946195535234782 -0.2361130815683368 0 -0.049183695989257412 -0.24870926544763969 0 -0.052946195535234782 -0.2361130815683368 0 -0.049183695989257412 -0.24870926544763969 0 -0.03865392236174741 -0.2428150274564457 0 -0.04104241036220288 -0.22491181879965849 0 -0.052946195535234782 -0.2361130815683368 0 -0.03865392236174741 -0.2428150274564457 0 -0.042285169195724857 -0.25789321941827531 0 -0.049183695989257412 -0.24870926544763969 0 -0.03865392236174741 -0.2428150274564457 0 -0.033577981947453352 -0.25575186785835669 0 -0.02982894127401315 -0.24869091922283099 0 -0.03865392236174741 -0.2428150274564457 0 -0.085165119336488848 -0.24138506873801399 0 -0.1017041624078983 -0.22905938619765481 0 -0.06284949686432259 -0.25801573334750111 0 -0.085165119336488848 -0.24138506873801399 0 -0.067874342673731852 -0.22707799763053549 0 -0.06284949686432259 -0.25801573334750111 0 -0.085165119336488848 -0.24138506873801399 0 -0.085165119336488848 -0.24138506873801399 0 -0.067874342673731852 -0.22707799763053549 0 -0.067874342673731852 -0.22707799763053549 0 -0.085394308166058391 -0.2244334205599976 0 -0.078954052117338747 -0.21347607951975711 0 -0.085165119336488848 -0.24138506873801399 0 -0.067874342673731852 -0.22707799763053549 0 -0.085394308166058391 -0.2244334205599976 0 -0.085165119336488848 -0.24138506873801399 0 -0.085394308166058391 -0.2244334205599976 0 -0.1017041624078983 -0.22905938619765481 0 -0.085394308166058391 -0.2244334205599976 0 -0.089871369411114593 -0.20940875034851009 0 -0.1014081977789294 -0.21490095288573971 0 -0.089871369411114593 -0.20940875034851009 0 -0.078954052117338747 -0.21347607951975711 0 -0.08207128774273012 -0.19875670546290169 0 -0.085394308166058391 -0.2244334205599976 0 -0.089871369411114593 -0.20940875034851009 0 -0.078954052117338747 -0.21347607951975711 0 -0.067874342673731852 -0.22707799763053549 0 -0.078954052117338747 -0.21347607951975711 0 -0.064051976659797616 -0.21310140631831889 0 -0.064051976659797616 -0.21310140631831889 0 -0.072583069951956208 -0.20532115914628249 0 -0.065227717149535278 -0.2021905259475599 0 -0.078954052117338747 -0.21347607951975711 0 -0.064051976659797616 -0.21310140631831889 0 -0.072583069951956208 -0.20532115914628249 0 -0.078954052117338747 -0.21347607951975711 0 -0.072583069951956208 -0.20532115914628249 0 -0.08207128774273012 -0.19875670546290169 0 -0.072583069951956208 -0.20532115914628249 0 -0.071433297398704979 -0.1964677403249534 0 -0.08207128774273012 -0.19875670546290169 0 -0.072583069951956208 -0.20532115914628249 0 -0.071433297398704979 -0.1964677403249534 0 -0.065227717149535278 -0.2021905259475599 0 -0.071433297398704979 -0.1964677403249534 0 -0.065227717149535278 -0.2021905259475599 0 -0.062811978210651931 -0.19069832870338349 0 -0.071433297398704979 -0.1964677403249534 0 -0.062811978210651931 -0.19069832870338349 0 -0.074553684816232133 -0.1894179382027712 0 -0.071433297398704979 -0.1964677403249534 0 -0.074553684816232133 -0.1894179382027712 0 -0.08207128774273012 -0.19875670546290169 0 -0.074553684816232133 -0.1894179382027712 0 -0.08207128774273012 -0.19875670546290169 0 -0.084987113474433468 -0.18588322831365131 0 -0.089871369411114593 -0.20940875034851009 0 -0.08207128774273012 -0.19875670546290169 0 -0.095299848696860229 -0.20049919583702561 0 -0.095299848696860229 -0.20049919583702561 0 -0.084987113474433468 -0.18588322831365131 0 -0.097121788003457332 -0.18595248953089741 0 -0.08207128774273012 -0.19875670546290169 0 -0.095299848696860229 -0.20049919583702561 0 -0.084987113474433468 -0.18588322831365131 0 -0.095299848696860229 -0.20049919583702561 0 -0.1163393357704966 -0.2080930484804536 0 -0.097121788003457332 -0.18595248953089741 0 -0.1144373614517798 -0.18985880945486511 0 -0.1163393357704966 -0.2080930484804536 0 -0.097121788003457332 -0.18595248953089741 0 -0.1163393357704966 -0.2080930484804536 0 -0.097121788003457332 -0.18595248953089741 0 -0.1144373614517798 -0.18985880945486511 0 -0.1163393357704966 -0.2080930484804536 0 -0.125616167760744 -0.19568953416503379 0 -0.1144373614517798 -0.18985880945486511 0 -0.12692217334342229 -0.18330595568756 0 -0.125616167760744 -0.19568953416503379 0 -0.1163393357704966 -0.2080930484804536 0 -0.1132044019751519 -0.21930441839636869 0 -0.1292385514051517 -0.21026284565710451 0 -0.1163393357704966 -0.2080930484804536 0 -0.1292385514051517 -0.21026284565710451 0 -0.125616167760744 -0.19568953416503379 0 -0.1163393357704966 -0.2080930484804536 0 -0.1014081977789294 -0.21490095288573971 0 -0.1132044019751519 -0.21930441839636869 0 -0.095299848696860229 -0.20049919583702561 0 -0.1163393357704966 -0.2080930484804536 0 -0.1014081977789294 -0.21490095288573971 0 -0.089871369411114593 -0.20940875034851009 0 -0.095299848696860229 -0.20049919583702561 0 -0.1014081977789294 -0.21490095288573971 0 -0.085394308166058391 -0.2244334205599976 0 -0.1014081977789294 -0.21490095288573971 0 -0.1017041624078983 -0.22905938619765481 0 -0.1014081977789294 -0.21490095288573971 0 -0.1017041624078983 -0.22905938619765481 0 -0.1132044019751519 -0.21930441839636869 0 -0.1132044019751519 -0.21930441839636869 0 -0.11733176251328339 -0.23420585876089109 0 -0.1292385514051517 -0.21026284565710451 0 -0.11733176251328339 -0.23420585876089109 0 -0.1292385514051517 -0.21026284565710451 0 -0.1017041624078983 -0.22905938619765481 0 -0.1132044019751519 -0.21930441839636869 0 -0.11733176251328339 -0.23420585876089109 0 -0.12188719209648199 -0.25173808517605212 0 -0.11733176251328339 -0.23420585876089109 0 -0.12943694345744891 -0.2382098834381938 0 -0.1054249736214137 -0.25814887186467689 0 -0.11733176251328339 -0.23420585876089109 0 -0.1054249736214137 -0.25814887186467689 0 -0.12188719209648199 -0.25173808517605212 0 -0.11733176251328339 -0.23420585876089109 0 -0.1017041624078983 -0.22905938619765481 0 -0.11733176251328339 -0.23420585876089109 0 -0.10240650446977111 -0.2406997963903092 0 -0.085165119336488848 -0.24138506873801399 0 -0.1017041624078983 -0.22905938619765481 0 -0.10240650446977111 -0.2406997963903092 0 -0.1054249736214137 -0.25814887186467689 0 -0.085165119336488848 -0.24138506873801399 0 -0.1054249736214137 -0.25814887186467689 0 -0.11733176251328339 -0.23420585876089109 0 -0.10240650446977111 -0.2406997963903092 0 -0.1054249736214137 -0.25814887186467689 0 -0.085165119336488848 -0.24138506873801399 0 -0.10240650446977111 -0.2406997963903092 0 -0.086423980605541323 -0.14863427655773581 0 -0.074738958167353139 -0.14090508542259661 0 -0.077904240236418162 -0.1638119305813413 0 -0.086423980605541323 -0.14863427655773581 0 -0.098729098636680584 -0.15810270763448619 0 -0.094943720974663998 -0.1334566225341299 0 -0.086423980605541323 -0.14863427655773581 0 -0.088708873778648403 -0.13643899322927219 0 -0.074738958167353139 -0.14090508542259661 0 -0.086423980605541323 -0.14863427655773581 0 -0.077904240236418162 -0.1638119305813413 0 -0.086423980605541323 -0.14863427655773581 0 -0.094943720974663998 -0.1334566225341299 0 -0.086423980605541323 -0.14863427655773581 0 -0.088708873778648403 -0.13643899322927219 0 -0.094943720974663998 -0.1334566225341299 0 -0.068556660946916481 -0.11593475757817789 0 -0.084464042263549005 -0.12306502599089519 0 -0.088708873778648403 -0.13643899322927219 0 -0.068556660946916481 -0.11593475757817789 0 -0.088708873778648403 -0.13643899322927219 0 -0.088708873778648403 -0.13643899322927219 0 -0.089176009727263056 -0.12940720270261721 0 -0.094943720974663998 -0.1334566225341299 0 -0.084464042263549005 -0.12306502599089519 0 -0.088708873778648403 -0.13643899322927219 0 -0.089176009727263056 -0.12940720270261721 0 -0.068556660946916481 -0.11593475757817789 0 -0.088708873778648403 -0.13643899322927219 0 -0.074738958167353139 -0.14090508542259661 0 -0.062340572469942623 -0.1308036114443962 0 -0.063616224475081307 -0.1473506911416953 0 -0.074738958167353139 -0.14090508542259661 0 -0.068556660946916481 -0.11593475757817789 0 -0.062340572469942623 -0.1308036114443962 0 -0.074738958167353139 -0.14090508542259661 0 -0.063616224475081307 -0.1473506911416953 0 -0.077904240236418162 -0.1638119305813413 0 -0.063616224475081307 -0.1473506911416953 0 -0.074738958167353139 -0.14090508542259661 0 -0.077904240236418162 -0.1638119305813413 0 -0.05665595973232522 -0.16367578359424639 0 -0.063616224475081307 -0.1473506911416953 0 -0.077904240236418162 -0.1638119305813413 0 -0.05665595973232522 -0.16367578359424639 0 -0.077904240236418162 -0.1638119305813413 0 -0.071464747254640193 -0.17528368820896609 0 -0.05665595973232522 -0.16367578359424639 0 -0.071464747254640193 -0.17528368820896609 0 -0.077904240236418162 -0.1638119305813413 0 -0.071464747254640193 -0.17528368820896609 0 -0.077904240236418162 -0.1638119305813413 0 -0.071464747254640193 -0.17528368820896609 0 -0.084987113474433468 -0.18588322831365131 0 -0.062811978210651931 -0.19069832870338349 0 -0.074553684816232133 -0.1894179382027712 0 -0.071464747254640193 -0.17528368820896609 0 -0.057099383250484623 -0.17760826874149591 0 -0.062811978210651931 -0.19069832870338349 0 -0.071464747254640193 -0.17528368820896609 0 -0.062811978210651931 -0.19069832870338349 0 -0.071464747254640193 -0.17528368820896609 0 -0.074553684816232133 -0.1894179382027712 0 -0.071464747254640193 -0.17528368820896609 0 -0.084987113474433468 -0.18588322831365131 0 -0.077904240236418162 -0.1638119305813413 0 -0.084987113474433468 -0.18588322831365131 0 -0.097121788003457332 -0.18595248953089741 0 -0.077904240236418162 -0.1638119305813413 0 -0.097121788003457332 -0.18595248953089741 0 -0.071464747254640193 -0.17528368820896609 0 -0.084987113474433468 -0.18588322831365131 0 -0.086423980605541323 -0.14863427655773581 0 -0.092709429942607335 -0.16563072873935331 0 -0.098729098636680584 -0.15810270763448619 0 -0.077904240236418162 -0.1638119305813413 0 -0.092709429942607335 -0.16563072873935331 0 -0.097121788003457332 -0.18595248953089741 0 -0.086423980605541323 -0.14863427655773581 0 -0.077904240236418162 -0.1638119305813413 0 -0.092709429942607335 -0.16563072873935331 0 -0.092709429942607335 -0.16563072873935331 0 -0.098729098636680584 -0.15810270763448619 0 -0.10336804223093921 -0.17165223939230559 0 -0.098729098636680584 -0.15810270763448619 0 -0.10336804223093921 -0.17165223939230559 0 -0.1121251351218597 -0.16057877708966209 0 -0.1144373614517798 -0.18985880945486511 0 -0.097121788003457332 -0.18595248953089741 0 -0.1080750021019191 -0.18024753224839821 0 -0.092709429942607335 -0.16563072873935331 0 -0.10336804223093921 -0.17165223939230559 0 -0.097121788003457332 -0.18595248953089741 0 -0.10336804223093921 -0.17165223939230559 0 -0.097121788003457332 -0.18595248953089741 0 -0.1080750021019191 -0.18024753224839821 0 -0.1144373614517798 -0.18985880945486511 0 -0.1173728167215001 -0.17352659061552489 0 -0.12692217334342229 -0.18330595568756 0 -0.1144373614517798 -0.18985880945486511 0 -0.1080750021019191 -0.18024753224839821 0 -0.1173728167215001 -0.17352659061552489 0 -0.10336804223093921 -0.17165223939230559 0 -0.1080750021019191 -0.18024753224839821 0 -0.1173728167215001 -0.17352659061552489 0 -0.1173728167215001 -0.17352659061552489 0 -0.1121251351218597 -0.16057877708966209 0 -0.1276652639286017 -0.15314056090581071 0 -0.10336804223093921 -0.17165223939230559 0 -0.1173728167215001 -0.17352659061552489 0 -0.1121251351218597 -0.16057877708966209 0 -0.1121251351218597 -0.16057877708966209 0 -0.1134904540915767 -0.14647178690018281 0 -0.1276652639286017 -0.15314056090581071 0 -0.1134904540915767 -0.14647178690018281 0 -0.12810039171792351 -0.1381820194021916 0 -0.1276652639286017 -0.15314056090581071 0 -0.098729098636680584 -0.15810270763448619 0 -0.094943720974663998 -0.1334566225341299 0 -0.098729098636680584 -0.15810270763448619 0 -0.1134904540915767 -0.14647178690018281 0 -0.1039095713645929 -0.14069513014476509 0 -0.098729098636680584 -0.15810270763448619 0 -0.1121251351218597 -0.16057877708966209 0 -0.1134904540915767 -0.14647178690018281 0 -0.098729098636680584 -0.15810270763448619 0 -0.1039095713645929 -0.14069513014476509 0 -0.094943720974663998 -0.1334566225341299 0 -0.1134904540915767 -0.14647178690018281 0 -0.1039095713645929 -0.14069513014476509 0 -0.109688505133342 -0.13496071197884069 0 -0.10119645699692829 -0.1223175666550574 0 -0.094943720974663998 -0.1334566225341299 0 -0.1035218324600535 -0.13105815895492701 0 -0.10119645699692829 -0.1223175666550574 0 -0.094943720974663998 -0.1334566225341299 0 -0.1039095713645929 -0.14069513014476509 0 -0.094943720974663998 -0.1334566225341299 0 -0.1035218324600535 -0.13105815895492701 0 -0.1039095713645929 -0.14069513014476509 0 -0.1035218324600535 -0.13105815895492701 0 -0.109688505133342 -0.13496071197884069 0 -0.10119645699692829 -0.1223175666550574 0 -0.1035218324600535 -0.13105815895492701 0 -0.1095224167774448 -0.12500943801932349 0 -0.1035218324600535 -0.13105815895492701 0 -0.1095224167774448 -0.12500943801932349 0 -0.109688505133342 -0.13496071197884069 0 -0.12141654953633819 -0.1237391550570868 0 -0.109688505133342 -0.13496071197884069 0 -0.12141654953633819 -0.1237391550570868 0 -0.109688505133342 -0.13496071197884069 0 -0.1194459626417642 -0.13341909989819009 0 -0.12141654953633819 -0.1237391550570868 0 -0.1095224167774448 -0.12500943801932349 0 -0.109688505133342 -0.13496071197884069 0 -0.1134904540915767 -0.14647178690018281 0 -0.109688505133342 -0.13496071197884069 0 -0.1194459626417642 -0.13341909989819009 0 -0.1134904540915767 -0.14647178690018281 0 -0.1194459626417642 -0.13341909989819009 0 -0.12810039171792351 -0.1381820194021916 0 -0.12141654953633819 -0.1237391550570868 0 -0.1194459626417642 -0.13341909989819009 0 -0.12810039171792351 -0.1381820194021916 0 -0.12141654953633819 -0.1237391550570868 0 -0.12810039171792351 -0.1381820194021916 0 -0.13792893398550399 -0.12689720407348901 0 -0.13792893398550399 -0.12689720407348901 0 -0.14273658573667039 -0.14130117389566041 0 -0.12810039171792351 -0.1381820194021916 0 -0.13792893398550399 -0.12689720407348901 0 -0.14273658573667039 -0.14130117389566041 0 -0.13792893398550399 -0.12689720407348901 0 -0.1556554951839447 -0.1311526301485903 0 -0.14895852744663621 -0.1200008436472003 0 -0.13792893398550399 -0.12689720407348901 0 -0.1556554951839447 -0.1311526301485903 0 -0.14273658573667039 -0.14130117389566041 0 -0.1556554951839447 -0.1311526301485903 0 -0.14273658573667039 -0.14130117389566041 0 -0.14947131434196759 -0.13798900079866569 0 -0.1556554951839447 -0.1311526301485903 0 -0.14273658573667039 -0.14130117389566041 0 -0.14947131434196759 -0.13798900079866569 0 -0.1556554951839447 -0.1311526301485903 0 -0.15526574852488151 -0.1432743328084054 0 -0.14947131434196759 -0.13798900079866569 0 -0.1556554951839447 -0.1311526301485903 0 -0.14273658573667039 -0.14130117389566041 0 -0.1487590445303327 -0.1593447675686358 0 -0.1499325670146622 -0.14984185129887059 0 -0.15526574852488151 -0.1432743328084054 0 -0.1530521291888883 -0.16237681944953139 0 -0.1499325670146622 -0.14984185129887059 0 -0.14273658573667039 -0.14130117389566041 0 -0.1487590445303327 -0.1593447675686358 0 -0.14273658573667039 -0.14130117389566041 0 -0.13778282473437861 -0.1580318039991904 0 -0.1487590445303327 -0.1593447675686358 0 -0.14947131434196759 -0.13798900079866569 0 -0.15526574852488151 -0.1432743328084054 0 -0.14935155390454541 -0.1431015897004006 0 -0.1499325670146622 -0.14984185129887059 0 -0.15526574852488151 -0.1432743328084054 0 -0.14935155390454541 -0.1431015897004006 0 -0.1499325670146622 -0.14984185129887059 0 -0.14935155390454541 -0.1431015897004006 0 -0.14273658573667039 -0.14130117389566041 0 -0.14947131434196759 -0.13798900079866569 0 -0.14935155390454541 -0.1431015897004006 0 -0.14273658573667039 -0.14130117389566041 0 -0.14273658573667039 -0.14130117389566041 0 -0.1276652639286017 -0.15314056090581071 0 -0.13778282473437861 -0.1580318039991904 0 -0.14273658573667039 -0.14130117389566041 0 -0.1276652639286017 -0.15314056090581071 0 -0.12810039171792351 -0.1381820194021916 0 -0.14273658573667039 -0.14130117389566041 0 -0.1276652639286017 -0.15314056090581071 0 -0.1173728167215001 -0.17352659061552489 0 -0.1276652639286017 -0.15314056090581071 0 -0.13604841311399049 -0.16822055248809331 0 -0.1276652639286017 -0.15314056090581071 0 -0.13604841311399049 -0.16822055248809331 0 -0.13778282473437861 -0.1580318039991904 0 -0.13604841311399049 -0.16822055248809331 0 -0.12692217334342229 -0.18330595568756 0 -0.14114534029702 -0.18631983255331799 0 -0.1173728167215001 -0.17352659061552489 0 -0.13604841311399049 -0.16822055248809331 0 -0.12692217334342229 -0.18330595568756 0 -0.14114534029702 -0.18631983255331799 0 -0.15558587598285359 -0.18285153954162661 0 -0.1530521291888883 -0.16237681944953139 0 -0.14114534029702 -0.18631983255331799 0 -0.1530521291888883 -0.16237681944953139 0 -0.13604841311399049 -0.16822055248809331 0 -0.14114534029702 -0.18631983255331799 0 -0.1530521291888883 -0.16237681944953139 0 -0.13604841311399049 -0.16822055248809331 0 -0.1530521291888883 -0.16237681944953139 0 -0.1487590445303327 -0.1593447675686358 0 -0.13604841311399049 -0.16822055248809331 0 -0.13778282473437861 -0.1580318039991904 0 -0.1487590445303327 -0.1593447675686358 0 -0.1499325670146622 -0.14984185129887059 0 -0.1530521291888883 -0.16237681944953139 0 -0.1487590445303327 -0.1593447675686358 0 -0.1530521291888883 -0.16237681944953139 0 -0.16379894740405679 -0.16505767197723181 0 -0.16542363385881201 -0.155740248848418 0 -0.1530521291888883 -0.16237681944953139 0 -0.16379894740405679 -0.16505767197723181 0 -0.16099885823599139 -0.17315790403335321 0 -0.16379894740405679 -0.16505767197723181 0 -0.16945469784194431 -0.17155802981913029 0 -0.17033650162319899 -0.16303408389056989 0 -0.16379894740405679 -0.16505767197723181 0 -0.16945469784194431 -0.17155802981913029 0 -0.16099885823599139 -0.17315790403335321 0 -0.16379894740405679 -0.16505767197723181 0 -0.17033650162319899 -0.16303408389056989 0 -0.16542363385881201 -0.155740248848418 0 -0.17033650162319899 -0.16303408389056989 0 -0.17339685564902069 -0.1559811211946262 0 -0.16542363385881201 -0.155740248848418 0 -0.15558587598285359 -0.18285153954162661 0 -0.1530521291888883 -0.16237681944953139 0 -0.16099885823599139 -0.17315790403335321 0 -0.15558587598285359 -0.18285153954162661 0 -0.16099885823599139 -0.17315790403335321 0 -0.1672485217101248 -0.18431515325554801 0 -0.15558587598285359 -0.18285153954162661 0 -0.1672485217101248 -0.18431515325554801 0 -0.1564218345302085 -0.193473798964966 0 -0.16945469784194431 -0.17155802981913029 0 -0.16099885823599139 -0.17315790403335321 0 -0.1672485217101248 -0.18431515325554801 0 -0.16945469784194431 -0.17155802981913029 0 -0.1672485217101248 -0.18431515325554801 0 -0.17714650794943429 -0.17685786160158271 0 -0.17714650794943429 -0.17685786160158271 0 -0.1871054584935499 -0.18435863538771749 0 -0.18709483773467681 -0.16731657122483609 0 -0.1672485217101248 -0.18431515325554801 0 -0.17714650794943429 -0.17685786160158271 0 -0.17721849637283199 -0.19160804918714561 0 -0.16945469784194431 -0.17155802981913029 0 -0.17714650794943429 -0.17685786160158271 0 -0.1765213075047774 -0.16784965686767711 0 -0.17714650794943429 -0.17685786160158271 0 -0.1871054584935499 -0.18435863538771749 0 -0.17721849637283199 -0.19160804918714561 0 -0.17857399237463259 -0.16048173780226671 0 -0.18709483773467681 -0.16731657122483609 0 -0.18168968887337431 -0.1507635551999236 0 -0.17033650162319899 -0.16303408389056989 0 -0.17857399237463259 -0.16048173780226671 0 -0.1765213075047774 -0.16784965686767711 0 -0.17033650162319899 -0.16303408389056989 0 -0.17857399237463259 -0.16048173780226671 0 -0.17339685564902069 -0.1559811211946262 0 -0.16945469784194431 -0.17155802981913029 0 -0.17033650162319899 -0.16303408389056989 0 -0.1765213075047774 -0.16784965686767711 0 -0.17714650794943429 -0.17685786160158271 0 -0.1765213075047774 -0.16784965686767711 0 -0.18709483773467681 -0.16731657122483609 0 -0.17857399237463259 -0.16048173780226671 0 -0.1765213075047774 -0.16784965686767711 0 -0.18709483773467681 -0.16731657122483609 0 -0.18168968887337431 -0.1507635551999236 0 -0.17339685564902069 -0.1559811211946262 0 -0.17085029761347501 -0.14920763630223799 0 -0.17857399237463259 -0.16048173780226671 0 -0.18168968887337431 -0.1507635551999236 0 -0.17339685564902069 -0.1559811211946262 0 -0.18168968887337431 -0.1507635551999236 0 -0.1769640250806867 -0.14171888074599559 0 -0.17085029761347501 -0.14920763630223799 0 -0.18168968887337431 -0.1507635551999236 0 -0.1769640250806867 -0.14171888074599559 0 -0.1861979901748928 -0.1391528061598763 0 -0.1811232306609345 -0.13103659972219539 0 -0.16495891808075669 -0.13843380634574479 0 -0.17686570697262449 -0.11449079324195779 0 -0.1769640250806867 -0.14171888074599559 0 -0.1861979901748928 -0.1391528061598763 0 -0.1811232306609345 -0.13103659972219539 0 -0.1769640250806867 -0.14171888074599559 0 -0.1811232306609345 -0.13103659972219539 0 -0.16495891808075669 -0.13843380634574479 0 -0.1861979901748928 -0.1391528061598763 0 -0.1811232306609345 -0.13103659972219539 0 -0.18964552643372021 -0.13110313106701141 0 -0.1811232306609345 -0.13103659972219539 0 -0.18964552643372021 -0.13110313106701141 0 -0.18831766493431831 -0.12120209436824959 0 -0.16495891808075669 -0.13843380634574479 0 -0.17686570697262449 -0.11449079324195779 0 -0.1556554951839447 -0.1311526301485903 0 -0.16495891808075669 -0.13843380634574479 0 -0.17686570697262449 -0.11449079324195779 0 -0.1556554951839447 -0.1311526301485903 0 -0.15526574852488151 -0.1432743328084054 0 -0.16495891808075669 -0.13843380634574479 0 -0.1530521291888883 -0.16237681944953139 0 -0.16495891808075669 -0.13843380634574479 0 -0.1530521291888883 -0.16237681944953139 0 -0.16495891808075669 -0.13843380634574479 0 -0.16542363385881201 -0.155740248848418 0 -0.15526574852488151 -0.1432743328084054 0 -0.1530521291888883 -0.16237681944953139 0 -0.16495891808075669 -0.13843380634574479 0 -0.16495891808075669 -0.13843380634574479 0 -0.17085029761347501 -0.14920763630223799 0 -0.16542363385881201 -0.155740248848418 0 -0.17339685564902069 -0.1559811211946262 0 -0.17085029761347501 -0.14920763630223799 0 -0.16542363385881201 -0.155740248848418 0 -0.1769640250806867 -0.14171888074599559 0 -0.16495891808075669 -0.13843380634574479 0 -0.17085029761347501 -0.14920763630223799 0 -0.15610572008234541 -0.25019938304154432 0 -0.1363525451455552 -0.2497040600109908 0 -0.14250836895556099 -0.2311458781027535 0 -0.1363525451455552 -0.2497040600109908 0 -0.12943694345744891 -0.2382098834381938 0 -0.14250836895556099 -0.2311458781027535 0 -0.12188719209648199 -0.25173808517605212 0 -0.1363525451455552 -0.2497040600109908 0 -0.12943694345744891 -0.2382098834381938 0 -0.12943694345744891 -0.2382098834381938 0 -0.13191748939888071 -0.22623947285810661 0 -0.14250836895556099 -0.2311458781027535 0 -0.11733176251328339 -0.23420585876089109 0 -0.13191748939888071 -0.22623947285810661 0 -0.1292385514051517 -0.21026284565710451 0 -0.11733176251328339 -0.23420585876089109 0 -0.12943694345744891 -0.2382098834381938 0 -0.13191748939888071 -0.22623947285810661 0 -0.13191748939888071 -0.22623947285810661 0 -0.14250836895556099 -0.2311458781027535 0 -0.14053411800758309 -0.21791701718789061 0 -0.14250836895556099 -0.2311458781027535 0 -0.1523603188086797 -0.2102045447018524 0 -0.14053411800758309 -0.21791701718789061 0 -0.14250836895556099 -0.2311458781027535 0 -0.1523603188086797 -0.2102045447018524 0 -0.17156296093092349 -0.22579993632124609 0 -0.1523603188086797 -0.2102045447018524 0 -0.14053411800758309 -0.21791701718789061 0 -0.1292385514051517 -0.21026284565710451 0 -0.13191748939888071 -0.22623947285810661 0 -0.14053411800758309 -0.21791701718789061 0 -0.1292385514051517 -0.21026284565710451 0 -0.14114534029702 -0.18631983255331799 0 -0.1292385514051517 -0.21026284565710451 0 -0.14114534029702 -0.18631983255331799 0 -0.1292385514051517 -0.21026284565710451 0 -0.125616167760744 -0.19568953416503379 0 -0.12692217334342229 -0.18330595568756 0 -0.14114534029702 -0.18631983255331799 0 -0.125616167760744 -0.19568953416503379 0 -0.14114534029702 -0.18631983255331799 0 -0.1523603188086797 -0.2102045447018524 0 -0.1292385514051517 -0.21026284565710451 0 -0.14114534029702 -0.18631983255331799 0 -0.1523603188086797 -0.2102045447018524 0 -0.1564218345302085 -0.193473798964966 0 -0.14114534029702 -0.18631983255331799 0 -0.15558587598285359 -0.18285153954162661 0 -0.1564218345302085 -0.193473798964966 0 -0.1672485217101248 -0.18431515325554801 0 -0.16840891886941939 -0.2014341256995045 0 -0.1564218345302085 -0.193473798964966 0 -0.1672485217101248 -0.18431515325554801 0 -0.16840891886941939 -0.2014341256995045 0 -0.17721849637283199 -0.19160804918714561 0 -0.1523603188086797 -0.2102045447018524 0 -0.16840891886941939 -0.2014341256995045 0 -0.1564218345302085 -0.193473798964966 0 -0.16840891886941939 -0.2014341256995045 0 -0.1870202017795016 -0.20140048960094789 0 -0.17721849637283199 -0.19160804918714561 0 -0.1871054584935499 -0.18435863538771749 0 -0.1870202017795016 -0.20140048960094789 0 -0.17721849637283199 -0.19160804918714561 0 -0.1870202017795016 -0.20140048960094789 0 -0.17156296093092349 -0.22579993632124609 0 -0.16840891886941939 -0.2014341256995045 0 -0.1870202017795016 -0.20140048960094789 0 -0.17156296093092349 -0.22579993632124609 0 -0.1523603188086797 -0.2102045447018524 0 -0.16840891886941939 -0.2014341256995045 0 -0.17156296093092349 -0.22579993632124609 0 -0.17156296093092349 -0.22579993632124609 0 -0.18302313500755071 -0.2439899936431944 0 -0.197392808863455 -0.22983884614152539 0 -0.1870202017795016 -0.20140048960094789 0 -0.17156296093092349 -0.22579993632124609 0 -0.197392808863455 -0.22983884614152539 0 -0.15610572008234541 -0.25019938304154432 0 -0.14250836895556099 -0.2311458781027535 0 -0.17156296093092349 -0.22579993632124609 0 -0.15610572008234541 -0.25019938304154432 0 -0.17156296093092349 -0.22579993632124609 0 -0.15610572008234541 -0.25019938304154432 0 -0.17156296093092349 -0.22579993632124609 0 -0.18302313500755071 -0.2439899936431944 0 -0.22266583670016341 -0.25396182014965002 0 -0.2092579406982718 -0.24018852872777419 0 -0.21561688751901709 -0.22709031140191629 0 -0.22266583670016341 -0.25396182014965002 0 -0.2092579406982718 -0.24018852872777419 0 -0.201356229710452 -0.24986313721800499 0 -0.2092579406982718 -0.24018852872777419 0 -0.201356229710452 -0.24986313721800499 0 -0.197392808863455 -0.22983884614152539 0 -0.18302313500755071 -0.2439899936431944 0 -0.201356229710452 -0.24986313721800499 0 -0.197392808863455 -0.22983884614152539 0 -0.197392808863455 -0.22983884614152539 0 -0.20298037360066071 -0.21502882439785381 0 -0.2092579406982718 -0.24018852872777419 0 -0.197392808863455 -0.22983884614152539 0 -0.21561688751901709 -0.22709031140191629 0 -0.197392808863455 -0.22983884614152539 0 -0.21561688751901709 -0.22709031140191629 0 -0.20298037360066071 -0.21502882439785381 0 -0.21561688751901709 -0.22709031140191629 0 -0.2085679383378688 -0.20021880265418299 0 -0.21561688751901709 -0.22709031140191629 0 -0.2085679383378688 -0.20021880265418299 0 -0.22371756831972159 -0.20772187481410209 0 -0.21561688751901709 -0.22709031140191629 0 -0.20298037360066071 -0.21502882439785381 0 -0.2085679383378688 -0.20021880265418299 0 -0.20298037360066071 -0.21502882439785381 0 -0.2085679383378688 -0.20021880265418299 0 -0.1870202017795016 -0.20140048960094789 0 -0.197392808863455 -0.22983884614152539 0 -0.20298037360066071 -0.21502882439785381 0 -0.1870202017795016 -0.20140048960094789 0 -0.20298037360066071 -0.21502882439785381 0 -0.2085679383378688 -0.20021880265418299 0 -0.1870202017795016 -0.20140048960094789 0 -0.20247744262807951 -0.17700104288064969 0 -0.1871054584935499 -0.18435863538771749 0 -0.1870202017795016 -0.20140048960094789 0 -0.20247744262807951 -0.17700104288064969 0 -0.1870202017795016 -0.20140048960094789 0 -0.2085679383378688 -0.20021880265418299 0 -0.20247744262807951 -0.17700104288064969 0 -0.2085679383378688 -0.20021880265418299 0 -0.20247744262807951 -0.17700104288064969 0 -0.2085679383378688 -0.20021880265418299 0 -0.22834065623962849 -0.19455670680666001 0 -0.2262847260408499 -0.18413059093805831 0 -0.22834065623962849 -0.19455670680666001 0 -0.23947358826515819 -0.2018706487461279 0 -0.22371756831972159 -0.20772187481410209 0 -0.2085679383378688 -0.20021880265418299 0 -0.22834065623962849 -0.19455670680666001 0 -0.22371756831972159 -0.20772187481410209 0 -0.22834065623962849 -0.19455670680666001 0 -0.2262847260408499 -0.18413059093805831 0 -0.24226769848796639 -0.1859276248743105 0 -0.22834065623962849 -0.19455670680666001 0 -0.23947358826515819 -0.2018706487461279 0 -0.24226769848796639 -0.1859276248743105 0 -0.23947358826515819 -0.2018706487461279 0 -0.24226769848796639 -0.1859276248743105 0 -0.2530345308819047 -0.2050552961622388 0 -0.23947358826515819 -0.2018706487461279 0 -0.23334171948516699 -0.21365344898868399 0 -0.24362466521327009 -0.22164896784257609 0 -0.23947358826515819 -0.2018706487461279 0 -0.24362466521327009 -0.22164896784257609 0 -0.2530345308819047 -0.2050552961622388 0 -0.23947358826515819 -0.2018706487461279 0 -0.22371756831972159 -0.20772187481410209 0 -0.23334171948516699 -0.21365344898868399 0 -0.22371756831972159 -0.20772187481410209 0 -0.23334171948516699 -0.21365344898868399 0 -0.2291124347350553 -0.22649902266321409 0 -0.21561688751901709 -0.22709031140191629 0 -0.22371756831972159 -0.20772187481410209 0 -0.2291124347350553 -0.22649902266321409 0 -0.23334171948516699 -0.21365344898868399 0 -0.2291124347350553 -0.22649902266321409 0 -0.24362466521327009 -0.22164896784257609 0 -0.24362466521327009 -0.22164896784257609 0 -0.2493694927029185 -0.23411674201777771 0 -0.23788718859812141 -0.2365823512062587 0 -0.2291124347350553 -0.22649902266321409 0 -0.24362466521327009 -0.22164896784257609 0 -0.23788718859812141 -0.2365823512062587 0 -0.22266583670016341 -0.25396182014965002 0 -0.23788718859812141 -0.2365823512062587 0 -0.24501988422530691 -0.2470038165003057 0 -0.2493694927029185 -0.23411674201777771 0 -0.23788718859812141 -0.2365823512062587 0 -0.24501988422530691 -0.2470038165003057 0 -0.22266583670016341 -0.25396182014965002 0 -0.2291124347350553 -0.22649902266321409 0 -0.23788718859812141 -0.2365823512062587 0 -0.22266583670016341 -0.25396182014965002 0 -0.21561688751901709 -0.22709031140191629 0 -0.2291124347350553 -0.22649902266321409 0 -0.22266583670016341 -0.25396182014965002 0 -0.21561688751901709 -0.22709031140191629 0 -0.2090252820487245 -0.14619852441542819 0 -0.20422319098001329 -0.14290273052781971 0 -0.20926894255168429 -0.1394636836609322 0 -0.20422319098001329 -0.14290273052781971 0 -0.20468059238838579 -0.1391595723252117 0 -0.20101606073879311 -0.14079131666709799 0 -0.2090252820487245 -0.14619852441542819 0 -0.20422319098001329 -0.14290273052781971 0 -0.20349112091677279 -0.14718143643658449 0 -0.2090252820487245 -0.14619852441542819 0 -0.20349112091677279 -0.14718143643658449 0 -0.20432936780519079 -0.15221654698265399 0 -0.20432936780519079 -0.15221654698265399 0 -0.21102506941647259 -0.15242566755937689 0 -0.20472017004824919 -0.15886926934499471 0 -0.2090252820487245 -0.14619852441542819 0 -0.20432936780519079 -0.15221654698265399 0 -0.21102506941647259 -0.15242566755937689 0 -0.2090252820487245 -0.14619852441542819 0 -0.21102506941647259 -0.15242566755937689 0 -0.21436793119715211 -0.14676567754402581 0 -0.21102506941647259 -0.15242566755937689 0 -0.21436793119715211 -0.14676567754402581 0 -0.2212001412250931 -0.14744703053438721 0 -0.21102506941647259 -0.15242566755937689 0 -0.21183879192658631 -0.1622240367075185 0 -0.2212001412250931 -0.14744703053438721 0 -0.21183879192658631 -0.1622240367075185 0 -0.2212001412250931 -0.14744703053438721 0 -0.21436793119715211 -0.14676567754402581 0 -0.21610513274973481 -0.14084688353023511 0 -0.2212001412250931 -0.14744703053438721 0 -0.2090252820487245 -0.14619852441542819 0 -0.21436793119715211 -0.14676567754402581 0 -0.21610513274973481 -0.14084688353023511 0 -0.2090252820487245 -0.14619852441542819 0 -0.21610513274973481 -0.14084688353023511 0 -0.20926894255168429 -0.1394636836609322 0 -0.21610513274973481 -0.14084688353023511 0 -0.21386133718479591 -0.1339908353306821 0 -0.22046563134663091 -0.13036871788499221 0 -0.208983149080504 -0.1346102722110642 0 -0.1999116185909344 -0.13802985855914429 0 -0.2190177563356604 -0.1216808674931453 0 -0.19800236109940789 -0.1408805194099208 0 -0.20890988446413891 -0.11444446759500559 0 -0.1999116185909344 -0.13802985855914429 0 -0.2190177563356604 -0.1216808674931453 0 -0.21610513274973481 -0.14084688353023511 0 -0.21386133718479591 -0.1339908353306821 0 -0.20926894255168429 -0.1394636836609322 0 -0.21386133718479591 -0.1339908353306821 0 -0.22046563134663091 -0.13036871788499221 0 -0.2190177563356604 -0.1216808674931453 0 -0.21386133718479591 -0.1339908353306821 0 -0.208983149080504 -0.1346102722110642 0 -0.2190177563356604 -0.1216808674931453 0 -0.208983149080504 -0.1346102722110642 0 -0.20468059238838579 -0.1391595723252117 0 -0.1999116185909344 -0.13802985855914429 0 -0.20926894255168429 -0.1394636836609322 0 -0.208983149080504 -0.1346102722110642 0 -0.20468059238838579 -0.1391595723252117 0 -0.21386133718479591 -0.1339908353306821 0 -0.20926894255168429 -0.1394636836609322 0 -0.208983149080504 -0.1346102722110642 0 -0.20422319098001329 -0.14290273052781971 0 -0.20926894255168429 -0.1394636836609322 0 -0.20468059238838579 -0.1391595723252117 0 -0.20468059238838579 -0.1391595723252117 0 -0.1999116185909344 -0.13802985855914429 0 -0.20101606073879311 -0.14079131666709799 0 -0.1999116185909344 -0.13802985855914429 0 -0.19800236109940789 -0.1408805194099208 0 -0.20890988446413891 -0.11444446759500559 0 -0.1955626572392718 -0.12519558290873339 0 -0.19800236109940789 -0.1408805194099208 0 -0.1999032514963405 -0.12354421154912899 0 -0.1955626572392718 -0.12519558290873339 0 -0.18964552643372021 -0.13110313106701141 0 -0.19800236109940789 -0.1408805194099208 0 -0.19800236109940789 -0.1408805194099208 0 -0.20890988446413891 -0.11444446759500559 0 -0.1999032514963405 -0.12354421154912899 0 -0.1999116185909344 -0.13802985855914429 0 -0.19800236109940789 -0.1408805194099208 0 -0.20101606073879311 -0.14079131666709799 0 -0.1955626572392718 -0.12519558290873339 0 -0.18964552643372021 -0.13110313106701141 0 -0.18831766493431831 -0.12120209436824959 0 -0.1861979901748928 -0.1391528061598763 0 -0.18964552643372021 -0.13110313106701141 0 -0.19800236109940789 -0.1408805194099208 0 -0.18709483773467681 -0.16731657122483609 0 -0.19800236109940789 -0.1408805194099208 0 -0.18709483773467681 -0.16731657122483609 0 -0.19800236109940789 -0.1408805194099208 0 -0.19878394302215979 -0.1502307040859209 0 -0.18709483773467681 -0.16731657122483609 0 -0.18168968887337431 -0.1507635551999236 0 -0.19800236109940789 -0.1408805194099208 0 -0.18168968887337431 -0.1507635551999236 0 -0.1861979901748928 -0.1391528061598763 0 -0.19800236109940789 -0.1408805194099208 0 -0.19800236109940789 -0.1408805194099208 0 -0.20109382072777579 -0.14435867617109979 0 -0.19878394302215979 -0.1502307040859209 0 -0.20349112091677279 -0.14718143643658449 0 -0.20109382072777579 -0.14435867617109979 0 -0.19878394302215979 -0.1502307040859209 0 -0.20422319098001329 -0.14290273052781971 0 -0.20349112091677279 -0.14718143643658449 0 -0.20109382072777579 -0.14435867617109979 0 -0.20422319098001329 -0.14290273052781971 0 -0.20101606073879311 -0.14079131666709799 0 -0.20109382072777579 -0.14435867617109979 0 -0.19800236109940789 -0.1408805194099208 0 -0.20101606073879311 -0.14079131666709799 0 -0.20109382072777579 -0.14435867617109979 0 -0.20432936780519079 -0.15221654698265399 0 -0.19878394302215979 -0.1502307040859209 0 -0.19903827960609921 -0.15827093463549161 0 -0.20349112091677279 -0.14718143643658449 0 -0.20432936780519079 -0.15221654698265399 0 -0.19878394302215979 -0.1502307040859209 0 -0.18709483773467681 -0.16731657122483609 0 -0.19878394302215979 -0.1502307040859209 0 -0.19903827960609921 -0.15827093463549161 0 -0.18709483773467681 -0.16731657122483609 0 -0.1997564709125822 -0.16662834570603011 0 -0.19903827960609921 -0.15827093463549161 0 -0.18709483773467681 -0.16731657122483609 0 -0.1997564709125822 -0.16662834570603011 0 -0.19379327952764899 -0.1737358453975606 0 -0.1997564709125822 -0.16662834570603011 0 -0.20247744262807951 -0.17700104288064969 0 -0.1997564709125822 -0.16662834570603011 0 -0.19903827960609921 -0.15827093463549161 0 -0.20472017004824919 -0.15886926934499471 0 -0.20432936780519079 -0.15221654698265399 0 -0.19903827960609921 -0.15827093463549161 0 -0.20472017004824919 -0.15886926934499471 0 -0.1871054584935499 -0.18435863538771749 0 -0.18709483773467681 -0.16731657122483609 0 -0.19379327952764899 -0.1737358453975606 0 -0.1871054584935499 -0.18435863538771749 0 -0.19379327952764899 -0.1737358453975606 0 -0.20247744262807951 -0.17700104288064969 0 -0.1997564709125822 -0.16662834570603011 0 -0.19379327952764899 -0.1737358453975606 0 -0.20247744262807951 -0.17700104288064969 0 -0.2085679383378688 -0.20021880265418299 0 -0.2185443225010078 -0.17377607253321861 0 -0.2262847260408499 -0.18413059093805831 0 -0.2085679383378688 -0.20021880265418299 0 -0.2185443225010078 -0.17377607253321861 0 -0.2085679383378688 -0.20021880265418299 0 -0.20247744262807951 -0.17700104288064969 0 -0.2185443225010078 -0.17377607253321861 0 -0.20247744262807951 -0.17700104288064969 0 -0.2185443225010078 -0.17377607253321861 0 -0.21183879192658631 -0.1622240367075185 0 -0.1997564709125822 -0.16662834570603011 0 -0.20472017004824919 -0.15886926934499471 0 -0.21183879192658631 -0.1622240367075185 0 -0.21102506941647259 -0.15242566755937689 0 -0.20472017004824919 -0.15886926934499471 0 -0.21183879192658631 -0.1622240367075185 0 -0.20247744262807951 -0.17700104288064969 0 -0.21183879192658631 -0.1622240367075185 0 -0.1997564709125822 -0.16662834570603011 0 -0.20247744262807951 -0.17700104288064969 0 -0.21183879192658631 -0.1622240367075185 0 -0.2185443225010078 -0.17377607253321861 0 -0.23553581923366099 -0.15856091149201421 0 -0.22852070666414909 -0.14733334241225499 0 -0.2185443225010078 -0.17377607253321861 0 -0.23232973788446071 -0.17140579974322129 0 -0.23553581923366099 -0.15856091149201421 0 -0.2185443225010078 -0.17377607253321861 0 -0.22852070666414909 -0.14733334241225499 0 -0.2185443225010078 -0.17377607253321861 0 -0.21183879192658631 -0.1622240367075185 0 -0.22852070666414909 -0.14733334241225499 0 -0.23232973788446071 -0.17140579974322129 0 -0.2262847260408499 -0.18413059093805831 0 -0.24226769848796639 -0.1859276248743105 0 -0.2185443225010078 -0.17377607253321861 0 -0.23232973788446071 -0.17140579974322129 0 -0.2262847260408499 -0.18413059093805831 0 -0.23232973788446071 -0.17140579974322129 0 -0.24648081103591499 -0.17392347890994209 0 -0.24226769848796639 -0.1859276248743105 0 -0.23232973788446071 -0.17140579974322129 0 -0.24648081103591499 -0.17392347890994209 0 -0.24876130621980161 -0.157963746704779 0 -0.23232973788446071 -0.17140579974322129 0 -0.24876130621980161 -0.157963746704779 0 -0.23232973788446071 -0.17140579974322129 0 -0.23553581923366099 -0.15856091149201421 0 -0.24876130621980161 -0.157963746704779 0 -0.24876130621980161 -0.157963746704779 0 -0.2397210502984268 -0.14896976831327349 0 -0.25026186283696461 -0.14235720573963881 0 -0.2397210502984268 -0.14896976831327349 0 -0.23552555653755791 -0.13863363521768091 0 -0.25026186283696461 -0.14235720573963881 0 -0.2397210502984268 -0.14896976831327349 0 -0.22852070666414909 -0.14733334241225499 0 -0.23552555653755791 -0.13863363521768091 0 -0.23553581923366099 -0.15856091149201421 0 -0.2397210502984268 -0.14896976831327349 0 -0.22852070666414909 -0.14733334241225499 0 -0.23553581923366099 -0.15856091149201421 0 -0.24876130621980161 -0.157963746704779 0 -0.2397210502984268 -0.14896976831327349 0 -0.21183879192658631 -0.1622240367075185 0 -0.22852070666414909 -0.14733334241225499 0 -0.2212001412250931 -0.14744703053438721 0 -0.22852070666414909 -0.14733334241225499 0 -0.2247765331041279 -0.14198831707788809 0 -0.23552555653755791 -0.13863363521768091 0 -0.22852070666414909 -0.14733334241225499 0 -0.2247765331041279 -0.14198831707788809 0 -0.2212001412250931 -0.14744703053438721 0 -0.21610513274973481 -0.14084688353023511 0 -0.2247765331041279 -0.14198831707788809 0 -0.2212001412250931 -0.14744703053438721 0 -0.22046563134663091 -0.13036871788499221 0 -0.2190177563356604 -0.1216808674931453 0 -0.23264970379814059 -0.124137426200809 0 -0.22046563134663091 -0.13036871788499221 0 -0.22587777481756199 -0.13496328445527431 0 -0.23264970379814059 -0.124137426200809 0 -0.21610513274973481 -0.14084688353023511 0 -0.2247765331041279 -0.14198831707788809 0 -0.22587777481756199 -0.13496328445527431 0 -0.21610513274973481 -0.14084688353023511 0 -0.22046563134663091 -0.13036871788499221 0 -0.22587777481756199 -0.13496328445527431 0 -0.2247765331041279 -0.14198831707788809 0 -0.22587777481756199 -0.13496328445527431 0 -0.23552555653755791 -0.13863363521768091 0 -0.22587777481756199 -0.13496328445527431 0 -0.23552555653755791 -0.13863363521768091 0 -0.23264970379814059 -0.124137426200809 0 -0.23552555653755791 -0.13863363521768091 0 -0.2470327450431076 -0.1306924886745969 0 -0.23264970379814059 -0.124137426200809 0 -0.23552555653755791 -0.13863363521768091 0 -0.2470327450431076 -0.1306924886745969 0 -0.25026186283696461 -0.14235720573963881 0 -0.24811226901631339 -0.119687531806331 0 -0.23812389408038651 -0.1053318764271461 0 -0.26057096435407312 -0.1101978935494649 0 -0.24811226901631339 -0.119687531806331 0 -0.23812389408038651 -0.1053318764271461 0 -0.23264970379814059 -0.124137426200809 0 -0.2470327450431076 -0.1306924886745969 0 -0.24811226901631339 -0.119687531806331 0 -0.23264970379814059 -0.124137426200809 0 -0.23812389408038651 -0.1053318764271461 0 -0.23613398096784349 -0.090675535242446925 0 -0.2572300318251125 -0.088982885361147013 0 -0.23812389408038651 -0.1053318764271461 0 -0.2572300318251125 -0.088982885361147013 0 -0.2234166588569973 -0.1048825922778626 0 -0.23613398096784349 -0.090675535242446925 0 -0.21981740782886999 -0.088008415780090332 0 -0.23812389408038651 -0.1053318764271461 0 -0.2234166588569973 -0.1048825922778626 0 -0.23613398096784349 -0.090675535242446925 0 -0.23812389408038651 -0.1053318764271461 0 -0.2234166588569973 -0.1048825922778626 0 -0.2190177563356604 -0.1216808674931453 0 -0.23812389408038651 -0.1053318764271461 0 -0.2190177563356604 -0.1216808674931453 0 -0.23264970379814059 -0.124137426200809 0 -0.23812389408038651 -0.1053318764271461 0 -0.2190177563356604 -0.1216808674931453 0 -0.24358588208205151 -0.06498279729468999 0 -0.23323151093366329 -0.078074829268661633 0 -0.2307249311936011 -0.061572363965175077 0 -0.24358588208205151 -0.06498279729468999 0 -0.24498438228203151 -0.078772612339773757 0 -0.25746478862091149 -0.07365324142992212 0 -0.24358588208205151 -0.06498279729468999 0 -0.24498438228203151 -0.078772612339773757 0 -0.23323151093366329 -0.078074829268661633 0 -0.24498438228203151 -0.078772612339773757 0 -0.23613398096784349 -0.090675535242446925 0 -0.2572300318251125 -0.088982885361147013 0 -0.24498438228203151 -0.078772612339773757 0 -0.23613398096784349 -0.090675535242446925 0 -0.23323151093366329 -0.078074829268661633 0 -0.23613398096784349 -0.090675535242446925 0 -0.21981740782886999 -0.088008415780090332 0 -0.23323151093366329 -0.078074829268661633 0 -0.21981740782886999 -0.088008415780090332 0 -0.21669294041883039 -0.071243150615869943 0 -0.2307249311936011 -0.061572363965175077 0 -0.21981740782886999 -0.088008415780090332 0 -0.23323151093366329 -0.078074829268661633 0 -0.2307249311936011 -0.061572363965175077 0 -0.21669294041883039 -0.071243150615869943 0 -0.21145825997721879 -0.058534646774305227 0 -0.2307249311936011 -0.061572363965175077 0 -0.21981740782886999 -0.088008415780090332 0 -0.2307249311936011 -0.061572363965175077 0 -0.21669294041883039 -0.071243150615869943 0 -0.20477116267563161 -0.076857175943909173 0 -0.21145825997721879 -0.058534646774305227 0 -0.21981740782886999 -0.088008415780090332 0 -0.21669294041883039 -0.071243150615869943 0 -0.20477116267563161 -0.076857175943909173 0 -0.21981740782886999 -0.088008415780090332 0 -0.20477116267563161 -0.076857175943909173 0 -0.20576776979232059 -0.090005728703703214 0 -0.21981740782886999 -0.088008415780090332 0 -0.20576776979232059 -0.090005728703703214 0 -0.2099416244302795 -0.1009948804034128 0 -0.1945654813274508 -0.088139158508057439 0 -0.19974317269937061 -0.0960290128830463 0 -0.19413738579254641 -0.095270044365709433 0 -0.20576776979232059 -0.090005728703703214 0 -0.1945654813274508 -0.088139158508057439 0 -0.19974317269937061 -0.0960290128830463 0 -0.1945654813274508 -0.088139158508057439 0 -0.18748261406783731 -0.09314156567011822 0 -0.18562984336502331 -0.085476789017593952 0 -0.1945654813274508 -0.088139158508057439 0 -0.18435979997927049 -0.099421141072206121 0 -0.18748261406783731 -0.09314156567011822 0 -0.1945654813274508 -0.088139158508057439 0 -0.1895018949885055 -0.07330161742149327 0 -0.18562984336502331 -0.085476789017593952 0 -0.20477116267563161 -0.076857175943909173 0 -0.1945654813274508 -0.088139158508057439 0 -0.1895018949885055 -0.07330161742149327 0 -0.20477116267563161 -0.076857175943909173 0 -0.1945654813274508 -0.088139158508057439 0 -0.20477116267563161 -0.076857175943909173 0 -0.20576776979232059 -0.090005728703703214 0 -0.1945654813274508 -0.088139158508057439 0 -0.20477116267563161 -0.076857175943909173 0 -0.1895018949885055 -0.07330161742149327 0 -0.19210579319034141 -0.056102698017712747 0 -0.20477116267563161 -0.076857175943909173 0 -0.19210579319034141 -0.056102698017712747 0 -0.21145825997721879 -0.058534646774305227 0 -0.1999116185909344 -0.13802985855914429 0 -0.2190177563356604 -0.1216808674931453 0 -0.20890988446413891 -0.11444446759500559 0 -0.2234166588569973 -0.1048825922778626 0 -0.2190177563356604 -0.1216808674931453 0 -0.20890988446413891 -0.11444446759500559 0 -0.21981740782886999 -0.088008415780090332 0 -0.20890988446413891 -0.11444446759500559 0 -0.2234166588569973 -0.1048825922778626 0 -0.21981740782886999 -0.088008415780090332 0 -0.20890988446413891 -0.11444446759500559 0 -0.21981740782886999 -0.088008415780090332 0 -0.20890988446413891 -0.11444446759500559 0 -0.2099416244302795 -0.1009948804034128 0 -0.20576776979232059 -0.090005728703703214 0 -0.2099416244302795 -0.1009948804034128 0 -0.19974317269937061 -0.0960290128830463 0 -0.20890988446413891 -0.11444446759500559 0 -0.2099416244302795 -0.1009948804034128 0 -0.20157714531803389 -0.1082545272619231 0 -0.2099416244302795 -0.1009948804034128 0 -0.20157714531803389 -0.1082545272619231 0 -0.19031896919517341 -0.10392248476641711 0 -0.2099416244302795 -0.1009948804034128 0 -0.19234165481676041 -0.1023335492915607 0 -0.19031896919517341 -0.10392248476641711 0 -0.2099416244302795 -0.1009948804034128 0 -0.19974317269937061 -0.0960290128830463 0 -0.19234165481676041 -0.1023335492915607 0 -0.20157714531803389 -0.1082545272619231 0 -0.19031896919517341 -0.10392248476641711 0 -0.19713810318254341 -0.1136562762828562 0 -0.2099416244302795 -0.1009948804034128 0 -0.19031896919517341 -0.10392248476641711 0 -0.19974317269937061 -0.0960290128830463 0 -0.1941593592747953 -0.097921403783572336 0 -0.19234165481676041 -0.1023335492915607 0 -0.19974317269937061 -0.0960290128830463 0 -0.19413738579254641 -0.095270044365709433 0 -0.1941593592747953 -0.097921403783572336 0 -0.1945654813274508 -0.088139158508057439 0 -0.18435979997927049 -0.099421141072206121 0 -0.1945654813274508 -0.088139158508057439 0 -0.19413738579254641 -0.095270044365709433 0 -0.1904152237905041 -0.09805300859397291 0 -0.1945654813274508 -0.088139158508057439 0 -0.1904152237905041 -0.09805300859397291 0 -0.18435979997927049 -0.099421141072206121 0 -0.19413738579254641 -0.095270044365709433 0 -0.1941593592747953 -0.097921403783572336 0 -0.1904152237905041 -0.09805300859397291 0 -0.1941593592747953 -0.097921403783572336 0 -0.1904152237905041 -0.09805300859397291 0 -0.19234165481676041 -0.1023335492915607 0 -0.1904152237905041 -0.09805300859397291 0 -0.19234165481676041 -0.1023335492915607 0 -0.19031896919517341 -0.10392248476641711 0 -0.1904152237905041 -0.09805300859397291 0 -0.19031896919517341 -0.10392248476641711 0 -0.18435979997927049 -0.099421141072206121 0 -0.19234165481676041 -0.1023335492915607 0 -0.19031896919517341 -0.10392248476641711 0 -0.1881601110711649 -0.11331791216487019 0 -0.19713810318254341 -0.1136562762828562 0 -0.18831766493431831 -0.12120209436824959 0 -0.19031896919517341 -0.10392248476641711 0 -0.1881601110711649 -0.11331791216487019 0 -0.19713810318254341 -0.1136562762828562 0 -0.20890988446413891 -0.11444446759500559 0 -0.20157714531803389 -0.1082545272619231 0 -0.19713810318254341 -0.1136562762828562 0 -0.20890988446413891 -0.11444446759500559 0 -0.19713810318254341 -0.1136562762828562 0 -0.1999032514963405 -0.12354421154912899 0 -0.1955626572392718 -0.12519558290873339 0 -0.19713810318254341 -0.1136562762828562 0 -0.1999032514963405 -0.12354421154912899 0 -0.1955626572392718 -0.12519558290873339 0 -0.19713810318254341 -0.1136562762828562 0 -0.18831766493431831 -0.12120209436824959 0 -0.1811232306609345 -0.13103659972219539 0 -0.18831766493431831 -0.12120209436824959 0 -0.17686570697262449 -0.11449079324195779 0 -0.1881601110711649 -0.11331791216487019 0 -0.18831766493431831 -0.12120209436824959 0 -0.17686570697262449 -0.11449079324195779 0 -0.19031896919517341 -0.10392248476641711 0 -0.1881601110711649 -0.11331791216487019 0 -0.17686570697262449 -0.11449079324195779 0 -0.17686570697262449 -0.11449079324195779 0 -0.1671891727045966 -0.11840259962645371 0 -0.178722850225248 -0.1056525691043167 0 -0.1671891727045966 -0.11840259962645371 0 -0.178722850225248 -0.1056525691043167 0 -0.17686570697262449 -0.11449079324195779 0 -0.18146433169557 -0.1052435534528942 0 -0.1671891727045966 -0.11840259962645371 0 -0.14895852744663621 -0.1200008436472003 0 -0.15597394879650059 -0.1090465941370332 0 -0.1556554951839447 -0.1311526301485903 0 -0.1671891727045966 -0.11840259962645371 0 -0.14895852744663621 -0.1200008436472003 0 -0.1671891727045966 -0.11840259962645371 0 -0.178722850225248 -0.1056525691043167 0 -0.15597394879650059 -0.1090465941370332 0 -0.1556554951839447 -0.1311526301485903 0 -0.17686570697262449 -0.11449079324195779 0 -0.1556554951839447 -0.1311526301485903 0 -0.17686570697262449 -0.11449079324195779 0 -0.1671891727045966 -0.11840259962645371 0 -0.1556554951839447 -0.1311526301485903 0 -0.1671891727045966 -0.11840259962645371 0 -0.16577731773661569 -0.099642728646809522 0 -0.178722850225248 -0.1056525691043167 0 -0.15597394879650059 -0.1090465941370332 0 -0.16577731773661569 -0.099642728646809522 0 -0.15483666007184421 -0.091762325858716021 0 -0.15597394879650059 -0.1090465941370332 0 -0.178722850225248 -0.1056525691043167 0 -0.15597394879650059 -0.1090465941370332 0 -0.16577731773661569 -0.099642728646809522 0 -0.16396717950907169 -0.091578348192083478 0 -0.15483666007184421 -0.091762325858716021 0 -0.16577731773661569 -0.099642728646809522 0 -0.1730133147824518 -0.093935049886302191 0 -0.16396717950907169 -0.091578348192083478 0 -0.1730133147824518 -0.093935049886302191 0 -0.178722850225248 -0.1056525691043167 0 -0.1827724087684745 -0.099209326032371981 0 -0.16577731773661569 -0.099642728646809522 0 -0.1730133147824518 -0.093935049886302191 0 -0.178722850225248 -0.1056525691043167 0 -0.17686570697262449 -0.11449079324195779 0 -0.178722850225248 -0.1056525691043167 0 -0.18146433169557 -0.1052435534528942 0 -0.19031896919517341 -0.10392248476641711 0 -0.17686570697262449 -0.11449079324195779 0 -0.19031896919517341 -0.10392248476641711 0 -0.17686570697262449 -0.11449079324195779 0 -0.18146433169557 -0.1052435534528942 0 -0.19031896919517341 -0.10392248476641711 0 -0.18146433169557 -0.1052435534528942 0 -0.19031896919517341 -0.10392248476641711 0 -0.18146433169557 -0.1052435534528942 0 -0.18435979997927049 -0.099421141072206121 0 -0.178722850225248 -0.1056525691043167 0 -0.18146433169557 -0.1052435534528942 0 -0.18435979997927049 -0.099421141072206121 0 -0.18146433169557 -0.1052435534528942 0 -0.18435979997927049 -0.099421141072206121 0 -0.178722850225248 -0.1056525691043167 0 -0.18435979997927049 -0.099421141072206121 0 -0.178722850225248 -0.1056525691043167 0 -0.18146433169557 -0.1052435534528942 0 -0.178722850225248 -0.1056525691043167 0 -0.1827724087684745 -0.099209326032371981 0 -0.18435979997927049 -0.099421141072206121 0 -0.18435979997927049 -0.099421141072206121 0 -0.18748261406783731 -0.09314156567011822 0 -0.1827724087684745 -0.099209326032371981 0 -0.18435979997927049 -0.099421141072206121 0 -0.18748261406783731 -0.09314156567011822 0 -0.1827724087684745 -0.099209326032371981 0 -0.18748261406783731 -0.09314156567011822 0 -0.18562984336502331 -0.085476789017593952 0 -0.1827724087684745 -0.099209326032371981 0 -0.18562984336502331 -0.085476789017593952 0 -0.17382681767284369 -0.073592277455930555 0 -0.1827724087684745 -0.099209326032371981 0 -0.17382681767284369 -0.073592277455930555 0 -0.1730133147824518 -0.093935049886302191 0 -0.1827724087684745 -0.099209326032371981 0 -0.17382681767284369 -0.073592277455930555 0 -0.1895018949885055 -0.07330161742149327 0 -0.18562984336502331 -0.085476789017593952 0 -0.17382681767284369 -0.073592277455930555 0 -0.17382681767284369 -0.073592277455930555 0 -0.19210579319034141 -0.056102698017712747 0 -0.1895018949885055 -0.07330161742149327 0 -0.17382681767284369 -0.073592277455930555 0 -0.19210579319034141 -0.056102698017712747 0 -0.17382681767284369 -0.073592277455930555 0 -0.16643292360035861 -0.052418747210770528 0 -0.17382681767284369 -0.073592277455930555 0 -0.15483666007184421 -0.091762325858716021 0 -0.15377281853302041 -0.064532112812628717 0 -0.17382681767284369 -0.073592277455930555 0 -0.15377281853302041 -0.064532112812628717 0 -0.16643292360035861 -0.052418747210770528 0 -0.17382681767284369 -0.073592277455930555 0 -0.16396717950907169 -0.091578348192083478 0 -0.15483666007184421 -0.091762325858716021 0 -0.17382681767284369 -0.073592277455930555 0 -0.15483666007184421 -0.091762325858716021 0 -0.1730133147824518 -0.093935049886302191 0 -0.17382681767284369 -0.073592277455930555 0 -0.16396717950907169 -0.091578348192083478 0 -0.15483666007184421 -0.091762325858716021 0 -0.15377281853302041 -0.064532112812628717 0 -0.15483666007184421 -0.091762325858716021 0 -0.15377281853302041 -0.064532112812628717 0 -0.1360677503740185 -0.071374625852164114 0 -0.1249758290592763 -0.088089041145386904 0 -0.1168303758842141 -0.063684848039456371 0 -0.1360677503740185 -0.071374625852164114 0 -0.1249758290592763 -0.088089041145386904 0 -0.15483666007184421 -0.091762325858716021 0 -0.1360677503740185 -0.071374625852164114 0 -0.1196943769995599 -0.1026894650061886 0 -0.1249758290592763 -0.088089041145386904 0 -0.13317316480104521 -0.1124669267105321 0 -0.1249758290592763 -0.088089041145386904 0 -0.13317316480104521 -0.1124669267105321 0 -0.1249758290592763 -0.088089041145386904 0 -0.15483666007184421 -0.091762325858716021 0 -0.13317316480104521 -0.1124669267105321 0 -0.1233103767900269 -0.11391983961638839 0 -0.12141654953633819 -0.1237391550570868 0 -0.13317316480104521 -0.1124669267105321 0 -0.1233103767900269 -0.11391983961638839 0 -0.1196943769995599 -0.1026894650061886 0 -0.13317316480104521 -0.1124669267105321 0 -0.1233103767900269 -0.11391983961638839 0 -0.13317316480104521 -0.1124669267105321 0 -0.12141654953633819 -0.1237391550570868 0 -0.13792893398550399 -0.12689720407348901 0 -0.13317316480104521 -0.1124669267105321 0 -0.13792893398550399 -0.12689720407348901 0 -0.13317316480104521 -0.1124669267105321 0 -0.14895852744663621 -0.1200008436472003 0 -0.12141654953633819 -0.1237391550570868 0 -0.13317316480104521 -0.1124669267105321 0 -0.13792893398550399 -0.12689720407348901 0 -0.13317316480104521 -0.1124669267105321 0 -0.13317316480104521 -0.1124669267105321 0 -0.15597394879650059 -0.1090465941370332 0 -0.13317316480104521 -0.1124669267105321 0 -0.14895852744663621 -0.1200008436472003 0 -0.15597394879650059 -0.1090465941370332 0 -0.15483666007184421 -0.091762325858716021 0 -0.13317316480104521 -0.1124669267105321 0 -0.15483666007184421 -0.091762325858716021 0 -0.13317316480104521 -0.1124669267105321 0 -0.15597394879650059 -0.1090465941370332 0 -0.15164513545537861 -0.010071686720453939 0 -0.15903902952786861 -0.03124521696561228 0 -0.15164513545537861 -0.010071686720453939 0 -0.15270897699419961 -0.03730189976654133 0 -0.15164513545537861 -0.010071686720453939 0 -0.13856073551178991 -0.01791162058822246 0 -0.15270897699419961 -0.03730189976654133 0 -0.15164513545537861 -0.010071686720453939 0 -0.15270897699419961 -0.03730189976654133 0 -0.15903902952786861 -0.03124521696561228 0 -0.15164513545537861 -0.010071686720453939 0 -0.13443834496835211 -0.0057144966104633061 0 -0.13856073551178991 -0.01791162058822246 0 -0.15164513545537861 -0.010071686720453939 0 -0.13443834496835211 -0.0057144966104633061 0 -0.14549820555302331 0.0075309736539515872 0 -0.15164513545537861 -0.010071686720453939 0 -0.14549820555302331 0.0075309736539515872 0 -0.13443834496835211 -0.0057144966104633061 0 -0.1257243243116119 -0.013993145548155089 0 -0.13856073551178991 -0.01791162058822246 0 -0.11882490356417411 -0.003904598360146466 0 -0.13443834496835211 -0.0057144966104633061 0 -0.1291944312396914 0.0041045353414499199 0 -0.11882490356417411 -0.003904598360146466 0 -0.13443834496835211 -0.0057144966104633061 0 -0.1257243243116119 -0.013993145548155089 0 -0.1257243243116119 -0.013993145548155089 0 -0.13856073551178991 -0.01791162058822246 0 -0.12811296504878369 -0.028680234473229111 0 -0.13856073551178991 -0.01791162058822246 0 -0.12811296504878369 -0.028680234473229111 0 -0.15270897699419961 -0.03730189976654133 0 -0.12811296504878369 -0.028680234473229111 0 -0.13437411955032749 -0.049955449646558618 0 -0.15270897699419961 -0.03730189976654133 0 -0.1168303758842141 -0.063684848039456371 0 -0.1360677503740185 -0.071374625852164114 0 -0.13437411955032749 -0.049955449646558618 0 -0.15377281853302041 -0.064532112812628717 0 -0.13437411955032749 -0.049955449646558618 0 -0.15270897699419961 -0.03730189976654133 0 -0.15377281853302041 -0.064532112812628717 0 -0.15270897699419961 -0.03730189976654133 0 -0.15377281853302041 -0.064532112812628717 0 -0.1360677503740185 -0.071374625852164114 0 -0.13437411955032749 -0.049955449646558618 0 -0.16643292360035861 -0.052418747210770528 0 -0.15903902952786861 -0.03124521696561228 0 -0.16643292360035861 -0.052418747210770528 0 -0.18464858302232931 -0.035528642407218869 0 -0.15903902952786861 -0.03124521696561228 0 -0.15270897699419961 -0.03730189976654133 0 -0.16643292360035861 -0.052418747210770528 0 -0.15903902952786861 -0.03124521696561228 0 -0.15377281853302041 -0.064532112812628717 0 -0.15270897699419961 -0.03730189976654133 0 -0.16643292360035861 -0.052418747210770528 0 -0.16643292360035861 -0.052418747210770528 0 -0.18464858302232931 -0.035528642407218869 0 -0.19210579319034141 -0.056102698017712747 0 -0.17382681767284369 -0.073592277455930555 0 -0.16643292360035861 -0.052418747210770528 0 -0.19210579319034141 -0.056102698017712747 0 -0.18464858302232931 -0.035528642407218869 0 -0.15903902952786861 -0.03124521696561228 0 -0.1839946668070416 -0.0140003919369927 0 -0.15903902952786861 -0.03124521696561228 0 -0.166761735875191 -0.0073857624883872791 0 -0.1839946668070416 -0.0140003919369927 0 -0.15164513545537861 -0.010071686720453939 0 -0.15903902952786861 -0.03124521696561228 0 -0.166761735875191 -0.0073857624883872791 0 -0.15164513545537861 -0.010071686720453939 0 -0.166761735875191 -0.0073857624883872791 0 -0.16094102211374159 0.0088643573438431378 0 -0.166761735875191 -0.0073857624883872791 0 -0.1839946668070416 -0.0140003919369927 0 -0.17946841454955409 0.0056100970778848987 0 -0.1839946668070416 -0.0140003919369927 0 -0.20269401027411391 -0.02166790921480248 0 -0.20859482776366231 0.00056105120679781489 0 -0.1839946668070416 -0.0140003919369927 0 -0.17946841454955409 0.0056100970778848987 0 -0.20859482776366231 0.00056105120679781489 0 -0.18464858302232931 -0.035528642407218869 0 -0.1839946668070416 -0.0140003919369927 0 -0.20269401027411391 -0.02166790921480248 0 -0.20269401027411391 -0.02166790921480248 0 -0.21038476870784761 -0.038613118579504023 0 -0.22866374422535399 -0.021123539141295271 0 -0.22866374422535399 -0.021123539141295271 0 -0.20859482776366231 0.00056105120679781489 0 -0.20269401027411391 -0.02166790921480248 0 -0.22866374422535399 -0.021123539141295271 0 -0.20859482776366231 0.00056105120679781489 0 -0.19210579319034141 -0.056102698017712747 0 -0.21038476870784761 -0.038613118579504023 0 -0.18464858302232931 -0.035528642407218869 0 -0.20269401027411391 -0.02166790921480248 0 -0.21038476870784761 -0.038613118579504023 0 -0.18464858302232931 -0.035528642407218869 0 -0.19210579319034141 -0.056102698017712747 0 -0.21038476870784761 -0.038613118579504023 0 -0.21038476870784761 -0.038613118579504023 0 -0.21145825997721879 -0.058534646774305227 0 -0.2231434828033976 -0.048664249429628659 0 -0.19210579319034141 -0.056102698017712747 0 -0.21038476870784761 -0.038613118579504023 0 -0.21145825997721879 -0.058534646774305227 0 -0.21145825997721879 -0.058534646774305227 0 -0.2307249311936011 -0.061572363965175077 0 -0.2231434828033976 -0.048664249429628659 0 -0.2307249311936011 -0.061572363965175077 0 -0.2231434828033976 -0.048664249429628659 0 -0.2416324545583344 -0.035136312150260599 0 -0.2231434828033976 -0.048664249429628659 0 -0.22583239147580289 -0.036262802619311661 0 -0.2416324545583344 -0.035136312150260599 0 -0.21038476870784761 -0.038613118579504023 0 -0.22583239147580289 -0.036262802619311661 0 -0.22866374422535399 -0.021123539141295271 0 -0.21038476870784761 -0.038613118579504023 0 -0.2231434828033976 -0.048664249429628659 0 -0.22583239147580289 -0.036262802619311661 0 -0.2416324545583344 -0.035136312150260599 0 -0.25569089948334028 -0.050326550233705233 0 -0.2307249311936011 -0.061572363965175077 0 -0.2416324545583344 -0.035136312150260599 0 -0.25569089948334028 -0.050326550233705233 0 -0.24358588208205151 -0.06498279729468999 0 -0.2307249311936011 -0.061572363965175077 0 -0.25569089948334028 -0.050326550233705233 0 -0.2307249311936011 -0.061572363965175077 0 -0.2416324545583344 -0.035136312150260599 0 -0.2256276510647858 -0.0061875740005409062 0 -0.22866374422535399 -0.021123539141295271 0 -0.20859482776366231 0.00056105120679781489 0 -0.2256276510647858 -0.0061875740005409062 0 -0.20859482776366231 0.00056105120679781489 0 -0.2334181717106491 0.0056181133983165578 0 -0.2305930863836754 -0.011935396349104919 0 -0.2256276510647858 -0.0061875740005409062 0 -0.22866374422535399 -0.021123539141295271 0 -0.2305930863836754 -0.011935396349104919 0 -0.2256276510647858 -0.0061875740005409062 0 -0.2375712503994746 -0.0066014752189344121 0 -0.2305930863836754 -0.011935396349104919 0 -0.23033283681628361 -0.019526528005149622 0 -0.23755130949978889 -0.01478070213645449 0 -0.2256276510647858 -0.0061875740005409062 0 -0.2375712503994746 -0.0066014752189344121 0 -0.2334181717106491 0.0056181133983165578 0 -0.22583239147580289 -0.036262802619311661 0 -0.2416324545583344 -0.035136312150260599 0 -0.22866374422535399 -0.021123539141295271 0 -0.21038476870784761 -0.038613118579504023 0 -0.22866374422535399 -0.021123539141295271 0 -0.23033283681628361 -0.019526528005149622 0 -0.22866374422535399 -0.021123539141295271 0 -0.2383875738244681 -0.02309676651417655 0 -0.2305930863836754 -0.011935396349104919 0 -0.23033283681628361 -0.019526528005149622 0 -0.22866374422535399 -0.021123539141295271 0 -0.23033283681628361 -0.019526528005149622 0 -0.22866374422535399 -0.021123539141295271 0 -0.23033283681628361 -0.019526528005149622 0 -0.2383875738244681 -0.02309676651417655 0 -0.23755130949978889 -0.01478070213645449 0 -0.2416324545583344 -0.035136312150260599 0 -0.25087180007504312 -0.01274334459490695 0 -0.2416324545583344 -0.035136312150260599 0 -0.2383875738244681 -0.02309676651417655 0 -0.25087180007504312 -0.01274334459490695 0 -0.2416324545583344 -0.035136312150260599 0 -0.22866374422535399 -0.021123539141295271 0 -0.2416324545583344 -0.035136312150260599 0 -0.22866374422535399 -0.021123539141295271 0 -0.2383875738244681 -0.02309676651417655 0 -0.2383875738244681 -0.02309676651417655 0 -0.25087180007504312 -0.01274334459490695 0 -0.2383875738244681 -0.02309676651417655 0 -0.23755130949978889 -0.01478070213645449 0 -0.25087180007504312 -0.01274334459490695 0 -0.2375712503994746 -0.0066014752189344121 0 -0.25087180007504312 -0.01274334459490695 0 -0.2459253282718992 0.0032477469373470829 0 -0.2305930863836754 -0.011935396349104919 0 -0.23755130949978889 -0.01478070213645449 0 -0.2375712503994746 -0.0066014752189344121 0 -0.23755130949978889 -0.01478070213645449 0 -0.2375712503994746 -0.0066014752189344121 0 -0.25087180007504312 -0.01274334459490695 0 -0.25087180007504312 -0.01274334459490695 0 -0.26103825752416371 0.01189662058436592 0 -0.25087180007504312 -0.01274334459490695 0 -0.26651812489744758 -0.012670075218597769 0 -0.27339990125571778 0.0059396664209166641 0 -0.25087180007504312 -0.01274334459490695 0 -0.27339990125571778 0.0059396664209166641 0 -0.25087180007504312 -0.01274334459490695 0 -0.2614533040142335 -0.026100243925489219 0 -0.26651812489744758 -0.012670075218597769 0 -0.2416324545583344 -0.035136312150260599 0 -0.25087180007504312 -0.01274334459490695 0 -0.2614533040142335 -0.026100243925489219 0 -0.2614533040142335 -0.026100243925489219 0 -0.27605249539329402 -0.020182623525884961 0 -0.27543406506616952 -0.032733810113294397 0 -0.2614533040142335 -0.026100243925489219 0 -0.27605249539329402 -0.020182623525884961 0 -0.26651812489744758 -0.012670075218597769 0 -0.27605249539329402 -0.020182623525884961 0 -0.28963048317227619 -0.02343074857615076 0 -0.27543406506616952 -0.032733810113294397 0 -0.26651812489744758 -0.012670075218597769 0 -0.27552286681388138 -0.0074242596822056174 0 -0.27339990125571778 0.0059396664209166641 0 -0.27605249539329402 -0.020182623525884961 0 -0.26651812489744758 -0.012670075218597769 0 -0.27552286681388138 -0.0074242596822056174 0 -0.27605249539329402 -0.020182623525884961 0 -0.27552286681388138 -0.0074242596822056174 0 -0.28859698124121203 -0.005712966606426703 0 -0.27552286681388138 -0.0074242596822056174 0 -0.28859698124121203 -0.005712966606426703 0 -0.27339990125571778 0.0059396664209166641 0 -0.28859698124121203 -0.005712966606426703 0 -0.30221028477068612 -0.0038103016475589929 0 -0.29426279159128288 0.0067237075994722303 0 -0.28859698124121203 -0.005712966606426703 0 -0.28963048317227619 -0.02343074857615076 0 -0.30273873485914921 -0.018625979468071659 0 -0.28963048317227619 -0.02343074857615076 0 -0.2912546860574865 -0.037495067842129533 0 -0.27543406506616952 -0.032733810113294397 0 -0.27605249539329402 -0.020182623525884961 0 -0.28859698124121203 -0.005712966606426703 0 -0.28963048317227619 -0.02343074857615076 0 -0.28963048317227619 -0.02343074857615076 0 -0.30621511458802952 -0.031556978655610239 0 -0.2912546860574865 -0.037495067842129533 0 -0.30273873485914921 -0.018625979468071659 0 -0.30621511458802952 -0.031556978655610239 0 -0.31976193234152389 -0.024969991081554951 0 -0.28963048317227619 -0.02343074857615076 0 -0.30273873485914921 -0.018625979468071659 0 -0.30621511458802952 -0.031556978655610239 0 -0.30273873485914921 -0.018625979468071659 0 -0.30221028477068612 -0.0038103016475589929 0 -0.31761660941157371 -0.0078205932402375875 0 -0.30221028477068612 -0.0038103016475589929 0 -0.31761660941157371 -0.0078205932402375875 0 -0.31178167793527611 0.0079382695773918301 0 -0.28859698124121203 -0.005712966606426703 0 -0.30273873485914921 -0.018625979468071659 0 -0.30221028477068612 -0.0038103016475589929 0 -0.30361146163774999 -0.046062765195998577 0 -0.31163207279374161 -0.066371606409456038 0 -0.31860592696613549 -0.041397249584816977 0 -0.30361146163774999 -0.046062765195998577 0 -0.29553350823047259 -0.056206863230729813 0 -0.31163207279374161 -0.066371606409456038 0 -0.30621511458802952 -0.031556978655610239 0 -0.30361146163774999 -0.046062765195998577 0 -0.31860592696613549 -0.041397249584816977 0 -0.30621511458802952 -0.031556978655610239 0 -0.30361146163774999 -0.046062765195998577 0 -0.2912546860574865 -0.037495067842129533 0 -0.2912546860574865 -0.037495067842129533 0 -0.27543406506616952 -0.032733810113294397 0 -0.27742096008624179 -0.046403561573705281 0 -0.30361146163774999 -0.046062765195998577 0 -0.2912546860574865 -0.037495067842129533 0 -0.29083778339346361 -0.048605613751877462 0 -0.2912546860574865 -0.037495067842129533 0 -0.29083778339346361 -0.048605613751877462 0 -0.27742096008624179 -0.046403561573705281 0 -0.29083778339346361 -0.048605613751877462 0 -0.28587819647944868 -0.056130214804040512 0 -0.27742096008624179 -0.046403561573705281 0 -0.30361146163774999 -0.046062765195998577 0 -0.29083778339346361 -0.048605613751877462 0 -0.29553350823047259 -0.056206863230729813 0 -0.29083778339346361 -0.048605613751877462 0 -0.29553350823047259 -0.056206863230729813 0 -0.28587819647944868 -0.056130214804040512 0 -0.29553350823047259 -0.056206863230729813 0 -0.28430631765813352 -0.06581389322370243 0 -0.28587819647944868 -0.056130214804040512 0 -0.27701870199892609 -0.057259064136714638 0 -0.28430631765813352 -0.06581389322370243 0 -0.29553350823047259 -0.056206863230729813 0 -0.28587819647944868 -0.056130214804040512 0 -0.28430631765813352 -0.06581389322370243 0 -0.27701870199892609 -0.057259064136714638 0 -0.26860532353186611 -0.051981251007210003 0 -0.27742096008624179 -0.046403561573705281 0 -0.28587819647944868 -0.056130214804040512 0 -0.27701870199892609 -0.057259064136714638 0 -0.27742096008624179 -0.046403561573705281 0 -0.27701870199892609 -0.057259064136714638 0 -0.26860532353186611 -0.051981251007210003 0 -0.26974934440834603 -0.065516788317150174 0 -0.26860532353186611 -0.051981251007210003 0 -0.27742096008624179 -0.046403561573705281 0 -0.26314671168247711 -0.040400290774774222 0 -0.27543406506616952 -0.032733810113294397 0 -0.27742096008624179 -0.046403561573705281 0 -0.26314671168247711 -0.040400290774774222 0 -0.2614533040142335 -0.026100243925489219 0 -0.27543406506616952 -0.032733810113294397 0 -0.26314671168247711 -0.040400290774774222 0 -0.2416324545583344 -0.035136312150260599 0 -0.2614533040142335 -0.026100243925489219 0 -0.26314671168247711 -0.040400290774774222 0 -0.2416324545583344 -0.035136312150260599 0 -0.26314671168247711 -0.040400290774774222 0 -0.25569089948334028 -0.050326550233705233 0 -0.24358588208205151 -0.06498279729468999 0 -0.25569089948334028 -0.050326550233705233 0 -0.26974934440834603 -0.065516788317150174 0 -0.25569089948334028 -0.050326550233705233 0 -0.26974934440834603 -0.065516788317150174 0 -0.26860532353186611 -0.051981251007210003 0 -0.25569089948334028 -0.050326550233705233 0 -0.26974934440834603 -0.065516788317150174 0 -0.26860532353186611 -0.051981251007210003 0 -0.26314671168247711 -0.040400290774774222 0 -0.25569089948334028 -0.050326550233705233 0 -0.24358588208205151 -0.06498279729468999 0 -0.26974934440834603 -0.065516788317150174 0 -0.24358588208205151 -0.06498279729468999 0 -0.25746478862091149 -0.07365324142992212 0 -0.26974934440834603 -0.065516788317150174 0 -0.24498438228203151 -0.078772612339773757 0 -0.25746478862091149 -0.07365324142992212 0 -0.2572300318251125 -0.088982885361147013 0 -0.25746478862091149 -0.07365324142992212 0 -0.2572300318251125 -0.088982885361147013 0 -0.27633616956984219 -0.072633894295152157 0 -0.2572300318251125 -0.088982885361147013 0 -0.27633616956984219 -0.072633894295152157 0 -0.2572300318251125 -0.088982885361147013 0 -0.27598558345852697 -0.087346929912152121 0 -0.2779521976078364 -0.1011243649948342 0 -0.2572300318251125 -0.088982885361147013 0 -0.27598558345852697 -0.087346929912152121 0 -0.27633616956984219 -0.072633894295152157 0 -0.27598558345852697 -0.087346929912152121 0 -0.27633616956984219 -0.072633894295152157 0 -0.29071623381593559 -0.08817164407605986 0 -0.25746478862091149 -0.07365324142992212 0 -0.27633616956984219 -0.072633894295152157 0 -0.26974934440834603 -0.065516788317150174 0 -0.26974934440834603 -0.065516788317150174 0 -0.28430631765813352 -0.06581389322370243 0 -0.27633616956984219 -0.072633894295152157 0 -0.28430631765813352 -0.06581389322370243 0 -0.27701870199892609 -0.057259064136714638 0 -0.26974934440834603 -0.065516788317150174 0 -0.28430631765813352 -0.06581389322370243 0 -0.27633616956984219 -0.072633894295152157 0 -0.26974934440834603 -0.065516788317150174 0 -0.28430631765813352 -0.06581389322370243 0 -0.27633616956984219 -0.072633894295152157 0 -0.26974934440834603 -0.065516788317150174 0 -0.24811226901631339 -0.119687531806331 0 -0.26057096435407312 -0.1101978935494649 0 -0.26218403780585953 -0.12807797417963801 0 -0.2572300318251125 -0.088982885361147013 0 -0.26057096435407312 -0.1101978935494649 0 -0.2779521976078364 -0.1011243649948342 0 -0.23812389408038651 -0.1053318764271461 0 -0.2572300318251125 -0.088982885361147013 0 -0.26057096435407312 -0.1101978935494649 0 -0.26057096435407312 -0.1101978935494649 0 -0.2779521976078364 -0.1011243649948342 0 -0.27427643973227828 -0.11646892779542101 0 -0.26057096435407312 -0.1101978935494649 0 -0.27427643973227828 -0.11646892779542101 0 -0.26218403780585953 -0.12807797417963801 0 -0.2779521976078364 -0.1011243649948342 0 -0.27427643973227828 -0.11646892779542101 0 -0.28905055600313911 -0.1118647656252728 0 -0.28905055600313911 -0.1118647656252728 0 -0.28162444289048372 -0.1310796406278949 0 -0.29508574295850032 -0.1200674532463958 0 -0.28905055600313911 -0.1118647656252728 0 -0.28162444289048372 -0.1310796406278949 0 -0.27427643973227828 -0.11646892779542101 0 -0.28905055600313911 -0.1118647656252728 0 -0.28162444289048372 -0.1310796406278949 0 -0.29508574295850032 -0.1200674532463958 0 -0.28905055600313911 -0.1118647656252728 0 -0.29916735151461882 -0.1113231707207552 0 -0.29391239110271372 -0.10395852116390331 0 -0.30509629806202909 -0.10370939385696749 0 -0.29071623381593559 -0.08817164407605986 0 -0.2779521976078364 -0.1011243649948342 0 -0.29391239110271372 -0.10395852116390331 0 -0.29071623381593559 -0.08817164407605986 0 -0.2779521976078364 -0.1011243649948342 0 -0.28905055600313911 -0.1118647656252728 0 -0.29391239110271372 -0.10395852116390331 0 -0.28905055600313911 -0.1118647656252728 0 -0.29391239110271372 -0.10395852116390331 0 -0.29916735151461882 -0.1113231707207552 0 -0.30509629806202909 -0.10370939385696749 0 -0.29071623381593559 -0.08817164407605986 0 -0.30509629806202909 -0.10370939385696749 0 -0.29071623381593559 -0.08817164407605986 0 -0.30331118822591108 -0.090584581033960485 0 -0.30509629806202909 -0.10370939385696749 0 -0.30331118822591108 -0.090584581033960485 0 -0.31286614242780331 -0.096496582272739342 0 -0.30509629806202909 -0.10370939385696749 0 -0.31598909753521148 -0.1068134200366838 0 -0.31286614242780331 -0.096496582272739342 0 -0.30509629806202909 -0.10370939385696749 0 -0.30854704302651731 -0.10905526586489731 0 -0.30255282467753403 -0.1077658280485416 0 -0.29391239110271372 -0.10395852116390331 0 -0.30255282467753403 -0.1077658280485416 0 -0.29916735151461882 -0.1113231707207552 0 -0.29391239110271372 -0.10395852116390331 0 -0.30509629806202909 -0.10370939385696749 0 -0.30255282467753403 -0.1077658280485416 0 -0.29508574295850032 -0.1200674532463958 0 -0.30854704302651731 -0.10905526586489731 0 -0.3073366122570147 -0.12130927669385359 0 -0.29508574295850032 -0.1200674532463958 0 -0.30854704302651731 -0.10905526586489731 0 -0.29508574295850032 -0.1200674532463958 0 -0.30854704302651731 -0.10905526586489731 0 -0.29916735151461882 -0.1113231707207552 0 -0.30854704302651731 -0.10905526586489731 0 -0.30255282467753403 -0.1077658280485416 0 -0.29916735151461882 -0.1113231707207552 0 -0.30854704302651731 -0.10905526586489731 0 -0.31159946338419042 -0.11664942742870781 0 -0.3073366122570147 -0.12130927669385359 0 -0.30509629806202909 -0.10370939385696749 0 -0.31947636230812271 -0.1192471436378751 0 -0.30509629806202909 -0.10370939385696749 0 -0.30854704302651731 -0.10905526586489731 0 -0.31947636230812271 -0.1192471436378751 0 -0.31159946338419042 -0.11664942742870781 0 -0.3073366122570147 -0.12130927669385359 0 -0.31345332753640731 -0.12147112793790669 0 -0.3073366122570147 -0.12130927669385359 0 -0.31345332753640731 -0.12147112793790669 0 -0.31455481087970177 -0.12756096835710801 0 -0.29508574295850032 -0.1200674532463958 0 -0.3073366122570147 -0.12130927669385359 0 -0.30252173833898133 -0.12816764028315061 0 -0.27633616956984219 -0.072633894295152157 0 -0.28430631765813352 -0.06581389322370243 0 -0.29644432012255778 -0.078276932542846858 0 -0.27633616956984219 -0.072633894295152157 0 -0.29071623381593559 -0.08817164407605986 0 -0.29644432012255778 -0.078276932542846858 0 -0.27633616956984219 -0.072633894295152157 0 -0.29071623381593559 -0.08817164407605986 0 -0.27598558345852697 -0.087346929912152121 0 -0.2779521976078364 -0.1011243649948342 0 -0.29071623381593559 -0.08817164407605986 0 -0.29071623381593559 -0.08817164407605986 0 -0.29644432012255778 -0.078276932542846858 0 -0.30331118822591108 -0.090584581033960485 0 -0.29644432012255778 -0.078276932542846858 0 -0.30331118822591108 -0.090584581033960485 0 -0.31329493064233632 -0.085903600016310713 0 -0.30331118822591108 -0.090584581033960485 0 -0.31329493064233632 -0.085903600016310713 0 -0.31286614242780331 -0.096496582272739342 0 -0.28430631765813352 -0.06581389322370243 0 -0.31163207279374161 -0.066371606409456038 0 -0.29644432012255778 -0.078276932542846858 0 -0.31163207279374161 -0.066371606409456038 0 -0.31329493064233632 -0.085903600016310713 0 -0.28430631765813352 -0.06581389322370243 0 -0.29644432012255778 -0.078276932542846858 0 -0.31163207279374161 -0.066371606409456038 0 -0.29553350823047259 -0.056206863230729813 0 -0.28430631765813352 -0.06581389322370243 0 -0.31163207279374161 -0.066371606409456038 0 -0.31163207279374161 -0.066371606409456038 0 -0.33895782792934981 -0.066929319595209397 0 -0.31163207279374161 -0.066371606409456038 0 -0.33120858652940882 -0.086420613659806508 0 -0.33895782792934981 -0.066929319595209397 0 -0.31163207279374161 -0.066371606409456038 0 -0.31329493064233632 -0.085903600016310713 0 -0.33120858652940882 -0.086420613659806508 0 -0.31329493064233632 -0.085903600016310713 0 -0.33120858652940882 -0.086420613659806508 0 -0.32276966844357091 -0.094612782590342573 0 -0.31329493064233632 -0.085903600016310713 0 -0.31286614242780331 -0.096496582272739342 0 -0.32276966844357091 -0.094612782590342573 0 -0.33120858652940882 -0.086420613659806508 0 -0.34889155871829619 -0.101241906645406 0 -0.34911617959364349 -0.082669308524273649 0 -0.33120858652940882 -0.086420613659806508 0 -0.33895782792934981 -0.066929319595209397 0 -0.34911617959364349 -0.082669308524273649 0 -0.3259849524932365 -0.1180184893402049 0 -0.31947636230812271 -0.1192471436378751 0 -0.32393680484808818 -0.1259651936514837 0 -0.31947636230812271 -0.1192471436378751 0 -0.32393680484808818 -0.1259651936514837 0 -0.31455481087970177 -0.12756096835710801 0 -0.31947636230812271 -0.1192471436378751 0 -0.31345332753640731 -0.12147112793790669 0 -0.31455481087970177 -0.12756096835710801 0 -0.31159946338419042 -0.11664942742870781 0 -0.31947636230812271 -0.1192471436378751 0 -0.31345332753640731 -0.12147112793790669 0 -0.30854704302651731 -0.10905526586489731 0 -0.31159946338419042 -0.11664942742870781 0 -0.31947636230812271 -0.1192471436378751 0 -0.31947636230812271 -0.1192471436378751 0 -0.32220682420184199 -0.11084258345077 0 -0.31598909753521148 -0.1068134200366838 0 -0.30509629806202909 -0.10370939385696749 0 -0.31947636230812271 -0.1192471436378751 0 -0.31598909753521148 -0.1068134200366838 0 -0.3259849524932365 -0.1180184893402049 0 -0.32220682420184199 -0.11084258345077 0 -0.33422478658787919 -0.1072124489213908 0 -0.3259849524932365 -0.1180184893402049 0 -0.31947636230812271 -0.1192471436378751 0 -0.32220682420184199 -0.11084258345077 0 -0.32220682420184199 -0.11084258345077 0 -0.32029986067626048 -0.10377139696506731 0 -0.33422478658787919 -0.1072124489213908 0 -0.32029986067626048 -0.10377139696506731 0 -0.32276966844357091 -0.094612782590342573 0 -0.33422478658787919 -0.1072124489213908 0 -0.31598909753521148 -0.1068134200366838 0 -0.32029986067626048 -0.10377139696506731 0 -0.31286614242780331 -0.096496582272739342 0 -0.32220682420184199 -0.11084258345077 0 -0.31598909753521148 -0.1068134200366838 0 -0.32029986067626048 -0.10377139696506731 0 -0.32029986067626048 -0.10377139696506731 0 -0.31286614242780331 -0.096496582272739342 0 -0.32276966844357091 -0.094612782590342573 0 -0.33120858652940882 -0.086420613659806508 0 -0.33422478658787919 -0.1072124489213908 0 -0.34889155871829619 -0.101241906645406 0 -0.33120858652940882 -0.086420613659806508 0 -0.32276966844357091 -0.094612782590342573 0 -0.33422478658787919 -0.1072124489213908 0 -0.3259849524932365 -0.1180184893402049 0 -0.33422478658787919 -0.1072124489213908 0 -0.35262752803816039 -0.1267716565727782 0 -0.3259849524932365 -0.1180184893402049 0 -0.35262752803816039 -0.1267716565727782 0 -0.33422478658787919 -0.1072124489213908 0 -0.34889155871829619 -0.101241906645406 0 -0.35262752803816039 -0.1267716565727782 0 -0.34889155871829619 -0.101241906645406 0 -0.37365237339188878 -0.1093814201311714 0 -0.35262752803816039 -0.1267716565727782 0 -0.34889155871829619 -0.101241906645406 0 -0.37365237339188878 -0.1093814201311714 0 -0.363962075431983 -0.091238694110226726 0 -0.37365237339188878 -0.1093814201311714 0 -0.363962075431983 -0.091238694110226726 0 -0.38069659487589969 -0.083386290856578296 0 -0.37365237339188878 -0.1093814201311714 0 -0.35262752803816039 -0.1267716565727782 0 -0.37927010358308422 -0.13552482380535141 0 -0.33895782792934981 -0.066929319595209397 0 -0.36628358306495801 -0.067487032780962769 0 -0.33895782792934981 -0.066929319595209397 0 -0.34911617959364349 -0.082669308524273649 0 -0.36628358306495801 -0.067487032780962769 0 -0.34889155871829619 -0.101241906645406 0 -0.34911617959364349 -0.082669308524273649 0 -0.363962075431983 -0.091238694110226726 0 -0.363962075431983 -0.091238694110226726 0 -0.36628358306495801 -0.067487032780962769 0 -0.38069659487589969 -0.083386290856578296 0 -0.34911617959364349 -0.082669308524273649 0 -0.363962075431983 -0.091238694110226726 0 -0.36628358306495801 -0.067487032780962769 0 -0.36628358306495801 -0.067487032780962769 0 -0.36820110178471371 -0.045830346327097898 0 -0.38021302720900269 -0.054705174340087717 0 -0.36628358306495801 -0.067487032780962769 0 -0.35255801491772648 -0.050470787294659897 0 -0.36820110178471371 -0.045830346327097898 0 -0.33895782792934981 -0.066929319595209397 0 -0.36628358306495801 -0.067487032780962769 0 -0.35255801491772648 -0.050470787294659897 0 -0.35255801491772648 -0.050470787294659897 0 -0.36241414331514249 -0.033271397803956868 0 -0.33939061828920958 -0.034330157081808782 0 -0.35255801491772648 -0.050470787294659897 0 -0.36241414331514249 -0.033271397803956868 0 -0.36820110178471371 -0.045830346327097898 0 -0.36241414331514249 -0.033271397803956868 0 -0.36820110178471371 -0.045830346327097898 0 -0.37858806660976912 -0.035393957434020032 0 -0.36241414331514249 -0.033271397803956868 0 -0.3778068007713748 -0.019224426864014928 0 -0.37858806660976912 -0.035393957434020032 0 -0.36241414331514249 -0.033271397803956868 0 -0.35736935107421253 -0.015327748436734311 0 -0.3778068007713748 -0.019224426864014928 0 -0.36904092926483728 -0.0062125949297039051 0 -0.35736935107421253 -0.015327748436734311 0 -0.3778068007713748 -0.019224426864014928 0 -0.36904092926483728 -0.0062125949297039051 0 -0.35736935107421253 -0.015327748436734311 0 -0.35532249334114191 0.0025662737979994018 0 -0.35736935107421253 -0.015327748436734311 0 -0.33696301852542232 -0.01236928417653935 0 -0.35532249334114191 0.0025662737979994018 0 -0.35736935107421253 -0.015327748436734311 0 -0.33696301852542232 -0.01236928417653935 0 -0.33939061828920958 -0.034330157081808782 0 -0.36241414331514249 -0.033271397803956868 0 -0.35736935107421253 -0.015327748436734311 0 -0.33939061828920958 -0.034330157081808782 0 -0.33696301852542232 -0.01236928417653935 0 -0.31976193234152389 -0.024969991081554951 0 -0.33939061828920958 -0.034330157081808782 0 -0.33696301852542232 -0.01236928417653935 0 -0.33224400803738457 0.0049137273549076056 0 -0.35532249334114191 0.0025662737979994018 0 -0.33696301852542232 -0.01236928417653935 0 -0.31761660941157371 -0.0078205932402375875 0 -0.33224400803738457 0.0049137273549076056 0 -0.33696301852542232 -0.01236928417653935 0 -0.31761660941157371 -0.0078205932402375875 0 -0.31976193234152389 -0.024969991081554951 0 -0.30273873485914921 -0.018625979468071659 0 -0.31761660941157371 -0.0078205932402375875 0 -0.31976193234152389 -0.024969991081554951 0 -0.31976193234152389 -0.024969991081554951 0 -0.31860592696613549 -0.041397249584816977 0 -0.33939061828920958 -0.034330157081808782 0 -0.30621511458802952 -0.031556978655610239 0 -0.31976193234152389 -0.024969991081554951 0 -0.31860592696613549 -0.041397249584816977 0 -0.31163207279374161 -0.066371606409456038 0 -0.31860592696613549 -0.041397249584816977 0 -0.33193175506746841 -0.051228633764206902 0 -0.31163207279374161 -0.066371606409456038 0 -0.33895782792934981 -0.066929319595209397 0 -0.33193175506746841 -0.051228633764206902 0 -0.33895782792934981 -0.066929319595209397 0 -0.35255801491772648 -0.050470787294659897 0 -0.33193175506746841 -0.051228633764206902 0 -0.31860592696613549 -0.041397249584816977 0 -0.33193175506746841 -0.051228633764206902 0 -0.33939061828920958 -0.034330157081808782 0 -0.35255801491772648 -0.050470787294659897 0 -0.33193175506746841 -0.051228633764206902 0 -0.33939061828920958 -0.034330157081808782 0 -0.30291655559428737 -0.23943596251536489 0 -0.31519365684789402 -0.22814670847905641 0 -0.31258572357348707 -0.24620079465722061 0 -0.29979584939405929 -0.2535686853433215 0 -0.30291655559428737 -0.23943596251536489 0 -0.29304378587810098 -0.24519285983212741 0 -0.29979584939405929 -0.2535686853433215 0 -0.30291655559428737 -0.23943596251536489 0 -0.31258572357348707 -0.24620079465722061 0 -0.30291655559428737 -0.23943596251536489 0 -0.29979224147323202 -0.22642854610480989 0 -0.31519365684789402 -0.22814670847905641 0 -0.29979224147323202 -0.22642854610480989 0 -0.30508767911287837 -0.21571967473133319 0 -0.31519365684789402 -0.22814670847905641 0 -0.29979224147323202 -0.22642854610480989 0 -0.2958573268640291 -0.21639350123342621 0 -0.30508767911287837 -0.21571967473133319 0 -0.30291655559428737 -0.23943596251536489 0 -0.29979224147323202 -0.22642854610480989 0 -0.29321187228724338 -0.23575230425717361 0 -0.29979224147323202 -0.22642854610480989 0 -0.28648635813305973 -0.22312312541250581 0 -0.29321187228724338 -0.23575230425717361 0 -0.29979224147323202 -0.22642854610480989 0 -0.28648635813305973 -0.22312312541250581 0 -0.2958573268640291 -0.21639350123342621 0 -0.28648635813305973 -0.22312312541250581 0 -0.29321187228724338 -0.23575230425717361 0 -0.28103395339116072 -0.23652866974448319 0 -0.29321187228724338 -0.23575230425717361 0 -0.29304378587810098 -0.24519285983212741 0 -0.28103395339116072 -0.23652866974448319 0 -0.30291655559428737 -0.23943596251536489 0 -0.29321187228724338 -0.23575230425717361 0 -0.29304378587810098 -0.24519285983212741 0 -0.28518716776289688 -0.25145844467286299 0 -0.29304378587810098 -0.24519285983212741 0 -0.28103395339116072 -0.23652866974448319 0 -0.27362796391945138 -0.24879504023949131 0 -0.28103395339116072 -0.23652866974448319 0 -0.25883125425809528 -0.24231024443891411 0 -0.28518716776289688 -0.25145844467286299 0 -0.27362796391945138 -0.24879504023949131 0 -0.28103395339116072 -0.23652866974448319 0 -0.2493694927029185 -0.23411674201777771 0 -0.24501988422530691 -0.2470038165003057 0 -0.25883125425809528 -0.24231024443891411 0 -0.2493694927029185 -0.23411674201777771 0 -0.25883125425809528 -0.24231024443891411 0 -0.257880534614293 -0.22473887084828351 0 -0.25883125425809528 -0.24231024443891411 0 -0.257880534614293 -0.22473887084828351 0 -0.27338948844648853 -0.2230487022096794 0 -0.24362466521327009 -0.22164896784257609 0 -0.2493694927029185 -0.23411674201777771 0 -0.257880534614293 -0.22473887084828351 0 -0.25883125425809528 -0.24231024443891411 0 -0.27338948844648853 -0.2230487022096794 0 -0.28103395339116072 -0.23652866974448319 0 -0.25883125425809528 -0.24231024443891411 0 -0.27338948844648853 -0.2230487022096794 0 -0.257880534614293 -0.22473887084828351 0 -0.27338948844648853 -0.2230487022096794 0 -0.2746774702521011 -0.2088709721787948 0 -0.28648635813305973 -0.22312312541250581 0 -0.28103395339116072 -0.23652866974448319 0 -0.27338948844648853 -0.2230487022096794 0 -0.257880534614293 -0.22473887084828351 0 -0.2746774702521011 -0.2088709721787948 0 -0.28648635813305973 -0.22312312541250581 0 -0.27338948844648853 -0.2230487022096794 0 -0.2746774702521011 -0.2088709721787948 0 -0.24362466521327009 -0.22164896784257609 0 -0.257880534614293 -0.22473887084828351 0 -0.2530345308819047 -0.2050552961622388 0 -0.257880534614293 -0.22473887084828351 0 -0.2746774702521011 -0.2088709721787948 0 -0.2530345308819047 -0.2050552961622388 0 -0.2530345308819047 -0.2050552961622388 0 -0.27338700268340638 -0.19341712140274239 0 -0.26256450155143118 -0.18039674431745761 0 -0.2530345308819047 -0.2050552961622388 0 -0.26256450155143118 -0.18039674431745761 0 -0.24226769848796639 -0.1859276248743105 0 -0.2530345308819047 -0.2050552961622388 0 -0.26256450155143118 -0.18039674431745761 0 -0.2746774702521011 -0.2088709721787948 0 -0.27338700268340638 -0.19341712140274239 0 -0.29147440588990919 -0.19300307350930609 0 -0.2746774702521011 -0.2088709721787948 0 -0.2530345308819047 -0.2050552961622388 0 -0.27338700268340638 -0.19341712140274239 0 -0.29147440588990919 -0.19300307350930609 0 -0.28956689947314168 -0.20922216764449761 0 -0.29933893622660929 -0.20472016588845521 0 -0.2746774702521011 -0.2088709721787948 0 -0.29147440588990919 -0.19300307350930609 0 -0.27338700268340638 -0.19341712140274239 0 -0.29147440588990919 -0.19300307350930609 0 -0.27890775966268178 -0.1785883143527825 0 -0.2746774702521011 -0.2088709721787948 0 -0.29147440588990919 -0.19300307350930609 0 -0.28956689947314168 -0.20922216764449761 0 -0.28648635813305973 -0.22312312541250581 0 -0.2746774702521011 -0.2088709721787948 0 -0.28956689947314168 -0.20922216764449761 0 -0.28648635813305973 -0.22312312541250581 0 -0.2958573268640291 -0.21639350123342621 0 -0.28956689947314168 -0.20922216764449761 0 -0.2958573268640291 -0.21639350123342621 0 -0.28956689947314168 -0.20922216764449761 0 -0.29933893622660929 -0.20472016588845521 0 -0.30508767911287837 -0.21571967473133319 0 -0.31173249918780688 -0.20264094165943711 0 -0.31519365684789402 -0.22814670847905641 0 -0.2958573268640291 -0.21639350123342621 0 -0.29933893622660929 -0.20472016588845521 0 -0.30508767911287837 -0.21571967473133319 0 -0.29933893622660929 -0.20472016588845521 0 -0.30508767911287837 -0.21571967473133319 0 -0.31173249918780688 -0.20264094165943711 0 -0.31173249918780688 -0.20264094165943711 0 -0.30270429570801088 -0.1943748389742542 0 -0.30827134152771818 -0.17713517483981819 0 -0.29147440588990919 -0.19300307350930609 0 -0.30270429570801088 -0.1943748389742542 0 -0.30827134152771818 -0.17713517483981819 0 -0.31173249918780688 -0.20264094165943711 0 -0.30827134152771818 -0.17713517483981819 0 -0.29933893622660929 -0.20472016588845521 0 -0.31173249918780688 -0.20264094165943711 0 -0.30270429570801088 -0.1943748389742542 0 -0.29147440588990919 -0.19300307350930609 0 -0.29933893622660929 -0.20472016588845521 0 -0.30270429570801088 -0.1943748389742542 0 -0.29147440588990919 -0.19300307350930609 0 -0.30827134152771818 -0.17713517483981819 0 -0.29448789143593912 -0.17322581266432219 0 -0.29147440588990919 -0.19300307350930609 0 -0.30827134152771818 -0.17713517483981819 0 -0.30827134152771818 -0.17713517483981819 0 -0.30650137059848082 -0.1640920054057082 0 -0.31445228326054142 -0.1595575062830622 0 -0.30827134152771818 -0.17713517483981819 0 -0.30650137059848082 -0.1640920054057082 0 -0.30650137059848082 -0.1640920054057082 0 -0.30532083341547162 -0.15435947977559231 0 -0.31445228326054142 -0.1595575062830622 0 -0.30650137059848082 -0.1640920054057082 0 -0.29571930449124229 -0.16007586815112279 0 -0.30532083341547162 -0.15435947977559231 0 -0.30650137059848082 -0.1640920054057082 0 -0.29571930449124229 -0.16007586815112279 0 -0.29448789143593912 -0.17322581266432219 0 -0.30827134152771818 -0.17713517483981819 0 -0.30650137059848082 -0.1640920054057082 0 -0.29448789143593912 -0.17322581266432219 0 -0.29571930449124229 -0.16007586815112279 0 -0.28584254956732458 -0.1659036854320243 0 -0.29448789143593912 -0.17322581266432219 0 -0.29571930449124229 -0.16007586815112279 0 -0.28584254956732458 -0.1659036854320243 0 -0.28695880474096658 -0.15452986005270339 0 -0.28584254956732458 -0.1659036854320243 0 -0.27209447222095767 -0.1557381924726764 0 -0.28695880474096658 -0.15452986005270339 0 -0.29147440588990919 -0.19300307350930609 0 -0.29448789143593912 -0.17322581266432219 0 -0.27890775966268178 -0.1785883143527825 0 -0.28584254956732458 -0.1659036854320243 0 -0.29448789143593912 -0.17322581266432219 0 -0.27890775966268178 -0.1785883143527825 0 -0.27338700268340638 -0.19341712140274239 0 -0.27890775966268178 -0.1785883143527825 0 -0.26256450155143118 -0.18039674431745761 0 -0.24648081103591499 -0.17392347890994209 0 -0.24226769848796639 -0.1859276248743105 0 -0.26256450155143118 -0.18039674431745761 0 -0.24648081103591499 -0.17392347890994209 0 -0.24876130621980161 -0.157963746704779 0 -0.26256450155143118 -0.18039674431745761 0 -0.24876130621980161 -0.157963746704779 0 -0.26256450155143118 -0.18039674431745761 0 -0.27209447222095767 -0.1557381924726764 0 -0.27890775966268178 -0.1785883143527825 0 -0.26256450155143118 -0.18039674431745761 0 -0.27209447222095767 -0.1557381924726764 0 -0.28584254956732458 -0.1659036854320243 0 -0.27890775966268178 -0.1785883143527825 0 -0.27209447222095767 -0.1557381924726764 0 -0.26256450155143118 -0.18039674431745761 0 -0.27209447222095767 -0.1557381924726764 0 -0.27209447222095767 -0.1557381924726764 0 -0.28162444289048372 -0.1310796406278949 0 -0.28617865015002703 -0.14472789066139979 0 -0.27209447222095767 -0.1557381924726764 0 -0.2651928745551424 -0.14452169366633669 0 -0.28162444289048372 -0.1310796406278949 0 -0.27209447222095767 -0.1557381924726764 0 -0.28162444289048372 -0.1310796406278949 0 -0.24876130621980161 -0.157963746704779 0 -0.2651928745551424 -0.14452169366633669 0 -0.24876130621980161 -0.157963746704779 0 -0.2651928745551424 -0.14452169366633669 0 -0.25026186283696461 -0.14235720573963881 0 -0.24876130621980161 -0.157963746704779 0 -0.27209447222095767 -0.1557381924726764 0 -0.2651928745551424 -0.14452169366633669 0 -0.2651928745551424 -0.14452169366633669 0 -0.25026186283696461 -0.14235720573963881 0 -0.26218403780585953 -0.12807797417963801 0 -0.2470327450431076 -0.1306924886745969 0 -0.24811226901631339 -0.119687531806331 0 -0.26218403780585953 -0.12807797417963801 0 -0.2470327450431076 -0.1306924886745969 0 -0.25026186283696461 -0.14235720573963881 0 -0.26218403780585953 -0.12807797417963801 0 -0.2651928745551424 -0.14452169366633669 0 -0.28162444289048372 -0.1310796406278949 0 -0.27427643973227828 -0.11646892779542101 0 -0.26218403780585953 -0.12807797417963801 0 -0.28162444289048372 -0.1310796406278949 0 -0.2651928745551424 -0.14452169366633669 0 -0.26218403780585953 -0.12807797417963801 0 -0.28162444289048372 -0.1310796406278949 0 -0.29508574295850032 -0.1200674532463958 0 -0.28162444289048372 -0.1310796406278949 0 -0.29508574295850032 -0.1200674532463958 0 -0.28162444289048372 -0.1310796406278949 0 -0.29501115370845582 -0.1339473945773379 0 -0.28162444289048372 -0.1310796406278949 0 -0.29501115370845582 -0.1339473945773379 0 -0.28617865015002703 -0.14472789066139979 0 -0.27209447222095767 -0.1557381924726764 0 -0.28617865015002703 -0.14472789066139979 0 -0.28695880474096658 -0.15452986005270339 0 -0.28617865015002703 -0.14472789066139979 0 -0.28695880474096658 -0.15452986005270339 0 -0.29520437718927128 -0.1483443655763865 0 -0.29571930449124229 -0.16007586815112279 0 -0.28695880474096658 -0.15452986005270339 0 -0.29520437718927128 -0.1483443655763865 0 -0.29501115370845582 -0.1339473945773379 0 -0.28617865015002703 -0.14472789066139979 0 -0.29520437718927128 -0.1483443655763865 0 -0.29501115370845582 -0.1339473945773379 0 -0.29520437718927128 -0.1483443655763865 0 -0.30505934554050568 -0.14458559242359639 0 -0.29520437718927128 -0.1483443655763865 0 -0.30532083341547162 -0.15435947977559231 0 -0.30505934554050568 -0.14458559242359639 0 -0.29571930449124229 -0.16007586815112279 0 -0.29520437718927128 -0.1483443655763865 0 -0.30532083341547162 -0.15435947977559231 0 -0.30532083341547162 -0.15435947977559231 0 -0.30505934554050568 -0.14458559242359639 0 -0.31421801562324109 -0.1494878874165694 0 -0.30532083341547162 -0.15435947977559231 0 -0.31421801562324109 -0.1494878874165694 0 -0.31445228326054142 -0.1595575062830622 0 -0.30505934554050568 -0.14458559242359639 0 -0.31613738317788559 -0.13917314125009461 0 -0.31421801562324109 -0.1494878874165694 0 -0.30505934554050568 -0.14458559242359639 0 -0.30779907445719179 -0.13505986472908099 0 -0.31613738317788559 -0.13917314125009461 0 -0.30779907445719179 -0.13505986472908099 0 -0.30252173833898133 -0.12816764028315061 0 -0.31455481087970177 -0.12756096835710801 0 -0.3073366122570147 -0.12130927669385359 0 -0.30252173833898133 -0.12816764028315061 0 -0.31455481087970177 -0.12756096835710801 0 -0.29508574295850032 -0.1200674532463958 0 -0.29501115370845582 -0.1339473945773379 0 -0.30252173833898133 -0.12816764028315061 0 -0.29501115370845582 -0.1339473945773379 0 -0.30779907445719179 -0.13505986472908099 0 -0.30252173833898133 -0.12816764028315061 0 -0.29501115370845582 -0.1339473945773379 0 -0.30505934554050568 -0.14458559242359639 0 -0.30779907445719179 -0.13505986472908099 0 -0.3267897132284901 -0.14013498432568439 0 -0.32431655812541849 -0.13224674277154749 0 -0.31613738317788559 -0.13917314125009461 0 -0.32431655812541849 -0.13224674277154749 0 -0.32393680484808818 -0.1259651936514837 0 -0.33535134043396148 -0.13275262415068309 0 -0.32431655812541849 -0.13224674277154749 0 -0.32393680484808818 -0.1259651936514837 0 -0.31455481087970177 -0.12756096835710801 0 -0.32431655812541849 -0.13224674277154749 0 -0.31455481087970177 -0.12756096835710801 0 -0.31613738317788559 -0.13917314125009461 0 -0.30779907445719179 -0.13505986472908099 0 -0.31455481087970177 -0.12756096835710801 0 -0.31613738317788559 -0.13917314125009461 0 -0.31613738317788559 -0.13917314125009461 0 -0.31421801562324109 -0.1494878874165694 0 -0.32056613902975739 -0.14495954593753679 0 -0.31421801562324109 -0.1494878874165694 0 -0.3251194440894129 -0.15104217075779869 0 -0.32056613902975739 -0.14495954593753679 0 -0.31421801562324109 -0.1494878874165694 0 -0.3251194440894129 -0.15104217075779869 0 -0.31445228326054142 -0.1595575062830622 0 -0.3267897132284901 -0.14013498432568439 0 -0.31613738317788559 -0.13917314125009461 0 -0.32056613902975739 -0.14495954593753679 0 -0.3267897132284901 -0.14013498432568439 0 -0.3251194440894129 -0.15104217075779869 0 -0.32056613902975739 -0.14495954593753679 0 -0.3267897132284901 -0.14013498432568439 0 -0.3251194440894129 -0.15104217075779869 0 -0.33415470972184741 -0.14499510742091479 0 -0.3251194440894129 -0.15104217075779869 0 -0.33415470972184741 -0.14499510742091479 0 -0.33654475836263881 -0.15276448278531701 0 -0.3251194440894129 -0.15104217075779869 0 -0.33654475836263881 -0.15276448278531701 0 -0.33046733682649942 -0.15862804010318929 0 -0.33654475836263881 -0.15276448278531701 0 -0.34630492069128521 -0.14720337162492639 0 -0.34474479265010799 -0.1594577564011824 0 -0.33415470972184741 -0.14499510742091479 0 -0.33654475836263881 -0.15276448278531701 0 -0.34630492069128521 -0.14720337162492639 0 -0.33415470972184741 -0.14499510742091479 0 -0.33535134043396148 -0.13275262415068309 0 -0.34630492069128521 -0.14720337162492639 0 -0.3259849524932365 -0.1180184893402049 0 -0.33535134043396148 -0.13275262415068309 0 -0.35262752803816039 -0.1267716565727782 0 -0.3267897132284901 -0.14013498432568439 0 -0.33415470972184741 -0.14499510742091479 0 -0.33535134043396148 -0.13275262415068309 0 -0.3267897132284901 -0.14013498432568439 0 -0.32431655812541849 -0.13224674277154749 0 -0.33535134043396148 -0.13275262415068309 0 -0.3259849524932365 -0.1180184893402049 0 -0.32393680484808818 -0.1259651936514837 0 -0.33535134043396148 -0.13275262415068309 0 -0.33535134043396148 -0.13275262415068309 0 -0.35262752803816039 -0.1267716565727782 0 -0.34630492069128521 -0.14720337162492639 0 -0.35262752803816039 -0.1267716565727782 0 -0.36097563507944541 -0.1456823720086661 0 -0.34630492069128521 -0.14720337162492639 0 -0.35262752803816039 -0.1267716565727782 0 -0.36097563507944541 -0.1456823720086661 0 -0.37927010358308422 -0.13552482380535141 0 -0.35262752803816039 -0.1267716565727782 0 -0.37927010358308422 -0.13552482380535141 0 -0.36097563507944541 -0.1456823720086661 0 -0.35500409746344153 -0.15941686918999959 0 -0.37073442924758893 -0.15707801379747299 0 -0.36097563507944541 -0.1456823720086661 0 -0.37073442924758893 -0.15707801379747299 0 -0.37927010358308422 -0.13552482380535141 0 -0.36097563507944541 -0.1456823720086661 0 -0.34630492069128521 -0.14720337162492639 0 -0.35500409746344153 -0.15941686918999959 0 -0.34630492069128521 -0.14720337162492639 0 -0.34474479265010799 -0.1594577564011824 0 -0.35500409746344153 -0.15941686918999959 0 -0.34474479265010799 -0.1594577564011824 0 -0.34579073846766961 -0.1671573268796559 0 -0.35500409746344153 -0.15941686918999959 0 -0.34579073846766961 -0.1671573268796559 0 -0.35320589097776139 -0.1694324232755732 0 -0.35500409746344153 -0.15941686918999959 0 -0.34579073846766961 -0.1671573268796559 0 -0.35320589097776139 -0.1694324232755732 0 -0.34272188563389161 -0.1778560239196384 0 -0.35320589097776139 -0.1694324232755732 0 -0.35500409746344153 -0.15941686918999959 0 -0.36250584633362221 -0.16615699988313559 0 -0.35500409746344153 -0.15941686918999959 0 -0.36250584633362221 -0.16615699988313559 0 -0.37073442924758893 -0.15707801379747299 0 -0.35320589097776139 -0.1694324232755732 0 -0.36250584633362221 -0.16615699988313559 0 -0.36311660212711261 -0.17404727983561441 0 -0.36250584633362221 -0.16615699988313559 0 -0.37210213588576951 -0.16962847591326699 0 -0.36311660212711261 -0.17404727983561441 0 -0.36250584633362221 -0.16615699988313559 0 -0.37210213588576951 -0.16962847591326699 0 -0.37073442924758893 -0.15707801379747299 0 -0.37210213588576951 -0.16962847591326699 0 -0.3706301096441954 -0.18098887853075199 0 -0.36311660212711261 -0.17404727983561441 0 -0.3706301096441954 -0.18098887853075199 0 -0.36311660212711261 -0.17404727983561441 0 -0.35713902779421419 -0.18402962157534419 0 -0.3706301096441954 -0.18098887853075199 0 -0.35713902779421419 -0.18402962157534419 0 -0.37012204696998618 -0.1941353794421154 0 -0.35320589097776139 -0.1694324232755732 0 -0.36311660212711261 -0.17404727983561441 0 -0.35713902779421419 -0.18402962157534419 0 -0.35320589097776139 -0.1694324232755732 0 -0.35713902779421419 -0.18402962157534419 0 -0.34272188563389161 -0.1778560239196384 0 -0.35713902779421419 -0.18402962157534419 0 -0.34272188563389161 -0.1778560239196384 0 -0.34363375775640997 -0.1921864766865381 0 -0.34272188563389161 -0.1778560239196384 0 -0.33201344192575211 -0.19029621444647329 0 -0.34363375775640997 -0.1921864766865381 0 -0.3319775963927003 -0.1784897027383282 0 -0.32222732257233988 -0.17945435565556531 0 -0.33201344192575211 -0.19029621444647329 0 -0.3319775963927003 -0.1784897027383282 0 -0.34272188563389161 -0.1778560239196384 0 -0.33201344192575211 -0.19029621444647329 0 -0.32876654469789379 -0.1728048025863968 0 -0.3319775963927003 -0.1784897027383282 0 -0.33441496918287877 -0.17223259918940881 0 -0.3319775963927003 -0.1784897027383282 0 -0.33441496918287877 -0.17223259918940881 0 -0.34272188563389161 -0.1778560239196384 0 -0.33441496918287877 -0.17223259918940881 0 -0.34272188563389161 -0.1778560239196384 0 -0.33928841208750271 -0.16741325914593799 0 -0.34474479265010799 -0.1594577564011824 0 -0.34579073846766961 -0.1671573268796559 0 -0.33928841208750271 -0.16741325914593799 0 -0.34579073846766961 -0.1671573268796559 0 -0.34272188563389161 -0.1778560239196384 0 -0.33928841208750271 -0.16741325914593799 0 -0.33654475836263881 -0.15276448278531701 0 -0.34474479265010799 -0.1594577564011824 0 -0.33597921328187019 -0.16062955193792461 0 -0.34474479265010799 -0.1594577564011824 0 -0.33928841208750271 -0.16741325914593799 0 -0.33597921328187019 -0.16062955193792461 0 -0.33597921328187019 -0.16062955193792461 0 -0.33046733682649942 -0.15862804010318929 0 -0.33051823784820211 -0.16659287763771641 0 -0.33654475836263881 -0.15276448278531701 0 -0.33597921328187019 -0.16062955193792461 0 -0.33046733682649942 -0.15862804010318929 0 -0.33046733682649942 -0.15862804010318929 0 -0.33051823784820211 -0.16659287763771641 0 -0.32417503055037272 -0.1621111173971895 0 -0.33928841208750271 -0.16741325914593799 0 -0.33597921328187019 -0.16062955193792461 0 -0.33051823784820211 -0.16659287763771641 0 -0.33441496918287877 -0.17223259918940881 0 -0.33928841208750271 -0.16741325914593799 0 -0.33051823784820211 -0.16659287763771641 0 -0.32876654469789379 -0.1728048025863968 0 -0.33441496918287877 -0.17223259918940881 0 -0.33051823784820211 -0.16659287763771641 0 -0.32876654469789379 -0.1728048025863968 0 -0.33051823784820211 -0.16659287763771641 0 -0.32580877360760208 -0.16885841350173281 0 -0.30827134152771818 -0.17713517483981819 0 -0.32417503055037272 -0.1621111173971895 0 -0.32876654469789379 -0.1728048025863968 0 -0.32580877360760208 -0.16885841350173281 0 -0.32335048377147918 -0.17167898452923189 0 -0.30827134152771818 -0.17713517483981819 0 -0.32417503055037272 -0.1621111173971895 0 -0.31445228326054142 -0.1595575062830622 0 -0.32580877360760208 -0.16885841350173281 0 -0.32335048377147918 -0.17167898452923189 0 -0.32417503055037272 -0.1621111173971895 0 -0.30827134152771818 -0.17713517483981819 0 -0.32335048377147918 -0.17167898452923189 0 -0.32417503055037272 -0.1621111173971895 0 -0.33051823784820211 -0.16659287763771641 0 -0.32580877360760208 -0.16885841350173281 0 -0.32417503055037272 -0.1621111173971895 0 -0.3251194440894129 -0.15104217075779869 0 -0.33046733682649942 -0.15862804010318929 0 -0.32417503055037272 -0.1621111173971895 0 -0.3251194440894129 -0.15104217075779869 0 -0.32417503055037272 -0.1621111173971895 0 -0.31445228326054142 -0.1595575062830622 0 -0.31173249918780688 -0.20264094165943711 0 -0.30827134152771818 -0.17713517483981819 0 -0.32222732257233988 -0.17945435565556531 0 -0.30827134152771818 -0.17713517483981819 0 -0.32335048377147918 -0.17167898452923189 0 -0.32222732257233988 -0.17945435565556531 0 -0.32876654469789379 -0.1728048025863968 0 -0.3319775963927003 -0.1784897027383282 0 -0.32222732257233988 -0.17945435565556531 0 -0.32876654469789379 -0.1728048025863968 0 -0.32335048377147918 -0.17167898452923189 0 -0.32222732257233988 -0.17945435565556531 0 -0.32335048377147918 -0.17167898452923189 0 -0.32222732257233988 -0.17945435565556531 0 -0.33826733751974469 -0.2069102368039954 0 -0.35421010600402142 -0.21918266668943531 0 -0.32218991618550069 -0.22944092440498159 0 -0.32222732257233988 -0.17945435565556531 0 -0.3222086193789202 -0.20444764003027349 0 -0.33201344192575211 -0.19029621444647329 0 -0.31173249918780688 -0.20264094165943711 0 -0.32222732257233988 -0.17945435565556531 0 -0.31871048971011712 -0.2038005320673108 0 -0.32222732257233988 -0.17945435565556531 0 -0.3222086193789202 -0.20444764003027349 0 -0.32222732257233988 -0.17945435565556531 0 -0.3222086193789202 -0.20444764003027349 0 -0.31871048971011712 -0.2038005320673108 0 -0.32222732257233988 -0.17945435565556531 0 -0.31871048971011712 -0.2038005320673108 0 -0.31173249918780688 -0.20264094165943711 0 -0.31519365684789402 -0.22814670847905641 0 -0.31871048971011712 -0.2038005320673108 0 -0.31519365684789402 -0.22814670847905641 0 -0.3222086193789202 -0.20444764003027349 0 -0.32218991618550069 -0.22944092440498159 0 -0.3222086193789202 -0.20444764003027349 0 -0.33826733751974469 -0.2069102368039954 0 -0.32218991618550069 -0.22944092440498159 0 -0.31173249918780688 -0.20264094165943711 0 -0.31871048971011712 -0.2038005320673108 0 -0.31519365684789402 -0.22814670847905641 0 -0.3222086193789202 -0.20444764003027349 0 -0.31871048971011712 -0.2038005320673108 0 -0.31519365684789402 -0.22814670847905641 0 -0.3222086193789202 -0.20444764003027349 0 -0.33826733751974469 -0.2069102368039954 0 -0.33201344192575211 -0.19029621444647329 0 -0.33826733751974469 -0.2069102368039954 0 -0.33201344192575211 -0.19029621444647329 0 -0.34363375775640997 -0.1921864766865381 0 -0.35713902779421419 -0.18402962157534419 0 -0.34363375775640997 -0.1921864766865381 0 -0.35288012664418211 -0.1997980010338537 0 -0.33826733751974469 -0.2069102368039954 0 -0.34363375775640997 -0.1921864766865381 0 -0.35288012664418211 -0.1997980010338537 0 -0.35713902779421419 -0.18402962157534419 0 -0.35288012664418211 -0.1997980010338537 0 -0.37012204696998618 -0.1941353794421154 0 -0.3706301096441954 -0.18098887853075199 0 -0.37012204696998618 -0.1941353794421154 0 -0.37969592877129749 -0.1883392777658591 0 -0.37012204696998618 -0.1941353794421154 0 -0.369269203919948 -0.21721507174144891 0 -0.35421010600402142 -0.21918266668943531 0 -0.37012204696998618 -0.1941353794421154 0 -0.35421010600402142 -0.21918266668943531 0 -0.37012204696998618 -0.1941353794421154 0 -0.369269203919948 -0.21721507174144891 0 -0.37920300044583022 -0.21122282749108351 0 -0.35288012664418211 -0.1997980010338537 0 -0.37012204696998618 -0.1941353794421154 0 -0.35421010600402142 -0.21918266668943531 0 -0.33826733751974469 -0.2069102368039954 0 -0.35288012664418211 -0.1997980010338537 0 -0.35421010600402142 -0.21918266668943531 0 -0.35421010600402142 -0.21918266668943531 0 -0.33829816503805671 -0.24422995393675501 0 -0.369269203919948 -0.21721507174144891 0 -0.35421010600402142 -0.21918266668943531 0 -0.36765677342249647 -0.23026878816453311 0 -0.35421010600402142 -0.21918266668943531 0 -0.36765677342249647 -0.23026878816453311 0 -0.35762634056731191 -0.23985429073558179 0 -0.36765677342249647 -0.23026878816453311 0 -0.37777230567208109 -0.23588663511621119 0 -0.37830349459588442 -0.2238496886657437 0 -0.369269203919948 -0.21721507174144891 0 -0.36765677342249647 -0.23026878816453311 0 -0.37830349459588442 -0.2238496886657437 0 -0.37367033827505741 -0.25148678553651221 0 -0.36944170017256589 -0.24193750494962871 0 -0.3627033311314895 -0.24973241025013371 0 -0.37367033827505741 -0.25148678553651221 0 -0.36944170017256589 -0.24193750494962871 0 -0.37722111196695968 -0.2443961198948002 0 -0.36765677342249647 -0.23026878816453311 0 -0.36944170017256589 -0.24193750494962871 0 -0.37777230567208109 -0.23588663511621119 0 -0.36944170017256589 -0.24193750494962871 0 -0.37777230567208109 -0.23588663511621119 0 -0.37722111196695968 -0.2443961198948002 0 -0.36765677342249647 -0.23026878816453311 0 -0.36944170017256589 -0.24193750494962871 0 -0.35762634056731191 -0.23985429073558179 0 -0.36944170017256589 -0.24193750494962871 0 -0.3627033311314895 -0.24973241025013371 0 -0.35762634056731191 -0.23985429073558179 0 -0.35038968845556839 -0.2503545795214504 0 -0.3627033311314895 -0.24973241025013371 0 -0.35762634056731191 -0.23985429073558179 0 -0.35038968845556839 -0.2503545795214504 0 -0.35762634056731191 -0.23985429073558179 0 -0.33829816503805671 -0.24422995393675501 0 -0.35421010600402142 -0.21918266668943531 0 -0.35762634056731191 -0.23985429073558179 0 -0.33829816503805671 -0.24422995393675501 0 -0.35421010600402142 -0.21918266668943531 0 -0.33829816503805671 -0.24422995393675501 0 -0.32218991618550069 -0.22944092440498159 0 -0.3222086193789202 -0.20444764003027349 0 -0.32218991618550069 -0.22944092440498159 0 -0.31519365684789402 -0.22814670847905641 0 -0.31519365684789402 -0.22814670847905641 0 -0.31258572357348707 -0.24620079465722061 0 -0.31867308332327832 -0.25378710081672701 0 -0.32218991618550069 -0.22944092440498159 0 -0.31519365684789402 -0.22814670847905641 0 -0.32217121299208129 -0.25443420877968947 0 -0.32218991618550069 -0.22944092440498159 0 -0.32217121299208129 -0.25443420877968947 0 -0.33829816503805671 -0.24422995393675501 0 -0.32218991618550069 -0.22944092440498159 0 -0.32217121299208129 -0.25443420877968947 0 -0.31867308332327832 -0.25378710081672701 0 -0.32218991618550069 -0.22944092440498159 0 -0.31867308332327832 -0.25378710081672701 0 -0.31519365684789402 -0.22814670847905641 0 -0.31867308332327832 -0.25378710081672701 0 -0.31519365684789402 -0.22814670847905641 0 -0.31258572357348707 -0.24620079465722061 0 -0.4354576440753809 -0.2535912274846438 0 -0.43065227319688371 -0.23517700916423959 0 -0.40992198791325701 -0.24947417548071479 0 -0.4354576440753809 -0.2535912274846438 0 -0.43065227319688371 -0.23517700916423959 0 -0.4354576440753809 -0.2535912274846438 0 -0.43065227319688371 -0.23517700916423959 0 -0.44283674427152059 -0.24637665446568971 0 -0.43065227319688371 -0.23517700916423959 0 -0.44283674427152059 -0.24637665446568971 0 -0.43065227319688371 -0.23517700916423959 0 -0.41366682505502211 -0.21956443203144549 0 -0.43065227319688371 -0.23517700916423959 0 -0.42484822064538402 -0.2129358349596478 0 -0.44128735527056762 -0.2205237808653629 0 -0.43065227319688371 -0.23517700916423959 0 -0.41366682505502211 -0.21956443203144549 0 -0.42484822064538402 -0.2129358349596478 0 -0.43065227319688371 -0.23517700916423959 0 -0.42484822064538402 -0.2129358349596478 0 -0.43065227319688371 -0.23517700916423959 0 -0.41366682505502211 -0.21956443203144549 0 -0.40551460423239721 -0.2332549134046106 0 -0.43065227319688371 -0.23517700916423959 0 -0.40992198791325701 -0.24947417548071479 0 -0.40551460423239721 -0.2332549134046106 0 -0.39559587231203169 -0.25892549115302049 0 -0.40992198791325701 -0.24947417548071479 0 -0.38944469955622107 -0.24133701782607611 0 -0.40992198791325701 -0.24947417548071479 0 -0.38944469955622107 -0.24133701782607611 0 -0.40551460423239721 -0.2332549134046106 0 -0.38944469955622107 -0.24133701782607611 0 -0.37777230567208109 -0.23588663511621119 0 -0.39012377832220718 -0.22813189604397241 0 -0.38944469955622107 -0.24133701782607611 0 -0.37777230567208109 -0.23588663511621119 0 -0.37722111196695968 -0.2443961198948002 0 -0.38089513924397672 -0.25142371241438871 0 -0.38944469955622107 -0.24133701782607611 0 -0.37722111196695968 -0.2443961198948002 0 -0.38089513924397672 -0.25142371241438871 0 -0.37367033827505741 -0.25148678553651221 0 -0.37722111196695968 -0.2443961198948002 0 -0.37777230567208109 -0.23588663511621119 0 -0.37830349459588442 -0.2238496886657437 0 -0.39012377832220718 -0.22813189604397241 0 -0.37830349459588442 -0.2238496886657437 0 -0.39012377832220718 -0.22813189604397241 0 -0.38857950377209649 -0.2175567566073634 0 -0.39012377832220718 -0.22813189604397241 0 -0.39858586858340089 -0.2206275159373651 0 -0.38857950377209649 -0.2175567566073634 0 -0.38944469955622107 -0.24133701782607611 0 -0.39012377832220718 -0.22813189604397241 0 -0.40551460423239721 -0.2332549134046106 0 -0.39012377832220718 -0.22813189604397241 0 -0.40551460423239721 -0.2332549134046106 0 -0.39858586858340089 -0.2206275159373651 0 -0.41366682505502211 -0.21956443203144549 0 -0.40551460423239721 -0.2332549134046106 0 -0.39858586858340089 -0.2206275159373651 0 -0.41366682505502211 -0.21956443203144549 0 -0.39858586858340089 -0.2206275159373651 0 -0.39668137691315969 -0.20395185489865231 0 -0.41366682505502211 -0.21956443203144549 0 -0.39668137691315969 -0.20395185489865231 0 -0.39858586858340089 -0.2206275159373651 0 -0.39668137691315969 -0.20395185489865231 0 -0.38857950377209649 -0.2175567566073634 0 -0.39668137691315969 -0.20395185489865231 0 -0.37920300044583022 -0.21122282749108351 0 -0.38035899577479421 -0.2002395398150682 0 -0.39668137691315969 -0.20395185489865231 0 -0.38857950377209649 -0.2175567566073634 0 -0.37920300044583022 -0.21122282749108351 0 -0.37830349459588442 -0.2238496886657437 0 -0.38857950377209649 -0.2175567566073634 0 -0.37920300044583022 -0.21122282749108351 0 -0.369269203919948 -0.21721507174144891 0 -0.37830349459588442 -0.2238496886657437 0 -0.37920300044583022 -0.21122282749108351 0 -0.39668137691315969 -0.20395185489865231 0 -0.37969592877129749 -0.1883392777658591 0 -0.38035899577479421 -0.2002395398150682 0 -0.37012204696998618 -0.1941353794421154 0 -0.37920300044583022 -0.21122282749108351 0 -0.38035899577479421 -0.2002395398150682 0 -0.39668137691315969 -0.20395185489865231 0 -0.37969592877129749 -0.1883392777658591 0 -0.37012204696998618 -0.1941353794421154 0 -0.37969592877129749 -0.1883392777658591 0 -0.38035899577479421 -0.2002395398150682 0 -0.39668137691315969 -0.20395185489865231 0 -0.37969592877129749 -0.1883392777658591 0 -0.39729035128150569 -0.18021524567252681 0 -0.39668137691315969 -0.20395185489865231 0 -0.41904416809388562 -0.19069466075505559 0 -0.39729035128150569 -0.18021524567252681 0 -0.41366682505502211 -0.21956443203144549 0 -0.41904416809388562 -0.19069466075505559 0 -0.42484822064538402 -0.2129358349596478 0 -0.41366682505502211 -0.21956443203144549 0 -0.39668137691315969 -0.20395185489865231 0 -0.41904416809388562 -0.19069466075505559 0 -0.41904416809388562 -0.19069466075505559 0 -0.42484822064538402 -0.2129358349596478 0 -0.43722425877211579 -0.20772489615795051 0 -0.42484822064538402 -0.2129358349596478 0 -0.43722425877211579 -0.20772489615795051 0 -0.44128735527056762 -0.2205237808653629 0 -0.41904416809388562 -0.19069466075505559 0 -0.42484822064538402 -0.2129358349596478 0 -0.41904416809388562 -0.19069466075505559 0 -0.43722425877211579 -0.20772489615795051 0 -0.44291488982403537 -0.19466992889247231 0 -0.41904416809388562 -0.19069466075505559 0 -0.43557049587160351 -0.17690174080271179 0 -0.41324011554238721 -0.16845348655046349 0 -0.41904416809388562 -0.19069466075505559 0 -0.43557049587160351 -0.17690174080271179 0 -0.44291488982403537 -0.19466992889247231 0 -0.43557049587160351 -0.17690174080271179 0 -0.41324011554238721 -0.16845348655046349 0 -0.43255525467293171 -0.15303115827049779 0 -0.41324011554238721 -0.16845348655046349 0 -0.40743606299088869 -0.14621231234587151 0 -0.41904416809388562 -0.19069466075505559 0 -0.41324011554238721 -0.16845348655046349 0 -0.41904416809388562 -0.19069466075505559 0 -0.41324011554238721 -0.16845348655046349 0 -0.39729035128150569 -0.18021524567252681 0 -0.41324011554238721 -0.16845348655046349 0 -0.39729035128150569 -0.18021524567252681 0 -0.39553141596924679 -0.16753179649453331 0 -0.39729035128150569 -0.18021524567252681 0 -0.38351256492057412 -0.1759105208411984 0 -0.39553141596924679 -0.16753179649453331 0 -0.37969592877129749 -0.1883392777658591 0 -0.39729035128150569 -0.18021524567252681 0 -0.38351256492057412 -0.1759105208411984 0 -0.37210213588576951 -0.16962847591326699 0 -0.3706301096441954 -0.18098887853075199 0 -0.38351256492057412 -0.1759105208411984 0 -0.3706301096441954 -0.18098887853075199 0 -0.37969592877129749 -0.1883392777658591 0 -0.38351256492057412 -0.1759105208411984 0 -0.37210213588576951 -0.16962847591326699 0 -0.37073442924758893 -0.15707801379747299 0 -0.38365127480394018 -0.1622485834578804 0 -0.37073442924758893 -0.15707801379747299 0 -0.38365127480394018 -0.1622485834578804 0 -0.38540200599254998 -0.14959231019475161 0 -0.37210213588576951 -0.16962847591326699 0 -0.38351256492057412 -0.1759105208411984 0 -0.38365127480394018 -0.1622485834578804 0 -0.38351256492057412 -0.1759105208411984 0 -0.38365127480394018 -0.1622485834578804 0 -0.39553141596924679 -0.16753179649453331 0 -0.41324011554238721 -0.16845348655046349 0 -0.39553141596924679 -0.16753179649453331 0 -0.39671467512902941 -0.1541874311889628 0 -0.41324011554238721 -0.16845348655046349 0 -0.39671467512902941 -0.1541874311889628 0 -0.40743606299088869 -0.14621231234587151 0 -0.38365127480394018 -0.1622485834578804 0 -0.39553141596924679 -0.16753179649453331 0 -0.39671467512902941 -0.1541874311889628 0 -0.40591267912800788 -0.1442779910379246 0 -0.39671467512902941 -0.1541874311889628 0 -0.38540200599254998 -0.14959231019475161 0 -0.40591267912800788 -0.1442779910379246 0 -0.39671467512902941 -0.1541874311889628 0 -0.40743606299088869 -0.14621231234587151 0 -0.37073442924758893 -0.15707801379747299 0 -0.38540200599254998 -0.14959231019475161 0 -0.37927010358308422 -0.13552482380535141 0 -0.38365127480394018 -0.1622485834578804 0 -0.39671467512902941 -0.1541874311889628 0 -0.38540200599254998 -0.14959231019475161 0 -0.40591267912800788 -0.1442779910379246 0 -0.38540200599254998 -0.14959231019475161 0 -0.37927010358308422 -0.13552482380535141 0 -0.40591267912800788 -0.1442779910379246 0 -0.4070790598519205 -0.13322062877726051 0 -0.39336138785350022 -0.1239300606573904 0 -0.40591267912800788 -0.1442779910379246 0 -0.37927010358308422 -0.13552482380535141 0 -0.40591267912800788 -0.1442779910379246 0 -0.37927010358308422 -0.13552482380535141 0 -0.39336138785350022 -0.1239300606573904 0 -0.40659225839495061 -0.12503341476561039 0 -0.4070790598519205 -0.13322062877726051 0 -0.39336138785350022 -0.1239300606573904 0 -0.40659225839495061 -0.12503341476561039 0 -0.41378666654639429 -0.1287813227428925 0 -0.4070790598519205 -0.13322062877726051 0 -0.41378666654639429 -0.1287813227428925 0 -0.4228895494757865 -0.127083651520361 0 -0.41413533966571392 -0.1208735596075392 0 -0.41378666654639429 -0.1287813227428925 0 -0.41621451900159939 -0.13721452483397439 0 -0.4228895494757865 -0.127083651520361 0 -0.40591267912800788 -0.1442779910379246 0 -0.41621451900159939 -0.13721452483397439 0 -0.4070790598519205 -0.13322062877726051 0 -0.41378666654639429 -0.1287813227428925 0 -0.41621451900159939 -0.13721452483397439 0 -0.4070790598519205 -0.13322062877726051 0 -0.40591267912800788 -0.1442779910379246 0 -0.41621451900159939 -0.13721452483397439 0 -0.43255525467293171 -0.15303115827049779 0 -0.40591267912800788 -0.1442779910379246 0 -0.40743606299088869 -0.14621231234587151 0 -0.43255525467293171 -0.15303115827049779 0 -0.40591267912800788 -0.1442779910379246 0 -0.43255525467293171 -0.15303115827049779 0 -0.41324011554238721 -0.16845348655046349 0 -0.40743606299088869 -0.14621231234587151 0 -0.43255525467293171 -0.15303115827049779 0 -0.43255525467293171 -0.15303115827049779 0 -0.42742202388795042 -0.13835439982687009 0 -0.43802877240148391 -0.13608826468264709 0 -0.41621451900159939 -0.13721452483397439 0 -0.43255525467293171 -0.15303115827049779 0 -0.42742202388795042 -0.13835439982687009 0 -0.4228895494757865 -0.127083651520361 0 -0.43802877240148391 -0.13608826468264709 0 -0.43175102573556351 -0.11718198690372569 0 -0.41621451900159939 -0.13721452483397439 0 -0.4228895494757865 -0.127083651520361 0 -0.42742202388795042 -0.13835439982687009 0 -0.4228895494757865 -0.127083651520361 0 -0.42742202388795042 -0.13835439982687009 0 -0.43802877240148391 -0.13608826468264709 0 -0.45722404283075552 -0.1359708893289516 0 -0.44514924101922221 -0.1197689520096874 0 -0.43802877240148391 -0.13608826468264709 0 -0.45722404283075552 -0.1359708893289516 0 -0.44514924101922221 -0.1197689520096874 0 -0.43802877240148391 -0.13608826468264709 0 -0.44790190110145822 -0.14990658389164141 0 -0.45722404283075552 -0.1359708893289516 0 -0.43255525467293171 -0.15303115827049779 0 -0.43802877240148391 -0.13608826468264709 0 -0.44790190110145822 -0.14990658389164141 0 -0.44790190110145822 -0.14990658389164141 0 -0.46147647929376351 -0.15573454501152209 0 -0.45722404283075552 -0.1359708893289516 0 -0.46147647929376351 -0.15573454501152209 0 -0.45722404283075552 -0.1359708893289516 0 -0.47781511063775101 -0.14790157110281349 0 -0.45722404283075552 -0.1359708893289516 0 -0.47860553814596463 -0.13130080165850361 0 -0.47781511063775101 -0.14790157110281349 0 -0.47860553814596463 -0.13130080165850361 0 -0.48998725429775009 -0.1383969788750822 0 -0.47781511063775101 -0.14790157110281349 0 -0.45722404283075552 -0.1359708893289516 0 -0.47860553814596463 -0.13130080165850361 0 -0.47118906545210681 -0.113999075006833 0 -0.47860553814596463 -0.13130080165850361 0 -0.48998725429775009 -0.1383969788750822 0 -0.49630125116322038 -0.12730305272064721 0 -0.48998725429775009 -0.1383969788750822 0 -0.5 -0.12951398883250931 0 -0.49630125116322038 -0.12730305272064721 0 -0.48998725429775009 -0.1383969788750822 0 -0.47781511063775101 -0.14790157110281349 0 -0.5 -0.15912017506174159 0 -0.48998725429775009 -0.1383969788750822 0 -0.5 -0.12951398883250931 0 -0.5 -0.15912017506174159 0 -0.47781511063775101 -0.14790157110281349 0 -0.5 -0.15912017506174159 0 -0.474415201757241 -0.17752300942993501 0 -0.46147647929376351 -0.15573454501152209 0 -0.47781511063775101 -0.14790157110281349 0 -0.474415201757241 -0.17752300942993501 0 -0.5 -0.15912017506174159 0 -0.474415201757241 -0.17752300942993501 0 -0.5 -0.18872636129097381 0 -0.474415201757241 -0.17752300942993501 0 -0.45489263152696591 -0.18522223505702351 0 -0.46350958469247983 -0.19934442029878799 0 -0.474415201757241 -0.17752300942993501 0 -0.45489263152696591 -0.18522223505702351 0 -0.45022495630835668 -0.1687080621645885 0 -0.44790190110145822 -0.14990658389164141 0 -0.46147647929376351 -0.15573454501152209 0 -0.45022495630835668 -0.1687080621645885 0 -0.46147647929376351 -0.15573454501152209 0 -0.474415201757241 -0.17752300942993501 0 -0.45022495630835668 -0.1687080621645885 0 -0.43255525467293171 -0.15303115827049779 0 -0.44790190110145822 -0.14990658389164141 0 -0.45022495630835668 -0.1687080621645885 0 -0.43557049587160351 -0.17690174080271179 0 -0.43255525467293171 -0.15303115827049779 0 -0.45022495630835668 -0.1687080621645885 0 -0.43557049587160351 -0.17690174080271179 0 -0.45489263152696591 -0.18522223505702351 0 -0.45022495630835668 -0.1687080621645885 0 -0.43557049587160351 -0.17690174080271179 0 -0.45489263152696591 -0.18522223505702351 0 -0.44291488982403537 -0.19466992889247231 0 -0.44291488982403537 -0.19466992889247231 0 -0.44884227565260759 -0.20908871846682819 0 -0.46350958469247983 -0.19934442029878799 0 -0.43722425877211579 -0.20772489615795051 0 -0.44291488982403537 -0.19466992889247231 0 -0.44884227565260759 -0.20908871846682819 0 -0.44884227565260759 -0.20908871846682819 0 -0.45997806989113571 -0.21897280806399511 0 -0.44128735527056762 -0.2205237808653629 0 -0.43722425877211579 -0.20772489615795051 0 -0.44884227565260759 -0.20908871846682819 0 -0.44128735527056762 -0.2205237808653629 0 -0.44884227565260759 -0.20908871846682819 0 -0.46350958469247983 -0.19934442029878799 0 -0.45997806989113571 -0.21897280806399511 0 -0.46350958469247983 -0.19934442029878799 0 -0.4768039760445269 -0.21030077926403029 0 -0.45997806989113571 -0.21897280806399511 0 -0.45489263152696591 -0.18522223505702351 0 -0.44291488982403537 -0.19466992889247231 0 -0.46350958469247983 -0.19934442029878799 0 -0.46350958469247983 -0.19934442029878799 0 -0.48720760087862253 -0.19792777847507009 0 -0.4768039760445269 -0.21030077926403029 0 -0.474415201757241 -0.17752300942993501 0 -0.46350958469247983 -0.19934442029878799 0 -0.48720760087862253 -0.19792777847507009 0 -0.474415201757241 -0.17752300942993501 0 -0.48720760087862253 -0.19792777847507009 0 -0.48720760087862253 -0.19792777847507009 0 -0.5 -0.18872636129097381 0 -0.50000000000000222 -0.21833254752020609 0 -0.474415201757241 -0.17752300942993501 0 -0.48720760087862253 -0.19792777847507009 0 -0.5 -0.18872636129097381 0 -0.48720760087862253 -0.19792777847507009 0 -0.50000000000000222 -0.21833254752020609 0 -0.4768039760445269 -0.21030077926403029 0 -0.50000000000000222 -0.21833254752020609 0 -0.4768039760445269 -0.21030077926403029 0 -0.47931632768641619 -0.22590016120893991 0 -0.48720760087862253 -0.19792777847507009 0 -0.50000000000000222 -0.21833254752020609 0 -0.4768039760445269 -0.21030077926403029 0 -0.47931632768641619 -0.22590016120893991 0 -0.45997806989113571 -0.21897280806399511 0 -0.50000000000000222 -0.21833254752020609 0 -0.47931632768641619 -0.22590016120893991 0 -0.5 -0.24116489137494579 0 -0.47931632768641619 -0.22590016120893991 0 -0.5 -0.24116489137494579 0 -0.47757018411114027 -0.24248545189784851 0 -0.47848588135845921 -0.26052856598133872 0 -0.5 -0.24116489137494579 0 -0.47757018411114027 -0.24248545189784851 0 -0.47931632768641619 -0.22590016120893991 0 -0.47757018411114027 -0.24248545189784851 0 -0.46333961219553571 -0.23608956025683461 0 -0.47757018411114027 -0.24248545189784851 0 -0.46640273863866238 -0.24810959993952919 0 -0.46333961219553571 -0.23608956025683461 0 -0.46640273863866238 -0.24810959993952919 0 -0.45564625281125698 -0.24438452482863271 0 -0.46333961219553571 -0.23608956025683461 0 -0.45697176271692003 -0.25705989673299151 0 -0.46640273863866238 -0.24810959993952919 0 -0.45564625281125698 -0.24438452482863271 0 -0.45564625281125698 -0.24438452482863271 0 -0.46333961219553571 -0.23608956025683461 0 -0.44837404555701837 -0.23365243202046401 0 -0.47931632768641619 -0.22590016120893991 0 -0.46333961219553571 -0.23608956025683461 0 -0.45997806989113571 -0.21897280806399511 0 -0.46333961219553571 -0.23608956025683461 0 -0.45997806989113571 -0.21897280806399511 0 -0.44837404555701837 -0.23365243202046401 0 -0.43065227319688371 -0.23517700916423959 0 -0.44837404555701837 -0.23365243202046401 0 -0.44128735527056762 -0.2205237808653629 0 -0.45997806989113571 -0.21897280806399511 0 -0.44837404555701837 -0.23365243202046401 0 -0.44128735527056762 -0.2205237808653629 0 -0.43065227319688371 -0.23517700916423959 0 -0.44837404555701837 -0.23365243202046401 0 -0.44283674427152059 -0.24637665446568971 0 -0.45697176271692003 -0.25705989673299151 0 -0.45564625281125698 -0.24438452482863271 0 -0.44283674427152059 -0.24637665446568971 0 -0.45564625281125698 -0.24438452482863271 0 -0.44837404555701837 -0.23365243202046401 0 -0.44283674427152059 -0.24637665446568971 0 -0.419330795925977 -0.044721011226149687 0 -0.41871172794344202 -0.034500699267759088 0 -0.40684407225853281 -0.036393933576529619 0 -0.419330795925977 -0.044721011226149687 0 -0.40684407225853281 -0.036393933576529619 0 -0.40689599399593329 -0.05093293418644429 0 -0.40689599399593329 -0.05093293418644429 0 -0.41282421320573681 -0.059363460611054138 0 -0.40295699720112338 -0.062108247565225129 0 -0.40689599399593329 -0.05093293418644429 0 -0.41282421320573681 -0.059363460611054138 0 -0.42050876828971617 -0.05581020154007766 0 -0.41282421320573681 -0.059363460611054138 0 -0.42050876828971617 -0.05581020154007766 0 -0.42093509333617413 -0.068602459152469486 0 -0.419330795925977 -0.044721011226149687 0 -0.40689599399593329 -0.05093293418644429 0 -0.42050876828971617 -0.05581020154007766 0 -0.419330795925977 -0.044721011226149687 0 -0.42050876828971617 -0.05581020154007766 0 -0.43386505528406838 -0.051572775260583077 0 -0.42050876828971617 -0.05581020154007766 0 -0.43386505528406838 -0.051572775260583077 0 -0.42093509333617413 -0.068602459152469486 0 -0.43386505528406838 -0.051572775260583077 0 -0.42915915778416952 -0.039115523525504382 0 -0.44330934383366849 -0.032799821906400593 0 -0.419330795925977 -0.044721011226149687 0 -0.43386505528406838 -0.051572775260583077 0 -0.42915915778416952 -0.039115523525504382 0 -0.419330795925977 -0.044721011226149687 0 -0.41871172794344202 -0.034500699267759088 0 -0.42915915778416952 -0.039115523525504382 0 -0.41871172794344202 -0.034500699267759088 0 -0.42915915778416952 -0.039115523525504382 0 -0.42895474664836492 -0.028403859366925469 0 -0.42915915778416952 -0.039115523525504382 0 -0.42895474664836492 -0.028403859366925469 0 -0.44330934383366849 -0.032799821906400593 0 -0.43661284720958549 -0.022789424094251991 0 -0.42895474664836492 -0.028403859366925469 0 -0.44330934383366849 -0.032799821906400593 0 -0.42759376585284892 -0.017517128168361231 0 -0.42895474664836492 -0.028403859366925469 0 -0.41283500762495762 -0.0211525079938309 0 -0.43661284720958549 -0.022789424094251991 0 -0.42759376585284892 -0.017517128168361231 0 -0.44659353250345968 -0.012436886935320661 0 -0.43661284720958549 -0.022789424094251991 0 -0.42759376585284892 -0.017517128168361231 0 -0.42895474664836492 -0.028403859366925469 0 -0.42134371423633721 -0.008318285111944405 0 -0.44659353250345968 -0.012436886935320661 0 -0.42296082909282651 0.003196390742168838 0 -0.44659353250345968 -0.012436886935320661 0 -0.43536093435445072 0.001857609434922101 0 -0.42296082909282651 0.003196390742168838 0 -0.44659353250345968 -0.012436886935320661 0 -0.42296082909282651 0.003196390742168838 0 -0.42759376585284892 -0.017517128168361231 0 -0.42134371423633721 -0.008318285111944405 0 -0.44659353250345968 -0.012436886935320661 0 -0.42134371423633721 -0.008318285111944405 0 -0.40968502495935938 -0.0051598282718678494 0 -0.41283500762495762 -0.0211525079938309 0 -0.40968502495935938 -0.0051598282718678494 0 -0.41283500762495762 -0.0211525079938309 0 -0.39640922082589031 -0.01351604728590108 0 -0.42134371423633721 -0.008318285111944405 0 -0.40968502495935938 -0.0051598282718678494 0 -0.42296082909282651 0.003196390742168838 0 -0.40968502495935938 -0.0051598282718678494 0 -0.42296082909282651 0.003196390742168838 0 -0.41871172794344202 -0.034500699267759088 0 -0.42895474664836492 -0.028403859366925469 0 -0.41283500762495762 -0.0211525079938309 0 -0.42759376585284892 -0.017517128168361231 0 -0.42134371423633721 -0.008318285111944405 0 -0.41283500762495762 -0.0211525079938309 0 -0.41871172794344202 -0.034500699267759088 0 -0.40684407225853281 -0.036393933576529619 0 -0.41283500762495762 -0.0211525079938309 0 -0.41283500762495762 -0.0211525079938309 0 -0.39418638094113739 -0.02763757556067873 0 -0.39640922082589031 -0.01351604728590108 0 -0.40684407225853281 -0.036393933576529619 0 -0.41283500762495762 -0.0211525079938309 0 -0.39418638094113739 -0.02763757556067873 0 -0.40968502495935938 -0.0051598282718678494 0 -0.39640922082589031 -0.01351604728590108 0 -0.39871279147125682 0.0028453761212302452 0 -0.39640922082589031 -0.01351604728590108 0 -0.38956313858106117 0.00033333523208246098 0 -0.39871279147125682 0.0028453761212302452 0 -0.40968502495935938 -0.0051598282718678494 0 -0.39640922082589031 -0.01351604728590108 0 -0.39640922082589031 -0.01351604728590108 0 -0.38282638340483688 -0.0063481786035274844 0 -0.3778068007713748 -0.019224426864014928 0 -0.39640922082589031 -0.01351604728590108 0 -0.38282638340483688 -0.0063481786035274844 0 -0.38956313858106117 0.00033333523208246098 0 -0.36904092926483728 -0.0062125949297039051 0 -0.38282638340483688 -0.0063481786035274844 0 -0.3778068007713748 -0.019224426864014928 0 -0.36904092926483728 -0.0062125949297039051 0 -0.38282638340483688 -0.0063481786035274844 0 -0.37316923238732841 0.0056715527261784349 0 -0.39418638094113739 -0.02763757556067873 0 -0.39640922082589031 -0.01351604728590108 0 -0.3778068007713748 -0.019224426864014928 0 -0.39418638094113739 -0.02763757556067873 0 -0.3778068007713748 -0.019224426864014928 0 -0.37858806660976912 -0.035393957434020032 0 -0.36820110178471371 -0.045830346327097898 0 -0.37858806660976912 -0.035393957434020032 0 -0.38021302720900269 -0.054705174340087717 0 -0.37858806660976912 -0.035393957434020032 0 -0.3928798695699991 -0.040671057910247617 0 -0.38021302720900269 -0.054705174340087717 0 -0.39418638094113739 -0.02763757556067873 0 -0.37858806660976912 -0.035393957434020032 0 -0.3928798695699991 -0.040671057910247617 0 -0.40684407225853281 -0.036393933576529619 0 -0.39418638094113739 -0.02763757556067873 0 -0.3928798695699991 -0.040671057910247617 0 -0.40684407225853281 -0.036393933576529619 0 -0.40689599399593329 -0.05093293418644429 0 -0.3928798695699991 -0.040671057910247617 0 -0.40689599399593329 -0.05093293418644429 0 -0.40295699720112338 -0.062108247565225129 0 -0.39509662616443242 -0.0543085482615875 0 -0.40689599399593329 -0.05093293418644429 0 -0.3928798695699991 -0.040671057910247617 0 -0.39509662616443242 -0.0543085482615875 0 -0.40295699720112338 -0.062108247565225129 0 -0.39509662616443242 -0.0543085482615875 0 -0.39360933820056609 -0.068044745966716128 0 -0.39509662616443242 -0.0543085482615875 0 -0.38021302720900269 -0.054705174340087717 0 -0.39360933820056609 -0.068044745966716128 0 -0.3928798695699991 -0.040671057910247617 0 -0.39509662616443242 -0.0543085482615875 0 -0.38021302720900269 -0.054705174340087717 0 -0.36628358306495801 -0.067487032780962769 0 -0.38021302720900269 -0.054705174340087717 0 -0.39360933820056609 -0.068044745966716128 0 -0.36628358306495801 -0.067487032780962769 0 -0.39360933820056609 -0.068044745966716128 0 -0.36628358306495801 -0.067487032780962769 0 -0.38069659487589969 -0.083386290856578296 0 -0.39360933820056609 -0.068044745966716128 0 -0.38069659487589969 -0.083386290856578296 0 -0.39715816329598219 -0.090899137906093025 0 -0.39114104750693368 -0.1045879603525099 0 -0.38069659487589969 -0.083386290856578296 0 -0.39715816329598219 -0.090899137906093025 0 -0.39880279433064031 -0.07926670441512651 0 -0.39715816329598219 -0.090899137906093025 0 -0.41049066607818352 -0.098844389488085105 0 -0.40722199537087778 -0.085450859893533945 0 -0.39880279433064031 -0.07926670441512651 0 -0.40869365911970379 -0.070852948079160344 0 -0.40722199537087778 -0.085450859893533945 0 -0.39715816329598219 -0.090899137906093025 0 -0.39880279433064031 -0.07926670441512651 0 -0.40722199537087778 -0.085450859893533945 0 -0.39880279433064031 -0.07926670441512651 0 -0.39360933820056609 -0.068044745966716128 0 -0.40869365911970379 -0.070852948079160344 0 -0.38069659487589969 -0.083386290856578296 0 -0.39880279433064031 -0.07926670441512651 0 -0.39360933820056609 -0.068044745966716128 0 -0.40295699720112338 -0.062108247565225129 0 -0.39360933820056609 -0.068044745966716128 0 -0.42093509333617413 -0.068602459152469486 0 -0.37365237339188878 -0.1093814201311714 0 -0.37927010358308422 -0.13552482380535141 0 -0.39336138785350022 -0.1239300606573904 0 -0.37365237339188878 -0.1093814201311714 0 -0.39114104750693368 -0.1045879603525099 0 -0.39336138785350022 -0.1239300606573904 0 -0.37365237339188878 -0.1093814201311714 0 -0.38069659487589969 -0.083386290856578296 0 -0.39114104750693368 -0.1045879603525099 0 -0.39114104750693368 -0.1045879603525099 0 -0.40549063468247992 -0.1147540532314283 0 -0.41049066607818352 -0.098844389488085105 0 -0.39715816329598219 -0.090899137906093025 0 -0.39114104750693368 -0.1045879603525099 0 -0.41049066607818352 -0.098844389488085105 0 -0.39114104750693368 -0.1045879603525099 0 -0.40549063468247992 -0.1147540532314283 0 -0.39336138785350022 -0.1239300606573904 0 -0.40659225839495061 -0.12503341476561039 0 -0.40549063468247992 -0.1147540532314283 0 -0.39336138785350022 -0.1239300606573904 0 -0.4228895494757865 -0.127083651520361 0 -0.41413533966571392 -0.1208735596075392 0 -0.41996959295166542 -0.1118119052437115 0 -0.40659225839495061 -0.12503341476561039 0 -0.41378666654639429 -0.1287813227428925 0 -0.41413533966571392 -0.1208735596075392 0 -0.40659225839495061 -0.12503341476561039 0 -0.40549063468247992 -0.1147540532314283 0 -0.41413533966571392 -0.1208735596075392 0 -0.40549063468247992 -0.1147540532314283 0 -0.41413533966571392 -0.1208735596075392 0 -0.41996959295166542 -0.1118119052437115 0 -0.40549063468247992 -0.1147540532314283 0 -0.41996959295166542 -0.1118119052437115 0 -0.41049066607818352 -0.098844389488085105 0 -0.41996959295166542 -0.1118119052437115 0 -0.41049066607818352 -0.098844389488085105 0 -0.42112484806685418 -0.1004036072503561 0 -0.41049066607818352 -0.098844389488085105 0 -0.42112484806685418 -0.1004036072503561 0 -0.42096469402987929 -0.087391119579204729 0 -0.42096469402987929 -0.087391119579204729 0 -0.44607687974099308 -0.1006950972930189 0 -0.43307443920768879 -0.1035670146904232 0 -0.42096469402987929 -0.087391119579204729 0 -0.44607687974099308 -0.1006950972930189 0 -0.43307443920768879 -0.1035670146904232 0 -0.42096469402987929 -0.087391119579204729 0 -0.42112484806685418 -0.1004036072503561 0 -0.43307443920768879 -0.1035670146904232 0 -0.42096469402987929 -0.087391119579204729 0 -0.41996959295166542 -0.1118119052437115 0 -0.42112484806685418 -0.1004036072503561 0 -0.43307443920768879 -0.1035670146904232 0 -0.43307443920768879 -0.1035670146904232 0 -0.43175102573556351 -0.11718198690372569 0 -0.44514924101922221 -0.1197689520096874 0 -0.41996959295166542 -0.1118119052437115 0 -0.43307443920768879 -0.1035670146904232 0 -0.43175102573556351 -0.11718198690372569 0 -0.4228895494757865 -0.127083651520361 0 -0.41996959295166542 -0.1118119052437115 0 -0.43175102573556351 -0.11718198690372569 0 -0.41282421320573681 -0.059363460611054138 0 -0.40295699720112338 -0.062108247565225129 0 -0.42093509333617413 -0.068602459152469486 0 -0.39360933820056609 -0.068044745966716128 0 -0.42093509333617413 -0.068602459152469486 0 -0.40869365911970379 -0.070852948079160344 0 -0.42093509333617413 -0.068602459152469486 0 -0.40869365911970379 -0.070852948079160344 0 -0.42096469402987929 -0.087391119579204729 0 -0.39360933820056609 -0.068044745966716128 0 -0.42093509333617413 -0.068602459152469486 0 -0.40869365911970379 -0.070852948079160344 0 -0.40722199537087778 -0.085450859893533945 0 -0.42096469402987929 -0.087391119579204729 0 -0.40869365911970379 -0.070852948079160344 0 -0.42096469402987929 -0.087391119579204729 0 -0.41049066607818352 -0.098844389488085105 0 -0.40722199537087778 -0.085450859893533945 0 -0.42096469402987929 -0.087391119579204729 0 -0.42093509333617413 -0.068602459152469486 0 -0.42096469402987929 -0.087391119579204729 0 -0.43797781271585112 -0.082650254279144353 0 -0.42096469402987929 -0.087391119579204729 0 -0.43797781271585112 -0.082650254279144353 0 -0.44607687974099308 -0.1006950972930189 0 -0.42093509333617413 -0.068602459152469486 0 -0.44826084847178221 -0.069160172338222844 0 -0.43386505528406838 -0.051572775260583077 0 -0.42093509333617413 -0.068602459152469486 0 -0.44826084847178221 -0.069160172338222844 0 -0.42093509333617413 -0.068602459152469486 0 -0.44826084847178221 -0.069160172338222844 0 -0.43797781271585112 -0.082650254279144353 0 -0.44826084847178221 -0.069160172338222844 0 -0.43797781271585112 -0.082650254279144353 0 -0.45126809012741947 -0.085756258838950716 0 -0.43797781271585112 -0.082650254279144353 0 -0.45126809012741947 -0.085756258838950716 0 -0.44607687974099308 -0.1006950972930189 0 -0.45126809012741947 -0.085756258838950716 0 -0.44607687974099308 -0.1006950972930189 0 -0.46894328698424048 -0.087885648735248623 0 -0.44826084847178221 -0.069160172338222844 0 -0.45126809012741947 -0.085756258838950716 0 -0.46894328698424048 -0.087885648735248623 0 -0.44826084847178221 -0.069160172338222844 0 -0.47028157187798059 -0.064381605342730991 0 -0.46894328698424048 -0.087885648735248623 0 -0.43307443920768879 -0.1035670146904232 0 -0.44514924101922221 -0.1197689520096874 0 -0.43802877240148391 -0.13608826468264709 0 -0.43175102573556351 -0.11718198690372569 0 -0.44514924101922221 -0.1197689520096874 0 -0.43307443920768879 -0.1035670146904232 0 -0.44514924101922221 -0.1197689520096874 0 -0.44607687974099308 -0.1006950972930189 0 -0.44607687974099308 -0.1006950972930189 0 -0.47118906545210681 -0.113999075006833 0 -0.44607687974099308 -0.1006950972930189 0 -0.47118906545210681 -0.113999075006833 0 -0.46894328698424048 -0.087885648735248623 0 -0.45722404283075552 -0.1359708893289516 0 -0.44514924101922221 -0.1197689520096874 0 -0.47118906545210681 -0.113999075006833 0 -0.44514924101922221 -0.1197689520096874 0 -0.44607687974099308 -0.1006950972930189 0 -0.47118906545210681 -0.113999075006833 0 -0.49630125116322038 -0.12730305272064721 0 -0.47118906545210681 -0.113999075006833 0 -0.47860553814596463 -0.13130080165850361 0 -0.49630125116322038 -0.12730305272064721 0 -0.47118906545210681 -0.113999075006833 0 -0.47118906545210681 -0.113999075006833 0 -0.48235485732368139 -0.098107740138361876 0 -0.48804056097873322 -0.11118960303293481 0 -0.47118906545210681 -0.113999075006833 0 -0.48235485732368139 -0.098107740138361876 0 -0.46894328698424048 -0.087885648735248623 0 -0.48235485732368139 -0.098107740138361876 0 -0.5 -0.09990780260327714 0 -0.48804056097873322 -0.11118960303293481 0 -0.49630125116322038 -0.12730305272064721 0 -0.5 -0.09990780260327714 0 -0.48804056097873322 -0.11118960303293481 0 -0.49630125116322038 -0.12730305272064721 0 -0.47118906545210681 -0.113999075006833 0 -0.48804056097873322 -0.11118960303293481 0 -0.5 -0.12951398883250931 0 -0.49630125116322038 -0.12730305272064721 0 -0.5 -0.09990780260327714 0 -0.48360137320332691 -0.077556571313515815 0 -0.47028157187798059 -0.064381605342730991 0 -0.46894328698424048 -0.087885648735248623 0 -0.48360137320332691 -0.077556571313515815 0 -0.47028157187798059 -0.064381605342730991 0 -0.48951986951435877 -0.058713278496577329 0 -0.48235485732368139 -0.098107740138361876 0 -0.48360137320332691 -0.077556571313515815 0 -0.46894328698424048 -0.087885648735248623 0 -0.5 -0.09990780260327714 0 -0.48360137320332691 -0.077556571313515815 0 -0.5 -0.070301616374044862 0 -0.48235485732368139 -0.098107740138361876 0 -0.5 -0.09990780260327714 0 -0.48360137320332691 -0.077556571313515815 0 -0.48360137320332691 -0.077556571313515815 0 -0.5 -0.070301616374044862 0 -0.48951986951435877 -0.058713278496577329 0 -0.5 -0.070301616374044862 0 -0.48951986951435877 -0.058713278496577329 0 -0.5 -0.040695430144812472 0 -0.48951986951435877 -0.058713278496577329 0 -0.49385893932472408 -0.043703442290302333 0 -0.47618302777251958 -0.048662401200104927 0 -0.48951986951435877 -0.058713278496577329 0 -0.5 -0.040695430144812472 0 -0.49385893932472408 -0.043703442290302333 0 -0.5 -0.040695430144812472 0 -0.49385893932472408 -0.043703442290302333 0 -0.4884876854267689 -0.026925637717427588 0 -0.49385893932472408 -0.043703442290302333 0 -0.47022623591409191 -0.02807016461281148 0 -0.4884876854267689 -0.026925637717427588 0 -0.49385893932472408 -0.043703442290302333 0 -0.47022623591409191 -0.02807016461281148 0 -0.49385893932472408 -0.043703442290302333 0 -0.47618302777251958 -0.048662401200104927 0 -0.47022623591409191 -0.02807016461281148 0 -0.47028157187798059 -0.064381605342730991 0 -0.48951986951435877 -0.058713278496577329 0 -0.47618302777251958 -0.048662401200104927 0 -0.47028157187798059 -0.064381605342730991 0 -0.47618302777251958 -0.048662401200104927 0 -0.45702852223144269 -0.048443515258102463 0 -0.44826084847178221 -0.069160172338222844 0 -0.47028157187798059 -0.064381605342730991 0 -0.45702852223144269 -0.048443515258102463 0 -0.47618302777251958 -0.048662401200104927 0 -0.45702852223144269 -0.048443515258102463 0 -0.47022623591409191 -0.02807016461281148 0 -0.45702852223144269 -0.048443515258102463 0 -0.44330934383366849 -0.032799821906400593 0 -0.47022623591409191 -0.02807016461281148 0 -0.43386505528406838 -0.051572775260583077 0 -0.45702852223144269 -0.048443515258102463 0 -0.44330934383366849 -0.032799821906400593 0 -0.43386505528406838 -0.051572775260583077 0 -0.44826084847178221 -0.069160172338222844 0 -0.45702852223144269 -0.048443515258102463 0 -0.44659353250345968 -0.012436886935320661 0 -0.45201807987886189 0.0036230174870018552 0 -0.44396570013534342 1.673851566289615e-05 0 -0.44659353250345968 -0.012436886935320661 0 -0.44396570013534342 1.673851566289615e-05 0 -0.43536093435445072 0.001857609434922101 0 -0.43661284720958549 -0.022789424094251991 0 -0.44330934383366849 -0.032799821906400593 0 -0.44659353250345968 -0.012436886935320661 0 -0.44330934383366849 -0.032799821906400593 0 -0.44659353250345968 -0.012436886935320661 0 -0.47022623591409191 -0.02807016461281148 0 -0.44659353250345968 -0.012436886935320661 0 -0.4627689109164792 -0.0086609075953112628 0 -0.47022623591409191 -0.02807016461281148 0 -0.44659353250345968 -0.012436886935320661 0 -0.47022623591409191 -0.02807016461281148 0 -0.44659353250345968 -0.012436886935320661 0 -0.4627689109164792 -0.0086609075953112628 0 -0.45201807987886189 0.0036230174870018552 0 -0.4627689109164792 -0.0086609075953112628 0 -0.4668835559242771 0.0039895947067450166 0 -0.45201807987886189 0.0036230174870018552 0 -0.4627689109164792 -0.0086609075953112628 0 -0.47812315036170572 -0.01041009862217104 0 -0.4668835559242771 0.0039895947067450166 0 -0.4627689109164792 -0.0086609075953112628 0 -0.47812315036170572 -0.01041009862217104 0 -0.47022623591409191 -0.02807016461281148 0 -0.47812315036170572 -0.01041009862217104 0 -0.47022623591409191 -0.02807016461281148 0 -0.4884876854267689 -0.026925637717427588 0 -0.47812315036170572 -0.01041009862217104 0 -0.4884876854267689 -0.026925637717427588 0 -0.5 -0.011089243915580081 0 -0.5 -0.040695430144812472 0 -0.4884876854267689 -0.026925637717427588 0 -0.5 -0.011089243915580081 0 -0.47812315036170572 -0.01041009862217104 0 -0.5 -0.011089243915580081 0 -0.48432639559724883 0.0072523509325157134 0 -0.5 0.018516942313652199 0 -0.48836839216145911 0.018954531909754359 0 -0.48432639559724883 0.0072523509325157134 0 -0.5 -0.011089243915580081 0 -0.5 0.018516942313652199 0 -0.48432639559724883 0.0072523509325157134 0 -0.5 0.018516942313652199 0 -0.49202849897661061 0.030003939299560179 0 -0.48836839216145911 0.018954531909754359 0 -0.49202849897661061 0.030003939299560179 0 -0.48836839216145911 0.018954531909754359 0 -0.47922455098221017 0.022992386636720721 0 -0.48836839216145911 0.018954531909754359 0 -0.47922455098221017 0.022992386636720721 0 -0.48432639559724883 0.0072523509325157134 0 -0.47922455098221017 0.022992386636720721 0 -0.48432639559724883 0.0072523509325157134 0 -0.46794968814851512 0.019704679895983838 0 -0.49202849897661061 0.030003939299560179 0 -0.47922455098221017 0.022992386636720721 0 -0.47675575875674242 0.0310587084057392 0 -0.47922455098221017 0.022992386636720721 0 -0.46879705148470557 0.03275310148960428 0 -0.46794968814851512 0.019704679895983838 0 -0.47922455098221017 0.022992386636720721 0 -0.47675575875674242 0.0310587084057392 0 -0.46879705148470557 0.03275310148960428 0 -0.47812315036170572 -0.01041009862217104 0 -0.48432639559724883 0.0072523509325157134 0 -0.4668835559242771 0.0039895947067450166 0 -0.48432639559724883 0.0072523509325157134 0 -0.4668835559242771 0.0039895947067450166 0 -0.46794968814851512 0.019704679895983838 0 -0.50000000000000189 0.048123128542884537 0 -0.47654805394998961 0.049958396089679571 0 -0.48356366956929131 0.061786461627851508 0 -0.50000000000000189 0.048123128542884537 0 -0.48356366956929131 0.061786461627851508 0 -0.5 0.075080804902906417 0 -0.50000000000000189 0.048123128542884537 0 -0.47061466606111602 0.041820445401022983 0 -0.49202849897661061 0.030003939299560179 0 -0.50000000000000189 0.048123128542884537 0 -0.47492460282768412 0.039442151225475383 0 -0.5 0.018516942313652199 0 -0.49202849897661061 0.030003939299560179 0 -0.50000000000000189 0.048123128542884537 0 -0.49202849897661061 0.030003939299560179 0 -0.47492460282768412 0.039442151225475383 0 -0.50000000000000189 0.048123128542884537 0 -0.47061466606111602 0.041820445401022983 0 -0.47654805394998961 0.049958396089679571 0 -0.50000000000000189 0.048123128542884537 0 -0.47492460282768412 0.039442151225475383 0 -0.47061466606111602 0.041820445401022983 0 -0.49202849897661061 0.030003939299560179 0 -0.47675575875674242 0.0310587084057392 0 -0.47492460282768412 0.039442151225475383 0 -0.46879705148470557 0.03275310148960428 0 -0.47175794754754341 0.035934490350434417 0 -0.46684578008956179 0.041012079767814208 0 -0.47675575875674242 0.0310587084057392 0 -0.46879705148470557 0.03275310148960428 0 -0.47175794754754341 0.035934490350434417 0 -0.47175794754754341 0.035934490350434417 0 -0.47492460282768412 0.039442151225475383 0 -0.46684578008956179 0.041012079767814208 0 -0.47675575875674242 0.0310587084057392 0 -0.47175794754754341 0.035934490350434417 0 -0.47492460282768412 0.039442151225475383 0 -0.47492460282768412 0.039442151225475383 0 -0.47061466606111602 0.041820445401022983 0 -0.46684578008956179 0.041012079767814208 0 -0.47492460282768412 0.039442151225475383 0 -0.46684578008956179 0.041012079767814208 0 -0.47061466606111602 0.041820445401022983 0 -0.47084342116538419 0.046746914991159849 0 -0.47654805394998961 0.049958396089679571 0 -0.47492460282768412 0.039442151225475383 0 -0.47061466606111602 0.041820445401022983 0 -0.47061466606111602 0.041820445401022983 0 -0.46757601445619912 0.043497223461795263 0 -0.47061466606111602 0.041820445401022983 0 -0.47084342116538419 0.046746914991159849 0 -0.46757601445619912 0.043497223461795263 0 -0.47084342116538419 0.046746914991159849 0 -0.46823209715076669 0.047615417407286267 0 -0.46757601445619912 0.043497223461795263 0 -0.47654805394998961 0.049958396089679571 0 -0.47044600445603613 0.050370671433998759 0 -0.47037431297571408 0.057997067956390681 0 -0.47084342116538419 0.046746914991159849 0 -0.47654805394998961 0.049958396089679571 0 -0.47044600445603613 0.050370671433998759 0 -0.47084342116538419 0.046746914991159849 0 -0.47044600445603613 0.050370671433998759 0 -0.46823209715076669 0.047615417407286267 0 -0.47654805394998961 0.049958396089679571 0 -0.47037431297571408 0.057997067956390681 0 -0.48356366956929131 0.061786461627851508 0 -0.4531481165099509 0.055297511933434691 0 -0.46757601445619912 0.043497223461795263 0 -0.44573732888724099 0.055548170262953597 0 -0.46757601445619912 0.043497223461795263 0 -0.46445660106236619 0.041655748265291247 0 -0.44573732888724099 0.055548170262953597 0 -0.46757601445619912 0.043497223461795263 0 -0.44573732888724099 0.055548170262953597 0 -0.4531481165099509 0.055297511933434691 0 -0.46082002369010788 0.058883742001596157 0 -0.46506971268689529 0.052363784576932061 0 -0.4531481165099509 0.055297511933434691 0 -0.46082002369010788 0.058883742001596157 0 -0.45290508198772511 0.063632325917337307 0 -0.47037431297571408 0.057997067956390681 0 -0.46082002369010788 0.058883742001596157 0 -0.46506971268689529 0.052363784576932061 0 -0.47037431297571408 0.057997067956390681 0 -0.46082002369010788 0.058883742001596157 0 -0.46190875217632338 0.066555021049130331 0 -0.4531481165099509 0.055297511933434691 0 -0.46461081064964987 0.048366312877540528 0 -0.46757601445619912 0.043497223461795263 0 -0.4531481165099509 0.055297511933434691 0 -0.46506971268689529 0.052363784576932061 0 -0.46461081064964987 0.048366312877540528 0 -0.47044600445603613 0.050370671433998759 0 -0.47037431297571408 0.057997067956390681 0 -0.46506971268689529 0.052363784576932061 0 -0.47044600445603613 0.050370671433998759 0 -0.46506971268689529 0.052363784576932061 0 -0.46823209715076669 0.047615417407286267 0 -0.46506971268689529 0.052363784576932061 0 -0.46823209715076669 0.047615417407286267 0 -0.46461081064964987 0.048366312877540528 0 -0.46138056189096049 0.039839878060712923 0 -0.46195104347613802 0.027738088368575189 0 -0.44250122783242579 0.02869488988310534 0 -0.46445660106236619 0.041655748265291247 0 -0.44306993615298418 0.047417527651265758 0 -0.46445660106236619 0.041655748265291247 0 -0.46138056189096049 0.039839878060712923 0 -0.44306993615298418 0.047417527651265758 0 -0.46823209715076669 0.047615417407286267 0 -0.46461081064964987 0.048366312877540528 0 -0.46757601445619912 0.043497223461795263 0 -0.47061466606111602 0.041820445401022983 0 -0.46684578008956179 0.041012079767814208 0 -0.47061466606111602 0.041820445401022983 0 -0.46757601445619912 0.043497223461795263 0 -0.46684578008956179 0.041012079767814208 0 -0.46757601445619912 0.043497223461795263 0 -0.46445660106236619 0.041655748265291247 0 -0.46757601445619912 0.043497223461795263 0 -0.46684578008956179 0.041012079767814208 0 -0.46445660106236619 0.041655748265291247 0 -0.46684578008956179 0.041012079767814208 0 -0.46445660106236619 0.041655748265291247 0 -0.46684578008956179 0.041012079767814208 0 -0.46445660106236619 0.041655748265291247 0 -0.46138056189096049 0.039839878060712923 0 -0.46684578008956179 0.041012079767814208 0 -0.46138056189096049 0.039839878060712923 0 -0.46445660106236619 0.041655748265291247 0 -0.46138056189096049 0.039839878060712923 0 -0.46879705148470557 0.03275310148960428 0 -0.46684578008956179 0.041012079767814208 0 -0.46138056189096049 0.039839878060712923 0 -0.46879705148470557 0.03275310148960428 0 -0.46138056189096049 0.039839878060712923 0 -0.46195104347613802 0.027738088368575189 0 -0.46138056189096049 0.039839878060712923 0 -0.43792704806284838 0.03480947525742055 0 -0.46138056189096049 0.039839878060712923 0 -0.44250122783242579 0.02869488988310534 0 -0.46138056189096049 0.039839878060712923 0 -0.43792704806284838 0.03480947525742055 0 -0.44250122783242579 0.02869488988310534 0 -0.46138056189096049 0.039839878060712923 0 -0.43792704806284838 0.03480947525742055 0 -0.44306993615298418 0.047417527651265758 0 -0.46445660106236619 0.041655748265291247 0 -0.44306993615298418 0.047417527651265758 0 -0.44573732888724099 0.055548170262953597 0 -0.44306993615298418 0.047417527651265758 0 -0.44573732888724099 0.055548170262953597 0 -0.4336464670036777 0.055011916278121832 0 -0.4531481165099509 0.055297511933434691 0 -0.44573732888724099 0.055548170262953597 0 -0.45290508198772511 0.063632325917337307 0 -0.45902661997930472 0.014592308324118621 0 -0.4668835559242771 0.0039895947067450166 0 -0.46794968814851512 0.019704679895983838 0 -0.45902661997930472 0.014592308324118621 0 -0.4668835559242771 0.0039895947067450166 0 -0.45201807987886189 0.0036230174870018552 0 -0.45902661997930472 0.014592308324118621 0 -0.46794968814851512 0.019704679895983838 0 -0.46195104347613802 0.027738088368575189 0 -0.46879705148470557 0.03275310148960428 0 -0.46794968814851512 0.019704679895983838 0 -0.46195104347613802 0.027738088368575189 0 -0.46195104347613802 0.027738088368575189 0 -0.44633073246873112 0.017906161162287191 0 -0.45902661997930472 0.014592308324118621 0 -0.46195104347613802 0.027738088368575189 0 -0.44633073246873112 0.017906161162287191 0 -0.46195104347613802 0.027738088368575189 0 -0.44633073246873112 0.017906161162287191 0 -0.44250122783242579 0.02869488988310534 0 -0.44633073246873112 0.017906161162287191 0 -0.44250122783242579 0.02869488988310534 0 -0.43579106888409302 0.018056296676722421 0 -0.44633073246873112 0.017906161162287191 0 -0.44189025380460129 0.0070232140760482934 0 -0.43071042146132449 0.008074233955998579 0 -0.44633073246873112 0.017906161162287191 0 -0.43071042146132449 0.008074233955998579 0 -0.44633073246873112 0.017906161162287191 0 -0.43071042146132449 0.008074233955998579 0 -0.43579106888409302 0.018056296676722421 0 -0.44633073246873112 0.017906161162287191 0 -0.45201807987886189 0.0036230174870018552 0 -0.44189025380460129 0.0070232140760482934 0 -0.45902661997930472 0.014592308324118621 0 -0.44633073246873112 0.017906161162287191 0 -0.45201807987886189 0.0036230174870018552 0 -0.45201807987886189 0.0036230174870018552 0 -0.44189025380460129 0.0070232140760482934 0 -0.44396570013534342 1.673851566289615e-05 0 -0.44189025380460129 0.0070232140760482934 0 -0.44396570013534342 1.673851566289615e-05 0 -0.43536093435445072 0.001857609434922101 0 -0.44189025380460129 0.0070232140760482934 0 -0.43536093435445072 0.001857609434922101 0 -0.43071042146132449 0.008074233955998579 0 -0.43536093435445072 0.001857609434922101 0 -0.43071042146132449 0.008074233955998579 0 -0.43071042146132449 0.008074233955998579 0 -0.42362189377389081 0.01754990170549859 0 -0.43579106888409302 0.018056296676722421 0 -0.43071042146132449 0.008074233955998579 0 -0.42296082909282651 0.003196390742168838 0 -0.42362189377389081 0.01754990170549859 0 -0.43071042146132449 0.008074233955998579 0 -0.42362189377389081 0.01754990170549859 0 -0.43536093435445072 0.001857609434922101 0 -0.43071042146132449 0.008074233955998579 0 -0.42296082909282651 0.003196390742168838 0 -0.43071042146132449 0.008074233955998579 0 -0.42296082909282651 0.003196390742168838 0 -0.40968502495935938 -0.0051598282718678494 0 -0.41180661483227871 0.010575018814442829 0 -0.39871279147125682 0.0028453761212302452 0 -0.40968502495935938 -0.0051598282718678494 0 -0.42296082909282651 0.003196390742168838 0 -0.41180661483227871 0.010575018814442829 0 -0.42296082909282651 0.003196390742168838 0 -0.41180661483227871 0.010575018814442829 0 -0.42296082909282651 0.003196390742168838 0 -0.41180661483227871 0.010575018814442829 0 -0.42362189377389081 0.01754990170549859 0 -0.41180661483227871 0.010575018814442829 0 -0.42362189377389081 0.01754990170549859 0 -0.41180661483227871 0.010575018814442829 0 -0.41447353423473648 0.029779072454126341 0 -0.42362189377389081 0.01754990170549859 0 -0.41447353423473648 0.029779072454126341 0 -0.42362189377389081 0.01754990170549859 0 -0.43792704806284838 0.03480947525742055 0 -0.44250122783242579 0.02869488988310534 0 -0.42362189377389081 0.01754990170549859 0 -0.43792704806284838 0.03480947525742055 0 -0.41447353423473648 0.029779072454126341 0 -0.42362189377389081 0.01754990170549859 0 -0.44250122783242579 0.02869488988310534 0 -0.42362189377389081 0.01754990170549859 0 -0.44250122783242579 0.02869488988310534 0 -0.42362189377389081 0.01754990170549859 0 -0.43579106888409302 0.018056296676722421 0 -0.43792704806284838 0.03480947525742055 0 -0.41447353423473648 0.029779072454126341 0 -0.43792704806284838 0.03480947525742055 0 -0.41447353423473648 0.029779072454126341 0 -0.42609383410034668 0.041626416918384472 0 -0.43792704806284838 0.03480947525742055 0 -0.44306993615298418 0.047417527651265758 0 -0.42609383410034668 0.041626416918384472 0 -0.44573732888724099 0.055548170262953597 0 -0.4336464670036777 0.055011916278121832 0 -0.42389864331828342 0.067599117064112313 0 -0.44306993615298418 0.047417527651265758 0 -0.4336464670036777 0.055011916278121832 0 -0.42168327124360222 0.05317930703723997 0 -0.44306993615298418 0.047417527651265758 0 -0.42609383410034668 0.041626416918384472 0 -0.42168327124360222 0.05317930703723997 0 -0.44306993615298418 0.047417527651265758 0 -0.42168327124360222 0.05317930703723997 0 -0.44573732888724099 0.055548170262953597 0 -0.42389864331828342 0.067599117064112313 0 -0.4336464670036777 0.055011916278121832 0 -0.42168327124360222 0.05317930703723997 0 -0.42389864331828342 0.067599117064112313 0 -0.42168327124360222 0.05317930703723997 0 -0.40029660633422021 0.058941086423214162 0 -0.42168327124360222 0.05317930703723997 0 -0.41459085486833469 0.043019889166581067 0 -0.40101060028801871 0.047775798239469369 0 -0.42168327124360222 0.05317930703723997 0 -0.40101060028801871 0.047775798239469369 0 -0.40029660633422021 0.058941086423214162 0 -0.42168327124360222 0.05317930703723997 0 -0.40029660633422021 0.058941086423214162 0 -0.41112987661361522 0.068660042091819806 0 -0.41447353423473648 0.029779072454126341 0 -0.41459085486833469 0.043019889166581067 0 -0.40101060028801871 0.047775798239469369 0 -0.41447353423473648 0.029779072454126341 0 -0.40101060028801871 0.047775798239469369 0 -0.41447353423473648 0.029779072454126341 0 -0.42609383410034668 0.041626416918384472 0 -0.41459085486833469 0.043019889166581067 0 -0.42609383410034668 0.041626416918384472 0 -0.42168327124360222 0.05317930703723997 0 -0.41459085486833469 0.043019889166581067 0 -0.39763065652730512 0.035878622733598868 0 -0.38450146938697238 0.041314545963899253 0 -0.39053702219949282 0.02464507427690037 0 -0.41447353423473648 0.029779072454126341 0 -0.39763065652730512 0.035878622733598868 0 -0.40101060028801871 0.047775798239469369 0 -0.39763065652730512 0.035878622733598868 0 -0.40101060028801871 0.047775798239469369 0 -0.38450146938697238 0.041314545963899253 0 -0.40101060028801871 0.047775798239469369 0 -0.40029660633422021 0.058941086423214162 0 -0.38754766634130128 0.06577252402481279 0 -0.40101060028801871 0.047775798239469369 0 -0.38618504851635582 0.053785638900186471 0 -0.38754766634130128 0.06577252402481279 0 -0.40101060028801871 0.047775798239469369 0 -0.38754766634130128 0.06577252402481279 0 -0.38618504851635582 0.053785638900186471 0 -0.38754766634130128 0.06577252402481279 0 -0.37168045804913091 0.060279687372564471 0 -0.38618504851635582 0.053785638900186471 0 -0.38450146938697238 0.041314545963899253 0 -0.37168045804913091 0.060279687372564471 0 -0.40101060028801871 0.047775798239469369 0 -0.38618504851635582 0.053785638900186471 0 -0.38450146938697238 0.041314545963899253 0 -0.39053702219949282 0.02464507427690037 0 -0.36679936359739518 0.04034778089882541 0 -0.38450146938697238 0.041314545963899253 0 -0.39053702219949282 0.02464507427690037 0 -0.36679936359739518 0.04034778089882541 0 -0.38500961446816351 0.023459533911800591 0 -0.39053702219949282 0.02464507427690037 0 -0.36679936359739518 0.04034778089882541 0 -0.38500961446816351 0.023459533911800591 0 -0.37983156249558608 0.01427516127154336 0 -0.36738992771166951 0.018222951418625968 0 -0.38500961446816351 0.023459533911800591 0 -0.39053702219949282 0.02464507427690037 0 -0.38500961446816351 0.023459533911800591 0 -0.37983156249558608 0.01427516127154336 0 -0.39082107056325588 0.012777634807952199 0 -0.38500961446816351 0.023459533911800591 0 -0.39053702219949282 0.02464507427690037 0 -0.39082107056325588 0.012777634807952199 0 -0.37983156249558608 0.01427516127154336 0 -0.38330333298084762 0.0074636459747756253 0 -0.37316923238732841 0.0056715527261784349 0 -0.38282638340483688 -0.0063481786035274844 0 -0.38330333298084762 0.0074636459747756253 0 -0.37316923238732841 0.0056715527261784349 0 -0.38330333298084762 0.0074636459747756253 0 -0.38956313858106117 0.00033333523208246098 0 -0.39082107056325588 0.012777634807952199 0 -0.38282638340483688 -0.0063481786035274844 0 -0.38330333298084762 0.0074636459747756253 0 -0.38956313858106117 0.00033333523208246098 0 -0.37983156249558608 0.01427516127154336 0 -0.38330333298084762 0.0074636459747756253 0 -0.39082107056325588 0.012777634807952199 0 -0.41180661483227871 0.010575018814442829 0 -0.39082107056325588 0.012777634807952199 0 -0.39871279147125682 0.0028453761212302452 0 -0.38956313858106117 0.00033333523208246098 0 -0.39082107056325588 0.012777634807952199 0 -0.39871279147125682 0.0028453761212302452 0 -0.41180661483227871 0.010575018814442829 0 -0.39871279147125682 0.0028453761212302452 0 -0.41447353423473648 0.029779072454126341 0 -0.39763065652730512 0.035878622733598868 0 -0.39053702219949282 0.02464507427690037 0 -0.41180661483227871 0.010575018814442829 0 -0.41447353423473648 0.029779072454126341 0 -0.39053702219949282 0.02464507427690037 0 -0.41447353423473648 0.029779072454126341 0 -0.39053702219949282 0.02464507427690037 0 -0.41180661483227871 0.010575018814442829 0 -0.39053702219949282 0.02464507427690037 0 -0.41180661483227871 0.010575018814442829 0 -0.39053702219949282 0.02464507427690037 0 -0.39082107056325588 0.012777634807952199 0 -0.40254463575280552 0.098457800212323837 0 -0.39175521923913598 0.1157223184650619 0 -0.38788420265804358 0.098915017544319708 0 -0.39175521923913598 0.1157223184650619 0 -0.40887098363847019 0.11876242598672899 0 -0.39532921157378031 0.12931411879157889 0 -0.40254463575280552 0.098457800212323837 0 -0.39175521923913598 0.1157223184650619 0 -0.40887098363847019 0.11876242598672899 0 -0.39175521923913598 0.1157223184650619 0 -0.37601753401187132 0.116715219269239 0 -0.37845434288240137 0.13251974432475269 0 -0.39175521923913598 0.1157223184650619 0 -0.37601753401187132 0.116715219269239 0 -0.38788420265804358 0.098915017544319708 0 -0.38788420265804358 0.098915017544319708 0 -0.3746020057944815 0.087596130447960774 0 -0.36325337171825822 0.098996912408396323 0 -0.38788420265804358 0.098915017544319708 0 -0.36325337171825822 0.098996912408396323 0 -0.37601753401187132 0.116715219269239 0 -0.38788420265804358 0.098915017544319708 0 -0.36723296685326512 0.10864251765499409 0 -0.38788420265804358 0.098915017544319708 0 -0.38879885031639178 0.081385387056198591 0 -0.3746020057944815 0.087596130447960774 0 -0.38879885031639178 0.081385387056198591 0 -0.37772583106712621 0.074416191705615795 0 -0.3746020057944815 0.087596130447960774 0 -0.37772583106712621 0.074416191705615795 0 -0.38754766634130128 0.06577252402481279 0 -0.37168045804913091 0.060279687372564471 0 -0.38879885031639178 0.081385387056198591 0 -0.37772583106712621 0.074416191705615795 0 -0.38754766634130128 0.06577252402481279 0 -0.40029660633422021 0.058941086423214162 0 -0.38754766634130128 0.06577252402481279 0 -0.39844451477495979 0.071352464151794359 0 -0.38879885031639178 0.081385387056198591 0 -0.38754766634130128 0.06577252402481279 0 -0.39844451477495979 0.071352464151794359 0 -0.39844451477495979 0.071352464151794359 0 -0.40444957426927031 0.082003281162926489 0 -0.41112987661361522 0.068660042091819806 0 -0.40029660633422021 0.058941086423214162 0 -0.39844451477495979 0.071352464151794359 0 -0.41112987661361522 0.068660042091819806 0 -0.40254463575280552 0.098457800212323837 0 -0.38788420265804358 0.098915017544319708 0 -0.38879885031639178 0.081385387056198591 0 -0.38879885031639178 0.081385387056198591 0 -0.39844451477495979 0.071352464151794359 0 -0.40444957426927031 0.082003281162926489 0 -0.40254463575280552 0.098457800212323837 0 -0.38879885031639178 0.081385387056198591 0 -0.40444957426927031 0.082003281162926489 0 -0.40444957426927031 0.082003281162926489 0 -0.41815679636458042 0.0797211254962331 0 -0.41854122733938548 0.097625117161518352 0 -0.40254463575280552 0.098457800212323837 0 -0.40444957426927031 0.082003281162926489 0 -0.41854122733938548 0.097625117161518352 0 -0.40444957426927031 0.082003281162926489 0 -0.41815679636458042 0.0797211254962331 0 -0.41112987661361522 0.068660042091819806 0 -0.41815679636458042 0.0797211254962331 0 -0.41112987661361522 0.068660042091819806 0 -0.42389864331828342 0.067599117064112313 0 -0.42168327124360222 0.05317930703723997 0 -0.41112987661361522 0.068660042091819806 0 -0.42389864331828342 0.067599117064112313 0 -0.41815679636458042 0.0797211254962331 0 -0.42389864331828342 0.067599117064112313 0 -0.43045918273786032 0.084039276426633391 0 -0.44573732888724099 0.055548170262953597 0 -0.42389864331828342 0.067599117064112313 0 -0.43997921966939663 0.06941981447585531 0 -0.42389864331828342 0.067599117064112313 0 -0.43045918273786032 0.084039276426633391 0 -0.43997921966939663 0.06941981447585531 0 -0.41815679636458042 0.0797211254962331 0 -0.43045918273786032 0.084039276426633391 0 -0.41854122733938548 0.097625117161518352 0 -0.41854122733938548 0.097625117161518352 0 -0.42722993558449163 0.1176358238683809 0 -0.43873935854193907 0.099761594496780834 0 -0.43045918273786032 0.084039276426633391 0 -0.41854122733938548 0.097625117161518352 0 -0.43873935854193907 0.099761594496780834 0 -0.40254463575280552 0.098457800212323837 0 -0.41854122733938548 0.097625117161518352 0 -0.40887098363847019 0.11876242598672899 0 -0.41854122733938548 0.097625117161518352 0 -0.40887098363847019 0.11876242598672899 0 -0.42722993558449163 0.1176358238683809 0 -0.40887098363847019 0.11876242598672899 0 -0.42722993558449163 0.1176358238683809 0 -0.41897288526208759 0.13477796538352049 0 -0.42722993558449163 0.1176358238683809 0 -0.44263455277631653 0.118809970050044 0 -0.43593169035091361 0.13333466155007939 0 -0.42722993558449163 0.1176358238683809 0 -0.44263455277631653 0.118809970050044 0 -0.43873935854193907 0.099761594496780834 0 -0.44263455277631653 0.118809970050044 0 -0.45523236153314811 0.10768074327416211 0 -0.45699331794486908 0.12898893138273301 0 -0.44263455277631653 0.118809970050044 0 -0.43873935854193907 0.099761594496780834 0 -0.45523236153314811 0.10768074327416211 0 -0.43873935854193907 0.099761594496780834 0 -0.45523236153314811 0.10768074327416211 0 -0.45647730118804247 0.088959095686724832 0 -0.45523236153314811 0.10768074327416211 0 -0.45647730118804247 0.088959095686724832 0 -0.4798087862159347 0.09498868083136465 0 -0.45523236153314811 0.10768074327416211 0 -0.47176072174364547 0.1128711351857918 0 -0.45699331794486908 0.12898893138273301 0 -0.44573732888724099 0.055548170262953597 0 -0.45290508198772511 0.063632325917337307 0 -0.43997921966939663 0.06941981447585531 0 -0.45290508198772511 0.063632325917337307 0 -0.43997921966939663 0.06941981447585531 0 -0.4540967248814039 0.074300561076508093 0 -0.43997921966939663 0.06941981447585531 0 -0.44340193349517959 0.082302483670374071 0 -0.4540967248814039 0.074300561076508093 0 -0.43873935854193907 0.099761594496780834 0 -0.44340193349517959 0.082302483670374071 0 -0.45647730118804247 0.088959095686724832 0 -0.43045918273786032 0.084039276426633391 0 -0.43873935854193907 0.099761594496780834 0 -0.44340193349517959 0.082302483670374071 0 -0.44340193349517959 0.082302483670374071 0 -0.45647730118804247 0.088959095686724832 0 -0.4540967248814039 0.074300561076508093 0 -0.43045918273786032 0.084039276426633391 0 -0.43997921966939663 0.06941981447585531 0 -0.44340193349517959 0.082302483670374071 0 -0.45647730118804247 0.088959095686724832 0 -0.4540967248814039 0.074300561076508093 0 -0.47134761734666591 0.077961408293819381 0 -0.4540967248814039 0.074300561076508093 0 -0.46190875217632338 0.066555021049130331 0 -0.47134761734666591 0.077961408293819381 0 -0.47037431297571408 0.057997067956390681 0 -0.46190875217632338 0.066555021049130331 0 -0.47134761734666591 0.077961408293819381 0 -0.46082002369010788 0.058883742001596157 0 -0.45290508198772511 0.063632325917337307 0 -0.46190875217632338 0.066555021049130331 0 -0.45290508198772511 0.063632325917337307 0 -0.4540967248814039 0.074300561076508093 0 -0.46190875217632338 0.066555021049130331 0 -0.47037431297571408 0.057997067956390681 0 -0.48356366956929131 0.061786461627851508 0 -0.47134761734666591 0.077961408293819381 0 -0.47134761734666591 0.077961408293819381 0 -0.5 0.075080804902906417 0 -0.4798087862159347 0.09498868083136465 0 -0.45647730118804247 0.088959095686724832 0 -0.47134761734666591 0.077961408293819381 0 -0.4798087862159347 0.09498868083136465 0 -0.5 0.075080804902906417 0 -0.4798087862159347 0.09498868083136465 0 -0.5 0.1020384812629284 0 -0.48356366956929131 0.061786461627851508 0 -0.47134761734666591 0.077961408293819381 0 -0.5 0.075080804902906417 0 -0.47176072174364547 0.1128711351857918 0 -0.5 0.1020384812629284 0 -0.48081024146865781 0.12981279762272749 0 -0.47176072174364547 0.1128711351857918 0 -0.48081024146865781 0.12981279762272749 0 -0.45699331794486908 0.12898893138273301 0 -0.45523236153314811 0.10768074327416211 0 -0.47176072174364547 0.1128711351857918 0 -0.4798087862159347 0.09498868083136465 0 -0.47176072174364547 0.1128711351857918 0 -0.4798087862159347 0.09498868083136465 0 -0.5 0.1020384812629284 0 -0.5 0.1020384812629284 0 -0.5 0.12899615762295061 0 -0.48081024146865781 0.12981279762272749 0 -0.5 0.12899615762295061 0 -0.48081024146865781 0.12981279762272749 0 -0.5 0.15595383398297269 0 -0.48081024146865781 0.12981279762272749 0 -0.46983361506922111 0.14557437769160569 0 -0.45699331794486908 0.12898893138273301 0 -0.48081024146865781 0.12981279762272749 0 -0.46983361506922111 0.14557437769160569 0 -0.5 0.15595383398297269 0 -0.5 0.15595383398297269 0 -0.5 0.18291151034299469 0 -0.48142685357775261 0.1679860291847754 0 -0.5 0.18291151034299469 0 -0.47492133697621802 0.18505482111261831 0 -0.48142685357775261 0.1679860291847754 0 -0.47492133697621802 0.18505482111261831 0 -0.48142685357775261 0.1679860291847754 0 -0.46237931584332359 0.17043560279368561 0 -0.46983361506922111 0.14557437769160569 0 -0.5 0.15595383398297269 0 -0.48142685357775261 0.1679860291847754 0 -0.46983361506922111 0.14557437769160569 0 -0.48142685357775261 0.1679860291847754 0 -0.46237931584332359 0.17043560279368561 0 -0.47492133697621802 0.18505482111261831 0 -0.46237931584332359 0.17043560279368561 0 -0.45814870392953888 0.18880957022697811 0 -0.46237931584332359 0.17043560279368561 0 -0.44590244344522662 0.17858237893163401 0 -0.45814870392953888 0.18880957022697811 0 -0.46237931584332359 0.17043560279368561 0 -0.44590244344522662 0.17858237893163401 0 -0.44306112707434397 0.15209562572310709 0 -0.44590244344522662 0.17858237893163401 0 -0.44306112707434397 0.15209562572310709 0 -0.4318750961994553 0.17231789286099339 0 -0.44263455277631653 0.118809970050044 0 -0.45699331794486908 0.12898893138273301 0 -0.43593169035091361 0.13333466155007939 0 -0.44306112707434397 0.15209562572310709 0 -0.45699331794486908 0.12898893138273301 0 -0.43593169035091361 0.13333466155007939 0 -0.46983361506922111 0.14557437769160569 0 -0.44306112707434397 0.15209562572310709 0 -0.45699331794486908 0.12898893138273301 0 -0.46983361506922111 0.14557437769160569 0 -0.44306112707434397 0.15209562572310709 0 -0.46983361506922111 0.14557437769160569 0 -0.46237931584332359 0.17043560279368561 0 -0.44306112707434397 0.15209562572310709 0 -0.47666507949983772 0.24712926986393871 0 -0.47491043577252517 0.23306186836093881 0 -0.45869269992033701 0.2454907164656363 0 -0.47666507949983772 0.24712926986393871 0 -0.48833253974991808 0.22849922828347749 0 -0.47666507949983772 0.24712926986393871 0 -0.48833253974991808 0.22849922828347749 0 -0.47491043577252517 0.23306186836093881 0 -0.48973327060558891 0.24541041571415079 0 -0.5 0.23419590105265931 0 -0.48833253974991808 0.22849922828347749 0 -0.48973327060558891 0.24541041571415079 0 -0.5 0.23419590105265931 0 -0.5 0.25852261540230181 0 -0.47666507949983772 0.24712926986393871 0 -0.48973327060558891 0.24541041571415079 0 -0.48833253974991808 0.22849922828347749 0 -0.5 0.23419590105265931 0 -0.48833253974991808 0.22849922828347749 0 -0.49999999999999911 0.2098691867030168 0 -0.48833253974991808 0.22849922828347749 0 -0.49999999999999911 0.2098691867030168 0 -0.48833253974991808 0.22849922828347749 0 -0.47491043577252517 0.23306186836093881 0 -0.48324590632198178 0.2174878233902133 0 -0.47491043577252517 0.23306186836093881 0 -0.47192074773780401 0.21915630904530731 0 -0.48324590632198178 0.2174878233902133 0 -0.47491043577252517 0.23306186836093881 0 -0.47192074773780401 0.21915630904530731 0 -0.46118643679214338 0.22905858297128659 0 -0.4819654807286825 0.20475219343159479 0 -0.46617694250367309 0.19996108127887671 0 -0.46658912531140811 0.21094274297023319 0 -0.47192074773780401 0.21915630904530731 0 -0.4819654807286825 0.20475219343159479 0 -0.46658912531140811 0.21094274297023319 0 -0.47192074773780401 0.21915630904530731 0 -0.4819654807286825 0.20475219343159479 0 -0.48324590632198178 0.2174878233902133 0 -0.4819654807286825 0.20475219343159479 0 -0.48324590632198178 0.2174878233902133 0 -0.49999999999999911 0.2098691867030168 0 -0.48833253974991808 0.22849922828347749 0 -0.48324590632198178 0.2174878233902133 0 -0.49999999999999911 0.2098691867030168 0 -0.5 0.18291151034299469 0 -0.47492133697621802 0.18505482111261831 0 -0.4819654807286825 0.20475219343159479 0 -0.5 0.18291151034299469 0 -0.4819654807286825 0.20475219343159479 0 -0.49999999999999911 0.2098691867030168 0 -0.47492133697621802 0.18505482111261831 0 -0.4819654807286825 0.20475219343159479 0 -0.46617694250367309 0.19996108127887671 0 -0.47492133697621802 0.18505482111261831 0 -0.46617694250367309 0.19996108127887671 0 -0.45814870392953888 0.18880957022697811 0 -0.46617694250367309 0.19996108127887671 0 -0.45440775479236051 0.20099716743183779 0 -0.45814870392953888 0.18880957022697811 0 -0.44590244344522662 0.17858237893163401 0 -0.45814870392953888 0.18880957022697811 0 -0.44569587415236639 0.19612395260567411 0 -0.45440775479236051 0.20099716743183779 0 -0.45814870392953888 0.18880957022697811 0 -0.44569587415236639 0.19612395260567411 0 -0.44590244344522662 0.17858237893163401 0 -0.44569587415236639 0.19612395260567411 0 -0.43425454347233161 0.19171162937936601 0 -0.44569587415236639 0.19612395260567411 0 -0.43730516543297931 0.2040989196736496 0 -0.43425454347233161 0.19171162937936601 0 -0.45440775479236051 0.20099716743183779 0 -0.44569587415236639 0.19612395260567411 0 -0.4450424543980519 0.20969800072662231 0 -0.45440775479236051 0.20099716743183779 0 -0.4450424543980519 0.20969800072662231 0 -0.45697479897817211 0.21039323232103771 0 -0.44569587415236639 0.19612395260567411 0 -0.4450424543980519 0.20969800072662231 0 -0.43730516543297931 0.2040989196736496 0 -0.4450424543980519 0.20969800072662231 0 -0.43763885852712481 0.21132102963382621 0 -0.43730516543297931 0.2040989196736496 0 -0.4450424543980519 0.20969800072662231 0 -0.45131939237613627 0.22093007473364609 0 -0.4378484643519131 0.2212248929024625 0 -0.4450424543980519 0.20969800072662231 0 -0.43763885852712481 0.21132102963382621 0 -0.4378484643519131 0.2212248929024625 0 -0.4450424543980519 0.20969800072662231 0 -0.45697479897817211 0.21039323232103771 0 -0.45131939237613627 0.22093007473364609 0 -0.45697479897817211 0.21039323232103771 0 -0.46153476602251359 0.2185872082940184 0 -0.45131939237613627 0.22093007473364609 0 -0.46617694250367309 0.19996108127887671 0 -0.45440775479236051 0.20099716743183779 0 -0.45697479897817211 0.21039323232103771 0 -0.46617694250367309 0.19996108127887671 0 -0.45697479897817211 0.21039323232103771 0 -0.46658912531140811 0.21094274297023319 0 -0.47192074773780401 0.21915630904530731 0 -0.46658912531140811 0.21094274297023319 0 -0.46153476602251359 0.2185872082940184 0 -0.45697479897817211 0.21039323232103771 0 -0.46658912531140811 0.21094274297023319 0 -0.46153476602251359 0.2185872082940184 0 -0.47192074773780401 0.21915630904530731 0 -0.46153476602251359 0.2185872082940184 0 -0.46118643679214338 0.22905858297128659 0 -0.46153476602251359 0.2185872082940184 0 -0.46118643679214338 0.22905858297128659 0 -0.45131939237613627 0.22093007473364609 0 -0.45131939237613627 0.22093007473364609 0 -0.4378484643519131 0.2212248929024625 0 -0.44509860303711668 0.23682630912991179 0 -0.46118643679214338 0.22905858297128659 0 -0.45131939237613627 0.22093007473364609 0 -0.44509860303711668 0.23682630912991179 0 -0.44509860303711668 0.23682630912991179 0 -0.44660469059469471 0.25965661874610269 0 -0.43170989768545909 0.25242895599527643 0 -0.44509860303711668 0.23682630912991179 0 -0.45869269992033701 0.2454907164656363 0 -0.44660469059469471 0.25965661874610269 0 -0.47666507949983772 0.24712926986393871 0 -0.45869269992033701 0.2454907164656363 0 -0.45772611576708028 0.25690631830856803 0 -0.47491043577252517 0.23306186836093881 0 -0.46118643679214338 0.22905858297128659 0 -0.45869269992033701 0.2454907164656363 0 -0.46118643679214338 0.22905858297128659 0 -0.44509860303711668 0.23682630912991179 0 -0.45869269992033701 0.2454907164656363 0 -0.41378803534302749 0.24595098164021981 0 -0.42890311410186438 0.23103539096398351 0 -0.40924720734505587 0.22715629573020241 0 -0.41378803534302749 0.24595098164021981 0 -0.40924720734505587 0.22715629573020241 0 -0.39731803899692769 0.24172070240330479 0 -0.41378803534302749 0.24595098164021981 0 -0.42890311410186438 0.23103539096398351 0 -0.43170989768545909 0.25242895599527643 0 -0.42890311410186438 0.23103539096398351 0 -0.43170989768545909 0.25242895599527643 0 -0.44509860303711668 0.23682630912991179 0 -0.42890311410186438 0.23103539096398351 0 -0.43170989768545909 0.25242895599527643 0 -0.42890311410186438 0.23103539096398351 0 -0.42609633051826928 0.2096418259326906 0 -0.4378484643519131 0.2212248929024625 0 -0.42890311410186438 0.23103539096398351 0 -0.43035934992555519 0.21026230523257031 0 -0.4378484643519131 0.2212248929024625 0 -0.44509860303711668 0.23682630912991179 0 -0.42890311410186438 0.23103539096398351 0 -0.42890311410186438 0.23103539096398351 0 -0.40924720734505587 0.22715629573020241 0 -0.42609633051826928 0.2096418259326906 0 -0.42609633051826928 0.2096418259326906 0 -0.39930413299849671 0.20574224153697901 0 -0.42609633051826928 0.2096418259326906 0 -0.41149871946609162 0.1966049945315127 0 -0.39930413299849671 0.20574224153697901 0 -0.40924720734505587 0.22715629573020241 0 -0.42609633051826928 0.2096418259326906 0 -0.39930413299849671 0.20574224153697901 0 -0.42890311410186438 0.23103539096398351 0 -0.43035934992555519 0.21026230523257031 0 -0.42609633051826928 0.2096418259326906 0 -0.43763885852712481 0.21132102963382621 0 -0.4378484643519131 0.2212248929024625 0 -0.43035934992555519 0.21026230523257031 0 -0.43763885852712481 0.21132102963382621 0 -0.43730516543297931 0.2040989196736496 0 -0.43035934992555519 0.21026230523257031 0 -0.43730516543297931 0.2040989196736496 0 -0.43035934992555519 0.21026230523257031 0 -0.43053332317220649 0.202753266796874 0 -0.43035934992555519 0.21026230523257031 0 -0.42609633051826928 0.2096418259326906 0 -0.43035934992555519 0.21026230523257031 0 -0.42609633051826928 0.2096418259326906 0 -0.43053332317220649 0.202753266796874 0 -0.42609633051826928 0.2096418259326906 0 -0.42428092083719898 0.19580460481688139 0 -0.42428092083719898 0.19580460481688139 0 -0.43425454347233161 0.19171162937936601 0 -0.41929036413110737 0.17908612183764211 0 -0.42609633051826928 0.2096418259326906 0 -0.42428092083719898 0.19580460481688139 0 -0.43053332317220649 0.202753266796874 0 -0.42428092083719898 0.19580460481688139 0 -0.43053332317220649 0.202753266796874 0 -0.43425454347233161 0.19171162937936601 0 -0.43730516543297931 0.2040989196736496 0 -0.43053332317220649 0.202753266796874 0 -0.43425454347233161 0.19171162937936601 0 -0.42428092083719898 0.19580460481688139 0 -0.41149871946609162 0.1966049945315127 0 -0.41177461642607899 0.18654307708805101 0 -0.41149871946609162 0.1966049945315127 0 -0.41177461642607899 0.18654307708805101 0 -0.39603759655041387 0.18529322328296169 0 -0.42609633051826928 0.2096418259326906 0 -0.42428092083719898 0.19580460481688139 0 -0.41149871946609162 0.1966049945315127 0 -0.38549601468059819 0.1907872554417169 0 -0.39930413299849671 0.20574224153697901 0 -0.39603759655041387 0.18529322328296169 0 -0.41149871946609162 0.1966049945315127 0 -0.39930413299849671 0.20574224153697901 0 -0.39603759655041387 0.18529322328296169 0 -0.38549601468059819 0.1907872554417169 0 -0.37338564085259429 0.18285798082617191 0 -0.37251193547872408 0.20184265714126609 0 -0.38549601468059819 0.1907872554417169 0 -0.39930413299849671 0.20574224153697901 0 -0.37251193547872408 0.20184265714126609 0 -0.39930413299849671 0.20574224153697901 0 -0.37251193547872408 0.20184265714126609 0 -0.39930413299849671 0.20574224153697901 0 -0.38937174359497179 0.22758088418537931 0 -0.37166410858853971 0.22078732866142481 0 -0.39930413299849671 0.20574224153697901 0 -0.37166410858853971 0.22078732866142481 0 -0.37251193547872408 0.20184265714126609 0 -0.40924720734505587 0.22715629573020241 0 -0.38937174359497179 0.22758088418537931 0 -0.39731803899692769 0.24172070240330479 0 -0.40924720734505587 0.22715629573020241 0 -0.39930413299849671 0.20574224153697901 0 -0.38937174359497179 0.22758088418537931 0 -0.38937174359497179 0.22758088418537931 0 -0.3720116894000754 0.24743174335923901 0 -0.37166410858853971 0.22078732866142481 0 -0.38937174359497179 0.22758088418537931 0 -0.39731803899692769 0.24172070240330479 0 -0.3720116894000754 0.24743174335923901 0 -0.39731803899692769 0.24172070240330479 0 -0.3720116894000754 0.24743174335923901 0 -0.39886412305494368 0.25911133573067291 0 -0.41378803534302749 0.24595098164021981 0 -0.39731803899692769 0.24172070240330479 0 -0.39886412305494368 0.25911133573067291 0 -0.41223705508813818 0.14757289739499699 0 -0.41897288526208759 0.13477796538352049 0 -0.42529827937099007 0.1452796047612625 0 -0.41223705508813818 0.14757289739499699 0 -0.42529827937099007 0.1452796047612625 0 -0.41628863907946689 0.15861687375460859 0 -0.40677176330347081 0.15404137753178951 0 -0.41223705508813818 0.14757289739499699 0 -0.41628863907946689 0.15861687375460859 0 -0.40677176330347081 0.15404137753178951 0 -0.41223705508813818 0.14757289739499699 0 -0.39997312584296391 0.14985160561631339 0 -0.41223705508813818 0.14757289739499699 0 -0.41897288526208759 0.13477796538352049 0 -0.40448930916618392 0.1371084091057089 0 -0.40887098363847019 0.11876242598672899 0 -0.41897288526208759 0.13477796538352049 0 -0.40448930916618392 0.1371084091057089 0 -0.42722993558449163 0.1176358238683809 0 -0.41897288526208759 0.13477796538352049 0 -0.43593169035091361 0.13333466155007939 0 -0.41897288526208759 0.13477796538352049 0 -0.43593169035091361 0.13333466155007939 0 -0.42529827937099007 0.1452796047612625 0 -0.44306112707434397 0.15209562572310709 0 -0.42529827937099007 0.1452796047612625 0 -0.41628863907946689 0.15861687375460859 0 -0.44306112707434397 0.15209562572310709 0 -0.41628863907946689 0.15861687375460859 0 -0.44306112707434397 0.15209562572310709 0 -0.43593169035091361 0.13333466155007939 0 -0.42529827937099007 0.1452796047612625 0 -0.44306112707434397 0.15209562572310709 0 -0.4318750961994553 0.17231789286099339 0 -0.41628863907946689 0.15861687375460859 0 -0.4318750961994553 0.17231789286099339 0 -0.41929036413110737 0.17908612183764211 0 -0.41628863907946689 0.15861687375460859 0 -0.43425454347233161 0.19171162937936601 0 -0.4318750961994553 0.17231789286099339 0 -0.41929036413110737 0.17908612183764211 0 -0.44590244344522662 0.17858237893163401 0 -0.43425454347233161 0.19171162937936601 0 -0.4318750961994553 0.17231789286099339 0 -0.42428092083719898 0.19580460481688139 0 -0.41929036413110737 0.17908612183764211 0 -0.41177461642607899 0.18654307708805101 0 -0.41929036413110737 0.17908612183764211 0 -0.41011242653296742 0.17010336584841049 0 -0.4049804943997668 0.17889299829999741 0 -0.41929036413110737 0.17908612183764211 0 -0.41177461642607899 0.18654307708805101 0 -0.4049804943997668 0.17889299829999741 0 -0.40677176330347081 0.15404137753178951 0 -0.41628863907946689 0.15861687375460859 0 -0.40052174023346149 0.15661080919067441 0 -0.41929036413110737 0.17908612183764211 0 -0.41628863907946689 0.15861687375460859 0 -0.41011242653296742 0.17010336584841049 0 -0.41011242653296742 0.17010336584841049 0 -0.38951615108458992 0.16513812178611001 0 -0.41011242653296742 0.17010336584841049 0 -0.39867894226148731 0.17363685461656081 0 -0.38951615108458992 0.16513812178611001 0 -0.41628863907946689 0.15861687375460859 0 -0.38951615108458992 0.16513812178611001 0 -0.41628863907946689 0.15861687375460859 0 -0.40052174023346149 0.15661080919067441 0 -0.38951615108458992 0.16513812178611001 0 -0.41628863907946689 0.15861687375460859 0 -0.41011242653296742 0.17010336584841049 0 -0.38951615108458992 0.16513812178611001 0 -0.39867894226148731 0.17363685461656081 0 -0.39080875583250302 0.17332278261272421 0 -0.38951615108458992 0.16513812178611001 0 -0.40052174023346149 0.15661080919067441 0 -0.38951615108458992 0.16513812178611001 0 -0.38830077546779118 0.1536704456849908 0 -0.41177461642607899 0.18654307708805101 0 -0.4049804943997668 0.17889299829999741 0 -0.39603759655041387 0.18529322328296169 0 -0.4049804943997668 0.17889299829999741 0 -0.3946830464235056 0.1782738468816297 0 -0.39603759655041387 0.18529322328296169 0 -0.4049804943997668 0.17889299829999741 0 -0.39867894226148731 0.17363685461656081 0 -0.3946830464235056 0.1782738468816297 0 -0.41011242653296742 0.17010336584841049 0 -0.4049804943997668 0.17889299829999741 0 -0.39867894226148731 0.17363685461656081 0 -0.39867894226148731 0.17363685461656081 0 -0.3946830464235056 0.1782738468816297 0 -0.39080875583250302 0.17332278261272421 0 -0.3946830464235056 0.1782738468816297 0 -0.39603759655041387 0.18529322328296169 0 -0.38624076752276199 0.1782001744212057 0 -0.38549601468059819 0.1907872554417169 0 -0.39603759655041387 0.18529322328296169 0 -0.38624076752276199 0.1782001744212057 0 -0.38624076752276199 0.1782001744212057 0 -0.38603697985341101 0.17124826071236399 0 -0.37849013480285199 0.16904339991492259 0 -0.3946830464235056 0.1782738468816297 0 -0.39080875583250302 0.17332278261272421 0 -0.38624076752276199 0.1782001744212057 0 -0.39080875583250302 0.17332278261272421 0 -0.38624076752276199 0.1782001744212057 0 -0.38603697985341101 0.17124826071236399 0 -0.38624076752276199 0.1782001744212057 0 -0.37849013480285199 0.16904339991492259 0 -0.37338564085259429 0.18285798082617191 0 -0.38549601468059819 0.1907872554417169 0 -0.38624076752276199 0.1782001744212057 0 -0.37338564085259429 0.18285798082617191 0 -0.38951615108458992 0.16513812178611001 0 -0.36971640409958889 0.16091848748094811 0 -0.38951615108458992 0.16513812178611001 0 -0.37849013480285199 0.16904339991492259 0 -0.36971640409958889 0.16091848748094811 0 -0.38951615108458992 0.16513812178611001 0 -0.38830077546779118 0.1536704456849908 0 -0.36971640409958889 0.16091848748094811 0 -0.38951615108458992 0.16513812178611001 0 -0.38603697985341101 0.17124826071236399 0 -0.37849013480285199 0.16904339991492259 0 -0.39080875583250302 0.17332278261272421 0 -0.38951615108458992 0.16513812178611001 0 -0.38603697985341101 0.17124826071236399 0 -0.37852463795447922 0.14713220857478421 0 -0.38830077546779118 0.1536704456849908 0 -0.36971640409958889 0.16091848748094811 0 -0.37852463795447922 0.14713220857478421 0 -0.38830077546779118 0.1536704456849908 0 -0.39155259359166372 0.14237144146111469 0 -0.37852463795447922 0.14713220857478421 0 -0.39155259359166372 0.14237144146111469 0 -0.37845434288240137 0.13251974432475269 0 -0.40052174023346149 0.15661080919067441 0 -0.38830077546779118 0.1536704456849908 0 -0.39997312584296391 0.14985160561631339 0 -0.38830077546779118 0.1536704456849908 0 -0.39155259359166372 0.14237144146111469 0 -0.39997312584296391 0.14985160561631339 0 -0.41223705508813818 0.14757289739499699 0 -0.39997312584296391 0.14985160561631339 0 -0.40448930916618392 0.1371084091057089 0 -0.39155259359166372 0.14237144146111469 0 -0.39997312584296391 0.14985160561631339 0 -0.40448930916618392 0.1371084091057089 0 -0.40677176330347081 0.15404137753178951 0 -0.40052174023346149 0.15661080919067441 0 -0.39997312584296391 0.14985160561631339 0 -0.40887098363847019 0.11876242598672899 0 -0.40448930916618392 0.1371084091057089 0 -0.39532921157378031 0.12931411879157889 0 -0.39155259359166372 0.14237144146111469 0 -0.40448930916618392 0.1371084091057089 0 -0.39532921157378031 0.12931411879157889 0 -0.39155259359166372 0.14237144146111469 0 -0.39532921157378031 0.12931411879157889 0 -0.37845434288240137 0.13251974432475269 0 -0.39175521923913598 0.1157223184650619 0 -0.39532921157378031 0.12931411879157889 0 -0.37845434288240137 0.13251974432475269 0 -0.37845434288240137 0.13251974432475269 0 -0.35466820515516961 0.12857559437590421 0 -0.36617639659490769 0.1450944166107212 0 -0.37601753401187132 0.116715219269239 0 -0.37845434288240137 0.13251974432475269 0 -0.35466820515516961 0.12857559437590421 0 -0.35466820515516961 0.12857559437590421 0 -0.33727731123945021 0.1325194740753749 0 -0.34224218672234608 0.14379925131531779 0 -0.35466820515516961 0.12857559437590421 0 -0.36617639659490769 0.1450944166107212 0 -0.34951839288289949 0.15632604829721691 0 -0.35466820515516961 0.12857559437590421 0 -0.34951839288289949 0.15632604829721691 0 -0.34224218672234608 0.14379925131531779 0 -0.35466820515516961 0.12857559437590421 0 -0.34951839288289949 0.15632604829721691 0 -0.37852463795447922 0.14713220857478421 0 -0.36617639659490769 0.1450944166107212 0 -0.36971640409958889 0.16091848748094811 0 -0.36617639659490769 0.1450944166107212 0 -0.36971640409958889 0.16091848748094811 0 -0.34951839288289949 0.15632604829721691 0 -0.37852463795447922 0.14713220857478421 0 -0.37845434288240137 0.13251974432475269 0 -0.36617639659490769 0.1450944166107212 0 -0.36971640409958889 0.16091848748094811 0 -0.3610380281014508 0.1727779744449067 0 -0.34951839288289949 0.15632604829721691 0 -0.37849013480285199 0.16904339991492259 0 -0.36971640409958889 0.16091848748094811 0 -0.3610380281014508 0.1727779744449067 0 -0.36971640409958889 0.16091848748094811 0 -0.34951839288289949 0.15632604829721691 0 -0.37849013480285199 0.16904339991492259 0 -0.37338564085259429 0.18285798082617191 0 -0.3610380281014508 0.1727779744449067 0 -0.37338564085259429 0.18285798082617191 0 -0.3610380281014508 0.1727779744449067 0 -0.35946891418229321 0.18755406662506999 0 -0.3610380281014508 0.1727779744449067 0 -0.34468922851974548 0.18234864796745201 0 -0.35946891418229321 0.18755406662506999 0 -0.34468922851974548 0.18234864796745201 0 -0.34951839288289949 0.15632604829721691 0 -0.34468922851974548 0.18234864796745201 0 -0.34951839288289949 0.15632604829721691 0 -0.33917319556955422 0.16651797110896269 0 -0.3610380281014508 0.1727779744449067 0 -0.34468922851974548 0.18234864796745201 0 -0.34951839288289949 0.15632604829721691 0 -0.32558182862100471 0.17393943705991879 0 -0.33690333225456698 0.15345775111126331 0 -0.32558182862100471 0.17393943705991879 0 -0.32192276183911278 0.15854694981209089 0 -0.33690333225456698 0.15345775111126331 0 -0.33917319556955422 0.16651797110896269 0 -0.32558182862100471 0.17393943705991879 0 -0.33690333225456698 0.15345775111126331 0 -0.34951839288289949 0.15632604829721691 0 -0.33917319556955422 0.16651797110896269 0 -0.33690333225456698 0.15345775111126331 0 -0.34468922851974548 0.18234864796745201 0 -0.32558182862100471 0.17393943705991879 0 -0.33143686549502899 0.1910556508901573 0 -0.34468922851974548 0.18234864796745201 0 -0.33917319556955422 0.16651797110896269 0 -0.32558182862100471 0.17393943705991879 0 -0.32558182862100471 0.17393943705991879 0 -0.31426032498744061 0.19442112300857339 0 -0.32558182862100471 0.17393943705991879 0 -0.33143686549502899 0.1910556508901573 0 -0.31426032498744061 0.19442112300857339 0 -0.32558182862100471 0.17393943705991879 0 -0.31426032498744061 0.19442112300857339 0 -0.30698350766289401 0.17701871782736359 0 -0.32558182862100471 0.17393943705991879 0 -0.32192276183911278 0.15854694981209089 0 -0.30876070940078981 0.16255175588823831 0 -0.32558182862100471 0.17393943705991879 0 -0.30876070940078981 0.16255175588823831 0 -0.30698350766289401 0.17701871782736359 0 -0.32192276183911278 0.15854694981209089 0 -0.31061547890589009 0.1474806592837816 0 -0.30876070940078981 0.16255175588823831 0 -0.32192276183911278 0.15854694981209089 0 -0.33690333225456698 0.15345775111126331 0 -0.31061547890589009 0.1474806592837816 0 -0.33690333225456698 0.15345775111126331 0 -0.31061547890589009 0.1474806592837816 0 -0.33690333225456698 0.15345775111126331 0 -0.32992928410100603 0.14160767656541479 0 -0.31061547890589009 0.1474806592837816 0 -0.32260811138277612 0.13078124704133659 0 -0.32992928410100603 0.14160767656541479 0 -0.31061547890589009 0.1474806592837816 0 -0.35466820515516961 0.12857559437590421 0 -0.33727731123945021 0.1325194740753749 0 -0.33608474512713049 0.1197287982259938 0 -0.32260811138277612 0.13078124704133659 0 -0.33727731123945021 0.1325194740753749 0 -0.32992928410100603 0.14160767656541479 0 -0.32260811138277612 0.13078124704133659 0 -0.33727731123945021 0.1325194740753749 0 -0.33608474512713049 0.1197287982259938 0 -0.33727731123945021 0.1325194740753749 0 -0.34224218672234608 0.14379925131531779 0 -0.32992928410100603 0.14160767656541479 0 -0.34224218672234608 0.14379925131531779 0 -0.33690333225456698 0.15345775111126331 0 -0.32992928410100603 0.14160767656541479 0 -0.34951839288289949 0.15632604829721691 0 -0.33690333225456698 0.15345775111126331 0 -0.34224218672234608 0.14379925131531779 0 -0.33690333225456698 0.15345775111126331 0 -0.34951839288289949 0.15632604829721691 0 -0.34224218672234608 0.14379925131531779 0 -0.33690333225456698 0.15345775111126331 0 -0.3720116894000754 0.24743174335923901 0 -0.35391202118646559 0.22994069642055351 0 -0.33530360316082458 0.24679204891918799 0 -0.3720116894000754 0.24743174335923901 0 -0.37166410858853971 0.22078732866142481 0 -0.35391202118646559 0.22994069642055351 0 -0.37166410858853971 0.22078732866142481 0 -0.35391202118646559 0.22994069642055351 0 -0.3475237019736187 0.21604374087365719 0 -0.35391202118646559 0.22994069642055351 0 -0.3475237019736187 0.21604374087365719 0 -0.33817318763339849 0.23105287439896069 0 -0.3475237019736187 0.21604374087365719 0 -0.37251193547872408 0.20184265714126609 0 -0.34571973795895161 0.19794307274555331 0 -0.37166410858853971 0.22078732866142481 0 -0.3475237019736187 0.21604374087365719 0 -0.37251193547872408 0.20184265714126609 0 -0.37338564085259429 0.18285798082617191 0 -0.37251193547872408 0.20184265714126609 0 -0.35946891418229321 0.18755406662506999 0 -0.37251193547872408 0.20184265714126609 0 -0.34571973795895161 0.19794307274555331 0 -0.37251193547872408 0.20184265714126609 0 -0.35946891418229321 0.18755406662506999 0 -0.34571973795895161 0.19794307274555331 0 -0.34468922851974548 0.18234864796745201 0 -0.35946891418229321 0.18755406662506999 0 -0.34571973795895161 0.19794307274555331 0 -0.34571973795895161 0.19794307274555331 0 -0.33143686549502899 0.1910556508901573 0 -0.32881321714940559 0.20669385714897701 0 -0.34468922851974548 0.18234864796745201 0 -0.34571973795895161 0.19794307274555331 0 -0.33143686549502899 0.1910556508901573 0 -0.33143686549502899 0.1910556508901573 0 -0.31426032498744061 0.19442112300857339 0 -0.32881321714940559 0.20669385714897701 0 -0.32881321714940559 0.20669385714897701 0 -0.32267909698323399 0.22471548979826211 0 -0.30293882135387751 0.2149028089572286 0 -0.31426032498744061 0.19442112300857339 0 -0.32881321714940559 0.20669385714897701 0 -0.30293882135387751 0.2149028089572286 0 -0.3475237019736187 0.21604374087365719 0 -0.32881321714940559 0.20669385714897701 0 -0.32267909698323399 0.22471548979826211 0 -0.3475237019736187 0.21604374087365719 0 -0.34571973795895161 0.19794307274555331 0 -0.32881321714940559 0.20669385714897701 0 -0.3475237019736187 0.21604374087365719 0 -0.33817318763339849 0.23105287439896069 0 -0.32267909698323399 0.22471548979826211 0 -0.33817318763339849 0.23105287439896069 0 -0.32267909698323399 0.22471548979826211 0 -0.33530360316082458 0.24679204891918799 0 -0.32267909698323399 0.22471548979826211 0 -0.30293882135387751 0.2149028089572286 0 -0.33530360316082458 0.24679204891918799 0 -0.31026200863687042 0.23965092843437941 0 -0.31458975536835199 0.26242518776222418 0 -0.32267909698323399 0.22471548979826211 0 -0.33530360316082458 0.24679204891918799 0 -0.31026200863687042 0.23965092843437941 0 -0.35391202118646559 0.22994069642055351 0 -0.33817318763339849 0.23105287439896069 0 -0.33530360316082458 0.24679204891918799 0 -0.29018391896017731 0.23797765074405569 0 -0.29384551260167402 0.25035171048263111 0 -0.27742901656647789 0.26105249253088308 0 -0.29018391896017731 0.23797765074405569 0 -0.276280438493267 0.24308762096875941 0 -0.27742901656647789 0.26105249253088308 0 -0.29018391896017731 0.23797765074405569 0 -0.27742901656647789 0.26105249253088308 0 -0.31026200863687042 0.23965092843437941 0 -0.30123656942269672 0.25940403457669048 0 -0.29384551260167402 0.25035171048263111 0 -0.31026200863687042 0.23965092843437941 0 -0.29384551260167402 0.25035171048263111 0 -0.29018391896017731 0.23797765074405569 0 -0.31026200863687042 0.23965092843437941 0 -0.29384551260167402 0.25035171048263111 0 -0.32267909698323399 0.22471548979826211 0 -0.31026200863687042 0.23965092843437941 0 -0.30293882135387751 0.2149028089572286 0 -0.29018391896017731 0.23797765074405569 0 -0.31026200863687042 0.23965092843437941 0 -0.30293882135387751 0.2149028089572286 0 -0.29018391896017731 0.23797765074405569 0 -0.30293882135387751 0.2149028089572286 0 -0.29018391896017731 0.23797765074405569 0 -0.28708106820593271 0.22131200300751261 0 -0.27342805438549572 0.2281442636771307 0 -0.29018391896017731 0.23797765074405569 0 -0.28708106820593271 0.22131200300751261 0 -0.30293882135387751 0.2149028089572286 0 -0.28708106820593271 0.22131200300751261 0 -0.30293882135387751 0.2149028089572286 0 -0.27688577987359447 0.20195211942359151 0 -0.30293882135387751 0.2149028089572286 0 -0.27688577987359447 0.20195211942359151 0 -0.31426032498744061 0.19442112300857339 0 -0.30293882135387751 0.2149028089572286 0 -0.31426032498744061 0.19442112300857339 0 -0.30293882135387751 0.2149028089572286 0 -0.2946085436840824 0.1882304630099691 0 -0.30293882135387751 0.2149028089572286 0 -0.2946085436840824 0.1882304630099691 0 -0.27688577987359447 0.20195211942359151 0 -0.2946085436840824 0.1882304630099691 0 -0.27688577987359447 0.20195211942359151 0 -0.27438575289766071 0.18079647116897421 0 -0.27688577987359447 0.20195211942359151 0 -0.25083273839331149 0.18900142988995439 0 -0.27438575289766071 0.18079647116897421 0 -0.27688577987359447 0.20195211942359151 0 -0.25083273839331149 0.18900142988995439 0 -0.27688577987359447 0.20195211942359151 0 -0.25083273839331149 0.18900142988995439 0 -0.25745122668553339 0.2170900574415493 0 -0.25083273839331149 0.18900142988995439 0 -0.25745122668553339 0.2170900574415493 0 -0.28708106820593271 0.22131200300751261 0 -0.27688577987359447 0.20195211942359151 0 -0.27342805438549572 0.2281442636771307 0 -0.27688577987359447 0.20195211942359151 0 -0.25745122668553339 0.2170900574415493 0 -0.27342805438549572 0.2281442636771307 0 -0.25745122668553339 0.2170900574415493 0 -0.27342805438549572 0.2281442636771307 0 -0.26408076406091679 0.24517607692296789 0 -0.25745122668553339 0.2170900574415493 0 -0.26408076406091679 0.24517607692296789 0 -0.24729232979450469 0.2396916628870277 0 -0.25745122668553339 0.2170900574415493 0 -0.26408076406091679 0.24517607692296789 0 -0.26408076406091679 0.24517607692296789 0 -0.25244996598307418 0.25641473194636027 0 -0.24729232979450469 0.2396916628870277 0 -0.26408076406091679 0.24517607692296789 0 -0.276280438493267 0.24308762096875941 0 -0.27742901656647789 0.26105249253088308 0 -0.27342805438549572 0.2281442636771307 0 -0.26408076406091679 0.24517607692296789 0 -0.276280438493267 0.24308762096875941 0 -0.29018391896017731 0.23797765074405569 0 -0.27342805438549572 0.2281442636771307 0 -0.276280438493267 0.24308762096875941 0 -0.29597207577559248 0.15453536538533769 0 -0.28445043339291748 0.15519003412824869 0 -0.28432762555721303 0.14150356745630141 0 -0.28432762555721303 0.14150356745630141 0 -0.2813613069434896 0.13068390486023601 0 -0.30242593063096712 0.12736198072835961 0 -0.2813613069434896 0.13068390486023601 0 -0.30242593063096712 0.12736198072835961 0 -0.28548695245100492 0.1196767030090156 0 -0.28432762555721303 0.14150356745630141 0 -0.30242593063096712 0.12736198072835961 0 -0.32260811138277612 0.13078124704133659 0 -0.30242593063096712 0.12736198072835961 0 -0.31061547890589009 0.1474806592837816 0 -0.28432762555721303 0.14150356745630141 0 -0.30242593063096712 0.12736198072835961 0 -0.31061547890589009 0.1474806592837816 0 -0.29597207577559248 0.15453536538533769 0 -0.28432762555721303 0.14150356745630141 0 -0.31061547890589009 0.1474806592837816 0 -0.28432762555721303 0.14150356745630141 0 -0.31061547890589009 0.1474806592837816 0 -0.29597207577559248 0.15453536538533769 0 -0.31061547890589009 0.1474806592837816 0 -0.30876070940078981 0.16255175588823831 0 -0.30876070940078981 0.16255175588823831 0 -0.30698350766289401 0.17701871782736359 0 -0.29186150877894401 0.16749467031953411 0 -0.29597207577559248 0.15453536538533769 0 -0.30876070940078981 0.16255175588823831 0 -0.29186150877894401 0.16749467031953411 0 -0.2946085436840824 0.1882304630099691 0 -0.30698350766289401 0.17701871782736359 0 -0.29186150877894401 0.16749467031953411 0 -0.31426032498744061 0.19442112300857339 0 -0.2946085436840824 0.1882304630099691 0 -0.30698350766289401 0.17701871782736359 0 -0.2946085436840824 0.1882304630099691 0 -0.29186150877894401 0.16749467031953411 0 -0.27438575289766071 0.18079647116897421 0 -0.28445043339291748 0.15519003412824869 0 -0.29186150877894401 0.16749467031953411 0 -0.27505909194795092 0.16477455484589049 0 -0.29597207577559248 0.15453536538533769 0 -0.28445043339291748 0.15519003412824869 0 -0.29186150877894401 0.16749467031953411 0 -0.29186150877894401 0.16749467031953411 0 -0.27505909194795092 0.16477455484589049 0 -0.27438575289766071 0.18079647116897421 0 -0.28445043339291748 0.15519003412824869 0 -0.27505909194795092 0.16477455484589049 0 -0.27222620930601038 0.15095932736033421 0 -0.27505909194795092 0.16477455484589049 0 -0.2601247930548069 0.16041508726436601 0 -0.27222620930601038 0.15095932736033421 0 -0.27505909194795092 0.16477455484589049 0 -0.27438575289766071 0.18079647116897421 0 -0.25924872539795052 0.17370220378464979 0 -0.25083273839331149 0.18900142988995439 0 -0.25924872539795052 0.17370220378464979 0 -0.24537043529135269 0.16590981314459491 0 -0.25083273839331149 0.18900142988995439 0 -0.27438575289766071 0.18079647116897421 0 -0.25924872539795052 0.17370220378464979 0 -0.27505909194795092 0.16477455484589049 0 -0.25924872539795052 0.17370220378464979 0 -0.2601247930548069 0.16041508726436601 0 -0.2601247930548069 0.16041508726436601 0 -0.25231996688782288 0.14999036497700921 0 -0.24537043529135269 0.16590981314459491 0 -0.25924872539795052 0.17370220378464979 0 -0.2601247930548069 0.16041508726436601 0 -0.24537043529135269 0.16590981314459491 0 -0.25231996688782288 0.14999036497700921 0 -0.25795352532852339 0.13942601678297431 0 -0.24905264270060931 0.14173952472264159 0 -0.25231996688782288 0.14999036497700921 0 -0.26161494398528867 0.14935410961329301 0 -0.25795352532852339 0.13942601678297431 0 -0.26161494398528867 0.14935410961329301 0 -0.26759655568744528 0.14259398990738911 0 -0.25795352532852339 0.13942601678297431 0 -0.2601247930548069 0.16041508726436601 0 -0.26161494398528867 0.14935410961329301 0 -0.27222620930601038 0.15095932736033421 0 -0.2601247930548069 0.16041508726436601 0 -0.25231996688782288 0.14999036497700921 0 -0.26161494398528867 0.14935410961329301 0 -0.2601247930548069 0.16041508726436601 0 -0.27222620930601038 0.15095932736033421 0 -0.27222620930601038 0.15095932736033421 0 -0.26759655568744528 0.14259398990738911 0 -0.27630190089529738 0.1396787515365645 0 -0.26161494398528867 0.14935410961329301 0 -0.27222620930601038 0.15095932736033421 0 -0.26759655568744528 0.14259398990738911 0 -0.28432762555721303 0.14150356745630141 0 -0.27222620930601038 0.15095932736033421 0 -0.27630190089529738 0.1396787515365645 0 -0.28432762555721303 0.14150356745630141 0 -0.27222620930601038 0.15095932736033421 0 -0.28445043339291748 0.15519003412824869 0 -0.28432762555721303 0.14150356745630141 0 -0.27222620930601038 0.15095932736033421 0 -0.28432762555721303 0.14150356745630141 0 -0.2813613069434896 0.13068390486023601 0 -0.27630190089529738 0.1396787515365645 0 -0.28432762555721303 0.14150356745630141 0 -0.27630190089529738 0.1396787515365645 0 -0.2813613069434896 0.13068390486023601 0 -0.27630190089529738 0.1396787515365645 0 -0.26836858418522108 0.13390737945290629 0 -0.26759655568744528 0.14259398990738911 0 -0.27630190089529738 0.1396787515365645 0 -0.26836858418522108 0.13390737945290629 0 -0.2813613069434896 0.13068390486023601 0 -0.26836858418522108 0.13390737945290629 0 -0.26973923320434851 0.1223306821873953 0 -0.26836858418522108 0.13390737945290629 0 -0.25725898305222278 0.12873093144287839 0 -0.26973923320434851 0.1223306821873953 0 -0.26836858418522108 0.13390737945290629 0 -0.25795352532852339 0.13942601678297431 0 -0.25725898305222278 0.12873093144287839 0 -0.26759655568744528 0.14259398990738911 0 -0.26836858418522108 0.13390737945290629 0 -0.25795352532852339 0.13942601678297431 0 -0.25795352532852339 0.13942601678297431 0 -0.25270287220698268 0.13457527676023789 0 -0.25725898305222278 0.12873093144287839 0 -0.25795352532852339 0.13942601678297431 0 -0.25270287220698268 0.13457527676023789 0 -0.24905264270060931 0.14173952472264159 0 -0.25270287220698268 0.13457527676023789 0 -0.25725898305222278 0.12873093144287839 0 -0.24654633774657539 0.1284046340924572 0 -0.25725898305222278 0.12873093144287839 0 -0.25478247939872278 0.1167748463476304 0 -0.24654633774657539 0.1284046340924572 0 -0.25478247939872278 0.1167748463476304 0 -0.26858589012350131 0.10518503894333051 0 -0.26973923320434851 0.1223306821873953 0 -0.25725898305222278 0.12873093144287839 0 -0.25478247939872278 0.1167748463476304 0 -0.26973923320434851 0.1223306821873953 0 -0.25089302828754872 0.1010279180716174 0 -0.26858589012350131 0.10518503894333051 0 -0.25902866719658019 0.081988633488699031 0 -0.25478247939872278 0.1167748463476304 0 -0.25089302828754872 0.1010279180716174 0 -0.26858589012350131 0.10518503894333051 0 -0.26858589012350131 0.10518503894333051 0 -0.28933469435669518 0.1058594113026354 0 -0.28327796807935962 0.091864893352038873 0 -0.26858589012350131 0.10518503894333051 0 -0.28548695245100492 0.1196767030090156 0 -0.28933469435669518 0.1058594113026354 0 -0.26858589012350131 0.10518503894333051 0 -0.26973923320434851 0.1223306821873953 0 -0.28548695245100492 0.1196767030090156 0 -0.2813613069434896 0.13068390486023601 0 -0.26973923320434851 0.1223306821873953 0 -0.28548695245100492 0.1196767030090156 0 -0.28548695245100492 0.1196767030090156 0 -0.28933469435669518 0.1058594113026354 0 -0.30544285958947609 0.1126888998819071 0 -0.28933469435669518 0.1058594113026354 0 -0.30325249461943948 0.099196408872258932 0 -0.28327796807935962 0.091864893352038873 0 -0.30325249461943948 0.099196408872258932 0 -0.32093751769895618 0.099137608072365921 0 -0.30325249461943948 0.099196408872258932 0 -0.30544285958947609 0.1126888998819071 0 -0.32093751769895618 0.099137608072365921 0 -0.28933469435669518 0.1058594113026354 0 -0.30325249461943948 0.099196408872258932 0 -0.30544285958947609 0.1126888998819071 0 -0.30242593063096712 0.12736198072835961 0 -0.30544285958947609 0.1126888998819071 0 -0.32052423570472022 0.1132203940004169 0 -0.30242593063096712 0.12736198072835961 0 -0.32052423570472022 0.1132203940004169 0 -0.30242593063096712 0.12736198072835961 0 -0.28548695245100492 0.1196767030090156 0 -0.30544285958947609 0.1126888998819071 0 -0.30204190813351861 0.07096244763702278 0 -0.31663254448226869 0.061797888446715112 0 -0.31432042747595912 0.082896052041514331 0 -0.30204190813351861 0.07096244763702278 0 -0.29708897653750133 0.085234956726407657 0 -0.31432042747595912 0.082896052041514331 0 -0.30325249461943948 0.099196408872258932 0 -0.29708897653750133 0.085234956726407657 0 -0.31432042747595912 0.082896052041514331 0 -0.29708897653750133 0.085234956726407657 0 -0.28327796807935962 0.091864893352038873 0 -0.28269782923849351 0.071205064005519916 0 -0.30325249461943948 0.099196408872258932 0 -0.29708897653750133 0.085234956726407657 0 -0.28327796807935962 0.091864893352038873 0 -0.30204190813351861 0.07096244763702278 0 -0.28269782923849351 0.071205064005519916 0 -0.29503877422782382 0.051625203891058541 0 -0.30204190813351861 0.07096244763702278 0 -0.29708897653750133 0.085234956726407657 0 -0.28269782923849351 0.071205064005519916 0 -0.28269782923849351 0.071205064005519916 0 -0.25902866719658019 0.081988633488699031 0 -0.26060190944484068 0.058063245326308729 0 -0.26858589012350131 0.10518503894333051 0 -0.28327796807935962 0.091864893352038873 0 -0.25902866719658019 0.081988633488699031 0 -0.28327796807935962 0.091864893352038873 0 -0.28269782923849351 0.071205064005519916 0 -0.25902866719658019 0.081988633488699031 0 -0.25902866719658019 0.081988633488699031 0 -0.26060190944484068 0.058063245326308729 0 -0.23586242867473051 0.060692165078337558 0 -0.26060190944484068 0.058063245326308729 0 -0.27120471497328419 0.036536585763639003 0 -0.24168281814766621 0.039692785129884181 0 -0.27120471497328419 0.036536585763639003 0 -0.24609087816622199 0.020100449583692271 0 -0.24168281814766621 0.039692785129884181 0 -0.27120471497328419 0.036536585763639003 0 -0.27738580697111059 0.054357524746631553 0 -0.29503877422782382 0.051625203891058541 0 -0.28269782923849351 0.071205064005519916 0 -0.26060190944484068 0.058063245326308729 0 -0.27738580697111059 0.054357524746631553 0 -0.26060190944484068 0.058063245326308729 0 -0.27120471497328419 0.036536585763639003 0 -0.27738580697111059 0.054357524746631553 0 -0.25087180007504312 -0.01274334459490695 0 -0.26103825752416371 0.01189662058436592 0 -0.2459253282718992 0.0032477469373470829 0 -0.25087180007504312 -0.01274334459490695 0 -0.26103825752416371 0.01189662058436592 0 -0.27339990125571778 0.0059396664209166641 0 -0.26103825752416371 0.01189662058436592 0 -0.24609087816622199 0.020100449583692271 0 -0.2459253282718992 0.0032477469373470829 0 -0.27120471497328419 0.036536585763639003 0 -0.26103825752416371 0.01189662058436592 0 -0.24609087816622199 0.020100449583692271 0 -0.27120471497328419 0.036536585763639003 0 -0.26103825752416371 0.01189662058436592 0 -0.27339990125571778 0.0059396664209166641 0 -0.27120471497328419 0.036536585763639003 0 -0.27339990125571778 0.0059396664209166641 0 -0.2959280024363925 0.024622677436740119 0 -0.27120471497328419 0.036536585763639003 0 -0.26103825752416371 0.01189662058436592 0 -0.2959280024363925 0.024622677436740119 0 -0.31178167793527611 0.0079382695773918301 0 -0.32729318532353763 0.0228357851248557 0 -0.27339990125571778 0.0059396664209166641 0 -0.2959280024363925 0.024622677436740119 0 -0.28859698124121203 -0.005712966606426703 0 -0.27339990125571778 0.0059396664209166641 0 -0.29426279159128288 0.0067237075994722303 0 -0.27339990125571778 0.0059396664209166641 0 -0.29426279159128288 0.0067237075994722303 0 -0.2959280024363925 0.024622677436740119 0 -0.29426279159128288 0.0067237075994722303 0 -0.2959280024363925 0.024622677436740119 0 -0.31178167793527611 0.0079382695773918301 0 -0.30221028477068612 -0.0038103016475589929 0 -0.29426279159128288 0.0067237075994722303 0 -0.31178167793527611 0.0079382695773918301 0 -0.28269782923849351 0.071205064005519916 0 -0.27738580697111059 0.054357524746631553 0 -0.29503877422782382 0.051625203891058541 0 -0.27120471497328419 0.036536585763639003 0 -0.2959280024363925 0.024622677436740119 0 -0.29503877422782382 0.051625203891058541 0 -0.2959280024363925 0.024622677436740119 0 -0.31845610361706739 0.043305688452563738 0 -0.2959280024363925 0.024622677436740119 0 -0.29503877422782382 0.051625203891058541 0 -0.31845610361706739 0.043305688452563738 0 -0.29503877422782382 0.051625203891058541 0 -0.31663254448226869 0.061797888446715112 0 -0.31845610361706739 0.043305688452563738 0 -0.30204190813351861 0.07096244763702278 0 -0.29503877422782382 0.051625203891058541 0 -0.31663254448226869 0.061797888446715112 0 -0.31663254448226869 0.061797888446715112 0 -0.31845610361706739 0.043305688452563738 0 -0.33450063915981981 0.057637004126334643 0 -0.31845610361706739 0.043305688452563738 0 -0.34073632946161009 0.039574160613670938 0 -0.32729318532353763 0.0228357851248557 0 -0.31845610361706739 0.043305688452563738 0 -0.34073632946161009 0.039574160613670938 0 -0.33450063915981981 0.057637004126334643 0 -0.34073632946161009 0.039574160613670938 0 -0.33450063915981981 0.057637004126334643 0 -0.35134978087263169 0.055322193678272881 0 -0.2959280024363925 0.024622677436740119 0 -0.31845610361706739 0.043305688452563738 0 -0.32729318532353763 0.0228357851248557 0 -0.31761660941157371 -0.0078205932402375875 0 -0.31178167793527611 0.0079382695773918301 0 -0.33224400803738457 0.0049137273549076056 0 -0.31178167793527611 0.0079382695773918301 0 -0.32729318532353763 0.0228357851248557 0 -0.33224400803738457 0.0049137273549076056 0 -0.34073632946161009 0.039574160613670938 0 -0.32729318532353763 0.0228357851248557 0 -0.34813099003098469 0.02020645555404784 0 -0.32729318532353763 0.0228357851248557 0 -0.33224400803738457 0.0049137273549076056 0 -0.34813099003098469 0.02020645555404784 0 -0.33224400803738457 0.0049137273549076056 0 -0.35532249334114191 0.0025662737979994018 0 -0.34813099003098469 0.02020645555404784 0 -0.35532249334114191 0.0025662737979994018 0 -0.34813099003098469 0.02020645555404784 0 -0.36738992771166951 0.018222951418625968 0 -0.34813099003098469 0.02020645555404784 0 -0.36738992771166951 0.018222951418625968 0 -0.36679936359739518 0.04034778089882541 0 -0.38500961446816351 0.023459533911800591 0 -0.36738992771166951 0.018222951418625968 0 -0.36679936359739518 0.04034778089882541 0 -0.36904092926483728 -0.0062125949297039051 0 -0.35532249334114191 0.0025662737979994018 0 -0.37316923238732841 0.0056715527261784349 0 -0.35532249334114191 0.0025662737979994018 0 -0.36738992771166951 0.018222951418625968 0 -0.37316923238732841 0.0056715527261784349 0 -0.37983156249558608 0.01427516127154336 0 -0.36738992771166951 0.018222951418625968 0 -0.37316923238732841 0.0056715527261784349 0 -0.33450063915981981 0.057637004126334643 0 -0.35134978087263169 0.055322193678272881 0 -0.34965849747437211 0.071700487739710564 0 -0.35134978087263169 0.055322193678272881 0 -0.37168045804913091 0.060279687372564471 0 -0.34965849747437211 0.071700487739710564 0 -0.34073632946161009 0.039574160613670938 0 -0.35134978087263169 0.055322193678272881 0 -0.36679936359739518 0.04034778089882541 0 -0.34073632946161009 0.039574160613670938 0 -0.34813099003098469 0.02020645555404784 0 -0.36679936359739518 0.04034778089882541 0 -0.35134978087263169 0.055322193678272881 0 -0.36679936359739518 0.04034778089882541 0 -0.37168045804913091 0.060279687372564471 0 -0.38450146938697238 0.041314545963899253 0 -0.36679936359739518 0.04034778089882541 0 -0.37168045804913091 0.060279687372564471 0 -0.37168045804913091 0.060279687372564471 0 -0.34965849747437211 0.071700487739710564 0 -0.36522865076586308 0.078289423385608764 0 -0.37772583106712621 0.074416191705615795 0 -0.37168045804913091 0.060279687372564471 0 -0.36522865076586308 0.078289423385608764 0 -0.34965849747437211 0.071700487739710564 0 -0.3519255957721682 0.088684115329041455 0 -0.33994265051610212 0.084381414082505379 0 -0.34965849747437211 0.071700487739710564 0 -0.3519255957721682 0.088684115329041455 0 -0.36522865076586308 0.078289423385608764 0 -0.3519255957721682 0.088684115329041455 0 -0.36522865076586308 0.078289423385608764 0 -0.3519255957721682 0.088684115329041455 0 -0.36246919018275708 0.089019572160462232 0 -0.35406767461291411 0.09394485179259339 0 -0.36246919018275708 0.089019572160462232 0 -0.3746020057944815 0.087596130447960774 0 -0.36325337171825822 0.098996912408396323 0 -0.3519255957721682 0.088684115329041455 0 -0.36246919018275708 0.089019572160462232 0 -0.36522865076586308 0.078289423385608764 0 -0.36246919018275708 0.089019572160462232 0 -0.36522865076586308 0.078289423385608764 0 -0.3746020057944815 0.087596130447960774 0 -0.37772583106712621 0.074416191705615795 0 -0.36522865076586308 0.078289423385608764 0 -0.3746020057944815 0.087596130447960774 0 -0.38788420265804358 0.098915017544319708 0 -0.36723296685326512 0.10864251765499409 0 -0.36325337171825822 0.098996912408396323 0 -0.36723296685326512 0.10864251765499409 0 -0.36325337171825822 0.098996912408396323 0 -0.3598180174274398 0.10082514045459159 0 -0.36246919018275708 0.089019572160462232 0 -0.36325337171825822 0.098996912408396323 0 -0.35406767461291411 0.09394485179259339 0 -0.37601753401187132 0.116715219269239 0 -0.35466820515516961 0.12857559437590421 0 -0.36723296685326512 0.10864251765499409 0 -0.35466820515516961 0.12857559437590421 0 -0.36723296685326512 0.10864251765499409 0 -0.3598180174274398 0.10082514045459159 0 -0.35466820515516961 0.12857559437590421 0 -0.34687476291263247 0.1122544612622611 0 -0.33608474512713049 0.1197287982259938 0 -0.35466820515516961 0.12857559437590421 0 -0.3598180174274398 0.10082514045459159 0 -0.35466820515516961 0.12857559437590421 0 -0.3598180174274398 0.10082514045459159 0 -0.34687476291263247 0.1122544612622611 0 -0.36325337171825822 0.098996912408396323 0 -0.35406767461291411 0.09394485179259339 0 -0.33862254077847292 0.099078807272473507 0 -0.36325337171825822 0.098996912408396323 0 -0.3598180174274398 0.10082514045459159 0 -0.33862254077847292 0.099078807272473507 0 -0.3598180174274398 0.10082514045459159 0 -0.34687476291263247 0.1122544612622611 0 -0.33862254077847292 0.099078807272473507 0 -0.36325337171825822 0.098996912408396323 0 -0.33862254077847292 0.099078807272473507 0 -0.3519255957721682 0.088684115329041455 0 -0.35406767461291411 0.09394485179259339 0 -0.33862254077847292 0.099078807272473507 0 -0.3519255957721682 0.088684115329041455 0 -0.33862254077847292 0.099078807272473507 0 -0.33862254077847292 0.099078807272473507 0 -0.32093751769895618 0.099137608072365921 0 -0.32933603950452878 0.088322054244226816 0 -0.33862254077847292 0.099078807272473507 0 -0.32093751769895618 0.099137608072365921 0 -0.33862254077847292 0.099078807272473507 0 -0.32052423570472022 0.1132203940004169 0 -0.33862254077847292 0.099078807272473507 0 -0.33608474512713049 0.1197287982259938 0 -0.32052423570472022 0.1132203940004169 0 -0.34687476291263247 0.1122544612622611 0 -0.33862254077847292 0.099078807272473507 0 -0.33608474512713049 0.1197287982259938 0 -0.32260811138277612 0.13078124704133659 0 -0.30242593063096712 0.12736198072835961 0 -0.32052423570472022 0.1132203940004169 0 -0.32260811138277612 0.13078124704133659 0 -0.33608474512713049 0.1197287982259938 0 -0.32052423570472022 0.1132203940004169 0 -0.33862254077847292 0.099078807272473507 0 -0.32052423570472022 0.1132203940004169 0 -0.32093751769895618 0.099137608072365921 0 -0.30544285958947609 0.1126888998819071 0 -0.32052423570472022 0.1132203940004169 0 -0.32093751769895618 0.099137608072365921 0 -0.32093751769895618 0.099137608072365921 0 -0.31432042747595912 0.082896052041514331 0 -0.32933603950452878 0.088322054244226816 0 -0.31432042747595912 0.082896052041514331 0 -0.33017057905096853 0.074121605827074583 0 -0.32933603950452878 0.088322054244226816 0 -0.30325249461943948 0.099196408872258932 0 -0.32093751769895618 0.099137608072365921 0 -0.31432042747595912 0.082896052041514331 0 -0.31663254448226869 0.061797888446715112 0 -0.33450063915981981 0.057637004126334643 0 -0.33017057905096853 0.074121605827074583 0 -0.31663254448226869 0.061797888446715112 0 -0.31432042747595912 0.082896052041514331 0 -0.33017057905096853 0.074121605827074583 0 -0.33450063915981981 0.057637004126334643 0 -0.34965849747437211 0.071700487739710564 0 -0.33017057905096853 0.074121605827074583 0 -0.34965849747437211 0.071700487739710564 0 -0.33017057905096853 0.074121605827074583 0 -0.33994265051610212 0.084381414082505379 0 -0.33862254077847292 0.099078807272473507 0 -0.33994265051610212 0.084381414082505379 0 -0.32933603950452878 0.088322054244226816 0 -0.3519255957721682 0.088684115329041455 0 -0.33862254077847292 0.099078807272473507 0 -0.33994265051610212 0.084381414082505379 0 -0.33017057905096853 0.074121605827074583 0 -0.33994265051610212 0.084381414082505379 0 -0.32933603950452878 0.088322054244226816 0 -0.39757365154932328 0.5 0 -0.37435867886949242 0.47639747908997709 0 -0.36151925059574941 0.5 0 -0.39228972099338189 0.48064733361609718 0 -0.39486025545613712 0.46928062883289151 0 -0.40169070533694379 0.47932927244085982 0 -0.39486025545613712 0.46928062883289151 0 -0.40598871610619919 0.4695448490692738 0 -0.40169070533694379 0.47932927244085982 0 -0.40169070533694379 0.47932927244085982 0 -0.39757365154932328 0.5 0 -0.41146386984712813 0.48265148822367748 0 -0.39228972099338189 0.48064733361609718 0 -0.40169070533694379 0.47932927244085982 0 -0.39757365154932328 0.5 0 -0.39228972099338189 0.48064733361609718 0 -0.39757365154932328 0.5 0 -0.37435867886949242 0.47639747908997709 0 -0.39228972099338189 0.48064733361609718 0 -0.39486025545613712 0.46928062883289151 0 -0.37435867886949242 0.47639747908997709 0 -0.39486025545613712 0.46928062883289151 0 -0.3869578768201159 0.45987750808237188 0 -0.37435867886949242 0.47639747908997709 0 -0.3869578768201159 0.45987750808237188 0 -0.3739040664231631 0.46119874318328491 0 -0.37435867886949242 0.47639747908997709 0 -0.3869578768201159 0.45987750808237188 0 -0.38186366916293413 0.44676931413255527 0 -0.3739040664231631 0.46119874318328491 0 -0.38186366916293413 0.44676931413255527 0 -0.38303930066684888 0.43275526436642731 0 -0.36821910979165767 0.44821371158351658 0 -0.3869578768201159 0.45987750808237188 0 -0.38186366916293413 0.44676931413255527 0 -0.39592735188396222 0.4446528371111852 0 -0.38186366916293413 0.44676931413255527 0 -0.39592735188396222 0.4446528371111852 0 -0.38303930066684888 0.43275526436642731 0 -0.39592735188396222 0.4446528371111852 0 -0.40270757279139552 0.45734885125989438 0 -0.40869495604761708 0.44347610705221752 0 -0.39592735188396222 0.4446528371111852 0 -0.40869495604761708 0.44347610705221752 0 -0.40733569619950621 0.4313834284869747 0 -0.39486025545613712 0.46928062883289151 0 -0.3869578768201159 0.45987750808237188 0 -0.40270757279139552 0.45734885125989438 0 -0.3869578768201159 0.45987750808237188 0 -0.39592735188396222 0.4446528371111852 0 -0.40270757279139552 0.45734885125989438 0 -0.3869578768201159 0.45987750808237188 0 -0.40270757279139552 0.45734885125989438 0 -0.39486025545613712 0.46928062883289151 0 -0.40598871610619919 0.4695448490692738 0 -0.40270757279139552 0.45734885125989438 0 -0.40270757279139552 0.45734885125989438 0 -0.41149455107156402 0.46240115630721179 0 -0.41845726876267508 0.45482019443741678 0 -0.40270757279139552 0.45734885125989438 0 -0.41845726876267508 0.45482019443741678 0 -0.40598871610619919 0.4695448490692738 0 -0.40270757279139552 0.45734885125989438 0 -0.41149455107156402 0.46240115630721179 0 -0.40598871610619919 0.4695448490692738 0 -0.41149455107156402 0.46240115630721179 0 -0.41198931041529641 0.4696068520652098 0 -0.41845726876267508 0.45482019443741678 0 -0.41901010463629312 0.46382991466067552 0 -0.41845726876267508 0.45482019443741678 0 -0.41901010463629312 0.46382991466067552 0 -0.42290898275686062 0.45410545956357318 0 -0.41149455107156402 0.46240115630721179 0 -0.41845726876267508 0.45482019443741678 0 -0.41901010463629312 0.46382991466067552 0 -0.41901010463629312 0.46382991466067552 0 -0.42290898275686062 0.45410545956357318 0 -0.41845726876267508 0.45482019443741678 0 -0.42290898275686062 0.45410545956357318 0 -0.41901010463629312 0.46382991466067552 0 -0.41923233176420499 0.46745161206502539 0 -0.41149455107156402 0.46240115630721179 0 -0.41901010463629312 0.46382991466067552 0 -0.41198931041529641 0.4696068520652098 0 -0.41845726876267508 0.45482019443741678 0 -0.40869495604761708 0.44347610705221752 0 -0.41697812409415008 0.43071416176283672 0 -0.41845726876267508 0.45482019443741678 0 -0.41697812409415008 0.43071416176283672 0 -0.41845726876267508 0.45482019443741678 0 -0.42290898275686062 0.45410545956357318 0 -0.41697812409415008 0.43071416176283672 0 -0.40270757279139552 0.45734885125989438 0 -0.41845726876267508 0.45482019443741678 0 -0.40869495604761708 0.44347610705221752 0 -0.42290898275686062 0.45410545956357318 0 -0.44385002782479699 0.45074331742588281 0 -0.42290898275686062 0.45410545956357318 0 -0.44385002782479699 0.45074331742588281 0 -0.43368948983569527 0.4272170691676056 0 -0.42290898275686062 0.45410545956357318 0 -0.43368948983569527 0.4272170691676056 0 -0.42764063350210091 0.46476544424612198 0 -0.42290898275686062 0.45410545956357318 0 -0.44385002782479699 0.45074331742588281 0 -0.41901010463629312 0.46382991466067552 0 -0.41923233176420499 0.46745161206502539 0 -0.42764063350210091 0.46476544424612198 0 -0.41901010463629312 0.46382991466067552 0 -0.42764063350210091 0.46476544424612198 0 -0.42290898275686062 0.45410545956357318 0 -0.41947200185992378 0.48369135555095771 0 -0.42017830158195568 0.5 0 -0.44137035217052423 0.46877100621061679 0 -0.41947200185992378 0.48369135555095771 0 -0.44137035217052423 0.46877100621061679 0 -0.42764063350210091 0.46476544424612198 0 -0.41947200185992378 0.48369135555095771 0 -0.44137035217052423 0.46877100621061679 0 -0.41923233176420499 0.46745161206502539 0 -0.42764063350210091 0.46476544424612198 0 -0.41947200185992378 0.48369135555095771 0 -0.41901010463629312 0.46382991466067552 0 -0.41146386984712813 0.48265148822367748 0 -0.41198931041529641 0.4696068520652098 0 -0.41901010463629312 0.46382991466067552 0 -0.41923233176420499 0.46745161206502539 0 -0.41146386984712813 0.48265148822367748 0 -0.41901010463629312 0.46382991466067552 0 -0.41146386984712813 0.48265148822367748 0 -0.41923233176420499 0.46745161206502539 0 -0.41947200185992378 0.48369135555095771 0 -0.41146386984712813 0.48265148822367748 0 -0.40598871610619919 0.4695448490692738 0 -0.40169070533694379 0.47932927244085982 0 -0.41146386984712813 0.48265148822367748 0 -0.40598871610619919 0.4695448490692738 0 -0.41146386984712813 0.48265148822367748 0 -0.41198931041529641 0.4696068520652098 0 -0.39757365154932328 0.5 0 -0.41947200185992378 0.48369135555095771 0 -0.41146386984712813 0.48265148822367748 0 -0.39757365154932328 0.5 0 -0.41947200185992378 0.48369135555095771 0 -0.42017830158195568 0.5 0 -0.39757365154932328 0.5 0 -0.41947200185992378 0.48369135555095771 0 -0.42017830158195568 0.5 0 -0.5 0.5 0 -0.48424098339965871 0.48384523185289818 0 -0.42017830158195568 0.5 0 -0.45751331712307131 0.47376902648780811 0 -0.48424098339965871 0.48384523185289818 0 -0.42017830158195568 0.5 0 -0.44137035217052423 0.46877100621061679 0 -0.45751331712307131 0.47376902648780811 0 -0.44137035217052423 0.46877100621061679 0 -0.45751331712307131 0.47376902648780811 0 -0.46133242090043042 0.46461833866133961 0 -0.5 0.5 0 -0.48424098339965871 0.48384523185289818 0 -0.5 0.4611575178149282 0 -0.48424098339965871 0.48384523185289818 0 -0.48129335349083208 0.46096435784412298 0 -0.47376505660111551 0.46741359113107328 0 -0.45751331712307131 0.47376902648780811 0 -0.48424098339965871 0.48384523185289818 0 -0.47376505660111551 0.46741359113107328 0 -0.48424098339965871 0.48384523185289818 0 -0.49212049169982908 0.45792154857953438 0 -0.49212049169982908 0.45792154857953438 0 -0.49999999999999972 0.43199786530617068 0 -0.49212049169982908 0.45792154857953438 0 -0.5 0.4611575178149282 0 -0.49999999999999972 0.43199786530617068 0 -0.4857321179606699 0.44401903315050267 0 -0.49212049169982908 0.45792154857953438 0 -0.49999999999999972 0.43199786530617068 0 -0.48424098339965871 0.48384523185289818 0 -0.49212049169982908 0.45792154857953438 0 -0.48129335349083208 0.46096435784412298 0 -0.48424098339965871 0.48384523185289818 0 -0.49212049169982908 0.45792154857953438 0 -0.5 0.4611575178149282 0 -0.4857321179606699 0.44401903315050267 0 -0.49212049169982908 0.45792154857953438 0 -0.48129335349083208 0.46096435784412298 0 -0.48129335349083208 0.46096435784412298 0 -0.47376505660111551 0.46741359113107328 0 -0.47074467612631632 0.45928741260692402 0 -0.47714832886686392 0.45419611163258611 0 -0.48129335349083208 0.46096435784412298 0 -0.47074467612631632 0.45928741260692402 0 -0.47074467612631632 0.45928741260692402 0 -0.47233697966554172 0.45174687790969631 0 -0.46326870248112462 0.45385065687027593 0 -0.47714832886686392 0.45419611163258611 0 -0.47074467612631632 0.45928741260692402 0 -0.47233697966554172 0.45174687790969631 0 -0.4857321179606699 0.44401903315050267 0 -0.46479107289273353 0.44738117528819271 0 -0.47397865752598911 0.4335131581511818 0 -0.4857321179606699 0.44401903315050267 0 -0.47233697966554172 0.45174687790969631 0 -0.46479107289273353 0.44738117528819271 0 -0.4857321179606699 0.44401903315050267 0 -0.46479107289273353 0.44738117528819271 0 -0.4857321179606699 0.44401903315050267 0 -0.47714832886686392 0.45419611163258611 0 -0.48129335349083208 0.46096435784412298 0 -0.4857321179606699 0.44401903315050267 0 -0.47714832886686392 0.45419611163258611 0 -0.47233697966554172 0.45174687790969631 0 -0.46479107289273353 0.44738117528819271 0 -0.45477138610018558 0.44195219055016788 0 -0.44385002782479699 0.45074331742588281 0 -0.46479107289273353 0.44738117528819271 0 -0.46326870248112462 0.45385065687027593 0 -0.44385002782479699 0.45074331742588281 0 -0.46479107289273353 0.44738117528819271 0 -0.46110707975624798 0.43202007801147901 0 -0.47397865752598911 0.4335131581511818 0 -0.46479107289273353 0.44738117528819271 0 -0.44385002782479699 0.45074331742588281 0 -0.47233697966554172 0.45174687790969631 0 -0.46479107289273353 0.44738117528819271 0 -0.46326870248112462 0.45385065687027593 0 -0.46479107289273353 0.44738117528819271 0 -0.45477138610018558 0.44195219055016788 0 -0.46110707975624798 0.43202007801147901 0 -0.44137035217052423 0.46877100621061679 0 -0.46133242090043042 0.46461833866133961 0 -0.46326870248112462 0.45385065687027593 0 -0.45751331712307131 0.47376902648780811 0 -0.47376505660111551 0.46741359113107328 0 -0.46133242090043042 0.46461833866133961 0 -0.47376505660111551 0.46741359113107328 0 -0.47074467612631632 0.45928741260692402 0 -0.46133242090043042 0.46461833866133961 0 -0.47074467612631632 0.45928741260692402 0 -0.46133242090043042 0.46461833866133961 0 -0.46326870248112462 0.45385065687027593 0 -0.44137035217052423 0.46877100621061679 0 -0.46326870248112462 0.45385065687027593 0 -0.42764063350210091 0.46476544424612198 0 -0.44137035217052423 0.46877100621061679 0 -0.44385002782479699 0.45074331742588281 0 -0.44137035217052423 0.46877100621061679 0 -0.46326870248112462 0.45385065687027593 0 -0.44385002782479699 0.45074331742588281 0 -0.44385002782479699 0.45074331742588281 0 -0.44955260725406188 0.43477933494809401 0 -0.43368948983569527 0.4272170691676056 0 -0.45477138610018558 0.44195219055016788 0 -0.44385002782479699 0.45074331742588281 0 -0.44955260725406188 0.43477933494809401 0 -0.44955260725406188 0.43477933494809401 0 -0.4539005484595745 0.41774775252759999 0 -0.43368948983569527 0.4272170691676056 0 -0.4539005484595745 0.41774775252759999 0 -0.44446999691452932 0.40032867877163758 0 -0.43368948983569527 0.4272170691676056 0 -0.44446999691452932 0.40032867877163758 0 -0.43368948983569527 0.4272170691676056 0 -0.4539005484595745 0.41774775252759999 0 -0.47064392899937441 0.41693904748728511 0 -0.46394018799753861 0.39520230677949919 0 -0.46110707975624798 0.43202007801147901 0 -0.47397865752598911 0.4335131581511818 0 -0.47064392899937441 0.41693904748728511 0 -0.4539005484595745 0.41774775252759999 0 -0.46110707975624798 0.43202007801147901 0 -0.47064392899937441 0.41693904748728511 0 -0.44955260725406188 0.43477933494809401 0 -0.4539005484595745 0.41774775252759999 0 -0.46110707975624798 0.43202007801147901 0 -0.45477138610018558 0.44195219055016788 0 -0.44955260725406188 0.43477933494809401 0 -0.46110707975624798 0.43202007801147901 0 -0.4857321179606699 0.44401903315050267 0 -0.47397865752598911 0.4335131581511818 0 -0.48586566825375233 0.42243808930898519 0 -0.47397865752598911 0.4335131581511818 0 -0.47064392899937441 0.41693904748728511 0 -0.48586566825375233 0.42243808930898519 0 -0.47064392899937441 0.41693904748728511 0 -0.48586566825375233 0.42243808930898519 0 -0.48303531462985522 0.39929854997699182 0 -0.5 0.40678780266962211 0 -0.48586566825375233 0.42243808930898519 0 -0.48303531462985522 0.39929854997699182 0 -0.5 0.40678780266962211 0 -0.49999999999999972 0.43199786530617068 0 -0.48586566825375233 0.42243808930898519 0 -0.4857321179606699 0.44401903315050267 0 -0.49999999999999972 0.43199786530617068 0 -0.48586566825375233 0.42243808930898519 0 -0.50000000000000222 0.38157774003307371 0 -0.47762525199668332 0.37750901420437177 0 -0.48713660420334209 0.36660116945766291 0 -0.50000000000000222 0.38157774003307371 0 -0.47762525199668332 0.37750901420437177 0 -0.50000000000000222 0.38157774003307371 0 -0.48303531462985522 0.39929854997699182 0 -0.47762525199668332 0.37750901420437177 0 -0.5 0.40678780266962211 0 -0.50000000000000222 0.38157774003307371 0 -0.48303531462985522 0.39929854997699182 0 -0.48303531462985522 0.39929854997699182 0 -0.47762525199668332 0.37750901420437177 0 -0.46394018799753861 0.39520230677949919 0 -0.47064392899937441 0.41693904748728511 0 -0.48303531462985522 0.39929854997699182 0 -0.46394018799753861 0.39520230677949919 0 -0.47762525199668332 0.37750901420437177 0 -0.46394018799753861 0.39520230677949919 0 -0.45525050399336431 0.37344028837567 0 -0.46394018799753861 0.39520230677949919 0 -0.44446999691452932 0.40032867877163758 0 -0.45525050399336431 0.37344028837567 0 -0.47762525199668332 0.37750901420437177 0 -0.45525050399336431 0.37344028837567 0 -0.4539005484595745 0.41774775252759999 0 -0.46394018799753861 0.39520230677949919 0 -0.44446999691452932 0.40032867877163758 0 -0.44446999691452932 0.40032867877163758 0 -0.43388768965693081 0.38616823056881378 0 -0.44775950209870791 0.37476053073735838 0 -0.44446999691452932 0.40032867877163758 0 -0.45525050399336431 0.37344028837567 0 -0.44446999691452932 0.40032867877163758 0 -0.44775950209870791 0.37476053073735838 0 -0.45525050399336431 0.37344028837567 0 -0.43388768965693081 0.38616823056881378 0 -0.44595502745168919 0.3717499566906135 0 -0.43388768965693081 0.38616823056881378 0 -0.44775950209870791 0.37476053073735838 0 -0.44595502745168919 0.3717499566906135 0 -0.43388768965693081 0.38616823056881378 0 -0.41401983475710191 0.38250209641367672 0 -0.42481561788397693 0.36790587041536521 0 -0.43388768965693081 0.38616823056881378 0 -0.42481561788397693 0.36790587041536521 0 -0.44595502745168919 0.3717499566906135 0 -0.41401983475710191 0.38250209641367672 0 -0.42481561788397693 0.36790587041536521 0 -0.41233451202878679 0.38478070382302038 0 -0.4054789962382328 0.37978467014519363 0 -0.40573827101494692 0.38901841211081117 0 -0.41233451202878679 0.38478070382302038 0 -0.40573827101494692 0.38901841211081117 0 -0.40589778669783172 0.39685697842053819 0 -0.41233451202878679 0.38478070382302038 0 -0.41401983475710191 0.38250209641367672 0 -0.41233451202878679 0.38478070382302038 0 -0.41401983475710191 0.38250209641367672 0 -0.4054789962382328 0.37978467014519363 0 -0.41401983475710191 0.38250209641367672 0 -0.4054789962382328 0.37978467014519363 0 -0.40644625336480278 0.37090082256862089 0 -0.41233451202878679 0.38478070382302038 0 -0.41549897942562652 0.40660812908825672 0 -0.40589778669783172 0.39685697842053819 0 -0.43388768965693081 0.38616823056881378 0 -0.41401983475710191 0.38250209641367672 0 -0.41549897942562652 0.40660812908825672 0 -0.41233451202878679 0.38478070382302038 0 -0.41401983475710191 0.38250209641367672 0 -0.41549897942562652 0.40660812908825672 0 -0.41401983475710191 0.38250209641367672 0 -0.41549897942562652 0.40660812908825672 0 -0.41549897942562652 0.40660812908825672 0 -0.40128243589585888 0.41190681040418592 0 -0.40589778669783172 0.39685697842053819 0 -0.43388768965693081 0.38616823056881378 0 -0.43020774384816218 0.4104779449723871 0 -0.41549897942562652 0.40660812908825672 0 -0.44446999691452932 0.40032867877163758 0 -0.43388768965693081 0.38616823056881378 0 -0.43020774384816218 0.4104779449723871 0 -0.44446999691452932 0.40032867877163758 0 -0.43020774384816218 0.4104779449723871 0 -0.43368948983569527 0.4272170691676056 0 -0.43020774384816218 0.4104779449723871 0 -0.43368948983569527 0.4272170691676056 0 -0.41697812409415008 0.43071416176283672 0 -0.42290898275686062 0.45410545956357318 0 -0.43368948983569527 0.4272170691676056 0 -0.41697812409415008 0.43071416176283672 0 -0.41697812409415008 0.43071416176283672 0 -0.40733569619950621 0.4313834284869747 0 -0.40903778017619691 0.41925397409603332 0 -0.40869495604761708 0.44347610705221752 0 -0.41697812409415008 0.43071416176283672 0 -0.40733569619950621 0.4313834284869747 0 -0.41697812409415008 0.43071416176283672 0 -0.41549897942562652 0.40660812908825672 0 -0.40903778017619691 0.41925397409603332 0 -0.43020774384816218 0.4104779449723871 0 -0.41697812409415008 0.43071416176283672 0 -0.41549897942562652 0.40660812908825672 0 -0.41697812409415008 0.43071416176283672 0 -0.41549897942562652 0.40660812908825672 0 -0.41549897942562652 0.40660812908825672 0 -0.40903778017619691 0.41925397409603332 0 -0.40128243589585888 0.41190681040418592 0 -0.40903778017619691 0.41925397409603332 0 -0.40128243589585888 0.41190681040418592 0 -0.3973557276330108 0.42307533725540908 0 -0.40128243589585888 0.41190681040418592 0 -0.3973557276330108 0.42307533725540908 0 -0.38608342522664302 0.42007720892342437 0 -0.40128243589585888 0.41190681040418592 0 -0.38608342522664302 0.42007720892342437 0 -0.39006583798891492 0.40592395011556093 0 -0.40733569619950621 0.4313834284869747 0 -0.3973557276330108 0.42307533725540908 0 -0.38303930066684888 0.43275526436642731 0 -0.39592735188396222 0.4446528371111852 0 -0.40733569619950621 0.4313834284869747 0 -0.38303930066684888 0.43275526436642731 0 -0.40733569619950621 0.4313834284869747 0 -0.38303930066684888 0.43275526436642731 0 -0.40733569619950621 0.4313834284869747 0 -0.40903778017619691 0.41925397409603332 0 -0.3973557276330108 0.42307533725540908 0 -0.3973557276330108 0.42307533725540908 0 -0.38303930066684888 0.43275526436642731 0 -0.38608342522664302 0.42007720892342437 0 -0.38303930066684888 0.43275526436642731 0 -0.38608342522664302 0.42007720892342437 0 -0.37396298612724238 0.42209814300880683 0 -0.38608342522664302 0.42007720892342437 0 -0.37767869276464439 0.41021006436074459 0 -0.39006583798891492 0.40592395011556093 0 -0.38608342522664302 0.42007720892342437 0 -0.37767869276464439 0.41021006436074459 0 -0.37396298612724238 0.42209814300880683 0 -0.37767869276464439 0.41021006436074459 0 -0.39006583798891492 0.40592395011556093 0 -0.37813277588106597 0.39643554819751331 0 -0.39006583798891492 0.40592395011556093 0 -0.37813277588106597 0.39643554819751331 0 -0.39095399142467552 0.39367499646803461 0 -0.37813277588106597 0.39643554819751331 0 -0.3849282530135299 0.38262894030566402 0 -0.39095399142467552 0.39367499646803461 0 -0.37813277588106597 0.39643554819751331 0 -0.3849282530135299 0.38262894030566402 0 -0.37141021567644938 0.3819240236851501 0 -0.3849282530135299 0.38262894030566402 0 -0.37972107570738722 0.37147753735631001 0 -0.37141021567644938 0.3819240236851501 0 -0.3849282530135299 0.38262894030566402 0 -0.39897508684366978 0.38505256958866518 0 -0.39095399142467552 0.39367499646803461 0 -0.3849282530135299 0.38262894030566402 0 -0.39897508684366978 0.38505256958866518 0 -0.39480960003663829 0.37009935349226358 0 -0.4054789962382328 0.37978467014519363 0 -0.39897508684366978 0.38505256958866518 0 -0.39480960003663829 0.37009935349226358 0 -0.40573827101494692 0.38901841211081117 0 -0.39897508684366978 0.38505256958866518 0 -0.40589778669783172 0.39685697842053819 0 -0.4054789962382328 0.37978467014519363 0 -0.40573827101494692 0.38901841211081117 0 -0.39897508684366978 0.38505256958866518 0 -0.39897508684366978 0.38505256958866518 0 -0.40589778669783172 0.39685697842053819 0 -0.39095399142467552 0.39367499646803461 0 -0.39006583798891492 0.40592395011556093 0 -0.40589778669783172 0.39685697842053819 0 -0.39095399142467552 0.39367499646803461 0 -0.40128243589585888 0.41190681040418592 0 -0.39006583798891492 0.40592395011556093 0 -0.40589778669783172 0.39685697842053819 0 -0.38197606614046009 0.35417749789858899 0 -0.41059591141371787 0.35705066962478388 0 -0.39838494658452789 0.34683329714801953 0 -0.38197606614046009 0.35417749789858899 0 -0.41059591141371787 0.35705066962478388 0 -0.39480960003663829 0.37009935349226358 0 -0.38197606614046009 0.35417749789858899 0 -0.41059591141371787 0.35705066962478388 0 -0.39480960003663829 0.37009935349226358 0 -0.41059591141371787 0.35705066962478388 0 -0.40644625336480278 0.37090082256862089 0 -0.4054789962382328 0.37978467014519363 0 -0.39480960003663829 0.37009935349226358 0 -0.40644625336480278 0.37090082256862089 0 -0.37972107570738722 0.37147753735631001 0 -0.38197606614046009 0.35417749789858899 0 -0.36548124366985829 0.36855787139988311 0 -0.39480960003663829 0.37009935349226358 0 -0.37972107570738722 0.37147753735631001 0 -0.38197606614046009 0.35417749789858899 0 -0.3849282530135299 0.38262894030566402 0 -0.39480960003663829 0.37009935349226358 0 -0.37972107570738722 0.37147753735631001 0 -0.39838494658452789 0.34683329714801953 0 -0.38197606614046009 0.35417749789858899 0 -0.38868839946722772 0.33042571151469857 0 -0.38868839946722772 0.33042571151469857 0 -0.36690682475142128 0.33620239319512368 0 -0.38197606614046009 0.35417749789858899 0 -0.38868839946722772 0.33042571151469857 0 -0.36690682475142128 0.33620239319512368 0 -0.38868839946722772 0.33042571151469857 0 -0.37815623955144723 0.32366509893170042 0 -0.36690682475142128 0.33620239319512368 0 -0.37815623955144723 0.32366509893170042 0 -0.38004678714040002 0.31049437063947499 0 -0.37232429382281812 0.31079397890851462 0 -0.37815623955144723 0.32366509893170042 0 -0.385578695250262 0.31529968711792711 0 -0.38004678714040002 0.31049437063947499 0 -0.38868839946722772 0.33042571151469857 0 -0.37815623955144723 0.32366509893170042 0 -0.38939212457688682 0.31973754921690722 0 -0.37815623955144723 0.32366509893170042 0 -0.38939212457688682 0.31973754921690722 0 -0.385578695250262 0.31529968711792711 0 -0.38939212457688682 0.31973754921690722 0 -0.39032714461151569 0.31376638520547201 0 -0.385578695250262 0.31529968711792711 0 -0.39032714461151569 0.31376638520547201 0 -0.385578695250262 0.31529968711792711 0 -0.38801290186903459 0.30931763132581058 0 -0.38868839946722772 0.33042571151469857 0 -0.41046997418303399 0.32464902983427352 0 -0.38868839946722772 0.33042571151469857 0 -0.40309300513789748 0.32024811513220203 0 -0.41046997418303399 0.32464902983427352 0 -0.39567194013031171 0.31329159626376007 0 -0.40063824822114491 0.31352455624538689 0 -0.39770069179128631 0.3119305935776211 0 -0.39567194013031171 0.31329159626376007 0 -0.3928645538889321 0.316419277964057 0 -0.39606700623701407 0.31888158117008869 0 -0.39567194013031171 0.31329159626376007 0 -0.39606700623701407 0.31888158117008869 0 -0.40063824822114491 0.31352455624538689 0 -0.39606700623701407 0.31888158117008869 0 -0.40063824822114491 0.31352455624538689 0 -0.39567194013031171 0.31329159626376007 0 -0.39770069179128631 0.3119305935776211 0 -0.39032714461151569 0.31376638520547201 0 -0.39567194013031171 0.31329159626376007 0 -0.3928645538889321 0.316419277964057 0 -0.38939212457688682 0.31973754921690722 0 -0.39032714461151569 0.31376638520547201 0 -0.3928645538889321 0.316419277964057 0 -0.38939212457688682 0.31973754921690722 0 -0.3928645538889321 0.316419277964057 0 -0.39606700623701407 0.31888158117008869 0 -0.38868839946722772 0.33042571151469857 0 -0.39606700623701407 0.31888158117008869 0 -0.40309300513789748 0.32024811513220203 0 -0.38868839946722772 0.33042571151469857 0 -0.38939212457688682 0.31973754921690722 0 -0.39606700623701407 0.31888158117008869 0 -0.40309300513789748 0.32024811513220203 0 -0.40063824822114491 0.31352455624538689 0 -0.41023179956538203 0.3207674317474864 0 -0.39606700623701407 0.31888158117008869 0 -0.40309300513789748 0.32024811513220203 0 -0.40063824822114491 0.31352455624538689 0 -0.40063824822114491 0.31352455624538689 0 -0.39770069179128631 0.3119305935776211 0 -0.39838494658452789 0.34683329714801953 0 -0.38868839946722772 0.33042571151469857 0 -0.41046997418303399 0.32464902983427352 0 -0.41046997418303399 0.32464902983427352 0 -0.41224490447006951 0.35357556312397498 0 -0.41903756382001001 0.33857692282482199 0 -0.41046997418303399 0.32464902983427352 0 -0.41763691257226571 0.32274828931215721 0 -0.41903756382001001 0.33857692282482199 0 -0.41046997418303399 0.32464902983427352 0 -0.41224490447006951 0.35357556312397498 0 -0.39838494658452789 0.34683329714801953 0 -0.41046997418303399 0.32464902983427352 0 -0.41224490447006951 0.35357556312397498 0 -0.40063824822114491 0.31352455624538689 0 -0.41023179956538203 0.3207674317474864 0 -0.41763691257226571 0.32274828931215721 0 -0.40063824822114491 0.31352455624538689 0 -0.41164356570823551 0.31335190270086738 0 -0.41763691257226571 0.32274828931215721 0 -0.40063824822114491 0.31352455624538689 0 -0.41763691257226571 0.32274828931215721 0 -0.41023179956538203 0.3207674317474864 0 -0.41046997418303399 0.32464902983427352 0 -0.41763691257226571 0.32274828931215721 0 -0.41046997418303399 0.32464902983427352 0 -0.41763691257226571 0.32274828931215721 0 -0.41023179956538203 0.3207674317474864 0 -0.41046997418303399 0.32464902983427352 0 -0.40309300513789748 0.32024811513220203 0 -0.41023179956538203 0.3207674317474864 0 -0.41046997418303399 0.32464902983427352 0 -0.41164356570823551 0.31335190270086738 0 -0.41763691257226571 0.32274828931215721 0 -0.41886461414888132 0.31096223850826171 0 -0.41763691257226571 0.32274828931215721 0 -0.43160952992894852 0.31904261771746939 0 -0.43529307571427678 0.33232879119402808 0 -0.41763691257226571 0.32274828931215721 0 -0.43529307571427678 0.33232879119402808 0 -0.41763691257226571 0.32274828931215721 0 -0.43160952992894852 0.31904261771746939 0 -0.41886461414888132 0.31096223850826171 0 -0.41763691257226571 0.32274828931215721 0 -0.43160952992894852 0.31904261771746939 0 -0.43160952992894852 0.31904261771746939 0 -0.43529307571427678 0.33232879119402808 0 -0.43160952992894852 0.31904261771746939 0 -0.43529307571427678 0.33232879119402808 0 -0.44272138075512962 0.3363595021616731 0 -0.41903756382001001 0.33857692282482199 0 -0.42929504738890012 0.34288138535546642 0 -0.43529307571427678 0.33232879119402808 0 -0.41903756382001001 0.33857692282482199 0 -0.41763691257226571 0.32274828931215721 0 -0.43529307571427678 0.33232879119402808 0 -0.43529307571427678 0.33232879119402808 0 -0.43961079072531739 0.34790234830507522 0 -0.42929504738890012 0.34288138535546642 0 -0.43529307571427678 0.33232879119402808 0 -0.43961079072531739 0.34790234830507522 0 -0.42481561788397693 0.36790587041536521 0 -0.43961079072531739 0.34790234830507522 0 -0.42323875929599669 0.35271747909793932 0 -0.42481561788397693 0.36790587041536521 0 -0.43961079072531739 0.34790234830507522 0 -0.42929504738890012 0.34288138535546642 0 -0.42323875929599669 0.35271747909793932 0 -0.43961079072531739 0.34790234830507522 0 -0.41903756382001001 0.33857692282482199 0 -0.42929504738890012 0.34288138535546642 0 -0.42323875929599669 0.35271747909793932 0 -0.41903756382001001 0.33857692282482199 0 -0.42323875929599669 0.35271747909793932 0 -0.41224490447006951 0.35357556312397498 0 -0.42323875929599669 0.35271747909793932 0 -0.41224490447006951 0.35357556312397498 0 -0.41455392788610151 0.36603983808578211 0 -0.39838494658452789 0.34683329714801953 0 -0.41224490447006951 0.35357556312397498 0 -0.41059591141371787 0.35705066962478388 0 -0.41401983475710191 0.38250209641367672 0 -0.41224490447006951 0.35357556312397498 0 -0.41059591141371787 0.35705066962478388 0 -0.41401983475710191 0.38250209641367672 0 -0.41455392788610151 0.36603983808578211 0 -0.42481561788397693 0.36790587041536521 0 -0.41401983475710191 0.38250209641367672 0 -0.41224490447006951 0.35357556312397498 0 -0.41401983475710191 0.38250209641367672 0 -0.41224490447006951 0.35357556312397498 0 -0.41455392788610151 0.36603983808578211 0 -0.41401983475710191 0.38250209641367672 0 -0.41059591141371787 0.35705066962478388 0 -0.40644625336480278 0.37090082256862089 0 -0.41455392788610151 0.36603983808578211 0 -0.42481561788397693 0.36790587041536521 0 -0.42323875929599669 0.35271747909793932 0 -0.41455392788610151 0.36603983808578211 0 -0.42481561788397693 0.36790587041536521 0 -0.42481561788397693 0.36790587041536521 0 -0.44595502745168919 0.3717499566906135 0 -0.43961079072531739 0.34790234830507522 0 -0.42481561788397693 0.36790587041536521 0 -0.44595502745168919 0.3717499566906135 0 -0.44595502745168919 0.3717499566906135 0 -0.43961079072531739 0.34790234830507522 0 -0.44595502745168919 0.3717499566906135 0 -0.44717351534180833 0.3702940852783953 0 -0.43961079072531739 0.34790234830507522 0 -0.44739897109556148 0.37201252996286188 0 -0.44717351534180833 0.3702940852783953 0 -0.45525050399336431 0.37344028837567 0 -0.44739897109556148 0.37201252996286188 0 -0.45525050399336431 0.37344028837567 0 -0.44739897109556148 0.37201252996286188 0 -0.44775950209870791 0.37476053073735838 0 -0.45525050399336431 0.37344028837567 0 -0.44739897109556148 0.37201252996286188 0 -0.44717351534180833 0.3702940852783953 0 -0.44739897109556148 0.37201252996286188 0 -0.44775950209870791 0.37476053073735838 0 -0.44739897109556148 0.37201252996286188 0 -0.44775950209870791 0.37476053073735838 0 -0.44595502745168919 0.3717499566906135 0 -0.44739897109556148 0.37201252996286188 0 -0.44595502745168919 0.3717499566906135 0 -0.44739897109556148 0.37201252996286188 0 -0.44595502745168919 0.3717499566906135 0 -0.44717351534180833 0.3702940852783953 0 -0.44595502745168919 0.3717499566906135 0 -0.44717351534180833 0.3702940852783953 0 -0.44717351534180833 0.3702940852783953 0 -0.43961079072531739 0.34790234830507522 0 -0.44353897975940881 0.34259131767099688 0 -0.44717351534180833 0.3702940852783953 0 -0.46522233842099492 0.34856886302495332 0 -0.44353897975940881 0.34259131767099688 0 -0.44717351534180833 0.3702940852783953 0 -0.44353897975940881 0.34259131767099688 0 -0.43961079072531739 0.34790234830507522 0 -0.44353897975940881 0.34259131767099688 0 -0.44717351534180833 0.3702940852783953 0 -0.46522233842099492 0.34856886302495332 0 -0.46522233842099492 0.34856886302495332 0 -0.45525050399336431 0.37344028837567 0 -0.47034421359399547 0.36535668325354909 0 -0.44717351534180833 0.3702940852783953 0 -0.46522233842099492 0.34856886302495332 0 -0.45525050399336431 0.37344028837567 0 -0.47762525199668332 0.37750901420437177 0 -0.45525050399336431 0.37344028837567 0 -0.47034421359399547 0.36535668325354909 0 -0.46522233842099492 0.34856886302495332 0 -0.45525050399336431 0.37344028837567 0 -0.47034421359399547 0.36535668325354909 0 -0.47746415941676162 0.35521146074814858 0 -0.48713660420334209 0.36660116945766291 0 -0.47762525199668332 0.37750901420437177 0 -0.47034421359399547 0.36535668325354909 0 -0.48713660420334209 0.36660116945766291 0 -0.46522233842099492 0.34856886302495332 0 -0.47746415941676162 0.35521146074814858 0 -0.46522233842099492 0.34856886302495332 0 -0.47746415941676162 0.35521146074814858 0 -0.48598535294595802 0.34381388500112109 0 -0.46522233842099492 0.34856886302495332 0 -0.47034421359399547 0.36535668325354909 0 -0.47746415941676162 0.35521146074814858 0 -0.47746415941676162 0.35521146074814858 0 -0.48598535294595802 0.34381388500112109 0 -0.5 0.35677717472257803 0 -0.48598535294595802 0.34381388500112109 0 -0.5 0.35677717472257803 0 -0.5 0.33197660941208229 0 -0.47746415941676162 0.35521146074814858 0 -0.5 0.35677717472257803 0 -0.48713660420334209 0.36660116945766291 0 -0.50000000000000222 0.38157774003307371 0 -0.5 0.35677717472257803 0 -0.48713660420334209 0.36660116945766291 0 -0.5 0.33197660941208229 0 -0.48265726058095432 0.32789746343986947 0 -0.49999999999999689 0.30717604410158672 0 -0.48265726058095432 0.32789746343986947 0 -0.49999999999999689 0.30717604410158672 0 -0.48265726058095432 0.32789746343986947 0 -0.4804090086232527 0.31069076376421589 0 -0.49999999999999689 0.30717604410158672 0 -0.48598535294595802 0.34381388500112109 0 -0.5 0.33197660941208229 0 -0.48265726058095432 0.32789746343986947 0 -0.46522233842099492 0.34856886302495332 0 -0.47281567352212328 0.32962981339458441 0 -0.48265726058095432 0.32789746343986947 0 -0.46522233842099492 0.34856886302495332 0 -0.48265726058095432 0.32789746343986947 0 -0.46522233842099492 0.34856886302495332 0 -0.47281567352212328 0.32962981339458441 0 -0.46522233842099492 0.34856886302495332 0 -0.48598535294595802 0.34381388500112109 0 -0.48265726058095432 0.32789746343986947 0 -0.47281567352212328 0.32962981339458441 0 -0.4804090086232527 0.31069076376421589 0 -0.47281567352212328 0.32962981339458441 0 -0.48265726058095432 0.32789746343986947 0 -0.4804090086232527 0.31069076376421589 0 -0.47281567352212328 0.32962981339458441 0 -0.468184006347518 0.31940958636330291 0 -0.4804090086232527 0.31069076376421589 0 -0.468184006347518 0.31940958636330291 0 -0.46386524786174388 0.30755149903176271 0 -0.4804090086232527 0.31069076376421589 0 -0.45944206916787461 0.3210898587819711 0 -0.43942753705432891 0.31125351970265208 0 -0.46386524786174388 0.30755149903176271 0 -0.468184006347518 0.31940958636330291 0 -0.45944206916787461 0.3210898587819711 0 -0.46386524786174388 0.30755149903176271 0 -0.468184006347518 0.31940958636330291 0 -0.46438803256259581 0.32808599684398021 0 -0.45944206916787461 0.3210898587819711 0 -0.47281567352212328 0.32962981339458441 0 -0.468184006347518 0.31940958636330291 0 -0.46438803256259581 0.32808599684398021 0 -0.46522233842099492 0.34856886302495332 0 -0.46021864335427892 0.3355709614607425 0 -0.44659399663121302 0.33846084226541889 0 -0.46522233842099492 0.34856886302495332 0 -0.47281567352212328 0.32962981339458441 0 -0.46021864335427892 0.3355709614607425 0 -0.45944206916787461 0.3210898587819711 0 -0.46021864335427892 0.3355709614607425 0 -0.44659399663121302 0.33846084226541889 0 -0.46522233842099492 0.34856886302495332 0 -0.44659399663121302 0.33846084226541889 0 -0.47281567352212328 0.32962981339458441 0 -0.46438803256259581 0.32808599684398021 0 -0.46021864335427892 0.3355709614607425 0 -0.46438803256259581 0.32808599684398021 0 -0.45944206916787461 0.3210898587819711 0 -0.46021864335427892 0.3355709614607425 0 -0.45944206916787461 0.3210898587819711 0 -0.44659399663121302 0.33846084226541889 0 -0.46522233842099492 0.34856886302495332 0 -0.44659399663121302 0.33846084226541889 0 -0.44353897975940881 0.34259131767099688 0 -0.45944206916787461 0.3210898587819711 0 -0.44659399663121302 0.33846084226541889 0 -0.44272138075512962 0.3363595021616731 0 -0.43529307571427678 0.33232879119402808 0 -0.44272138075512962 0.3363595021616731 0 -0.43529307571427678 0.33232879119402808 0 -0.43961079072531739 0.34790234830507522 0 -0.44353897975940881 0.34259131767099688 0 -0.43529307571427678 0.33232879119402808 0 -0.44272138075512962 0.3363595021616731 0 -0.44353897975940881 0.34259131767099688 0 -0.44659399663121302 0.33846084226541889 0 -0.44272138075512962 0.3363595021616731 0 -0.44353897975940881 0.34259131767099688 0 -0.44272138075512962 0.3363595021616731 0 -0.44353897975940881 0.34259131767099688 0 -0.44659399663121302 0.33846084226541889 0 -0.44272138075512962 0.3363595021616731 0 -0.44659399663121302 0.33846084226541889 0 -0.44353897975940881 0.34259131767099688 0 -0.45944206916787461 0.3210898587819711 0 -0.44272138075512962 0.3363595021616731 0 -0.43942753705432891 0.31125351970265208 0 -0.43160952992894852 0.31904261771746939 0 -0.44272138075512962 0.3363595021616731 0 -0.43942753705432891 0.31125351970265208 0 -0.44272138075512962 0.3363595021616731 0 -0.43942753705432891 0.31125351970265208 0 -0.43942753705432891 0.31125351970265208 0 -0.45362905335017911 0.29521752991115818 0 -0.43613369335352709 0.28614753724363129 0 -0.43942753705432891 0.31125351970265208 0 -0.43613369335352709 0.28614753724363129 0 -0.43942753705432891 0.31125351970265208 0 -0.45362905335017911 0.29521752991115818 0 -0.46386524786174388 0.30755149903176271 0 -0.4486857425770906 0.28544945734916438 0 -0.45409220035112952 0.27409994328083048 0 -0.43613369335352709 0.28614753724363129 0 -0.4486857425770906 0.28544945734916438 0 -0.45362905335017911 0.29521752991115818 0 -0.43613369335352709 0.28614753724363129 0 -0.45362905335017911 0.29521752991115818 0 -0.46111440480359078 0.28399924073067478 0 -0.47154641391327179 0.29325217734712378 0 -0.4486857425770906 0.28544945734916438 0 -0.45362905335017911 0.29521752991115818 0 -0.46111440480359078 0.28399924073067478 0 -0.46111440480359078 0.28399924073067478 0 -0.47154641391327179 0.29325217734712378 0 -0.4716414386056863 0.28139282465775028 0 -0.45362905335017911 0.29521752991115818 0 -0.46386524786174388 0.30755149903176271 0 -0.47154641391327179 0.29325217734712378 0 -0.46386524786174388 0.30755149903176271 0 -0.4804090086232527 0.31069076376421589 0 -0.47154641391327179 0.29325217734712378 0 -0.4804090086232527 0.31069076376421589 0 -0.48800234372438211 0.29175171413384737 0 -0.4804090086232527 0.31069076376421589 0 -0.47154641391327179 0.29325217734712378 0 -0.48800234372438211 0.29175171413384737 0 -0.47154641391327179 0.29325217734712378 0 -0.48276969583904311 0.28191365244884942 0 -0.48800234372438211 0.29175171413384737 0 -0.47154641391327179 0.29325217734712378 0 -0.4716414386056863 0.28139282465775028 0 -0.48276969583904311 0.28191365244884942 0 -0.48276969583904311 0.28191365244884942 0 -0.5 0.28284932975194432 0 -0.48800234372438211 0.29175171413384737 0 -0.5 0.28284932975194432 0 -0.48800234372438211 0.29175171413384737 0 -0.49999999999999689 0.30717604410158672 0 -0.4804090086232527 0.31069076376421589 0 -0.48800234372438211 0.29175171413384737 0 -0.49999999999999689 0.30717604410158672 0 -0.5 0.25852261540230181 0 -0.48818621731734491 0.27094576792864689 0 -0.48366873377818848 0.25870506396837689 0 -0.48973327060558891 0.24541041571415079 0 -0.5 0.25852261540230181 0 -0.48366873377818848 0.25870506396837689 0 -0.48276969583904311 0.28191365244884942 0 -0.5 0.28284932975194432 0 -0.48818621731734491 0.27094576792864689 0 -0.5 0.28284932975194432 0 -0.5 0.25852261540230181 0 -0.48818621731734491 0.27094576792864689 0 -0.48818621731734491 0.27094576792864689 0 -0.47724176147357328 0.2712901008737843 0 -0.48366873377818848 0.25870506396837689 0 -0.48276969583904311 0.28191365244884942 0 -0.48818621731734491 0.27094576792864689 0 -0.47724176147357328 0.2712901008737843 0 -0.4716414386056863 0.28139282465775028 0 -0.48276969583904311 0.28191365244884942 0 -0.47724176147357328 0.2712901008737843 0 -0.4716414386056863 0.28139282465775028 0 -0.47724176147357328 0.2712901008737843 0 -0.46709158002418738 0.27458351183802199 0 -0.47724176147357328 0.2712901008737843 0 -0.47205070734873222 0.26205234931803001 0 -0.46709158002418738 0.27458351183802199 0 -0.47666507949983772 0.24712926986393871 0 -0.47205070734873222 0.26205234931803001 0 -0.4649976192497573 0.26575931144439979 0 -0.47666507949983772 0.24712926986393871 0 -0.4649976192497573 0.26575931144439979 0 -0.47724176147357328 0.2712901008737843 0 -0.47205070734873222 0.26205234931803001 0 -0.48366873377818848 0.25870506396837689 0 -0.47666507949983772 0.24712926986393871 0 -0.47205070734873222 0.26205234931803001 0 -0.48366873377818848 0.25870506396837689 0 -0.47666507949983772 0.24712926986393871 0 -0.48973327060558891 0.24541041571415079 0 -0.48366873377818848 0.25870506396837689 0 -0.45772611576708028 0.25690631830856803 0 -0.4649976192497573 0.26575931144439979 0 -0.45409220035112952 0.27409994328083048 0 -0.47666507949983772 0.24712926986393871 0 -0.45772611576708028 0.25690631830856803 0 -0.4649976192497573 0.26575931144439979 0 -0.45869269992033701 0.2454907164656363 0 -0.45772611576708028 0.25690631830856803 0 -0.44660469059469471 0.25965661874610269 0 -0.47205070734873222 0.26205234931803001 0 -0.4649976192497573 0.26575931144439979 0 -0.45409220035112952 0.27409994328083048 0 -0.47205070734873222 0.26205234931803001 0 -0.45409220035112952 0.27409994328083048 0 -0.47205070734873222 0.26205234931803001 0 -0.46709158002418738 0.27458351183802199 0 -0.45409220035112952 0.27409994328083048 0 -0.46111440480359078 0.28399924073067478 0 -0.4716414386056863 0.28139282465775028 0 -0.46709158002418738 0.27458351183802199 0 -0.4486857425770906 0.28544945734916438 0 -0.46111440480359078 0.28399924073067478 0 -0.45409220035112952 0.27409994328083048 0 -0.46111440480359078 0.28399924073067478 0 -0.46709158002418738 0.27458351183802199 0 -0.45409220035112952 0.27409994328083048 0 -0.45409220035112952 0.27409994328083048 0 -0.43613369335352709 0.28614753724363129 0 -0.45409220035112952 0.27409994328083048 0 -0.43451668126905291 0.27382252102656951 0 -0.43613369335352709 0.28614753724363129 0 -0.45409220035112952 0.27409994328083048 0 -0.44660469059469471 0.25965661874610269 0 -0.43451668126905291 0.27382252102656951 0 -0.44660469059469471 0.25965661874610269 0 -0.43451668126905291 0.27382252102656951 0 -0.45772611576708028 0.25690631830856803 0 -0.45409220035112952 0.27409994328083048 0 -0.44660469059469471 0.25965661874610269 0 -0.44660469059469471 0.25965661874610269 0 -0.43170989768545909 0.25242895599527643 0 -0.43451668126905291 0.27382252102656951 0 -0.45869269992033701 0.2454907164656363 0 -0.44660469059469471 0.25965661874610269 0 -0.43170989768545909 0.25242895599527643 0 -0.43451668126905291 0.27382252102656951 0 -0.43170989768545909 0.25242895599527643 0 -0.42424585817423482 0.26990807357000401 0 -0.43451668126905291 0.27382252102656951 0 -0.43170989768545909 0.25242895599527643 0 -0.41599678998921369 0.26396731914895938 0 -0.42424585817423482 0.26990807357000401 0 -0.41378803534302749 0.24595098164021981 0 -0.41599678998921369 0.26396731914895938 0 -0.39886412305494368 0.25911133573067291 0 -0.41378803534302749 0.24595098164021981 0 -0.43170989768545909 0.25242895599527643 0 -0.41599678998921369 0.26396731914895938 0 -0.41599678998921369 0.26396731914895938 0 -0.40872610854081642 0.27570645793712101 0 -0.39886412305494368 0.25911133573067291 0 -0.40872610854081642 0.27570645793712101 0 -0.4171643117840837 0.27618774504383647 0 -0.41406083303608238 0.28736742728857861 0 -0.41599678998921369 0.26396731914895938 0 -0.40872610854081642 0.27570645793712101 0 -0.4171643117840837 0.27618774504383647 0 -0.41599678998921369 0.26396731914895938 0 -0.4171643117840837 0.27618774504383647 0 -0.42424585817423482 0.26990807357000401 0 -0.4171643117840837 0.27618774504383647 0 -0.42424585817423482 0.26990807357000401 0 -0.42159151566002118 0.28290866330928899 0 -0.43451668126905291 0.27382252102656951 0 -0.42285978958152232 0.28748319782545761 0 -0.42424585817423482 0.26990807357000401 0 -0.43451668126905291 0.27382252102656951 0 -0.42159151566002118 0.28290866330928899 0 -0.43451668126905291 0.27382252102656951 0 -0.43613369335352709 0.28614753724363129 0 -0.43451668126905291 0.27382252102656951 0 -0.43613369335352709 0.28614753724363129 0 -0.42285978958152232 0.28748319782545761 0 -0.43613369335352709 0.28614753724363129 0 -0.42462923017662879 0.29386538935314921 0 -0.43613369335352709 0.28614753724363129 0 -0.42462923017662879 0.29386538935314921 0 -0.42285978958152232 0.28748319782545761 0 -0.42462923017662879 0.29386538935314921 0 -0.42285978958152232 0.28748319782545761 0 -0.42285978958152232 0.28748319782545761 0 -0.42159151566002118 0.28290866330928899 0 -0.43451668126905291 0.27382252102656951 0 -0.42285978958152232 0.28748319782545761 0 -0.42159151566002118 0.28290866330928899 0 -0.43160952992894852 0.31904261771746939 0 -0.42462923017662879 0.29386538935314921 0 -0.43160952992894852 0.31904261771746939 0 -0.43942753705432891 0.31125351970265208 0 -0.42462923017662879 0.29386538935314921 0 -0.43942753705432891 0.31125351970265208 0 -0.43613369335352709 0.28614753724363129 0 -0.42462923017662879 0.29386538935314921 0 -0.43160952992894852 0.31904261771746939 0 -0.42462923017662879 0.29386538935314921 0 -0.41886461414888132 0.31096223850826171 0 -0.42462923017662879 0.29386538935314921 0 -0.40775273980445648 0.30518710465766691 0 -0.42462923017662879 0.29386538935314921 0 -0.41886461414888132 0.31096223850826171 0 -0.40775273980445648 0.30518710465766691 0 -0.41164356570823551 0.31335190270086738 0 -0.41886461414888132 0.31096223850826171 0 -0.40775273980445648 0.30518710465766691 0 -0.40063824822114491 0.31352455624538689 0 -0.41164356570823551 0.31335190270086738 0 -0.40775273980445648 0.30518710465766691 0 -0.42285978958152232 0.28748319782545761 0 -0.40775273980445648 0.30518710465766691 0 -0.41406083303608238 0.28736742728857861 0 -0.40775273980445648 0.30518710465766691 0 -0.41406083303608238 0.28736742728857861 0 -0.40443982003234002 0.29618377648491329 0 -0.42462923017662879 0.29386538935314921 0 -0.42285978958152232 0.28748319782545761 0 -0.40775273980445648 0.30518710465766691 0 -0.42285978958152232 0.28748319782545761 0 -0.40775273980445648 0.30518710465766691 0 -0.4171643117840837 0.27618774504383647 0 -0.42159151566002118 0.28290866330928899 0 -0.41406083303608238 0.28736742728857861 0 -0.42285978958152232 0.28748319782545761 0 -0.42159151566002118 0.28290866330928899 0 -0.41406083303608238 0.28736742728857861 0 -0.41406083303608238 0.28736742728857861 0 -0.40403074345559348 0.28833149851979251 0 -0.40443982003234002 0.29618377648491329 0 -0.40872610854081642 0.27570645793712101 0 -0.41406083303608238 0.28736742728857861 0 -0.40403074345559348 0.28833149851979251 0 -0.40872610854081642 0.27570645793712101 0 -0.40403074345559348 0.28833149851979251 0 -0.39254354753383319 0.2838720086056068 0 -0.40403074345559348 0.28833149851979251 0 -0.40443982003234002 0.29618377648491329 0 -0.39703383225571393 0.29531608997507608 0 -0.40403074345559348 0.28833149851979251 0 -0.39703383225571393 0.29531608997507608 0 -0.39254354753383319 0.2838720086056068 0 -0.39703383225571393 0.29531608997507608 0 -0.39254354753383319 0.2838720086056068 0 -0.38752671108209003 0.29500855033975959 0 -0.40063824822114491 0.31352455624538689 0 -0.40775273980445648 0.30518710465766691 0 -0.39770069179128631 0.3119305935776211 0 -0.40775273980445648 0.30518710465766691 0 -0.39932095160985348 0.30471676198345221 0 -0.39770069179128631 0.3119305935776211 0 -0.40063824822114491 0.31352455624538689 0 -0.40775273980445648 0.30518710465766691 0 -0.40775273980445648 0.30518710465766691 0 -0.39770069179128631 0.3119305935776211 0 -0.40775273980445648 0.30518710465766691 0 -0.40443982003234002 0.29618377648491329 0 -0.39932095160985348 0.30471676198345221 0 -0.40443982003234002 0.29618377648491329 0 -0.39703383225571393 0.29531608997507608 0 -0.39932095160985348 0.30471676198345221 0 -0.39703383225571393 0.29531608997507608 0 -0.39932095160985348 0.30471676198345221 0 -0.39237554184054768 0.3030202614257459 0 -0.39703383225571393 0.29531608997507608 0 -0.39237554184054768 0.3030202614257459 0 -0.38752671108209003 0.29500855033975959 0 -0.39932095160985348 0.30471676198345221 0 -0.39237554184054768 0.3030202614257459 0 -0.39415616262181558 0.31000727829641661 0 -0.39237554184054768 0.3030202614257459 0 -0.39415616262181558 0.31000727829641661 0 -0.38801290186903459 0.30931763132581058 0 -0.39032714461151569 0.31376638520547201 0 -0.39567194013031171 0.31329159626376007 0 -0.39415616262181558 0.31000727829641661 0 -0.39032714461151569 0.31376638520547201 0 -0.39415616262181558 0.31000727829641661 0 -0.38801290186903459 0.30931763132581058 0 -0.39932095160985348 0.30471676198345221 0 -0.39415616262181558 0.31000727829641661 0 -0.39770069179128631 0.3119305935776211 0 -0.39567194013031171 0.31329159626376007 0 -0.39415616262181558 0.31000727829641661 0 -0.39770069179128631 0.3119305935776211 0 -0.39415616262181558 0.31000727829641661 0 -0.39770069179128631 0.3119305935776211 0 -0.385578695250262 0.31529968711792711 0 -0.38801290186903459 0.30931763132581058 0 -0.38004678714040002 0.31049437063947499 0 -0.38801290186903459 0.30931763132581058 0 -0.38559307974966711 0.30331780526982749 0 -0.38004678714040002 0.31049437063947499 0 -0.39237554184054768 0.3030202614257459 0 -0.38801290186903459 0.30931763132581058 0 -0.38559307974966711 0.30331780526982749 0 -0.39237554184054768 0.3030202614257459 0 -0.38559307974966711 0.30331780526982749 0 -0.38752671108209003 0.29500855033975959 0 -0.38559307974966711 0.30331780526982749 0 -0.37794474124120592 0.29962867388232178 0 -0.38752671108209003 0.29500855033975959 0 -0.38559307974966711 0.30331780526982749 0 -0.37794474124120592 0.29962867388232178 0 -0.38004678714040002 0.31049437063947499 0 -0.37794474124120592 0.29962867388232178 0 -0.38004678714040002 0.31049437063947499 0 -0.37232429382281812 0.31079397890851462 0 -0.39254354753383319 0.2838720086056068 0 -0.38752671108209003 0.29500855033975959 0 -0.37820606687715302 0.28561727844967327 0 -0.37794474124120592 0.29962867388232178 0 -0.38752671108209003 0.29500855033975959 0 -0.37820606687715302 0.28561727844967327 0 -0.39254354753383319 0.2838720086056068 0 -0.37820606687715302 0.28561727844967327 0 -0.38449891796364249 0.26968058882630302 0 -0.37820606687715302 0.28561727844967327 0 -0.38449891796364249 0.26968058882630302 0 -0.36798575702080571 0.27014074782483111 0 -0.3720116894000754 0.24743174335923901 0 -0.38449891796364249 0.26968058882630302 0 -0.39886412305494368 0.25911133573067291 0 -0.40872610854081642 0.27570645793712101 0 -0.39254354753383319 0.2838720086056068 0 -0.39615817427330891 0.27209259777492589 0 -0.40872610854081642 0.27570645793712101 0 -0.39886412305494368 0.25911133573067291 0 -0.39615817427330891 0.27209259777492589 0 -0.39254354753383319 0.2838720086056068 0 -0.38449891796364249 0.26968058882630302 0 -0.39615817427330891 0.27209259777492589 0 -0.38449891796364249 0.26968058882630302 0 -0.39886412305494368 0.25911133573067291 0 -0.39615817427330891 0.27209259777492589 0 -0.3720116894000754 0.24743174335923901 0 -0.33530360316082458 0.24679204891918799 0 -0.35015821844956319 0.26441685437749668 0 -0.35015821844956319 0.26441685437749668 0 -0.36798575702080571 0.27014074782483111 0 -0.34508314390041939 0.28412090436265641 0 -0.3720116894000754 0.24743174335923901 0 -0.38449891796364249 0.26968058882630302 0 -0.36798575702080571 0.27014074782483111 0 -0.3720116894000754 0.24743174335923901 0 -0.35015821844956319 0.26441685437749668 0 -0.36798575702080571 0.27014074782483111 0 -0.36798575702080571 0.27014074782483111 0 -0.35837087878306911 0.29627442375870838 0 -0.37794474124120592 0.29962867388232178 0 -0.37820606687715302 0.28561727844967327 0 -0.35837087878306911 0.29627442375870838 0 -0.37820606687715302 0.28561727844967327 0 -0.36798575702080571 0.27014074782483111 0 -0.35837087878306911 0.29627442375870838 0 -0.37794474124120592 0.29962867388232178 0 -0.37232429382281812 0.31079397890851462 0 -0.35837087878306911 0.29627442375870838 0 -0.37232429382281812 0.31079397890851462 0 -0.35837087878306911 0.29627442375870838 0 -0.3635914276379838 0.32109100298893251 0 -0.35837087878306911 0.29627442375870838 0 -0.33630626353962778 0.30833456735472758 0 -0.3487560005453324 0.32240809969258583 0 -0.35837087878306911 0.29627442375870838 0 -0.3487560005453324 0.32240809969258583 0 -0.34508314390041939 0.28412090436265641 0 -0.35837087878306911 0.29627442375870838 0 -0.33630626353962778 0.30833456735472758 0 -0.36798575702080571 0.27014074782483111 0 -0.34508314390041939 0.28412090436265641 0 -0.35837087878306911 0.29627442375870838 0 -0.34508314390041939 0.28412090436265641 0 -0.32658878943332748 0.29300137756658268 0 -0.33108895617612288 0.27255745529359182 0 -0.34508314390041939 0.28412090436265641 0 -0.33630626353962778 0.30833456735472758 0 -0.32658878943332748 0.29300137756658268 0 -0.33630626353962778 0.30833456735472758 0 -0.32658878943332748 0.29300137756658268 0 -0.32333812918818661 0.31290357558885068 0 -0.32658878943332748 0.29300137756658268 0 -0.31057305952822373 0.29939184074672409 0 -0.32333812918818661 0.31290357558885068 0 -0.32658878943332748 0.29300137756658268 0 -0.31518759957106302 0.28045443866336961 0 -0.31057305952822373 0.29939184074672409 0 -0.32658878943332748 0.29300137756658268 0 -0.31518759957106302 0.28045443866336961 0 -0.33108895617612288 0.27255745529359182 0 -0.31518759957106302 0.28045443866336961 0 -0.33108895617612288 0.27255745529359182 0 -0.31458975536835199 0.26242518776222418 0 -0.35015821844956319 0.26441685437749668 0 -0.34508314390041939 0.28412090436265641 0 -0.33108895617612288 0.27255745529359182 0 -0.33530360316082458 0.24679204891918799 0 -0.35015821844956319 0.26441685437749668 0 -0.33108895617612288 0.27255745529359182 0 -0.33530360316082458 0.24679204891918799 0 -0.33108895617612288 0.27255745529359182 0 -0.31458975536835199 0.26242518776222418 0 -0.31026200863687042 0.23965092843437941 0 -0.31458975536835199 0.26242518776222418 0 -0.30123656942269672 0.25940403457669048 0 -0.31518759957106302 0.28045443866336961 0 -0.31458975536835199 0.26242518776222418 0 -0.29582215313578042 0.27648810942452678 0 -0.31458975536835199 0.26242518776222418 0 -0.30123656942269672 0.25940403457669048 0 -0.29582215313578042 0.27648810942452678 0 -0.30123656942269672 0.25940403457669048 0 -0.29582215313578042 0.27648810942452678 0 -0.29027104524703662 0.26387842065926509 0 -0.29582215313578042 0.27648810942452678 0 -0.28302197450855349 0.27209575628159399 0 -0.29027104524703662 0.26387842065926509 0 -0.28302197450855349 0.27209575628159399 0 -0.29027104524703662 0.26387842065926509 0 -0.27742901656647789 0.26105249253088308 0 -0.29582215313578042 0.27648810942452678 0 -0.28302197450855349 0.27209575628159399 0 -0.28046119524466551 0.28194201138803099 0 -0.29384551260167402 0.25035171048263111 0 -0.29027104524703662 0.26387842065926509 0 -0.27742901656647789 0.26105249253088308 0 -0.29384551260167402 0.25035171048263111 0 -0.27742901656647789 0.26105249253088308 0 -0.30123656942269672 0.25940403457669048 0 -0.29384551260167402 0.25035171048263111 0 -0.29027104524703662 0.26387842065926509 0 -0.26408076406091679 0.24517607692296789 0 -0.27742901656647789 0.26105249253088308 0 -0.26330821191048021 0.25938927493529168 0 -0.27742901656647789 0.26105249253088308 0 -0.25869461720137787 0.27326415596874681 0 -0.26330821191048021 0.25938927493529168 0 -0.27742901656647789 0.26105249253088308 0 -0.26838239718705748 0.27741869467359093 0 -0.25869461720137787 0.27326415596874681 0 -0.27742901656647789 0.26105249253088308 0 -0.26838239718705748 0.27741869467359093 0 -0.28302197450855349 0.27209575628159399 0 -0.27742901656647789 0.26105249253088308 0 -0.27149764719146258 0.27875464849765769 0 -0.27742901656647789 0.26105249253088308 0 -0.27149764719146258 0.27875464849765769 0 -0.26838239718705748 0.27741869467359093 0 -0.27742901656647789 0.26105249253088308 0 -0.25869461720137787 0.27326415596874681 0 -0.28302197450855349 0.27209575628159399 0 -0.27149764719146258 0.27875464849765769 0 -0.28046119524466551 0.28194201138803099 0 -0.27149764719146258 0.27875464849765769 0 -0.26838239718705748 0.27741869467359093 0 -0.27085780195437609 0.28363490170207928 0 -0.27149764719146258 0.27875464849765769 0 -0.26838239718705748 0.27741869467359093 0 -0.26838239718705748 0.27741869467359093 0 -0.26486702133091328 0.28377834676640751 0 -0.26838239718705748 0.27741869467359093 0 -0.25869461720137787 0.27326415596874681 0 -0.26088688995883541 0.27980964443126682 0 -0.26838239718705748 0.27741869467359093 0 -0.25869461720137787 0.27326415596874681 0 -0.26838239718705748 0.27741869467359093 0 -0.26088688995883541 0.27980964443126682 0 -0.26486702133091328 0.28377834676640751 0 -0.25869461720137787 0.27326415596874681 0 -0.25316038087885961 0.28154957362374478 0 -0.24466340725627719 0.28241013445123608 0 -0.25869461720137787 0.27326415596874681 0 -0.24466340725627719 0.28241013445123608 0 -0.25869461720137787 0.27326415596874681 0 -0.26088688995883541 0.27980964443126682 0 -0.25316038087885961 0.28154957362374478 0 -0.25869461720137787 0.27326415596874681 0 -0.25244996598307418 0.25641473194636027 0 -0.26330821191048021 0.25938927493529168 0 -0.26408076406091679 0.24517607692296789 0 -0.25244996598307418 0.25641473194636027 0 -0.26330821191048021 0.25938927493529168 0 -0.25974464080112769 0.30180028208123078 0 -0.25880606277854168 0.30975595518875809 0 -0.27632384874934057 0.29901399245754168 0 -0.25880606277854168 0.30975595518875809 0 -0.27632384874934057 0.29901399245754168 0 -0.25682554436289812 0.32153987549055407 0 -0.25974464080112769 0.30180028208123078 0 -0.25691443221091381 0.29608001848633392 0 -0.26416160386569931 0.29613464398860018 0 -0.25880606277854168 0.30975595518875809 0 -0.25349682918101518 0.315588619053846 0 -0.24995875472636631 0.30865150553894988 0 -0.25974464080112769 0.30180028208123078 0 -0.25880606277854168 0.30975595518875809 0 -0.24995875472636631 0.30865150553894988 0 -0.25974464080112769 0.30180028208123078 0 -0.25230314247590491 0.30116557682720108 0 -0.24995875472636631 0.30865150553894988 0 -0.25230314247590491 0.30116557682720108 0 -0.24801025996080489 0.30351113118129402 0 -0.24995875472636631 0.30865150553894988 0 -0.25974464080112769 0.30180028208123078 0 -0.25230314247590491 0.30116557682720108 0 -0.25691443221091381 0.29608001848633392 0 -0.25230314247590491 0.30116557682720108 0 -0.25122297937698662 0.29503902165060658 0 -0.25691443221091381 0.29608001848633392 0 -0.25230314247590491 0.30116557682720108 0 -0.25122297937698662 0.29503902165060658 0 -0.24754731783654399 0.2993331961295761 0 -0.25065828437581061 0.29099340376357141 0 -0.25395852977503108 0.2891634491748506 0 -0.2479793443816648 0.28801134435840692 0 -0.25122297937698662 0.29503902165060658 0 -0.25065828437581061 0.29099340376357141 0 -0.25395852977503108 0.2891634491748506 0 -0.25395852977503108 0.2891634491748506 0 -0.25691443221091381 0.29608001848633392 0 -0.26107733560836899 0.29050314238353392 0 -0.25122297937698662 0.29503902165060658 0 -0.25395852977503108 0.2891634491748506 0 -0.25691443221091381 0.29608001848633392 0 -0.25395852977503108 0.2891634491748506 0 -0.25316038087885961 0.28154957362374478 0 -0.24890537277938471 0.2846227336004975 0 -0.25395852977503108 0.2891634491748506 0 -0.2479793443816648 0.28801134435840692 0 -0.24890537277938471 0.2846227336004975 0 -0.25395852977503108 0.2891634491748506 0 -0.25316038087885961 0.28154957362374478 0 -0.25884902648953279 0.28484704381998432 0 -0.26088688995883541 0.27980964443126682 0 -0.25316038087885961 0.28154957362374478 0 -0.25884902648953279 0.28484704381998432 0 -0.26088688995883541 0.27980964443126682 0 -0.25884902648953279 0.28484704381998432 0 -0.26486702133091328 0.28377834676640751 0 -0.25395852977503108 0.2891634491748506 0 -0.25884902648953279 0.28484704381998432 0 -0.26107733560836899 0.29050314238353392 0 -0.25884902648953279 0.28484704381998432 0 -0.26486702133091328 0.28377834676640751 0 -0.26107733560836899 0.29050314238353392 0 -0.26486702133091328 0.28377834676640751 0 -0.26107733560836899 0.29050314238353392 0 -0.2671434097580575 0.28950092277551398 0 -0.25691443221091381 0.29608001848633392 0 -0.26107733560836899 0.29050314238353392 0 -0.26416160386569931 0.29613464398860018 0 -0.26107733560836899 0.29050314238353392 0 -0.26416160386569931 0.29613464398860018 0 -0.2671434097580575 0.28950092277551398 0 -0.28046119524466551 0.28194201138803099 0 -0.27361152402920341 0.28870143151762961 0 -0.27632384874934057 0.29901399245754168 0 -0.2671434097580575 0.28950092277551398 0 -0.27361152402920341 0.28870143151762961 0 -0.27632384874934057 0.29901399245754168 0 -0.26416160386569931 0.29613464398860018 0 -0.2671434097580575 0.28950092277551398 0 -0.27632384874934057 0.29901399245754168 0 -0.26838239718705748 0.27741869467359093 0 -0.26486702133091328 0.28377834676640751 0 -0.27085780195437609 0.28363490170207928 0 -0.26486702133091328 0.28377834676640751 0 -0.2671434097580575 0.28950092277551398 0 -0.27085780195437609 0.28363490170207928 0 -0.2671434097580575 0.28950092277551398 0 -0.27085780195437609 0.28363490170207928 0 -0.27361152402920341 0.28870143151762961 0 -0.27085780195437609 0.28363490170207928 0 -0.28046119524466551 0.28194201138803099 0 -0.27361152402920341 0.28870143151762961 0 -0.27149764719146258 0.27875464849765769 0 -0.27085780195437609 0.28363490170207928 0 -0.28046119524466551 0.28194201138803099 0 -0.27632384874934057 0.29901399245754168 0 -0.25682554436289812 0.32153987549055407 0 -0.25974464080112769 0.30180028208123078 0 -0.26416160386569931 0.29613464398860018 0 -0.27632384874934057 0.29901399245754168 0 -0.27632384874934057 0.29901399245754168 0 -0.29374005960074467 0.30723085372840681 0 -0.2827751900557679 0.32405587482887749 0 -0.29582215313578042 0.27648810942452678 0 -0.27632384874934057 0.29901399245754168 0 -0.29374005960074467 0.30723085372840681 0 -0.29582215313578042 0.27648810942452678 0 -0.28046119524466551 0.28194201138803099 0 -0.27632384874934057 0.29901399245754168 0 -0.29582215313578042 0.27648810942452678 0 -0.27632384874934057 0.29901399245754168 0 -0.29582215313578042 0.27648810942452678 0 -0.29374005960074467 0.30723085372840681 0 -0.31057305952822373 0.29939184074672409 0 -0.31518759957106302 0.28045443866336961 0 -0.29582215313578042 0.27648810942452678 0 -0.31057305952822373 0.29939184074672409 0 -0.29374005960074467 0.30723085372840681 0 -0.31057305952822373 0.29939184074672409 0 -0.30872483574863702 0.32657187416720751 0 -0.30872483574863702 0.32657187416720751 0 -0.28696335915111171 0.34463908772394969 0 -0.31002550233620002 0.34695431679357608 0 -0.30872483574863702 0.32657187416720751 0 -0.2827751900557679 0.32405587482887749 0 -0.28696335915111171 0.34463908772394969 0 -0.29374005960074467 0.30723085372840681 0 -0.30872483574863702 0.32657187416720751 0 -0.2827751900557679 0.32405587482887749 0 -0.30872483574863702 0.32657187416720751 0 -0.2827751900557679 0.32405587482887749 0 -0.2827751900557679 0.32405587482887749 0 -0.25682554436289812 0.32153987549055407 0 -0.27632384874934057 0.29901399245754168 0 -0.2827751900557679 0.32405587482887749 0 -0.25682554436289812 0.32153987549055407 0 -0.2827751900557679 0.32405587482887749 0 -0.26390121596602339 0.34232385865432319 0 -0.28696335915111171 0.34463908772394969 0 -0.2827751900557679 0.32405587482887749 0 -0.26390121596602339 0.34232385865432319 0 -0.25682554436289812 0.32153987549055407 0 -0.26390121596602339 0.34232385865432319 0 -0.28696335915111171 0.34463908772394969 0 -0.26390121596602339 0.34232385865432319 0 -0.25682554436289812 0.32153987549055407 0 -0.240839072780935 0.34000862958469869 0 -0.26390121596602339 0.34232385865432319 0 -0.240839072780935 0.34000862958469869 0 -0.25682554436289812 0.32153987549055407 0 -0.25441860091976909 0.32130650551771689 0 -0.240839072780935 0.34000862958469869 0 -0.25682554436289812 0.32153987549055407 0 -0.25441860091976909 0.32130650551771689 0 -0.25441860091976909 0.32130650551771689 0 -0.25349682918101518 0.315588619053846 0 -0.2474751831174983 0.31668925353324862 0 -0.25349682918101518 0.315588619053846 0 -0.2474751831174983 0.31668925353324862 0 -0.24995875472636631 0.30865150553894988 0 -0.25880606277854168 0.30975595518875809 0 -0.25682554436289812 0.32153987549055407 0 -0.25349682918101518 0.315588619053846 0 -0.25682554436289812 0.32153987549055407 0 -0.25441860091976909 0.32130650551771689 0 -0.25349682918101518 0.315588619053846 0 -0.25965205920051943 0.36698188524593128 0 -0.25010325997960881 0.38216550747003092 0 -0.2425690902814803 0.35889421656913578 0 -0.26390121596602339 0.34232385865432319 0 -0.25965205920051943 0.36698188524593128 0 -0.2425690902814803 0.35889421656913578 0 -0.26390121596602339 0.34232385865432319 0 -0.27575167938846817 0.36082686507198308 0 -0.28696335915111171 0.34463908772394969 0 -0.26390121596602339 0.34232385865432319 0 -0.25965205920051943 0.36698188524593128 0 -0.27575167938846817 0.36082686507198308 0 -0.25965205920051943 0.36698188524593128 0 -0.27575167938846817 0.36082686507198308 0 -0.2703506674833423 0.38380770016734012 0 -0.27575167938846817 0.36082686507198308 0 -0.28640931081906079 0.37565613161274358 0 -0.2703506674833423 0.38380770016734012 0 -0.27575167938846817 0.36082686507198308 0 -0.29323825514590868 0.36063638540125498 0 -0.28640931081906079 0.37565613161274358 0 -0.29323825514590868 0.36063638540125498 0 -0.30756402461883309 0.37084693675575209 0 -0.28640931081906079 0.37565613161274358 0 -0.29323825514590868 0.36063638540125498 0 -0.28696335915111171 0.34463908772394969 0 -0.31002550233620002 0.34695431679357608 0 -0.27575167938846817 0.36082686507198308 0 -0.29323825514590868 0.36063638540125498 0 -0.28696335915111171 0.34463908772394969 0 -0.28696335915111171 0.34463908772394969 0 -0.31002550233620002 0.34695431679357608 0 -0.29323825514590868 0.36063638540125498 0 -0.31002550233620002 0.34695431679357608 0 -0.30756402461883309 0.37084693675575209 0 -0.31002550233620002 0.34695431679357608 0 -0.30756402461883309 0.37084693675575209 0 -0.32041068870257461 0.36083228422120273 0 -0.30756402461883309 0.37084693675575209 0 -0.32041068870257461 0.36083228422120273 0 -0.33096558233397921 0.37625833747227783 0 -0.3421609016005917 0.36378133182233702 0 -0.35080821595570438 0.37232074509285701 0 -0.33096558233397921 0.37625833747227783 0 -0.333087645521288 0.34926954586320519 0 -0.33096558233397921 0.37625833747227783 0 -0.3421609016005917 0.36378133182233702 0 -0.333087645521288 0.34926954586320519 0 -0.33096558233397921 0.37625833747227783 0 -0.32041068870257461 0.36083228422120273 0 -0.333087645521288 0.34926954586320519 0 -0.33096558233397921 0.37625833747227783 0 -0.3421609016005917 0.36378133182233702 0 -0.33096558233397921 0.37625833747227783 0 -0.333087645521288 0.34926954586320519 0 -0.35335622086720209 0.35130432617239438 0 -0.3421609016005917 0.36378133182233702 0 -0.333087645521288 0.34926954586320519 0 -0.35335622086720209 0.35130432617239438 0 -0.333087645521288 0.34926954586320519 0 -0.33914112230759558 0.34854177562646338 0 -0.35335622086720209 0.35130432617239438 0 -0.31002550233620002 0.34695431679357608 0 -0.333087645521288 0.34926954586320519 0 -0.32162811626190779 0.33797090258238149 0 -0.31002550233620002 0.34695431679357608 0 -0.333087645521288 0.34926954586320519 0 -0.31002550233620002 0.34695431679357608 0 -0.32041068870257461 0.36083228422120273 0 -0.333087645521288 0.34926954586320519 0 -0.30872483574863702 0.32657187416720751 0 -0.32162811626190779 0.33797090258238149 0 -0.33467448144150641 0.3290878735055372 0 -0.30872483574863702 0.32657187416720751 0 -0.31002550233620002 0.34695431679357608 0 -0.32162811626190779 0.33797090258238149 0 -0.30872483574863702 0.32657187416720751 0 -0.32333812918818661 0.31290357558885068 0 -0.33467448144150641 0.3290878735055372 0 -0.31057305952822373 0.29939184074672409 0 -0.30872483574863702 0.32657187416720751 0 -0.32333812918818661 0.31290357558885068 0 -0.30872483574863702 0.32657187416720751 0 -0.33467448144150641 0.3290878735055372 0 -0.33630626353962778 0.30833456735472758 0 -0.32333812918818661 0.31290357558885068 0 -0.33467448144150641 0.3290878735055372 0 -0.33630626353962778 0.30833456735472758 0 -0.33467448144150641 0.3290878735055372 0 -0.3487560005453324 0.32240809969258583 0 -0.33630626353962778 0.30833456735472758 0 -0.33467448144150641 0.3290878735055372 0 -0.33467448144150641 0.3290878735055372 0 -0.34311607417266149 0.32990634486261938 0 -0.3487560005453324 0.32240809969258583 0 -0.333087645521288 0.34926954586320519 0 -0.33914112230759558 0.34854177562646338 0 -0.33467448144150641 0.3290878735055372 0 -0.333087645521288 0.34926954586320519 0 -0.33467448144150641 0.3290878735055372 0 -0.333087645521288 0.34926954586320519 0 -0.32162811626190779 0.33797090258238149 0 -0.33467448144150641 0.3290878735055372 0 -0.33914112230759558 0.34854177562646338 0 -0.34311607417266149 0.32990634486261938 0 -0.3487560005453324 0.32240809969258583 0 -0.33914112230759558 0.34854177562646338 0 -0.33467448144150641 0.3290878735055372 0 -0.34311607417266149 0.32990634486261938 0 -0.33467448144150641 0.3290878735055372 0 -0.34311607417266149 0.32990634486261938 0 -0.33914112230759558 0.34854177562646338 0 -0.35011839650749182 0.33530670105493487 0 -0.3487560005453324 0.32240809969258583 0 -0.33914112230759558 0.34854177562646338 0 -0.34968930912973689 0.34280762561107131 0 -0.35011839650749182 0.33530670105493487 0 -0.33914112230759558 0.34854177562646338 0 -0.3487560005453324 0.32240809969258583 0 -0.35011839650749182 0.33530670105493487 0 -0.35769444153469782 0.32989457078250489 0 -0.3487560005453324 0.32240809969258583 0 -0.35011839650749182 0.33530670105493487 0 -0.35769444153469782 0.32989457078250489 0 -0.35719078111186559 0.33877918077963742 0 -0.35719078111186559 0.33877918077963742 0 -0.36690682475142128 0.33620239319512368 0 -0.35335622086720209 0.35130432617239438 0 -0.34968930912973689 0.34280762561107131 0 -0.35011839650749182 0.33530670105493487 0 -0.35719078111186559 0.33877918077963742 0 -0.35837087878306911 0.29627442375870838 0 -0.3487560005453324 0.32240809969258583 0 -0.3635914276379838 0.32109100298893251 0 -0.35769444153469782 0.32989457078250489 0 -0.3487560005453324 0.32240809969258583 0 -0.3635914276379838 0.32109100298893251 0 -0.37815623955144723 0.32366509893170042 0 -0.3635914276379838 0.32109100298893251 0 -0.36690682475142128 0.33620239319512368 0 -0.37815623955144723 0.32366509893170042 0 -0.37232429382281812 0.31079397890851462 0 -0.3635914276379838 0.32109100298893251 0 -0.35719078111186559 0.33877918077963742 0 -0.36690682475142128 0.33620239319512368 0 -0.35769444153469782 0.32989457078250489 0 -0.3635914276379838 0.32109100298893251 0 -0.36690682475142128 0.33620239319512368 0 -0.35769444153469782 0.32989457078250489 0 -0.35719078111186559 0.33877918077963742 0 -0.36690682475142128 0.33620239319512368 0 -0.37815623955144723 0.32366509893170042 0 -0.36690682475142128 0.33620239319512368 0 -0.38197606614046009 0.35417749789858899 0 -0.35335622086720209 0.35130432617239438 0 -0.38197606614046009 0.35417749789858899 0 -0.36690682475142128 0.33620239319512368 0 -0.35335622086720209 0.35130432617239438 0 -0.38197606614046009 0.35417749789858899 0 -0.36548124366985829 0.36855787139988311 0 -0.35335622086720209 0.35130432617239438 0 -0.36690682475142128 0.33620239319512368 0 -0.35335622086720209 0.35130432617239438 0 -0.37972107570738722 0.37147753735631001 0 -0.36548124366985829 0.36855787139988311 0 -0.37141021567644938 0.3819240236851501 0 -0.3421609016005917 0.36378133182233702 0 -0.35080821595570438 0.37232074509285701 0 -0.35335622086720209 0.35130432617239438 0 -0.36548124366985829 0.36855787139988311 0 -0.35080821595570438 0.37232074509285701 0 -0.35335622086720209 0.35130432617239438 0 -0.36548124366985829 0.36855787139988311 0 -0.35080821595570438 0.37232074509285701 0 -0.3588164178041427 0.38344599948821378 0 -0.3421609016005917 0.36378133182233702 0 -0.35335622086720209 0.35130432617239438 0 -0.33914112230759558 0.34854177562646338 0 -0.34968930912973689 0.34280762561107131 0 -0.35335622086720209 0.35130432617239438 0 -0.34968930912973689 0.34280762561107131 0 -0.35719078111186559 0.33877918077963742 0 -0.35335622086720209 0.35130432617239438 0 -0.35275327903174181 0.39926843559781411 0 -0.35068080181436312 0.41336424778826047 0 -0.32861846321060989 0.40610943204902777 0 -0.35275327903174181 0.39926843559781411 0 -0.3588164178041427 0.38344599948821378 0 -0.36563298770636332 0.39339747448891771 0 -0.35275327903174181 0.39926843559781411 0 -0.34681256478473932 0.38520744666466139 0 -0.33922593908493598 0.3924954373992911 0 -0.35275327903174181 0.39926843559781411 0 -0.34681256478473932 0.38520744666466139 0 -0.3588164178041427 0.38344599948821378 0 -0.35080821595570438 0.37232074509285701 0 -0.34681256478473932 0.38520744666466139 0 -0.3588164178041427 0.38344599948821378 0 -0.3588164178041427 0.38344599948821378 0 -0.37141021567644938 0.3819240236851501 0 -0.36563298770636332 0.39339747448891771 0 -0.36548124366985829 0.36855787139988311 0 -0.3588164178041427 0.38344599948821378 0 -0.37141021567644938 0.3819240236851501 0 -0.37813277588106597 0.39643554819751331 0 -0.37141021567644938 0.3819240236851501 0 -0.36563298770636332 0.39339747448891771 0 -0.37813277588106597 0.39643554819751331 0 -0.36563298770636332 0.39339747448891771 0 -0.36820147828488259 0.40328809187345388 0 -0.35275327903174181 0.39926843559781411 0 -0.36820147828488259 0.40328809187345388 0 -0.36386386329498788 0.41402885397093508 0 -0.35275327903174181 0.39926843559781411 0 -0.36563298770636332 0.39339747448891771 0 -0.36820147828488259 0.40328809187345388 0 -0.37767869276464439 0.41021006436074459 0 -0.37813277588106597 0.39643554819751331 0 -0.36820147828488259 0.40328809187345388 0 -0.37767869276464439 0.41021006436074459 0 -0.36820147828488259 0.40328809187345388 0 -0.36386386329498788 0.41402885397093508 0 -0.37767869276464439 0.41021006436074459 0 -0.36386386329498788 0.41402885397093508 0 -0.37396298612724238 0.42209814300880683 0 -0.38303930066684888 0.43275526436642731 0 -0.3587429051341916 0.43412710024587992 0 -0.38303930066684888 0.43275526436642731 0 -0.37396298612724238 0.42209814300880683 0 -0.3587429051341916 0.43412710024587992 0 -0.36386386329498788 0.41402885397093508 0 -0.37396298612724238 0.42209814300880683 0 -0.3587429051341916 0.43412710024587992 0 -0.3587429051341916 0.43412710024587992 0 -0.34461864203980608 0.42390305052383093 0 -0.35068080181436312 0.41336424778826047 0 -0.3587429051341916 0.43412710024587992 0 -0.34461864203980608 0.42390305052383093 0 -0.33444650960153438 0.4354989361253328 0 -0.3587429051341916 0.43412710024587992 0 -0.33444650960153438 0.4354989361253328 0 -0.36386386329498788 0.41402885397093508 0 -0.3587429051341916 0.43412710024587992 0 -0.35068080181436312 0.41336424778826047 0 -0.35275327903174181 0.39926843559781411 0 -0.36386386329498788 0.41402885397093508 0 -0.35068080181436312 0.41336424778826047 0 -0.34461864203980608 0.42390305052383093 0 -0.35068080181436312 0.41336424778826047 0 -0.32861846321060989 0.40610943204902777 0 -0.34461864203980608 0.42390305052383093 0 -0.33444650960153438 0.4354989361253328 0 -0.32861846321060989 0.40610943204902777 0 -0.33444650960153438 0.4354989361253328 0 -0.32627134408724562 0.43596052662577839 0 -0.32861846321060989 0.40610943204902777 0 -0.34461864203980608 0.42390305052383093 0 -0.33444650960153438 0.4354989361253328 0 -0.33444650960153438 0.4354989361253328 0 -0.32627134408724562 0.43596052662577839 0 -0.32627134408724562 0.43596052662577839 0 -0.31417051431880832 0.41980921175943992 0 -0.30685580228761339 0.43705677717141828 0 -0.32627134408724562 0.43596052662577839 0 -0.30685580228761339 0.43705677717141828 0 -0.31417051431880832 0.41980921175943992 0 -0.31410107685770422 0.39505356118139978 0 -0.32861846321060989 0.40610943204902777 0 -0.32627134408724562 0.43596052662577839 0 -0.32861846321060989 0.40610943204902777 0 -0.32627134408724562 0.43596052662577839 0 -0.31417051431880832 0.41980921175943992 0 -0.32861846321060989 0.40610943204902777 0 -0.31410107685770422 0.39505356118139978 0 -0.32861846321060989 0.40610943204902777 0 -0.33096558233397921 0.37625833747227783 0 -0.32861846321060989 0.40610943204902777 0 -0.33096558233397921 0.37625833747227783 0 -0.35275327903174181 0.39926843559781411 0 -0.32861846321060989 0.40610943204902777 0 -0.33922593908493598 0.3924954373992911 0 -0.32861846321060989 0.40610943204902777 0 -0.33922593908493598 0.3924954373992911 0 -0.33096558233397921 0.37625833747227783 0 -0.35080821595570438 0.37232074509285701 0 -0.34681256478473932 0.38520744666466139 0 -0.33096558233397921 0.37625833747227783 0 -0.34681256478473932 0.38520744666466139 0 -0.33922593908493598 0.3924954373992911 0 -0.33096558233397921 0.37625833747227783 0 -0.30756402461883309 0.37084693675575209 0 -0.31410107685770422 0.39505356118139978 0 -0.33096558233397921 0.37625833747227783 0 -0.31410107685770422 0.39505356118139978 0 -0.33096558233397921 0.37625833747227783 0 -0.30756402461883309 0.37084693675575209 0 -0.31410107685770422 0.39505356118139978 0 -0.29068560893293821 0.39620398503821519 0 -0.31410107685770422 0.39505356118139978 0 -0.29068560893293821 0.39620398503821519 0 -0.29723657138142762 0.41384878489052029 0 -0.31410107685770422 0.39505356118139978 0 -0.29723657138142762 0.41384878489052029 0 -0.29068560893293821 0.39620398503821519 0 -0.27211230282731991 0.40600011999535901 0 -0.28281510774206342 0.41470607118863362 0 -0.29068560893293821 0.39620398503821519 0 -0.28640931081906079 0.37565613161274358 0 -0.2703506674833423 0.38380770016734012 0 -0.30756402461883309 0.37084693675575209 0 -0.29068560893293821 0.39620398503821519 0 -0.28640931081906079 0.37565613161274358 0 -0.29068560893293821 0.39620398503821519 0 -0.2703506674833423 0.38380770016734012 0 -0.27211230282731991 0.40600011999535901 0 -0.2703506674833423 0.38380770016734012 0 -0.27211230282731991 0.40600011999535901 0 -0.25700348794621308 0.39761547011383119 0 -0.2703506674833423 0.38380770016734012 0 -0.25700348794621308 0.39761547011383119 0 -0.25010325997960881 0.38216550747003092 0 -0.25965205920051943 0.36698188524593128 0 -0.2703506674833423 0.38380770016734012 0 -0.25010325997960881 0.38216550747003092 0 -0.25942221545204353 0.41763139312747227 0 -0.27366898966348019 0.42483345741943218 0 -0.26184094295787191 0.43764731614111357 0 -0.25156123850503848 0.43039672435479659 0 -0.26184094295787191 0.43764731614111357 0 -0.24615972341571479 0.43784613295590807 0 -0.25156123850503848 0.43039672435479659 0 -0.25942221545204353 0.41763139312747227 0 -0.2399012026120371 0.42612601373493342 0 -0.25942221545204353 0.41763139312747227 0 -0.26184094295787191 0.43764731614111357 0 -0.25156123850503848 0.43039672435479659 0 -0.25942221545204353 0.41763139312747227 0 -0.26184094295787191 0.43764731614111357 0 -0.25700348794621308 0.39761547011383119 0 -0.25942221545204353 0.41763139312747227 0 -0.24053130872332229 0.40391907954382728 0 -0.27211230282731991 0.40600011999535901 0 -0.25700348794621308 0.39761547011383119 0 -0.25942221545204353 0.41763139312747227 0 -0.25700348794621308 0.39761547011383119 0 -0.25942221545204353 0.41763139312747227 0 -0.27211230282731991 0.40600011999535901 0 -0.27366898966348019 0.42483345741943218 0 -0.28281510774206342 0.41470607118863362 0 -0.27211230282731991 0.40600011999535901 0 -0.25942221545204353 0.41763139312747227 0 -0.27366898966348019 0.42483345741943218 0 -0.27366898966348019 0.42483345741943218 0 -0.28037206590515101 0.43264400859964092 0 -0.28281510774206342 0.41470607118863362 0 -0.27366898966348019 0.42483345741943218 0 -0.28037206590515101 0.43264400859964092 0 -0.26184094295787191 0.43764731614111357 0 -0.27366898966348019 0.42483345741943218 0 -0.26184094295787191 0.43764731614111357 0 -0.28037206590515101 0.43264400859964092 0 -0.296752400632115 0.42786747135004533 0 -0.28744026048798121 0.43815302771705772 0 -0.28037206590515101 0.43264400859964092 0 -0.29723657138142762 0.41384878489052029 0 -0.28037206590515101 0.43264400859964092 0 -0.296752400632115 0.42786747135004533 0 -0.29723657138142762 0.41384878489052029 0 -0.28037206590515101 0.43264400859964092 0 -0.28281510774206342 0.41470607118863362 0 -0.29723657138142762 0.41384878489052029 0 -0.29068560893293821 0.39620398503821519 0 -0.28281510774206342 0.41470607118863362 0 -0.29723657138142762 0.41384878489052029 0 -0.31417051431880832 0.41980921175943992 0 -0.296752400632115 0.42786747135004533 0 -0.29723657138142762 0.41384878489052029 0 -0.31417051431880832 0.41980921175943992 0 -0.31410107685770422 0.39505356118139978 0 -0.29723657138142762 0.41384878489052029 0 -0.296752400632115 0.42786747135004533 0 -0.30685580228761339 0.43705677717141828 0 -0.28744026048798121 0.43815302771705772 0 -0.31417051431880832 0.41980921175943992 0 -0.296752400632115 0.42786747135004533 0 -0.30685580228761339 0.43705677717141828 0 -0.30685580228761339 0.43705677717141828 0 -0.28744026048798121 0.43815302771705772 0 -0.30685580228761339 0.43705677717141828 0 -0.29849254580042622 0.44794815469132682 0 -0.31313778468791831 0.44737603665611397 0 -0.30685580228761339 0.43705677717141828 0 -0.29849254580042622 0.44794815469132682 0 -0.28744026048798121 0.43815302771705772 0 -0.29849254580042622 0.44794815469132682 0 -0.31098882669364708 0.46223989817305211 0 -0.31313778468791831 0.44737603665611397 0 -0.31098882669364708 0.46223989817305211 0 -0.28916058020777119 0.45990927287831379 0 -0.29647135104434053 0.47878932749610997 0 -0.29849254580042622 0.44794815469132682 0 -0.31098882669364708 0.46223989817305211 0 -0.28916058020777119 0.45990927287831379 0 -0.28916058020777119 0.45990927287831379 0 -0.28022650558094409 0.45433094700681009 0 -0.27531716130691303 0.46161351173092802 0 -0.28916058020777119 0.45990927287831379 0 -0.28609329776286768 0.44820947078770429 0 -0.28022650558094409 0.45433094700681009 0 -0.29849254580042622 0.44794815469132682 0 -0.28609329776286768 0.44820947078770429 0 -0.28744026048798121 0.43815302771705772 0 -0.29849254580042622 0.44794815469132682 0 -0.28916058020777119 0.45990927287831379 0 -0.28609329776286768 0.44820947078770429 0 -0.28037206590515101 0.43264400859964092 0 -0.28744026048798121 0.43815302771705772 0 -0.27722176544347471 0.44534867373201048 0 -0.28609329776286768 0.44820947078770429 0 -0.28744026048798121 0.43815302771705772 0 -0.27722176544347471 0.44534867373201048 0 -0.28037206590515101 0.43264400859964092 0 -0.26184094295787191 0.43764731614111357 0 -0.26350756042887552 0.45143923230876237 0 -0.28037206590515101 0.43264400859964092 0 -0.26350756042887552 0.45143923230876237 0 -0.28037206590515101 0.43264400859964092 0 -0.27722176544347471 0.44534867373201048 0 -0.26350756042887552 0.45143923230876237 0 -0.27722176544347471 0.44534867373201048 0 -0.27380845581197633 0.45258975612012992 0 -0.26350756042887552 0.45143923230876237 0 -0.28609329776286768 0.44820947078770429 0 -0.27722176544347471 0.44534867373201048 0 -0.28022650558094409 0.45433094700681009 0 -0.27722176544347471 0.44534867373201048 0 -0.27380845581197633 0.45258975612012992 0 -0.28022650558094409 0.45433094700681009 0 -0.27380845581197633 0.45258975612012992 0 -0.28022650558094409 0.45433094700681009 0 -0.27531716130691303 0.46161351173092802 0 -0.28916058020777119 0.45990927287831379 0 -0.27531716130691303 0.46161351173092802 0 -0.27904536703266691 0.47242688953008888 0 -0.27531716130691303 0.46161351173092802 0 -0.26431274156481122 0.45810242342477397 0 -0.27904536703266691 0.47242688953008888 0 -0.27380845581197633 0.45258975612012992 0 -0.26948020499715708 0.45588601298384429 0 -0.26350756042887552 0.45143923230876237 0 -0.27380845581197633 0.45258975612012992 0 -0.27531716130691303 0.46161351173092802 0 -0.26948020499715708 0.45588601298384429 0 -0.27531716130691303 0.46161351173092802 0 -0.26948020499715708 0.45588601298384429 0 -0.26431274156481122 0.45810242342477397 0 -0.26948020499715708 0.45588601298384429 0 -0.26431274156481122 0.45810242342477397 0 -0.26948020499715708 0.45588601298384429 0 -0.26431274156481122 0.45810242342477397 0 -0.26350756042887552 0.45143923230876237 0 -0.26431274156481122 0.45810242342477397 0 -0.26350756042887552 0.45143923230876237 0 -0.26431274156481122 0.45810242342477397 0 -0.25004986777263122 0.46422000563982629 0 -0.26705649267713277 0.48080804483124129 0 -0.26431274156481122 0.45810242342477397 0 -0.25394781835289071 0.4556248617153123 0 -0.26350756042887552 0.45143923230876237 0 -0.26431274156481122 0.45810242342477397 0 -0.25004986777263122 0.46422000563982629 0 -0.2505232424239156 0.46131945114879969 0 -0.25004986777263122 0.46422000563982629 0 -0.25394781835289071 0.4556248617153123 0 -0.26431274156481122 0.45810242342477397 0 -0.25004986777263122 0.46422000563982629 0 -0.25394781835289071 0.4556248617153123 0 -0.25394781835289071 0.4556248617153123 0 -0.26184094295787191 0.43764731614111357 0 -0.26350756042887552 0.45143923230876237 0 -0.25394781835289071 0.4556248617153123 0 -0.26184094295787191 0.43764731614111357 0 -0.24299242189748579 0.45806677270834578 0 -0.26184094295787191 0.43764731614111357 0 -0.24299242189748579 0.45806677270834578 0 -0.26184094295787191 0.43764731614111357 0 -0.24615972341571479 0.43784613295590807 0 -0.24442569604620579 0.4482207946046467 0 -0.26184094295787191 0.43764731614111357 0 -0.26350756042887552 0.45143923230876237 0 -0.26035812555712912 0.48924140014671352 0 -0.251079557206354 0.48377351451227218 0 -0.26705649267713277 0.48080804483124129 0 -0.25986605528959589 0.50000000000000089 0 -0.251079557206354 0.48377351451227218 0 -0.26035812555712912 0.48924140014671352 0 -0.26705649267713277 0.48080804483124129 0 -0.26922656727750721 0.49876626709077998 0 -0.26035812555712912 0.48924140014671352 0 -0.25986605528959589 0.50000000000000089 0 -0.251079557206354 0.48377351451227218 0 -0.26035812555712912 0.48924140014671352 0 -0.25986605528959589 0.50000000000000089 0 -0.26922656727750721 0.49876626709077998 0 -0.25004986777263122 0.46422000563982629 0 -0.26705649267713277 0.48080804483124129 0 -0.25004986777263122 0.46422000563982629 0 -0.251079557206354 0.48377351451227218 0 -0.26705649267713277 0.48080804483124129 0 -0.26431274156481122 0.45810242342477397 0 -0.26705649267713277 0.48080804483124129 0 -0.26431274156481122 0.45810242342477397 0 -0.26705649267713277 0.48080804483124129 0 -0.27904536703266691 0.47242688953008888 0 -0.26705649267713277 0.48080804483124129 0 -0.27904536703266691 0.47242688953008888 0 -0.28195387539503219 0.49533875681916661 0 -0.26705649267713277 0.48080804483124129 0 -0.28195387539503219 0.49533875681916661 0 -0.26705649267713277 0.48080804483124129 0 -0.26922656727750721 0.49876626709077998 0 -0.26705649267713277 0.48080804483124129 0 -0.26922656727750721 0.49876626709077998 0 -0.28195387539503219 0.49533875681916661 0 -0.25986605528959589 0.50000000000000089 0 -0.26922656727750721 0.49876626709077998 0 -0.27786494380396948 0.49999999999999689 0 -0.26922656727750721 0.49876626709077998 0 -0.27786494380396948 0.49999999999999689 0 -0.28195387539503219 0.49533875681916661 0 -0.27786494380396948 0.49999999999999689 0 -0.28195387539503219 0.49533875681916661 0 -0.28673274126641979 0.49999999999999972 0 -0.28195387539503219 0.49533875681916661 0 -0.28673274126641979 0.49999999999999972 0 -0.3094734040986441 0.47834464980368657 0 -0.33028032000603119 0.48263857631431301 0 -0.28195387539503219 0.49533875681916661 0 -0.29647135104434053 0.47878932749610997 0 -0.28673274126641979 0.49999999999999972 0 -0.28195387539503219 0.49533875681916661 0 -0.29647135104434053 0.47878932749610997 0 -0.27786494380396948 0.49999999999999689 0 -0.28673274126641979 0.49999999999999972 0 -0.28195387539503219 0.49533875681916661 0 -0.28916058020777119 0.45990927287831379 0 -0.27904536703266691 0.47242688953008888 0 -0.29647135104434053 0.47878932749610997 0 -0.27904536703266691 0.47242688953008888 0 -0.28195387539503219 0.49533875681916661 0 -0.29647135104434053 0.47878932749610997 0 -0.31098882669364708 0.46223989817305211 0 -0.29647135104434053 0.47878932749610997 0 -0.3094734040986441 0.47834464980368657 0 -0.31098882669364708 0.46223989817305211 0 -0.29647135104434053 0.47878932749610997 0 -0.28673274126641979 0.49999999999999972 0 -0.29647135104434053 0.47878932749610997 0 -0.3094734040986441 0.47834464980368657 0 -0.28673274126641979 0.49999999999999972 0 -0.33028032000603119 0.48263857631431301 0 -0.36151925059574941 0.5 0 -0.33028032000603119 0.48263857631431301 0 -0.33674311502794713 0.46511351750927371 0 -0.35171827281258011 0.47781160186223881 0 -0.33028032000603119 0.48263857631431301 0 -0.32289378148278169 0.46805544703495833 0 -0.33674311502794713 0.46511351750927371 0 -0.31098882669364708 0.46223989817305211 0 -0.3094734040986441 0.47834464980368657 0 -0.32289378148278169 0.46805544703495833 0 -0.3094734040986441 0.47834464980368657 0 -0.33028032000603119 0.48263857631431301 0 -0.32289378148278169 0.46805544703495833 0 -0.31098882669364708 0.46223989817305211 0 -0.32550630234295669 0.44569046884999691 0 -0.31098882669364708 0.46223989817305211 0 -0.32479880940996292 0.45468849466173261 0 -0.32550630234295669 0.44569046884999691 0 -0.31098882669364708 0.46223989817305211 0 -0.32479880940996292 0.45468849466173261 0 -0.32289378148278169 0.46805544703495833 0 -0.31098882669364708 0.46223989817305211 0 -0.31313778468791831 0.44737603665611397 0 -0.32550630234295669 0.44569046884999691 0 -0.32627134408724562 0.43596052662577839 0 -0.30685580228761339 0.43705677717141828 0 -0.31313778468791831 0.44737603665611397 0 -0.32479880940996292 0.45468849466173261 0 -0.32550630234295669 0.44569046884999691 0 -0.32479880940996292 0.45468849466173261 0 -0.32550630234295669 0.44569046884999691 0 -0.333802869564781 0.45407952620431741 0 -0.32627134408724562 0.43596052662577839 0 -0.31313778468791831 0.44737603665611397 0 -0.32550630234295669 0.44569046884999691 0 -0.32627134408724562 0.43596052662577839 0 -0.32550630234295669 0.44569046884999691 0 -0.33444650960153438 0.4354989361253328 0 -0.32627134408724562 0.43596052662577839 0 -0.32550630234295669 0.44569046884999691 0 -0.33444650960153438 0.4354989361253328 0 -0.32550630234295669 0.44569046884999691 0 -0.33444650960153438 0.4354989361253328 0 -0.32550630234295669 0.44569046884999691 0 -0.33574049104303688 0.44535453977990619 0 -0.32550630234295669 0.44569046884999691 0 -0.33574049104303688 0.44535453977990619 0 -0.333802869564781 0.45407952620431741 0 -0.33574049104303688 0.44535453977990619 0 -0.34373643628597639 0.45311268041564251 0 -0.34543214312110759 0.44323633322608291 0 -0.33574049104303688 0.44535453977990619 0 -0.34373643628597639 0.45311268041564251 0 -0.333802869564781 0.45407952620431741 0 -0.33444650960153438 0.4354989361253328 0 -0.33574049104303688 0.44535453977990619 0 -0.34543214312110759 0.44323633322608291 0 -0.32479880940996292 0.45468849466173261 0 -0.32289378148278169 0.46805544703495833 0 -0.33674311502794713 0.46511351750927371 0 -0.32479880940996292 0.45468849466173261 0 -0.333802869564781 0.45407952620431741 0 -0.33674311502794713 0.46511351750927371 0 -0.34373643628597639 0.45311268041564251 0 -0.333802869564781 0.45407952620431741 0 -0.33674311502794713 0.46511351750927371 0 -0.34373643628597639 0.45311268041564251 0 -0.35568999956368041 0.46490843639763002 0 -0.35449437354079882 0.44808840956365342 0 -0.34373643628597639 0.45311268041564251 0 -0.33674311502794713 0.46511351750927371 0 -0.35568999956368041 0.46490843639763002 0 -0.3587429051341916 0.43412710024587992 0 -0.33444650960153438 0.4354989361253328 0 -0.34543214312110759 0.44323633322608291 0 -0.34373643628597639 0.45311268041564251 0 -0.34543214312110759 0.44323633322608291 0 -0.35449437354079882 0.44808840956365342 0 -0.3587429051341916 0.43412710024587992 0 -0.34543214312110759 0.44323633322608291 0 -0.35449437354079882 0.44808840956365342 0 -0.38303930066684888 0.43275526436642731 0 -0.3587429051341916 0.43412710024587992 0 -0.36821910979165767 0.44821371158351658 0 -0.3587429051341916 0.43412710024587992 0 -0.35449437354079882 0.44808840956365342 0 -0.36821910979165767 0.44821371158351658 0 -0.38186366916293413 0.44676931413255527 0 -0.36821910979165767 0.44821371158351658 0 -0.3739040664231631 0.46119874318328491 0 -0.35568999956368041 0.46490843639763002 0 -0.35449437354079882 0.44808840956365342 0 -0.36821910979165767 0.44821371158351658 0 -0.35568999956368041 0.46490843639763002 0 -0.3739040664231631 0.46119874318328491 0 -0.37435867886949242 0.47639747908997709 0 -0.35568999956368041 0.46490843639763002 0 -0.36821910979165767 0.44821371158351658 0 -0.3739040664231631 0.46119874318328491 0 -0.35568999956368041 0.46490843639763002 0 -0.37435867886949242 0.47639747908997709 0 -0.35171827281258011 0.47781160186223881 0 -0.37435867886949242 0.47639747908997709 0 -0.36151925059574941 0.5 0 -0.35171827281258011 0.47781160186223881 0 -0.33028032000603119 0.48263857631431301 0 -0.36151925059574941 0.5 0 -0.35171827281258011 0.47781160186223881 0 -0.33674311502794713 0.46511351750927371 0 -0.35568999956368041 0.46490843639763002 0 -0.35171827281258011 0.47781160186223881 0 -0.1474516435150327 0.47806394893069287 0 -0.1467864026944907 0.48704719054723838 0 -0.13894219827088411 0.4817024725402696 0 -0.1474516435150327 0.47806394893069287 0 -0.1385458199412011 0.46964907236723769 0 -0.1505705544456486 0.46866892726915721 0 -0.1474516435150327 0.47806394893069287 0 -0.13894219827088411 0.4817024725402696 0 -0.1385458199412011 0.46964907236723769 0 -0.1474516435150327 0.47806394893069287 0 -0.1505705544456486 0.46866892726915721 0 -0.15677245736568321 0.47631989860035162 0 -0.1505705544456486 0.46866892726915721 0 -0.15806426803057599 0.46663486198847992 0 -0.15677245736568321 0.47631989860035162 0 -0.1474516435150327 0.47806394893069287 0 -0.15309242837228881 0.4849961322599029 0 -0.15677245736568321 0.47631989860035162 0 -0.1474516435150327 0.47806394893069287 0 -0.15309242837228881 0.4849961322599029 0 -0.1467864026944907 0.48704719054723838 0 -0.15309242837228881 0.4849961322599029 0 -0.15092658490037461 0.49297772804358142 0 -0.15812411866201689 0.4889085418616394 0 -0.14091444483063531 0.5 0 -0.15864923315993509 0.49436773787014121 0 -0.16739853452881301 0.5 0 -0.15092658490037461 0.49297772804358142 0 -0.14091444483063531 0.5 0 -0.15864923315993509 0.49436773787014121 0 -0.15309242837228881 0.4849961322599029 0 -0.15092658490037461 0.49297772804358142 0 -0.1467864026944907 0.48704719054723838 0 -0.15092658490037461 0.49297772804358142 0 -0.15864923315993509 0.49436773787014121 0 -0.15812411866201689 0.4889085418616394 0 -0.15092658490037461 0.49297772804358142 0 -0.14365703344159611 0.49584659343077248 0 -0.14091444483063531 0.5 0 -0.15092658490037461 0.49297772804358142 0 -0.14365703344159611 0.49584659343077248 0 -0.1467864026944907 0.48704719054723838 0 -0.14365703344159611 0.49584659343077248 0 -0.1467864026944907 0.48704719054723838 0 -0.13894219827088411 0.4817024725402696 0 -0.14365703344159611 0.49584659343077248 0 -0.13894219827088411 0.4817024725402696 0 -0.1242204318380799 0.47830473262078288 0 -0.14365703344159611 0.49584659343077248 0 -0.1242204318380799 0.47830473262078288 0 -0.14365703344159611 0.49584659343077248 0 -0.14091444483063531 0.5 0 -0.1242204318380799 0.47830473262078288 0 -0.14091444483063531 0.5 0 -0.1242204318380799 0.47830473262078288 0 -0.1144303551324576 0.5 0 -0.1385458199412011 0.46964907236723769 0 -0.12614476549805431 0.4611122041341717 0 -0.1242204318380799 0.47830473262078288 0 -0.13894219827088411 0.4817024725402696 0 -0.1385458199412011 0.46964907236723769 0 -0.1242204318380799 0.47830473262078288 0 -0.1385458199412011 0.46964907236723769 0 -0.12614476549805431 0.4611122041341717 0 -0.13715488370634529 0.45607518300104238 0 -0.1385458199412011 0.46964907236723769 0 -0.13715488370634529 0.45607518300104238 0 -0.14547413734208581 0.46196696054357489 0 -0.13715488370634529 0.45607518300104238 0 -0.14378458770106481 0.44893786013440529 0 -0.1231102128986111 0.44164965171733012 0 -0.12614476549805431 0.4611122041341717 0 -0.13715488370634529 0.45607518300104238 0 -0.1231102128986111 0.44164965171733012 0 -0.1343639973044666 0.4387510516917254 0 -0.14378458770106481 0.44893786013440529 0 -0.1231102128986111 0.44164965171733012 0 -0.14378458770106481 0.44893786013440529 0 -0.1231102128986111 0.44164965171733012 0 -0.1343639973044666 0.4387510516917254 0 -0.12435653341535639 0.43280279094571039 0 -0.1231102128986111 0.44164965171733012 0 -0.1343639973044666 0.4387510516917254 0 -0.1417265111894912 0.43994098564297568 0 -0.14413376540632031 0.44406599702081251 0 -0.1343639973044666 0.4387510516917254 0 -0.1417265111894912 0.43994098564297568 0 -0.14267385388780521 0.43584009732048801 0 -0.14378458770106481 0.44893786013440529 0 -0.16445896250351791 0.45622606855148201 0 -0.14378458770106481 0.44893786013440529 0 -0.16445896250351791 0.45622606855148201 0 -0.1564161013607919 0.45127412536802769 0 -0.1343639973044666 0.4387510516917254 0 -0.14413376540632031 0.44406599702081251 0 -0.14378458770106481 0.44893786013440529 0 -0.14646871616614229 0.43959749225320638 0 -0.1472179243373628 0.44309117053012281 0 -0.15019738066575719 0.44049906153135832 0 -0.14646871616614229 0.43959749225320638 0 -0.1417265111894912 0.43994098564297568 0 -0.14267385388780521 0.43584009732048801 0 -0.14646871616614229 0.43959749225320638 0 -0.1417265111894912 0.43994098564297568 0 -0.14413376540632031 0.44406599702081251 0 -0.1472179243373628 0.44309117053012281 0 -0.14772114581910889 0.4475853444336973 0 -0.15019738066575719 0.44049906153135832 0 -0.14646871616614229 0.43959749225320638 0 -0.14413376540632031 0.44406599702081251 0 -0.1472179243373628 0.44309117053012281 0 -0.14413376540632031 0.44406599702081251 0 -0.1472179243373628 0.44309117053012281 0 -0.14772114581910889 0.4475853444336973 0 -0.14772114581910889 0.4475853444336973 0 -0.14378458770106481 0.44893786013440529 0 -0.1517048713122868 0.4484260944199831 0 -0.14413376540632031 0.44406599702081251 0 -0.14772114581910889 0.4475853444336973 0 -0.14378458770106481 0.44893786013440529 0 -0.14378458770106481 0.44893786013440529 0 -0.1517048713122868 0.4484260944199831 0 -0.1564161013607919 0.45127412536802769 0 -0.15515423869319561 0.4477793748710569 0 -0.1517048713122868 0.4484260944199831 0 -0.1564161013607919 0.45127412536802769 0 -0.15515423869319561 0.4477793748710569 0 -0.15444239512130509 0.44520267344337161 0 -0.15815811352103129 0.44676642104436393 0 -0.15515423869319561 0.4477793748710569 0 -0.1517048713122868 0.4484260944199831 0 -0.15444239512130509 0.44520267344337161 0 -0.14772114581910889 0.4475853444336973 0 -0.1517048713122868 0.4484260944199831 0 -0.15444239512130509 0.44520267344337161 0 -0.14772114581910889 0.4475853444336973 0 -0.15444239512130509 0.44520267344337161 0 -0.15818981502419849 0.43893089873107138 0 -0.14772114581910889 0.4475853444336973 0 -0.15019738066575719 0.44049906153135832 0 -0.15509026190184999 0.43444037193913299 0 -0.14646871616614229 0.43959749225320638 0 -0.15019738066575719 0.44049906153135832 0 -0.15055874365518401 0.43538536902734348 0 -0.14378458770106481 0.44893786013440529 0 -0.1594810598500227 0.45821215940093579 0 -0.16445896250351791 0.45622606855148201 0 -0.14378458770106481 0.44893786013440529 0 -0.14749185988044339 0.45746103465072252 0 -0.1594810598500227 0.45821215940093579 0 -0.1385458199412011 0.46964907236723769 0 -0.14547413734208581 0.46196696054357489 0 -0.1505705544456486 0.46866892726915721 0 -0.13715488370634529 0.45607518300104238 0 -0.14378458770106481 0.44893786013440529 0 -0.14749185988044339 0.45746103465072252 0 -0.13715488370634529 0.45607518300104238 0 -0.14547413734208581 0.46196696054357489 0 -0.14749185988044339 0.45746103465072252 0 -0.14547413734208581 0.46196696054357489 0 -0.14749185988044339 0.45746103465072252 0 -0.1515646308026988 0.46211301017365392 0 -0.14749185988044339 0.45746103465072252 0 -0.1515646308026988 0.46211301017365392 0 -0.1594810598500227 0.45821215940093579 0 -0.14547413734208581 0.46196696054357489 0 -0.1515646308026988 0.46211301017365392 0 -0.1505705544456486 0.46866892726915721 0 -0.1515646308026988 0.46211301017365392 0 -0.1505705544456486 0.46866892726915721 0 -0.15806426803057599 0.46663486198847992 0 -0.15806426803057599 0.46663486198847992 0 -0.16351002891015251 0.46216682705007761 0 -0.1594810598500227 0.45821215940093579 0 -0.1515646308026988 0.46211301017365392 0 -0.15806426803057599 0.46663486198847992 0 -0.1594810598500227 0.45821215940093579 0 -0.15806426803057599 0.46663486198847992 0 -0.16351002891015251 0.46216682705007761 0 -0.16549431428263309 0.4673513431977635 0 -0.16351002891015251 0.46216682705007761 0 -0.1594810598500227 0.45821215940093579 0 -0.16445896250351791 0.45622606855148201 0 -0.1594810598500227 0.45821215940093579 0 -0.16445896250351791 0.45622606855148201 0 -0.16445896250351791 0.45622606855148201 0 -0.1682281006195904 0.46281695751932961 0 -0.175933938019187 0.46027127010839042 0 -0.16445896250351791 0.45622606855148201 0 -0.175933938019187 0.46027127010839042 0 -0.16351002891015251 0.46216682705007761 0 -0.16445896250351791 0.45622606855148201 0 -0.1682281006195904 0.46281695751932961 0 -0.1682281006195904 0.46281695751932961 0 -0.16549431428263309 0.4673513431977635 0 -0.17315140010473271 0.46759796457772018 0 -0.16351002891015251 0.46216682705007761 0 -0.1682281006195904 0.46281695751932961 0 -0.16549431428263309 0.4673513431977635 0 -0.16330076185289591 0.44029729794946398 0 -0.15818981502419849 0.43893089873107138 0 -0.1607487489458379 0.44288141891795269 0 -0.16330076185289591 0.44029729794946398 0 -0.15818981502419849 0.43893089873107138 0 -0.16514738111837071 0.43535515807813868 0 -0.15818981502419849 0.43893089873107138 0 -0.15788476815309321 0.44344535303418992 0 -0.1607487489458379 0.44288141891795269 0 -0.15444239512130509 0.44520267344337161 0 -0.15818981502419849 0.43893089873107138 0 -0.15788476815309321 0.44344535303418992 0 -0.15444239512130509 0.44520267344337161 0 -0.15788476815309321 0.44344535303418992 0 -0.15815811352103129 0.44676642104436393 0 -0.15788476815309321 0.44344535303418992 0 -0.1607487489458379 0.44288141891795269 0 -0.15815811352103129 0.44676642104436393 0 -0.16330076185289591 0.44029729794946398 0 -0.1607487489458379 0.44288141891795269 0 -0.16500683428277479 0.44472164816345389 0 -0.1607487489458379 0.44288141891795269 0 -0.16177944438927119 0.44629683336180531 0 -0.16500683428277479 0.44472164816345389 0 -0.16445896250351791 0.45622606855148201 0 -0.1564161013607919 0.45127412536802769 0 -0.16116663313077451 0.4516060069603956 0 -0.16177944438927119 0.44629683336180531 0 -0.16328173006687949 0.44954608004521229 0 -0.16500683428277479 0.44472164816345389 0 -0.16016040449374969 0.44909789335596101 0 -0.16177944438927119 0.44629683336180531 0 -0.16328173006687949 0.44954608004521229 0 -0.1607487489458379 0.44288141891795269 0 -0.16177944438927119 0.44629683336180531 0 -0.15815811352103129 0.44676642104436393 0 -0.15515423869319561 0.4477793748710569 0 -0.15815811352103129 0.44676642104436393 0 -0.1564161013607919 0.45127412536802769 0 -0.16016040449374969 0.44909789335596101 0 -0.15815811352103129 0.44676642104436393 0 -0.1564161013607919 0.45127412536802769 0 -0.16016040449374969 0.44909789335596101 0 -0.16177944438927119 0.44629683336180531 0 -0.15815811352103129 0.44676642104436393 0 -0.16016040449374969 0.44909789335596101 0 -0.1564161013607919 0.45127412536802769 0 -0.16116663313077451 0.4516060069603956 0 -0.16445896250351791 0.45622606855148201 0 -0.16116663313077451 0.4516060069603956 0 -0.16328173006687949 0.44954608004521229 0 -0.16016040449374969 0.44909789335596101 0 -0.16116663313077451 0.4516060069603956 0 -0.16328173006687949 0.44954608004521229 0 -0.16445896250351791 0.45622606855148201 0 -0.17105360242352571 0.44904628144067171 0 -0.1666972290420598 0.44874237744355588 0 -0.16445896250351791 0.45622606855148201 0 -0.16328173006687949 0.44954608004521229 0 -0.1666972290420598 0.44874237744355588 0 -0.17105360242352571 0.44904628144067171 0 -0.1666972290420598 0.44874237744355588 0 -0.16999576680100911 0.4442624712930846 0 -0.16328173006687949 0.44954608004521229 0 -0.1666972290420598 0.44874237744355588 0 -0.16500683428277479 0.44472164816345389 0 -0.1666972290420598 0.44874237744355588 0 -0.16500683428277479 0.44472164816345389 0 -0.16999576680100911 0.4442624712930846 0 -0.16330076185289591 0.44029729794946398 0 -0.16500683428277479 0.44472164816345389 0 -0.1674110298932974 0.43959736585670323 0 -0.16500683428277479 0.44472164816345389 0 -0.16999576680100911 0.4442624712930846 0 -0.1674110298932974 0.43959736585670323 0 -0.16999576680100911 0.4442624712930846 0 -0.1708442347189518 0.43986969115574959 0 -0.173476150996485 0.44263771823923942 0 -0.1708442347189518 0.43986969115574959 0 -0.17316044780097009 0.43673364777592549 0 -0.1692279570628418 0.43675877889382009 0 -0.16999576680100911 0.4442624712930846 0 -0.1708442347189518 0.43986969115574959 0 -0.1674110298932974 0.43959736585670323 0 -0.1708442347189518 0.43986969115574959 0 -0.1674110298932974 0.43959736585670323 0 -0.1692279570628418 0.43675877889382009 0 -0.16330076185289591 0.44029729794946398 0 -0.1674110298932974 0.43959736585670323 0 -0.16514738111837071 0.43535515807813868 0 -0.16445896250351791 0.45622606855148201 0 -0.17105360242352571 0.44904628144067171 0 -0.18011376124557699 0.44998009415305268 0 -0.16445896250351791 0.45622606855148201 0 -0.18011376124557699 0.44998009415305268 0 -0.17550555513362009 0.44024883520190577 0 -0.173476150996485 0.44263771823923942 0 -0.17316044780097009 0.43673364777592549 0 -0.1708442347189518 0.43986969115574959 0 -0.173476150996485 0.44263771823923942 0 -0.17316044780097009 0.43673364777592549 0 -0.17550555513362009 0.44024883520190577 0 -0.17316044780097009 0.43673364777592549 0 -0.173476150996485 0.44263771823923942 0 -0.17879044070221489 0.44517269872224202 0 -0.1746237942602808 0.44620172031443311 0 -0.16999576680100911 0.4442624712930846 0 -0.173476150996485 0.44263771823923942 0 -0.1746237942602808 0.44620172031443311 0 -0.17723072694742181 0.43950652750184083 0 -0.17879044070221489 0.44517269872224202 0 -0.17723072694742181 0.43950652750184083 0 -0.17550555513362009 0.44024883520190577 0 -0.17879044070221489 0.44517269872224202 0 -0.17550555513362009 0.44024883520190577 0 -0.17879044070221489 0.44517269872224202 0 -0.17550555513362009 0.44024883520190577 0 -0.173476150996485 0.44263771823923942 0 -0.17879044070221489 0.44517269872224202 0 -0.17105360242352571 0.44904628144067171 0 -0.1746237942602808 0.44620172031443311 0 -0.18011376124557699 0.44998009415305268 0 -0.17879044070221489 0.44517269872224202 0 -0.18011376124557699 0.44998009415305268 0 -0.17879044070221489 0.44517269872224202 0 -0.1746237942602808 0.44620172031443311 0 -0.18011376124557699 0.44998009415305268 0 -0.17105360242352571 0.44904628144067171 0 -0.16999576680100911 0.4442624712930846 0 -0.1746237942602808 0.44620172031443311 0 -0.18011376124557699 0.44998009415305268 0 -0.18160160082550239 0.44938647375088048 0 -0.17879044070221489 0.44517269872224202 0 -0.18160160082550239 0.44938647375088048 0 -0.17879044070221489 0.44517269872224202 0 -0.18011376124557699 0.44998009415305268 0 -0.18160160082550239 0.44938647375088048 0 -0.17723072694742181 0.43950652750184083 0 -0.18441257875228181 0.44057735087920891 0 -0.1882995472448234 0.43444407002876062 0 -0.17879044070221489 0.44517269872224202 0 -0.18160160082550239 0.44938647375088048 0 -0.18441257875228181 0.44057735087920891 0 -0.17723072694742181 0.43950652750184083 0 -0.17879044070221489 0.44517269872224202 0 -0.18441257875228181 0.44057735087920891 0 -0.18011376124557699 0.44998009415305268 0 -0.1852129211774948 0.46850446323402628 0 -0.19185898589285341 0.46476173206430021 0 -0.18011376124557699 0.44998009415305268 0 -0.1852129211774948 0.46850446323402628 0 -0.16445896250351791 0.45622606855148201 0 -0.18011376124557699 0.44998009415305268 0 -0.175933938019187 0.46027127010839042 0 -0.18011376124557699 0.44998009415305268 0 -0.175933938019187 0.46027127010839042 0 -0.1852129211774948 0.46850446323402628 0 -0.17315140010473271 0.46759796457772018 0 -0.175933938019187 0.46027127010839042 0 -0.1852129211774948 0.46850446323402628 0 -0.1682281006195904 0.46281695751932961 0 -0.17315140010473271 0.46759796457772018 0 -0.175933938019187 0.46027127010839042 0 -0.18011376124557699 0.44998009415305268 0 -0.18160160082550239 0.44938647375088048 0 -0.19185898589285341 0.46476173206430021 0 -0.18160160082550239 0.44938647375088048 0 -0.19185898589285341 0.46476173206430021 0 -0.1852129211774948 0.46850446323402628 0 -0.17978258965613289 0.47880773662141463 0 -0.19031208110941389 0.48702883231499938 0 -0.1852129211774948 0.46850446323402628 0 -0.17978258965613289 0.47880773662141463 0 -0.1752534238628265 0.47350032048584711 0 -0.17978258965613289 0.47880773662141463 0 -0.17695395520064719 0.4849950809780702 0 -0.19031208110941389 0.48702883231499938 0 -0.17978258965613289 0.47880773662141463 0 -0.1711805669302835 0.48000998609412948 0 -0.17695395520064719 0.4849950809780702 0 -0.17978258965613289 0.47880773662141463 0 -0.1752534238628265 0.47350032048584711 0 -0.1711805669302835 0.48000998609412948 0 -0.17315140010473271 0.46759796457772018 0 -0.1852129211774948 0.46850446323402628 0 -0.1752534238628265 0.47350032048584711 0 -0.17315140010473271 0.46759796457772018 0 -0.1752534238628265 0.47350032048584711 0 -0.1687857026666644 0.47314343292096478 0 -0.16549431428263309 0.4673513431977635 0 -0.17315140010473271 0.46759796457772018 0 -0.1687857026666644 0.47314343292096478 0 -0.16549431428263309 0.4673513431977635 0 -0.1687857026666644 0.47314343292096478 0 -0.1625643159439952 0.47227216497573288 0 -0.1687857026666644 0.47314343292096478 0 -0.16535101786787859 0.47807066637850149 0 -0.1625643159439952 0.47227216497573288 0 -0.1752534238628265 0.47350032048584711 0 -0.1687857026666644 0.47314343292096478 0 -0.1711805669302835 0.48000998609412948 0 -0.1711805669302835 0.48000998609412948 0 -0.16608332293560271 0.4827769284309229 0 -0.16702338698221991 0.48845182439306578 0 -0.1687857026666644 0.47314343292096478 0 -0.1711805669302835 0.48000998609412948 0 -0.16535101786787859 0.47807066637850149 0 -0.16608332293560271 0.4827769284309229 0 -0.16535101786787859 0.47807066637850149 0 -0.1609289598952659 0.48374928674150569 0 -0.1711805669302835 0.48000998609412948 0 -0.16608332293560271 0.4827769284309229 0 -0.16535101786787859 0.47807066637850149 0 -0.15309242837228881 0.4849961322599029 0 -0.1609289598952659 0.48374928674150569 0 -0.15677245736568321 0.47631989860035162 0 -0.16535101786787859 0.47807066637850149 0 -0.1609289598952659 0.48374928674150569 0 -0.15677245736568321 0.47631989860035162 0 -0.15806426803057599 0.46663486198847992 0 -0.15677245736568321 0.47631989860035162 0 -0.1625643159439952 0.47227216497573288 0 -0.16535101786787859 0.47807066637850149 0 -0.15677245736568321 0.47631989860035162 0 -0.1625643159439952 0.47227216497573288 0 -0.15806426803057599 0.46663486198847992 0 -0.16549431428263309 0.4673513431977635 0 -0.1625643159439952 0.47227216497573288 0 -0.1609289598952659 0.48374928674150569 0 -0.15812411866201689 0.4889085418616394 0 -0.16702338698221991 0.48845182439306578 0 -0.15864923315993509 0.49436773787014121 0 -0.15812411866201689 0.4889085418616394 0 -0.16702338698221991 0.48845182439306578 0 -0.15309242837228881 0.4849961322599029 0 -0.1609289598952659 0.48374928674150569 0 -0.15812411866201689 0.4889085418616394 0 -0.16702338698221991 0.48845182439306578 0 -0.16805502046077911 0.49415333798925781 0 -0.1750453357695099 0.49031953489726049 0 -0.1711805669302835 0.48000998609412948 0 -0.16702338698221991 0.48845182439306578 0 -0.17695395520064719 0.4849950809780702 0 -0.16608332293560271 0.4827769284309229 0 -0.1609289598952659 0.48374928674150569 0 -0.16702338698221991 0.48845182439306578 0 -0.16805502046077911 0.49415333798925781 0 -0.1721586118634178 0.49762759278582142 0 -0.1750453357695099 0.49031953489726049 0 -0.15864923315993509 0.49436773787014121 0 -0.16805502046077911 0.49415333798925781 0 -0.16739853452881301 0.5 0 -0.15864923315993509 0.49436773787014121 0 -0.16702338698221991 0.48845182439306578 0 -0.16805502046077911 0.49415333798925781 0 -0.16805502046077911 0.49415333798925781 0 -0.16739853452881301 0.5 0 -0.1721586118634178 0.49762759278582142 0 -0.1721586118634178 0.49762759278582142 0 -0.19031208110941389 0.48702883231499938 0 -0.16739853452881301 0.5 0 -0.1721586118634178 0.49762759278582142 0 -0.19388262422699079 0.50000000000000067 0 -0.1721586118634178 0.49762759278582142 0 -0.19388262422699079 0.50000000000000067 0 -0.19031208110941389 0.48702883231499938 0 -0.1721586118634178 0.49762759278582142 0 -0.1750453357695099 0.49031953489726049 0 -0.19031208110941389 0.48702883231499938 0 -0.16702338698221991 0.48845182439306578 0 -0.17695395520064719 0.4849950809780702 0 -0.1750453357695099 0.49031953489726049 0 -0.17695395520064719 0.4849950809780702 0 -0.1750453357695099 0.49031953489726049 0 -0.19031208110941389 0.48702883231499938 0 -0.19388262422699079 0.50000000000000067 0 -0.19031208110941389 0.48702883231499938 0 -0.19388262422699079 0.50000000000000067 0 -0.19031208110941389 0.48702883231499938 0 -0.19568977472517779 0.49417357265214218 0 -0.19031208110941389 0.48702883231499938 0 -0.19325786388371141 0.48857903440291051 0 -0.20211637096020371 0.48013699037772017 0 -0.19031208110941389 0.48702883231499938 0 -0.19325786388371141 0.48857903440291051 0 -0.19568977472517779 0.49417357265214218 0 -0.19325786388371141 0.48857903440291051 0 -0.19899463732504369 0.48967942641241902 0 -0.2045244710245547 0.48374660045775819 0 -0.19325786388371141 0.48857903440291051 0 -0.19899463732504369 0.48967942641241902 0 -0.19568977472517779 0.49417357265214218 0 -0.19899463732504369 0.48967942641241902 0 -0.2025064396667311 0.49221849813686519 0 -0.19568977472517779 0.49417357265214218 0 -0.19899463732504369 0.48967942641241902 0 -0.2025064396667311 0.49221849813686519 0 -0.2045244710245547 0.48374660045775819 0 -0.19325786388371141 0.48857903440291051 0 -0.2045244710245547 0.48374660045775819 0 -0.2025064396667311 0.49221849813686519 0 -0.19568977472517779 0.49417357265214218 0 -0.20428525478291079 0.50000000000000133 0 -0.19388262422699079 0.50000000000000067 0 -0.19568977472517779 0.49417357265214218 0 -0.20428525478291079 0.50000000000000133 0 -0.1852129211774948 0.46850446323402628 0 -0.19031208110941389 0.48702883231499938 0 -0.1852129211774948 0.46850446323402628 0 -0.19031208110941389 0.48702883231499938 0 -0.20211637096020371 0.48013699037772017 0 -0.1852129211774948 0.46850446323402628 0 -0.20211637096020371 0.48013699037772017 0 -0.19185898589285341 0.46476173206430021 0 -0.19325786388371141 0.48857903440291051 0 -0.20211637096020371 0.48013699037772017 0 -0.2045244710245547 0.48374660045775819 0 -0.19031208110941389 0.48702883231499938 0 -0.20211637096020371 0.48013699037772017 0 -0.20211637096020371 0.48013699037772017 0 -0.19185898589285341 0.46476173206430021 0 -0.2045244710245547 0.48374660045775819 0 -0.22896448108620679 0.47326387635408901 0 -0.2045244710245547 0.48374660045775819 0 -0.2107182922369005 0.49303079915574127 0 -0.22896448108620679 0.47326387635408901 0 -0.20211637096020371 0.48013699037772017 0 -0.2045244710245547 0.48374660045775819 0 -0.2199692778245485 0.46971371089328717 0 -0.20211637096020371 0.48013699037772017 0 -0.2199692778245485 0.46971371089328717 0 -0.20586965241249941 0.45744168222451242 0 -0.2045244710245547 0.48374660045775819 0 -0.2199692778245485 0.46971371089328717 0 -0.22896448108620679 0.47326387635408901 0 -0.20211637096020371 0.48013699037772017 0 -0.2199692778245485 0.46971371089328717 0 -0.20211637096020371 0.48013699037772017 0 -0.2045244710245547 0.48374660045775819 0 -0.2107182922369005 0.49303079915574127 0 -0.20428525478291079 0.50000000000000133 0 -0.21536769553238269 0.49999999999999939 0 -0.2025064396667311 0.49221849813686519 0 -0.2107182922369005 0.49303079915574127 0 -0.20428525478291079 0.50000000000000133 0 -0.2107182922369005 0.49303079915574127 0 -0.20428525478291079 0.50000000000000133 0 -0.2045244710245547 0.48374660045775819 0 -0.2107182922369005 0.49303079915574127 0 -0.2025064396667311 0.49221849813686519 0 -0.2045244710245547 0.48374660045775819 0 -0.2107182922369005 0.49303079915574127 0 -0.2107182922369005 0.49303079915574127 0 -0.21536769553238269 0.49999999999999939 0 -0.22608496631267039 0.48991570974458137 0 -0.2107182922369005 0.49303079915574127 0 -0.21536769553238269 0.49999999999999939 0 -0.21536769553238269 0.49999999999999939 0 -0.22608496631267039 0.48991570974458137 0 -0.2376168754109893 0.5 0 -0.2107182922369005 0.49303079915574127 0 -0.22608496631267039 0.48991570974458137 0 -0.22896448108620679 0.47326387635408901 0 -0.22608496631267039 0.48991570974458137 0 -0.2372077878278665 0.48290002592709719 0 -0.2376168754109893 0.5 0 -0.2107182922369005 0.49303079915574127 0 -0.22896448108620679 0.47326387635408901 0 -0.22608496631267039 0.48991570974458137 0 -0.22896448108620679 0.47326387635408901 0 -0.2372077878278665 0.48290002592709719 0 -0.25004986777263122 0.46422000563982629 0 -0.251079557206354 0.48377351451227218 0 -0.24229305912311239 0.46754702902454309 0 -0.251079557206354 0.48377351451227218 0 -0.24229305912311239 0.46754702902454309 0 -0.251079557206354 0.48377351451227218 0 -0.2372077878278665 0.48290002592709719 0 -0.24229305912311239 0.46754702902454309 0 -0.22896448108620679 0.47326387635408901 0 -0.24229305912311239 0.46754702902454309 0 -0.22896448108620679 0.47326387635408901 0 -0.2372077878278665 0.48290002592709719 0 -0.24229305912311239 0.46754702902454309 0 -0.25986605528959589 0.50000000000000089 0 -0.251079557206354 0.48377351451227218 0 -0.2376168754109893 0.5 0 -0.251079557206354 0.48377351451227218 0 -0.2372077878278665 0.48290002592709719 0 -0.2376168754109893 0.5 0 -0.26184094295787191 0.43764731614111357 0 -0.24442569604620579 0.4482207946046467 0 -0.24299242189748579 0.45806677270834578 0 -0.23895845985273889 0.44196680966175478 0 -0.24442569604620579 0.4482207946046467 0 -0.23537895969202979 0.45477840004218067 0 -0.23895845985273889 0.44196680966175478 0 -0.23537895969202979 0.45477840004218067 0 -0.2289267174977076 0.44286270697110458 0 -0.23895845985273889 0.44196680966175478 0 -0.24615972341571479 0.43784613295590807 0 -0.24442569604620579 0.4482207946046467 0 -0.2505232424239156 0.46131945114879969 0 -0.25394781835289071 0.4556248617153123 0 -0.24299242189748579 0.45806677270834578 0 -0.2505232424239156 0.46131945114879969 0 -0.24299242189748579 0.45806677270834578 0 -0.25004986777263122 0.46422000563982629 0 -0.24229305912311239 0.46754702902454309 0 -0.2505232424239156 0.46131945114879969 0 -0.25004986777263122 0.46422000563982629 0 -0.24299242189748579 0.45806677270834578 0 -0.25004986777263122 0.46422000563982629 0 -0.24299242189748579 0.45806677270834578 0 -0.25004986777263122 0.46422000563982629 0 -0.2437976162530488 0.46210611466856277 0 -0.24229305912311239 0.46754702902454309 0 -0.25004986777263122 0.46422000563982629 0 -0.24299242189748579 0.45806677270834578 0 -0.2437976162530488 0.46210611466856277 0 -0.22896448108620679 0.47326387635408901 0 -0.2393161599962266 0.46204943373421781 0 -0.2378221846888933 0.45929043140885412 0 -0.22896448108620679 0.47326387635408901 0 -0.24229305912311239 0.46754702902454309 0 -0.2393161599962266 0.46204943373421781 0 -0.2437976162530488 0.46210611466856277 0 -0.24229305912311239 0.46754702902454309 0 -0.2393161599962266 0.46204943373421781 0 -0.24229305912311239 0.46754702902454309 0 -0.2393161599962266 0.46204943373421781 0 -0.24442569604620579 0.4482207946046467 0 -0.24299242189748579 0.45806677270834578 0 -0.23537895969202979 0.45477840004218067 0 -0.24299242189748579 0.45806677270834578 0 -0.23537895969202979 0.45477840004218067 0 -0.24299242189748579 0.45806677270834578 0 -0.24021298671140601 0.45789458042156389 0 -0.23537895969202979 0.45477840004218067 0 -0.24299242189748579 0.45806677270834578 0 -0.2393161599962266 0.46204943373421781 0 -0.24299242189748579 0.45806677270834578 0 -0.2393161599962266 0.46204943373421781 0 -0.24021298671140601 0.45789458042156389 0 -0.2393161599962266 0.46204943373421781 0 -0.24021298671140601 0.45789458042156389 0 -0.2378221846888933 0.45929043140885412 0 -0.24299242189748579 0.45806677270834578 0 -0.2437976162530488 0.46210611466856277 0 -0.2393161599962266 0.46204943373421781 0 -0.2393161599962266 0.46204943373421781 0 -0.2378221846888933 0.45929043140885412 0 -0.24021298671140601 0.45789458042156389 0 -0.2378221846888933 0.45929043140885412 0 -0.24021298671140601 0.45789458042156389 0 -0.2378221846888933 0.45929043140885412 0 -0.23537895969202979 0.45477840004218067 0 -0.2378221846888933 0.45929043140885412 0 -0.23537895969202979 0.45477840004218067 0 -0.2199692778245485 0.46971371089328717 0 -0.2378221846888933 0.45929043140885412 0 -0.2199692778245485 0.46971371089328717 0 -0.2378221846888933 0.45929043140885412 0 -0.22414240248532841 0.45860216584567831 0 -0.23537895969202979 0.45477840004218067 0 -0.22414240248532841 0.45860216584567831 0 -0.21922286859239429 0.44780033317451889 0 -0.2199692778245485 0.46971371089328717 0 -0.22896448108620679 0.47326387635408901 0 -0.2378221846888933 0.45929043140885412 0 -0.2378221846888933 0.45929043140885412 0 -0.23537895969202979 0.45477840004218067 0 -0.22414240248532841 0.45860216584567831 0 -0.22896448108620679 0.47326387635408901 0 -0.2393161599962266 0.46204943373421781 0 -0.23537895969202979 0.45477840004218067 0 -0.21922286859239429 0.44780033317451889 0 -0.23537895969202979 0.45477840004218067 0 -0.21922286859239429 0.44780033317451889 0 -0.2289267174977076 0.44286270697110458 0 -0.23537895969202979 0.45477840004218067 0 -0.2289267174977076 0.44286270697110458 0 -0.21922286859239429 0.44780033317451889 0 -0.2289267174977076 0.44286270697110458 0 -0.22148399005239799 0.43347414002089463 0 -0.21922286859239429 0.44780033317451889 0 -0.20306677749275931 0.44082226630685611 0 -0.21922286859239429 0.44780033317451889 0 -0.20306677749275931 0.44082226630685611 0 -0.22148399005239799 0.43347414002089463 0 -0.21922286859239429 0.44780033317451889 0 -0.20586965241249941 0.45744168222451242 0 -0.20306677749275931 0.44082226630685611 0 -0.2199692778245485 0.46971371089328717 0 -0.22414240248532841 0.45860216584567831 0 -0.20586965241249941 0.45744168222451242 0 -0.22414240248532841 0.45860216584567831 0 -0.21922286859239429 0.44780033317451889 0 -0.20586965241249941 0.45744168222451242 0 -0.20211637096020371 0.48013699037772017 0 -0.20586965241249941 0.45744168222451242 0 -0.19185898589285341 0.46476173206430021 0 -0.18160160082550239 0.44938647375088048 0 -0.20586965241249941 0.45744168222451242 0 -0.19185898589285341 0.46476173206430021 0 -0.18160160082550239 0.44938647375088048 0 -0.18441257875228181 0.44057735087920891 0 -0.20306677749275931 0.44082226630685611 0 -0.18441257875228181 0.44057735087920891 0 -0.20306677749275931 0.44082226630685611 0 -0.1882995472448234 0.43444407002876062 0 -0.18160160082550239 0.44938647375088048 0 -0.20586965241249941 0.45744168222451242 0 -0.20306677749275931 0.44082226630685611 0 -0.18160160082550239 0.44938647375088048 0 -0.20306677749275931 0.44082226630685611 0 -0.20306677749275931 0.44082226630685611 0 -0.1882995472448234 0.43444407002876062 0 -0.20306677749275931 0.44082226630685611 0 -0.1882995472448234 0.43444407002876062 0 -0.20927647480396341 0.43034829107353961 0 -0.1882995472448234 0.43444407002876062 0 -0.20453930095891021 0.41819292139022213 0 -0.18551792743744441 0.41997680933330178 0 -0.1882995472448234 0.43444407002876062 0 -0.20453930095891021 0.41819292139022213 0 -0.20927647480396341 0.43034829107353961 0 -0.20453930095891021 0.41819292139022213 0 -0.18921349839153559 0.39965031058218409 0 -0.18551792743744441 0.41997680933330178 0 -0.20453930095891021 0.41819292139022213 0 -0.2196724685017912 0.40195902296002051 0 -0.20496182276005989 0.39989300129552913 0 -0.20453930095891021 0.41819292139022213 0 -0.2226419555757877 0.41907054852568831 0 -0.2196724685017912 0.40195902296002051 0 -0.20306677749275931 0.44082226630685611 0 -0.20927647480396341 0.43034829107353961 0 -0.22148399005239799 0.43347414002089463 0 -0.20306677749275931 0.44082226630685611 0 -0.22148399005239799 0.43347414002089463 0 -0.20453930095891021 0.41819292139022213 0 -0.20927647480396341 0.43034829107353961 0 -0.2226419555757877 0.41907054852568831 0 -0.20927647480396341 0.43034829107353961 0 -0.22148399005239799 0.43347414002089463 0 -0.2226419555757877 0.41907054852568831 0 -0.22148399005239799 0.43347414002089463 0 -0.2226419555757877 0.41907054852568831 0 -0.2399012026120371 0.42612601373493342 0 -0.2289267174977076 0.44286270697110458 0 -0.22148399005239799 0.43347414002089463 0 -0.2399012026120371 0.42612601373493342 0 -0.22148399005239799 0.43347414002089463 0 -0.2399012026120371 0.42612601373493342 0 -0.2226419555757877 0.41907054852568831 0 -0.2399012026120371 0.42612601373493342 0 -0.24053130872332229 0.40391907954382728 0 -0.2226419555757877 0.41907054852568831 0 -0.24053130872332229 0.40391907954382728 0 -0.2196724685017912 0.40195902296002051 0 -0.25942221545204353 0.41763139312747227 0 -0.2399012026120371 0.42612601373493342 0 -0.24053130872332229 0.40391907954382728 0 -0.23895845985273889 0.44196680966175478 0 -0.24615972341571479 0.43784613295590807 0 -0.2399012026120371 0.42612601373493342 0 -0.23895845985273889 0.44196680966175478 0 -0.2289267174977076 0.44286270697110458 0 -0.2399012026120371 0.42612601373493342 0 -0.25156123850503848 0.43039672435479659 0 -0.24615972341571479 0.43784613295590807 0 -0.2399012026120371 0.42612601373493342 0 -0.25010325997960881 0.38216550747003092 0 -0.24053130872332229 0.40391907954382728 0 -0.23051294624277591 0.38177469318011997 0 -0.25700348794621308 0.39761547011383119 0 -0.25010325997960881 0.38216550747003092 0 -0.24053130872332229 0.40391907954382728 0 -0.24053130872332229 0.40391907954382728 0 -0.2196724685017912 0.40195902296002051 0 -0.23051294624277591 0.38177469318011997 0 -0.2196724685017912 0.40195902296002051 0 -0.23051294624277591 0.38177469318011997 0 -0.20642202318800279 0.37976975024968967 0 -0.2196724685017912 0.40195902296002051 0 -0.20642202318800279 0.37976975024968967 0 -0.20496182276005989 0.39989300129552913 0 -0.20642202318800279 0.37976975024968967 0 -0.20496182276005989 0.39989300129552913 0 -0.18921349839153559 0.39965031058218409 0 -0.20453930095891021 0.41819292139022213 0 -0.20496182276005989 0.39989300129552913 0 -0.18921349839153559 0.39965031058218409 0 -0.20642202318800279 0.37976975024968967 0 -0.1850348009539724 0.38052128282036313 0 -0.20329233465999791 0.37072482940495782 0 -0.20642202318800279 0.37976975024968967 0 -0.18921349839153559 0.39965031058218409 0 -0.20642202318800279 0.37976975024968967 0 -0.18921349839153559 0.39965031058218409 0 -0.1850348009539724 0.38052128282036313 0 -0.1850348009539724 0.38052128282036313 0 -0.20329233465999791 0.37072482940495782 0 -0.1850348009539724 0.38052128282036313 0 -0.16677726724794631 0.39031773623576738 0 -0.1850348009539724 0.38052128282036313 0 -0.174182632274442 0.37578893496103088 0 -0.18197653885382131 0.37409073109611263 0 -0.1850348009539724 0.38052128282036313 0 -0.16677726724794631 0.39031773623576738 0 -0.1787799813451974 0.39470569668921318 0 -0.1850348009539724 0.38052128282036313 0 -0.18197653885382131 0.37409073109611263 0 -0.19013101972935861 0.37056040509674648 0 -0.1850348009539724 0.38052128282036313 0 -0.174182632274442 0.37578893496103088 0 -0.16677726724794631 0.39031773623576738 0 -0.16677726724794631 0.39031773623576738 0 -0.16400429423111301 0.37482198555222651 0 -0.174182632274442 0.37578893496103088 0 -0.16677726724794631 0.39031773623576738 0 -0.16400429423111301 0.37482198555222651 0 -0.15501597597542349 0.38281496144255639 0 -0.15024865430642689 0.37205208109982879 0 -0.16400429423111301 0.37482198555222651 0 -0.16677726724794631 0.39031773623576738 0 -0.15501597597542349 0.38281496144255639 0 -0.16400429423111301 0.37482198555222651 0 -0.16677726724794631 0.39031773623576738 0 -0.1720049735950667 0.41953087091467711 0 -0.16677726724794631 0.39031773623576738 0 -0.1787799813451974 0.39470569668921318 0 -0.1720049735950667 0.41953087091467711 0 -0.18921349839153559 0.39965031058218409 0 -0.1850348009539724 0.38052128282036313 0 -0.1787799813451974 0.39470569668921318 0 -0.18921349839153559 0.39965031058218409 0 -0.1787799813451974 0.39470569668921318 0 -0.1720049735950667 0.41953087091467711 0 -0.18921349839153559 0.39965031058218409 0 -0.18551792743744441 0.41997680933330178 0 -0.1720049735950667 0.41953087091467711 0 -0.18921349839153559 0.39965031058218409 0 -0.1720049735950667 0.41953087091467711 0 -0.1882995472448234 0.43444407002876062 0 -0.17353231699688759 0.42806587375066502 0 -0.17723072694742181 0.43950652750184083 0 -0.1882995472448234 0.43444407002876062 0 -0.17353231699688759 0.42806587375066502 0 -0.1882995472448234 0.43444407002876062 0 -0.18551792743744441 0.41997680933330178 0 -0.17353231699688759 0.42806587375066502 0 -0.1720049735950667 0.41953087091467711 0 -0.17353231699688759 0.42806587375066502 0 -0.18551792743744441 0.41997680933330178 0 -0.1720049735950667 0.41953087091467711 0 -0.17353231699688759 0.42806587375066502 0 -0.17723072694742181 0.43950652750184083 0 -0.17550555513362009 0.44024883520190577 0 -0.17353231699688759 0.42806587375066502 0 -0.17550555513362009 0.44024883520190577 0 -0.17353231699688759 0.42806587375066502 0 -0.17353231699688759 0.42806587375066502 0 -0.17316044780097009 0.43673364777592549 0 -0.16957669178261869 0.43223803160258401 0 -0.17550555513362009 0.44024883520190577 0 -0.17353231699688759 0.42806587375066502 0 -0.17316044780097009 0.43673364777592549 0 -0.14772114581910889 0.4475853444336973 0 -0.15818981502419849 0.43893089873107138 0 -0.16704317190926249 0.42526311112348281 0 -0.14772114581910889 0.4475853444336973 0 -0.16704317190926249 0.42526311112348281 0 -0.15509026190184999 0.43444037193913299 0 -0.16704317190926249 0.42526311112348281 0 -0.15664582913844899 0.42498202919065159 0 -0.1497656794536138 0.41780069357968819 0 -0.14772114581910889 0.4475853444336973 0 -0.16704317190926249 0.42526311112348281 0 -0.1674110298932974 0.43959736585670323 0 -0.16514738111837071 0.43535515807813868 0 -0.1692279570628418 0.43675877889382009 0 -0.16514738111837071 0.43535515807813868 0 -0.1692279570628418 0.43675877889382009 0 -0.16957669178261869 0.43223803160258401 0 -0.17316044780097009 0.43673364777592549 0 -0.1692279570628418 0.43675877889382009 0 -0.16957669178261869 0.43223803160258401 0 -0.16514738111837071 0.43535515807813868 0 -0.16957669178261869 0.43223803160258401 0 -0.16498926495861271 0.43294679988381912 0 -0.16957669178261869 0.43223803160258401 0 -0.16498926495861271 0.43294679988381912 0 -0.16704317190926249 0.42526311112348281 0 -0.1720049735950667 0.41953087091467711 0 -0.17353231699688759 0.42806587375066502 0 -0.16704317190926249 0.42526311112348281 0 -0.17353231699688759 0.42806587375066502 0 -0.16704317190926249 0.42526311112348281 0 -0.17353231699688759 0.42806587375066502 0 -0.16957669178261869 0.43223803160258401 0 -0.16704317190926249 0.42526311112348281 0 -0.1720049735950667 0.41953087091467711 0 -0.16704317190926249 0.42526311112348281 0 -0.16704317190926249 0.42526311112348281 0 -0.15664582913844899 0.42498202919065159 0 -0.15509026190184999 0.43444037193913299 0 -0.15818981502419849 0.43893089873107138 0 -0.16498926495861271 0.43294679988381912 0 -0.16704317190926249 0.42526311112348281 0 -0.15818981502419849 0.43893089873107138 0 -0.16514738111837071 0.43535515807813868 0 -0.16498926495861271 0.43294679988381912 0 -0.16704317190926249 0.42526311112348281 0 -0.1497656794536138 0.41780069357968819 0 -0.16677726724794631 0.39031773623576738 0 -0.1720049735950667 0.41953087091467711 0 -0.15702009731931041 0.40942616652236941 0 -0.16704317190926249 0.42526311112348281 0 -0.1601856494610778 0.41765600119824992 0 -0.1497656794536138 0.41780069357968819 0 -0.1720049735950667 0.41953087091467711 0 -0.16704317190926249 0.42526311112348281 0 -0.1601856494610778 0.41765600119824992 0 -0.1720049735950667 0.41953087091467711 0 -0.1601856494610778 0.41765600119824992 0 -0.15702009731931041 0.40942616652236941 0 -0.1601856494610778 0.41765600119824992 0 -0.15702009731931041 0.40942616652236941 0 -0.1540005424486042 0.41373859830208431 0 -0.15702009731931041 0.40942616652236941 0 -0.1474581494799623 0.41101968360036423 0 -0.14050604614925871 0.40441409765035402 0 -0.15702009731931041 0.40942616652236941 0 -0.1540005424486042 0.41373859830208431 0 -0.1474581494799623 0.41101968360036423 0 -0.1601856494610778 0.41765600119824992 0 -0.1540005424486042 0.41373859830208431 0 -0.1497656794536138 0.41780069357968819 0 -0.1497656794536138 0.41780069357968819 0 -0.15080777929511491 0.42458835425312969 0 -0.14594582106205661 0.42205701558348557 0 -0.1540005424486042 0.41373859830208431 0 -0.1497656794536138 0.41780069357968819 0 -0.1474581494799623 0.41101968360036423 0 -0.1497656794536138 0.41780069357968819 0 -0.1474581494799623 0.41101968360036423 0 -0.14594582106205661 0.42205701558348557 0 -0.1474581494799623 0.41101968360036423 0 -0.14594582106205661 0.42205701558348557 0 -0.13921215096648901 0.42188485414633281 0 -0.15019738066575719 0.44049906153135832 0 -0.15055874365518401 0.43538536902734348 0 -0.15509026190184999 0.43444037193913299 0 -0.15055874365518401 0.43538536902734348 0 -0.15509026190184999 0.43444037193913299 0 -0.15297215964732599 0.42939319931941139 0 -0.15055874365518401 0.43538536902734348 0 -0.14870940717412909 0.42870883359241152 0 -0.1464162019780135 0.43421495685622552 0 -0.15055874365518401 0.43538536902734348 0 -0.14870940717412909 0.42870883359241152 0 -0.15297215964732599 0.42939319931941139 0 -0.15664582913844899 0.42498202919065159 0 -0.15509026190184999 0.43444037193913299 0 -0.15297215964732599 0.42939319931941139 0 -0.14870940717412909 0.42870883359241152 0 -0.15297215964732599 0.42939319931941139 0 -0.15080777929511491 0.42458835425312969 0 -0.15664582913844899 0.42498202919065159 0 -0.15297215964732599 0.42939319931941139 0 -0.15080777929511491 0.42458835425312969 0 -0.15664582913844899 0.42498202919065159 0 -0.1497656794536138 0.41780069357968819 0 -0.15080777929511491 0.42458835425312969 0 -0.14870940717412909 0.42870883359241152 0 -0.15080777929511491 0.42458835425312969 0 -0.14594582106205661 0.42205701558348557 0 -0.14594582106205661 0.42205701558348557 0 -0.14279697439125111 0.42695020983364929 0 -0.13921215096648901 0.42188485414633281 0 -0.14870940717412909 0.42870883359241152 0 -0.14594582106205661 0.42205701558348557 0 -0.14279697439125111 0.42695020983364929 0 -0.14870940717412909 0.42870883359241152 0 -0.14279697439125111 0.42695020983364929 0 -0.1464162019780135 0.43421495685622552 0 -0.14279697439125111 0.42695020983364929 0 -0.1464162019780135 0.43421495685622552 0 -0.14020240461683939 0.43210673118166232 0 -0.14267385388780521 0.43584009732048801 0 -0.1464162019780135 0.43421495685622552 0 -0.14020240461683939 0.43210673118166232 0 -0.14646871616614229 0.43959749225320638 0 -0.14267385388780521 0.43584009732048801 0 -0.1464162019780135 0.43421495685622552 0 -0.14646871616614229 0.43959749225320638 0 -0.15055874365518401 0.43538536902734348 0 -0.1464162019780135 0.43421495685622552 0 -0.1343639973044666 0.4387510516917254 0 -0.14020240461683939 0.43210673118166232 0 -0.13417200470832419 0.42917885304556358 0 -0.1343639973044666 0.4387510516917254 0 -0.14267385388780521 0.43584009732048801 0 -0.14020240461683939 0.43210673118166232 0 -0.14279697439125111 0.42695020983364929 0 -0.14020240461683939 0.43210673118166232 0 -0.13417200470832419 0.42917885304556358 0 -0.14279697439125111 0.42695020983364929 0 -0.13417200470832419 0.42917885304556358 0 -0.13921215096648901 0.42188485414633281 0 -0.13417200470832419 0.42917885304556358 0 -0.13921215096648901 0.42188485414633281 0 -0.1249469937880598 0.42269056345030942 0 -0.13417200470832419 0.42917885304556358 0 -0.12435653341535639 0.43280279094571039 0 -0.1249469937880598 0.42269056345030942 0 -0.1343639973044666 0.4387510516917254 0 -0.13417200470832419 0.42917885304556358 0 -0.12435653341535639 0.43280279094571039 0 -0.14050604614925871 0.40441409765035402 0 -0.12751187843855469 0.40101677790631879 0 -0.1142348250505705 0.41851045906493961 0 -0.14050604614925871 0.40441409765035402 0 -0.1142348250505705 0.41851045906493961 0 -0.1474581494799623 0.41101968360036423 0 -0.1249469937880598 0.42269056345030942 0 -0.14050604614925871 0.40441409765035402 0 -0.1142348250505705 0.41851045906493961 0 -0.1249469937880598 0.42269056345030942 0 -0.1474581494799623 0.41101968360036423 0 -0.14050604614925871 0.40441409765035402 0 -0.1249469937880598 0.42269056345030942 0 -0.1474581494799623 0.41101968360036423 0 -0.13921215096648901 0.42188485414633281 0 -0.1249469937880598 0.42269056345030942 0 -0.12751187843855469 0.40101677790631879 0 -0.1324068722749793 0.38953532938872132 0 -0.11673400125863551 0.38982675064944111 0 -0.12751187843855469 0.40101677790631879 0 -0.1324068722749793 0.38953532938872132 0 -0.14474338867058989 0.39198839029298821 0 -0.14050604614925871 0.40441409765035402 0 -0.12751187843855469 0.40101677790631879 0 -0.14474338867058989 0.39198839029298821 0 -0.1324068722749793 0.38953532938872132 0 -0.13234106171820231 0.37713097131412238 0 -0.11673400125863551 0.38982675064944111 0 -0.1324068722749793 0.38953532938872132 0 -0.14317830845371191 0.38276826423645161 0 -0.14474338867058989 0.39198839029298821 0 -0.1324068722749793 0.38953532938872132 0 -0.13234106171820231 0.37713097131412238 0 -0.14317830845371191 0.38276826423645161 0 -0.14317830845371191 0.38276826423645161 0 -0.15501597597542349 0.38281496144255639 0 -0.14474338867058989 0.39198839029298821 0 -0.16677726724794631 0.39031773623576738 0 -0.15501597597542349 0.38281496144255639 0 -0.14474338867058989 0.39198839029298821 0 -0.13234106171820231 0.37713097131412238 0 -0.14317830845371191 0.38276826423645161 0 -0.15024865430642689 0.37205208109982879 0 -0.14317830845371191 0.38276826423645161 0 -0.15501597597542349 0.38281496144255639 0 -0.15024865430642689 0.37205208109982879 0 -0.16677726724794631 0.39031773623576738 0 -0.14050604614925871 0.40441409765035402 0 -0.16677726724794631 0.39031773623576738 0 -0.15702009731931041 0.40942616652236941 0 -0.14050604614925871 0.40441409765035402 0 -0.16677726724794631 0.39031773623576738 0 -0.14050604614925871 0.40441409765035402 0 -0.14474338867058989 0.39198839029298821 0 -0.13970486439835389 0.36307215183285813 0 -0.1628287108767307 0.35270566165562961 0 -0.13970486439835389 0.36307215183285813 0 -0.16123132121427991 0.35932623486868559 0 -0.1628287108767307 0.35270566165562961 0 -0.13970486439835389 0.36307215183285813 0 -0.14774715176649311 0.33852092907320269 0 -0.1628287108767307 0.35270566165562961 0 -0.14774715176649311 0.33852092907320269 0 -0.1628287108767307 0.35270566165562961 0 -0.15024865430642689 0.37205208109982879 0 -0.13970486439835389 0.36307215183285813 0 -0.16123132121427991 0.35932623486868559 0 -0.13234106171820231 0.37713097131412238 0 -0.15024865430642689 0.37205208109982879 0 -0.13970486439835389 0.36307215183285813 0 -0.13970486439835389 0.36307215183285813 0 -0.11658101791997739 0.37343864201008697 0 -0.13234106171820231 0.37713097131412238 0 -0.13970486439835389 0.36307215183285813 0 -0.11658101791997739 0.37343864201008697 0 -0.13970486439835389 0.36307215183285813 0 -0.13053366520819221 0.34146399587285181 0 -0.11637724504661399 0.35160978132583581 0 -0.13970486439835389 0.36307215183285813 0 -0.13053366520819221 0.34146399587285181 0 -0.14774715176649311 0.33852092907320269 0 -0.13053366520819221 0.34146399587285181 0 -0.13266559265625361 0.32433619649077777 0 -0.14774715176649311 0.33852092907320269 0 -0.13053366520819221 0.34146399587285181 0 -0.13266559265625361 0.32433619649077777 0 -0.11617347217324669 0.32978092064158437 0 -0.13266559265625361 0.32433619649077777 0 -0.14774715176649311 0.33852092907320269 0 -0.13266559265625361 0.32433619649077777 0 -0.14824870055560391 0.31169234861005829 0 -0.12945900888685291 0.30952987372136809 0 -0.13266559265625361 0.32433619649077777 0 -0.1175840335460145 0.31015146390835241 0 -0.13266559265625361 0.32433619649077777 0 -0.12945900888685291 0.30952987372136809 0 -0.1175840335460145 0.31015146390835241 0 -0.13266559265625361 0.32433619649077777 0 -0.15353712457593449 0.32488747233086829 0 -0.14824870055560391 0.31169234861005829 0 -0.15353712457593449 0.32488747233086829 0 -0.14774715176649311 0.33852092907320269 0 -0.16518122618024619 0.3350944991630459 0 -0.13266559265625361 0.32433619649077777 0 -0.15353712457593449 0.32488747233086829 0 -0.14774715176649311 0.33852092907320269 0 -0.14774715176649311 0.33852092907320269 0 -0.16518122618024619 0.3350944991630459 0 -0.1628287108767307 0.35270566165562961 0 -0.15353712457593449 0.32488747233086829 0 -0.16518122618024619 0.3350944991630459 0 -0.16875016295937409 0.31686772741700958 0 -0.16518122618024619 0.3350944991630459 0 -0.16875016295937409 0.31686772741700958 0 -0.18132022394389929 0.32690549093501098 0 -0.15353712457593449 0.32488747233086829 0 -0.16875016295937409 0.31686772741700958 0 -0.14824870055560391 0.31169234861005829 0 -0.16875016295937409 0.31686772741700958 0 -0.18132022394389929 0.32690549093501098 0 -0.1872822628303274 0.31101889108043218 0 -0.18132022394389929 0.32690549093501098 0 -0.17989425765335451 0.34505512552210682 0 -0.18855140262337081 0.33306280571173591 0 -0.16518122618024619 0.3350944991630459 0 -0.18132022394389929 0.32690549093501098 0 -0.17989425765335451 0.34505512552210682 0 -0.17989425765335451 0.34505512552210682 0 -0.1756879274373172 0.35803661344480298 0 -0.1804697857495596 0.36594462613958079 0 -0.17989425765335451 0.34505512552210682 0 -0.1804697857495596 0.36594462613958079 0 -0.19541348474233289 0.34568228402234802 0 -0.17989425765335451 0.34505512552210682 0 -0.1756879274373172 0.35803661344480298 0 -0.1628287108767307 0.35270566165562961 0 -0.17989425765335451 0.34505512552210682 0 -0.1628287108767307 0.35270566165562961 0 -0.16518122618024619 0.3350944991630459 0 -0.17989425765335451 0.34505512552210682 0 -0.1628287108767307 0.35270566165562961 0 -0.16123132121427991 0.35932623486868559 0 -0.1628287108767307 0.35270566165562961 0 -0.16807392352148451 0.3658556171948778 0 -0.1628287108767307 0.35270566165562961 0 -0.16807392352148451 0.3658556171948778 0 -0.17955895546962369 0.36844104046189402 0 -0.1628287108767307 0.35270566165562961 0 -0.17955895546962369 0.36844104046189402 0 -0.15024865430642689 0.37205208109982879 0 -0.16123132121427991 0.35932623486868559 0 -0.16400429423111301 0.37482198555222651 0 -0.16123132121427991 0.35932623486868559 0 -0.16400429423111301 0.37482198555222651 0 -0.16123132121427991 0.35932623486868559 0 -0.16400429423111301 0.37482198555222651 0 -0.16807392352148451 0.3658556171948778 0 -0.174182632274442 0.37578893496103088 0 -0.16400429423111301 0.37482198555222651 0 -0.16807392352148451 0.3658556171948778 0 -0.174182632274442 0.37578893496103088 0 -0.16807392352148451 0.3658556171948778 0 -0.17955895546962369 0.36844104046189402 0 -0.1756879274373172 0.35803661344480298 0 -0.1628287108767307 0.35270566165562961 0 -0.17955895546962369 0.36844104046189402 0 -0.174182632274442 0.37578893496103088 0 -0.17955895546962369 0.36844104046189402 0 -0.18197653885382131 0.37409073109611263 0 -0.1756879274373172 0.35803661344480298 0 -0.17955895546962369 0.36844104046189402 0 -0.1804697857495596 0.36594462613958079 0 -0.1804697857495596 0.36594462613958079 0 -0.18745753316257061 0.36611250624776642 0 -0.19147229851417219 0.35872318163467232 0 -0.1804697857495596 0.36594462613958079 0 -0.18745753316257061 0.36611250624776642 0 -0.18385276926672489 0.36916690508940903 0 -0.18197653885382131 0.37409073109611263 0 -0.18385276926672489 0.36916690508940903 0 -0.19013101972935861 0.37056040509674648 0 -0.17955895546962369 0.36844104046189402 0 -0.18197653885382131 0.37409073109611263 0 -0.18385276926672489 0.36916690508940903 0 -0.17955895546962369 0.36844104046189402 0 -0.1804697857495596 0.36594462613958079 0 -0.18385276926672489 0.36916690508940903 0 -0.18745753316257061 0.36611250624776642 0 -0.18385276926672489 0.36916690508940903 0 -0.19013101972935861 0.37056040509674648 0 -0.1850348009539724 0.38052128282036313 0 -0.19013101972935861 0.37056040509674648 0 -0.20329233465999791 0.37072482940495782 0 -0.18745753316257061 0.36611250624776642 0 -0.19013101972935861 0.37056040509674648 0 -0.1915157992860653 0.36493098678991331 0 -0.18745753316257061 0.36611250624776642 0 -0.1915157992860653 0.36493098678991331 0 -0.19147229851417219 0.35872318163467232 0 -0.194143290895814 0.36139600357839963 0 -0.1915157992860653 0.36493098678991331 0 -0.19147229851417219 0.35872318163467232 0 -0.19013101972935861 0.37056040509674648 0 -0.1915157992860653 0.36493098678991331 0 -0.19615451943524739 0.36560327932136277 0 -0.194143290895814 0.36139600357839963 0 -0.1915157992860653 0.36493098678991331 0 -0.19615451943524739 0.36560327932136277 0 -0.19615451943524739 0.36560327932136277 0 -0.20175034017681939 0.36245916554988739 0 -0.20329233465999791 0.37072482940495782 0 -0.194143290895814 0.36139600357839963 0 -0.19786748706255489 0.35958492000896652 0 -0.19600436025417761 0.357246415972019 0 -0.194143290895814 0.36139600357839963 0 -0.19615451943524739 0.36560327932136277 0 -0.19786748706255489 0.35958492000896652 0 -0.19615451943524739 0.36560327932136277 0 -0.19786748706255489 0.35958492000896652 0 -0.20175034017681939 0.36245916554988739 0 -0.19013101972935861 0.37056040509674648 0 -0.19615451943524739 0.36560327932136277 0 -0.20329233465999791 0.37072482940495782 0 -0.1804697857495596 0.36594462613958079 0 -0.19541348474233289 0.34568228402234802 0 -0.1804697857495596 0.36594462613958079 0 -0.19147229851417219 0.35872318163467232 0 -0.19541348474233289 0.34568228402234802 0 -0.19147229851417219 0.35872318163467232 0 -0.19750544684798599 0.35294623646504542 0 -0.19541348474233289 0.34568228402234802 0 -0.194143290895814 0.36139600357839963 0 -0.19147229851417219 0.35872318163467232 0 -0.19600436025417761 0.357246415972019 0 -0.19147229851417219 0.35872318163467232 0 -0.19600436025417761 0.357246415972019 0 -0.19750544684798599 0.35294623646504542 0 -0.2005551311099821 0.35563167827880698 0 -0.19750544684798599 0.35294623646504542 0 -0.20408195961926509 0.34744762241738048 0 -0.19786748706255489 0.35958492000896652 0 -0.19600436025417761 0.357246415972019 0 -0.2005551311099821 0.35563167827880698 0 -0.19786748706255489 0.35958492000896652 0 -0.20175034017681939 0.36245916554988739 0 -0.2005551311099821 0.35563167827880698 0 -0.20175034017681939 0.36245916554988739 0 -0.2005551311099821 0.35563167827880698 0 -0.20522260920484461 0.35894203426533577 0 -0.19600436025417761 0.357246415972019 0 -0.2005551311099821 0.35563167827880698 0 -0.19750544684798599 0.35294623646504542 0 -0.19750544684798599 0.35294623646504542 0 -0.19541348474233289 0.34568228402234802 0 -0.20408195961926509 0.34744762241738048 0 -0.20408195961926509 0.34744762241738048 0 -0.2113395564021382 0.35198602314034599 0 -0.21156228421800441 0.34350726545349453 0 -0.20408195961926509 0.34744762241738048 0 -0.20628371061223161 0.35474481842287903 0 -0.2113395564021382 0.35198602314034599 0 -0.2005551311099821 0.35563167827880698 0 -0.20408195961926509 0.34744762241738048 0 -0.20628371061223161 0.35474481842287903 0 -0.20628371061223161 0.35474481842287903 0 -0.21041825300406269 0.35896156860812473 0 -0.2113395564021382 0.35198602314034599 0 -0.2005551311099821 0.35563167827880698 0 -0.20628371061223161 0.35474481842287903 0 -0.20522260920484461 0.35894203426533577 0 -0.20628371061223161 0.35474481842287903 0 -0.20522260920484461 0.35894203426533577 0 -0.21041825300406269 0.35896156860812473 0 -0.2146545563637218 0.35659564315672132 0 -0.2113395564021382 0.35198602314034599 0 -0.21932733532283191 0.35008231759505209 0 -0.21041825300406269 0.35896156860812473 0 -0.2146545563637218 0.35659564315672132 0 -0.21294283650970811 0.3617721408678527 0 -0.21041825300406269 0.35896156860812473 0 -0.2146545563637218 0.35659564315672132 0 -0.2113395564021382 0.35198602314034599 0 -0.2146545563637218 0.35659564315672132 0 -0.218421028909351 0.35785353350527482 0 -0.21294283650970811 0.3617721408678527 0 -0.2146545563637218 0.35659564315672132 0 -0.218421028909351 0.35785353350527482 0 -0.21932733532283191 0.35008231759505209 0 -0.2113395564021382 0.35198602314034599 0 -0.21932733532283191 0.35008231759505209 0 -0.21156228421800441 0.34350726545349453 0 -0.20642202318800279 0.37976975024968967 0 -0.22363054798446999 0.35988918991719521 0 -0.20329233465999791 0.37072482940495782 0 -0.22154986836602331 0.36092837598955252 0 -0.20329233465999791 0.37072482940495782 0 -0.21294283650970811 0.3617721408678527 0 -0.22154986836602331 0.36092837598955252 0 -0.20642202318800279 0.37976975024968967 0 -0.20329233465999791 0.37072482940495782 0 -0.22154986836602331 0.36092837598955252 0 -0.20642202318800279 0.37976975024968967 0 -0.22363054798446999 0.35988918991719521 0 -0.22154986836602331 0.36092837598955252 0 -0.20175034017681939 0.36245916554988739 0 -0.20329233465999791 0.37072482940495782 0 -0.2071056111211273 0.36291294046698069 0 -0.20329233465999791 0.37072482940495782 0 -0.2071056111211273 0.36291294046698069 0 -0.21294283650970811 0.3617721408678527 0 -0.20175034017681939 0.36245916554988739 0 -0.20522260920484461 0.35894203426533577 0 -0.2071056111211273 0.36291294046698069 0 -0.21041825300406269 0.35896156860812473 0 -0.2071056111211273 0.36291294046698069 0 -0.21294283650970811 0.3617721408678527 0 -0.20522260920484461 0.35894203426533577 0 -0.21041825300406269 0.35896156860812473 0 -0.2071056111211273 0.36291294046698069 0 -0.218421028909351 0.35785353350527482 0 -0.21294283650970811 0.3617721408678527 0 -0.22154986836602331 0.36092837598955252 0 -0.23051294624277591 0.38177469318011997 0 -0.22363054798446999 0.35988918991719521 0 -0.2425690902814803 0.35889421656913578 0 -0.23051294624277591 0.38177469318011997 0 -0.20642202318800279 0.37976975024968967 0 -0.22363054798446999 0.35988918991719521 0 -0.218421028909351 0.35785353350527482 0 -0.22363054798446999 0.35988918991719521 0 -0.22154986836602331 0.36092837598955252 0 -0.22363054798446999 0.35988918991719521 0 -0.240839072780935 0.34000862958469869 0 -0.22363054798446999 0.35988918991719521 0 -0.21932733532283191 0.35008231759505209 0 -0.240839072780935 0.34000862958469869 0 -0.218421028909351 0.35785353350527482 0 -0.22363054798446999 0.35988918991719521 0 -0.21932733532283191 0.35008231759505209 0 -0.22363054798446999 0.35988918991719521 0 -0.2425690902814803 0.35889421656913578 0 -0.240839072780935 0.34000862958469869 0 -0.26390121596602339 0.34232385865432319 0 -0.2425690902814803 0.35889421656913578 0 -0.240839072780935 0.34000862958469869 0 -0.25010325997960881 0.38216550747003092 0 -0.23051294624277591 0.38177469318011997 0 -0.2425690902814803 0.35889421656913578 0 -0.24172571062258599 0.32637133415708031 0 -0.23899727848720709 0.31419171975576371 0 -0.22802702305114869 0.32499491229212368 0 -0.24172571062258599 0.32637133415708031 0 -0.23899727848720709 0.31419171975576371 0 -0.2474751831174983 0.31668925353324862 0 -0.23899727848720709 0.31419171975576371 0 -0.2474751831174983 0.31668925353324862 0 -0.24995875472636631 0.30865150553894988 0 -0.25441860091976909 0.32130650551771689 0 -0.24172571062258599 0.32637133415708031 0 -0.2474751831174983 0.31668925353324862 0 -0.25682554436289812 0.32153987549055407 0 -0.240839072780935 0.34000862958469869 0 -0.25441860091976909 0.32130650551771689 0 -0.24172571062258599 0.32637133415708031 0 -0.240839072780935 0.34000862958469869 0 -0.24172571062258599 0.32637133415708031 0 -0.240839072780935 0.34000862958469869 0 -0.22802702305114869 0.32499491229212368 0 -0.240839072780935 0.34000862958469869 0 -0.22802702305114869 0.32499491229212368 0 -0.21554027980264839 0.33746886125268588 0 -0.21932733532283191 0.35008231759505209 0 -0.240839072780935 0.34000862958469869 0 -0.21554027980264839 0.33746886125268588 0 -0.240839072780935 0.34000862958469869 0 -0.21554027980264839 0.33746886125268588 0 -0.22802702305114869 0.32499491229212368 0 -0.21035718373510609 0.32541994190511531 0 -0.22530088272787921 0.30515759978788259 0 -0.23899727848720709 0.31419171975576371 0 -0.22802702305114869 0.32499491229212368 0 -0.22530088272787921 0.30515759978788259 0 -0.21035718373510609 0.32541994190511531 0 -0.22530088272787921 0.30515759978788259 0 -0.21035718373510609 0.32541994190511531 0 -0.20454845862831611 0.31306356765584092 0 -0.22530088272787921 0.30515759978788259 0 -0.21035718373510609 0.32541994190511531 0 -0.20454845862831611 0.31306356765584092 0 -0.19603132446625171 0.32288601700124248 0 -0.19541348474233289 0.34568228402234802 0 -0.20408195961926509 0.34744762241738048 0 -0.21035718373510609 0.32541994190511531 0 -0.21035718373510609 0.32541994190511531 0 -0.21156228421800441 0.34350726545349453 0 -0.21554027980264839 0.33746886125268588 0 -0.20408195961926509 0.34744762241738048 0 -0.21035718373510609 0.32541994190511531 0 -0.21156228421800441 0.34350726545349453 0 -0.22802702305114869 0.32499491229212368 0 -0.21035718373510609 0.32541994190511531 0 -0.21554027980264839 0.33746886125268588 0 -0.21932733532283191 0.35008231759505209 0 -0.21156228421800441 0.34350726545349453 0 -0.21554027980264839 0.33746886125268588 0 -0.17989425765335451 0.34505512552210682 0 -0.19695980442997779 0.33740458938858292 0 -0.18855140262337081 0.33306280571173591 0 -0.17989425765335451 0.34505512552210682 0 -0.19695980442997779 0.33740458938858292 0 -0.17989425765335451 0.34505512552210682 0 -0.19541348474233289 0.34568228402234802 0 -0.19695980442997779 0.33740458938858292 0 -0.19541348474233289 0.34568228402234802 0 -0.21035718373510609 0.32541994190511531 0 -0.19541348474233289 0.34568228402234802 0 -0.21035718373510609 0.32541994190511531 0 -0.19695980442997779 0.33740458938858292 0 -0.21035718373510609 0.32541994190511531 0 -0.19695980442997779 0.33740458938858292 0 -0.19603132446625171 0.32288601700124248 0 -0.19695980442997779 0.33740458938858292 0 -0.18855140262337081 0.33306280571173591 0 -0.19603132446625171 0.32288601700124248 0 -0.20454845862831611 0.31306356765584092 0 -0.19603132446625171 0.32288601700124248 0 -0.1872822628303274 0.31101889108043218 0 -0.18132022394389929 0.32690549093501098 0 -0.19603132446625171 0.32288601700124248 0 -0.1872822628303274 0.31101889108043218 0 -0.18132022394389929 0.32690549093501098 0 -0.18855140262337081 0.33306280571173591 0 -0.19603132446625171 0.32288601700124248 0 -0.1899930353029898 0.29073646708635681 0 -0.20377063938201581 0.30083538850453179 0 -0.1872822628303274 0.31101889108043218 0 -0.20454845862831611 0.31306356765584092 0 -0.20377063938201581 0.30083538850453179 0 -0.1872822628303274 0.31101889108043218 0 -0.1899930353029898 0.29073646708635681 0 -0.211780339812046 0.28146178384770359 0 -0.1937985550263637 0.27288900732367738 0 -0.1899930353029898 0.29073646708635681 0 -0.211780339812046 0.28146178384770359 0 -0.20377063938201581 0.30083538850453179 0 -0.211780339812046 0.28146178384770359 0 -0.20377063938201581 0.30083538850453179 0 -0.22530088272787921 0.30515759978788259 0 -0.20454845862831611 0.31306356765584092 0 -0.20377063938201581 0.30083538850453179 0 -0.22530088272787921 0.30515759978788259 0 -0.211780339812046 0.28146178384770359 0 -0.22530088272787921 0.30515759978788259 0 -0.2270241175148672 0.28270899336049399 0 -0.22530088272787921 0.30515759978788259 0 -0.24024458172065241 0.28489525767064988 0 -0.22530088272787921 0.30515759978788259 0 -0.2270241175148672 0.28270899336049399 0 -0.24024458172065241 0.28489525767064988 0 -0.22530088272787921 0.30515759978788259 0 -0.24024458172065241 0.28489525767064988 0 -0.24413523743933169 0.2940191154466249 0 -0.24024458172065241 0.28489525767064988 0 -0.24464532796551999 0.28657043612991329 0 -0.24413523743933169 0.2940191154466249 0 -0.25316038087885961 0.28154957362374478 0 -0.24466340725627719 0.28241013445123608 0 -0.24890537277938471 0.2846227336004975 0 -0.24466340725627719 0.28241013445123608 0 -0.24464532796551999 0.28657043612991329 0 -0.24890537277938471 0.2846227336004975 0 -0.24024458172065241 0.28489525767064988 0 -0.24466340725627719 0.28241013445123608 0 -0.24464532796551999 0.28657043612991329 0 -0.24464532796551999 0.28657043612991329 0 -0.2479793443816648 0.28801134435840692 0 -0.24890537277938471 0.2846227336004975 0 -0.24464532796551999 0.28657043612991329 0 -0.2479793443816648 0.28801134435840692 0 -0.24413523743933169 0.2940191154466249 0 -0.25065828437581061 0.29099340376357141 0 -0.2479793443816648 0.28801134435840692 0 -0.24413523743933169 0.2940191154466249 0 -0.25122297937698662 0.29503902165060658 0 -0.24413523743933169 0.2940191154466249 0 -0.24754731783654399 0.2993331961295761 0 -0.25122297937698662 0.29503902165060658 0 -0.25065828437581061 0.29099340376357141 0 -0.24413523743933169 0.2940191154466249 0 -0.23899727848720709 0.31419171975576371 0 -0.22530088272787921 0.30515759978788259 0 -0.24215330102188221 0.3040346654238083 0 -0.22530088272787921 0.30515759978788259 0 -0.24413523743933169 0.2940191154466249 0 -0.24215330102188221 0.3040346654238083 0 -0.24413523743933169 0.2940191154466249 0 -0.24754731783654399 0.2993331961295761 0 -0.24215330102188221 0.3040346654238083 0 -0.24754731783654399 0.2993331961295761 0 -0.24801025996080489 0.30351113118129402 0 -0.24215330102188221 0.3040346654238083 0 -0.25230314247590491 0.30116557682720108 0 -0.24754731783654399 0.2993331961295761 0 -0.24801025996080489 0.30351113118129402 0 -0.23899727848720709 0.31419171975576371 0 -0.24995875472636631 0.30865150553894988 0 -0.24215330102188221 0.3040346654238083 0 -0.24801025996080489 0.30351113118129402 0 -0.24995875472636631 0.30865150553894988 0 -0.24215330102188221 0.3040346654238083 0 -0.25244996598307418 0.25641473194636027 0 -0.2328052521041879 0.26216167743402252 0 -0.24729232979450469 0.2396916628870277 0 -0.25869461720137787 0.27326415596874681 0 -0.25244996598307418 0.25641473194636027 0 -0.2328052521041879 0.26216167743402252 0 -0.25869461720137787 0.27326415596874681 0 -0.2328052521041879 0.26216167743402252 0 -0.25869461720137787 0.27326415596874681 0 -0.24466340725627719 0.28241013445123608 0 -0.23816777740444589 0.27478436316032928 0 -0.25869461720137787 0.27326415596874681 0 -0.23816777740444589 0.27478436316032928 0 -0.2328052521041879 0.26216167743402252 0 -0.24024458172065241 0.28489525767064988 0 -0.24466340725627719 0.28241013445123608 0 -0.23816777740444589 0.27478436316032928 0 -0.2270241175148672 0.28270899336049399 0 -0.24024458172065241 0.28489525767064988 0 -0.23816777740444589 0.27478436316032928 0 -0.2270241175148672 0.28270899336049399 0 -0.23816777740444589 0.27478436316032928 0 -0.2328052521041879 0.26216167743402252 0 -0.211780339812046 0.28146178384770359 0 -0.2270241175148672 0.28270899336049399 0 -0.2328052521041879 0.26216167743402252 0 -0.2328052521041879 0.26216167743402252 0 -0.2069158870069982 0.25105919889929779 0 -0.211780339812046 0.28146178384770359 0 -0.2328052521041879 0.26216167743402252 0 -0.2069158870069982 0.25105919889929779 0 -0.211780339812046 0.28146178384770359 0 -0.2069158870069982 0.25105919889929779 0 -0.1937985550263637 0.27288900732367738 0 -0.2069158870069982 0.25105919889929779 0 -0.1937985550263637 0.27288900732367738 0 -0.18196305528885351 0.25996680700311592 0 -0.2069158870069982 0.25105919889929779 0 -0.18196305528885351 0.25996680700311592 0 -0.1810265219098085 0.23995672036457311 0 -0.18196305528885351 0.25996680700311592 0 -0.1690799129501761 0.25245421101349791 0 -0.16534832325763821 0.26366844023445041 0 -0.18196305528885351 0.25996680700311592 0 -0.1690799129501761 0.25245421101349791 0 -0.1810265219098085 0.23995672036457311 0 -0.1690799129501761 0.25245421101349791 0 -0.16534832325763821 0.26366844023445041 0 -0.15818960312719971 0.25356924451958068 0 -0.16534832325763821 0.26366844023445041 0 -0.15818960312719971 0.25356924451958068 0 -0.15129019190655499 0.26430202672395681 0 -0.15918040694440519 0.273460857791128 0 -0.17287780544334219 0.27832574858448522 0 -0.1530267301236426 0.28384781392229852 0 -0.16534832325763821 0.26366844023445041 0 -0.15918040694440519 0.273460857791128 0 -0.15129019190655499 0.26430202672395681 0 -0.16534832325763821 0.26366844023445041 0 -0.15918040694440519 0.273460857791128 0 -0.17287780544334219 0.27832574858448522 0 -0.18196305528885351 0.25996680700311592 0 -0.16534832325763821 0.26366844023445041 0 -0.17287780544334219 0.27832574858448522 0 -0.1899930353029898 0.29073646708635681 0 -0.1937985550263637 0.27288900732367738 0 -0.17287780544334219 0.27832574858448522 0 -0.1937985550263637 0.27288900732367738 0 -0.18196305528885351 0.25996680700311592 0 -0.17287780544334219 0.27832574858448522 0 -0.1899930353029898 0.29073646708635681 0 -0.17287780544334219 0.27832574858448522 0 -0.16771728318504961 0.29844046757859682 0 -0.1899930353029898 0.29073646708635681 0 -0.1872822628303274 0.31101889108043218 0 -0.16771728318504961 0.29844046757859682 0 -0.16875016295937409 0.31686772741700958 0 -0.1872822628303274 0.31101889108043218 0 -0.16771728318504961 0.29844046757859682 0 -0.16875016295937409 0.31686772741700958 0 -0.16771728318504961 0.29844046757859682 0 -0.14824870055560391 0.31169234861005829 0 -0.16771728318504961 0.29844046757859682 0 -0.15414612439731401 0.29586385638735718 0 -0.14824870055560391 0.31169234861005829 0 -0.17287780544334219 0.27832574858448522 0 -0.16771728318504961 0.29844046757859682 0 -0.1530267301236426 0.28384781392229852 0 -0.16771728318504961 0.29844046757859682 0 -0.1530267301236426 0.28384781392229852 0 -0.15414612439731401 0.29586385638735718 0 -0.1530267301236426 0.28384781392229852 0 -0.15414612439731401 0.29586385638735718 0 -0.14450806812294351 0.29549451501591217 0 -0.1530267301236426 0.28384781392229852 0 -0.14450806812294351 0.29549451501591217 0 -0.1383005517829429 0.28787737935391722 0 -0.1530267301236426 0.28384781392229852 0 -0.1383005517829429 0.28787737935391722 0 -0.14300741127673069 0.27807181052421698 0 -0.15414612439731401 0.29586385638735718 0 -0.14450806812294351 0.29549451501591217 0 -0.14824870055560391 0.31169234861005829 0 -0.14450806812294351 0.29549451501591217 0 -0.14824870055560391 0.31169234861005829 0 -0.13673972520275759 0.29730516402597168 0 -0.14824870055560391 0.31169234861005829 0 -0.12610413985970881 0.29996471812102249 0 -0.12945900888685291 0.30952987372136809 0 -0.14824870055560391 0.31169234861005829 0 -0.13673972520275759 0.29730516402597168 0 -0.12610413985970881 0.29996471812102249 0 -0.14824870055560391 0.31169234861005829 0 -0.12610413985970881 0.29996471812102249 0 -0.12610413985970881 0.29996471812102249 0 -0.12945900888685291 0.30952987372136809 0 -0.122692577816684 0.3015046414766292 0 -0.12653716569258899 0.29149685902894829 0 -0.12810727832235039 0.27433304396577768 0 -0.12653716569258899 0.29149685902894829 0 -0.13039382100144811 0.28269142196392 0 -0.12810727832235039 0.27433304396577768 0 -0.12653716569258899 0.29149685902894829 0 -0.12810727832235039 0.27433304396577768 0 -0.1217002420443424 0.28463418193738271 0 -0.1383005517829429 0.28787737935391722 0 -0.13039382100144811 0.28269142196392 0 -0.14300741127673069 0.27807181052421698 0 -0.13673972520275759 0.29730516402597168 0 -0.1383005517829429 0.28787737935391722 0 -0.12653716569258899 0.29149685902894829 0 -0.14450806812294351 0.29549451501591217 0 -0.13673972520275759 0.29730516402597168 0 -0.1383005517829429 0.28787737935391722 0 -0.13673972520275759 0.29730516402597168 0 -0.12610413985970881 0.29996471812102249 0 -0.12653716569258899 0.29149685902894829 0 -0.1383005517829429 0.28787737935391722 0 -0.12653716569258899 0.29149685902894829 0 -0.13039382100144811 0.28269142196392 0 -0.12810727832235039 0.27433304396577768 0 -0.1296773909521125 0.25716922890260729 0 -0.13039382100144811 0.28269142196392 0 -0.12810727832235039 0.27433304396577768 0 -0.13708171723800811 0.26774370321192792 0 -0.12810727832235039 0.27433304396577768 0 -0.13708171723800811 0.26774370321192792 0 -0.1296773909521125 0.25716922890260729 0 -0.12810727832235039 0.27433304396577768 0 -0.1296773909521125 0.25716922890260729 0 -0.1195416394116576 0.26992350229520717 0 -0.13039382100144811 0.28269142196392 0 -0.13708171723800811 0.26774370321192792 0 -0.14300741127673069 0.27807181052421698 0 -0.13039382100144811 0.28269142196392 0 -0.13708171723800811 0.26774370321192792 0 -0.1296773909521125 0.25716922890260729 0 -0.1437696134745676 0.25279598445993562 0 -0.13708171723800811 0.26774370321192792 0 -0.1296773909521125 0.25716922890260729 0 -0.1437696134745676 0.25279598445993562 0 -0.13708171723800811 0.26774370321192792 0 -0.1437696134745676 0.25279598445993562 0 -0.13708171723800811 0.26774370321192792 0 -0.14695536254882749 0.25867412606794921 0 -0.15129019190655499 0.26430202672395681 0 -0.13708171723800811 0.26774370321192792 0 -0.14695536254882749 0.25867412606794921 0 -0.1437696134745676 0.25279598445993562 0 -0.14695536254882749 0.25867412606794921 0 -0.1437696134745676 0.25279598445993562 0 -0.14625356343122631 0.25202513938375759 0 -0.14695536254882749 0.25867412606794921 0 -0.14625356343122631 0.25202513938375759 0 -0.1512904222167957 0.25495129201475403 0 -0.1437696134745676 0.25279598445993562 0 -0.14625356343122631 0.25202513938375759 0 -0.14625356343122631 0.25202513938375759 0 -0.1512904222167957 0.25495129201475403 0 -0.15376339007017009 0.24618592337852629 0 -0.15818960312719971 0.25356924451958068 0 -0.1512904222167957 0.25495129201475403 0 -0.15129019190655499 0.26430202672395681 0 -0.15818960312719971 0.25356924451958068 0 -0.1512904222167957 0.25495129201475403 0 -0.15376339007017009 0.24618592337852629 0 -0.14695536254882749 0.25867412606794921 0 -0.1512904222167957 0.25495129201475403 0 -0.15129019190655499 0.26430202672395681 0 -0.15918040694440519 0.273460857791128 0 -0.1530267301236426 0.28384781392229852 0 -0.14300741127673069 0.27807181052421698 0 -0.15918040694440519 0.273460857791128 0 -0.15129019190655499 0.26430202672395681 0 -0.14300741127673069 0.27807181052421698 0 -0.13708171723800811 0.26774370321192792 0 -0.15129019190655499 0.26430202672395681 0 -0.14300741127673069 0.27807181052421698 0 -0.10898246764291949 0.28111543641016512 0 -0.1064623886704975 0.26437354884241282 0 -0.1022934978105485 0.28463936664179262 0 -0.1064623886704975 0.26437354884241282 0 -0.1022934978105485 0.28463936664179262 0 -0.081815018467918998 0.27650945714295072 0 -0.1064623886704975 0.26437354884241282 0 -0.1022934978105485 0.28463936664179262 0 -0.1064623886704975 0.26437354884241282 0 -0.093286781451782555 0.25248200310933011 0 -0.1121816457685484 0.23657108862201839 0 -0.1064623886704975 0.26437354884241282 0 -0.1121816457685484 0.23657108862201839 0 -0.1296773909521125 0.25716922890260729 0 -0.1064623886704975 0.26437354884241282 0 -0.1296773909521125 0.25716922890260729 0 -0.1064623886704975 0.26437354884241282 0 -0.1195416394116576 0.26992350229520717 0 -0.1296773909521125 0.25716922890260729 0 -0.1064623886704975 0.26437354884241282 0 -0.1121816457685484 0.23657108862201839 0 -0.10898246764291949 0.28111543641016512 0 -0.1064623886704975 0.26437354884241282 0 -0.1152684626941073 0.2776783079158559 0 -0.1064623886704975 0.26437354884241282 0 -0.1195416394116576 0.26992350229520717 0 -0.1152684626941073 0.2776783079158559 0 -0.10898246764291949 0.28111543641016512 0 -0.1152684626941073 0.2776783079158559 0 -0.11508315484010059 0.28455462182817759 0 -0.12810727832235039 0.27433304396577768 0 -0.1195416394116576 0.26992350229520717 0 -0.1211544056181144 0.27664225902855588 0 -0.12810727832235039 0.27433304396577768 0 -0.1211544056181144 0.27664225902855588 0 -0.1217002420443424 0.28463418193738271 0 -0.1152684626941073 0.2776783079158559 0 -0.1211544056181144 0.27664225902855588 0 -0.1217002420443424 0.28463418193738271 0 -0.1195416394116576 0.26992350229520717 0 -0.1152684626941073 0.2776783079158559 0 -0.1211544056181144 0.27664225902855588 0 -0.12610413985970881 0.29996471812102249 0 -0.122692577816684 0.3015046414766292 0 -0.10395957916381381 0.28823708763198669 0 -0.12610413985970881 0.29996471812102249 0 -0.10395957916381381 0.28823708763198669 0 -0.12610413985970881 0.29996471812102249 0 -0.113347173415934 0.28832290743302269 0 -0.10395957916381381 0.28823708763198669 0 -0.1152684626941073 0.2776783079158559 0 -0.1217002420443424 0.28463418193738271 0 -0.11508315484010059 0.28455462182817759 0 -0.1217002420443424 0.28463418193738271 0 -0.1197048831732767 0.29030841628856968 0 -0.11508315484010059 0.28455462182817759 0 -0.12653716569258899 0.29149685902894829 0 -0.1217002420443424 0.28463418193738271 0 -0.1197048831732767 0.29030841628856968 0 -0.12610413985970881 0.29996471812102249 0 -0.1197048831732767 0.29030841628856968 0 -0.113347173415934 0.28832290743302269 0 -0.12610413985970881 0.29996471812102249 0 -0.12653716569258899 0.29149685902894829 0 -0.1197048831732767 0.29030841628856968 0 -0.10898246764291949 0.28111543641016512 0 -0.11508315484010059 0.28455462182817759 0 -0.113347173415934 0.28832290743302269 0 -0.10898246764291949 0.28111543641016512 0 -0.113347173415934 0.28832290743302269 0 -0.1062488158157847 0.28575716431821491 0 -0.1197048831732767 0.29030841628856968 0 -0.11508315484010059 0.28455462182817759 0 -0.113347173415934 0.28832290743302269 0 -0.1175840335460145 0.31015146390835241 0 -0.122692577816684 0.3015046414766292 0 -0.09969952600696666 0.29333046052565159 0 -0.12945900888685291 0.30952987372136809 0 -0.1175840335460145 0.31015146390835241 0 -0.122692577816684 0.3015046414766292 0 -0.1175840335460145 0.31015146390835241 0 -0.122692577816684 0.3015046414766292 0 -0.1175840335460145 0.31015146390835241 0 -0.09969952600696666 0.29333046052565159 0 -0.098489166245894891 0.31253547245506058 0 -0.1175840335460145 0.31015146390835241 0 -0.09969952600696666 0.29333046052565159 0 -0.10395957916381381 0.28823708763198669 0 -0.1022934978105485 0.28463936664179262 0 -0.081815018467918998 0.27650945714295072 0 -0.09969952600696666 0.29333046052565159 0 -0.10395957916381381 0.28823708763198669 0 -0.081815018467918998 0.27650945714295072 0 -0.122692577816684 0.3015046414766292 0 -0.09969952600696666 0.29333046052565159 0 -0.10395957916381381 0.28823708763198669 0 -0.113347173415934 0.28832290743302269 0 -0.10395957916381381 0.28823708763198669 0 -0.1062488158157847 0.28575716431821491 0 -0.10395957916381381 0.28823708763198669 0 -0.1022934978105485 0.28463936664179262 0 -0.1062488158157847 0.28575716431821491 0 -0.10898246764291949 0.28111543641016512 0 -0.1022934978105485 0.28463936664179262 0 -0.1062488158157847 0.28575716431821491 0 -0.10395957916381381 0.28823708763198669 0 -0.081815018467918998 0.27650945714295072 0 -0.09969952600696666 0.29333046052565159 0 -0.083218052598159717 0.29200676127998582 0 -0.081815018467918998 0.27650945714295072 0 -0.09969952600696666 0.29333046052565159 0 -0.081815018467918998 0.27650945714295072 0 -0.083218052598159717 0.29200676127998582 0 -0.07487573982983059 0.28376908626144881 0 -0.081815018467918998 0.27650945714295072 0 -0.09969952600696666 0.29333046052565159 0 -0.083218052598159717 0.29200676127998582 0 -0.081424658254466514 0.30666416548051673 0 -0.09969952600696666 0.29333046052565159 0 -0.081424658254466514 0.30666416548051673 0 -0.098489166245894891 0.31253547245506058 0 -0.081424658254466514 0.30666416548051673 0 -0.069304272823974583 0.29661420625092261 0 -0.067001133515629335 0.31386851525996312 0 -0.069304272823974583 0.29661420625092261 0 -0.057691682549581992 0.30360789120713799 0 -0.067001133515629335 0.31386851525996312 0 -0.083218052598159717 0.29200676127998582 0 -0.081424658254466514 0.30666416548051673 0 -0.069304272823974583 0.29661420625092261 0 -0.083218052598159717 0.29200676127998582 0 -0.07487573982983059 0.28376908626144881 0 -0.069304272823974583 0.29661420625092261 0 -0.069304272823974583 0.29661420625092261 0 -0.065277067323828139 0.28554583594376431 0 -0.056453910793093753 0.2923577122400961 0 -0.07487573982983059 0.28376908626144881 0 -0.069304272823974583 0.29661420625092261 0 -0.065277067323828139 0.28554583594376431 0 -0.071032110492382033 0.2663677559450926 0 -0.07647277531354163 0.27368023625401422 0 -0.050821317811316498 0.27865251346272152 0 -0.065277067323828139 0.28554583594376431 0 -0.07647277531354163 0.27368023625401422 0 -0.049651018632872003 0.28200384157315628 0 -0.07647277531354163 0.27368023625401422 0 -0.049651018632872003 0.28200384157315628 0 -0.071032110492382033 0.2663677559450926 0 -0.078227836623876543 0.27313558745147343 0 -0.081291371374418664 0.26013185346295659 0 -0.071032110492382033 0.2663677559450926 0 -0.07647277531354163 0.27368023625401422 0 -0.078227836623876543 0.27313558745147343 0 -0.071032110492382033 0.2663677559450926 0 -0.078227836623876543 0.27313558745147343 0 -0.07647277531354163 0.27368023625401422 0 -0.078227836623876543 0.27313558745147343 0 -0.07487573982983059 0.28376908626144881 0 -0.065277067323828139 0.28554583594376431 0 -0.07647277531354163 0.27368023625401422 0 -0.07487573982983059 0.28376908626144881 0 -0.07647277531354163 0.27368023625401422 0 -0.081815018467918998 0.27650945714295072 0 -0.1064623886704975 0.26437354884241282 0 -0.081815018467918998 0.27650945714295072 0 -0.078227836623876543 0.27313558745147343 0 -0.1064623886704975 0.26437354884241282 0 -0.078227836623876543 0.27313558745147343 0 -0.081291371374418664 0.26013185346295659 0 -0.1064623886704975 0.26437354884241282 0 -0.078227836623876543 0.27313558745147343 0 -0.07647277531354163 0.27368023625401422 0 -0.081815018467918998 0.27650945714295072 0 -0.078227836623876543 0.27313558745147343 0 -0.07647277531354163 0.27368023625401422 0 -0.081815018467918998 0.27650945714295072 0 -0.081815018467918998 0.27650945714295072 0 -0.078227836623876543 0.27313558745147343 0 -0.1064623886704975 0.26437354884241282 0 -0.093286781451782555 0.25248200310933011 0 -0.081291371374418664 0.26013185346295659 0 -0.093286781451782555 0.25248200310933011 0 -0.081291371374418664 0.26013185346295659 0 -0.082751972805153451 0.25019407668153493 0 -0.081291371374418664 0.26013185346295659 0 -0.082751972805153451 0.25019407668153493 0 -0.072935344474137062 0.2541079673458424 0 -0.071032110492382033 0.2663677559450926 0 -0.072935344474137062 0.2541079673458424 0 -0.067301572475548063 0.25604627783369821 0 -0.071032110492382033 0.2663677559450926 0 -0.081291371374418664 0.26013185346295659 0 -0.071032110492382033 0.2663677559450926 0 -0.081291371374418664 0.26013185346295659 0 -0.072935344474137062 0.2541079673458424 0 -0.071032110492382033 0.2663677559450926 0 -0.059047444570795582 0.25509575946615382 0 -0.071032110492382033 0.2663677559450926 0 -0.067301572475548063 0.25604627783369821 0 -0.059047444570795582 0.25509575946615382 0 -0.067301572475548063 0.25604627783369821 0 -0.059047444570795582 0.25509575946615382 0 -0.066191390364875119 0.24861362857770389 0 -0.072935344474137062 0.2541079673458424 0 -0.067301572475548063 0.25604627783369821 0 -0.066191390364875119 0.24861362857770389 0 -0.05554195815019132 0.25483670679498688 0 -0.059047444570795582 0.25509575946615382 0 -0.052777044882735553 0.2530888411950683 0 -0.05554195815019132 0.25483670679498688 0 -0.059047444570795582 0.25509575946615382 0 -0.052090412493532412 0.25681373511448258 0 -0.059047444570795582 0.25509575946615382 0 -0.04796715180158536 0.26468370067539521 0 -0.052090412493532412 0.25681373511448258 0 -0.04796715180158536 0.26468370067539521 0 -0.052090412493532412 0.25681373511448258 0 -0.046822284816492463 0.26062325432590078 0 -0.048923215434323868 0.25713259867458821 0 -0.052090412493532412 0.25681373511448258 0 -0.046822284816492463 0.26062325432590078 0 -0.048923215434323868 0.25713259867458821 0 -0.046386547381752692 0.25602288905179349 0 -0.046822284816492463 0.26062325432590078 0 -0.059047444570795582 0.25509575946615382 0 -0.052777044882735553 0.2530888411950683 0 -0.050793007043487062 0.24783188033554601 0 -0.048923215434323868 0.25713259867458821 0 -0.049923261759416131 0.25449803400293208 0 -0.046386547381752692 0.25602288905179349 0 -0.048923215434323868 0.25713259867458821 0 -0.049923261759416131 0.25449803400293208 0 -0.052090412493532412 0.25681373511448258 0 -0.049923261759416131 0.25449803400293208 0 -0.047338314127148493 0.25264116884274718 0 -0.046386547381752692 0.25602288905179349 0 -0.047338314127148493 0.25264116884274718 0 -0.050176839751681031 0.25141733800211702 0 -0.045036679799408327 0.2473423560733036 0 -0.049923261759416131 0.25449803400293208 0 -0.047338314127148493 0.25264116884274718 0 -0.050176839751681031 0.25141733800211702 0 -0.050176839751681031 0.25141733800211702 0 -0.052777044882735553 0.2530888411950683 0 -0.050793007043487062 0.24783188033554601 0 -0.049923261759416131 0.25449803400293208 0 -0.050176839751681031 0.25141733800211702 0 -0.052777044882735553 0.2530888411950683 0 -0.05554195815019132 0.25483670679498688 0 -0.052777044882735553 0.2530888411950683 0 -0.052090412493532412 0.25681373511448258 0 -0.049923261759416131 0.25449803400293208 0 -0.052777044882735553 0.2530888411950683 0 -0.052090412493532412 0.25681373511448258 0 -0.059047444570795582 0.25509575946615382 0 -0.04796715180158536 0.26468370067539521 0 -0.050821317811316498 0.27865251346272152 0 -0.07647277531354163 0.27368023625401422 0 -0.050821317811316498 0.27865251346272152 0 -0.049651018632872003 0.28200384157315628 0 -0.071032110492382033 0.2663677559450926 0 -0.050821317811316498 0.27865251346272152 0 -0.071032110492382033 0.2663677559450926 0 -0.059047444570795582 0.25509575946615382 0 -0.050821317811316498 0.27865251346272152 0 -0.059047444570795582 0.25509575946615382 0 -0.050821317811316498 0.27865251346272152 0 -0.04796715180158536 0.26468370067539521 0 -0.050821317811316498 0.27865251346272152 0 -0.042850503340194718 0.27092941067201243 0 -0.050821317811316498 0.27865251346272152 0 -0.049651018632872003 0.28200384157315628 0 -0.034880426293425248 0.27152939180054181 0 -0.02926511767517842 0.2644861082771286 0 -0.03860284121856826 0.28607928907441083 0 -0.02926511767517842 0.2644861082771286 0 -0.03860284121856826 0.28607928907441083 0 -0.050821317811316498 0.27865251346272152 0 -0.041019196007295568 0.27719596369039579 0 -0.042850503340194718 0.27092941067201243 0 -0.050821317811316498 0.27865251346272152 0 -0.041019196007295568 0.27719596369039579 0 -0.040777160748900539 0.284757669055961 0 -0.041019196007295568 0.27719596369039579 0 -0.038273946248512387 0.27868237997847939 0 -0.039209055878356387 0.2823451138376204 0 -0.041019196007295568 0.27719596369039579 0 -0.038387159424593677 0.27096280352791358 0 -0.037786911294179937 0.274199823494857 0 -0.041019196007295568 0.27719596369039579 0 -0.042850503340194718 0.27092941067201243 0 -0.038387159424593677 0.27096280352791358 0 -0.042850503340194718 0.27092941067201243 0 -0.041102256518579489 0.26697922569982929 0 -0.038387159424593677 0.27096280352791358 0 -0.04796715180158536 0.26468370067539521 0 -0.042850503340194718 0.27092941067201243 0 -0.041102256518579489 0.26697922569982929 0 -0.041102256518579489 0.26697922569982929 0 -0.03672418021026163 0.26680397664966121 0 -0.038387159424593677 0.27096280352791358 0 -0.041102256518579489 0.26697922569982929 0 -0.03672418021026163 0.26680397664966121 0 -0.03872836172421032 0.26358304080306949 0 -0.035955092543143372 0.26893902250270052 0 -0.03672418021026163 0.26680397664966121 0 -0.038387159424593677 0.27096280352791358 0 -0.035955092543143372 0.26893902250270052 0 -0.03672418021026163 0.26680397664966121 0 -0.033828604244292917 0.26645991803268543 0 -0.035955092543143372 0.26893902250270052 0 -0.033828604244292917 0.26645991803268543 0 -0.034880426293425248 0.27152939180054181 0 -0.032364889867616473 0.266219845135924 0 -0.034880426293425248 0.27152939180054181 0 -0.02926511767517842 0.2644861082771286 0 -0.033828604244292917 0.26645991803268543 0 -0.032364889867616473 0.266219845135924 0 -0.034880426293425248 0.27152939180054181 0 -0.033828604244292917 0.26645991803268543 0 -0.032364889867616473 0.266219845135924 0 -0.033040871682229897 0.26422029649045331 0 -0.034880426293425248 0.27152939180054181 0 -0.038387159424593677 0.27096280352791358 0 -0.037786911294179937 0.274199823494857 0 -0.035955092543143372 0.26893902250270052 0 -0.034880426293425248 0.27152939180054181 0 -0.038387159424593677 0.27096280352791358 0 -0.034880426293425248 0.27152939180054181 0 -0.038273946248512387 0.27868237997847939 0 -0.03860284121856826 0.28607928907441083 0 -0.041019196007295568 0.27719596369039579 0 -0.037786911294179937 0.274199823494857 0 -0.038273946248512387 0.27868237997847939 0 -0.034880426293425248 0.27152939180054181 0 -0.037786911294179937 0.274199823494857 0 -0.038273946248512387 0.27868237997847939 0 -0.04037260102427237 0.25608446933844359 0 -0.043965817387837218 0.25363705025446809 0 -0.043481973787932358 0.2581789799860788 0 -0.04037260102427237 0.25608446933844359 0 -0.041178788206509123 0.25155243823444212 0 -0.036716465359311147 0.2537002129874506 0 -0.04037260102427237 0.25608446933844359 0 -0.041178788206509123 0.25155243823444212 0 -0.043965817387837218 0.25363705025446809 0 -0.041178788206509123 0.25155243823444212 0 -0.043965817387837218 0.25363705025446809 0 -0.045036679799408327 0.2473423560733036 0 -0.047338314127148493 0.25264116884274718 0 -0.043965817387837218 0.25363705025446809 0 -0.045036679799408327 0.2473423560733036 0 -0.047338314127148493 0.25264116884274718 0 -0.043965817387837218 0.25363705025446809 0 -0.046386547381752692 0.25602288905179349 0 -0.043965817387837218 0.25363705025446809 0 -0.046386547381752692 0.25602288905179349 0 -0.043481973787932358 0.2581789799860788 0 -0.046386547381752692 0.25602288905179349 0 -0.043481973787932358 0.2581789799860788 0 -0.046822284816492463 0.26062325432590078 0 -0.043481973787932358 0.2581789799860788 0 -0.046822284816492463 0.26062325432590078 0 -0.042807107426303191 0.26340306502391891 0 -0.04796715180158536 0.26468370067539521 0 -0.046822284816492463 0.26062325432590078 0 -0.042807107426303191 0.26340306502391891 0 -0.04796715180158536 0.26468370067539521 0 -0.041102256518579489 0.26697922569982929 0 -0.042807107426303191 0.26340306502391891 0 -0.042807107426303191 0.26340306502391891 0 -0.040344021410560732 0.26036007010384532 0 -0.03872836172421032 0.26358304080306949 0 -0.041102256518579489 0.26697922569982929 0 -0.042807107426303191 0.26340306502391891 0 -0.03872836172421032 0.26358304080306949 0 -0.043481973787932358 0.2581789799860788 0 -0.042807107426303191 0.26340306502391891 0 -0.040344021410560732 0.26036007010384532 0 -0.04037260102427237 0.25608446933844359 0 -0.040344021410560732 0.26036007010384532 0 -0.036627584391727579 0.25961984948811001 0 -0.04037260102427237 0.25608446933844359 0 -0.043481973787932358 0.2581789799860788 0 -0.040344021410560732 0.26036007010384532 0 -0.040344021410560732 0.26036007010384532 0 -0.036627584391727579 0.25961984948811001 0 -0.03872836172421032 0.26358304080306949 0 -0.036627584391727579 0.25961984948811001 0 -0.03872836172421032 0.26358304080306949 0 -0.035153691809685209 0.2635963993182216 0 -0.03672418021026163 0.26680397664966121 0 -0.03872836172421032 0.26358304080306949 0 -0.035153691809685209 0.2635963993182216 0 -0.03672418021026163 0.26680397664966121 0 -0.033828604244292917 0.26645991803268543 0 -0.035153691809685209 0.2635963993182216 0 -0.033828604244292917 0.26645991803268543 0 -0.035153691809685209 0.2635963993182216 0 -0.033040871682229897 0.26422029649045331 0 -0.035153691809685209 0.2635963993182216 0 -0.033040871682229897 0.26422029649045331 0 -0.032481589572798369 0.26133568548732677 0 -0.033040871682229897 0.26422029649045331 0 -0.032481589572798369 0.26133568548732677 0 -0.030809429442955841 0.26440351107881099 0 -0.032364889867616473 0.266219845135924 0 -0.033040871682229897 0.26422029649045331 0 -0.030809429442955841 0.26440351107881099 0 -0.03293080828581995 0.25804415541152481 0 -0.032481589572798369 0.26133568548732677 0 -0.028883575755461272 0.25711684775198951 0 -0.036627584391727579 0.25961984948811001 0 -0.03293080828581995 0.25804415541152481 0 -0.032481589572798369 0.26133568548732677 0 -0.036627584391727579 0.25961984948811001 0 -0.035153691809685209 0.2635963993182216 0 -0.032481589572798369 0.26133568548732677 0 -0.03293080828581995 0.25804415541152481 0 -0.036716465359311147 0.2537002129874506 0 -0.032889171011884911 0.25383825479016547 0 -0.03293080828581995 0.25804415541152481 0 -0.032889171011884911 0.25383825479016547 0 -0.028860760065202461 0.25327469637357758 0 -0.04037260102427237 0.25608446933844359 0 -0.036627584391727579 0.25961984948811001 0 -0.036716465359311147 0.2537002129874506 0 -0.036627584391727579 0.25961984948811001 0 -0.03293080828581995 0.25804415541152481 0 -0.036716465359311147 0.2537002129874506 0 -0.041178788206509123 0.25155243823444212 0 -0.036716465359311147 0.2537002129874506 0 -0.039197402965606802 0.2477238199581453 0 -0.036716465359311147 0.2537002129874506 0 -0.034275869000636679 0.24884914989821069 0 -0.039197402965606802 0.2477238199581453 0 -0.036716465359311147 0.2537002129874506 0 -0.032889171011884911 0.25383825479016547 0 -0.034275869000636679 0.24884914989821069 0 -0.032889171011884911 0.25383825479016547 0 -0.03054651971650528 0.25103524046391112 0 -0.034275869000636679 0.24884914989821069 0 -0.02926511767517842 0.2644861082771286 0 -0.013509398937038279 0.25463040593267511 0 -0.019881501782636129 0.2427868029209157 0 -0.032889171011884911 0.25383825479016547 0 -0.028860760065202461 0.25327469637357758 0 -0.03054651971650528 0.25103524046391112 0 -0.028883575755461272 0.25711684775198951 0 -0.02926511767517842 0.2644861082771286 0 -0.019881501782636129 0.2427868029209157 0 -0.02926511767517842 0.2644861082771286 0 -0.019881501782636129 0.2427868029209157 0 -0.028860760065202461 0.25327469637357758 0 -0.028883575755461272 0.25711684775198951 0 -0.019881501782636129 0.2427868029209157 0 -0.028860760065202461 0.25327469637357758 0 -0.03054651971650528 0.25103524046391112 0 -0.026032362202064389 0.24768713845238849 0 -0.03293080828581995 0.25804415541152481 0 -0.028860760065202461 0.25327469637357758 0 -0.028883575755461272 0.25711684775198951 0 -0.028883575755461272 0.25711684775198951 0 -0.02926511767517842 0.2644861082771286 0 -0.030359928111598471 0.26183553814881388 0 -0.032481589572798369 0.26133568548732677 0 -0.028883575755461272 0.25711684775198951 0 -0.030359928111598471 0.26183553814881388 0 -0.02926511767517842 0.2644861082771286 0 -0.030359928111598471 0.26183553814881388 0 -0.030809429442955841 0.26440351107881099 0 -0.032481589572798369 0.26133568548732677 0 -0.030359928111598471 0.26183553814881388 0 -0.030809429442955841 0.26440351107881099 0 -0.032364889867616473 0.266219845135924 0 -0.02926511767517842 0.2644861082771286 0 -0.030809429442955841 0.26440351107881099 0 -0.02926511767517842 0.2644861082771286 0 -0.030809429442955841 0.26440351107881099 0 -0.02926511767517842 0.2644861082771286 0 -0.02408107214772845 0.28081530311659553 0 -0.03860284121856826 0.28607928907441083 0 -0.02926511767517842 0.2644861082771286 0 -0.02408107214772845 0.28081530311659553 0 -0.013674855546831221 0.27593533006100818 0 -0.0010946476457873409 0.26599280009174858 0 -0.013674855546831221 0.27593533006100818 0 -0.00043330719363736072 0.28730603648085062 0 -0.02926511767517842 0.2644861082771286 0 -0.0010946476457873409 0.26599280009174858 0 -0.013674855546831221 0.27593533006100818 0 -0.02926511767517842 0.2644861082771286 0 -0.0010946476457873409 0.26599280009174858 0 -0.013509398937038279 0.25463040593267511 0 -0.0010946476457873409 0.26599280009174858 0 -0.013509398937038279 0.25463040593267511 0 0.00078604608867878457 0.24678879113798841 0 -0.02926511767517842 0.2644861082771286 0 -0.0010946476457873409 0.26599280009174858 0 -0.01263267399806922 0.30186477616689672 0 -0.00043330719363736072 0.28730603648085062 0 0.0078970786378271193 0.30484346010881752 0 -0.01263267399806922 0.30186477616689672 0 -0.003860846205333693 0.31351861193422748 0 0.0078970786378271193 0.30484346010881752 0 -0.01263267399806922 0.30186477616689672 0 -0.003860846205333693 0.31351861193422748 0 -0.01416923381899687 0.31511161454309172 0 -0.013674855546831221 0.27593533006100818 0 -0.00043330719363736072 0.28730603648085062 0 -0.014796796513563699 0.28716350590403072 0 -0.01263267399806922 0.30186477616689672 0 -0.00043330719363736072 0.28730603648085062 0 -0.014796796513563699 0.28716350590403072 0 -0.01263267399806922 0.30186477616689672 0 -0.014796796513563699 0.28716350590403072 0 -0.02561775760831797 0.29397203262065258 0 -0.02408107214772845 0.28081530311659553 0 -0.014796796513563699 0.28716350590403072 0 -0.02561775760831797 0.29397203262065258 0 -0.02408107214772845 0.28081530311659553 0 -0.013674855546831221 0.27593533006100818 0 -0.014796796513563699 0.28716350590403072 0 -0.02408107214772845 0.28081530311659553 0 -0.02561775760831797 0.29397203262065258 0 -0.03860284121856826 0.28607928907441083 0 -0.02561775760831797 0.29397203262065258 0 -0.032859880187313513 0.30475455867987178 0 -0.035252072577642221 0.29579974722062502 0 -0.02561775760831797 0.29397203262065258 0 -0.023000939473428229 0.30920746391563347 0 -0.032859880187313513 0.30475455867987178 0 -0.01263267399806922 0.30186477616689672 0 -0.02561775760831797 0.29397203262065258 0 -0.01263267399806922 0.30186477616689672 0 -0.02561775760831797 0.29397203262065258 0 -0.023000939473428229 0.30920746391563347 0 -0.01263267399806922 0.30186477616689672 0 -0.023000939473428229 0.30920746391563347 0 -0.01416923381899687 0.31511161454309172 0 -0.023000939473428229 0.30920746391563347 0 -0.032859880187313513 0.30475455867987178 0 -0.030703857368318599 0.31673274692988779 0 -0.032859880187313513 0.30475455867987178 0 -0.038576361405678189 0.3137177919565165 0 -0.030703857368318599 0.31673274692988779 0 -0.043927811296368142 0.29839310850756512 0 -0.052023416825963127 0.31711393195578003 0 -0.038576361405678189 0.3137177919565165 0 -0.032859880187313513 0.30475455867987178 0 -0.043927811296368142 0.29839310850756512 0 -0.038576361405678189 0.3137177919565165 0 -0.032859880187313513 0.30475455867987178 0 -0.043927811296368142 0.29839310850756512 0 -0.035252072577642221 0.29579974722062502 0 -0.043927811296368142 0.29839310850756512 0 -0.038576361405678189 0.3137177919565165 0 -0.043927811296368142 0.29839310850756512 0 -0.049651018632872003 0.28200384157315628 0 -0.043927811296368142 0.29839310850756512 0 -0.040777160748900539 0.284757669055961 0 -0.049651018632872003 0.28200384157315628 0 -0.038273946248512387 0.27868237997847939 0 -0.03860284121856826 0.28607928907441083 0 -0.039209055878356387 0.2823451138376204 0 -0.02561775760831797 0.29397203262065258 0 -0.03860284121856826 0.28607928907441083 0 -0.02561775760831797 0.29397203262065258 0 -0.03860284121856826 0.28607928907441083 0 -0.035252072577642221 0.29579974722062502 0 -0.043927811296368142 0.29839310850756512 0 -0.03860284121856826 0.28607928907441083 0 -0.040777160748900539 0.284757669055961 0 -0.043927811296368142 0.29839310850756512 0 -0.03860284121856826 0.28607928907441083 0 -0.035252072577642221 0.29579974722062502 0 -0.043927811296368142 0.29839310850756512 0 -0.03860284121856826 0.28607928907441083 0 -0.040777160748900539 0.284757669055961 0 -0.049651018632872003 0.28200384157315628 0 -0.050821317811316498 0.27865251346272152 0 -0.040777160748900539 0.284757669055961 0 -0.03860284121856826 0.28607928907441083 0 -0.040777160748900539 0.284757669055961 0 -0.041019196007295568 0.27719596369039579 0 -0.040777160748900539 0.284757669055961 0 -0.039209055878356387 0.2823451138376204 0 -0.03860284121856826 0.28607928907441083 0 -0.040777160748900539 0.284757669055961 0 -0.039209055878356387 0.2823451138376204 0 -0.065277067323828139 0.28554583594376431 0 -0.049651018632872003 0.28200384157315628 0 -0.056453910793093753 0.2923577122400961 0 -0.043927811296368142 0.29839310850756512 0 -0.049651018632872003 0.28200384157315628 0 -0.056453910793093753 0.2923577122400961 0 -0.050821317811316498 0.27865251346272152 0 -0.040777160748900539 0.284757669055961 0 -0.049651018632872003 0.28200384157315628 0 -0.043927811296368142 0.29839310850756512 0 -0.057691682549581992 0.30360789120713799 0 -0.052023416825963127 0.31711393195578003 0 -0.043927811296368142 0.29839310850756512 0 -0.052023416825963127 0.31711393195578003 0 -0.043927811296368142 0.29839310850756512 0 -0.056453910793093753 0.2923577122400961 0 -0.057691682549581992 0.30360789120713799 0 -0.069304272823974583 0.29661420625092261 0 -0.056453910793093753 0.2923577122400961 0 -0.057691682549581992 0.30360789120713799 0 -0.057691682549581992 0.30360789120713799 0 -0.052023416825963127 0.31711393195578003 0 -0.067001133515629335 0.31386851525996312 0 -0.052023416825963127 0.31711393195578003 0 -0.060119022355559007 0.33583475540399438 0 -0.047210564423663823 0.33030603244961598 0 -0.052023416825963127 0.31711393195578003 0 -0.060119022355559007 0.33583475540399438 0 -0.052023416825963127 0.31711393195578003 0 -0.060119022355559007 0.33583475540399438 0 -0.067001133515629335 0.31386851525996312 0 -0.060119022355559007 0.33583475540399438 0 -0.047210564423663823 0.33030603244961598 0 -0.038974385856669708 0.35711583833479371 0 -0.047210564423663823 0.33030603244961598 0 -0.033224911514981907 0.32904247540546577 0 -0.038974385856669708 0.35711583833479371 0 -0.033224911514981907 0.32904247540546577 0 -0.038974385856669708 0.35711583833479371 0 -0.047210564423663823 0.33030603244961598 0 -0.033224911514981907 0.32904247540546577 0 -0.038576361405678189 0.3137177919565165 0 -0.052023416825963127 0.31711393195578003 0 -0.047210564423663823 0.33030603244961598 0 -0.038576361405678189 0.3137177919565165 0 -0.033224911514981907 0.32904247540546577 0 -0.030703857368318599 0.31673274692988779 0 -0.033224911514981907 0.32904247540546577 0 -0.038576361405678189 0.3137177919565165 0 -0.033224911514981907 0.32904247540546577 0 -0.038576361405678189 0.3137177919565165 0 -0.030703857368318599 0.31673274692988779 0 -0.023000939473428229 0.30920746391563347 0 -0.030703857368318599 0.31673274692988779 0 -0.02202223385955324 0.32280905455340081 0 -0.023000939473428229 0.30920746391563347 0 -0.02202223385955324 0.32280905455340081 0 -0.01416923381899687 0.31511161454309172 0 -0.02202223385955324 0.32280905455340081 0 -0.019859889904654319 0.334026461012565 0 -0.0083119161314481969 0.32689323102362622 0 -0.033224911514981907 0.32904247540546577 0 -0.030703857368318599 0.31673274692988779 0 -0.02202223385955324 0.32280905455340081 0 -0.033224911514981907 0.32904247540546577 0 -0.019859889904654319 0.334026461012565 0 -0.02660502325981462 0.34799952331774181 0 -0.033224911514981907 0.32904247540546577 0 -0.02202223385955324 0.32280905455340081 0 -0.019859889904654319 0.334026461012565 0 -0.033224911514981907 0.32904247540546577 0 -0.02660502325981462 0.34799952331774181 0 -0.019859889904654319 0.334026461012565 0 -0.011605332740486441 0.34230101708704957 0 -0.02660502325981462 0.34799952331774181 0 -0.019859889904654319 0.334026461012565 0 -0.011605332740486441 0.34230101708704957 0 -0.0083119161314481969 0.32689323102362622 0 -0.011605332740486441 0.34230101708704957 0 -0.0083119161314481969 0.32689323102362622 0 0.003323615605882289 0.33927713467499387 0 -0.003860846205333693 0.31351861193422748 0 -0.0083119161314481969 0.32689323102362622 0 0.0072672062347961756 0.32307572668094031 0 -0.003860846205333693 0.31351861193422748 0 -0.01416923381899687 0.31511161454309172 0 -0.0083119161314481969 0.32689323102362622 0 -0.02202223385955324 0.32280905455340081 0 -0.01416923381899687 0.31511161454309172 0 -0.0083119161314481969 0.32689323102362622 0 -0.0059749126274599154 0.3653843430321988 0 -0.014096044430664209 0.35451917654702292 0 -0.01998513500464168 0.36695657123001568 0 -0.0059749126274599154 0.3653843430321988 0 -0.0040827383222195781 0.35109057594634829 0 0.0075999617333648113 0.35561733717685878 0 -0.011605332740486441 0.34230101708704957 0 -0.0040827383222195781 0.35109057594634829 0 0.003323615605882289 0.33927713467499387 0 -0.011605332740486441 0.34230101708704957 0 -0.0040827383222195781 0.35109057594634829 0 -0.014096044430664209 0.35451917654702292 0 -0.0059749126274599154 0.3653843430321988 0 -0.0040827383222195781 0.35109057594634829 0 -0.014096044430664209 0.35451917654702292 0 -0.02660502325981462 0.34799952331774181 0 -0.01998513500464168 0.36695657123001568 0 -0.038974385856669708 0.35711583833479371 0 -0.014096044430664209 0.35451917654702292 0 -0.02660502325981462 0.34799952331774181 0 -0.01998513500464168 0.36695657123001568 0 -0.02660502325981462 0.34799952331774181 0 -0.01998513500464168 0.36695657123001568 0 -0.011605332740486441 0.34230101708704957 0 -0.014096044430664209 0.35451917654702292 0 -0.02660502325981462 0.34799952331774181 0 -0.01998513500464168 0.36695657123001568 0 -0.031327688219846953 0.37274059320937419 0 -0.038974385856669708 0.35711583833479371 0 -0.0059749126274599154 0.3653843430321988 0 -0.01998513500464168 0.36695657123001568 0 -0.021627371819712089 0.38170076200856728 0 -0.01998513500464168 0.36695657123001568 0 -0.031327688219846953 0.37274059320937419 0 -0.021627371819712089 0.38170076200856728 0 -0.031327688219846953 0.37274059320937419 0 -0.038974385856669708 0.35711583833479371 0 -0.044723860198363288 0.38518920126412037 0 -0.060119022355559007 0.33583475540399438 0 -0.038974385856669708 0.35711583833479371 0 -0.059507662765368681 0.36805813195127252 0 -0.038974385856669708 0.35711583833479371 0 -0.044723860198363288 0.38518920126412037 0 -0.033224911514981907 0.32904247540546577 0 -0.02660502325981462 0.34799952331774181 0 -0.038974385856669708 0.35711583833479371 0 -0.038974385856669708 0.35711583833479371 0 -0.059507662765368681 0.36805813195127252 0 -0.044723860198363288 0.38518920126412037 0 -0.059507662765368681 0.36805813195127252 0 -0.079709314953080729 0.37425895695777112 0 -0.074484465569192707 0.35420189503934879 0 -0.060119022355559007 0.33583475540399438 0 -0.059507662765368681 0.36805813195127252 0 -0.074484465569192707 0.35420189503934879 0 -0.059507662765368681 0.36805813195127252 0 -0.079709314953080729 0.37425895695777112 0 -0.064536785632193353 0.38105252146803198 0 -0.079709314953080729 0.37425895695777112 0 -0.092334221150725343 0.35288979260796488 0 -0.074484465569192707 0.35420189503934879 0 -0.079709314953080729 0.37425895695777112 0 -0.092334221150725343 0.35288979260796488 0 -0.099366902481620556 0.36734611091209762 0 -0.079709314953080729 0.37425895695777112 0 -0.092334221150725343 0.35288979260796488 0 -0.092334221150725343 0.35288979260796488 0 -0.074484465569192707 0.35420189503934879 0 -0.080752106621229724 0.33996783827574101 0 -0.060119022355559007 0.33583475540399438 0 -0.081590793187789612 0.32237893292849917 0 -0.080752106621229724 0.33996783827574101 0 -0.060119022355559007 0.33583475540399438 0 -0.074484465569192707 0.35420189503934879 0 -0.080752106621229724 0.33996783827574101 0 -0.081424658254466514 0.30666416548051673 0 -0.067001133515629335 0.31386851525996312 0 -0.081590793187789612 0.32237893292849917 0 -0.060119022355559007 0.33583475540399438 0 -0.067001133515629335 0.31386851525996312 0 -0.081590793187789612 0.32237893292849917 0 -0.081424658254466514 0.30666416548051673 0 -0.081590793187789612 0.32237893292849917 0 -0.098489166245894891 0.31253547245506058 0 -0.081590793187789612 0.32237893292849917 0 -0.080752106621229724 0.33996783827574101 0 -0.10495912734837 0.33152062825815859 0 -0.092334221150725343 0.35288979260796488 0 -0.080752106621229724 0.33996783827574101 0 -0.10495912734837 0.33152062825815859 0 -0.092334221150725343 0.35288979260796488 0 -0.10495912734837 0.33152062825815859 0 -0.1175840335460145 0.31015146390835241 0 -0.10495912734837 0.33152062825815859 0 -0.098489166245894891 0.31253547245506058 0 -0.081590793187789612 0.32237893292849917 0 -0.10495912734837 0.33152062825815859 0 -0.098489166245894891 0.31253547245506058 0 -0.13266559265625361 0.32433619649077777 0 -0.1175840335460145 0.31015146390835241 0 -0.11617347217324669 0.32978092064158437 0 -0.1175840335460145 0.31015146390835241 0 -0.10495912734837 0.33152062825815859 0 -0.1175840335460145 0.31015146390835241 0 -0.10495912734837 0.33152062825815859 0 -0.11617347217324669 0.32978092064158437 0 -0.10495912734837 0.33152062825815859 0 -0.11617347217324669 0.32978092064158437 0 -0.11637724504661399 0.35160978132583581 0 -0.11617347217324669 0.32978092064158437 0 -0.11637724504661399 0.35160978132583581 0 -0.13053366520819221 0.34146399587285181 0 -0.11617347217324669 0.32978092064158437 0 -0.11637724504661399 0.35160978132583581 0 -0.11637724504661399 0.35160978132583581 0 -0.11658101791997739 0.37343864201008697 0 -0.11637724504661399 0.35160978132583581 0 -0.11658101791997739 0.37343864201008697 0 -0.099366902481620556 0.36734611091209762 0 -0.13970486439835389 0.36307215183285813 0 -0.11637724504661399 0.35160978132583581 0 -0.11658101791997739 0.37343864201008697 0 -0.092334221150725343 0.35288979260796488 0 -0.10495912734837 0.33152062825815859 0 -0.11637724504661399 0.35160978132583581 0 -0.092334221150725343 0.35288979260796488 0 -0.11637724504661399 0.35160978132583581 0 -0.099366902481620556 0.36734611091209762 0 -0.1050828626990957 0.39927102722317098 0 -0.094231598730682445 0.40776193015103679 0 -0.091832713337705901 0.38453338165883072 0 -0.1050828626990957 0.39927102722317098 0 -0.11673400125863551 0.38982675064944111 0 -0.091832713337705901 0.38453338165883072 0 -0.1050828626990957 0.39927102722317098 0 -0.1061473527550669 0.41044266781146088 0 -0.094231598730682445 0.40776193015103679 0 -0.1050828626990957 0.39927102722317098 0 -0.1168869845972898 0.40621485928879508 0 -0.1061473527550669 0.41044266781146088 0 -0.11658101791997739 0.37343864201008697 0 -0.099366902481620556 0.36734611091209762 0 -0.091832713337705901 0.38453338165883072 0 -0.11658101791997739 0.37343864201008697 0 -0.11673400125863551 0.38982675064944111 0 -0.091832713337705901 0.38453338165883072 0 -0.11658101791997739 0.37343864201008697 0 -0.091832713337705901 0.38453338165883072 0 -0.13234106171820231 0.37713097131412238 0 -0.11658101791997739 0.37343864201008697 0 -0.11673400125863551 0.38982675064944111 0 -0.11658101791997739 0.37343864201008697 0 -0.11673400125863551 0.38982675064944111 0 -0.1050828626990957 0.39927102722317098 0 -0.11673400125863551 0.38982675064944111 0 -0.1168869845972898 0.40621485928879508 0 -0.11673400125863551 0.38982675064944111 0 -0.1168869845972898 0.40621485928879508 0 -0.12751187843855469 0.40101677790631879 0 -0.11673400125863551 0.38982675064944111 0 -0.1168869845972898 0.40621485928879508 0 -0.12751187843855469 0.40101677790631879 0 -0.1168869845972898 0.40621485928879508 0 -0.1142348250505705 0.41851045906493961 0 -0.1168869845972898 0.40621485928879508 0 -0.1142348250505705 0.41851045906493961 0 -0.1061473527550669 0.41044266781146088 0 -0.1142348250505705 0.41851045906493961 0 -0.1249469937880598 0.42269056345030942 0 -0.1024358380961574 0.43436144330025489 0 -0.12435653341535639 0.43280279094571039 0 -0.1024358380961574 0.43436144330025489 0 -0.1231102128986111 0.44164965171733012 0 -0.12435653341535639 0.43280279094571039 0 -0.1249469937880598 0.42269056345030942 0 -0.1024358380961574 0.43436144330025489 0 -0.1249469937880598 0.42269056345030942 0 -0.1024358380961574 0.43436144330025489 0 -0.1024358380961574 0.43436144330025489 0 -0.10030049269769591 0.42045506332936228 0 -0.083055339183012999 0.42752935688141303 0 -0.1142348250505705 0.41851045906493961 0 -0.1024358380961574 0.43436144330025489 0 -0.10030049269769591 0.42045506332936228 0 -0.1142348250505705 0.41851045906493961 0 -0.1061473527550669 0.41044266781146088 0 -0.10030049269769591 0.42045506332936228 0 -0.1061473527550669 0.41044266781146088 0 -0.10030049269769591 0.42045506332936228 0 -0.094231598730682445 0.40776193015103679 0 -0.10030049269769591 0.42045506332936228 0 -0.094231598730682445 0.40776193015103679 0 -0.083055339183012999 0.42752935688141303 0 -0.094231598730682445 0.40776193015103679 0 -0.078775293739315022 0.40743941216085039 0 -0.083055339183012999 0.42752935688141303 0 -0.1024358380961574 0.43436144330025489 0 -0.083055339183012999 0.42752935688141303 0 -0.1024358380961574 0.43436144330025489 0 -0.083055339183012999 0.42752935688141303 0 -0.086002469284078037 0.43755437721914547 0 -0.083055339183012999 0.42752935688141303 0 -0.078253872046133405 0.43794260745546171 0 -0.086002469284078037 0.43755437721914547 0 -0.083055339183012999 0.42752935688141303 0 -0.071029409566268076 0.43440036481462369 0 -0.078253872046133405 0.43794260745546171 0 -0.083055339183012999 0.42752935688141303 0 -0.071029409566268076 0.43440036481462369 0 -0.068402860533980134 0.41950584126327162 0 -0.071029409566268076 0.43440036481462369 0 -0.068402860533980134 0.41950584126327162 0 -0.058877829650657493 0.43168947104856298 0 -0.071029409566268076 0.43440036481462369 0 -0.058877829650657493 0.43168947104856298 0 -0.063156146311379599 0.44311474287945929 0 -0.078775293739315022 0.40743941216085039 0 -0.083055339183012999 0.42752935688141303 0 -0.068402860533980134 0.41950584126327162 0 -0.068402860533980134 0.41950584126327162 0 -0.067084408755435337 0.39562812130757691 0 -0.052348782114849703 0.4205699325614955 0 -0.078775293739315022 0.40743941216085039 0 -0.068402860533980134 0.41950584126327162 0 -0.067084408755435337 0.39562812130757691 0 -0.094231598730682445 0.40776193015103679 0 -0.078775293739315022 0.40743941216085039 0 -0.091832713337705901 0.38453338165883072 0 -0.078775293739315022 0.40743941216085039 0 -0.067084408755435337 0.39562812130757691 0 -0.091832713337705901 0.38453338165883072 0 -0.079709314953080729 0.37425895695777112 0 -0.067084408755435337 0.39562812130757691 0 -0.091832713337705901 0.38453338165883072 0 -0.079709314953080729 0.37425895695777112 0 -0.099366902481620556 0.36734611091209762 0 -0.091832713337705901 0.38453338165883072 0 -0.067084408755435337 0.39562812130757691 0 -0.091832713337705901 0.38453338165883072 0 -0.079709314953080729 0.37425895695777112 0 -0.067084408755435337 0.39562812130757691 0 -0.079709314953080729 0.37425895695777112 0 -0.067084408755435337 0.39562812130757691 0 -0.064536785632193353 0.38105252146803198 0 -0.059507662765368681 0.36805813195127252 0 -0.064536785632193353 0.38105252146803198 0 -0.051845756054887893 0.38626487565550688 0 -0.059507662765368681 0.36805813195127252 0 -0.051845756054887893 0.38626487565550688 0 -0.044723860198363288 0.38518920126412037 0 -0.067084408755435337 0.39562812130757691 0 -0.064536785632193353 0.38105252146803198 0 -0.051845756054887893 0.38626487565550688 0 -0.051845756054887893 0.38626487565550688 0 -0.044723860198363288 0.38518920126412037 0 -0.051845756054887893 0.38626487565550688 0 -0.048562340741883828 0.40393162030822699 0 -0.044723860198363288 0.38518920126412037 0 -0.067084408755435337 0.39562812130757691 0 -0.048562340741883828 0.40393162030822699 0 -0.049709259188256083 0.40953175970911998 0 -0.067084408755435337 0.39562812130757691 0 -0.051845756054887893 0.38626487565550688 0 -0.048562340741883828 0.40393162030822699 0 -0.067084408755435337 0.39562812130757691 0 -0.048562340741883828 0.40393162030822699 0 -0.048562340741883828 0.40393162030822699 0 -0.032656094787718908 0.39742497426902329 0 -0.02693109872113511 0.41362897140156718 0 -0.048562340741883828 0.40393162030822699 0 -0.032656094787718908 0.39742497426902329 0 -0.044723860198363288 0.38518920126412037 0 -0.048562340741883828 0.40393162030822699 0 -0.044723860198363288 0.38518920126412037 0 -0.031327688219846953 0.37274059320937419 0 -0.044723860198363288 0.38518920126412037 0 -0.021627371819712089 0.38170076200856728 0 -0.032656094787718908 0.39742497426902329 0 -0.044723860198363288 0.38518920126412037 0 -0.021627371819712089 0.38170076200856728 0 -0.044723860198363288 0.38518920126412037 0 -0.021627371819712089 0.38170076200856728 0 -0.032656094787718908 0.39742497426902329 0 -0.021627371819712089 0.38170076200856728 0 -0.016848479487222949 0.39465861179744438 0 -0.016848479487222949 0.39465861179744438 0 -0.0044969486664877016 0.40232602855505017 0 -0.02693109872113511 0.41362897140156718 0 -0.032656094787718908 0.39742497426902329 0 -0.016848479487222949 0.39465861179744438 0 -0.02693109872113511 0.41362897140156718 0 -0.016848479487222949 0.39465861179744438 0 -0.0044969486664877016 0.40232602855505017 0 0.001469116558939054 0.37821232275301397 0 -0.0059749126274599154 0.3653843430321988 0 -0.021627371819712089 0.38170076200856728 0 0.001469116558939054 0.37821232275301397 0 -0.021627371819712089 0.38170076200856728 0 0.001469116558939054 0.37821232275301397 0 -0.021627371819712089 0.38170076200856728 0 -0.016848479487222949 0.39465861179744438 0 0.001469116558939054 0.37821232275301397 0 -0.0052998567003863196 0.42332632249490748 0 -0.022156471655861699 0.42925103954650079 0 -0.011543683377056991 0.44623855039741162 0 -0.0052998567003863196 0.42332632249490748 0 -0.011543683377056991 0.44623855039741162 0 0.003121881291630373 0.44116679752938442 0 -0.0044969486664877016 0.40232602855505017 0 -0.0052998567003863196 0.42332632249490748 0 -0.02693109872113511 0.41362897140156718 0 -0.02693109872113511 0.41362897140156718 0 -0.022156471655861699 0.42925103954650079 0 -0.039442786826736562 0.41782142512718179 0 -0.0052998567003863196 0.42332632249490748 0 -0.02693109872113511 0.41362897140156718 0 -0.0052998567003863196 0.42332632249490748 0 -0.02693109872113511 0.41362897140156718 0 -0.022156471655861699 0.42925103954650079 0 -0.022156471655861699 0.42925103954650079 0 -0.039442786826736562 0.41782142512718179 0 -0.033363795900300662 0.44008258797786221 0 -0.039442786826736562 0.41782142512718179 0 -0.04716250008800589 0.43063342757595657 0 -0.033363795900300662 0.44008258797786221 0 -0.039442786826736562 0.41782142512718179 0 -0.052348782114849703 0.4205699325614955 0 -0.04716250008800589 0.43063342757595657 0 -0.048562340741883828 0.40393162030822699 0 -0.02693109872113511 0.41362897140156718 0 -0.039442786826736562 0.41782142512718179 0 -0.048562340741883828 0.40393162030822699 0 -0.02693109872113511 0.41362897140156718 0 -0.048562340741883828 0.40393162030822699 0 -0.039442786826736562 0.41782142512718179 0 -0.049709259188256083 0.40953175970911998 0 -0.067084408755435337 0.39562812130757691 0 -0.052348782114849703 0.4205699325614955 0 -0.067084408755435337 0.39562812130757691 0 -0.049709259188256083 0.40953175970911998 0 -0.052348782114849703 0.4205699325614955 0 -0.048562340741883828 0.40393162030822699 0 -0.049709259188256083 0.40953175970911998 0 -0.039442786826736562 0.41782142512718179 0 -0.049709259188256083 0.40953175970911998 0 -0.052348782114849703 0.4205699325614955 0 -0.068402860533980134 0.41950584126327162 0 -0.052348782114849703 0.4205699325614955 0 -0.058877829650657493 0.43168947104856298 0 -0.04716250008800589 0.43063342757595657 0 -0.058877829650657493 0.43168947104856298 0 -0.052118079903095367 0.44190698167726999 0 -0.052348782114849703 0.4205699325614955 0 -0.04716250008800589 0.43063342757595657 0 -0.058877829650657493 0.43168947104856298 0 -0.055172266324007881 0.45014425433437832 0 -0.052118079903095367 0.44190698167726999 0 -0.063156146311379599 0.44311474287945929 0 -0.058877829650657493 0.43168947104856298 0 -0.052118079903095367 0.44190698167726999 0 -0.063156146311379599 0.44311474287945929 0 -0.055172266324007881 0.45014425433437832 0 -0.063156146311379599 0.44311474287945929 0 -0.067835529742304085 0.45229992887139481 0 -0.055172266324007881 0.45014425433437832 0 -0.052118079903095367 0.44190698167726999 0 -0.042427744809699422 0.45202077150177877 0 -0.050323830853560937 0.46137884674198898 0 -0.067086901488520423 0.4631595415672049 0 -0.067835529742304085 0.45229992887139481 0 -0.055172266324007881 0.45014425433437832 0 -0.050323830853560937 0.46137884674198898 0 -0.067835529742304085 0.45229992887139481 0 -0.050323830853560937 0.46137884674198898 0 -0.067835529742304085 0.45229992887139481 0 -0.050323830853560937 0.46137884674198898 0 -0.045185707992022248 0.47568066773521672 0 -0.067086901488520423 0.4631595415672049 0 -0.055172266324007881 0.45014425433437832 0 -0.050323830853560937 0.46137884674198898 0 -0.042427744809699422 0.45202077150177877 0 -0.050323830853560937 0.46137884674198898 0 -0.039092617418532323 0.46478461605930832 0 -0.045185707992022248 0.47568066773521672 0 -0.050323830853560937 0.46137884674198898 0 -0.039092617418532323 0.46478461605930832 0 -0.042427744809699422 0.45202077150177877 0 -0.039092617418532323 0.46478461605930832 0 -0.042427744809699422 0.45202077150177877 0 -0.02730075804887229 0.45837001609354489 0 -0.039092617418532323 0.46478461605930832 0 -0.02730075804887229 0.45837001609354489 0 -0.029085440409622899 0.47302425999642828 0 -0.04716250008800589 0.43063342757595657 0 -0.052118079903095367 0.44190698167726999 0 -0.033363795900300662 0.44008258797786221 0 -0.033363795900300662 0.44008258797786221 0 -0.042427744809699422 0.45202077150177877 0 -0.02730075804887229 0.45837001609354489 0 -0.052118079903095367 0.44190698167726999 0 -0.033363795900300662 0.44008258797786221 0 -0.042427744809699422 0.45202077150177877 0 -0.022156471655861699 0.42925103954650079 0 -0.033363795900300662 0.44008258797786221 0 -0.011543683377056991 0.44623855039741162 0 -0.033363795900300662 0.44008258797786221 0 -0.02730075804887229 0.45837001609354489 0 -0.011543683377056991 0.44623855039741162 0 -0.02730075804887229 0.45837001609354489 0 -0.0070577174092844308 0.47182979877582337 0 -0.029085440409622899 0.47302425999642828 0 -0.011543683377056991 0.44623855039741162 0 -0.0070577174092844308 0.47182979877582337 0 0.0091690796769560295 0.45545780364841948 0 -0.02730075804887229 0.45837001609354489 0 -0.011543683377056991 0.44623855039741162 0 -0.0070577174092844308 0.47182979877582337 0 -0.0026478088853558821 0.50000000000000178 0 -0.02328451449552383 0.48820179390322821 0 -0.0026478088853558821 0.50000000000000178 0 -0.0087387389835913432 0.48480090010242438 0 -0.02328451449552383 0.48820179390322821 0 -0.0026478088853558821 0.50000000000000178 0 -0.01881294746164008 0.5 0 -0.02328451449552383 0.48820179390322821 0 -0.0026478088853558821 0.50000000000000178 0 -0.0087387389835913432 0.48480090010242438 0 0.007195684502623232 0.48555207402655409 0 -0.0087387389835913432 0.48480090010242438 0 -0.0070577174092844308 0.47182979877582337 0 -0.02328451449552383 0.48820179390322821 0 -0.0087387389835913432 0.48480090010242438 0 -0.0070577174092844308 0.47182979877582337 0 0.0099549597849691446 0.46760228601191928 0 -0.0070577174092844308 0.47182979877582337 0 -0.02328451449552383 0.48820179390322821 0 -0.0070577174092844308 0.47182979877582337 0 -0.029085440409622899 0.47302425999642828 0 -0.02328451449552383 0.48820179390322821 0 -0.01881294746164008 0.5 0 -0.02328451449552383 0.48820179390322821 0 -0.03497808603792428 0.50000000000000422 0 -0.02328451449552383 0.48820179390322821 0 -0.03497808603792428 0.50000000000000422 0 -0.02328451449552383 0.48820179390322821 0 -0.045185707992022248 0.47568066773521672 0 -0.047274774760328583 0.49036451706219109 0 -0.02328451449552383 0.48820179390322821 0 -0.03497808603792428 0.50000000000000422 0 -0.047274774760328583 0.49036451706219109 0 -0.029085440409622899 0.47302425999642828 0 -0.02328451449552383 0.48820179390322821 0 -0.045185707992022248 0.47568066773521672 0 -0.02328451449552383 0.48820179390322821 0 -0.045185707992022248 0.47568066773521672 0 -0.039092617418532323 0.46478461605930832 0 -0.029085440409622899 0.47302425999642828 0 -0.045185707992022248 0.47568066773521672 0 -0.045185707992022248 0.47568066773521672 0 -0.063219884115409228 0.48016449380889281 0 -0.067086901488520423 0.4631595415672049 0 -0.045185707992022248 0.47568066773521672 0 -0.047274774760328583 0.49036451706219109 0 -0.063219884115409228 0.48016449380889281 0 -0.045185707992022248 0.47568066773521672 0 -0.067086901488520423 0.4631595415672049 0 -0.03497808603792428 0.50000000000000422 0 -0.06146217573610202 0.5 0 -0.047274774760328583 0.49036451706219109 0 -0.06146217573610202 0.5 0 -0.047274774760328583 0.49036451706219109 0 -0.063219884115409228 0.48016449380889281 0 -0.06146217573610202 0.5 0 -0.087946265434279858 0.5 0 -0.080347275462635481 0.48190236550767213 0 -0.06146217573610202 0.5 0 -0.080347275462635481 0.48190236550767213 0 -0.063219884115409228 0.48016449380889281 0 -0.087946265434279858 0.5 0 -0.080347275462635481 0.48190236550767213 0 -0.10183674132105131 0.48229179202325267 0 -0.092142612953967293 0.47045604941576957 0 -0.080347275462635481 0.48190236550767213 0 -0.10183674132105131 0.48229179202325267 0 -0.092142612953967293 0.47045604941576957 0 -0.080347275462635481 0.48190236550767213 0 -0.077017113126165174 0.46898817030863987 0 -0.080347275462635481 0.48190236550767213 0 -0.063219884115409228 0.48016449380889281 0 -0.077017113126165174 0.46898817030863987 0 -0.063219884115409228 0.48016449380889281 0 -0.077017113126165174 0.46898817030863987 0 -0.067086901488520423 0.4631595415672049 0 -0.067086901488520423 0.4631595415672049 0 -0.073881451749328267 0.45817232652530981 0 -0.067835529742304085 0.45229992887139481 0 -0.073881451749328267 0.45817232652530981 0 -0.067835529742304085 0.45229992887139481 0 -0.079291224734157575 0.45281561882897892 0 -0.077017113126165174 0.46898817030863987 0 -0.067086901488520423 0.4631595415672049 0 -0.073881451749328267 0.45817232652530981 0 -0.077017113126165174 0.46898817030863987 0 -0.073881451749328267 0.45817232652530981 0 -0.082289913498719655 0.45875197998190881 0 -0.067835529742304085 0.45229992887139481 0 -0.075153698424577919 0.44544520590111009 0 -0.08534722863104835 0.44322101100080291 0 -0.067835529742304085 0.45229992887139481 0 -0.08534722863104835 0.44322101100080291 0 -0.067835529742304085 0.45229992887139481 0 -0.08534722863104835 0.44322101100080291 0 -0.079291224734157575 0.45281561882897892 0 -0.071029409566268076 0.43440036481462369 0 -0.063156146311379599 0.44311474287945929 0 -0.075153698424577919 0.44544520590111009 0 -0.063156146311379599 0.44311474287945929 0 -0.067835529742304085 0.45229992887139481 0 -0.075153698424577919 0.44544520590111009 0 -0.071029409566268076 0.43440036481462369 0 -0.075153698424577919 0.44544520590111009 0 -0.078253872046133405 0.43794260745546171 0 -0.075153698424577919 0.44544520590111009 0 -0.078253872046133405 0.43794260745546171 0 -0.079649474655153346 0.44291110478674223 0 -0.1024358380961574 0.43436144330025489 0 -0.08534722863104835 0.44322101100080291 0 -0.086002469284078037 0.43755437721914547 0 -0.08534722863104835 0.44322101100080291 0 -0.088315861892157177 0.45416370806822348 0 -0.10478383023456379 0.46076287181079312 0 -0.075153698424577919 0.44544520590111009 0 -0.079649474655153346 0.44291110478674223 0 -0.08534722863104835 0.44322101100080291 0 -0.082150336493054366 0.440114077729027 0 -0.078253872046133405 0.43794260745546171 0 -0.086002469284078037 0.43755437721914547 0 -0.082150336493054366 0.440114077729027 0 -0.08534722863104835 0.44322101100080291 0 -0.086002469284078037 0.43755437721914547 0 -0.082150336493054366 0.440114077729027 0 -0.078253872046133405 0.43794260745546171 0 -0.079649474655153346 0.44291110478674223 0 -0.082150336493054366 0.440114077729027 0 -0.079649474655153346 0.44291110478674223 0 -0.082988561018816284 0.44224495586142493 0 -0.079649474655153346 0.44291110478674223 0 -0.082988561018816284 0.44224495586142493 0 -0.08534722863104835 0.44322101100080291 0 -0.082150336493054366 0.440114077729027 0 -0.082988561018816284 0.44224495586142493 0 -0.08534722863104835 0.44322101100080291 0 -0.08534722863104835 0.44322101100080291 0 -0.079291224734157575 0.45281561882897892 0 -0.088315861892157177 0.45416370806822348 0 -0.092142612953967293 0.47045604941576957 0 -0.077017113126165174 0.46898817030863987 0 -0.082289913498719655 0.45875197998190881 0 -0.073881451749328267 0.45817232652530981 0 -0.079291224734157575 0.45281561882897892 0 -0.082289913498719655 0.45875197998190881 0 -0.079291224734157575 0.45281561882897892 0 -0.082289913498719655 0.45875197998190881 0 -0.088315861892157177 0.45416370806822348 0 -0.082289913498719655 0.45875197998190881 0 -0.088315861892157177 0.45416370806822348 0 -0.091883054644851983 0.46103365231917381 0 -0.092142612953967293 0.47045604941576957 0 -0.082289913498719655 0.45875197998190881 0 -0.091883054644851983 0.46103365231917381 0 -0.088315861892157177 0.45416370806822348 0 -0.091883054644851983 0.46103365231917381 0 -0.10478383023456379 0.46076287181079312 0 -0.092142612953967293 0.47045604941576957 0 -0.091883054644851983 0.46103365231917381 0 -0.10478383023456379 0.46076287181079312 0 -0.1024358380961574 0.43436144330025489 0 -0.08534722863104835 0.44322101100080291 0 -0.10478383023456379 0.46076287181079312 0 -0.08534722863104835 0.44322101100080291 0 -0.10478383023456379 0.46076287181079312 0 -0.1024358380961574 0.43436144330025489 0 -0.08534722863104835 0.44322101100080291 0 -0.1024358380961574 0.43436144330025489 0 -0.1231102128986111 0.44164965171733012 0 -0.1024358380961574 0.43436144330025489 0 -0.10478383023456379 0.46076287181079312 0 -0.1231102128986111 0.44164965171733012 0 -0.12614476549805431 0.4611122041341717 0 -0.10478383023456379 0.46076287181079312 0 -0.1242204318380799 0.47830473262078288 0 -0.12614476549805431 0.4611122041341717 0 -0.10478383023456379 0.46076287181079312 0 -0.1231102128986111 0.44164965171733012 0 -0.10478383023456379 0.46076287181079312 0 -0.1242204318380799 0.47830473262078288 0 -0.10183674132105131 0.48229179202325267 0 -0.10478383023456379 0.46076287181079312 0 -0.1242204318380799 0.47830473262078288 0 -0.1242204318380799 0.47830473262078288 0 -0.1144303551324576 0.5 0 -0.10183674132105131 0.48229179202325267 0 -0.087946265434279858 0.5 0 -0.1144303551324576 0.5 0 -0.10183674132105131 0.48229179202325267 0 -0.092142612953967293 0.47045604941576957 0 -0.10478383023456379 0.46076287181079312 0 -0.10183674132105131 0.48229179202325267 0 -0.15876041169345931 0.0925574672389822 0 -0.16009620104017949 0.079006303003244113 0 -0.17228225418952309 0.086674789792389934 0 -0.16009620104017949 0.079006303003244113 0 -0.17346614746422759 0.067011802665080666 0 -0.17228225418952309 0.086674789792389934 0 -0.16009620104017949 0.079006303003244113 0 -0.17346614746422759 0.067011802665080666 0 -0.14838807837857729 0.065614822251067961 0 -0.17346614746422759 0.067011802665080666 0 -0.17228225418952309 0.086674789792389934 0 -0.192547197990799 0.079368083981294121 0 -0.17346614746422759 0.067011802665080666 0 -0.19155994038416929 0.052863474537517011 0 -0.192547197990799 0.079368083981294121 0 -0.17228225418952309 0.086674789792389934 0 -0.18311263277446549 0.1008407857276956 0 -0.192547197990799 0.079368083981294121 0 -0.17228225418952309 0.086674789792389934 0 -0.18311263277446549 0.1008407857276956 0 -0.16533558253418881 0.10711395147296909 0 -0.18311263277446549 0.1008407857276956 0 -0.1775615252023004 0.1167727706201571 0 -0.16533558253418881 0.10711395147296909 0 -0.18311263277446549 0.1008407857276956 0 -0.1775615252023004 0.1167727706201571 0 -0.193063527233269 0.1186017105891264 0 -0.1775615252023004 0.1167727706201571 0 -0.193063527233269 0.1186017105891264 0 -0.1816480875392007 0.13386555172959469 0 -0.1671795633116864 0.11767079264746171 0 -0.15643775415811159 0.11938079902363 0 -0.16938339135214481 0.12741564947309081 0 -0.1775615252023004 0.1167727706201571 0 -0.1671795633116864 0.11767079264746171 0 -0.16938339135214481 0.12741564947309081 0 -0.1775615252023004 0.1167727706201571 0 -0.1671795633116864 0.11767079264746171 0 -0.16533558253418881 0.10711395147296909 0 -0.1671795633116864 0.11767079264746171 0 -0.15643775415811159 0.11938079902363 0 -0.16533558253418881 0.10711395147296909 0 -0.15643775415811159 0.11938079902363 0 -0.16533558253418881 0.10711395147296909 0 -0.1510381771220993 0.10472642375448379 0 -0.15876041169345931 0.0925574672389822 0 -0.17228225418952309 0.086674789792389934 0 -0.16533558253418881 0.10711395147296909 0 -0.15876041169345931 0.0925574672389822 0 -0.16533558253418881 0.10711395147296909 0 -0.1510381771220993 0.10472642375448379 0 -0.1510381771220993 0.10472642375448379 0 -0.13599587260611071 0.10316055969234519 0 -0.14706402499744781 0.088285356971321866 0 -0.15876041169345931 0.0925574672389822 0 -0.1510381771220993 0.10472642375448379 0 -0.14706402499744781 0.088285356971321866 0 -0.1510381771220993 0.10472642375448379 0 -0.1423872147350122 0.1116005212142888 0 -0.13599587260611071 0.10316055969234519 0 -0.15643775415811159 0.11938079902363 0 -0.1436769000821792 0.1218582351064668 0 -0.15168790313460401 0.13157208832919101 0 -0.15643775415811159 0.11938079902363 0 -0.1510381771220993 0.10472642375448379 0 -0.1423872147350122 0.1116005212142888 0 -0.15643775415811159 0.11938079902363 0 -0.1423872147350122 0.1116005212142888 0 -0.1436769000821792 0.1218582351064668 0 -0.1436769000821792 0.1218582351064668 0 -0.13127308015220099 0.11796981656743449 0 -0.13186633641382831 0.12962204322641471 0 -0.1423872147350122 0.1116005212142888 0 -0.13127308015220099 0.11796981656743449 0 -0.13599587260611071 0.10316055969234519 0 -0.1423872147350122 0.1116005212142888 0 -0.1436769000821792 0.1218582351064668 0 -0.13127308015220099 0.11796981656743449 0 -0.13127308015220099 0.11796981656743449 0 -0.12498508506313841 0.10687730506524611 0 -0.12036468150963781 0.12182649508351021 0 -0.13127308015220099 0.11796981656743449 0 -0.13186633641382831 0.12962204322641471 0 -0.12036468150963781 0.12182649508351021 0 -0.13599587260611071 0.10316055969234519 0 -0.12831916191688239 0.087299412599157813 0 -0.12498508506313841 0.10687730506524611 0 -0.13127308015220099 0.11796981656743449 0 -0.13599587260611071 0.10316055969234519 0 -0.12498508506313841 0.10687730506524611 0 -0.13599587260611071 0.10316055969234519 0 -0.12831916191688239 0.087299412599157813 0 -0.14706402499744781 0.088285356971321866 0 -0.12831916191688239 0.087299412599157813 0 -0.14706402499744781 0.088285356971321866 0 -0.14838807837857729 0.065614822251067961 0 -0.15876041169345931 0.0925574672389822 0 -0.16009620104017949 0.079006303003244113 0 -0.14706402499744781 0.088285356971321866 0 -0.16009620104017949 0.079006303003244113 0 -0.14706402499744781 0.088285356971321866 0 -0.14838807837857729 0.065614822251067961 0 -0.12831916191688239 0.087299412599157813 0 -0.14838807837857729 0.065614822251067961 0 -0.12259424881628921 0.07311990635227042 0 -0.12831916191688239 0.087299412599157813 0 -0.14838807837857729 0.065614822251067961 0 -0.13221835019387521 0.045559841303602473 0 -0.12259424881628921 0.07311990635227042 0 -0.14838807837857729 0.065614822251067961 0 -0.13221835019387521 0.045559841303602473 0 -0.12259424881628921 0.07311990635227042 0 -0.13221835019387521 0.045559841303602473 0 -0.14625211771231039 0.031018172745912429 0 -0.14184245157145731 0.017999776254933032 0 -0.13221835019387521 0.045559841303602473 0 -0.14184245157145731 0.017999776254933032 0 -0.13221835019387521 0.045559841303602473 0 -0.1252633286195389 0.0259300678444884 0 -0.1179997896040296 0.037241119001395047 0 -0.13221835019387521 0.045559841303602473 0 -0.15026201608533629 0.042355150639171862 0 -0.14625211771231039 0.031018172745912429 0 -0.15026201608533629 0.042355150639171862 0 -0.14625211771231039 0.031018172745912429 0 -0.1570641404198026 0.028913994872190631 0 -0.14838807837857729 0.065614822251067961 0 -0.15026201608533629 0.042355150639171862 0 -0.16845699484027229 0.043930231902977908 0 -0.14838807837857729 0.065614822251067961 0 -0.13221835019387521 0.045559841303602473 0 -0.15026201608533629 0.042355150639171862 0 -0.12905663811260151 0.014123424841729791 0 -0.14549820555302331 0.0075309736539515872 0 -0.1291944312396914 0.0041045353414499199 0 -0.12905663811260151 0.014123424841729791 0 -0.14549820555302331 0.0075309736539515872 0 -0.13443834496835211 -0.0057144966104633061 0 -0.1291944312396914 0.0041045353414499199 0 -0.14549820555302331 0.0075309736539515872 0 -0.12905663811260151 0.014123424841729791 0 -0.14184245157145731 0.017999776254933032 0 -0.14549820555302331 0.0075309736539515872 0 -0.1291944312396914 0.0041045353414499199 0 -0.12905663811260151 0.014123424841729791 0 -0.11815406400030549 0.0084873731821777793 0 -0.1252633286195389 0.0259300678444884 0 -0.14184245157145731 0.017999776254933032 0 -0.12905663811260151 0.014123424841729791 0 -0.1252633286195389 0.0259300678444884 0 -0.14184245157145731 0.017999776254933032 0 -0.13221835019387521 0.045559841303602473 0 -0.1252633286195389 0.0259300678444884 0 -0.14184245157145731 0.017999776254933032 0 -0.14625211771231039 0.031018172745912429 0 -0.15053316178509121 0.018390522018949109 0 -0.1570641404198026 0.028913994872190631 0 -0.15053316178509121 0.018390522018949109 0 -0.1582484341212696 0.016371219518669131 0 -0.1570641404198026 0.028913994872190631 0 -0.15053316178509121 0.018390522018949109 0 -0.15071421965180529 0.013756143585324501 0 -0.1582484341212696 0.016371219518669131 0 -0.15053316178509121 0.018390522018949109 0 -0.15071421965180529 0.013756143585324501 0 -0.14625211771231039 0.031018172745912429 0 -0.15053316178509121 0.018390522018949109 0 -0.14184245157145731 0.017999776254933032 0 -0.14184245157145731 0.017999776254933032 0 -0.15071421965180529 0.013756143585324501 0 -0.15053316178509121 0.018390522018949109 0 -0.14184245157145731 0.017999776254933032 0 -0.15071421965180529 0.013756143585324501 0 -0.15164513545537861 -0.010071686720453939 0 -0.14849449428643871 0.0063295743779320374 0 -0.14549820555302331 0.0075309736539515872 0 -0.15164513545537861 -0.010071686720453939 0 -0.15071421965180529 0.013756143585324501 0 -0.14849449428643871 0.0063295743779320374 0 -0.15164513545537861 -0.010071686720453939 0 -0.15071421965180529 0.013756143585324501 0 -0.15164513545537861 -0.010071686720453939 0 -0.15071421965180529 0.013756143585324501 0 -0.16094102211374159 0.0088643573438431378 0 -0.14184245157145731 0.017999776254933032 0 -0.14549820555302331 0.0075309736539515872 0 -0.14184245157145731 0.017999776254933032 0 -0.15071421965180529 0.013756143585324501 0 -0.14549820555302331 0.0075309736539515872 0 -0.15071421965180529 0.013756143585324501 0 -0.14849449428643871 0.0063295743779320374 0 -0.14549820555302331 0.0075309736539515872 0 -0.15071421965180529 0.013756143585324501 0 -0.16094102211374159 0.0088643573438431378 0 -0.14849449428643871 0.0063295743779320374 0 -0.14549820555302331 0.0075309736539515872 0 -0.16094102211374159 0.0088643573438431378 0 -0.16863211797453581 0.021418672407463341 0 -0.17946841454955409 0.0056100970778848987 0 -0.166761735875191 -0.0073857624883872791 0 -0.16094102211374159 0.0088643573438431378 0 -0.17946841454955409 0.0056100970778848987 0 -0.15071421965180529 0.013756143585324501 0 -0.16094102211374159 0.0088643573438431378 0 -0.1582484341212696 0.016371219518669131 0 -0.16094102211374159 0.0088643573438431378 0 -0.16863211797453581 0.021418672407463341 0 -0.1582484341212696 0.016371219518669131 0 -0.16863211797453581 0.021418672407463341 0 -0.1582484341212696 0.016371219518669131 0 -0.1570641404198026 0.028913994872190631 0 -0.16863211797453581 0.021418672407463341 0 -0.16845699484027229 0.043930231902977908 0 -0.1885259113019673 0.02224564155488783 0 -0.16863211797453581 0.021418672407463341 0 -0.17946841454955409 0.0056100970778848987 0 -0.1885259113019673 0.02224564155488783 0 -0.14838807837857729 0.065614822251067961 0 -0.16845699484027229 0.043930231902977908 0 -0.17346614746422759 0.067011802665080666 0 -0.14838807837857729 0.065614822251067961 0 -0.16845699484027229 0.043930231902977908 0 -0.15026201608533629 0.042355150639171862 0 -0.1570641404198026 0.028913994872190631 0 -0.16845699484027229 0.043930231902977908 0 -0.16863211797453581 0.021418672407463341 0 -0.1570641404198026 0.028913994872190631 0 -0.16845699484027229 0.043930231902977908 0 -0.16845699484027229 0.043930231902977908 0 -0.19155994038416929 0.052863474537517011 0 -0.1885259113019673 0.02224564155488783 0 -0.16845699484027229 0.043930231902977908 0 -0.1885259113019673 0.02224564155488783 0 -0.17346614746422759 0.067011802665080666 0 -0.16845699484027229 0.043930231902977908 0 -0.19155994038416929 0.052863474537517011 0 -0.19155994038416929 0.052863474537517011 0 -0.21242471577330599 0.041185048404524673 0 -0.1885259113019673 0.02224564155488783 0 -0.19155994038416929 0.052863474537517011 0 -0.21242471577330599 0.041185048404524673 0 -0.21375936553629049 0.065272753001030637 0 -0.21242471577330599 0.041185048404524673 0 -0.1885259113019673 0.02224564155488783 0 -0.22178955381057869 0.021567181546350549 0 -0.1885259113019673 0.02224564155488783 0 -0.20859482776366231 0.00056105120679781489 0 -0.22178955381057869 0.021567181546350549 0 -0.17946841454955409 0.0056100970778848987 0 -0.1885259113019673 0.02224564155488783 0 -0.20859482776366231 0.00056105120679781489 0 -0.1885259113019673 0.02224564155488783 0 -0.20859482776366231 0.00056105120679781489 0 -0.20859482776366231 0.00056105120679781489 0 -0.2334181717106491 0.0056181133983165578 0 -0.22178955381057869 0.021567181546350549 0 -0.2334181717106491 0.0056181133983165578 0 -0.22178955381057869 0.021567181546350549 0 -0.24609087816622199 0.020100449583692271 0 -0.22178955381057869 0.021567181546350549 0 -0.24609087816622199 0.020100449583692271 0 -0.24168281814766621 0.039692785129884181 0 -0.2334181717106491 0.0056181133983165578 0 -0.24609087816622199 0.020100449583692271 0 -0.2459253282718992 0.0032477469373470829 0 -0.2375712503994746 -0.0066014752189344121 0 -0.2334181717106491 0.0056181133983165578 0 -0.2459253282718992 0.0032477469373470829 0 -0.21242471577330599 0.041185048404524673 0 -0.24168281814766621 0.039692785129884181 0 -0.23586242867473051 0.060692165078337558 0 -0.21242471577330599 0.041185048404524673 0 -0.23586242867473051 0.060692165078337558 0 -0.21375936553629049 0.065272753001030637 0 -0.21242471577330599 0.041185048404524673 0 -0.22178955381057869 0.021567181546350549 0 -0.24168281814766621 0.039692785129884181 0 -0.26060190944484068 0.058063245326308729 0 -0.24168281814766621 0.039692785129884181 0 -0.23586242867473051 0.060692165078337558 0 -0.23586242867473051 0.060692165078337558 0 -0.2351371319120725 0.089440840196117671 0 -0.25902866719658019 0.081988633488699031 0 -0.23586242867473051 0.060692165078337558 0 -0.2351371319120725 0.089440840196117671 0 -0.25089302828754872 0.1010279180716174 0 -0.25902866719658019 0.081988633488699031 0 -0.2351371319120725 0.089440840196117671 0 -0.2351371319120725 0.089440840196117671 0 -0.21375936553629049 0.065272753001030637 0 -0.2131484849403886 0.087264428083427756 0 -0.2351371319120725 0.089440840196117671 0 -0.2131484849403886 0.087264428083427756 0 -0.21902869528482499 0.10268555580885 0 -0.23586242867473051 0.060692165078337558 0 -0.2351371319120725 0.089440840196117671 0 -0.21375936553629049 0.065272753001030637 0 -0.21375936553629049 0.065272753001030637 0 -0.2131484849403886 0.087264428083427756 0 -0.192547197990799 0.079368083981294121 0 -0.18311263277446549 0.1008407857276956 0 -0.192547197990799 0.079368083981294121 0 -0.20111410106186589 0.10055492256713471 0 -0.2131484849403886 0.087264428083427756 0 -0.192547197990799 0.079368083981294121 0 -0.20111410106186589 0.10055492256713471 0 -0.19155994038416929 0.052863474537517011 0 -0.21375936553629049 0.065272753001030637 0 -0.192547197990799 0.079368083981294121 0 -0.193063527233269 0.1186017105891264 0 -0.20111410106186589 0.10055492256713471 0 -0.21133192336038359 0.1179780728836724 0 -0.18311263277446549 0.1008407857276956 0 -0.193063527233269 0.1186017105891264 0 -0.20111410106186589 0.10055492256713471 0 -0.2131484849403886 0.087264428083427756 0 -0.20111410106186589 0.10055492256713471 0 -0.21902869528482499 0.10268555580885 0 -0.20111410106186589 0.10055492256713471 0 -0.21133192336038359 0.1179780728836724 0 -0.21902869528482499 0.10268555580885 0 -0.21133192336038359 0.1179780728836724 0 -0.21902869528482499 0.10268555580885 0 -0.2344118351494146 0.1181895153138976 0 -0.21133192336038359 0.1179780728836724 0 -0.2344118351494146 0.1181895153138976 0 -0.21743287987325929 0.13386008544736361 0 -0.2351371319120725 0.089440840196117671 0 -0.21902869528482499 0.10268555580885 0 -0.2344118351494146 0.1181895153138976 0 -0.25089302828754872 0.1010279180716174 0 -0.2351371319120725 0.089440840196117671 0 -0.2344118351494146 0.1181895153138976 0 -0.2351371319120725 0.089440840196117671 0 -0.2344118351494146 0.1181895153138976 0 -0.25478247939872278 0.1167748463476304 0 -0.25089302828754872 0.1010279180716174 0 -0.2344118351494146 0.1181895153138976 0 -0.25478247939872278 0.1167748463476304 0 -0.2344118351494146 0.1181895153138976 0 -0.24654633774657539 0.1284046340924572 0 -0.2344118351494146 0.1181895153138976 0 -0.23368653838675671 0.14693819043167761 0 -0.23991918127255549 0.14281558832905911 0 -0.2344118351494146 0.1181895153138976 0 -0.24654633774657539 0.1284046340924572 0 -0.23991918127255549 0.14281558832905911 0 -0.25270287220698268 0.13457527676023789 0 -0.24654633774657539 0.1284046340924572 0 -0.24905264270060931 0.14173952472264159 0 -0.24654633774657539 0.1284046340924572 0 -0.23991918127255549 0.14281558832905911 0 -0.24905264270060931 0.14173952472264159 0 -0.2344118351494146 0.1181895153138976 0 -0.23368653838675671 0.14693819043167761 0 -0.2344118351494146 0.1181895153138976 0 -0.22476626975714581 0.14019724493437949 0 -0.21743287987325929 0.13386008544736361 0 -0.2344118351494146 0.1181895153138976 0 -0.22476626975714581 0.14019724493437949 0 -0.23368653838675671 0.14693819043167761 0 -0.22476626975714581 0.14019724493437949 0 -0.21743287987325929 0.13386008544736361 0 -0.21466245083229099 0.14915897357706329 0 -0.22476626975714581 0.14019724493437949 0 -0.2236376445440072 0.1528394599018956 0 -0.21466245083229099 0.14915897357706329 0 -0.22476626975714581 0.14019724493437949 0 -0.2236376445440072 0.1528394599018956 0 -0.23368653838675671 0.14693819043167761 0 -0.2236376445440072 0.1528394599018956 0 -0.23368653838675671 0.14693819043167761 0 -0.23463639072475401 0.1568329046843194 0 -0.25231996688782288 0.14999036497700921 0 -0.23991918127255549 0.14281558832905911 0 -0.24537043529135269 0.16590981314459491 0 -0.23991918127255549 0.14281558832905911 0 -0.24537043529135269 0.16590981314459491 0 -0.23368653838675671 0.14693819043167761 0 -0.23991918127255549 0.14281558832905911 0 -0.23463639072475401 0.1568329046843194 0 -0.23991918127255549 0.14281558832905911 0 -0.24537043529135269 0.16590981314459491 0 -0.23463639072475401 0.1568329046843194 0 -0.25231996688782288 0.14999036497700921 0 -0.23991918127255549 0.14281558832905911 0 -0.24905264270060931 0.14173952472264159 0 -0.24537043529135269 0.16590981314459491 0 -0.23448735499098 0.16949473470421059 0 -0.23463639072475401 0.1568329046843194 0 -0.25083273839331149 0.18900142988995439 0 -0.24537043529135269 0.16590981314459491 0 -0.25083273839331149 0.18900142988995439 0 -0.23448735499098 0.16949473470421059 0 -0.22819158261301831 0.1787622171697372 0 -0.25083273839331149 0.18900142988995439 0 -0.22819158261301831 0.1787622171697372 0 -0.22962358303744271 0.1933982444320429 0 -0.25083273839331149 0.18900142988995439 0 -0.24537043529135269 0.16590981314459491 0 -0.23448735499098 0.16949473470421059 0 -0.23448735499098 0.16949473470421059 0 -0.22819158261301831 0.1787622171697372 0 -0.21044933501205751 0.16814462792112481 0 -0.22819158261301831 0.1787622171697372 0 -0.2146034324719984 0.18653418896414339 0 -0.22962358303744271 0.1933982444320429 0 -0.23463639072475401 0.1568329046843194 0 -0.21044933501205751 0.16814462792112481 0 -0.23448735499098 0.16949473470421059 0 -0.23463639072475401 0.1568329046843194 0 -0.21044933501205751 0.16814462792112481 0 -0.2236376445440072 0.1528394599018956 0 -0.23463639072475401 0.1568329046843194 0 -0.21044933501205751 0.16814462792112481 0 -0.21044933501205751 0.16814462792112481 0 -0.21466245083229099 0.14915897357706329 0 -0.20494847731601409 0.15546982907879769 0 -0.2236376445440072 0.1528394599018956 0 -0.21044933501205751 0.16814462792112481 0 -0.21466245083229099 0.14915897357706329 0 -0.21044933501205751 0.16814462792112481 0 -0.2146034324719984 0.18653418896414339 0 -0.20040335680126151 0.1836830194395489 0 -0.22819158261301831 0.1787622171697372 0 -0.21044933501205751 0.16814462792112481 0 -0.2146034324719984 0.18653418896414339 0 -0.21044933501205751 0.16814462792112481 0 -0.18626227929936059 0.1794563511579291 0 -0.21044933501205751 0.16814462792112481 0 -0.20040335680126151 0.1836830194395489 0 -0.18626227929936059 0.1794563511579291 0 -0.20040335680126151 0.1836830194395489 0 -0.19190511228061841 0.19100882278138739 0 -0.18626227929936059 0.1794563511579291 0 -0.1925958914534272 0.16369119786878539 0 -0.18626227929936059 0.1794563511579291 0 -0.21044933501205751 0.16814462792112481 0 -0.1925958914534272 0.16369119786878539 0 -0.20494847731601409 0.15546982907879769 0 -0.21044933501205751 0.16814462792112481 0 -0.1925958914534272 0.16369119786878539 0 -0.18626227929936059 0.1794563511579291 0 -0.1925958914534272 0.16369119786878539 0 -0.20200468226003049 0.14085126256689159 0 -0.20494847731601409 0.15546982907879769 0 -0.20200468226003049 0.14085126256689159 0 -0.1816480875392007 0.13386555172959469 0 -0.18572053401925459 0.14772394484669271 0 -0.1925958914534272 0.16369119786878539 0 -0.20200468226003049 0.14085126256689159 0 -0.1925958914534272 0.16369119786878539 0 -0.20200468226003049 0.14085126256689159 0 -0.18572053401925459 0.14772394484669271 0 -0.193063527233269 0.1186017105891264 0 -0.21133192336038359 0.1179780728836724 0 -0.20200468226003049 0.14085126256689159 0 -0.193063527233269 0.1186017105891264 0 -0.20200468226003049 0.14085126256689159 0 -0.1816480875392007 0.13386555172959469 0 -0.21133192336038359 0.1179780728836724 0 -0.20200468226003049 0.14085126256689159 0 -0.21743287987325929 0.13386008544736361 0 -0.21133192336038359 0.1179780728836724 0 -0.20200468226003049 0.14085126256689159 0 -0.20200468226003049 0.14085126256689159 0 -0.21743287987325929 0.13386008544736361 0 -0.21466245083229099 0.14915897357706329 0 -0.20200468226003049 0.14085126256689159 0 -0.21466245083229099 0.14915897357706329 0 -0.20494847731601409 0.15546982907879769 0 -0.2328052521041879 0.26216167743402252 0 -0.24729232979450469 0.2396916628870277 0 -0.230508514647143 0.23043941686541969 0 -0.2328052521041879 0.26216167743402252 0 -0.2069158870069982 0.25105919889929779 0 -0.230508514647143 0.23043941686541969 0 -0.25745122668553339 0.2170900574415493 0 -0.24729232979450469 0.2396916628870277 0 -0.230508514647143 0.23043941686541969 0 -0.230508514647143 0.23043941686541969 0 -0.21653641572042501 0.20588270943650239 0 -0.21032290073364329 0.22522763630894591 0 -0.230508514647143 0.23043941686541969 0 -0.2379537459884605 0.2068106766998774 0 -0.21653641572042501 0.20588270943650239 0 -0.25083273839331149 0.18900142988995439 0 -0.25745122668553339 0.2170900574415493 0 -0.2379537459884605 0.2068106766998774 0 -0.25745122668553339 0.2170900574415493 0 -0.230508514647143 0.23043941686541969 0 -0.2379537459884605 0.2068106766998774 0 -0.25083273839331149 0.18900142988995439 0 -0.2379537459884605 0.2068106766998774 0 -0.22962358303744271 0.1933982444320429 0 -0.2379537459884605 0.2068106766998774 0 -0.22962358303744271 0.1933982444320429 0 -0.21653641572042501 0.20588270943650239 0 -0.2146034324719984 0.18653418896414339 0 -0.22962358303744271 0.1933982444320429 0 -0.21653641572042501 0.20588270943650239 0 -0.2146034324719984 0.18653418896414339 0 -0.20191991958251801 0.19457228587319569 0 -0.21653641572042501 0.20588270943650239 0 -0.2146034324719984 0.18653418896414339 0 -0.20040335680126151 0.1836830194395489 0 -0.20191991958251801 0.19457228587319569 0 -0.20040335680126151 0.1836830194395489 0 -0.20191991958251801 0.19457228587319569 0 -0.19190511228061841 0.19100882278138739 0 -0.20191991958251801 0.19457228587319569 0 -0.19190511228061841 0.19100882278138739 0 -0.19112780689407941 0.2020585764691723 0 -0.19190511228061841 0.19100882278138739 0 -0.19112780689407941 0.2020585764691723 0 -0.17981219882587321 0.1952738809670917 0 -0.20191991958251801 0.19457228587319569 0 -0.19112780689407941 0.2020585764691723 0 -0.20265225544943941 0.2090009968362011 0 -0.20265225544943941 0.2090009968362011 0 -0.1933542343165309 0.21726377609318909 0 -0.21032290073364329 0.22522763630894591 0 -0.19112780689407941 0.2020585764691723 0 -0.20265225544943941 0.2090009968362011 0 -0.1933542343165309 0.21726377609318909 0 -0.19112780689407941 0.2020585764691723 0 -0.1933542343165309 0.21726377609318909 0 -0.1819514893144594 0.20852772225069441 0 -0.20265225544943941 0.2090009968362011 0 -0.21653641572042501 0.20588270943650239 0 -0.21032290073364329 0.22522763630894591 0 -0.20191991958251801 0.19457228587319569 0 -0.20265225544943941 0.2090009968362011 0 -0.21653641572042501 0.20588270943650239 0 -0.1933542343165309 0.21726377609318909 0 -0.21032290073364329 0.22522763630894591 0 -0.19695286789214 0.23391362204099919 0 -0.1933542343165309 0.21726377609318909 0 -0.19695286789214 0.23391362204099919 0 -0.17676051721708441 0.22115292061535829 0 -0.2069158870069982 0.25105919889929779 0 -0.19695286789214 0.23391362204099919 0 -0.1810265219098085 0.23995672036457311 0 -0.2069158870069982 0.25105919889929779 0 -0.1810265219098085 0.23995672036457311 0 -0.2069158870069982 0.25105919889929779 0 -0.21032290073364329 0.22522763630894591 0 -0.19695286789214 0.23391362204099919 0 -0.2069158870069982 0.25105919889929779 0 -0.230508514647143 0.23043941686541969 0 -0.21032290073364329 0.22522763630894591 0 -0.15844826368726381 0.24258154149448821 0 -0.1810265219098085 0.23995672036457311 0 -0.15513715681261869 0.22885424182984859 0 -0.1690799129501761 0.25245421101349791 0 -0.15844826368726381 0.24258154149448821 0 -0.1810265219098085 0.23995672036457311 0 -0.1810265219098085 0.23995672036457311 0 -0.15513715681261869 0.22885424182984859 0 -0.15818960312719971 0.25356924451958068 0 -0.15844826368726381 0.24258154149448821 0 -0.15376339007017009 0.24618592337852629 0 -0.1690799129501761 0.25245421101349791 0 -0.15818960312719971 0.25356924451958068 0 -0.15844826368726381 0.24258154149448821 0 -0.19695286789214 0.23391362204099919 0 -0.1810265219098085 0.23995672036457311 0 -0.17676051721708441 0.22115292061535829 0 -0.1810265219098085 0.23995672036457311 0 -0.17676051721708441 0.22115292061535829 0 -0.15943109109208711 0.22808284760906281 0 -0.1810265219098085 0.23995672036457311 0 -0.15943109109208711 0.22808284760906281 0 -0.15513715681261869 0.22885424182984859 0 -0.15943109109208711 0.22808284760906281 0 -0.16430452301067119 0.2068996305863062 0 -0.15513715681261869 0.22885424182984859 0 -0.15943109109208711 0.22808284760906281 0 -0.15513715681261869 0.22885424182984859 0 -0.16430452301067119 0.2068996305863062 0 -0.15513715681261869 0.22885424182984859 0 -0.17676051721708441 0.22115292061535829 0 -0.15943109109208711 0.22808284760906281 0 -0.16430452301067119 0.2068996305863062 0 -0.16430452301067119 0.2068996305863062 0 -0.1511859404026365 0.20893536690500941 0 -0.15513715681261869 0.22885424182984859 0 -0.16430452301067119 0.2068996305863062 0 -0.16033527449533019 0.19931555195785991 0 -0.1511859404026365 0.20893536690500941 0 -0.1933542343165309 0.21726377609318909 0 -0.17676051721708441 0.22115292061535829 0 -0.1819514893144594 0.20852772225069441 0 -0.16430452301067119 0.2068996305863062 0 -0.1819514893144594 0.20852772225069441 0 -0.17981219882587321 0.1952738809670917 0 -0.17676051721708441 0.22115292061535829 0 -0.16430452301067119 0.2068996305863062 0 -0.1819514893144594 0.20852772225069441 0 -0.16430452301067119 0.2068996305863062 0 -0.17981219882587321 0.1952738809670917 0 -0.1740219045079815 0.18518088967140331 0 -0.19190511228061841 0.19100882278138739 0 -0.17981219882587321 0.1952738809670917 0 -0.18626227929936059 0.1794563511579291 0 -0.19112780689407941 0.2020585764691723 0 -0.1819514893144594 0.20852772225069441 0 -0.17981219882587321 0.1952738809670917 0 -0.16430452301067119 0.2068996305863062 0 -0.1740219045079815 0.18518088967140331 0 -0.1618232830269774 0.1908859011330192 0 -0.1740219045079815 0.18518088967140331 0 -0.16430452301067119 0.2068996305863062 0 -0.16033527449533019 0.19931555195785991 0 -0.1740219045079815 0.18518088967140331 0 -0.16033527449533019 0.19931555195785991 0 -0.1618232830269774 0.1908859011330192 0 -0.1740219045079815 0.18518088967140331 0 -0.1618232830269774 0.1908859011330192 0 -0.15450179096607569 0.19526085377817221 0 -0.15945706984071351 0.1859548772310369 0 -0.16033527449533019 0.19931555195785991 0 -0.1618232830269774 0.1908859011330192 0 -0.15450179096607569 0.19526085377817221 0 -0.15450179096607569 0.19526085377817221 0 -0.13912773914333421 0.19961274671068019 0 -0.15945706984071351 0.1859548772310369 0 -0.13912773914333421 0.19961274671068019 0 -0.15945706984071351 0.1859548772310369 0 -0.13912773914333421 0.19961274671068019 0 -0.15945706984071351 0.1859548772310369 0 -0.13647277472277031 0.1845562559318587 0 -0.16033527449533019 0.19931555195785991 0 -0.15450179096607569 0.19526085377817221 0 -0.15176558832402301 0.20053519185826479 0 -0.15450179096607569 0.19526085377817221 0 -0.15176558832402301 0.20053519185826479 0 -0.13912773914333421 0.19961274671068019 0 -0.16033527449533019 0.19931555195785991 0 -0.15176558832402301 0.20053519185826479 0 -0.1511859404026365 0.20893536690500941 0 -0.15176558832402301 0.20053519185826479 0 -0.13912773914333421 0.19961274671068019 0 -0.1511859404026365 0.20893536690500941 0 -0.13912773914333421 0.19961274671068019 0 -0.13647277472277031 0.1845562559318587 0 -0.1204142734464019 0.19655062799244949 0 -0.13912773914333421 0.19961274671068019 0 -0.11879840844595441 0.21327061619032281 0 -0.13912773914333421 0.19961274671068019 0 -0.13404537851668169 0.2094202143826113 0 -0.11879840844595441 0.21327061619032281 0 -0.13912773914333421 0.19961274671068019 0 -0.13404537851668169 0.2094202143826113 0 -0.1424154182146026 0.21320074075698989 0 -0.13912773914333421 0.19961274671068019 0 -0.11879840844595441 0.21327061619032281 0 -0.1204142734464019 0.19655062799244949 0 -0.13313089149699919 0.2194170042854395 0 -0.11879840844595441 0.21327061619032281 0 -0.13404537851668169 0.2094202143826113 0 -0.13313089149699919 0.2194170042854395 0 -0.11879840844595441 0.21327061619032281 0 -0.13404537851668169 0.2094202143826113 0 -0.1424154182146026 0.21320074075698989 0 -0.13313089149699919 0.2194170042854395 0 -0.13404537851668169 0.2094202143826113 0 -0.13313089149699919 0.2194170042854395 0 -0.1424154182146026 0.21320074075698989 0 -0.1511859404026365 0.20893536690500941 0 -0.15513715681261869 0.22885424182984859 0 -0.13912773914333421 0.19961274671068019 0 -0.1424154182146026 0.21320074075698989 0 -0.1511859404026365 0.20893536690500941 0 -0.15513715681261869 0.22885424182984859 0 -0.13188547782902479 0.23303134600148889 0 -0.15513715681261869 0.22885424182984859 0 -0.13313089149699919 0.2194170042854395 0 -0.1424154182146026 0.21320074075698989 0 -0.15513715681261869 0.22885424182984859 0 -0.13313089149699919 0.2194170042854395 0 -0.15513715681261869 0.22885424182984859 0 -0.13313089149699919 0.2194170042854395 0 -0.13188547782902479 0.23303134600148889 0 -0.13313089149699919 0.2194170042854395 0 -0.13188547782902479 0.23303134600148889 0 -0.1225357551805947 0.2233964605668412 0 -0.13313089149699919 0.2194170042854395 0 -0.13188547782902479 0.23303134600148889 0 -0.1296773909521125 0.25716922890260729 0 -0.13188547782902479 0.23303134600148889 0 -0.1296773909521125 0.25716922890260729 0 -0.1437696134745676 0.25279598445993562 0 -0.13188547782902479 0.23303134600148889 0 -0.14625356343122631 0.25202513938375759 0 -0.15513715681261869 0.22885424182984859 0 -0.15376339007017009 0.24618592337852629 0 -0.1437696134745676 0.25279598445993562 0 -0.14625356343122631 0.25202513938375759 0 -0.15513715681261869 0.22885424182984859 0 -0.1437696134745676 0.25279598445993562 0 -0.15513715681261869 0.22885424182984859 0 -0.15844826368726381 0.24258154149448821 0 -0.15513715681261869 0.22885424182984859 0 -0.15376339007017009 0.24618592337852629 0 -0.1437696134745676 0.25279598445993562 0 -0.15513715681261869 0.22885424182984859 0 -0.13188547782902479 0.23303134600148889 0 -0.15960623237311281 0.14234128510969329 0 -0.16902631378248631 0.1371612484644687 0 -0.17351305370411829 0.14701447176296659 0 -0.16143892687697861 0.15297757880860349 0 -0.15960623237311281 0.14234128510969329 0 -0.17351305370411829 0.14701447176296659 0 -0.16143892687697861 0.15297757880860349 0 -0.17351305370411829 0.14701447176296659 0 -0.16957058237235029 0.15706014103220159 0 -0.16143892687697861 0.15297757880860349 0 -0.15739643298734091 0.16345032107281471 0 -0.15137732553605709 0.151327206515144 0 -0.16143892687697861 0.15297757880860349 0 -0.15960623237311281 0.14234128510969329 0 -0.15137732553605709 0.151327206515144 0 -0.15960623237311281 0.14234128510969329 0 -0.16081297658590649 0.13248666069625289 0 -0.16902631378248631 0.1371612484644687 0 -0.15960623237311281 0.14234128510969329 0 -0.16081297658590649 0.13248666069625289 0 -0.15168790313460401 0.13157208832919101 0 -0.15643775415811159 0.11938079902363 0 -0.16081297658590649 0.13248666069625289 0 -0.16938339135214481 0.12741564947309081 0 -0.15643775415811159 0.11938079902363 0 -0.16081297658590649 0.13248666069625289 0 -0.15168790313460401 0.13157208832919101 0 -0.16081297658590649 0.13248666069625289 0 -0.16938339135214481 0.12741564947309081 0 -0.16902631378248631 0.1371612484644687 0 -0.16938339135214481 0.12741564947309081 0 -0.16902631378248631 0.1371612484644687 0 -0.1816480875392007 0.13386555172959469 0 -0.1775615252023004 0.1167727706201571 0 -0.16938339135214481 0.12741564947309081 0 -0.1816480875392007 0.13386555172959469 0 -0.16902631378248631 0.1371612484644687 0 -0.1816480875392007 0.13386555172959469 0 -0.17351305370411829 0.14701447176296659 0 -0.1816480875392007 0.13386555172959469 0 -0.18572053401925459 0.14772394484669271 0 -0.17351305370411829 0.14701447176296659 0 -0.1925958914534272 0.16369119786878539 0 -0.18572053401925459 0.14772394484669271 0 -0.17900373073950729 0.1571785480435694 0 -0.17351305370411829 0.14701447176296659 0 -0.17900373073950729 0.1571785480435694 0 -0.16957058237235029 0.15706014103220159 0 -0.18572053401925459 0.14772394484669271 0 -0.17351305370411829 0.14701447176296659 0 -0.17900373073950729 0.1571785480435694 0 -0.1925958914534272 0.16369119786878539 0 -0.18626227929936059 0.1794563511579291 0 -0.17978640053809339 0.17229700775139439 0 -0.1925958914534272 0.16369119786878539 0 -0.1786987985391246 0.1649329802809561 0 -0.17900373073950729 0.1571785480435694 0 -0.1925958914534272 0.16369119786878539 0 -0.17978640053809339 0.17229700775139439 0 -0.1925958914534272 0.16369119786878539 0 -0.1786987985391246 0.1649329802809561 0 -0.17978640053809339 0.17229700775139439 0 -0.1786987985391246 0.1649329802809561 0 -0.17229496178022061 0.16732323599282559 0 -0.17978640053809339 0.17229700775139439 0 -0.1786987985391246 0.1649329802809561 0 -0.17229496178022061 0.16732323599282559 0 -0.17900373073950729 0.1571785480435694 0 -0.17229496178022061 0.16732323599282559 0 -0.17900373073950729 0.1571785480435694 0 -0.16957058237235029 0.15706014103220159 0 -0.17981219882587321 0.1952738809670917 0 -0.18626227929936059 0.1794563511579291 0 -0.1740219045079815 0.18518088967140331 0 -0.17981219882587321 0.1952738809670917 0 -0.18626227929936059 0.1794563511579291 0 -0.18626227929936059 0.1794563511579291 0 -0.1740219045079815 0.18518088967140331 0 -0.18626227929936059 0.1794563511579291 0 -0.17978640053809339 0.17229700775139439 0 -0.1740219045079815 0.18518088967140331 0 -0.17978640053809339 0.17229700775139439 0 -0.1740219045079815 0.18518088967140331 0 -0.17229496178022061 0.16732323599282559 0 -0.15945706984071351 0.1859548772310369 0 -0.15739643298734091 0.16345032107281471 0 -0.17229496178022061 0.16732323599282559 0 -0.17978640053809339 0.17229700775139439 0 -0.15945706984071351 0.1859548772310369 0 -0.17978640053809339 0.17229700775139439 0 -0.1740219045079815 0.18518088967140331 0 -0.15945706984071351 0.1859548772310369 0 -0.17978640053809339 0.17229700775139439 0 -0.15945706984071351 0.1859548772310369 0 -0.1618232830269774 0.1908859011330192 0 -0.1740219045079815 0.18518088967140331 0 -0.15945706984071351 0.1859548772310369 0 -0.17229496178022061 0.16732323599282559 0 -0.16957058237235029 0.15706014103220159 0 -0.15739643298734091 0.16345032107281471 0 -0.16143892687697861 0.15297757880860349 0 -0.16957058237235029 0.15706014103220159 0 -0.15739643298734091 0.16345032107281471 0 -0.15739643298734091 0.16345032107281471 0 -0.14328668257734811 0.16027624768954971 0 -0.15137732553605709 0.151327206515144 0 -0.15739643298734091 0.16345032107281471 0 -0.14328668257734811 0.16027624768954971 0 -0.14486789757586091 0.17296170189460039 0 -0.15945706984071351 0.1859548772310369 0 -0.14486789757586091 0.17296170189460039 0 -0.13647277472277031 0.1845562559318587 0 -0.15945706984071351 0.1859548772310369 0 -0.15739643298734091 0.16345032107281471 0 -0.14486789757586091 0.17296170189460039 0 -0.14486789757586091 0.17296170189460039 0 -0.13647277472277031 0.1845562559318587 0 -0.13070284914344249 0.16871892192106211 0 -0.13647277472277031 0.1845562559318587 0 -0.12370591698329771 0.18054928604797399 0 -0.1204142734464019 0.19655062799244949 0 -0.13647277472277031 0.1845562559318587 0 -0.13070284914344249 0.16871892192106211 0 -0.12370591698329771 0.18054928604797399 0 -0.14328668257734811 0.16027624768954971 0 -0.13070284914344249 0.16871892192106211 0 -0.13245731629992549 0.15466047758449719 0 -0.14328668257734811 0.16027624768954971 0 -0.14486789757586091 0.17296170189460039 0 -0.13070284914344249 0.16871892192106211 0 -0.13070284914344249 0.16871892192106211 0 -0.13245731629992549 0.15466047758449719 0 -0.11734218913390621 0.15943289103919139 0 -0.13245731629992549 0.15466047758449719 0 -0.13382083092405439 0.14197113414877341 0 -0.12317756879044529 0.14965397669910341 0 -0.13382083092405439 0.14197113414877341 0 -0.121445467508422 0.13656092897119679 0 -0.12317756879044529 0.14965397669910341 0 -0.13382083092405439 0.14197113414877341 0 -0.14148129772908011 0.14996872208924081 0 -0.14646433330801509 0.14160854450823951 0 -0.13245731629992549 0.15466047758449719 0 -0.13382083092405439 0.14197113414877341 0 -0.14148129772908011 0.14996872208924081 0 -0.14328668257734811 0.16027624768954971 0 -0.13245731629992549 0.15466047758449719 0 -0.14148129772908011 0.14996872208924081 0 -0.14328668257734811 0.16027624768954971 0 -0.14148129772908011 0.14996872208924081 0 -0.15137732553605709 0.151327206515144 0 -0.14148129772908011 0.14996872208924081 0 -0.14646433330801509 0.14160854450823951 0 -0.15137732553605709 0.151327206515144 0 -0.15960623237311281 0.14234128510969329 0 -0.14646433330801509 0.14160854450823951 0 -0.15137732553605709 0.151327206515144 0 -0.15960623237311281 0.14234128510969329 0 -0.14646433330801509 0.14160854450823951 0 -0.15168790313460401 0.13157208832919101 0 -0.14646433330801509 0.14160854450823951 0 -0.15168790313460401 0.13157208832919101 0 -0.14132510598383449 0.13367742705243929 0 -0.1436769000821792 0.1218582351064668 0 -0.15168790313460401 0.13157208832919101 0 -0.14132510598383449 0.13367742705243929 0 -0.1436769000821792 0.1218582351064668 0 -0.14132510598383449 0.13367742705243929 0 -0.13186633641382831 0.12962204322641471 0 -0.13382083092405439 0.14197113414877341 0 -0.14646433330801509 0.14160854450823951 0 -0.14132510598383449 0.13367742705243929 0 -0.13382083092405439 0.14197113414877341 0 -0.14132510598383449 0.13367742705243929 0 -0.13186633641382831 0.12962204322641471 0 -0.13382083092405439 0.14197113414877341 0 -0.13186633641382831 0.12962204322641471 0 -0.121445467508422 0.13656092897119679 0 -0.13186633641382831 0.12962204322641471 0 -0.121445467508422 0.13656092897119679 0 -0.12036468150963781 0.12182649508351021 0 -0.121445467508422 0.13656092897119679 0 -0.10334604606111709 0.12824003644960669 0 -0.1143415461076573 0.14448217252040441 0 -0.121445467508422 0.13656092897119679 0 -0.10334604606111709 0.12824003644960669 0 -0.12036468150963781 0.12182649508351021 0 -0.10334604606111709 0.12824003644960669 0 -0.093721944683534869 0.15580010149827581 0 -0.10334604606111709 0.12824003644960669 0 -0.1064123335060472 0.1509590886717854 0 -0.1143415461076573 0.14448217252040441 0 -0.10334604606111709 0.12824003644960669 0 -0.1064123335060472 0.1509590886717854 0 -0.093721944683534869 0.15580010149827581 0 -0.1064123335060472 0.1509590886717854 0 -0.093721944683534869 0.15580010149827581 0 -0.1064123335060472 0.1509590886717854 0 -0.1024818911830422 0.16182448000171401 0 -0.093721944683534869 0.15580010149827581 0 -0.1064123335060472 0.1509590886717854 0 -0.1143415461076573 0.14448217252040441 0 -0.11734218913390621 0.15943289103919139 0 -0.121445467508422 0.13656092897119679 0 -0.1143415461076573 0.14448217252040441 0 -0.12317756879044529 0.14965397669910341 0 -0.1143415461076573 0.14448217252040441 0 -0.12317756879044529 0.14965397669910341 0 -0.11734218913390621 0.15943289103919139 0 -0.13245731629992549 0.15466047758449719 0 -0.12317756879044529 0.14965397669910341 0 -0.11734218913390621 0.15943289103919139 0 -0.13070284914344249 0.16871892192106211 0 -0.11734218913390621 0.15943289103919139 0 -0.11756513628960211 0.17149899003473529 0 -0.11734218913390621 0.15943289103919139 0 -0.11756513628960211 0.17149899003473529 0 -0.10620568822260509 0.17146079828860519 0 -0.12370591698329771 0.18054928604797399 0 -0.10629147759945649 0.18425357192926459 0 -0.1204142734464019 0.19655062799244949 0 -0.11756513628960211 0.17149899003473529 0 -0.12370591698329771 0.18054928604797399 0 -0.10629147759945649 0.18425357192926459 0 -0.13070284914344249 0.16871892192106211 0 -0.11756513628960211 0.17149899003473529 0 -0.12370591698329771 0.18054928604797399 0 -0.11756513628960211 0.17149899003473529 0 -0.10629147759945649 0.18425357192926459 0 -0.10620568822260509 0.17146079828860519 0 -0.10629147759945649 0.18425357192926459 0 -0.10620568822260509 0.17146079828860519 0 -0.086627528716916452 0.1761160310434029 0 -0.10629147759945649 0.18425357192926459 0 -0.086627528716916452 0.1761160310434029 0 -0.09269499759914468 0.19032338220598169 0 -0.1024818911830422 0.16182448000171401 0 -0.10620568822260509 0.17146079828860519 0 -0.086627528716916452 0.1761160310434029 0 -0.1024818911830422 0.16182448000171401 0 -0.086627528716916452 0.1761160310434029 0 -0.093721944683534869 0.15580010149827581 0 -0.1064123335060472 0.1509590886717854 0 -0.11734218913390621 0.15943289103919139 0 -0.1024818911830422 0.16182448000171401 0 -0.11734218913390621 0.15943289103919139 0 -0.1024818911830422 0.16182448000171401 0 -0.10620568822260509 0.17146079828860519 0 -0.072210020714092188 0.1640062724293069 0 -0.093721944683534869 0.15580010149827581 0 -0.078636846078482814 0.15080234513287699 0 -0.086627528716916452 0.1761160310434029 0 -0.072210020714092188 0.1640062724293069 0 -0.093721944683534869 0.15580010149827581 0 -0.072210020714092188 0.1640062724293069 0 -0.093721944683534869 0.15580010149827581 0 -0.086627528716916452 0.1761160310434029 0 -0.093721944683534869 0.15580010149827581 0 -0.086627528716916452 0.1761160310434029 0 -0.074955771590847695 0.1834368659159091 0 -0.079533112750301851 0.19643196058853121 0 -0.086627528716916452 0.1761160310434029 0 -0.079533112750301851 0.19643196058853121 0 -0.074955771590847695 0.1834368659159091 0 -0.064388136038425178 0.17689434532462819 0 -0.072210020714092188 0.1640062724293069 0 -0.086627528716916452 0.1761160310434029 0 -0.074955771590847695 0.1834368659159091 0 -0.072210020714092188 0.1640062724293069 0 -0.074955771590847695 0.1834368659159091 0 -0.064388136038425178 0.17689434532462819 0 -0.059688655104113551 0.18792179959296451 0 -0.072210020714092188 0.1640062724293069 0 -0.064966715606029596 0.14801799307502991 0 -0.057738118466807688 0.15894625506770171 0 -0.072210020714092188 0.1640062724293069 0 -0.064966715606029596 0.14801799307502991 0 -0.078636846078482814 0.15080234513287699 0 -0.073216231198446641 0.14245195011691941 0 -0.064966715606029596 0.14801799307502991 0 -0.078636846078482814 0.15080234513287699 0 -0.073216231198446641 0.14245195011691941 0 -0.064966715606029596 0.14801799307502991 0 -0.066632897365564894 0.13287767712965881 0 -0.073216231198446641 0.14245195011691941 0 -0.066632897365564894 0.13287767712965881 0 -0.082628465743709301 0.13810978513011191 0 -0.066632897365564894 0.13287767712965881 0 -0.082628465743709301 0.13810978513011191 0 -0.079154850080665973 0.1184200787634784 0 -0.10334604606111709 0.12824003644960669 0 -0.082628465743709301 0.13810978513011191 0 -0.079154850080665973 0.1184200787634784 0 -0.082628465743709301 0.13810978513011191 0 -0.093721944683534869 0.15580010149827581 0 -0.078636846078482814 0.15080234513287699 0 -0.10334604606111709 0.12824003644960669 0 -0.082628465743709301 0.13810978513011191 0 -0.093721944683534869 0.15580010149827581 0 -0.073216231198446641 0.14245195011691941 0 -0.082628465743709301 0.13810978513011191 0 -0.078636846078482814 0.15080234513287699 0 -0.1121816457685484 0.23657108862201839 0 -0.095277421163422096 0.22907273870577841 0 -0.09302706786647455 0.24001215914932211 0 -0.093286781451782555 0.25248200310933011 0 -0.1121816457685484 0.23657108862201839 0 -0.09302706786647455 0.24001215914932211 0 -0.1121816457685484 0.23657108862201839 0 -0.09302706786647455 0.24001215914932211 0 -0.1296773909521125 0.25716922890260729 0 -0.13188547782902479 0.23303134600148889 0 -0.1121816457685484 0.23657108862201839 0 -0.13188547782902479 0.23303134600148889 0 -0.1121816457685484 0.23657108862201839 0 -0.1121816457685484 0.23657108862201839 0 -0.1166823523624451 0.21469224773493459 0 -0.1121816457685484 0.23657108862201839 0 -0.1225357551805947 0.2233964605668412 0 -0.1166823523624451 0.21469224773493459 0 -0.13188547782902479 0.23303134600148889 0 -0.1121816457685484 0.23657108862201839 0 -0.1225357551805947 0.2233964605668412 0 -0.095277421163422096 0.22907273870577841 0 -0.1166823523624451 0.21469224773493459 0 -0.1121816457685484 0.23657108862201839 0 -0.095277421163422096 0.22907273870577841 0 -0.1166823523624451 0.21469224773493459 0 -0.098327871329904046 0.20449196526272789 0 -0.117122629909506 0.2125519699369251 0 -0.095277421163422096 0.22907273870577841 0 -0.098327871329904046 0.20449196526272789 0 -0.1166823523624451 0.21469224773493459 0 -0.117122629909506 0.2125519699369251 0 -0.1204142734464019 0.19655062799244949 0 -0.098327871329904046 0.20449196526272789 0 -0.117122629909506 0.2125519699369251 0 -0.1204142734464019 0.19655062799244949 0 -0.117122629909506 0.2125519699369251 0 -0.11879840844595441 0.21327061619032281 0 -0.1204142734464019 0.19655062799244949 0 -0.098327871329904046 0.20449196526272789 0 -0.1166823523624451 0.21469224773493459 0 -0.117122629909506 0.2125519699369251 0 -0.1166823523624451 0.21469224773493459 0 -0.117122629909506 0.2125519699369251 0 -0.13313089149699919 0.2194170042854395 0 -0.1225357551805947 0.2233964605668412 0 -0.11879840844595441 0.21327061619032281 0 -0.1225357551805947 0.2233964605668412 0 -0.1166823523624451 0.21469224773493459 0 -0.11879840844595441 0.21327061619032281 0 -0.1166823523624451 0.21469224773493459 0 -0.117122629909506 0.2125519699369251 0 -0.11879840844595441 0.21327061619032281 0 -0.1166823523624451 0.21469224773493459 0 -0.11879840844595441 0.21327061619032281 0 -0.117122629909506 0.2125519699369251 0 -0.11879840844595441 0.21327061619032281 0 -0.12370591698329771 0.18054928604797399 0 -0.1204142734464019 0.19655062799244949 0 -0.10629147759945649 0.18425357192926459 0 -0.098327871329904046 0.20449196526272789 0 -0.1204142734464019 0.19655062799244949 0 -0.10629147759945649 0.18425357192926459 0 -0.098327871329904046 0.20449196526272789 0 -0.09269499759914468 0.19032338220598169 0 -0.098327871329904046 0.20449196526272789 0 -0.079533112750301851 0.19643196058853121 0 -0.09269499759914468 0.19032338220598169 0 -0.098327871329904046 0.20449196526272789 0 -0.079533112750301851 0.19643196058853121 0 -0.086627528716916452 0.1761160310434029 0 -0.079533112750301851 0.19643196058853121 0 -0.09269499759914468 0.19032338220598169 0 -0.074955771590847695 0.1834368659159091 0 -0.079533112750301851 0.19643196058853121 0 -0.059688655104113551 0.18792179959296451 0 -0.079533112750301851 0.19643196058853121 0 -0.059688655104113551 0.18792179959296451 0 -0.079533112750301851 0.19643196058853121 0 -0.061330002640318758 0.20461652326959431 0 -0.059688655104113551 0.18792179959296451 0 -0.079533112750301851 0.19643196058853121 0 -0.072704556690467076 0.2159865602144056 0 -0.061330002640318758 0.20461652326959431 0 -0.072704556690467076 0.2159865602144056 0 -0.055851620016787083 0.22117775824043759 0 -0.061330002640318758 0.20461652326959431 0 -0.079533112750301851 0.19643196058853121 0 -0.072704556690467076 0.2159865602144056 0 -0.095277421163422096 0.22907273870577841 0 -0.098327871329904046 0.20449196526272789 0 -0.072704556690467076 0.2159865602144056 0 -0.098327871329904046 0.20449196526272789 0 -0.079533112750301851 0.19643196058853121 0 -0.072704556690467076 0.2159865602144056 0 -0.095277421163422096 0.22907273870577841 0 -0.072704556690467076 0.2159865602144056 0 -0.073872489964400503 0.2434532296766245 0 -0.072704556690467076 0.2159865602144056 0 -0.065876000630632342 0.2355411598402801 0 -0.073872489964400503 0.2434532296766245 0 -0.072704556690467076 0.2159865602144056 0 -0.065876000630632342 0.2355411598402801 0 -0.072704556690467076 0.2159865602144056 0 -0.065876000630632342 0.2355411598402801 0 -0.055851620016787083 0.22117775824043759 0 -0.059047444570795582 0.25509575946615382 0 -0.065876000630632342 0.2355411598402801 0 -0.066191390364875119 0.24861362857770389 0 -0.065876000630632342 0.2355411598402801 0 -0.072263193561016764 0.24374233562569339 0 -0.073872489964400503 0.2434532296766245 0 -0.065876000630632342 0.2355411598402801 0 -0.066191390364875119 0.24861362857770389 0 -0.072263193561016764 0.24374233562569339 0 -0.066191390364875119 0.24861362857770389 0 -0.073872489964400503 0.2434532296766245 0 -0.082751972805153451 0.25019407668153493 0 -0.072935344474137062 0.2541079673458424 0 -0.073872489964400503 0.2434532296766245 0 -0.072935344474137062 0.2541079673458424 0 -0.066191390364875119 0.24861362857770389 0 -0.073872489964400503 0.2434532296766245 0 -0.066191390364875119 0.24861362857770389 0 -0.072263193561016764 0.24374233562569339 0 -0.073872489964400503 0.2434532296766245 0 -0.072263193561016764 0.24374233562569339 0 -0.073872489964400503 0.2434532296766245 0 -0.073872489964400503 0.2434532296766245 0 -0.09302706786647455 0.24001215914932211 0 -0.095277421163422096 0.22907273870577841 0 -0.073872489964400503 0.2434532296766245 0 -0.082751972805153451 0.25019407668153493 0 -0.073872489964400503 0.2434532296766245 0 -0.09302706786647455 0.24001215914932211 0 -0.095277421163422096 0.22907273870577841 0 -0.073872489964400503 0.2434532296766245 0 -0.09302706786647455 0.24001215914932211 0 -0.093286781451782555 0.25248200310933011 0 -0.082751972805153451 0.25019407668153493 0 -0.09302706786647455 0.24001215914932211 0 -0.034275869000636679 0.24884914989821069 0 -0.037162580874913448 0.23957425186318959 0 -0.039197402965606802 0.2477238199581453 0 -0.034275869000636679 0.24884914989821069 0 -0.037162580874913448 0.23957425186318959 0 -0.026032362202064389 0.24768713845238849 0 -0.037162580874913448 0.23957425186318959 0 -0.045036679799408327 0.2473423560733036 0 -0.048811310629491393 0.2376856642371751 0 -0.037162580874913448 0.23957425186318959 0 -0.039197402965606802 0.2477238199581453 0 -0.045036679799408327 0.2473423560733036 0 -0.041178788206509123 0.25155243823444212 0 -0.039197402965606802 0.2477238199581453 0 -0.045036679799408327 0.2473423560733036 0 -0.065876000630632342 0.2355411598402801 0 -0.050793007043487062 0.24783188033554601 0 -0.048811310629491393 0.2376856642371751 0 -0.059047444570795582 0.25509575946615382 0 -0.065876000630632342 0.2355411598402801 0 -0.050176839751681031 0.25141733800211702 0 -0.045036679799408327 0.2473423560733036 0 -0.050793007043487062 0.24783188033554601 0 -0.045036679799408327 0.2473423560733036 0 -0.050793007043487062 0.24783188033554601 0 -0.048811310629491393 0.2376856642371751 0 -0.059047444570795582 0.25509575946615382 0 -0.065876000630632342 0.2355411598402801 0 -0.050793007043487062 0.24783188033554601 0 -0.048811310629491393 0.2376856642371751 0 -0.055851620016787083 0.22117775824043759 0 -0.040523964295445317 0.22256780737264939 0 -0.065876000630632342 0.2355411598402801 0 -0.048811310629491393 0.2376856642371751 0 -0.055851620016787083 0.22117775824043759 0 -0.037162580874913448 0.23957425186318959 0 -0.048811310629491393 0.2376856642371751 0 -0.040523964295445317 0.22256780737264939 0 -0.037162580874913448 0.23957425186318959 0 -0.040523964295445317 0.22256780737264939 0 -0.02688050562954335 0.22474476636891089 0 -0.040523964295445317 0.22256780737264939 0 -0.046709119564914303 0.21042200924074991 0 -0.027728649057022329 0.2018023942854334 0 -0.040523964295445317 0.22256780737264939 0 -0.027728649057022329 0.2018023942854334 0 -0.02688050562954335 0.22474476636891089 0 -0.055851620016787083 0.22117775824043759 0 -0.046709119564914303 0.21042200924074991 0 -0.061330002640318758 0.20461652326959431 0 -0.055851620016787083 0.22117775824043759 0 -0.040523964295445317 0.22256780737264939 0 -0.046709119564914303 0.21042200924074991 0 -0.046709119564914303 0.21042200924074991 0 -0.061330002640318758 0.20461652326959431 0 -0.047496647047879731 0.19695683104163311 0 -0.047496647047879731 0.19695683104163311 0 -0.059688655104113551 0.18792179959296451 0 -0.039844197457924752 0.1794116385973987 0 -0.061330002640318758 0.20461652326959431 0 -0.047496647047879731 0.19695683104163311 0 -0.059688655104113551 0.18792179959296451 0 -0.047496647047879731 0.19695683104163311 0 -0.035619049848398469 0.19159864336426241 0 -0.027728649057022329 0.2018023942854334 0 -0.046709119564914303 0.21042200924074991 0 -0.047496647047879731 0.19695683104163311 0 -0.027728649057022329 0.2018023942854334 0 -0.047496647047879731 0.19695683104163311 0 -0.035619049848398469 0.19159864336426241 0 -0.039844197457924752 0.1794116385973987 0 -0.035619049848398469 0.19159864336426241 0 -0.027728649057022329 0.2018023942854334 0 -0.02918617277520227 0.18041861429135769 0 -0.027728649057022329 0.2018023942854334 0 -0.0285767924845013 0.17886002220195579 0 -0.027728649057022329 0.2018023942854334 0 -0.0285767924845013 0.17886002220195579 0 -0.02199024332441811 0.18735161151472579 0 -0.027728649057022329 0.2018023942854334 0 -0.013600580365509341 0.19211742209433361 0 -0.0088230138482604248 0.21081801240542919 0 -0.027728649057022329 0.2018023942854334 0 -0.013600580365509341 0.19211742209433361 0 -0.02199024332441811 0.18735161151472579 0 -0.013600580365509341 0.19211742209433361 0 -0.0088230138482604248 0.21081801240542919 0 0.0080851947112417864 0.1846781189199892 0 -0.027728649057022329 0.2018023942854334 0 -0.02688050562954335 0.22474476636891089 0 -0.027728649057022329 0.2018023942854334 0 -0.0088230138482604248 0.21081801240542919 0 -0.02688050562954335 0.22474476636891089 0 -0.0088230138482604248 0.21081801240542919 0 -0.02688050562954335 0.22474476636891089 0 -0.013187082754903771 0.22942608010406251 0 -0.02688050562954335 0.22474476636891089 0 -0.013187082754903771 0.22942608010406251 0 -0.019881501782636129 0.2427868029209157 0 -0.0088230138482604248 0.21081801240542919 0 -0.0003166448063192459 0.22929833062518251 0 -0.013187082754903771 0.22942608010406251 0 -0.0003166448063192459 0.22929833062518251 0 -0.013187082754903771 0.22942608010406251 0 -0.0094537253725339963 0.24027076958865309 0 -0.013187082754903771 0.22942608010406251 0 -0.0094537253725339963 0.24027076958865309 0 -0.019881501782636129 0.2427868029209157 0 -0.0003166448063192459 0.22929833062518251 0 -0.0094537253725339963 0.24027076958865309 0 0.00078604608867878457 0.24678879113798841 0 -0.013509398937038279 0.25463040593267511 0 -0.0094537253725339963 0.24027076958865309 0 0.00078604608867878457 0.24678879113798841 0 -0.013509398937038279 0.25463040593267511 0 -0.0094537253725339963 0.24027076958865309 0 -0.019881501782636129 0.2427868029209157 0 -0.02688050562954335 0.22474476636891089 0 -0.026032362202064389 0.24768713845238849 0 -0.02688050562954335 0.22474476636891089 0 -0.019881501782636129 0.2427868029209157 0 -0.026032362202064389 0.24768713845238849 0 -0.037162580874913448 0.23957425186318959 0 -0.02688050562954335 0.22474476636891089 0 -0.026032362202064389 0.24768713845238849 0 -0.03054651971650528 0.25103524046391112 0 -0.034275869000636679 0.24884914989821069 0 -0.026032362202064389 0.24768713845238849 0 -0.028860760065202461 0.25327469637357758 0 -0.019881501782636129 0.2427868029209157 0 -0.026032362202064389 0.24768713845238849 0 -0.039536619107634091 0.15435746120561111 0 -0.035321842941684757 0.14392227981181219 0 -0.04885388943951053 0.1468323728450269 0 -0.035321842941684757 0.14392227981181219 0 -0.043563312914885341 0.13517464378084071 0 -0.04885388943951053 0.1468323728450269 0 -0.039536619107634091 0.15435746120561111 0 -0.04885388943951053 0.1468323728450269 0 -0.047248236390982919 0.16009743375058491 0 -0.039536619107634091 0.15435746120561111 0 -0.035321842941684757 0.14392227981181219 0 -0.029424935911980261 0.15591765011847841 0 -0.035321842941684757 0.14392227981181219 0 -0.033174302736449071 0.13027882978672509 0 -0.043563312914885341 0.13517464378084071 0 -0.042654726280483037 0.1273768711899006 0 -0.043563312914885341 0.13517464378084071 0 -0.049694043820730213 0.12546306997878651 0 -0.033174302736449071 0.13027882978672509 0 -0.042654726280483037 0.1273768711899006 0 -0.044072443506286203 0.1206698917193947 0 -0.033174302736449071 0.13027882978672509 0 -0.042654726280483037 0.1273768711899006 0 -0.043563312914885341 0.13517464378084071 0 -0.043563312914885341 0.13517464378084071 0 -0.054719511258639081 0.1354264450286421 0 -0.04885388943951053 0.1468323728450269 0 -0.043563312914885341 0.13517464378084071 0 -0.049694043820730213 0.12546306997878651 0 -0.054719511258639081 0.1354264450286421 0 -0.049694043820730213 0.12546306997878651 0 -0.054719511258639081 0.1354264450286421 0 -0.06039129774897823 0.1224923682318263 0 -0.066632897365564894 0.13287767712965881 0 -0.054719511258639081 0.1354264450286421 0 -0.06039129774897823 0.1224923682318263 0 -0.064966715606029596 0.14801799307502991 0 -0.066632897365564894 0.13287767712965881 0 -0.054719511258639081 0.1354264450286421 0 -0.064966715606029596 0.14801799307502991 0 -0.054719511258639081 0.1354264450286421 0 -0.04885388943951053 0.1468323728450269 0 -0.064966715606029596 0.14801799307502991 0 -0.04885388943951053 0.1468323728450269 0 -0.057738118466807688 0.15894625506770171 0 -0.04885388943951053 0.1468323728450269 0 -0.057738118466807688 0.15894625506770171 0 -0.047248236390982919 0.16009743375058491 0 -0.072210020714092188 0.1640062724293069 0 -0.050698096744647238 0.17221244336033231 0 -0.064388136038425178 0.17689434532462819 0 -0.072210020714092188 0.1640062724293069 0 -0.050698096744647238 0.17221244336033231 0 -0.072210020714092188 0.1640062724293069 0 -0.057738118466807688 0.15894625506770171 0 -0.050698096744647238 0.17221244336033231 0 -0.057738118466807688 0.15894625506770171 0 -0.047248236390982919 0.16009743375058491 0 -0.050698096744647238 0.17221244336033231 0 -0.064388136038425178 0.17689434532462819 0 -0.059688655104113551 0.18792179959296451 0 -0.050698096744647238 0.17221244336033231 0 -0.059688655104113551 0.18792179959296451 0 -0.039844197457924752 0.1794116385973987 0 -0.059688655104113551 0.18792179959296451 0 -0.050698096744647238 0.17221244336033231 0 -0.039844197457924752 0.1794116385973987 0 -0.050698096744647238 0.17221244336033231 0 -0.02918617277520227 0.18041861429135769 0 -0.050698096744647238 0.17221244336033231 0 -0.037281092099841998 0.1676949431681245 0 -0.02918617277520227 0.18041861429135769 0 -0.050698096744647238 0.17221244336033231 0 -0.039844197457924752 0.1794116385973987 0 -0.02918617277520227 0.18041861429135769 0 -0.037281092099841998 0.1676949431681245 0 -0.02918617277520227 0.18041861429135769 0 -0.0285767924845013 0.17886002220195579 0 -0.035619049848398469 0.19159864336426241 0 -0.039844197457924752 0.1794116385973987 0 -0.02918617277520227 0.18041861429135769 0 -0.037281092099841998 0.1676949431681245 0 -0.0285767924845013 0.17886002220195579 0 -0.029424935911980261 0.15591765011847841 0 -0.039536619107634091 0.15435746120561111 0 -0.047248236390982919 0.16009743375058491 0 -0.037281092099841998 0.1676949431681245 0 -0.047248236390982919 0.16009743375058491 0 -0.050698096744647238 0.17221244336033231 0 -0.037281092099841998 0.1676949431681245 0 -0.039536619107634091 0.15435746120561111 0 -0.037281092099841998 0.1676949431681245 0 -0.029424935911980261 0.15591765011847841 0 -0.0285767924845013 0.17886002220195579 0 -0.029424935911980261 0.15591765011847841 0 -0.021529387543499829 0.16711262741444211 0 -0.0285767924845013 0.17886002220195579 0 -0.029424935911980261 0.15591765011847841 0 -0.021529387543499829 0.16711262741444211 0 -0.015166255009242289 0.1547596114985457 0 -0.029424935911980261 0.15591765011847841 0 -0.027728649057022329 0.2018023942854334 0 -0.02918617277520227 0.18041861429135769 0 -0.0285767924845013 0.17886002220195579 0 -0.0285767924845013 0.17886002220195579 0 -0.022079914062146631 0.17790193114126149 0 -0.02199024332441811 0.18735161151472579 0 -0.021529387543499829 0.16711262741444211 0 -0.0285767924845013 0.17886002220195579 0 -0.022079914062146631 0.17790193114126149 0 -0.021529387543499829 0.16711262741444211 0 -0.022079914062146631 0.17790193114126149 0 -0.016223232896167269 0.17828346343392201 0 -0.022079914062146631 0.17790193114126149 0 -0.016223232896167269 0.17828346343392201 0 -0.02199024332441811 0.18735161151472579 0 -0.013600580365509341 0.19211742209433361 0 -0.016223232896167269 0.17828346343392201 0 -0.02199024332441811 0.18735161151472579 0 -0.013600580365509341 0.19211742209433361 0 -0.016223232896167269 0.17828346343392201 0 0.0080851947112417864 0.1846781189199892 0 -0.016223232896167269 0.17828346343392201 0 -0.0063844341421704686 0.1671665448316203 0 0.0080851947112417864 0.1846781189199892 0 -0.021529387543499829 0.16711262741444211 0 -0.0063844341421704686 0.1671665448316203 0 -0.015166255009242289 0.1547596114985457 0 -0.0063844341421704686 0.1671665448316203 0 -0.0030735853369053862 0.1523147141600294 0 -0.015166255009242289 0.1547596114985457 0 -0.021529387543499829 0.16711262741444211 0 -0.016223232896167269 0.17828346343392201 0 -0.0063844341421704686 0.1671665448316203 0 -0.0063844341421704686 0.1671665448316203 0 -0.0030735853369053862 0.1523147141600294 0 0.0085080071840959951 0.16392486580065979 0 -0.0030735853369053862 0.1523147141600294 0 -0.010555977713924339 0.14227916237107949 0 -0.00096800065077765236 0.13369603841210301 0 -0.010555977713924339 0.14227916237107949 0 -0.015166255009242289 0.1547596114985457 0 -0.020603684105980551 0.1452182615090814 0 -0.0030735853369053862 0.1523147141600294 0 -0.010555977713924339 0.14227916237107949 0 -0.015166255009242289 0.1547596114985457 0 -0.015166255009242289 0.1547596114985457 0 -0.020603684105980551 0.1452182615090814 0 -0.029424935911980261 0.15591765011847841 0 -0.035321842941684757 0.14392227981181219 0 -0.020603684105980551 0.1452182615090814 0 -0.029424935911980261 0.15591765011847841 0 -0.033174302736449071 0.13027882978672509 0 -0.020603684105980551 0.1452182615090814 0 -0.02844693203283748 0.12394293298542031 0 -0.020603684105980551 0.1452182615090814 0 -0.01572584202194972 0.13237338506023161 0 -0.02844693203283748 0.12394293298542031 0 -0.020603684105980551 0.1452182615090814 0 -0.02844693203283748 0.12394293298542031 0 -0.035321842941684757 0.14392227981181219 0 -0.033174302736449071 0.13027882978672509 0 -0.020603684105980551 0.1452182615090814 0 -0.010555977713924339 0.14227916237107949 0 -0.020603684105980551 0.1452182615090814 0 -0.01572584202194972 0.13237338506023161 0 -0.00096800065077765236 0.13369603841210301 0 -0.018629090305235629 0.1181818214369309 0 -0.01572584202194972 0.13237338506023161 0 -0.00096800065077765236 0.13369603841210301 0 -0.018629090305235629 0.1181818214369309 0 -0.010555977713924339 0.14227916237107949 0 -0.01572584202194972 0.13237338506023161 0 -0.00096800065077765236 0.13369603841210301 0 -0.0026800463400507191 0.1173094583242295 0 -0.010869363267277939 0.1105403102559034 0 -0.018629090305235629 0.1181818214369309 0 -0.00096800065077765236 0.13369603841210301 0 -0.0026800463400507191 0.1173094583242295 0 -0.018629090305235629 0.1181818214369309 0 -0.010869363267277939 0.1105403102559034 0 -0.017287007168887571 0.10506811689412041 0 -0.018629090305235629 0.1181818214369309 0 -0.0026800463400507191 0.1173094583242295 0 -0.010869363267277939 0.1105403102559034 0 -0.001686238602976459 0.10732934986218851 0 -0.001686238602976459 0.10732934986218851 0 -0.0023530059837071501 0.098742106906744342 0 -0.0099325828239776592 0.1014021857749559 0 -0.010869363267277939 0.1105403102559034 0 -0.001686238602976459 0.10732934986218851 0 -0.0099325828239776592 0.1014021857749559 0 -0.0023530059837071501 0.098742106906744342 0 -0.00092041545904237763 0.09259409097327688 0 -0.0087315180311875479 0.090179240843459255 0 -0.0023530059837071501 0.098742106906744342 0 -0.0099325828239776592 0.1014021857749559 0 -0.0087315180311875479 0.090179240843459255 0 -0.0099325828239776592 0.1014021857749559 0 -0.016084067273906811 0.096382145040589409 0 -0.0087315180311875479 0.090179240843459255 0 -0.0099325828239776592 0.1014021857749559 0 -0.017287007168887571 0.10506811689412041 0 -0.016084067273906811 0.096382145040589409 0 -0.010869363267277939 0.1105403102559034 0 -0.0099325828239776592 0.1014021857749559 0 -0.017287007168887571 0.10506811689412041 0 -0.024472894110276571 0.1059020649361006 0 -0.018629090305235629 0.1181818214369309 0 -0.036290179959693913 0.1026676044617591 0 -0.017287007168887571 0.10506811689412041 0 -0.025685299007289459 0.097690716951592177 0 -0.024472894110276571 0.1059020649361006 0 -0.016084067273906811 0.096382145040589409 0 -0.025685299007289459 0.097690716951592177 0 -0.021142100104426839 0.089351891769854364 0 -0.017287007168887571 0.10506811689412041 0 -0.016084067273906811 0.096382145040589409 0 -0.025685299007289459 0.097690716951592177 0 -0.025685299007289459 0.097690716951592177 0 -0.029984688351381839 0.088725921695155793 0 -0.036290179959693913 0.1026676044617591 0 -0.025685299007289459 0.097690716951592177 0 -0.024472894110276571 0.1059020649361006 0 -0.036290179959693913 0.1026676044617591 0 -0.02844693203283748 0.12394293298542031 0 -0.018629090305235629 0.1181818214369309 0 -0.036290179959693913 0.1026676044617591 0 -0.018629090305235629 0.1181818214369309 0 -0.036290179959693913 0.1026676044617591 0 -0.01572584202194972 0.13237338506023161 0 -0.02844693203283748 0.12394293298542031 0 -0.018629090305235629 0.1181818214369309 0 -0.017287007168887571 0.10506811689412041 0 -0.024472894110276571 0.1059020649361006 0 -0.018629090305235629 0.1181818214369309 0 -0.010094729421848161 0.069813938637967296 0 -0.0047843932498527518 0.083558754877721325 0 -0.025224927858368561 0.073781434318475142 0 -0.0047843932498527518 0.083558754877721325 0 -0.0087315180311875479 0.090179240843459255 0 -0.025224927858368561 0.073781434318475142 0 -0.0047843932498527518 0.083558754877721325 0 -0.025224927858368561 0.073781434318475142 0 -0.0047843932498527518 0.083558754877721325 0 0.001138175510299308 0.086391697088443103 0 -0.0047843932498527518 0.083558754877721325 0 -0.0087315180311875479 0.090179240843459255 0 0.001138175510299308 0.086391697088443103 0 -0.00092041545904237763 0.09259409097327688 0 -0.0087315180311875479 0.090179240843459255 0 0.001138175510299308 0.086391697088443103 0 -0.016084067273906811 0.096382145040589409 0 -0.0087315180311875479 0.090179240843459255 0 -0.021142100104426839 0.089351891769854364 0 -0.0087315180311875479 0.090179240843459255 0 -0.021142100104426839 0.089351891769854364 0 -0.025224927858368561 0.073781434318475142 0 -0.025685299007289459 0.097690716951592177 0 -0.021142100104426839 0.089351891769854364 0 -0.029984688351381839 0.088725921695155793 0 -0.021142100104426839 0.089351891769854364 0 -0.029984688351381839 0.088725921695155793 0 -0.025224927858368561 0.073781434318475142 0 -0.010094729421848161 0.069813938637967296 0 -0.025224927858368561 0.073781434318475142 0 -0.019394451164015749 0.052875352388623273 0 -0.025224927858368561 0.073781434318475142 0 -0.043939105593365717 0.081919388005133362 0 -0.051588031227036701 0.061171171548507347 0 -0.025224927858368561 0.073781434318475142 0 -0.051588031227036701 0.061171171548507347 0 -0.029984688351381839 0.088725921695155793 0 -0.043939105593365717 0.081919388005133362 0 -0.036290179959693913 0.1026676044617591 0 -0.043939105593365717 0.081919388005133362 0 -0.050916392360139888 0.089819346673304407 0 -0.036290179959693913 0.1026676044617591 0 -0.043939105593365717 0.081919388005133362 0 -0.036290179959693913 0.1026676044617591 0 -0.029984688351381839 0.088725921695155793 0 -0.025224927858368561 0.073781434318475142 0 -0.043939105593365717 0.081919388005133362 0 -0.050916392360139888 0.089819346673304407 0 -0.058775836227469597 0.071896483967971797 0 -0.050916392360139888 0.089819346673304407 0 -0.058775836227469597 0.071896483967971797 0 -0.063536826324196272 0.078733045959702902 0 -0.043939105593365717 0.081919388005133362 0 -0.050916392360139888 0.089819346673304407 0 -0.058775836227469597 0.071896483967971797 0 -0.050916392360139888 0.089819346673304407 0 -0.064841770068670396 0.092009388573163098 0 -0.063536826324196272 0.078733045959702902 0 -0.050916392360139888 0.089819346673304407 0 -0.063536826324196272 0.078733045959702902 0 -0.043939105593365717 0.081919388005133362 0 -0.051588031227036701 0.061171171548507347 0 -0.043939105593365717 0.081919388005133362 0 -0.058775836227469597 0.071896483967971797 0 -0.051588031227036701 0.061171171548507347 0 -0.02844693203283748 0.12394293298542031 0 -0.042045347548294393 0.1100490882300147 0 -0.036290179959693913 0.1026676044617591 0 -0.033174302736449071 0.13027882978672509 0 -0.042045347548294393 0.1100490882300147 0 -0.02844693203283748 0.12394293298542031 0 -0.036290179959693913 0.1026676044617591 0 -0.033174302736449071 0.13027882978672509 0 -0.02844693203283748 0.12394293298542031 0 -0.042045347548294393 0.1100490882300147 0 -0.033174302736449071 0.13027882978672509 0 -0.042045347548294393 0.1100490882300147 0 -0.044072443506286203 0.1206698917193947 0 -0.042045347548294393 0.1100490882300147 0 -0.044072443506286203 0.1206698917193947 0 -0.052564192858311647 0.1143395004238357 0 -0.042654726280483037 0.1273768711899006 0 -0.049694043820730213 0.12546306997878651 0 -0.044072443506286203 0.1206698917193947 0 -0.050916392360139888 0.089819346673304407 0 -0.042045347548294393 0.1100490882300147 0 -0.050916392360139888 0.089819346673304407 0 -0.042045347548294393 0.1100490882300147 0 -0.036290179959693913 0.1026676044617591 0 -0.050916392360139888 0.089819346673304407 0 -0.036290179959693913 0.1026676044617591 0 -0.050916392360139888 0.089819346673304407 0 -0.042045347548294393 0.1100490882300147 0 -0.055208713150145902 0.102751246286561 0 -0.042045347548294393 0.1100490882300147 0 -0.055208713150145902 0.102751246286561 0 -0.052564192858311647 0.1143395004238357 0 -0.055208713150145902 0.102751246286561 0 -0.065675862915313007 0.1075389075324867 0 -0.064841770068670396 0.092009388573163098 0 -0.050916392360139888 0.089819346673304407 0 -0.055208713150145902 0.102751246286561 0 -0.064841770068670396 0.092009388573163098 0 -0.055208713150145902 0.102751246286561 0 -0.052564192858311647 0.1143395004238357 0 -0.065675862915313007 0.1075389075324867 0 -0.052564192858311647 0.1143395004238357 0 -0.06039129774897823 0.1224923682318263 0 -0.065675862915313007 0.1075389075324867 0 -0.049694043820730213 0.12546306997878651 0 -0.044072443506286203 0.1206698917193947 0 -0.052564192858311647 0.1143395004238357 0 -0.049694043820730213 0.12546306997878651 0 -0.052564192858311647 0.1143395004238357 0 -0.06039129774897823 0.1224923682318263 0 -0.06039129774897823 0.1224923682318263 0 -0.079154850080665973 0.1184200787634784 0 -0.065675862915313007 0.1075389075324867 0 -0.066632897365564894 0.13287767712965881 0 -0.06039129774897823 0.1224923682318263 0 -0.079154850080665973 0.1184200787634784 0 -0.10334604606111709 0.12824003644960669 0 -0.079154850080665973 0.1184200787634784 0 -0.09395610009940196 0.1061308875038746 0 -0.07920402875836359 0.094477839074487549 0 -0.095837290397081387 0.088770327387604098 0 -0.09395610009940196 0.1061308875038746 0 -0.079154850080665973 0.1184200787634784 0 -0.07920402875836359 0.094477839074487549 0 -0.09395610009940196 0.1061308875038746 0 -0.079154850080665973 0.1184200787634784 0 -0.07920402875836359 0.094477839074487549 0 -0.065675862915313007 0.1075389075324867 0 -0.07920402875836359 0.094477839074487549 0 -0.065675862915313007 0.1075389075324867 0 -0.064841770068670396 0.092009388573163098 0 -0.064841770068670396 0.092009388573163098 0 -0.063536826324196272 0.078733045959702902 0 -0.07499383936065171 0.080759170305679334 0 -0.07920402875836359 0.094477839074487549 0 -0.064841770068670396 0.092009388573163098 0 -0.07499383936065171 0.080759170305679334 0 -0.058775836227469597 0.071896483967971797 0 -0.066635280094797994 0.053973621262638563 0 -0.058775836227469597 0.071896483967971797 0 -0.072821582829785694 0.069529896726757204 0 -0.066635280094797994 0.053973621262638563 0 -0.058775836227469597 0.071896483967971797 0 -0.063536826324196272 0.078733045959702902 0 -0.072821582829785694 0.069529896726757204 0 -0.063536826324196272 0.078733045959702902 0 -0.07499383936065171 0.080759170305679334 0 -0.072821582829785694 0.069529896726757204 0 -0.088169894934220616 0.074683787418281439 0 -0.097135761110077629 0.054889735762075363 0 -0.088169894934220616 0.074683787418281439 0 -0.097135761110077629 0.054889735762075363 0 -0.082226194531849664 0.059522338770801132 0 -0.072821582829785694 0.069529896726757204 0 -0.088169894934220616 0.074683787418281439 0 -0.082226194531849664 0.059522338770801132 0 -0.07499383936065171 0.080759170305679334 0 -0.072821582829785694 0.069529896726757204 0 -0.088169894934220616 0.074683787418281439 0 -0.07920402875836359 0.094477839074487549 0 -0.088169894934220616 0.074683787418281439 0 -0.095837290397081387 0.088770327387604098 0 -0.07920402875836359 0.094477839074487549 0 -0.07499383936065171 0.080759170305679334 0 -0.088169894934220616 0.074683787418281439 0 -0.07920402875836359 0.094477839074487549 0 -0.088169894934220616 0.074683787418281439 0 -0.088169894934220616 0.074683787418281439 0 -0.095837290397081387 0.088770327387604098 0 -0.10442725878177959 0.07188957059860604 0 -0.108774270798733 0.083631490045669221 0 -0.095837290397081387 0.088770327387604098 0 -0.11297014743870309 0.10067997140093859 0 -0.108774270798733 0.083631490045669221 0 -0.095837290397081387 0.088770327387604098 0 -0.10442725878177959 0.07188957059860604 0 -0.088169894934220616 0.074683787418281439 0 -0.10442725878177959 0.07188957059860604 0 -0.097135761110077629 0.054889735762075363 0 -0.10442725878177959 0.07188957059860604 0 -0.12259424881628921 0.07311990635227042 0 -0.113375305712122 0.055561248308253271 0 -0.108774270798733 0.083631490045669221 0 -0.10442725878177959 0.07188957059860604 0 -0.12259424881628921 0.07311990635227042 0 -0.108774270798733 0.083631490045669221 0 -0.12259424881628921 0.07311990635227042 0 -0.11297014743870309 0.10067997140093859 0 -0.12831916191688239 0.087299412599157813 0 -0.12259424881628921 0.07311990635227042 0 -0.11297014743870309 0.10067997140093859 0 -0.12259424881628921 0.07311990635227042 0 -0.11297014743870309 0.10067997140093859 0 -0.12831916191688239 0.087299412599157813 0 -0.11297014743870309 0.10067997140093859 0 -0.12498508506313841 0.10687730506524611 0 -0.10334604606111709 0.12824003644960669 0 -0.11297014743870309 0.10067997140093859 0 -0.12036468150963781 0.12182649508351021 0 -0.11297014743870309 0.10067997140093859 0 -0.12498508506313841 0.10687730506524611 0 -0.12036468150963781 0.12182649508351021 0 -0.10334604606111709 0.12824003644960669 0 -0.11297014743870309 0.10067997140093859 0 -0.10334604606111709 0.12824003644960669 0 -0.11297014743870309 0.10067997140093859 0 -0.09395610009940196 0.1061308875038746 0 -0.095837290397081387 0.088770327387604098 0 -0.11297014743870309 0.10067997140093859 0 -0.09395610009940196 0.1061308875038746 0 -0.10868431907899501 0.0222919598246368 0 -0.098370341644408901 0.016872546016086669 0 -0.091602837798278741 0.029140992434583679 0 -0.10868431907899501 0.0222919598246368 0 -0.1086842494538159 0.029393997777206519 0 -0.091602837798278741 0.029140992434583679 0 -0.1086842494538159 0.029393997777206519 0 -0.106101627285936 0.035095684105869933 0 -0.091602837798278741 0.029140992434583679 0 -0.10868431907899501 0.0222919598246368 0 -0.091602837798278741 0.029140992434583679 0 -0.10868431907899501 0.0222919598246368 0 -0.098370341644408901 0.016872546016086669 0 -0.1086844222207676 0.011771099516097561 0 -0.10868431907899501 0.0222919598246368 0 -0.1086844222207676 0.011771099516097561 0 -0.10868431907899501 0.0222919598246368 0 -0.1086842494538159 0.029393997777206519 0 -0.096474233828364037 -0.0068040047894571357 0 -0.1086844222207676 0.011771099516097561 0 -0.098370341644408901 0.016872546016086669 0 -0.096670047024322206 0.006693395324862475 0 -0.1086844222207676 0.011771099516097561 0 -0.098370341644408901 0.016872546016086669 0 -0.096670047024322206 0.006693395324862475 0 -0.090603107185942056 0.010457335366242909 0 -0.096474233828364037 -0.0068040047894571357 0 -0.096670047024322206 0.006693395324862475 0 -0.1086844222207676 0.011771099516097561 0 -0.096474233828364037 -0.0068040047894571357 0 -0.096670047024322206 0.006693395324862475 0 -0.088518055910885796 0.001011111111938902 0 -0.1086844222207676 0.011771099516097561 0 -0.11341023564281411 0.01896038066573752 0 -0.11882490356417411 -0.003904598360146466 0 -0.1086844222207676 0.011771099516097561 0 -0.11815406400030549 0.0084873731821777793 0 -0.1086844222207676 0.011771099516097561 0 -0.11815406400030549 0.0084873731821777793 0 -0.11341023564281411 0.01896038066573752 0 -0.12905663811260151 0.014123424841729791 0 -0.11815406400030549 0.0084873731821777793 0 -0.11341023564281411 0.01896038066573752 0 -0.11815406400030549 0.0084873731821777793 0 -0.11341023564281411 0.01896038066573752 0 -0.11882490356417411 -0.003904598360146466 0 -0.1291944312396914 0.0041045353414499199 0 -0.11815406400030549 0.0084873731821777793 0 -0.12905663811260151 0.014123424841729791 0 -0.1252633286195389 0.0259300678444884 0 -0.1126150706721803 0.020715876029509681 0 -0.1252633286195389 0.0259300678444884 0 -0.1086842494538159 0.029393997777206519 0 -0.10868420566762239 0.033860359434047978 0 -0.1252633286195389 0.0259300678444884 0 -0.1086842494538159 0.029393997777206519 0 -0.1126150706721803 0.020715876029509681 0 -0.12905663811260151 0.014123424841729791 0 -0.1126150706721803 0.020715876029509681 0 -0.1252633286195389 0.0259300678444884 0 -0.10868420566762239 0.033860359434047978 0 -0.12905663811260151 0.014123424841729791 0 -0.11341023564281411 0.01896038066573752 0 -0.1126150706721803 0.020715876029509681 0 -0.10868431907899501 0.0222919598246368 0 -0.1086844222207676 0.011771099516097561 0 -0.11341023564281411 0.01896038066573752 0 -0.10868431907899501 0.0222919598246368 0 -0.1126150706721803 0.020715876029509681 0 -0.10868431907899501 0.0222919598246368 0 -0.11341023564281411 0.01896038066573752 0 -0.1126150706721803 0.020715876029509681 0 -0.11341023564281411 0.01896038066573752 0 -0.1126150706721803 0.020715876029509681 0 -0.10868431907899501 0.0222919598246368 0 -0.1086842494538159 0.029393997777206519 0 -0.1126150706721803 0.020715876029509681 0 -0.1086842494538159 0.029393997777206519 0 -0.1126150706721803 0.020715876029509681 0 -0.13221835019387521 0.045559841303602473 0 -0.1179997896040296 0.037241119001395047 0 -0.1151488860501188 0.044120637816367179 0 -0.1252633286195389 0.0259300678444884 0 -0.1179997896040296 0.037241119001395047 0 -0.10868420566762239 0.033860359434047978 0 -0.1179997896040296 0.037241119001395047 0 -0.1151488860501188 0.044120637816367179 0 -0.1086841774889921 0.036734688608468111 0 -0.1151488860501188 0.044120637816367179 0 -0.1086841774889921 0.036734688608468111 0 -0.1080891515294494 0.04528039892020698 0 -0.1179997896040296 0.037241119001395047 0 -0.10868420566762239 0.033860359434047978 0 -0.1086841774889921 0.036734688608468111 0 -0.13221835019387521 0.045559841303602473 0 -0.12259424881628921 0.07311990635227042 0 -0.113375305712122 0.055561248308253271 0 -0.13221835019387521 0.045559841303602473 0 -0.1151488860501188 0.044120637816367179 0 -0.113375305712122 0.055561248308253271 0 -0.1151488860501188 0.044120637816367179 0 -0.113375305712122 0.055561248308253271 0 -0.1080891515294494 0.04528039892020698 0 -0.113375305712122 0.055561248308253271 0 -0.097135761110077629 0.054889735762075363 0 -0.1080891515294494 0.04528039892020698 0 -0.10442725878177959 0.07188957059860604 0 -0.113375305712122 0.055561248308253271 0 -0.097135761110077629 0.054889735762075363 0 -0.097135761110077629 0.054889735762075363 0 -0.106101627285936 0.035095684105869933 0 -0.1080891515294494 0.04528039892020698 0 -0.097135761110077629 0.054889735762075363 0 -0.106101627285936 0.035095684105869933 0 -0.097135761110077629 0.054889735762075363 0 -0.106101627285936 0.035095684105869933 0 -0.086368453690366956 0.044534652684254217 0 -0.106101627285936 0.035095684105869933 0 -0.086368453690366956 0.044534652684254217 0 -0.091602837798278741 0.029140992434583679 0 -0.106101627285936 0.035095684105869933 0 -0.086368453690366956 0.044534652684254217 0 -0.106101627285936 0.035095684105869933 0 -0.1086841774889921 0.036734688608468111 0 -0.1080891515294494 0.04528039892020698 0 -0.1086842494538159 0.029393997777206519 0 -0.10868420566762239 0.033860359434047978 0 -0.106101627285936 0.035095684105869933 0 -0.10868420566762239 0.033860359434047978 0 -0.1086842494538159 0.029393997777206519 0 -0.106101627285936 0.035095684105869933 0 -0.10868420566762239 0.033860359434047978 0 -0.1086842494538159 0.029393997777206519 0 -0.106101627285936 0.035095684105869933 0 -0.10868420566762239 0.033860359434047978 0 -0.1086841774889921 0.036734688608468111 0 -0.106101627285936 0.035095684105869933 0 -0.10868420566762239 0.033860359434047978 0 -0.1086841774889921 0.036734688608468111 0 -0.07558498835758741 0.033564493701655353 0 -0.074521356517562476 0.035990025044530652 0 -0.091602837798278741 0.029140992434583679 0 -0.074521356517562476 0.035990025044530652 0 -0.091602837798278741 0.029140992434583679 0 -0.086368453690366956 0.044534652684254217 0 -0.074521356517562476 0.035990025044530652 0 -0.091602837798278741 0.029140992434583679 0 -0.086368453690366956 0.044534652684254217 0 -0.082226194531849664 0.059522338770801132 0 -0.066635280094797994 0.053973621262638563 0 -0.097135761110077629 0.054889735762075363 0 -0.086368453690366956 0.044534652684254217 0 -0.082226194531849664 0.059522338770801132 0 -0.086368453690366956 0.044534652684254217 0 -0.066635280094797994 0.053973621262638563 0 -0.072821582829785694 0.069529896726757204 0 -0.082226194531849664 0.059522338770801132 0 -0.066635280094797994 0.053973621262638563 0 -0.074521356517562476 0.035990025044530652 0 -0.058503465934432827 0.042412597720955333 0 -0.068943562013502546 0.032255417571422182 0 -0.064574802698611003 0.025943695368219478 0 -0.058503465934432827 0.042412597720955333 0 -0.074521356517562476 0.035990025044530652 0 -0.068943562013502546 0.032255417571422182 0 -0.058503465934432827 0.042412597720955333 0 -0.066635280094797994 0.053973621262638563 0 -0.074521356517562476 0.035990025044530652 0 -0.058503465934432827 0.042412597720955333 0 -0.066635280094797994 0.053973621262638563 0 -0.074521356517562476 0.035990025044530652 0 -0.086368453690366956 0.044534652684254217 0 -0.066635280094797994 0.053973621262638563 0 -0.074521356517562476 0.035990025044530652 0 -0.07558498835758741 0.033564493701655353 0 -0.074521356517562476 0.035990025044530652 0 -0.068943562013502546 0.032255417571422182 0 -0.07558498835758741 0.033564493701655353 0 -0.074521356517562476 0.035990025044530652 0 -0.068943562013502546 0.032255417571422182 0 -0.064574802698611003 0.025943695368219478 0 -0.073323153203615599 0.024906305652105699 0 -0.064574802698611003 0.025943695368219478 0 -0.070646139462790539 0.0094747930154841092 0 -0.064574802698611003 0.025943695368219478 0 -0.073323153203615599 0.024906305652105699 0 -0.070646139462790539 0.0094747930154841092 0 -0.064574802698611003 0.025943695368219478 0 -0.070646139462790539 0.0094747930154841092 0 -0.054137166241978563 0.01499649795477126 0 -0.073323153203615599 0.024906305652105699 0 -0.080648623158005014 0.02068761432773053 0 -0.070646139462790539 0.0094747930154841092 0 -0.07558498835758741 0.033564493701655353 0 -0.068943562013502546 0.032255417571422182 0 -0.073323153203615599 0.024906305652105699 0 -0.07558498835758741 0.033564493701655353 0 -0.073323153203615599 0.024906305652105699 0 -0.082220898185533978 0.025652939356513541 0 -0.07558498835758741 0.033564493701655353 0 -0.082220898185533978 0.025652939356513541 0 -0.091602837798278741 0.029140992434583679 0 -0.073323153203615599 0.024906305652105699 0 -0.082220898185533978 0.025652939356513541 0 -0.080648623158005014 0.02068761432773053 0 -0.080648623158005014 0.02068761432773053 0 -0.087535047032796715 0.01885721442770209 0 -0.081764474224611694 0.0103318590650552 0 -0.082220898185533978 0.025652939356513541 0 -0.080648623158005014 0.02068761432773053 0 -0.087535047032796715 0.01885721442770209 0 -0.098370341644408901 0.016872546016086669 0 -0.087535047032796715 0.01885721442770209 0 -0.091602837798278741 0.029140992434583679 0 -0.082220898185533978 0.025652939356513541 0 -0.087535047032796715 0.01885721442770209 0 -0.091602837798278741 0.029140992434583679 0 -0.088518055910885796 0.001011111111938902 0 -0.090603107185942056 0.010457335366242909 0 -0.081764474224611694 0.0103318590650552 0 -0.096670047024322206 0.006693395324862475 0 -0.088518055910885796 0.001011111111938902 0 -0.090603107185942056 0.010457335366242909 0 -0.087535047032796715 0.01885721442770209 0 -0.090603107185942056 0.010457335366242909 0 -0.081764474224611694 0.0103318590650552 0 -0.098370341644408901 0.016872546016086669 0 -0.087535047032796715 0.01885721442770209 0 -0.090603107185942056 0.010457335366242909 0 -0.078334814199318203 -0.002763550018114088 0 -0.088518055910885796 0.001011111111938902 0 -0.081764474224611694 0.0103318590650552 0 -0.078334814199318203 -0.002763550018114088 0 -0.081764474224611694 0.0103318590650552 0 -0.070646139462790539 0.0094747930154841092 0 -0.067452598589598109 -0.0051396610207635326 0 -0.05314374056246722 -0.0011078366443659951 0 -0.070646139462790539 0.0094747930154841092 0 -0.078334814199318203 -0.002763550018114088 0 -0.067452598589598109 -0.0051396610207635326 0 -0.070646139462790539 0.0094747930154841092 0 -0.080648623158005014 0.02068761432773053 0 -0.081764474224611694 0.0103318590650552 0 -0.070646139462790539 0.0094747930154841092 0 -0.05314374056246722 -0.0011078366443659951 0 -0.070646139462790539 0.0094747930154841092 0 -0.054137166241978563 0.01499649795477126 0 -0.064574802698611003 0.025943695368219478 0 -0.054137166241978563 0.01499649795477126 0 -0.051479177151407637 0.02901892216642327 0 -0.064574802698611003 0.025943695368219478 0 -0.051479177151407637 0.02901892216642327 0 -0.055034278840522692 0.036919159612053422 0 -0.054137166241978563 0.01499649795477126 0 -0.051479177151407637 0.02901892216642327 0 -0.045752118447198641 0.022486949746481969 0 -0.045752118447198641 0.022486949746481969 0 -0.040021524222800441 0.029842175019524721 0 -0.036235149607516573 0.01641997732291554 0 -0.054137166241978563 0.01499649795477126 0 -0.045752118447198641 0.022486949746481969 0 -0.036235149607516573 0.01641997732291554 0 -0.051479177151407637 0.02901892216642327 0 -0.045752118447198641 0.022486949746481969 0 -0.040021524222800441 0.029842175019524721 0 -0.040021524222800441 0.029842175019524721 0 -0.036235149607516573 0.01641997732291554 0 -0.03063881180234183 0.027977595990517121 0 -0.05314374056246722 -0.0011078366443659951 0 -0.054137166241978563 0.01499649795477126 0 -0.02986916218455692 0.00093512753027480411 0 -0.054137166241978563 0.01499649795477126 0 -0.02986916218455692 0.00093512753027480411 0 -0.054137166241978563 0.01499649795477126 0 -0.036235149607516573 0.01641997732291554 0 -0.02986916218455692 0.00093512753027480411 0 -0.051588031227036701 0.061171171548507347 0 -0.056321252896382921 0.043287583210436562 0 -0.058503465934432827 0.042412597720955333 0 -0.066635280094797994 0.053973621262638563 0 -0.051588031227036701 0.061171171548507347 0 -0.058503465934432827 0.042412597720955333 0 -0.058775836227469597 0.071896483967971797 0 -0.066635280094797994 0.053973621262638563 0 -0.051588031227036701 0.061171171548507347 0 -0.051588031227036701 0.061171171548507347 0 -0.048084362210970018 0.048506802192702231 0 -0.056321252896382921 0.043287583210436562 0 -0.051588031227036701 0.061171171548507347 0 -0.058503465934432827 0.042412597720955333 0 -0.066635280094797994 0.053973621262638563 0 -0.051588031227036701 0.061171171548507347 0 -0.064574802698611003 0.025943695368219478 0 -0.058503465934432827 0.042412597720955333 0 -0.064574802698611003 0.025943695368219478 0 -0.058503465934432827 0.042412597720955333 0 -0.055034278840522692 0.036919159612053422 0 -0.056321252896382921 0.043287583210436562 0 -0.055034278840522692 0.036919159612053422 0 -0.04591643982308477 0.039643699128053468 0 -0.048084362210970018 0.048506802192702231 0 -0.056321252896382921 0.043287583210436562 0 -0.04591643982308477 0.039643699128053468 0 -0.056321252896382921 0.043287583210436562 0 -0.058503465934432827 0.042412597720955333 0 -0.055034278840522692 0.036919159612053422 0 -0.056321252896382921 0.043287583210436562 0 -0.058503465934432827 0.042412597720955333 0 -0.051479177151407637 0.02901892216642327 0 -0.055034278840522692 0.036919159612053422 0 -0.04591643982308477 0.039643699128053468 0 -0.040021524222800441 0.029842175019524721 0 -0.03178153062986272 0.039245191628270552 0 -0.04591643982308477 0.039643699128053468 0 -0.051479177151407637 0.02901892216642327 0 -0.040021524222800441 0.029842175019524721 0 -0.04591643982308477 0.039643699128053468 0 -0.040021524222800441 0.029842175019524721 0 -0.03178153062986272 0.039245191628270552 0 -0.03063881180234183 0.027977595990517121 0 -0.03178153062986272 0.039245191628270552 0 -0.04591643982308477 0.039643699128053468 0 -0.038511724897375373 0.049924754883811463 0 -0.048084362210970018 0.048506802192702231 0 -0.04591643982308477 0.039643699128053468 0 -0.038511724897375373 0.049924754883811463 0 -0.025224927858368561 0.073781434318475142 0 -0.051588031227036701 0.061171171548507347 0 -0.038511724897375373 0.049924754883811463 0 -0.051588031227036701 0.061171171548507347 0 -0.048084362210970018 0.048506802192702231 0 -0.038511724897375373 0.049924754883811463 0 -0.03178153062986272 0.039245191628270552 0 -0.038511724897375373 0.049924754883811463 0 -0.019394451164015749 0.052875352388623273 0 -0.025224927858368561 0.073781434318475142 0 -0.038511724897375373 0.049924754883811463 0 -0.019394451164015749 0.052875352388623273 0 -0.03178153062986272 0.039245191628270552 0 -0.019394451164015749 0.052875352388623273 0 -0.02033676481494506 0.035452109267522833 0 -0.03178153062986272 0.039245191628270552 0 -0.02033676481494506 0.035452109267522833 0 -0.03063881180234183 0.027977595990517121 0 -0.0055155519870559947 0.043415263487139623 0 -0.007545586830714132 0.02826159655138423 0 0.0090443642049707791 0.034401988067768292 0 -0.019394451164015749 0.052875352388623273 0 -0.02033676481494506 0.035452109267522833 0 -0.0055155519870559947 0.043415263487139623 0 -0.02033676481494506 0.035452109267522833 0 -0.0055155519870559947 0.043415263487139623 0 -0.007545586830714132 0.02826159655138423 0 -0.019394451164015749 0.052875352388623273 0 -0.0055155519870559947 0.043415263487139623 0 -0.002301178751836312 0.057485792433887448 0 -0.010094729421848161 0.069813938637967296 0 -0.019394451164015749 0.052875352388623273 0 -0.002301178751836312 0.057485792433887448 0 -0.021570220396010292 0.0083113083359250533 0 -0.024819089736584359 0.018928526714351981 0 -0.0091074989120523125 0.01187870620834572 0 -0.021570220396010292 0.0083113083359250533 0 -0.02986916218455692 0.00093512753027480411 0 -0.01307847104267023 0.001682871512254519 0 -0.036235149607516573 0.01641997732291554 0 -0.021570220396010292 0.0083113083359250533 0 -0.024819089736584359 0.018928526714351981 0 -0.036235149607516573 0.01641997732291554 0 -0.021570220396010292 0.0083113083359250533 0 -0.02986916218455692 0.00093512753027480411 0 -0.02033676481494506 0.035452109267522833 0 -0.024819089736584359 0.018928526714351981 0 -0.007545586830714132 0.02826159655138423 0 -0.036235149607516573 0.01641997732291554 0 -0.024819089736584359 0.018928526714351981 0 -0.03063881180234183 0.027977595990517121 0 -0.02033676481494506 0.035452109267522833 0 -0.024819089736584359 0.018928526714351981 0 -0.03063881180234183 0.027977595990517121 0 -0.024819089736584359 0.018928526714351981 0 -0.007545586830714132 0.02826159655138423 0 -0.0091074989120523125 0.01187870620834572 0 -0.007545586830714132 0.02826159655138423 0 -0.0091074989120523125 0.01187870620834572 0 0.01131525294236692 0.01502849756313805 0 -0.021570220396010292 0.0083113083359250533 0 -0.0091074989120523125 0.01187870620834572 0 -0.01307847104267023 0.001682871512254519 0 -0.0091074989120523125 0.01187870620834572 0 -0.01307847104267023 0.001682871512254519 0 0.0013368076600828139 0.00064641566715705325 0 0.0013368076600828139 0.00064641566715705325 0 0.01131525294236692 0.01502849756313805 0 0.017202183584489831 -0.00165383889496219 0 -0.0091074989120523125 0.01187870620834572 0 0.0013368076600828139 0.00064641566715705325 0 0.01131525294236692 0.01502849756313805 0 -0.007545586830714132 0.02826159655138423 0 0.01131525294236692 0.01502849756313805 0 0.0090443642049707791 0.034401988067768292 0 0.01131525294236692 0.01502849756313805 0 0.030314467033418759 0.022914020889482599 0 0.0090443642049707791 0.034401988067768292 0 0.027816065546242441 0.0086543597504839531 0 0.017202183584489831 -0.00165383889496219 0 0.039156041060281373 -0.0063405088962643318 0 0.01131525294236692 0.01502849756313805 0 0.030314467033418759 0.022914020889482599 0 0.027816065546242441 0.0086543597504839531 0 0.01131525294236692 0.01502849756313805 0 0.027816065546242441 0.0086543597504839531 0 0.017202183584489831 -0.00165383889496219 0 -0.002301178751836312 0.057485792433887448 0 0.010342632402674591 0.051620203392647758 0 0.018705060752044381 0.067219935534496913 0 -0.0055155519870559947 0.043415263487139623 0 -0.002301178751836312 0.057485792433887448 0 0.010342632402674591 0.051620203392647758 0 -0.0055155519870559947 0.043415263487139623 0 0.010342632402674591 0.051620203392647758 0 0.0090443642049707791 0.034401988067768292 0 0.010342632402674591 0.051620203392647758 0 0.0090443642049707791 0.034401988067768292 0 0.024792305864775269 0.042186719846534007 0 0.030314467033418759 0.022914020889482599 0 0.0090443642049707791 0.034401988067768292 0 0.024792305864775269 0.042186719846534007 0 0.04211242653980999 0.051052730384725797 0 0.018705060752044381 0.067219935534496913 0 0.024792305864775269 0.042186719846534007 0 0.04211242653980999 0.051052730384725797 0 0.018705060752044381 0.067219935534496913 0 0.010342632402674591 0.051620203392647758 0 0.024792305864775269 0.042186719846534007 0 0.018705060752044381 0.067219935534496913 0 0.024792305864775269 0.042186719846534007 0 0.04211242653980999 0.051052730384725797 0 0.047908148831452363 0.028926183586987848 0 0.030314467033418759 0.022914020889482599 0 0.024792305864775269 0.042186719846534007 0 0.047908148831452363 0.028926183586987848 0 0.04211242653980999 0.051052730384725797 0 0.065519792327575571 0.034885525234954723 0 0.04211242653980999 0.051052730384725797 0 0.065519792327575571 0.034885525234954723 0 0.070112824696668866 0.047921667263493777 0 0.04211242653980999 0.051052730384725797 0 0.047908148831452363 0.028926183586987848 0 0.065519792327575571 0.034885525234954723 0 0.04211242653980999 0.051052730384725797 0 0.057516148265934652 0.062038588379671182 0 0.043870352276893072 0.072547356422293721 0 0.04211242653980999 0.051052730384725797 0 0.057516148265934652 0.062038588379671182 0 0.070112824696668866 0.047921667263493777 0 0.027816065546242441 0.0086543597504839531 0 0.041092383110655363 0.013323628091025641 0 0.039156041060281373 -0.0063405088962643318 0 0.041092383110655363 0.013323628091025641 0 0.059645236190275362 0.0145065955261905 0 0.039156041060281373 -0.0063405088962643318 0 0.030314467033418759 0.022914020889482599 0 0.027816065546242441 0.0086543597504839531 0 0.041092383110655363 0.013323628091025641 0 0.030314467033418759 0.022914020889482599 0 0.041092383110655363 0.013323628091025641 0 0.047908148831452363 0.028926183586987848 0 0.047908148831452363 0.028926183586987848 0 0.06140945254390668 0.025034214395326 0 0.065519792327575571 0.034885525234954723 0 0.041092383110655363 0.013323628091025641 0 0.047908148831452363 0.028926183586987848 0 0.059645236190275362 0.0145065955261905 0 0.047908148831452363 0.028926183586987848 0 0.06140945254390668 0.025034214395326 0 0.059645236190275362 0.0145065955261905 0 0.059645236190275362 0.0145065955261905 0 0.039156041060281373 -0.0063405088962643318 0 0.07046445119507376 0.019381762022810171 0 0.070816077693478641 -0.009158143217873338 0 0.059645236190275362 0.0145065955261905 0 0.07046445119507376 0.019381762022810171 0 0.070816077693478641 -0.009158143217873338 0 0.07046445119507376 0.019381762022810171 0 0.094115934799620465 0.002956992047629543 0 0.070816077693478641 -0.009158143217873338 0 0.07046445119507376 0.019381762022810171 0 0.090758605498639719 0.033499335305823767 0 0.094115934799620465 0.002956992047629543 0 0.06140945254390668 0.025034214395326 0 0.059645236190275362 0.0145065955261905 0 0.07046445119507376 0.019381762022810171 0 0.06140945254390668 0.025034214395326 0 0.07046445119507376 0.019381762022810171 0 0.065519792327575571 0.034885525234954723 0 0.07046445119507376 0.019381762022810171 0 0.070112824696668866 0.047921667263493777 0 0.090758605498639719 0.033499335305823767 0 0.07046445119507376 0.019381762022810171 0 0.070112824696668866 0.047921667263493777 0 0.07046445119507376 0.019381762022810171 0 0.065519792327575571 0.034885525234954723 0 0.070112824696668866 0.047921667263493777 0 0.070112824696668866 0.047921667263493777 0 0.069761198198263985 0.076461572504177178 0 0.057516148265934652 0.062038588379671182 0 0.070112824696668866 0.047921667263493777 0 0.069761198198263985 0.076461572504177178 0 0.070112824696668866 0.047921667263493777 0 0.094841862682265479 0.056875809283352813 0 0.069761198198263985 0.076461572504177178 0 0.070112824696668866 0.047921667263493777 0 0.090758605498639719 0.033499335305823767 0 0.094841862682265479 0.056875809283352813 0 0.090758605498639719 0.033499335305823767 0 0.1091203502907839 0.044890400588431273 0 0.094841862682265479 0.056875809283352813 0 0.090758605498639719 0.033499335305823767 0 0.1091203502907839 0.044890400588431273 0 0.11205610120770269 0.02148849400253016 0 0.1091203502907839 0.044890400588431273 0 0.094841862682265479 0.056875809283352813 0 0.11187978735429489 0.065560952420802121 0 0.1091203502907839 0.044890400588431273 0 0.11187978735429489 0.065560952420802121 0 0.12661665692874949 0.054581172971564437 0 0.1091203502907839 0.044890400588431273 0 0.13635288112719929 0.035740320573991811 0 0.12661665692874949 0.054581172971564437 0 0.1091203502907839 0.044890400588431273 0 0.11205610120770269 0.02148849400253016 0 0.13635288112719929 0.035740320573991811 0 0.11205610120770269 0.02148849400253016 0 0.13622699799421389 0.01171634775034593 0 0.1181245711307409 -0.01222909671881825 0 0.11205610120770269 0.02148849400253016 0 0.094115934799620465 0.002956992047629543 0 0.1181245711307409 -0.01222909671881825 0 0.090758605498639719 0.033499335305823767 0 0.11205610120770269 0.02148849400253016 0 0.094115934799620465 0.002956992047629543 0 0.11455352190873851 0.1008041347564587 0 0.093485130716933651 0.086255446843363184 0 0.092128398751601809 0.1156350844033736 0 0.11455352190873851 0.1008041347564587 0 0.092128398751601809 0.1156350844033736 0 0.1167558334748582 0.12638472335056161 0 0.11455352190873851 0.1008041347564587 0 0.1167558334748582 0.12638472335056161 0 0.13365954943985389 0.10583369982579691 0 0.11455352190873851 0.1008041347564587 0 0.1163820690046866 0.08231591411283562 0 0.13362653152931531 0.087902504541129606 0 0.1163820690046866 0.08231591411283562 0 0.11187978735429489 0.065560952420802121 0 0.1310097943044751 0.070561523775904744 0 0.11187978735429489 0.065560952420802121 0 0.12661665692874949 0.054581172971564437 0 0.1310097943044751 0.070561523775904744 0 0.1163820690046866 0.08231591411283562 0 0.11187978735429489 0.065560952420802121 0 0.093485130716933651 0.086255446843363184 0 0.094841862682265479 0.056875809283352813 0 0.11187978735429489 0.065560952420802121 0 0.093485130716933651 0.086255446843363184 0 0.094841862682265479 0.056875809283352813 0 0.093485130716933651 0.086255446843363184 0 0.11455352190873851 0.1008041347564587 0 0.1163820690046866 0.08231591411283562 0 0.093485130716933651 0.086255446843363184 0 0.094841862682265479 0.056875809283352813 0 0.093485130716933651 0.086255446843363184 0 0.069761198198263985 0.076461572504177178 0 0.093485130716933651 0.086255446843363184 0 0.069761198198263985 0.076461572504177178 0 0.069409571699859091 0.1050014777448607 0 0.069761198198263985 0.076461572504177178 0 0.069409571699859091 0.1050014777448607 0 0.049406517695206861 0.091341084456523502 0 0.069761198198263985 0.076461572504177178 0 0.069409571699859091 0.1050014777448607 0 0.093485130716933651 0.086255446843363184 0 0.092128398751601809 0.1156350844033736 0 0.093485130716933651 0.086255446843363184 0 0.069409571699859091 0.1050014777448607 0 0.092128398751601809 0.1156350844033736 0 0.069409571699859091 0.1050014777448607 0 0.069057945201454224 0.1335413829855443 0 0.069409571699859091 0.1050014777448607 0 0.055693576731866229 0.12065951591280299 0 0.069057945201454224 0.1335413829855443 0 0.069409571699859091 0.1050014777448607 0 0.092128398751601809 0.1156350844033736 0 0.069057945201454224 0.1335413829855443 0 0.069409571699859091 0.1050014777448607 0 0.055693576731866229 0.12065951591280299 0 0.049772540779466398 0.1078846446585774 0 0.055693576731866229 0.12065951591280299 0 0.049772540779466398 0.1078846446585774 0 0.043454187182237737 0.1231772993404657 0 0.069409571699859091 0.1050014777448607 0 0.049772540779466398 0.1078846446585774 0 0.049406517695206861 0.091341084456523502 0 0.049772540779466398 0.1078846446585774 0 0.034040126559311448 0.1002226823188109 0 0.049406517695206861 0.091341084456523502 0 0.049772540779466398 0.1078846446585774 0 0.034040126559311448 0.1002226823188109 0 0.035301321676678848 0.1132640601754991 0 0.035301321676678848 0.1132640601754991 0 0.031603539470721101 0.12335595826277949 0 0.043454187182237737 0.1231772993404657 0 0.049772540779466398 0.1078846446585774 0 0.035301321676678848 0.1132640601754991 0 0.043454187182237737 0.1231772993404657 0 0.057516148265934652 0.062038588379671182 0 0.069761198198263985 0.076461572504177178 0 0.043870352276893072 0.072547356422293721 0 0.069761198198263985 0.076461572504177178 0 0.049406517695206861 0.091341084456523502 0 0.043870352276893072 0.072547356422293721 0 0.049406517695206861 0.091341084456523502 0 0.043870352276893072 0.072547356422293721 0 0.02958531665744717 0.085928773090421143 0 0.034040126559311448 0.1002226823188109 0 0.049406517695206861 0.091341084456523502 0 0.02958531665744717 0.085928773090421143 0 0.04211242653980999 0.051052730384725797 0 0.043870352276893072 0.072547356422293721 0 0.018705060752044381 0.067219935534496913 0 0.043870352276893072 0.072547356422293721 0 0.018705060752044381 0.067219935534496913 0 0.02958531665744717 0.085928773090421143 0 0.018705060752044381 0.067219935534496913 0 0.02958531665744717 0.085928773090421143 0 0.01447722466854655 0.086613725078604584 0 0.02958531665744717 0.085928773090421143 0 0.01447722466854655 0.086613725078604584 0 0.018785028097272709 0.097425650586625737 0 -0.0047843932498527518 0.083558754877721325 0 0.018705060752044381 0.067219935534496913 0 0.001138175510299308 0.086391697088443103 0 0.018705060752044381 0.067219935534496913 0 0.01447722466854655 0.086613725078604584 0 0.001138175510299308 0.086391697088443103 0 0.01447722466854655 0.086613725078604584 0 0.018785028097272709 0.097425650586625737 0 0.00626468666842588 0.095063319054460804 0 -0.00092041545904237763 0.09259409097327688 0 0.001138175510299308 0.086391697088443103 0 0.00626468666842588 0.095063319054460804 0 0.01447722466854655 0.086613725078604584 0 0.001138175510299308 0.086391697088443103 0 0.00626468666842588 0.095063319054460804 0 -0.010094729421848161 0.069813938637967296 0 -0.0047843932498527518 0.083558754877721325 0 0.018705060752044381 0.067219935534496913 0 -0.010094729421848161 0.069813938637967296 0 -0.002301178751836312 0.057485792433887448 0 0.018705060752044381 0.067219935534496913 0 -0.0047843932498527518 0.083558754877721325 0 0.018705060752044381 0.067219935534496913 0 0.021012537877372721 0.1136421372766425 0 0.01050613594836323 0.1219748504031691 0 0.019456660463996332 0.1327980879482277 0 0.031603539470721101 0.12335595826277949 0 0.021012537877372721 0.1136421372766425 0 0.019456660463996332 0.1327980879482277 0 0.035301321676678848 0.1132640601754991 0 0.031603539470721101 0.12335595826277949 0 0.021012537877372721 0.1136421372766425 0 0.021012537877372721 0.1136421372766425 0 0.018785028097272709 0.097425650586625737 0 0.0095323385132711005 0.103492141275567 0 0.034040126559311448 0.1002226823188109 0 0.035301321676678848 0.1132640601754991 0 0.021012537877372721 0.1136421372766425 0 0.034040126559311448 0.1002226823188109 0 0.021012537877372721 0.1136421372766425 0 0.018785028097272709 0.097425650586625737 0 0.034040126559311448 0.1002226823188109 0 0.02958531665744717 0.085928773090421143 0 0.018785028097272709 0.097425650586625737 0 0.018785028097272709 0.097425650586625737 0 0.0095323385132711005 0.103492141275567 0 0.00626468666842588 0.095063319054460804 0 -0.0023530059837071501 0.098742106906744342 0 0.0095323385132711005 0.103492141275567 0 0.00626468666842588 0.095063319054460804 0 -0.0023530059837071501 0.098742106906744342 0 -0.00092041545904237763 0.09259409097327688 0 0.00626468666842588 0.095063319054460804 0 -0.001686238602976459 0.10732934986218851 0 -0.0023530059837071501 0.098742106906744342 0 0.0095323385132711005 0.103492141275567 0 -0.001686238602976459 0.10732934986218851 0 0.0095323385132711005 0.103492141275567 0 0.0061852282838836094 0.1124898966357307 0 -0.0026800463400507191 0.1173094583242295 0 -0.001686238602976459 0.10732934986218851 0 0.0061852282838836094 0.1124898966357307 0 -0.00096800065077765236 0.13369603841210301 0 -0.0026800463400507191 0.1173094583242295 0 0.01050613594836323 0.1219748504031691 0 0.021012537877372721 0.1136421372766425 0 0.0061852282838836094 0.1124898966357307 0 0.01050613594836323 0.1219748504031691 0 0.021012537877372721 0.1136421372766425 0 0.0095323385132711005 0.103492141275567 0 0.0061852282838836094 0.1124898966357307 0 -0.0026800463400507191 0.1173094583242295 0 0.0061852282838836094 0.1124898966357307 0 0.01050613594836323 0.1219748504031691 0 -0.00096800065077765236 0.13369603841210301 0 0.01050613594836323 0.1219748504031691 0 0.019456660463996332 0.1327980879482277 0 -0.00096800065077765236 0.13369603841210301 0 0.019456660463996332 0.1327980879482277 0 0.016526064189811271 0.1407433743883667 0 0.031603539470721101 0.12335595826277949 0 0.019456660463996332 0.1327980879482277 0 0.039496390879510533 0.13430704427718351 0 0.019456660463996332 0.1327980879482277 0 0.016526064189811271 0.1407433743883667 0 0.022576509302280161 0.1455063239738606 0 0.029396999684776909 0.15087691968618619 0 0.022333724574653709 0.1531633248391133 0 0.03340960743062743 0.15708947718765731 0 0.029396999684776909 0.15087691968618619 0 0.022576509302280161 0.1455063239738606 0 0.022333724574653709 0.1531633248391133 0 0.029396999684776909 0.15087691968618619 0 0.022576509302280161 0.1455063239738606 0 0.032065031142810153 0.14596012806264891 0 0.019456660463996332 0.1327980879482277 0 0.022576509302280161 0.1455063239738606 0 0.032065031142810153 0.14596012806264891 0 0.016526064189811271 0.1407433743883667 0 0.022576509302280161 0.1455063239738606 0 0.016693089003680339 0.14921025538727509 0 0.016693089003680339 0.14921025538727509 0 0.022333724574653709 0.1531633248391133 0 0.014777277314474519 0.1579447741833363 0 0.022576509302280161 0.1455063239738606 0 0.016693089003680339 0.14921025538727509 0 0.022333724574653709 0.1531633248391133 0 -0.00096800065077765236 0.13369603841210301 0 0.016693089003680339 0.14921025538727509 0 -0.0030735853369053862 0.1523147141600294 0 -0.00096800065077765236 0.13369603841210301 0 0.0071873575029135616 0.1514181295886807 0 -0.00096800065077765236 0.13369603841210301 0 0.016526064189811271 0.1407433743883667 0 0.016693089003680339 0.14921025538727509 0 -0.00096800065077765236 0.13369603841210301 0 0.016693089003680339 0.14921025538727509 0 0.0071873575029135616 0.1514181295886807 0 0.016693089003680339 0.14921025538727509 0 0.0071873575029135616 0.1514181295886807 0 0.014777277314474519 0.1579447741833363 0 -0.0030735853369053862 0.1523147141600294 0 0.0071873575029135616 0.1514181295886807 0 0.0085080071840959951 0.16392486580065979 0 0.014777277314474519 0.1579447741833363 0 0.0085080071840959951 0.16392486580065979 0 0.022411695568990649 0.16812682744983021 0 0.0071873575029135616 0.1514181295886807 0 0.014777277314474519 0.1579447741833363 0 0.0085080071840959951 0.16392486580065979 0 -0.0063844341421704686 0.1671665448316203 0 0.0085080071840959951 0.16392486580065979 0 0.0080851947112417864 0.1846781189199892 0 0.0085080071840959951 0.16392486580065979 0 0.0080851947112417864 0.1846781189199892 0 0.022411695568990649 0.16812682744983021 0 0.022411695568990649 0.16812682744983021 0 0.037641972249252052 0.16825265058296879 0 0.030713705276702689 0.1905912713821318 0 0.0080851947112417864 0.1846781189199892 0 0.022411695568990649 0.16812682744983021 0 0.030713705276702689 0.1905912713821318 0 0.022333724574653709 0.1531633248391133 0 0.014777277314474519 0.1579447741833363 0 0.022411695568990649 0.16812682744983021 0 0.022333724574653709 0.1531633248391133 0 0.037641972249252052 0.16825265058296879 0 0.022333724574653709 0.1531633248391133 0 0.022411695568990649 0.16812682744983021 0 0.037641972249252052 0.16825265058296879 0 0.022333724574653709 0.1531633248391133 0 0.03340960743062743 0.15708947718765731 0 0.037641972249252052 0.16825265058296879 0 0.03340960743062743 0.15708947718765731 0 0.037641972249252052 0.16825265058296879 0 0.043062170252137932 0.16028749519830349 0 0.03340960743062743 0.15708947718765731 0 0.043062170252137932 0.16028749519830349 0 0.03660012597351308 0.15266534436765081 0 0.037641972249252052 0.16825265058296879 0 0.043062170252137932 0.16028749519830349 0 0.055720812218779399 0.16398507385210701 0 0.037641972249252052 0.16825265058296879 0 0.052950219923850309 0.18334197632682431 0 0.030713705276702689 0.1905912713821318 0 0.037641972249252052 0.16825265058296879 0 0.052950219923850309 0.18334197632682431 0 0.052950219923850309 0.18334197632682431 0 0.055720812218779399 0.16398507385210701 0 0.068526985958265882 0.1766369021136929 0 0.055720812218779399 0.16398507385210701 0 0.044081489583532439 0.14743968808721969 0 0.068706318703058836 0.162081288226228 0 0.037641972249252052 0.16825265058296879 0 0.052950219923850309 0.18334197632682431 0 0.055720812218779399 0.16398507385210701 0 0.043062170252137932 0.16028749519830349 0 0.055720812218779399 0.16398507385210701 0 0.042914638479267658 0.15133324559054659 0 0.055720812218779399 0.16398507385210701 0 0.042914638479267658 0.15133324559054659 0 0.055720812218779399 0.16398507385210701 0 0.068526985958265882 0.1766369021136929 0 0.044081489583532439 0.14743968808721969 0 0.068706318703058836 0.162081288226228 0 0.055720812218779399 0.16398507385210701 0 0.042914638479267658 0.15133324559054659 0 0.044081489583532439 0.14743968808721969 0 0.053931548719100733 0.14577270442166659 0 0.044081489583532439 0.14743968808721969 0 0.068706318703058836 0.162081288226228 0 0.053931548719100733 0.14577270442166659 0 0.060667243902651553 0.144068433248664 0 0.068706318703058836 0.162081288226228 0 0.053931548719100733 0.14577270442166659 0 0.046804833781012543 0.13995541035482359 0 0.044081489583532439 0.14743968808721969 0 0.053931548719100733 0.14577270442166659 0 0.060667243902651553 0.144068433248664 0 0.052548468348746158 0.1344380125310371 0 0.060667243902651553 0.144068433248664 0 0.052548468348746158 0.1344380125310371 0 0.069057945201454224 0.1335413829855443 0 0.055693576731866229 0.12065951591280299 0 0.052548468348746158 0.1344380125310371 0 0.069057945201454224 0.1335413829855443 0 0.055693576731866229 0.12065951591280299 0 0.043454187182237737 0.1231772993404657 0 0.052548468348746158 0.1344380125310371 0 0.053931548719100733 0.14577270442166659 0 0.052548468348746158 0.1344380125310371 0 0.046804833781012543 0.13995541035482359 0 0.046804833781012543 0.13995541035482359 0 0.039496390879510533 0.13430704427718351 0 0.044081489583532439 0.14743968808721969 0 0.019456660463996332 0.1327980879482277 0 0.044081489583532439 0.14743968808721969 0 0.019456660463996332 0.1327980879482277 0 0.039496390879510533 0.13430704427718351 0 0.044081489583532439 0.14743968808721969 0 0.052548468348746158 0.1344380125310371 0 0.046804833781012543 0.13995541035482359 0 0.039496390879510533 0.13430704427718351 0 0.043454187182237737 0.1231772993404657 0 0.052548468348746158 0.1344380125310371 0 0.039496390879510533 0.13430704427718351 0 0.031603539470721101 0.12335595826277949 0 0.043454187182237737 0.1231772993404657 0 0.039496390879510533 0.13430704427718351 0 0.019456660463996332 0.1327980879482277 0 0.032065031142810153 0.14596012806264891 0 0.044081489583532439 0.14743968808721969 0 0.032065031142810153 0.14596012806264891 0 0.03912970843553748 0.14958802321536341 0 0.044081489583532439 0.14743968808721969 0 0.029396999684776909 0.15087691968618619 0 0.032065031142810153 0.14596012806264891 0 0.03660012597351308 0.15266534436765081 0 0.029396999684776909 0.15087691968618619 0 0.03340960743062743 0.15708947718765731 0 0.03660012597351308 0.15266534436765081 0 0.032065031142810153 0.14596012806264891 0 0.03660012597351308 0.15266534436765081 0 0.03912970843553748 0.14958802321536341 0 0.03912970843553748 0.14958802321536341 0 0.042914638479267658 0.15133324559054659 0 0.044081489583532439 0.14743968808721969 0 0.043062170252137932 0.16028749519830349 0 0.03660012597351308 0.15266534436765081 0 0.042914638479267658 0.15133324559054659 0 0.03660012597351308 0.15266534436765081 0 0.03912970843553748 0.14958802321536341 0 0.042914638479267658 0.15133324559054659 0 -0.0003166448063192459 0.22929833062518251 0 0.02074561315948352 0.23989236757757401 0 0.00078604608867878457 0.24678879113798841 0 0.02074561315948352 0.23989236757757401 0 0.00078604608867878457 0.24678879113798841 0 0.013123440841508641 0.25580196675434841 0 -0.0003166448063192459 0.22929833062518251 0 0.02074561315948352 0.23989236757757401 0 0.014415403935362661 0.21228524324878159 0 0.02074561315948352 0.23989236757757401 0 0.014415403935362661 0.21228524324878159 0 0.02074561315948352 0.23989236757757401 0 0.014415403935362661 0.21228524324878159 0 0.032381361487006682 0.21417603169712471 0 0.014415403935362661 0.21228524324878159 0 0.030713705276702689 0.1905912713821318 0 0.032381361487006682 0.21417603169712471 0 -0.0088230138482604248 0.21081801240542919 0 -0.0003166448063192459 0.22929833062518251 0 0.014415403935362661 0.21228524324878159 0 -0.0088230138482604248 0.21081801240542919 0 0.0080851947112417864 0.1846781189199892 0 0.014415403935362661 0.21228524324878159 0 0.0080851947112417864 0.1846781189199892 0 0.014415403935362661 0.21228524324878159 0 0.0080851947112417864 0.1846781189199892 0 0.014415403935362661 0.21228524324878159 0 0.030713705276702689 0.1905912713821318 0 0.052950219923850309 0.18334197632682431 0 0.030713705276702689 0.1905912713821318 0 0.04974328895074337 0.20568151984717681 0 0.052950219923850309 0.18334197632682431 0 0.04974328895074337 0.20568151984717681 0 0.068258467598486666 0.19843130207064111 0 0.052950219923850309 0.18334197632682431 0 0.068258467598486666 0.19843130207064111 0 0.04974328895074337 0.20568151984717681 0 0.067971562753977047 0.22171804841545931 0 0.068258467598486666 0.19843130207064111 0 0.04974328895074337 0.20568151984717681 0 0.046184416664399222 0.2258304891908787 0 0.067971562753977047 0.22171804841545931 0 0.04974328895074337 0.20568151984717681 0 0.032381361487006682 0.21417603169712471 0 0.046184416664399222 0.2258304891908787 0 0.030713705276702689 0.1905912713821318 0 0.04974328895074337 0.20568151984717681 0 0.032381361487006682 0.21417603169712471 0 0.02074561315948352 0.23989236757757401 0 0.032381361487006682 0.21417603169712471 0 0.046184416664399222 0.2258304891908787 0 0.046184416664399222 0.2258304891908787 0 0.05597643677099591 0.23893569992543581 0 0.067971562753977047 0.22171804841545931 0 0.046184416664399222 0.2258304891908787 0 0.05597643677099591 0.23893569992543581 0 0.047127946614086987 0.24996446111788881 0 0.067684657909432247 0.24500479476027689 0 0.056540995624820033 0.25261720487182782 0 0.05597643677099591 0.23893569992543581 0 0.067684657909432247 0.24500479476027689 0 0.056540995624820033 0.25261720487182782 0 0.05597643677099591 0.23893569992543581 0 0.047127946614086987 0.24996446111788881 0 0.056540995624820033 0.25261720487182782 0 0.02074561315948352 0.23989236757757401 0 0.046184416664399222 0.2258304891908787 0 0.034451152271647488 0.24664222207921541 0 0.046184416664399222 0.2258304891908787 0 0.047127946614086987 0.24996446111788881 0 0.046184416664399222 0.2258304891908787 0 0.047127946614086987 0.24996446111788881 0 0.034451152271647488 0.24664222207921541 0 0.081808183827857719 0.23535679316384431 0 0.096376220560316098 0.24709182360332529 0 0.081311918929848126 0.25262264126969791 0 0.081808183827857719 0.23535679316384431 0 0.095931709746281082 0.22570879156740861 0 0.096376220560316098 0.24709182360332529 0 0.081808183827857719 0.23535679316384431 0 0.067684657909432247 0.24500479476027689 0 0.081311918929848126 0.25262264126969791 0 0.05597643677099591 0.23893569992543581 0 0.067684657909432247 0.24500479476027689 0 0.067971562753977047 0.22171804841545931 0 0.081808183827857719 0.23535679316384431 0 0.067684657909432247 0.24500479476027689 0 0.067684657909432247 0.24500479476027689 0 0.067971562753977047 0.22171804841545931 0 0.081808183827857719 0.23535679316384431 0 0.067971562753977047 0.22171804841545931 0 0.082095088672363897 0.21207004681904509 0 0.081808183827857719 0.23535679316384431 0 0.067684657909432247 0.24500479476027689 0 0.067971562753977047 0.22171804841545931 0 0.081808183827857719 0.23535679316384431 0 0.082095088672363897 0.21207004681904509 0 0.095931709746281082 0.22570879156740861 0 0.081808183827857719 0.23535679316384431 0 0.095931709746281082 0.22570879156740861 0 0.082095088672363897 0.21207004681904509 0 0.095931709746281082 0.22570879156740861 0 0.087853186589706853 0.20821356491253001 0 0.088404508343005936 0.19627485210498871 0 0.095165577136686982 0.21299946717437729 0 0.087853186589706853 0.20821356491253001 0 0.082095088672363897 0.21207004681904509 0 0.088404508343005936 0.19627485210498871 0 0.082095088672363897 0.21207004681904509 0 0.095165577136686982 0.21299946717437729 0 0.095931709746281082 0.22570879156740861 0 0.087853186589706853 0.20821356491253001 0 0.082095088672363897 0.21207004681904509 0 0.095165577136686982 0.21299946717437729 0 0.067971562753977047 0.22171804841545931 0 0.068258467598486666 0.19843130207064111 0 0.067971562753977047 0.22171804841545931 0 0.082095088672363897 0.21207004681904509 0 0.068258467598486666 0.19843130207064111 0 0.082095088672363897 0.21207004681904509 0 0.068258467598486666 0.19843130207064111 0 0.068258467598486666 0.19843130207064111 0 0.088404508343005936 0.19627485210498871 0 0.068526985958265882 0.1766369021136929 0 0.068258467598486666 0.19843130207064111 0 0.068526985958265882 0.1766369021136929 0 0.082095088672363897 0.21207004681904509 0 0.068258467598486666 0.19843130207064111 0 0.088404508343005936 0.19627485210498871 0 0.087853186589706853 0.20821356491253001 0 0.088404508343005936 0.19627485210498871 0 0.088404508343005936 0.19627485210498871 0 0.1090954601060144 0.21671642767616919 0 0.11123775428268851 0.18736992150245441 0 0.1090954601060144 0.21671642767616919 0 0.11123775428268851 0.18736992150245441 0 0.1330605737444378 0.20034548348151471 0 0.11123775428268851 0.18736992150245441 0 0.1330605737444378 0.20034548348151471 0 0.1090954601060144 0.21671642767616919 0 0.1330605737444378 0.20034548348151471 0 0.088404508343005936 0.19627485210498871 0 0.1090954601060144 0.21671642767616919 0 0.095165577136686982 0.21299946717437729 0 0.088404508343005936 0.19627485210498871 0 0.1090954601060144 0.21671642767616919 0 0.1090954601060144 0.21671642767616919 0 0.095165577136686982 0.21299946717437729 0 0.095931709746281082 0.22570879156740861 0 0.1090954601060144 0.21671642767616919 0 0.095931709746281082 0.22570879156740861 0 0.1216419531253209 0.2291117050005208 0 0.1090954601060144 0.21671642767616919 0 0.095931709746281082 0.22570879156740861 0 0.1090954601060144 0.21671642767616919 0 0.1216419531253209 0.2291117050005208 0 0.1339040667011808 0.22010809859798591 0 0.095931709746281082 0.22570879156740861 0 0.1216419531253209 0.2291117050005208 0 0.1137556677469518 0.24327785068076879 0 0.1090954601060144 0.21671642767616919 0 0.1216419531253209 0.2291117050005208 0 0.1216419531253209 0.2291117050005208 0 0.1137556677469518 0.24327785068076879 0 0.13577324987587541 0.24088922869785701 0 0.095931709746281082 0.22570879156740861 0 0.1137556677469518 0.24327785068076879 0 0.096376220560316098 0.24709182360332529 0 0.095931709746281082 0.22570879156740861 0 0.1137556677469518 0.24327785068076879 0 0.092128398751601809 0.1156350844033736 0 0.090771666786269994 0.14501472196338391 0 0.069057945201454224 0.1335413829855443 0 0.092128398751601809 0.1156350844033736 0 0.090771666786269994 0.14501472196338391 0 0.060667243902651553 0.144068433248664 0 0.069057945201454224 0.1335413829855443 0 0.068706318703058836 0.162081288226228 0 0.069057945201454224 0.1335413829855443 0 0.068706318703058836 0.162081288226228 0 0.090771666786269994 0.14501472196338391 0 0.069057945201454224 0.1335413829855443 0 0.068706318703058836 0.162081288226228 0 0.068706318703058836 0.162081288226228 0 0.068526985958265882 0.1766369021136929 0 0.089414934820938902 0.17439435952339441 0 0.068706318703058836 0.162081288226228 0 0.068526985958265882 0.1766369021136929 0 0.055720812218779399 0.16398507385210701 0 0.068706318703058836 0.162081288226228 0 0.068526985958265882 0.1766369021136929 0 0.052950219923850309 0.18334197632682431 0 0.068258467598486666 0.19843130207064111 0 0.068526985958265882 0.1766369021136929 0 0.088404508343005936 0.19627485210498871 0 0.089414934820938902 0.17439435952339441 0 0.088404508343005936 0.19627485210498871 0 0.068526985958265882 0.1766369021136929 0 0.089414934820938902 0.17439435952339441 0 0.088404508343005936 0.19627485210498871 0 0.068526985958265882 0.1766369021136929 0 0.068706318703058836 0.162081288226228 0 0.089414934820938902 0.17439435952339441 0 0.090771666786269994 0.14501472196338391 0 0.068706318703058836 0.162081288226228 0 0.089414934820938902 0.17439435952339441 0 0.090771666786269994 0.14501472196338391 0 0.089414934820938902 0.17439435952339441 0 0.090771666786269994 0.14501472196338391 0 0.089414934820938902 0.17439435952339441 0 0.10846579928773931 0.1646144126804254 0 0.088404508343005936 0.19627485210498871 0 0.089414934820938902 0.17439435952339441 0 0.11123775428268851 0.18736992150245441 0 0.089414934820938902 0.17439435952339441 0 0.10846579928773931 0.1646144126804254 0 0.11123775428268851 0.18736992150245441 0 0.089414934820938902 0.17439435952339441 0 0.11123775428268851 0.18736992150245441 0 0.11123775428268851 0.18736992150245441 0 0.1211070715302426 0.1740089814421075 0 0.13106536925687931 0.18370196674424061 0 0.10846579928773931 0.1646144126804254 0 0.11123775428268851 0.18736992150245441 0 0.1211070715302426 0.1740089814421075 0 0.10846579928773931 0.1646144126804254 0 0.1211070715302426 0.1740089814421075 0 0.1248576874695331 0.16010612798087351 0 0.10846579928773931 0.1646144126804254 0 0.1248576874695331 0.16010612798087351 0 0.1148755072536744 0.14694858495711699 0 0.090771666786269994 0.14501472196338391 0 0.10846579928773931 0.1646144126804254 0 0.1148755072536744 0.14694858495711699 0 0.090771666786269994 0.14501472196338391 0 0.1148755072536744 0.14694858495711699 0 0.1167558334748582 0.12638472335056161 0 0.092128398751601809 0.1156350844033736 0 0.090771666786269994 0.14501472196338391 0 0.1167558334748582 0.12638472335056161 0 0.1148755072536744 0.14694858495711699 0 0.1167558334748582 0.12638472335056161 0 0.14042761819651439 0.1463370263915999 0 0.1167558334748582 0.12638472335056161 0 0.14042761819651439 0.1463370263915999 0 0.13858681745168011 0.1243347892083516 0 0.15359766949230449 0.13154692394142151 0 0.14042761819651439 0.1463370263915999 0 0.13858681745168011 0.1243347892083516 0 0.14042761819651439 0.1463370263915999 0 0.14951300210131249 0.1577417530082135 0 0.16372371916271811 0.1480770957314328 0 0.14042761819651439 0.1463370263915999 0 0.16372371916271811 0.1480770957314328 0 0.15359766949230449 0.13154692394142151 0 0.14042761819651439 0.1463370263915999 0 0.16372371916271811 0.1480770957314328 0 0.14042761819651439 0.1463370263915999 0 0.13867183113735829 0.16155845213427941 0 0.14951300210131249 0.1577417530082135 0 0.1248576874695331 0.16010612798087351 0 0.1148755072536744 0.14694858495711699 0 0.14042761819651439 0.1463370263915999 0 0.1248576874695331 0.16010612798087351 0 0.14042761819651439 0.1463370263915999 0 0.13867183113735829 0.16155845213427941 0 0.1211070715302426 0.1740089814421075 0 0.1248576874695331 0.16010612798087351 0 0.13463247194388281 0.17239622980972771 0 0.1248576874695331 0.16010612798087351 0 0.13867183113735829 0.16155845213427941 0 0.13463247194388281 0.17239622980972771 0 0.13867183113735829 0.16155845213427941 0 0.13463247194388281 0.17239622980972771 0 0.14392837597554869 0.17121112348098219 0 0.13106536925687931 0.18370196674424061 0 0.14778703990303471 0.18703381200129471 0 0.14070125123716881 0.180379967908988 0 0.1211070715302426 0.1740089814421075 0 0.13106536925687931 0.18370196674424061 0 0.13463247194388281 0.17239622980972771 0 0.13463247194388281 0.17239622980972771 0 0.14070125123716881 0.180379967908988 0 0.1442310180347077 0.17645358952469609 0 0.13106536925687931 0.18370196674424061 0 0.13463247194388281 0.17239622980972771 0 0.14070125123716881 0.180379967908988 0 0.14778703990303471 0.18703381200129471 0 0.1457725981354514 0.18031424646169611 0 0.1499357934278735 0.17734594866875 0 0.14778703990303471 0.18703381200129471 0 0.14070125123716881 0.180379967908988 0 0.1457725981354514 0.18031424646169611 0 0.13463247194388281 0.17239622980972771 0 0.1442310180347077 0.17645358952469609 0 0.14392837597554869 0.17121112348098219 0 0.1457725981354514 0.18031424646169611 0 0.1442310180347077 0.17645358952469609 0 0.1499357934278735 0.17734594866875 0 0.14070125123716881 0.180379967908988 0 0.1457725981354514 0.18031424646169611 0 0.1442310180347077 0.17645358952469609 0 0.1442310180347077 0.17645358952469609 0 0.1499357934278735 0.17734594866875 0 0.14392837597554869 0.17121112348098219 0 0.15244201980853789 0.17202575962988609 0 0.1499357934278735 0.17734594866875 0 0.14392837597554869 0.17121112348098219 0 0.15244201980853789 0.17202575962988609 0 0.1499357934278735 0.17734594866875 0 0.14778703990303471 0.18703381200129471 0 0.1499357934278735 0.17734594866875 0 0.14957984638293431 0.18906090980573839 0 0.15244201980853789 0.17202575962988609 0 0.14951300210131249 0.1577417530082135 0 0.16372371916271811 0.1480770957314328 0 0.13867183113735829 0.16155845213427941 0 0.14392837597554869 0.17121112348098219 0 0.14951300210131249 0.1577417530082135 0 0.15244201980853789 0.17202575962988609 0 0.14392837597554869 0.17121112348098219 0 0.15244201980853789 0.17202575962988609 0 0.14392837597554869 0.17121112348098219 0 0.14951300210131249 0.1577417530082135 0 0.15244201980853789 0.17202575962988609 0 0.17051003309412049 0.16164788570900429 0 0.17180504446991299 0.17387852915498489 0 0.15244201980853789 0.17202575962988609 0 0.16372371916271811 0.1480770957314328 0 0.15244201980853789 0.17202575962988609 0 0.17051003309412049 0.16164788570900429 0 0.16372371916271811 0.1480770957314328 0 0.17180504446991299 0.17387852915498489 0 0.14957984638293431 0.18906090980573839 0 0.17180504446991299 0.17387852915498489 0 0.14957984638293431 0.18906090980573839 0 0.1754809300101017 0.19073342404320481 0 0.15244201980853789 0.17202575962988609 0 0.1499357934278735 0.17734594866875 0 0.17180504446991299 0.17387852915498489 0 0.1499357934278735 0.17734594866875 0 0.17180504446991299 0.17387852915498489 0 0.14957984638293431 0.18906090980573839 0 0.15244201980853789 0.17202575962988609 0 0.17180504446991299 0.17387852915498489 0 0.17180504446991299 0.17387852915498489 0 0.186215504933683 0.17525740784035551 0 0.1754809300101017 0.19073342404320481 0 0.17180504446991299 0.17387852915498489 0 0.186215504933683 0.17525740784035551 0 0.186215504933683 0.17525740784035551 0 0.1754809300101017 0.19073342404320481 0 0.1885925596276489 0.18789185736744429 0 0.186215504933683 0.17525740784035551 0 0.1754809300101017 0.19073342404320481 0 0.17051003309412049 0.16164788570900429 0 0.1848260994501926 0.164983642710719 0 0.17975328257924111 0.14927440131799749 0 0.17051003309412049 0.16164788570900429 0 0.17180504446991299 0.17387852915498489 0 0.1848260994501926 0.164983642710719 0 0.17180504446991299 0.17387852915498489 0 0.1848260994501926 0.164983642710719 0 0.17180504446991299 0.17387852915498489 0 0.186215504933683 0.17525740784035551 0 0.1848260994501926 0.164983642710719 0 0.17975328257924111 0.14927440131799749 0 0.17379718252912299 0.12669326153397351 0 0.16372371916271811 0.1480770957314328 0 0.1848260994501926 0.164983642710719 0 0.17975328257924111 0.14927440131799749 0 0.19578284599576409 0.15047170690456119 0 0.17379718252912299 0.12669326153397351 0 0.18746046633474081 0.1362555979217423 0 0.18946130443793341 0.12206981170430629 0 0.17975328257924111 0.14927440131799749 0 0.17379718252912299 0.12669326153397351 0 0.18746046633474081 0.1362555979217423 0 0.17379718252912299 0.12669326153397351 0 0.16372371916271811 0.1480770957314328 0 0.15359766949230449 0.13154692394142151 0 0.17379718252912299 0.12669326153397351 0 0.16372371916271811 0.1480770957314328 0 0.17975328257924111 0.14927440131799749 0 0.16372371916271811 0.1480770957314328 0 0.17051003309412049 0.16164788570900429 0 0.17975328257924111 0.14927440131799749 0 0.16372371916271811 0.1480770957314328 0 0.15167502031345109 0.24185816144881761 0 0.13577324987587541 0.24088922869785701 0 0.14936745616991859 0.22838116949567311 0 0.15167502031345109 0.24185816144881761 0 0.13577324987587541 0.24088922869785701 0 0.14893238512369489 0.25643887141978111 0 0.15167502031345109 0.24185816144881761 0 0.14893238512369489 0.25643887141978111 0 0.1635289098691716 0.25032935374465742 0 0.15167502031345109 0.24185816144881761 0 0.14936745616991859 0.22838116949567311 0 0.16239461665354349 0.23407638917780441 0 0.1137556677469518 0.24327785068076879 0 0.13577324987587541 0.24088922869785701 0 0.13157962574762419 0.26084690979412711 0 0.13577324987587541 0.24088922869785701 0 0.1339040667011808 0.22010809859798591 0 0.14936745616991859 0.22838116949567311 0 0.1216419531253209 0.2291117050005208 0 0.13577324987587541 0.24088922869785701 0 0.1339040667011808 0.22010809859798591 0 0.1339040667011808 0.22010809859798591 0 0.14936745616991859 0.22838116949567311 0 0.14367651654048061 0.21605781197651969 0 0.14936745616991859 0.22838116949567311 0 0.14367651654048061 0.21605781197651969 0 0.1583739695463848 0.2153964963309066 0 0.14936745616991859 0.22838116949567311 0 0.1583739695463848 0.2153964963309066 0 0.14367651654048061 0.21605781197651969 0 0.1330605737444378 0.20034548348151471 0 0.1583739695463848 0.2153964963309066 0 0.1330605737444378 0.20034548348151471 0 0.1583739695463848 0.2153964963309066 0 0.1339040667011808 0.22010809859798591 0 0.14367651654048061 0.21605781197651969 0 0.1330605737444378 0.20034548348151471 0 0.1090954601060144 0.21671642767616919 0 0.1339040667011808 0.22010809859798591 0 0.1330605737444378 0.20034548348151471 0 0.11123775428268851 0.18736992150245441 0 0.13106536925687931 0.18370196674424061 0 0.1330605737444378 0.20034548348151471 0 0.13106536925687931 0.18370196674424061 0 0.14778703990303471 0.18703381200129471 0 0.1330605737444378 0.20034548348151471 0 0.1330605737444378 0.20034548348151471 0 0.14957984638293431 0.18906090980573839 0 0.14778703990303471 0.18703381200129471 0 0.1330605737444378 0.20034548348151471 0 0.14957984638293431 0.18906090980573839 0 0.1330605737444378 0.20034548348151471 0 0.14957984638293431 0.18906090980573839 0 0.1583739695463848 0.2153964963309066 0 0.14778703990303471 0.18703381200129471 0 0.14957984638293431 0.18906090980573839 0 0.14957984638293431 0.18906090980573839 0 0.1754809300101017 0.19073342404320481 0 0.16474635508651969 0.2062094402460537 0 0.14957984638293431 0.18906090980573839 0 0.16474635508651969 0.2062094402460537 0 0.1754809300101017 0.19073342404320481 0 0.16474635508651969 0.2062094402460537 0 0.1754809300101017 0.19073342404320481 0 0.18791279909768471 0.19795509679330131 0 0.1885925596276489 0.18789185736744429 0 0.1754809300101017 0.19073342404320481 0 0.17941790966457061 0.2054272936852462 0 0.18791279909768471 0.19795509679330131 0 0.1754809300101017 0.19073342404320481 0 0.17941790966457061 0.2054272936852462 0 0.16474635508651969 0.2062094402460537 0 0.17941790966457061 0.2054272936852462 0 0.16474635508651969 0.2062094402460537 0 0.17684863047863911 0.21989329076267081 0 0.17941790966457061 0.2054272936852462 0 0.1931830717156531 0.20695074300794081 0 0.18791279909768471 0.19795509679330131 0 0.17941790966457061 0.2054272936852462 0 0.17684863047863911 0.21989329076267081 0 0.18996676049365099 0.21828085508161829 0 0.16474635508651969 0.2062094402460537 0 0.17684863047863911 0.21989329076267081 0 0.16474635508651969 0.2062094402460537 0 0.1583739695463848 0.2153964963309066 0 0.17684863047863911 0.21989329076267081 0 0.14957984638293431 0.18906090980573839 0 0.16474635508651969 0.2062094402460537 0 0.1583739695463848 0.2153964963309066 0 0.16474635508651969 0.2062094402460537 0 0.1583739695463848 0.2153964963309066 0 0.16239461665354349 0.23407638917780441 0 0.17366243770857179 0.22448681880509699 0 0.17702095730703921 0.24263156709986539 0 0.1583739695463848 0.2153964963309066 0 0.16239461665354349 0.23407638917780441 0 0.17366243770857179 0.22448681880509699 0 0.1583739695463848 0.2153964963309066 0 0.17684863047863911 0.21989329076267081 0 0.17366243770857179 0.22448681880509699 0 0.14936745616991859 0.22838116949567311 0 0.1583739695463848 0.2153964963309066 0 0.16239461665354349 0.23407638917780441 0 0.1583739695463848 0.2153964963309066 0 0.17366243770857179 0.22448681880509699 0 0.17366243770857179 0.22448681880509699 0 0.17702095730703921 0.24263156709986539 0 0.18895090587075861 0.2335771412792878 0 0.17684863047863911 0.21989329076267081 0 0.17366243770857179 0.22448681880509699 0 0.18895090587075861 0.2335771412792878 0 0.17684863047863911 0.21989329076267081 0 0.18895090587075861 0.2335771412792878 0 0.18996676049365099 0.21828085508161829 0 0.17684863047863911 0.21989329076267081 0 0.18895090587075861 0.2335771412792878 0 0.17366243770857179 0.22448681880509699 0 0.18895090587075861 0.2335771412792878 0 0.17702095730703921 0.24263156709986539 0 0.19154732197045099 0.24989166113898409 0 0.18895090587075861 0.2335771412792878 0 0.15167502031345109 0.24185816144881761 0 0.16239461665354349 0.23407638917780441 0 0.1635289098691716 0.25032935374465742 0 0.16239461665354349 0.23407638917780441 0 0.17702095730703921 0.24263156709986539 0 0.1635289098691716 0.25032935374465742 0 0.2028847490760563 0.2351906915158247 0 0.22412344287508229 0.2385800200543893 0 0.2125479016800508 0.24287719683085501 0 0.22412344287508229 0.2385800200543893 0 0.2068760714913315 0.25384484126876389 0 0.22412344287508229 0.2385800200543893 0 0.20515814249971351 0.25771502270987628 0 0.2125479016800508 0.24287719683085501 0 0.2028847490760563 0.2351906915158247 0 0.22412344287508229 0.2385800200543893 0 0.2028847490760563 0.2351906915158247 0 0.214741083504773 0.23328315031744351 0 0.22412344287508229 0.2385800200543893 0 0.22412344287508229 0.2385800200543893 0 0.21906318420961379 0.247802371404342 0 0.20515814249971351 0.25771502270987628 0 0.2125479016800508 0.24287719683085501 0 0.2056992798528012 0.2413970917129846 0 0.2028847490760563 0.2351906915158247 0 0.2056992798528012 0.2413970917129846 0 0.2070420516370646 0.24594056756133659 0 0.1990854194188578 0.23960298999702631 0 0.2070420516370646 0.24594056756133659 0 0.1990854194188578 0.23960298999702631 0 0.2068760714913315 0.25384484126876389 0 0.2125479016800508 0.24287719683085501 0 0.2070420516370646 0.24594056756133659 0 0.2068760714913315 0.25384484126876389 0 0.2125479016800508 0.24287719683085501 0 0.2056992798528012 0.2413970917129846 0 0.2070420516370646 0.24594056756133659 0 0.1990854194188578 0.23960298999702631 0 0.18895090587075861 0.2335771412792878 0 0.2068760714913315 0.25384484126876389 0 0.18895090587075861 0.2335771412792878 0 0.2068760714913315 0.25384484126876389 0 0.19154732197045099 0.24989166113898409 0 0.18895090587075861 0.2335771412792878 0 0.2068760714913315 0.25384484126876389 0 0.1990854194188578 0.23960298999702631 0 0.1974650460822861 0.23331134944579279 0 0.18895090587075861 0.2335771412792878 0 0.1990854194188578 0.23960298999702631 0 0.18895090587075861 0.2335771412792878 0 0.2056992798528012 0.2413970917129846 0 0.1990854194188578 0.23960298999702631 0 0.2028847490760563 0.2351906915158247 0 0.1990854194188578 0.23960298999702631 0 0.2028847490760563 0.2351906915158247 0 0.1974650460822861 0.23331134944579279 0 0.2028847490760563 0.2351906915158247 0 0.20151517482983189 0.22960766978030919 0 0.1974650460822861 0.23331134944579279 0 0.20151517482983189 0.22960766978030919 0 0.20131353611400121 0.224557209036571 0 0.20605247060360549 0.22673663836037181 0 0.20151517482983189 0.22960766978030919 0 0.1957173518267025 0.2271491086509396 0 0.20131353611400121 0.224557209036571 0 0.20151517482983189 0.22960766978030919 0 0.1957173518267025 0.2271491086509396 0 0.1974650460822861 0.23331134944579279 0 0.1957173518267025 0.2271491086509396 0 0.1974650460822861 0.23331134944579279 0 0.18895090587075861 0.2335771412792878 0 0.1957173518267025 0.2271491086509396 0 0.18895090587075861 0.2335771412792878 0 0.18996676049365099 0.21828085508161829 0 0.1957173518267025 0.2271491086509396 0 0.19768027988876191 0.22050754291988939 0 0.18996676049365099 0.21828085508161829 0 0.1957173518267025 0.2271491086509396 0 0.19768027988876191 0.22050754291988939 0 0.20131353611400121 0.224557209036571 0 0.19768027988876191 0.22050754291988939 0 0.20131353611400121 0.224557209036571 0 0.20299801072685 0.2185055986779029 0 0.20131353611400121 0.224557209036571 0 0.20606998178642649 0.22184407148703481 0 0.20299801072685 0.2185055986779029 0 0.20606998178642649 0.22184407148703481 0 0.2078916558171712 0.21762818246779261 0 0.20299801072685 0.2185055986779029 0 0.20606998178642649 0.22184407148703481 0 0.21140751338200969 0.22231019188420201 0 0.2078916558171712 0.21762818246779261 0 0.20606998178642649 0.22184407148703481 0 0.20605247060360549 0.22673663836037181 0 0.21140751338200969 0.22231019188420201 0 0.20605247060360549 0.22673663836037181 0 0.2103021949386881 0.22857621607568801 0 0.21140751338200969 0.22231019188420201 0 0.20131353611400121 0.224557209036571 0 0.20606998178642649 0.22184407148703481 0 0.20605247060360549 0.22673663836037181 0 0.2028847490760563 0.2351906915158247 0 0.20833330986526241 0.2320748182790757 0 0.214741083504773 0.23328315031744351 0 0.20151517482983189 0.22960766978030919 0 0.20605247060360549 0.22673663836037181 0 0.2056578952763396 0.2307010216723554 0 0.2028847490760563 0.2351906915158247 0 0.2056578952763396 0.2307010216723554 0 0.20833330986526241 0.2320748182790757 0 0.2028847490760563 0.2351906915158247 0 0.20151517482983189 0.22960766978030919 0 0.2056578952763396 0.2307010216723554 0 0.20605247060360549 0.22673663836037181 0 0.2056578952763396 0.2307010216723554 0 0.2103021949386881 0.22857621607568801 0 0.2056578952763396 0.2307010216723554 0 0.20833330986526241 0.2320748182790757 0 0.2103021949386881 0.22857621607568801 0 0.2103021949386881 0.22857621607568801 0 0.214741083504773 0.23328315031744351 0 0.21530752448675841 0.22750326573931859 0 0.20833330986526241 0.2320748182790757 0 0.2103021949386881 0.22857621607568801 0 0.214741083504773 0.23328315031744351 0 0.214741083504773 0.23328315031744351 0 0.21838064010484981 0.22961102681668311 0 0.2195678861890771 0.23263904406907279 0 0.21838064010484981 0.22961102681668311 0 0.21530752448675841 0.22750326573931859 0 0.22084428590689029 0.22701894242305681 0 0.214741083504773 0.23328315031744351 0 0.21838064010484981 0.22961102681668311 0 0.21530752448675841 0.22750326573931859 0 0.21530752448675841 0.22750326573931859 0 0.2170461787360918 0.22279199530028629 0 0.22084428590689029 0.22701894242305681 0 0.2170461787360918 0.22279199530028629 0 0.21655507968796919 0.21844628855618359 0 0.221633255725254 0.21863111029678689 0 0.2170461787360918 0.22279199530028629 0 0.21140751338200969 0.22231019188420201 0 0.21655507968796919 0.21844628855618359 0 0.21140751338200969 0.22231019188420201 0 0.21272221523268811 0.21562976229483549 0 0.21655507968796919 0.21844628855618359 0 0.2103021949386881 0.22857621607568801 0 0.21530752448675841 0.22750326573931859 0 0.21140751338200969 0.22231019188420201 0 0.21530752448675841 0.22750326573931859 0 0.2170461787360918 0.22279199530028629 0 0.21140751338200969 0.22231019188420201 0 0.21272221523268811 0.21562976229483549 0 0.21861019256041081 0.21351427757986 0 0.21171615671429311 0.20963538285282379 0 0.21272221523268811 0.21562976229483549 0 0.21655507968796919 0.21844628855618359 0 0.21861019256041081 0.21351427757986 0 0.21861019256041081 0.21351427757986 0 0.21713409688216739 0.20744986370190319 0 0.21171615671429311 0.20963538285282379 0 0.21713409688216739 0.20744986370190319 0 0.21360857963124369 0.20294303393208141 0 0.21928754553685209 0.20214311392614931 0 0.21171615671429311 0.20963538285282379 0 0.20784755544292949 0.2050319648165107 0 0.21360857963124369 0.20294303393208141 0 0.21713409688216739 0.20744986370190319 0 0.21171615671429311 0.20963538285282379 0 0.21360857963124369 0.20294303393208141 0 0.21171615671429311 0.20963538285282379 0 0.20784755544292949 0.2050319648165107 0 0.20615033729844501 0.21226551839430469 0 0.20784755544292949 0.2050319648165107 0 0.2017796639396616 0.20619592249543289 0 0.2044034487031377 0.2009767563029049 0 0.20784755544292949 0.2050319648165107 0 0.20615033729844501 0.21226551839430469 0 0.2017796639396616 0.20619592249543289 0 0.21272221523268811 0.21562976229483549 0 0.21171615671429311 0.20963538285282379 0 0.20615033729844501 0.21226551839430469 0 0.21140751338200969 0.22231019188420201 0 0.21272221523268811 0.21562976229483549 0 0.2078916558171712 0.21762818246779261 0 0.21272221523268811 0.21562976229483549 0 0.20615033729844501 0.21226551839430469 0 0.2078916558171712 0.21762818246779261 0 0.20615033729844501 0.21226551839430469 0 0.2078916558171712 0.21762818246779261 0 0.20299801072685 0.2185055986779029 0 0.20615033729844501 0.21226551839430469 0 0.20299801072685 0.2185055986779029 0 0.1984057402826048 0.21404494315241521 0 0.19768027988876191 0.22050754291988939 0 0.20299801072685 0.2185055986779029 0 0.1984057402826048 0.21404494315241521 0 0.19768027988876191 0.22050754291988939 0 0.1984057402826048 0.21404494315241521 0 0.18996676049365099 0.21828085508161829 0 0.1984057402826048 0.21404494315241521 0 0.18996676049365099 0.21828085508161829 0 0.1931830717156531 0.20695074300794081 0 0.17941790966457061 0.2054272936852462 0 0.18996676049365099 0.21828085508161829 0 0.1931830717156531 0.20695074300794081 0 0.1984057402826048 0.21404494315241521 0 0.1931830717156531 0.20695074300794081 0 0.2017796639396616 0.20619592249543289 0 0.1931830717156531 0.20695074300794081 0 0.2017796639396616 0.20619592249543289 0 0.19873658879524889 0.199084887648729 0 0.20615033729844501 0.21226551839430469 0 0.1984057402826048 0.21404494315241521 0 0.2017796639396616 0.20619592249543289 0 0.2017796639396616 0.20619592249543289 0 0.19873658879524889 0.199084887648729 0 0.2044034487031377 0.2009767563029049 0 0.19873658879524889 0.199084887648729 0 0.20137723297130911 0.19165118312521809 0 0.20432770500860081 0.19637961002344589 0 0.19873658879524889 0.199084887648729 0 0.20432770500860081 0.19637961002344589 0 0.2044034487031377 0.2009767563029049 0 0.19873658879524889 0.199084887648729 0 0.18791279909768471 0.19795509679330131 0 0.1946390438749675 0.19189183742509661 0 0.1931830717156531 0.20695074300794081 0 0.19873658879524889 0.199084887648729 0 0.18791279909768471 0.19795509679330131 0 0.18791279909768471 0.19795509679330131 0 0.1885925596276489 0.18789185736744429 0 0.1946390438749675 0.19189183742509661 0 0.1885925596276489 0.18789185736744429 0 0.1946390438749675 0.19189183742509661 0 0.1987145202218091 0.18362152073526411 0 0.1946390438749675 0.19189183742509661 0 0.20137723297130911 0.19165118312521809 0 0.1987145202218091 0.18362152073526411 0 0.19873658879524889 0.199084887648729 0 0.1946390438749675 0.19189183742509661 0 0.20137723297130911 0.19165118312521809 0 0.21618281478461621 0.18990610252098289 0 0.22997263895004769 0.19284959568539711 0 0.2078985392329947 0.17986588113903881 0 0.20137723297130911 0.19165118312521809 0 0.20673139893936959 0.19202554863571619 0 0.20508341838226599 0.18671276256068131 0 0.20993904391379731 0.1889742125588941 0 0.20673139893936959 0.19202554863571619 0 0.20508341838226599 0.18671276256068131 0 0.20993904391379731 0.1889742125588941 0 0.20673139893936959 0.19202554863571619 0 0.21185117187598221 0.19280187222899781 0 0.20673139893936959 0.19202554863571619 0 0.20932573032924789 0.19819139653040579 0 0.21185117187598221 0.19280187222899781 0 0.20137723297130911 0.19165118312521809 0 0.20673139893936959 0.19202554863571619 0 0.20432770500860081 0.19637961002344589 0 0.20432770500860081 0.19637961002344589 0 0.2044034487031377 0.2009767563029049 0 0.20932573032924789 0.19819139653040579 0 0.20673139893936959 0.19202554863571619 0 0.20432770500860081 0.19637961002344589 0 0.20932573032924789 0.19819139653040579 0 0.20784755544292949 0.2050319648165107 0 0.2044034487031377 0.2009767563029049 0 0.20932573032924789 0.19819139653040579 0 0.20784755544292949 0.2050319648165107 0 0.20932573032924789 0.19819139653040579 0 0.21360857963124369 0.20294303393208141 0 0.20932573032924789 0.19819139653040579 0 0.21560944725216971 0.19655325474810531 0 0.21185117187598221 0.19280187222899781 0 0.20932573032924789 0.19819139653040579 0 0.21360857963124369 0.20294303393208141 0 0.21560944725216971 0.19655325474810531 0 0.21360857963124369 0.20294303393208141 0 0.21560944725216971 0.19655325474810531 0 0.21928754553685209 0.20214311392614931 0 0.21560944725216971 0.19655325474810531 0 0.21618281478461621 0.18990610252098289 0 0.22154703834952549 0.19658312317108939 0 0.20993904391379731 0.1889742125588941 0 0.21618281478461621 0.18990610252098289 0 0.21185117187598221 0.19280187222899781 0 0.20993904391379731 0.1889742125588941 0 0.21618281478461621 0.18990610252098289 0 0.20918306397070471 0.1854742052254276 0 0.21560944725216971 0.19655325474810531 0 0.21618281478461621 0.18990610252098289 0 0.21185117187598221 0.19280187222899781 0 0.21618281478461621 0.18990610252098289 0 0.22154703834952549 0.19658312317108939 0 0.22997263895004769 0.19284959568539711 0 0.21560944725216971 0.19655325474810531 0 0.22154703834952549 0.19658312317108939 0 0.21928754553685209 0.20214311392614931 0 0.22154703834952549 0.19658312317108939 0 0.2255995964222911 0.20202298753285849 0 0.22997263895004769 0.19284959568539711 0 0.22154703834952549 0.19658312317108939 0 0.21928754553685209 0.20214311392614931 0 0.2255995964222911 0.20202298753285849 0 0.2255995964222911 0.20202298753285849 0 0.22997263895004769 0.19284959568539711 0 0.232350796807761 0.20582407700460259 0 0.22997263895004769 0.19284959568539711 0 0.24018138016534979 0.20642721737280559 0 0.232350796807761 0.20582407700460259 0 0.22997263895004769 0.19284959568539711 0 0.25204673866710092 0.2058333102317555 0 0.22997263895004769 0.19284959568539711 0 0.24018138016534979 0.20642721737280559 0 0.25204673866710092 0.2058333102317555 0 0.22997263895004769 0.19284959568539711 0 0.24520795932152911 0.1939810497728984 0 0.25204673866710092 0.2058333102317555 0 0.22997263895004769 0.19284959568539711 0 0.24520795932152911 0.1939810497728984 0 0.24634121590032301 0.18101059397227429 0 0.24018138016534979 0.20642721737280559 0 0.2375386407054241 0.21230846142595591 0 0.232350796807761 0.20582407700460259 0 0.24018138016534979 0.20642721737280559 0 0.24377933448393299 0.21299667612784751 0 0.2375386407054241 0.21230846142595591 0 0.24018138016534979 0.20642721737280559 0 0.24633818236044069 0.2090659575015239 0 0.25204673866710092 0.2058333102317555 0 0.24018138016534979 0.20642721737280559 0 0.24633818236044069 0.2090659575015239 0 0.24377933448393299 0.21299667612784751 0 0.24633818236044069 0.2090659575015239 0 0.24934527612537849 0.21100662627368691 0 0.25204673866710092 0.2058333102317555 0 0.24934527612537849 0.21100662627368691 0 0.24377933448393299 0.21299667612784751 0 0.24062525139964769 0.2184147640139715 0 0.24934527612537849 0.21100662627368691 0 0.24172970213161429 0.22559049353151511 0 0.24934527612537849 0.21100662627368691 0 0.24062525139964769 0.2184147640139715 0 0.24172970213161429 0.22559049353151511 0 0.24934527612537849 0.21100662627368691 0 0.24377933448393299 0.21299667612784751 0 0.24633818236044069 0.2090659575015239 0 0.24934527612537849 0.21100662627368691 0 0.24377933448393299 0.21299667612784751 0 0.24377933448393299 0.21299667612784751 0 0.24062525139964769 0.2184147640139715 0 0.2375386407054241 0.21230846142595591 0 0.24062525139964769 0.2184147640139715 0 0.2375386407054241 0.21230846142595591 0 0.23402459165049899 0.21682860210635571 0 0.23402459165049899 0.21682860210635571 0 0.22786650807421571 0.21863867304824769 0 0.2307743019731405 0.21250265987999811 0 0.22786650807421571 0.21863867304824769 0 0.2307743019731405 0.21250265987999811 0 0.22498317294685299 0.21326601897757219 0 0.2307743019731405 0.21250265987999811 0 0.2273511539798142 0.20823708990939691 0 0.22498317294685299 0.21326601897757219 0 0.2375386407054241 0.21230846142595591 0 0.23402459165049899 0.21682860210635571 0 0.2307743019731405 0.21250265987999811 0 0.2375386407054241 0.21230846142595591 0 0.2307743019731405 0.21250265987999811 0 0.232350796807761 0.20582407700460259 0 0.2255995964222911 0.20202298753285849 0 0.232350796807761 0.20582407700460259 0 0.2273511539798142 0.20823708990939691 0 0.2307743019731405 0.21250265987999811 0 0.232350796807761 0.20582407700460259 0 0.2273511539798142 0.20823708990939691 0 0.2273511539798142 0.20823708990939691 0 0.22222918603121561 0.2077566468774949 0 0.22498317294685299 0.21326601897757219 0 0.2255995964222911 0.20202298753285849 0 0.2273511539798142 0.20823708990939691 0 0.22222918603121561 0.2077566468774949 0 0.21928754553685209 0.20214311392614931 0 0.2255995964222911 0.20202298753285849 0 0.22222918603121561 0.2077566468774949 0 0.21713409688216739 0.20744986370190319 0 0.21928754553685209 0.20214311392614931 0 0.22222918603121561 0.2077566468774949 0 0.21861019256041081 0.21351427757986 0 0.21713409688216739 0.20744986370190319 0 0.22222918603121561 0.2077566468774949 0 0.21861019256041081 0.21351427757986 0 0.22222918603121561 0.2077566468774949 0 0.22498317294685299 0.21326601897757219 0 0.21861019256041081 0.21351427757986 0 0.221633255725254 0.21863111029678689 0 0.22498317294685299 0.21326601897757219 0 0.21655507968796919 0.21844628855618359 0 0.21861019256041081 0.21351427757986 0 0.221633255725254 0.21863111029678689 0 0.22786650807421571 0.21863867304824769 0 0.221633255725254 0.21863111029678689 0 0.22498317294685299 0.21326601897757219 0 0.2232896482700317 0.22319357109392829 0 0.22084428590689029 0.22701894242305681 0 0.225035646800197 0.22755270183730369 0 0.2232896482700317 0.22319357109392829 0 0.225035646800197 0.22755270183730369 0 0.2277581278961206 0.22421601093178789 0 0.22786650807421571 0.21863867304824769 0 0.2232896482700317 0.22319357109392829 0 0.2277581278961206 0.22421601093178789 0 0.22786650807421571 0.21863867304824769 0 0.221633255725254 0.21863111029678689 0 0.2232896482700317 0.22319357109392829 0 0.2170461787360918 0.22279199530028629 0 0.221633255725254 0.21863111029678689 0 0.2232896482700317 0.22319357109392829 0 0.2170461787360918 0.22279199530028629 0 0.2232896482700317 0.22319357109392829 0 0.22084428590689029 0.22701894242305681 0 0.21838064010484981 0.22961102681668311 0 0.22084428590689029 0.22701894242305681 0 0.2225115420203975 0.2313589075424268 0 0.2195678861890771 0.23263904406907279 0 0.2225115420203975 0.2313589075424268 0 0.22233495122579411 0.2355578589333753 0 0.214741083504773 0.23328315031744351 0 0.2195678861890771 0.23263904406907279 0 0.22233495122579411 0.2355578589333753 0 0.21838064010484981 0.22961102681668311 0 0.2195678861890771 0.23263904406907279 0 0.2225115420203975 0.2313589075424268 0 0.2225115420203975 0.2313589075424268 0 0.22522435604312591 0.2338769813008055 0 0.22233495122579411 0.2355578589333753 0 0.2225115420203975 0.2313589075424268 0 0.2257705784771866 0.2310683973980599 0 0.22522435604312591 0.2338769813008055 0 0.2257705784771866 0.2310683973980599 0 0.22522435604312591 0.2338769813008055 0 0.22821962157113501 0.2331507238769506 0 0.22084428590689029 0.22701894242305681 0 0.2225115420203975 0.2313589075424268 0 0.225035646800197 0.22755270183730369 0 0.2225115420203975 0.2313589075424268 0 0.2257705784771866 0.2310683973980599 0 0.225035646800197 0.22755270183730369 0 0.225035646800197 0.22755270183730369 0 0.2302255788632965 0.2283303846653538 0 0.2277581278961206 0.22421601093178789 0 0.2257705784771866 0.2310683973980599 0 0.225035646800197 0.22755270183730369 0 0.2302255788632965 0.2283303846653538 0 0.2257705784771866 0.2310683973980599 0 0.2302255788632965 0.2283303846653538 0 0.22821962157113501 0.2331507238769506 0 0.2302255788632965 0.2283303846653538 0 0.22821962157113501 0.2331507238769506 0 0.23147072978670771 0.23406147663227089 0 0.22522435604312591 0.2338769813008055 0 0.22821962157113501 0.2331507238769506 0 0.2282103088636547 0.23572553533474949 0 0.22821962157113501 0.2331507238769506 0 0.23147072978670771 0.23406147663227089 0 0.2282103088636547 0.23572553533474949 0 0.2302255788632965 0.2283303846653538 0 0.2277581278961206 0.22421601093178789 0 0.23374009153803671 0.2220975864348731 0 0.22786650807421571 0.21863867304824769 0 0.2277581278961206 0.22421601093178789 0 0.23374009153803671 0.2220975864348731 0 0.23402459165049899 0.21682860210635571 0 0.22786650807421571 0.21863867304824769 0 0.23374009153803671 0.2220975864348731 0 0.24062525139964769 0.2184147640139715 0 0.23374009153803671 0.2220975864348731 0 0.24172970213161429 0.22559049353151511 0 0.24062525139964769 0.2184147640139715 0 0.23402459165049899 0.21682860210635571 0 0.23374009153803671 0.2220975864348731 0 0.2302255788632965 0.2283303846653538 0 0.23374009153803671 0.2220975864348731 0 0.24172970213161429 0.22559049353151511 0 0.24934527612537849 0.21100662627368691 0 0.24172970213161429 0.22559049353151511 0 0.24989052864815531 0.2205716808775571 0 0.23147072978670771 0.23406147663227089 0 0.24172970213161429 0.22559049353151511 0 0.23411412813784871 0.24017436078934251 0 0.24172970213161429 0.22559049353151511 0 0.23411412813784871 0.24017436078934251 0 0.2302255788632965 0.2283303846653538 0 0.23147072978670771 0.23406147663227089 0 0.24172970213161429 0.22559049353151511 0 0.23411412813784871 0.24017436078934251 0 0.2438721241591377 0.25167873840379662 0 0.25683111238660761 0.24379959893971959 0 0.24172970213161429 0.22559049353151511 0 0.23411412813784871 0.24017436078934251 0 0.25683111238660761 0.24379959893971959 0 0.23411412813784871 0.24017436078934251 0 0.25683111238660761 0.24379959893971959 0 0.23411412813784871 0.24017436078934251 0 0.22885494512739871 0.25024572599068279 0 0.2438721241591377 0.25167873840379662 0 0.23411412813784871 0.24017436078934251 0 0.22885494512739871 0.25024572599068279 0 0.22660345763591019 0.2443665287508951 0 0.23411412813784871 0.24017436078934251 0 0.22885494512739871 0.25024572599068279 0 0.23411412813784871 0.24017436078934251 0 0.22412344287508229 0.2385800200543893 0 0.23411412813784871 0.24017436078934251 0 0.2282103088636547 0.23572553533474949 0 0.22412344287508229 0.2385800200543893 0 0.22660345763591019 0.2443665287508951 0 0.23411412813784871 0.24017436078934251 0 0.22412344287508229 0.2385800200543893 0 0.23147072978670771 0.23406147663227089 0 0.23411412813784871 0.24017436078934251 0 0.2282103088636547 0.23572553533474949 0 0.214741083504773 0.23328315031744351 0 0.22412344287508229 0.2385800200543893 0 0.22233495122579411 0.2355578589333753 0 0.2282103088636547 0.23572553533474949 0 0.22412344287508229 0.2385800200543893 0 0.22417285293599701 0.2368068870992231 0 0.22522435604312591 0.2338769813008055 0 0.2282103088636547 0.23572553533474949 0 0.22417285293599701 0.2368068870992231 0 0.22412344287508229 0.2385800200543893 0 0.22417285293599701 0.2368068870992231 0 0.22233495122579411 0.2355578589333753 0 0.22522435604312591 0.2338769813008055 0 0.22417285293599701 0.2368068870992231 0 0.22233495122579411 0.2355578589333753 0 0.22660345763591019 0.2443665287508951 0 0.22036769382774901 0.25054791410220723 0 0.22885494512739871 0.25024572599068279 0 0.22660345763591019 0.2443665287508951 0 0.22412344287508229 0.2385800200543893 0 0.21906318420961379 0.247802371404342 0 0.22660345763591019 0.2443665287508951 0 0.21906318420961379 0.247802371404342 0 0.22036769382774901 0.25054791410220723 0 0.20303195169049379 0.15101316861005951 0 0.21249557186720441 0.16082053544960251 0 0.22292227531449421 0.15249884822433041 0 0.21572836212019661 0.14501832908663881 0 0.20303195169049379 0.15101316861005951 0 0.22292227531449421 0.15249884822433041 0 0.2123991114697345 0.13750855221395031 0 0.20303195169049379 0.15101316861005951 0 0.19578284599576409 0.15047170690456119 0 0.20303195169049379 0.15101316861005951 0 0.22292227531449421 0.15249884822433041 0 0.2123991114697345 0.13750855221395031 0 0.19578284599576409 0.15047170690456119 0 0.2123991114697345 0.13750855221395031 0 0.20303195169049379 0.15101316861005951 0 0.21572836212019661 0.14501832908663881 0 0.2123991114697345 0.13750855221395031 0 0.20303195169049379 0.15101316861005951 0 0.21572836212019661 0.14501832908663881 0 0.2123991114697345 0.13750855221395031 0 0.21779578088462451 0.13711675373016019 0 0.2123991114697345 0.13750855221395031 0 0.22242263275859289 0.1230576606807216 0 0.2123991114697345 0.13750855221395031 0 0.21450817484077669 0.12631794065680549 0 0.2088179732992933 0.12642889348441841 0 0.2123991114697345 0.13750855221395031 0 0.21450817484077669 0.12631794065680549 0 0.22242263275859289 0.1230576606807216 0 0.2123991114697345 0.13750855221395031 0 0.2088179732992933 0.12642889348441841 0 0.19850771613164259 0.13276880814787359 0 0.18746046633474081 0.1362555979217423 0 0.19850771613164259 0.13276880814787359 0 0.19578284599576409 0.15047170690456119 0 0.2123991114697345 0.13750855221395031 0 0.19850771613164259 0.13276880814787359 0 0.19578284599576409 0.15047170690456119 0 0.2088179732992933 0.12642889348441841 0 0.19850771613164259 0.13276880814787359 0 0.20197316262899839 0.1197245188846791 0 0.18746046633474081 0.1362555979217423 0 0.19850771613164259 0.13276880814787359 0 0.18946130443793341 0.12206981170430629 0 0.17975328257924111 0.14927440131799749 0 0.18746046633474081 0.1362555979217423 0 0.19578284599576409 0.15047170690456119 0 0.17975328257924111 0.14927440131799749 0 0.19578284599576409 0.15047170690456119 0 0.1848260994501926 0.164983642710719 0 0.20303195169049379 0.15101316861005951 0 0.19578284599576409 0.15047170690456119 0 0.20303195169049379 0.15101316861005951 0 0.19578284599576409 0.15047170690456119 0 0.186215504933683 0.17525740784035551 0 0.1848260994501926 0.164983642710719 0 0.20303195169049379 0.15101316861005951 0 0.186215504933683 0.17525740784035551 0 0.20303195169049379 0.15101316861005951 0 0.186215504933683 0.17525740784035551 0 0.20303195169049379 0.15101316861005951 0 0.20444777679966281 0.16411842840100341 0 0.186215504933683 0.17525740784035551 0 0.2024584755789462 0.17146994049452779 0 0.20444777679966281 0.16411842840100341 0 0.186215504933683 0.17525740784035551 0 0.1987145202218091 0.18362152073526411 0 0.20625740858922961 0.17717513655099559 0 0.186215504933683 0.17525740784035551 0 0.20625740858922961 0.17717513655099559 0 0.186215504933683 0.17525740784035551 0 0.2024584755789462 0.17146994049452779 0 0.20625740858922961 0.17717513655099559 0 0.186215504933683 0.17525740784035551 0 0.1885925596276489 0.18789185736744429 0 0.1987145202218091 0.18362152073526411 0 0.20137723297130911 0.19165118312521809 0 0.1987145202218091 0.18362152073526411 0 0.20508341838226599 0.18671276256068131 0 0.1987145202218091 0.18362152073526411 0 0.20508341838226599 0.18671276256068131 0 0.20542739007940081 0.18256990124228151 0 0.20625740858922961 0.17717513655099559 0 0.22629931224477631 0.17909286526163501 0 0.20625740858922961 0.17717513655099559 0 0.21193081230107841 0.17014021101353671 0 0.22629931224477631 0.17909286526163501 0 0.2078985392329947 0.17986588113903881 0 0.20625740858922961 0.17717513655099559 0 0.22629931224477631 0.17909286526163501 0 0.20993904391379731 0.1889742125588941 0 0.20918306397070471 0.1854742052254276 0 0.20508341838226599 0.18671276256068131 0 0.20918306397070471 0.1854742052254276 0 0.20508341838226599 0.18671276256068131 0 0.20542739007940081 0.18256990124228151 0 0.20542739007940081 0.18256990124228151 0 0.2078985392329947 0.17986588113903881 0 0.20625740858922961 0.17717513655099559 0 0.1987145202218091 0.18362152073526411 0 0.20542739007940081 0.18256990124228151 0 0.20625740858922961 0.17717513655099559 0 0.20918306397070471 0.1854742052254276 0 0.20542739007940081 0.18256990124228151 0 0.2078985392329947 0.17986588113903881 0 0.2024584755789462 0.17146994049452779 0 0.20625740858922961 0.17717513655099559 0 0.21193081230107841 0.17014021101353671 0 0.21618281478461621 0.18990610252098289 0 0.20918306397070471 0.1854742052254276 0 0.2078985392329947 0.17986588113903881 0 0.20303195169049379 0.15101316861005951 0 0.20444777679966281 0.16411842840100341 0 0.21249557186720441 0.16082053544960251 0 0.20444777679966281 0.16411842840100341 0 0.21193081230107841 0.17014021101353671 0 0.21249557186720441 0.16082053544960251 0 0.2024584755789462 0.17146994049452779 0 0.20444777679966281 0.16411842840100341 0 0.21193081230107841 0.17014021101353671 0 0.21193081230107841 0.17014021101353671 0 0.21249557186720441 0.16082053544960251 0 0.22014504323029291 0.16633202099908259 0 0.21249557186720441 0.16082053544960251 0 0.22014504323029291 0.16633202099908259 0 0.22292227531449421 0.15249884822433041 0 0.22014504323029291 0.16633202099908259 0 0.23015321489336851 0.1669039920256104 0 0.22292227531449421 0.15249884822433041 0 0.23015321489336851 0.1669039920256104 0 0.24211261818636931 0.1623099121402044 0 0.22292227531449421 0.15249884822433041 0 0.21193081230107841 0.17014021101353671 0 0.22014504323029291 0.16633202099908259 0 0.22629931224477631 0.17909286526163501 0 0.22014504323029291 0.16633202099908259 0 0.23015321489336851 0.1669039920256104 0 0.22629931224477631 0.17909286526163501 0 0.23015321489336851 0.1669039920256104 0 0.22629931224477631 0.17909286526163501 0 0.24634121590032301 0.18101059397227429 0 0.22997263895004769 0.19284959568539711 0 0.22629931224477631 0.17909286526163501 0 0.24634121590032301 0.18101059397227429 0 0.22997263895004769 0.19284959568539711 0 0.2078985392329947 0.17986588113903881 0 0.22997263895004769 0.19284959568539711 0 0.2078985392329947 0.17986588113903881 0 0.22629931224477631 0.17909286526163501 0 0.24634121590032301 0.18101059397227429 0 0.24211261818636931 0.1623099121402044 0 0.25583925113042488 0.17312828799689009 0 0.22629931224477631 0.17909286526163501 0 0.24634121590032301 0.18101059397227429 0 0.24520795932152911 0.1939810497728984 0 0.24634121590032301 0.18101059397227429 0 0.25257572134146028 0.18705864139486761 0 0.23015321489336851 0.1669039920256104 0 0.24634121590032301 0.18101059397227429 0 0.24211261818636931 0.1623099121402044 0 0.24211261818636931 0.1623099121402044 0 0.2415776953324367 0.149084223004644 0 0.25681636437199401 0.15682310848494821 0 0.24211261818636931 0.1623099121402044 0 0.2415776953324367 0.149084223004644 0 0.22292227531449421 0.15249884822433041 0 0.2415776953324367 0.149084223004644 0 0.2420361936952389 0.13776107602179749 0 0.25207379538507518 0.1432516637935872 0 0.2415776953324367 0.149084223004644 0 0.2325934964036705 0.14096171351464909 0 0.2420361936952389 0.13776107602179749 0 0.2415776953324367 0.149084223004644 0 0.2325934964036705 0.14096171351464909 0 0.22292227531449421 0.15249884822433041 0 0.21572836212019661 0.14501832908663881 0 0.22317318142902959 0.14233798044881649 0 0.22292227531449421 0.15249884822433041 0 0.2325934964036705 0.14096171351464909 0 0.22317318142902959 0.14233798044881649 0 0.22292227531449421 0.15249884822433041 0 0.21572836212019661 0.14501832908663881 0 0.21779578088462451 0.13711675373016019 0 0.22317318142902959 0.14233798044881649 0 0.2123991114697345 0.13750855221395031 0 0.2269404386870181 0.12616415750505719 0 0.21779578088462451 0.13711675373016019 0 0.2269404386870181 0.12616415750505719 0 0.2123991114697345 0.13750855221395031 0 0.2269404386870181 0.12616415750505719 0 0.22242263275859289 0.1230576606807216 0 0.21779578088462451 0.13711675373016019 0 0.22317318142902959 0.14233798044881649 0 0.22687388728332411 0.13576934621548031 0 0.21779578088462451 0.13711675373016019 0 0.22687388728332411 0.13576934621548031 0 0.2269404386870181 0.12616415750505719 0 0.2123991114697345 0.13750855221395031 0 0.21779578088462451 0.13711675373016019 0 0.2269404386870181 0.12616415750505719 0 0.2325934964036705 0.14096171351464909 0 0.22317318142902959 0.14233798044881649 0 0.22687388728332411 0.13576934621548031 0 0.2325934964036705 0.14096171351464909 0 0.22687388728332411 0.13576934621548031 0 0.23398044619926589 0.13380814872774691 0 0.22687388728332411 0.13576934621548031 0 0.23398044619926589 0.13380814872774691 0 0.2269404386870181 0.12616415750505719 0 0.23398044619926589 0.13380814872774691 0 0.2269404386870181 0.12616415750505719 0 0.2405467862892994 0.12748543453340319 0 0.2325934964036705 0.14096171351464909 0 0.23398044619926589 0.13380814872774691 0 0.2420361936952389 0.13776107602179749 0 0.23398044619926589 0.13380814872774691 0 0.2405467862892994 0.12748543453340319 0 0.2420361936952389 0.13776107602179749 0 0.2420361936952389 0.13776107602179749 0 0.25144494256168609 0.1319752725567547 0 0.25207379538507518 0.1432516637935872 0 0.2405467862892994 0.12748543453340319 0 0.24794648612135611 0.1223238382092047 0 0.25144494256168609 0.1319752725567547 0 0.2405467862892994 0.12748543453340319 0 0.2420361936952389 0.13776107602179749 0 0.25144494256168609 0.1319752725567547 0 0.24794648612135611 0.1223238382092047 0 0.24121625453580739 0.11502690109371561 0 0.25324217801320742 0.1153607628831249 0 0.2269404386870181 0.12616415750505719 0 0.2447492746237224 0.1048344376326756 0 0.2405467862892994 0.12748543453340319 0 0.24794648612135611 0.1223238382092047 0 0.24121625453580739 0.11502690109371561 0 0.2269404386870181 0.12616415750505719 0 0.24121625453580739 0.11502690109371561 0 0.2447492746237224 0.1048344376326756 0 0.2269404386870181 0.12616415750505719 0 0.2447492746237224 0.1048344376326756 0 0.2327332096166275 0.1129012882214651 0 0.24121625453580739 0.11502690109371561 0 0.25549207038459648 0.1038896446823738 0 0.25324217801320742 0.1153607628831249 0 0.24121625453580739 0.11502690109371561 0 0.25549207038459648 0.1038896446823738 0 0.2269404386870181 0.12616415750505719 0 0.2405467862892994 0.12748543453340319 0 0.24121625453580739 0.11502690109371561 0 0.2447492746237224 0.1048344376326756 0 0.23956784571650899 0.0977238576729412 0 0.24538200687215811 0.087263294126548194 0 0.24121625453580739 0.11502690109371561 0 0.2447492746237224 0.1048344376326756 0 0.25549207038459648 0.1038896446823738 0 0.2447492746237224 0.1048344376326756 0 0.23538197931245899 0.10341077542761901 0 0.2327332096166275 0.1129012882214651 0 0.2447492746237224 0.1048344376326756 0 0.23538197931245899 0.10341077542761901 0 0.23956784571650899 0.0977238576729412 0 0.23538197931245899 0.10341077542761901 0 0.23956784571650899 0.0977238576729412 0 0.23159571860376729 0.09649072864859462 0 0.23956784571650899 0.0977238576729412 0 0.23159571860376729 0.09649072864859462 0 0.24538200687215811 0.087263294126548194 0 0.23538197931245899 0.10341077542761901 0 0.22753734584296301 0.10579344317721411 0 0.2327332096166275 0.1129012882214651 0 0.23538197931245899 0.10341077542761901 0 0.23159571860376729 0.09649072864859462 0 0.22753734584296301 0.10579344317721411 0 0.22753734584296301 0.10579344317721411 0 0.21960050251509619 0.1099799501037499 0 0.2162430223416752 0.097626182423161872 0 0.23159571860376729 0.09649072864859462 0 0.22753734584296301 0.10579344317721411 0 0.2162430223416752 0.097626182423161872 0 0.2269404386870181 0.12616415750505719 0 0.24121625453580739 0.11502690109371561 0 0.2269404386870181 0.12616415750505719 0 0.2327332096166275 0.1129012882214651 0 0.2263431360543938 0.1184171888901953 0 0.22753734584296301 0.10579344317721411 0 0.2327332096166275 0.1129012882214651 0 0.22566534494936821 0.1127349876536001 0 0.2327332096166275 0.1129012882214651 0 0.22566534494936821 0.1127349876536001 0 0.2263431360543938 0.1184171888901953 0 0.22566534494936821 0.1127349876536001 0 0.22211253071776041 0.11658306787537639 0 0.2263431360543938 0.1184171888901953 0 0.22753734584296301 0.10579344317721411 0 0.22566534494936821 0.1127349876536001 0 0.21960050251509619 0.1099799501037499 0 0.22566534494936821 0.1127349876536001 0 0.21960050251509619 0.1099799501037499 0 0.22211253071776041 0.11658306787537639 0 0.22211253071776041 0.11658306787537639 0 0.22242263275859289 0.1230576606807216 0 0.2143929818354865 0.11827665624813249 0 0.22211253071776041 0.11658306787537639 0 0.2263431360543938 0.1184171888901953 0 0.22242263275859289 0.1230576606807216 0 0.2269404386870181 0.12616415750505719 0 0.2263431360543938 0.1184171888901953 0 0.22242263275859289 0.1230576606807216 0 0.21450817484077669 0.12631794065680549 0 0.2088179732992933 0.12642889348441841 0 0.2143929818354865 0.11827665624813249 0 0.21450817484077669 0.12631794065680549 0 0.22242263275859289 0.1230576606807216 0 0.2143929818354865 0.11827665624813249 0 0.2088179732992933 0.12642889348441841 0 0.2143929818354865 0.11827665624813249 0 0.20197316262899839 0.1197245188846791 0 0.2143929818354865 0.11827665624813249 0 0.20908255143541821 0.1086886721306938 0 0.20197316262899839 0.1197245188846791 0 0.21960050251509619 0.1099799501037499 0 0.2143929818354865 0.11827665624813249 0 0.20908255143541821 0.1086886721306938 0 0.21960050251509619 0.1099799501037499 0 0.22211253071776041 0.11658306787537639 0 0.2143929818354865 0.11827665624813249 0 0.2162430223416752 0.097626182423161872 0 0.20908255143541821 0.1086886721306938 0 0.20024208695950441 0.1022483441924653 0 0.2162430223416752 0.097626182423161872 0 0.20024208695950441 0.1022483441924653 0 0.20549980874625851 0.091008753748841612 0 0.21960050251509619 0.1099799501037499 0 0.2162430223416752 0.097626182423161872 0 0.20908255143541821 0.1086886721306938 0 0.20024208695950441 0.1022483441924653 0 0.19430728846377851 0.1110760012560025 0 0.18387064589552871 0.10530942733651449 0 0.20024208695950441 0.1022483441924653 0 0.19394410926193431 0.083925593139055454 0 0.18387064589552871 0.10530942733651449 0 0.19394410926193431 0.083925593139055454 0 0.18387064589552871 0.10530942733651449 0 0.20908255143541821 0.1086886721306938 0 0.20024208695950441 0.1022483441924653 0 0.19430728846377851 0.1110760012560025 0 0.19430728846377851 0.1110760012560025 0 0.18946130443793341 0.12206981170430629 0 0.18387064589552871 0.10530942733651449 0 0.19430728846377851 0.1110760012560025 0 0.18946130443793341 0.12206981170430629 0 0.20197316262899839 0.1197245188846791 0 0.19850771613164259 0.13276880814787359 0 0.18946130443793341 0.12206981170430629 0 0.20197316262899839 0.1197245188846791 0 0.20908255143541821 0.1086886721306938 0 0.19430728846377851 0.1110760012560025 0 0.20197316262899839 0.1197245188846791 0 0.19338632722691479 0.052403929446642863 0 0.18335112545645091 0.07267208885274215 0 0.19394410926193431 0.083925593139055454 0 0.2040175726283398 0.062541758941596526 0 0.2040175726283398 0.062541758941596526 0 0.19338632722691479 0.052403929446642863 0 0.18335112545645091 0.07267208885274215 0 0.19394410926193431 0.083925593139055454 0 0.2040175726283398 0.062541758941596526 0 0.18335112545645091 0.07267208885274215 0 0.20024208695950441 0.1022483441924653 0 0.19394410926193431 0.083925593139055454 0 0.20549980874625851 0.091008753748841612 0 0.2162430223416752 0.097626182423161872 0 0.21157001642192019 0.080234895240683876 0 0.22397198276100469 0.086225967890014507 0 0.19394410926193431 0.083925593139055454 0 0.21157001642192019 0.080234895240683876 0 0.20549980874625851 0.091008753748841612 0 0.2162430223416752 0.097626182423161872 0 0.21157001642192019 0.080234895240683876 0 0.20549980874625851 0.091008753748841612 0 0.21157001642192019 0.080234895240683876 0 0.2040175726283398 0.062541758941596526 0 0.22781483724739229 0.07246317403249615 0 0.19394410926193431 0.083925593139055454 0 0.21157001642192019 0.080234895240683876 0 0.2040175726283398 0.062541758941596526 0 0.23159571860376729 0.09649072864859462 0 0.22397198276100469 0.086225967890014507 0 0.24538200687215811 0.087263294126548194 0 0.21157001642192019 0.080234895240683876 0 0.22781483724739229 0.07246317403249615 0 0.22397198276100469 0.086225967890014507 0 0.22781483724739229 0.07246317403249615 0 0.22397198276100469 0.086225967890014507 0 0.24538200687215811 0.087263294126548194 0 0.23159571860376729 0.09649072864859462 0 0.2162430223416752 0.097626182423161872 0 0.22397198276100469 0.086225967890014507 0 0.22781483724739229 0.07246317403249615 0 0.24666024164512479 0.069066845306638189 0 0.23616622209355401 0.056796777262918888 0 0.22781483724739229 0.07246317403249615 0 0.24538200687215811 0.087263294126548194 0 0.24666024164512479 0.069066845306638189 0 0.24666024164512479 0.069066845306638189 0 0.23616622209355401 0.056796777262918888 0 0.25864351714315309 0.050820700414198471 0 0.23616622209355401 0.056796777262918888 0 0.23209433130971449 0.039333694524741773 0 0.25864351714315309 0.050820700414198471 0 0.24941127910515279 0.036109464950164052 0 0.23209433130971449 0.039333694524741773 0 0.25864351714315309 0.050820700414198471 0 0.23209433130971449 0.039333694524741773 0 0.25864351714315309 0.050820700414198471 0 0.23209433130971449 0.039333694524741773 0 0.20554514547627459 0.027846688635287751 0 0.23616622209355401 0.056796777262918888 0 0.23209433130971449 0.039333694524741773 0 0.21561818312238529 0.052299472036519863 0 0.22781483724739229 0.07246317403249615 0 0.21561818312238529 0.052299472036519863 0 0.22781483724739229 0.07246317403249615 0 0.23616622209355401 0.056796777262918888 0 0.21561818312238529 0.052299472036519863 0 0.24360219425436941 0.0024857581900680202 0 0.23740384123011041 0.015909569431439341 0 0.26296926762040529 0.01668300548729458 0 0.24941127910515279 0.036109464950164052 0 0.23740384123011041 0.015909569431439341 0 0.26295058972466029 0.02758912776660603 0 0.24941127910515279 0.036109464950164052 0 0.23209433130971449 0.039333694524741773 0 0.23740384123011041 0.015909569431439341 0 0.23209433130971449 0.039333694524741773 0 0.22299690983789841 0.024900679360035469 0 0.20554514547627459 0.027846688635287751 0 0.23209433130971449 0.039333694524741773 0 0.23740384123011041 0.015909569431439341 0 0.22299690983789841 0.024900679360035469 0 0.23740384123011041 0.015909569431439341 0 0.22299690983789841 0.024900679360035469 0 0.2118384148398155 0.015136133375583741 0 0.23740384123011041 0.015909569431439341 0 0.2118384148398155 0.015136133375583741 0 0.2211015613305348 -0.0035727011820369729 0 0.24360219425436941 0.0024857581900680202 0 0.23740384123011041 0.015909569431439341 0 0.2211015613305348 -0.0035727011820369729 0 0.23740384123011041 0.015909569431439341 0 0.2118384148398155 0.015136133375583741 0 0.2118384148398155 0.015136133375583741 0 0.1986053995495487 0.0055804718487439519 0 0.20534867250976391 -0.0043642885281037769 0 0.2118384148398155 0.015136133375583741 0 0.2211015613305348 -0.0035727011820369729 0 0.2118384148398155 0.015136133375583741 0 0.20534867250976391 -0.0043642885281037769 0 0.2211015613305348 -0.0035727011820369729 0 0.2118384148398155 0.015136133375583741 0 0.195144875697468 0.01463110033309107 0 0.22299690983789841 0.024900679360035469 0 0.2118384148398155 0.015136133375583741 0 0.20554514547627459 0.027846688635287751 0 0.2118384148398155 0.015136133375583741 0 0.20554514547627459 0.027846688635287751 0 0.1991546682193249 0.025081728144688242 0 0.2118384148398155 0.015136133375583741 0 0.20554514547627459 0.027846688635287751 0 0.20554514547627459 0.027846688635287751 0 0.20342152899737859 0.032135770040543507 0 0.1991546682193249 0.025081728144688242 0 0.18859511266510859 0.0076245034646380038 0 0.2118384148398155 0.015136133375583741 0 0.1991546682193249 0.025081728144688242 0 0.195144875697468 0.01463110033309107 0 0.1991546682193249 0.025081728144688242 0 0.18859511266510859 0.0076245034646380038 0 0.17728684093665509 0.015620200308707101 0 0.1991546682193249 0.025081728144688242 0 0.17728684093665509 0.015620200308707101 0 0.1991546682193249 0.025081728144688242 0 0.195144875697468 0.01463110033309107 0 0.18859511266510859 0.0076245034646380038 0 0.1991546682193249 0.025081728144688242 0 0.20342152899737859 0.032135770040543507 0 0.19294744602722999 0.034621277313508329 0 0.1991546682193249 0.025081728144688242 0 0.20342152899737859 0.032135770040543507 0 0.20554514547627459 0.027846688635287751 0 0.1991546682193249 0.025081728144688242 0 0.20342152899737859 0.032135770040543507 0 0.20554514547627459 0.027846688635287751 0 0.1991546682193249 0.025081728144688242 0 0.1991546682193249 0.025081728144688242 0 0.19294744602722999 0.034621277313508329 0 0.18464038303927241 0.029256106364947888 0 0.2118384148398155 0.015136133375583741 0 0.195144875697468 0.01463110033309107 0 0.1986053995495487 0.0055804718487439519 0 0.195144875697468 0.01463110033309107 0 0.18859511266510859 0.0076245034646380038 0 0.1986053995495487 0.0055804718487439519 0 0.18859511266510859 0.0076245034646380038 0 0.1986053995495487 0.0055804718487439519 0 0.19209992203558721 -0.0051250894014892127 0 0.2040175726283398 0.062541758941596526 0 0.22781483724739229 0.07246317403249615 0 0.21561818312238529 0.052299472036519863 0 0.2040175726283398 0.062541758941596526 0 0.2041109029937547 0.049845232616325702 0 0.21561818312238529 0.052299472036519863 0 0.21561818312238529 0.052299472036519863 0 0.20342152899737859 0.032135770040543507 0 0.23209433130971449 0.039333694524741773 0 0.20554514547627459 0.027846688635287751 0 0.20342152899737859 0.032135770040543507 0 0.23209433130971449 0.039333694524741773 0 0.21561818312238529 0.052299472036519863 0 0.20342152899737859 0.032135770040543507 0 0.2041109029937547 0.049845232616325702 0 0.21561818312238529 0.052299472036519863 0 0.20342152899737859 0.032135770040543507 0 0.20342152899737859 0.032135770040543507 0 0.19294744602722999 0.034621277313508329 0 0.19338632722691479 0.052403929446642863 0 0.20342152899737859 0.032135770040543507 0 0.19338632722691479 0.052403929446642863 0 0.19294744602722999 0.034621277313508329 0 0.19338632722691479 0.052403929446642863 0 0.18348422961527 0.038604369627883113 0 0.2041109029937547 0.049845232616325702 0 0.20342152899737859 0.032135770040543507 0 0.19338632722691479 0.052403929446642863 0 0.2040175726283398 0.062541758941596526 0 0.2041109029937547 0.049845232616325702 0 0.19338632722691479 0.052403929446642863 0 0.19338632722691479 0.052403929446642863 0 0.1749691938242936 0.051134462326208593 0 0.18348422961527 0.038604369627883113 0 0.19338632722691479 0.052403929446642863 0 0.1749691938242936 0.051134462326208593 0 0.18335112545645091 0.07267208885274215 0 0.1749691938242936 0.051134462326208593 0 0.18348422961527 0.038604369627883113 0 0.17032873039788099 0.032352956429954761 0 0.19294744602722999 0.034621277313508329 0 0.18348422961527 0.038604369627883113 0 0.18464038303927241 0.029256106364947888 0 0.18348422961527 0.038604369627883113 0 0.17032873039788099 0.032352956429954761 0 0.18464038303927241 0.029256106364947888 0 0.1749691938242936 0.051134462326208593 0 0.15636506353577381 0.046692307168754908 0 0.17032873039788099 0.032352956429954761 0 0.15636506353577381 0.046692307168754908 0 0.17032873039788099 0.032352956429954761 0 0.154004664183681 0.031738558907009051 0 0.1749691938242936 0.051134462326208593 0 0.15636506353577381 0.046692307168754908 0 0.16390842835161831 0.066545365680370783 0 0.18859511266510859 0.0076245034646380038 0 0.1729201067315736 0.0058886509416483691 0 0.17728684093665509 0.015620200308707101 0 0.18859511266510859 0.0076245034646380038 0 0.1729201067315736 0.0058886509416483691 0 0.17803555711089469 -0.0098327212154136895 0 0.17032873039788099 0.032352956429954761 0 0.17728684093665509 0.015620200308707101 0 0.18464038303927241 0.029256106364947888 0 0.1991546682193249 0.025081728144688242 0 0.17728684093665509 0.015620200308707101 0 0.18464038303927241 0.029256106364947888 0 0.17032873039788099 0.032352956429954761 0 0.17728684093665509 0.015620200308707101 0 0.16191195669533551 0.016428798204604671 0 0.17032873039788099 0.032352956429954761 0 0.16191195669533551 0.016428798204604671 0 0.154004664183681 0.031738558907009051 0 0.1729201067315736 0.0058886509416483691 0 0.16191195669533551 0.016428798204604671 0 0.15877106624987389 -0.00039752605429424232 0 0.1729201067315736 0.0058886509416483691 0 0.17728684093665509 0.015620200308707101 0 0.16191195669533551 0.016428798204604671 0 0.16191195669533551 0.016428798204604671 0 0.13622699799421389 0.01171634775034593 0 0.15877106624987389 -0.00039752605429424232 0 0.16191195669533551 0.016428798204604671 0 0.13622699799421389 0.01171634775034593 0 0.154004664183681 0.031738558907009051 0 0.13622699799421389 0.01171634775034593 0 0.154004664183681 0.031738558907009051 0 0.13635288112719929 0.035740320573991811 0 0.11205610120770269 0.02148849400253016 0 0.13622699799421389 0.01171634775034593 0 0.13635288112719929 0.035740320573991811 0 0.15636506353577381 0.046692307168754908 0 0.14341451201013661 0.058636371590328147 0 0.13635288112719929 0.035740320573991811 0 0.15636506353577381 0.046692307168754908 0 0.14341451201013661 0.058636371590328147 0 0.16390842835161831 0.066545365680370783 0 0.15636506353577381 0.046692307168754908 0 0.154004664183681 0.031738558907009051 0 0.13635288112719929 0.035740320573991811 0 0.14341451201013661 0.058636371590328147 0 0.13635288112719929 0.035740320573991811 0 0.12661665692874949 0.054581172971564437 0 0.14341451201013661 0.058636371590328147 0 0.12661665692874949 0.054581172971564437 0 0.1310097943044751 0.070561523775904744 0 0.14341451201013661 0.058636371590328147 0 0.1310097943044751 0.070561523775904744 0 0.150064053805991 0.076052824957966086 0 0.14341451201013661 0.058636371590328147 0 0.150064053805991 0.076052824957966086 0 0.16390842835161831 0.066545365680370783 0 0.150064053805991 0.076052824957966086 0 0.15538270849102209 0.092138700293370873 0 0.13362653152931531 0.087902504541129606 0 0.1310097943044751 0.070561523775904744 0 0.150064053805991 0.076052824957966086 0 0.13362653152931531 0.087902504541129606 0 0.1163820690046866 0.08231591411283562 0 0.1310097943044751 0.070561523775904744 0 0.13362653152931531 0.087902504541129606 0 0.11455352190873851 0.1008041347564587 0 0.13362653152931531 0.087902504541129606 0 0.13365954943985389 0.10583369982579691 0 0.1167558334748582 0.12638472335056161 0 0.13365954943985389 0.10583369982579691 0 0.13858681745168011 0.1243347892083516 0 0.15359766949230449 0.13154692394142151 0 0.13858681745168011 0.1243347892083516 0 0.15441260358810449 0.1130133211511212 0 0.13365954943985389 0.10583369982579691 0 0.13858681745168011 0.1243347892083516 0 0.15441260358810449 0.1130133211511212 0 0.15538270849102209 0.092138700293370873 0 0.13365954943985389 0.10583369982579691 0 0.15441260358810449 0.1130133211511212 0 0.15538270849102209 0.092138700293370873 0 0.13362653152931531 0.087902504541129606 0 0.13365954943985389 0.10583369982579691 0 0.15538270849102209 0.092138700293370873 0 0.16815581283795311 0.1060189917147643 0 0.17331592368598711 0.092940248258841382 0 0.15538270849102209 0.092138700293370873 0 0.15441260358810449 0.1130133211511212 0 0.16815581283795311 0.1060189917147643 0 0.15359766949230449 0.13154692394142151 0 0.17379718252912299 0.12669326153397351 0 0.15441260358810449 0.1130133211511212 0 0.17379718252912299 0.12669326153397351 0 0.15441260358810449 0.1130133211511212 0 0.16815581283795311 0.1060189917147643 0 0.17379718252912299 0.12669326153397351 0 0.18946130443793341 0.12206981170430629 0 0.18387064589552871 0.10530942733651449 0 0.17379718252912299 0.12669326153397351 0 0.18387064589552871 0.10530942733651449 0 0.17379718252912299 0.12669326153397351 0 0.16815581283795311 0.1060189917147643 0 0.18387064589552871 0.10530942733651449 0 0.19394410926193431 0.083925593139055454 0 0.18387064589552871 0.10530942733651449 0 0.17331592368598711 0.092940248258841382 0 0.16815581283795311 0.1060189917147643 0 0.18387064589552871 0.10530942733651449 0 0.17331592368598711 0.092940248258841382 0 0.17331592368598711 0.092940248258841382 0 0.18335112545645091 0.07267208885274215 0 0.17331592368598711 0.092940248258841382 0 0.18335112545645091 0.07267208885274215 0 0.16692344975895551 0.079845484570615355 0 0.19394410926193431 0.083925593139055454 0 0.17331592368598711 0.092940248258841382 0 0.18335112545645091 0.07267208885274215 0 0.1749691938242936 0.051134462326208593 0 0.18335112545645091 0.07267208885274215 0 0.16390842835161831 0.066545365680370783 0 0.18335112545645091 0.07267208885274215 0 0.16390842835161831 0.066545365680370783 0 0.16692344975895551 0.079845484570615355 0 0.150064053805991 0.076052824957966086 0 0.16390842835161831 0.066545365680370783 0 0.16692344975895551 0.079845484570615355 0 0.150064053805991 0.076052824957966086 0 0.15538270849102209 0.092138700293370873 0 0.16692344975895551 0.079845484570615355 0 0.15538270849102209 0.092138700293370873 0 0.17331592368598711 0.092940248258841382 0 0.16692344975895551 0.079845484570615355 0 0.10179167732903389 0.48308683226836818 0 0.115091112272804 0.47231809867616492 0 0.097274609860171168 0.46687925761877969 0 0.10179167732903389 0.48308683226836818 0 0.097274609860171168 0.46687925761877969 0 0.082845296896251558 0.47623680504689653 0 0.10179167732903389 0.48308683226836818 0 0.1209839170242257 0.5 0 0.092763450591716867 0.5 0 0.10179167732903389 0.48308683226836818 0 0.1209839170242257 0.5 0 0.115091112272804 0.47231809867616492 0 0.1209839170242257 0.5 0 0.115091112272804 0.47231809867616492 0 0.13833352194313761 0.4790861776640451 0 0.115091112272804 0.47231809867616492 0 0.11610071914341689 0.45717566159288442 0 0.1032993735170569 0.45654765280212389 0 0.115091112272804 0.47231809867616492 0 0.11610071914341689 0.45717566159288442 0 0.12906247977961399 0.46660672509549889 0 0.11610071914341689 0.45717566159288442 0 0.11980953052138919 0.44948907119100989 0 0.12685937845245909 0.45572263694949983 0 0.11610071914341689 0.45717566159288442 0 0.12685937845245909 0.45572263694949983 0 0.12906247977961399 0.46660672509549889 0 0.1246563877060802 0.44199006469265029 0 0.11980953052138919 0.44948907119100989 0 0.10172939828585929 0.44528721393036369 0 0.11610071914341689 0.45717566159288442 0 0.11980953052138919 0.44948907119100989 0 0.10172939828585929 0.44528721393036369 0 0.1246563877060802 0.44199006469265029 0 0.1148879104590744 0.43954495881483652 0 0.10172939828585929 0.44528721393036369 0 0.1246563877060802 0.44199006469265029 0 0.10172939828585929 0.44528721393036369 0 0.1246563877060802 0.44199006469265029 0 0.1148879104590744 0.43954495881483652 0 0.12712502726540631 0.43823690565346551 0 0.1148879104590744 0.43954495881483652 0 0.1122547638824089 0.43553718498847349 0 0.12712502726540631 0.43823690565346551 0 0.1246563877060802 0.44199006469265029 0 0.11980953052138919 0.44948907119100989 0 0.12960071115027069 0.44840118378863691 0 0.1148879104590744 0.43954495881483652 0 0.10172939828585929 0.44528721393036369 0 0.1122547638824089 0.43553718498847349 0 0.1148879104590744 0.43954495881483652 0 0.1122547638824089 0.43553718498847349 0 0.10172939828585929 0.44528721393036369 0 0.093212323443053052 0.43207999874758901 0 0.1122547638824089 0.43553718498847349 0 0.11610071914341689 0.45717566159288442 0 0.10172939828585929 0.44528721393036369 0 0.1032993735170569 0.45654765280212389 0 0.10172939828585929 0.44528721393036369 0 0.1032993735170569 0.45654765280212389 0 0.09235290899158613 0.45424912968328612 0 0.115091112272804 0.47231809867616492 0 0.1032993735170569 0.45654765280212389 0 0.097274609860171168 0.46687925761877969 0 0.1032993735170569 0.45654765280212389 0 0.097274609860171168 0.46687925761877969 0 0.09235290899158613 0.45424912968328612 0 0.097274609860171168 0.46687925761877969 0 0.09235290899158613 0.45424912968328612 0 0.085103072120266215 0.46367821153365513 0 0.09235290899158613 0.45424912968328612 0 0.080432531720900591 0.4556085613980147 0 0.085103072120266215 0.46367821153365513 0 0.085103072120266215 0.46367821153365513 0 0.072610013132421589 0.46541730392129832 0 0.082845296896251558 0.47623680504689653 0 0.080432531720900591 0.4556085613980147 0 0.085103072120266215 0.46367821153365513 0 0.072610013132421589 0.46541730392129832 0 0.10172939828585929 0.44528721393036369 0 0.084096468762346804 0.43773940819485019 0 0.093212323443053052 0.43207999874758901 0 0.10172939828585929 0.44528721393036369 0 0.07880240886563844 0.44858436316807743 0 0.10172939828585929 0.44528721393036369 0 0.084096468762346804 0.43773940819485019 0 0.07880240886563844 0.44858436316807743 0 0.10172939828585929 0.44528721393036369 0 0.09235290899158613 0.45424912968328612 0 0.07880240886563844 0.44858436316807743 0 0.084096468762346804 0.43773940819485019 0 0.07880240886563844 0.44858436316807743 0 0.074169883003697451 0.42862281250670331 0 0.09235290899158613 0.45424912968328612 0 0.080432531720900591 0.4556085613980147 0 0.07880240886563844 0.44858436316807743 0 0.080432531720900591 0.4556085613980147 0 0.07880240886563844 0.44858436316807743 0 0.065152265931926356 0.45054740146952249 0 0.065441911109278689 0.42703823491860421 0 0.07880240886563844 0.44858436316807743 0 0.074169883003697451 0.42862281250670331 0 0.07880240886563844 0.44858436316807743 0 0.070891617227632944 0.43869820301572682 0 0.074169883003697451 0.42862281250670331 0 0.070891617227632944 0.43869820301572682 0 0.065152265931926356 0.45054740146952249 0 0.065441911109278689 0.42703823491860421 0 0.07880240886563844 0.44858436316807743 0 0.065152265931926356 0.45054740146952249 0 0.07880240886563844 0.44858436316807743 0 0.070891617227632944 0.43869820301572682 0 0.065152265931926356 0.45054740146952249 0 0.07880240886563844 0.44858436316807743 0 0.065152265931926356 0.45054740146952249 0 0.07349908205918794 0.45548727844820158 0 0.065152265931926356 0.45054740146952249 0 0.064847625045567736 0.47527370073475161 0 0.065152265931926356 0.45054740146952249 0 0.072610013132421589 0.46541730392129832 0 0.064847625045567736 0.47527370073475161 0 0.065152265931926356 0.45054740146952249 0 0.072610013132421589 0.46541730392129832 0 0.07349908205918794 0.45548727844820158 0 0.080432531720900591 0.4556085613980147 0 0.072610013132421589 0.46541730392129832 0 0.07349908205918794 0.45548727844820158 0 0.080432531720900591 0.4556085613980147 0 0.07880240886563844 0.44858436316807743 0 0.07349908205918794 0.45548727844820158 0 0.064847625045567736 0.47527370073475161 0 0.082845296896251558 0.47623680504689653 0 0.064542984159208283 0.49999999999998068 0 0.072610013132421589 0.46541730392129832 0 0.064847625045567736 0.47527370073475161 0 0.082845296896251558 0.47623680504689653 0 0.097274609860171168 0.46687925761877969 0 0.085103072120266215 0.46367821153365513 0 0.082845296896251558 0.47623680504689653 0 0.082845296896251558 0.47623680504689653 0 0.092763450591716867 0.5 0 0.064542984159208283 0.49999999999998068 0 0.10179167732903389 0.48308683226836818 0 0.082845296896251558 0.47623680504689653 0 0.092763450591716867 0.5 0 0.064847625045567736 0.47527370073475161 0 0.064542984159208283 0.49999999999998068 0 0.064542984159208283 0.49999999999998068 0 0.050539468043203112 0.48470517092988419 0 0.040481609015171227 0.5 0 0.064847625045567736 0.47527370073475161 0 0.064542984159208283 0.49999999999998068 0 0.050539468043203112 0.48470517092988419 0 0.064847625045567736 0.47527370073475161 0 0.050539468043203112 0.48470517092988419 0 0.048781279939927341 0.46821170774348109 0 0.050539468043203112 0.48470517092988419 0 0.030992253386882281 0.47535833038601571 0 0.048781279939927341 0.46821170774348109 0 0.050539468043203112 0.48470517092988419 0 0.040481609015171227 0.5 0 0.030992253386882281 0.47535833038601571 0 0.016420233871134171 0.49999999999999961 0 0.030992253386882281 0.47535833038601571 0 0.040481609015171227 0.5 0 0.016420233871134171 0.49999999999999961 0 0.030992253386882281 0.47535833038601571 0 0.016420233871134171 0.49999999999999961 0 0.030992253386882281 0.47535833038601571 0 0.01783758336189846 0.47845206576366972 0 0.030992253386882281 0.47535833038601571 0 0.01783758336189846 0.47845206576366972 0 0.02462478526388363 0.46374763839386002 0 0.01783758336189846 0.47845206576366972 0 0.0099549597849691446 0.46760228601191928 0 0.02462478526388363 0.46374763839386002 0 -0.0087387389835913432 0.48480090010242438 0 0.007195684502623232 0.48555207402655409 0 0.0099549597849691446 0.46760228601191928 0 -0.0087387389835913432 0.48480090010242438 0 0.0099549597849691446 0.46760228601191928 0 0.01783758336189846 0.47845206576366972 0 0.007195684502623232 0.48555207402655409 0 0.0099549597849691446 0.46760228601191928 0 0.016420233871134171 0.49999999999999961 0 0.01783758336189846 0.47845206576366972 0 0.007195684502623232 0.48555207402655409 0 -0.0026478088853558821 0.50000000000000178 0 0.016420233871134171 0.49999999999999961 0 0.007195684502623232 0.48555207402655409 0 -0.011543683377056991 0.44623855039741162 0 0.003121881291630373 0.44116679752938442 0 0.0091690796769560295 0.45545780364841948 0 0.003121881291630373 0.44116679752938442 0 0.0091690796769560295 0.45545780364841948 0 0.01633138532036239 0.43302367358824773 0 -0.0070577174092844308 0.47182979877582337 0 0.0091690796769560295 0.45545780364841948 0 0.0099549597849691446 0.46760228601191928 0 -0.0070577174092844308 0.47182979877582337 0 0.0091690796769560295 0.45545780364841948 0 0.0099549597849691446 0.46760228601191928 0 0.028648658553529639 0.45040367192141417 0 0.0091690796769560295 0.45545780364841948 0 0.0099549597849691446 0.46760228601191928 0 0.028648658553529639 0.45040367192141417 0 0.0099549597849691446 0.46760228601191928 0 0.02462478526388363 0.46374763839386002 0 0.028648658553529639 0.45040367192141417 0 0.0091690796769560295 0.45545780364841948 0 0.025395876763196559 0.43908580852101559 0 0.0091690796769560295 0.45545780364841948 0 0.025395876763196559 0.43908580852101559 0 0.01633138532036239 0.43302367358824773 0 0.0091690796769560295 0.45545780364841948 0 0.028648658553529639 0.45040367192141417 0 0.025395876763196559 0.43908580852101559 0 0.028648658553529639 0.45040367192141417 0 0.047342357322090127 0.43320505783090912 0 0.028648658553529639 0.45040367192141417 0 0.025395876763196559 0.43908580852101559 0 0.047342357322090127 0.43320505783090912 0 0.028648658553529639 0.45040367192141417 0 0.045564272902630598 0.45071666077203187 0 0.047342357322090127 0.43320505783090912 0 0.02462478526388363 0.46374763839386002 0 0.028648658553529639 0.45040367192141417 0 0.045564272902630598 0.45071666077203187 0 0.030992253386882281 0.47535833038601571 0 0.045564272902630598 0.45071666077203187 0 0.030992253386882281 0.47535833038601571 0 0.02462478526388363 0.46374763839386002 0 0.045564272902630598 0.45071666077203187 0 0.030992253386882281 0.47535833038601571 0 0.045564272902630598 0.45071666077203187 0 0.048781279939927341 0.46821170774348109 0 0.045564272902630598 0.45071666077203187 0 0.048781279939927341 0.46821170774348109 0 0.050436985986723491 0.45266361800212629 0 0.065152265931926356 0.45054740146952249 0 0.064847625045567736 0.47527370073475161 0 0.050436985986723491 0.45266361800212629 0 0.064847625045567736 0.47527370073475161 0 0.048781279939927341 0.46821170774348109 0 0.050436985986723491 0.45266361800212629 0 0.045564272902630598 0.45071666077203187 0 0.050436985986723491 0.45266361800212629 0 0.060136292418380963 0.42607499115804948 0 0.045564272902630598 0.45071666077203187 0 0.060136292418380963 0.42607499115804948 0 0.065152265931926356 0.45054740146952249 0 0.050436985986723491 0.45266361800212629 0 0.060136292418380963 0.42607499115804948 0 0.065152265931926356 0.45054740146952249 0 0.050436985986723491 0.45266361800212629 0 0.060136292418380963 0.42607499115804948 0 0.041622673849437103 0.42271381339361191 0 0.045564272902630598 0.45071666077203187 0 0.047342357322090127 0.43320505783090912 0 0.060136292418380963 0.42607499115804948 0 0.060136292418380963 0.42607499115804948 0 0.057241128124478097 0.4181655267506787 0 0.041622673849437103 0.42271381339361191 0 0.047342357322090127 0.43320505783090912 0 0.060136292418380963 0.42607499115804948 0 0.041622673849437103 0.42271381339361191 0 0.053709176521409253 0.41051916020350832 0 0.065795679193410478 0.39832450701343358 0 0.065566922287166179 0.4168916527142712 0 0.060136292418380963 0.42607499115804948 0 0.057241128124478097 0.4181655267506787 0 0.065566922287166179 0.4168916527142712 0 0.057241128124478097 0.4181655267506787 0 0.053709176521409253 0.41051916020350832 0 0.065566922287166179 0.4168916527142712 0 0.057241128124478097 0.4181655267506787 0 0.053709176521409253 0.41051916020350832 0 0.041622673849437103 0.42271381339361191 0 0.053709176521409253 0.41051916020350832 0 0.041622673849437103 0.42271381339361191 0 0.037765446364156061 0.42020230694235011 0 0.031165525650873108 0.3974630952199053 0 0.053709176521409253 0.41051916020350832 0 0.042376685942107153 0.40662927421238731 0 0.041622673849437103 0.42271381339361191 0 0.037765446364156061 0.42020230694235011 0 0.026739734746463181 0.41660377148548028 0 0.031165525650873108 0.3974630952199053 0 0.042376685942107153 0.40662927421238731 0 0.037765446364156061 0.42020230694235011 0 0.041622673849437103 0.42271381339361191 0 0.042376685942107153 0.40662927421238731 0 0.037765446364156061 0.42020230694235011 0 0.031165525650873108 0.3974630952199053 0 0.035473850043907851 0.42159748436394823 0 0.037765446364156061 0.42020230694235011 0 0.026739734746463181 0.41660377148548028 0 0.035473850043907851 0.42159748436394823 0 0.037765446364156061 0.42020230694235011 0 0.041622673849437103 0.42271381339361191 0 0.025395876763196559 0.43908580852101559 0 0.041622673849437103 0.42271381339361191 0 0.025395876763196559 0.43908580852101559 0 0.047342357322090127 0.43320505783090912 0 0.041622673849437103 0.42271381339361191 0 0.035473850043907851 0.42159748436394823 0 0.041622673849437103 0.42271381339361191 0 0.026284108703420989 0.42794969655711812 0 0.035473850043907851 0.42159748436394823 0 0.041622673849437103 0.42271381339361191 0 0.025395876763196559 0.43908580852101559 0 0.041622673849437103 0.42271381339361191 0 0.026284108703420989 0.42794969655711812 0 0.025395876763196559 0.43908580852101559 0 0.01633138532036239 0.43302367358824773 0 0.026284108703420989 0.42794969655711812 0 0.01633138532036239 0.43302367358824773 0 0.026284108703420989 0.42794969655711812 0 0.015255130279907559 0.42204770709296918 0 0.026284108703420989 0.42794969655711812 0 0.026739734746463181 0.41660377148548028 0 0.015255130279907559 0.42204770709296918 0 0.035473850043907851 0.42159748436394823 0 0.026284108703420989 0.42794969655711812 0 0.026739734746463181 0.41660377148548028 0 0.026739734746463181 0.41660377148548028 0 0.01222027932967755 0.40933507133909242 0 0.031165525650873108 0.3974630952199053 0 0.026739734746463181 0.41660377148548028 0 0.01222027932967755 0.40933507133909242 0 0.015255130279907559 0.42204770709296918 0 -0.0052998567003863196 0.42332632249490748 0 0.01222027932967755 0.40933507133909242 0 0.015255130279907559 0.42204770709296918 0 -0.0044969486664877016 0.40232602855505017 0 -0.0052998567003863196 0.42332632249490748 0 0.01222027932967755 0.40933507133909242 0 -0.0052998567003863196 0.42332632249490748 0 0.003121881291630373 0.44116679752938442 0 0.01633138532036239 0.43302367358824773 0 -0.0052998567003863196 0.42332632249490748 0 0.01633138532036239 0.43302367358824773 0 -0.0052998567003863196 0.42332632249490748 0 0.01633138532036239 0.43302367358824773 0 0.015255130279907559 0.42204770709296918 0 0.001469116558939054 0.37821232275301397 0 0.024565604937590229 0.37472388349746072 0 0.001469116558939054 0.37821232275301397 0 0.01298471556211845 0.39241208027290447 0 0.024565604937590229 0.37472388349746072 0 -0.0044969486664877016 0.40232602855505017 0 0.001469116558939054 0.37821232275301397 0 0.01298471556211845 0.39241208027290447 0 -0.0044969486664877016 0.40232602855505017 0 0.01222027932967755 0.40933507133909242 0 0.01298471556211845 0.39241208027290447 0 0.01222027932967755 0.40933507133909242 0 0.01298471556211845 0.39241208027290447 0 0.031165525650873108 0.3974630952199053 0 0.031165525650873108 0.3974630952199053 0 0.024565604937590229 0.37472388349746072 0 0.031165525650873108 0.3974630952199053 0 0.035931585500428853 0.38327354481031922 0 0.024565604937590229 0.37472388349746072 0 0.01298471556211845 0.39241208027290447 0 0.031165525650873108 0.3974630952199053 0 0.024565604937590229 0.37472388349746072 0 0.035931585500428853 0.38327354481031922 0 0.045040958363013042 0.3889606951664108 0 0.042954253050239047 0.3719465053574999 0 0.035931585500428853 0.38327354481031922 0 0.042954253050239047 0.3719465053574999 0 0.024565604937590229 0.37472388349746072 0 0.031165525650873108 0.3974630952199053 0 0.035931585500428853 0.38327354481031922 0 0.045040958363013042 0.3889606951664108 0 0.042376685942107153 0.40662927421238731 0 0.031165525650873108 0.3974630952199053 0 0.045040958363013042 0.3889606951664108 0 0.042376685942107153 0.40662927421238731 0 0.045040958363013042 0.3889606951664108 0 0.054743136791604703 0.39761026363380919 0 0.053709176521409253 0.41051916020350832 0 0.042376685942107153 0.40662927421238731 0 0.054743136791604703 0.39761026363380919 0 0.045040958363013042 0.3889606951664108 0 0.054743136791604703 0.39761026363380919 0 0.0573720447487387 0.3879974749757083 0 0.054743136791604703 0.39761026363380919 0 0.0573720447487387 0.3879974749757083 0 0.065863373530896982 0.39283006906565548 0 0.054743136791604703 0.39761026363380919 0 0.065795679193410478 0.39832450701343358 0 0.065863373530896982 0.39283006906565548 0 0.053709176521409253 0.41051916020350832 0 0.054743136791604703 0.39761026363380919 0 0.065795679193410478 0.39832450701343358 0 0.053709176521409253 0.41051916020350832 0 0.065795679193410478 0.39832450701343358 0 0.045040958363013042 0.3889606951664108 0 0.052946775063646367 0.37584257789266518 0 0.042954253050239047 0.3719465053574999 0 0.045040958363013042 0.3889606951664108 0 0.052946775063646367 0.37584257789266518 0 0.0573720447487387 0.3879974749757083 0 0.0573720447487387 0.3879974749757083 0 0.062867077540465721 0.37991903176289288 0 0.065863373530896982 0.39283006906565548 0 0.052946775063646367 0.37584257789266518 0 0.062867077540465721 0.37991903176289288 0 0.060386341461311763 0.37478775816706661 0 0.052946775063646367 0.37584257789266518 0 0.0573720447487387 0.3879974749757083 0 0.062867077540465721 0.37991903176289288 0 0.065863373530896982 0.39283006906565548 0 0.066137955661315584 0.37494030005877049 0 0.070883629998827968 0.38681650157159331 0 0.065863373530896982 0.39283006906565548 0 0.066137955661315584 0.37494030005877049 0 0.070883629998827968 0.38681650157159331 0 0.070727618337926235 0.37997122991889831 0 0.066137955661315584 0.37494030005877049 0 0.062867077540465721 0.37991903176289288 0 0.065863373530896982 0.39283006906565548 0 0.066137955661315584 0.37494030005877049 0 0.062867077540465721 0.37991903176289288 0 0.066137955661315584 0.37494030005877049 0 0.060386341461311763 0.37478775816706661 0 0.062867077540465721 0.37991903176289288 0 0.065863373530896982 0.39283006906565548 0 0.070883629998827968 0.38681650157159331 0 0.078590854731123372 0.3854148397238677 0 0.065795679193410478 0.39832450701343358 0 0.070883629998827968 0.38681650157159331 0 0.070727618337926235 0.37997122991889831 0 0.077205184093142948 0.38219006419039903 0 0.070883629998827968 0.38681650157159331 0 0.077205184093142948 0.38219006419039903 0 0.078590854731123372 0.3854148397238677 0 0.077205184093142948 0.38219006419039903 0 0.078590854731123372 0.3854148397238677 0 0.070727618337926235 0.37997122991889831 0 0.077205184093142948 0.38219006419039903 0 0.067990626142223565 0.36816507047965702 0 0.077205184093142948 0.38219006419039903 0 0.067990626142223565 0.36816507047965702 0 0.077205184093142948 0.38219006419039903 0 0.084341955444361044 0.37961227792723379 0 0.07856329134812981 0.37390160315812471 0 0.085149171434427101 0.3837775525537454 0 0.10162449936236261 0.38147412319369911 0 0.092449965536357898 0.37143171703073841 0 0.084341955444361044 0.37961227792723379 0 0.085149171434427101 0.3837775525537454 0 0.077205184093142948 0.38219006419039903 0 0.084341955444361044 0.37961227792723379 0 0.078590854731123372 0.3854148397238677 0 0.084341955444361044 0.37961227792723379 0 0.078590854731123372 0.3854148397238677 0 0.081880140762702835 0.38930556970219771 0 0.085149171434427101 0.3837775525537454 0 0.088036370436965786 0.39867564289760238 0 0.078590854731123372 0.3854148397238677 0 0.081880140762702835 0.38930556970219771 0 0.085149171434427101 0.3837775525537454 0 0.078590854731123372 0.3854148397238677 0 0.081880140762702835 0.38930556970219771 0 0.080943366969799341 0.39088967891114168 0 0.078590854731123372 0.3854148397238677 0 0.080943366969799341 0.39088967891114168 0 0.078590854731123372 0.3854148397238677 0 0.081880140762702835 0.38930556970219771 0 0.081880140762702835 0.38930556970219771 0 0.080943366969799341 0.39088967891114168 0 0.084341955444361044 0.37961227792723379 0 0.078590854731123372 0.3854148397238677 0 0.085149171434427101 0.3837775525537454 0 0.081880140762702835 0.38930556970219771 0 0.085149171434427101 0.3837775525537454 0 0.084341955444361044 0.37961227792723379 0 0.085149171434427101 0.3837775525537454 0 0.092449965536357898 0.37143171703073841 0 0.085149171434427101 0.3837775525537454 0 0.092449965536357898 0.37143171703073841 0 0.084341955444361044 0.37961227792723379 0 0.092449965536357898 0.37143171703073841 0 0.088036370436965786 0.39867564289760238 0 0.081829996274370598 0.39295307003040802 0 0.082608010672415341 0.40881347922834799 0 0.085149171434427101 0.3837775525537454 0 0.088036370436965786 0.39867564289760238 0 0.085149171434427101 0.3837775525537454 0 0.088036370436965786 0.39867564289760238 0 0.10020768409765821 0.39293932187943548 0 0.081880140762702835 0.38930556970219771 0 0.088036370436965786 0.39867564289760238 0 0.081880140762702835 0.38930556970219771 0 0.088036370436965786 0.39867564289760238 0 0.081829996274370598 0.39295307003040802 0 0.080943366969799341 0.39088967891114168 0 0.081829996274370598 0.39295307003040802 0 0.081880140762702835 0.38930556970219771 0 0.080943366969799341 0.39088967891114168 0 0.081829996274370598 0.39295307003040802 0 0.080943366969799341 0.39088967891114168 0 0.069790069515620251 0.40975019928550521 0 0.081829996274370598 0.39295307003040802 0 0.069790069515620251 0.40975019928550521 0 0.082608010672415341 0.40881347922834799 0 0.080943366969799341 0.39088967891114168 0 0.081829996274370598 0.39295307003040802 0 0.069790069515620251 0.40975019928550521 0 0.080943366969799341 0.39088967891114168 0 0.065795679193410478 0.39832450701343358 0 0.069790069515620251 0.40975019928550521 0 0.078590854731123372 0.3854148397238677 0 0.065795679193410478 0.39832450701343358 0 0.078590854731123372 0.3854148397238677 0 0.080943366969799341 0.39088967891114168 0 0.065795679193410478 0.39832450701343358 0 0.070883629998827968 0.38681650157159331 0 0.065795679193410478 0.39832450701343358 0 0.065863373530896982 0.39283006906565548 0 0.065795679193410478 0.39832450701343358 0 0.065863373530896982 0.39283006906565548 0 0.065795679193410478 0.39832450701343358 0 0.069790069515620251 0.40975019928550521 0 0.069790069515620251 0.40975019928550521 0 0.074169883003697451 0.42862281250670331 0 0.082099638629041294 0.41999056404740359 0 0.069790069515620251 0.40975019928550521 0 0.065566922287166179 0.4168916527142712 0 0.074169883003697451 0.42862281250670331 0 0.065795679193410478 0.39832450701343358 0 0.069790069515620251 0.40975019928550521 0 0.065566922287166179 0.4168916527142712 0 0.069790069515620251 0.40975019928550521 0 0.074169883003697451 0.42862281250670331 0 0.065795679193410478 0.39832450701343358 0 0.065566922287166179 0.4168916527142712 0 0.069790069515620251 0.40975019928550521 0 0.065566922287166179 0.4168916527142712 0 0.060136292418380963 0.42607499115804948 0 0.065566922287166179 0.4168916527142712 0 0.065152265931926356 0.45054740146952249 0 0.060136292418380963 0.42607499115804948 0 0.065441911109278689 0.42703823491860421 0 0.070891617227632944 0.43869820301572682 0 0.065441911109278689 0.42703823491860421 0 0.074169883003697451 0.42862281250670331 0 0.060136292418380963 0.42607499115804948 0 0.065566922287166179 0.4168916527142712 0 0.065441911109278689 0.42703823491860421 0 0.065566922287166179 0.4168916527142712 0 0.065441911109278689 0.42703823491860421 0 0.065566922287166179 0.4168916527142712 0 0.065441911109278689 0.42703823491860421 0 0.074169883003697451 0.42862281250670331 0 0.065441911109278689 0.42703823491860421 0 0.074169883003697451 0.42862281250670331 0 0.060136292418380963 0.42607499115804948 0 0.065441911109278689 0.42703823491860421 0 0.074169883003697451 0.42862281250670331 0 0.093212323443053052 0.43207999874758901 0 0.082099638629041294 0.41999056404740359 0 0.074169883003697451 0.42862281250670331 0 0.093212323443053052 0.43207999874758901 0 0.084096468762346804 0.43773940819485019 0 0.074169883003697451 0.42862281250670331 0 0.093212323443053052 0.43207999874758901 0 0.093212323443053052 0.43207999874758901 0 0.082099638629041294 0.41999056404740359 0 0.091966025010738875 0.41895285579795088 0 0.088036370436965786 0.39867564289760238 0 0.091966025010738875 0.41895285579795088 0 0.100145567159687 0.41710641394303821 0 0.088036370436965786 0.39867564289760238 0 0.091966025010738875 0.41895285579795088 0 0.088036370436965786 0.39867564289760238 0 0.082608010672415341 0.40881347922834799 0 0.091966025010738875 0.41895285579795088 0 0.069790069515620251 0.40975019928550521 0 0.082608010672415341 0.40881347922834799 0 0.082099638629041294 0.41999056404740359 0 0.082608010672415341 0.40881347922834799 0 0.082099638629041294 0.41999056404740359 0 0.091966025010738875 0.41895285579795088 0 0.088036370436965786 0.39867564289760238 0 0.100145567159687 0.41710641394303821 0 0.1071904922178962 0.40370791288740998 0 0.088036370436965786 0.39867564289760238 0 0.100145567159687 0.41710641394303821 0 0.091966025010738875 0.41895285579795088 0 0.100145567159687 0.41710641394303821 0 0.097637659211397332 0.4250371212313957 0 0.100145567159687 0.41710641394303821 0 0.1148919673657257 0.41381795514065678 0 0.1071904922178962 0.40370791288740998 0 0.100145567159687 0.41710641394303821 0 0.1122547638824089 0.43553718498847349 0 0.1143180310867869 0.42393744222280411 0 0.093212323443053052 0.43207999874758901 0 0.1122547638824089 0.43553718498847349 0 0.100145567159687 0.41710641394303821 0 0.1122547638824089 0.43553718498847349 0 0.093212323443053052 0.43207999874758901 0 0.097637659211397332 0.4250371212313957 0 0.1122547638824089 0.43553718498847349 0 0.100145567159687 0.41710641394303821 0 0.097637659211397332 0.4250371212313957 0 0.1122547638824089 0.43553718498847349 0 0.093212323443053052 0.43207999874758901 0 0.091966025010738875 0.41895285579795088 0 0.097637659211397332 0.4250371212313957 0 0.1122547638824089 0.43553718498847349 0 0.1143180310867869 0.42393744222280411 0 0.1209544195606387 0.43040174782631491 0 0.1143180310867869 0.42393744222280411 0 0.12334343746547451 0.42282390921553709 0 0.1209544195606387 0.43040174782631491 0 0.12334343746547451 0.42282390921553709 0 0.1209544195606387 0.43040174782631491 0 0.12850296771530451 0.42923587583194978 0 0.1122547638824089 0.43553718498847349 0 0.12712502726540631 0.43823690565346551 0 0.1122547638824089 0.43553718498847349 0 0.1209544195606387 0.43040174782631491 0 0.12712502726540631 0.43823690565346551 0 0.1148919673657257 0.41381795514065678 0 0.12231423594728109 0.40435843208107952 0 0.1071904922178962 0.40370791288740998 0 0.100145567159687 0.41710641394303821 0 0.1143180310867869 0.42393744222280411 0 0.1148919673657257 0.41381795514065678 0 0.1143180310867869 0.42393744222280411 0 0.12334343746547451 0.42282390921553709 0 0.1148919673657257 0.41381795514065678 0 0.12334343746547451 0.42282390921553709 0 0.1148919673657257 0.41381795514065678 0 0.12851505446848019 0.41250129933738711 0 0.1148919673657257 0.41381795514065678 0 0.12231423594728109 0.40435843208107952 0 0.12851505446848019 0.41250129933738711 0 0.12231423594728109 0.40435843208107952 0 0.1171133612418457 0.39687689803769338 0 0.1071904922178962 0.40370791288740998 0 0.1171133612418457 0.39687689803769338 0 0.11145354249469561 0.39051886824224069 0 0.1071904922178962 0.40370791288740998 0 0.1171133612418457 0.39687689803769338 0 0.12483432845731431 0.3920386013744388 0 0.11145354249469561 0.39051886824224069 0 0.12231423594728109 0.40435843208107952 0 0.1171133612418457 0.39687689803769338 0 0.12483432845731431 0.3920386013744388 0 0.12483432845731431 0.3920386013744388 0 0.1155142409189933 0.38180633119697882 0 0.12576558562142021 0.38108448267032891 0 0.12483432845731431 0.3920386013744388 0 0.1155142409189933 0.38180633119697882 0 0.11145354249469561 0.39051886824224069 0 0.1155142409189933 0.38180633119697882 0 0.1204293528173238 0.37385702257331599 0 0.12576558562142021 0.38108448267032891 0 0.1204293528173238 0.37385702257331599 0 0.12784274552907141 0.37445089338973708 0 0.12576558562142021 0.38108448267032891 0 0.1155142409189933 0.38180633119697882 0 0.110048275283272 0.37348394267696799 0 0.1204293528173238 0.37385702257331599 0 0.1155142409189933 0.38180633119697882 0 0.11145354249469561 0.39051886824224069 0 0.10162449936236261 0.38147412319369911 0 0.085149171434427101 0.3837775525537454 0 0.10162449936236261 0.38147412319369911 0 0.10020768409765821 0.39293932187943548 0 0.11145354249469561 0.39051886824224069 0 0.10162449936236261 0.38147412319369911 0 0.10020768409765821 0.39293932187943548 0 0.1155142409189933 0.38180633119697882 0 0.10162449936236261 0.38147412319369911 0 0.110048275283272 0.37348394267696799 0 0.10162449936236261 0.38147412319369911 0 0.1011716305860072 0.37240877013621593 0 0.110048275283272 0.37348394267696799 0 0.10162449936236261 0.38147412319369911 0 0.1011716305860072 0.37240877013621593 0 0.092449965536357898 0.37143171703073841 0 0.088036370436965786 0.39867564289760238 0 0.10020768409765821 0.39293932187943548 0 0.1071904922178962 0.40370791288740998 0 0.11145354249469561 0.39051886824224069 0 0.10020768409765821 0.39293932187943548 0 0.1071904922178962 0.40370791288740998 0 0.10757231892246941 0.34585941831649958 0 0.10056378216203669 0.36324529764345898 0 0.117229722058771 0.34643023023780622 0 0.10056378216203669 0.36324529764345898 0 0.117229722058771 0.34643023023780622 0 0.10757231892246941 0.34585941831649958 0 0.096970081433520233 0.36378808174502919 0 0.10757231892246941 0.34585941831649958 0 0.096970081433520233 0.36378808174502919 0 0.10056378216203669 0.36324529764345898 0 0.10757231892246941 0.34585941831649958 0 0.098668007951022901 0.35047124715661621 0 0.096970081433520233 0.36378808174502919 0 0.098668007951022901 0.35047124715661621 0 0.098425786747696614 0.33961598467064208 0 0.092108983285303703 0.34963298478862909 0 0.10757231892246941 0.34585941831649958 0 0.098668007951022901 0.35047124715661621 0 0.098425786747696614 0.33961598467064208 0 0.098668007951022901 0.35047124715661621 0 0.094552077149147498 0.35507933330598812 0 0.096970081433520233 0.36378808174502919 0 0.098668007951022901 0.35047124715661621 0 0.094552077149147498 0.35507933330598812 0 0.092108983285303703 0.34963298478862909 0 0.096970081433520233 0.36378808174502919 0 0.10056378216203669 0.36324529764345898 0 0.092449965536357898 0.37143171703073841 0 0.096970081433520233 0.36378808174502919 0 0.10056378216203669 0.36324529764345898 0 0.10056378216203669 0.36324529764345898 0 0.092449965536357898 0.37143171703073841 0 0.10056378216203669 0.36324529764345898 0 0.1011716305860072 0.37240877013621593 0 0.092449965536357898 0.37143171703073841 0 0.096970081433520233 0.36378808174502919 0 0.092449965536357898 0.37143171703073841 0 0.10056378216203669 0.36324529764345898 0 0.110048275283272 0.37348394267696799 0 0.11570957291069769 0.36742917922163748 0 0.10056378216203669 0.36324529764345898 0 0.1011716305860072 0.37240877013621593 0 0.110048275283272 0.37348394267696799 0 0.10056378216203669 0.36324529764345898 0 0.11570957291069769 0.36742917922163748 0 0.1210829497201717 0.36014613085985381 0 0.10056378216203669 0.36324529764345898 0 0.1210829497201717 0.36014613085985381 0 0.110048275283272 0.37348394267696799 0 0.11570957291069769 0.36742917922163748 0 0.1204293528173238 0.37385702257331599 0 0.11570957291069769 0.36742917922163748 0 0.1204293528173238 0.37385702257331599 0 0.12551479594939799 0.36750364240483918 0 0.1204293528173238 0.37385702257331599 0 0.12784274552907141 0.37445089338973708 0 0.12551479594939799 0.36750364240483918 0 0.11570957291069769 0.36742917922163748 0 0.1210829497201717 0.36014613085985381 0 0.12551479594939799 0.36750364240483918 0 0.10056378216203669 0.36324529764345898 0 0.1210829497201717 0.36014613085985381 0 0.117229722058771 0.34643023023780622 0 0.1210829497201717 0.36014613085985381 0 0.1241458030540669 0.3518864823720903 0 0.117229722058771 0.34643023023780622 0 0.1241458030540669 0.3518864823720903 0 0.117229722058771 0.34643023023780622 0 0.12909490417984781 0.34730226367485229 0 0.10757231892246941 0.34585941831649958 0 0.117229722058771 0.34643023023780622 0 0.1181745564114227 0.3279307548879723 0 0.117229722058771 0.34643023023780622 0 0.1181745564114227 0.3279307548879723 0 0.13389566195550659 0.32961516283215492 0 0.10757231892246941 0.34585941831649958 0 0.1181745564114227 0.3279307548879723 0 0.1181745564114227 0.3279307548879723 0 0.12877679390037611 0.31000209145944507 0 0.1181745564114227 0.3279307548879723 0 0.1156520549318536 0.30942242908436141 0 0.12877679390037611 0.31000209145944507 0 0.1181745564114227 0.3279307548879723 0 0.09665906355898668 0.3272934088073689 0 0.1156520549318536 0.30942242908436141 0 0.09665906355898668 0.3272934088073689 0 0.1156520549318536 0.30942242908436141 0 0.09665906355898668 0.3272934088073689 0 0.096615630641231035 0.30611309179795571 0 0.1156520549318536 0.30942242908436141 0 0.1181745564114227 0.3279307548879723 0 0.09665906355898668 0.3272934088073689 0 0.098425786747696614 0.33961598467064208 0 0.10757231892246941 0.34585941831649958 0 0.1181745564114227 0.3279307548879723 0 0.098425786747696614 0.33961598467064208 0 0.09665906355898668 0.3272934088073689 0 0.077666072186121204 0.34516438853037801 0 0.09665906355898668 0.3272934088073689 0 0.074728257989039745 0.33000512126716891 0 0.077666072186121204 0.34516438853037801 0 0.09665906355898668 0.3272934088073689 0 0.098425786747696614 0.33961598467064208 0 0.077666072186121204 0.34516438853037801 0 0.09665906355898668 0.3272934088073689 0 0.083900487564655263 0.31546065793833822 0 0.096615630641231035 0.30611309179795571 0 0.09665906355898668 0.3272934088073689 0 0.083900487564655263 0.31546065793833822 0 0.074728257989039745 0.33000512126716891 0 0.066827724944140271 0.31455810128844558 0 0.066573411289030826 0.33519957072024492 0 0.066827724944140271 0.31455810128844558 0 0.074728257989039745 0.33000512126716891 0 0.066573411289030826 0.33519957072024492 0 0.083900487564655263 0.31546065793833822 0 0.066827724944140271 0.31455810128844558 0 0.074728257989039745 0.33000512126716891 0 0.066827724944140271 0.31455810128844558 0 0.066573411289030826 0.33519957072024492 0 0.059633388311997673 0.32536697280426158 0 0.066573411289030826 0.33519957072024492 0 0.066319097633892321 0.35584104015204371 0 0.057906489009868743 0.33727754455793763 0 0.074728257989039745 0.33000512126716891 0 0.066573411289030826 0.33519957072024492 0 0.077666072186121204 0.34516438853037801 0 0.074728257989039745 0.33000512126716891 0 0.077666072186121204 0.34516438853037801 0 0.066573411289030826 0.33519957072024492 0 0.066319097633892321 0.35584104015204371 0 0.066573411289030826 0.33519957072024492 0 0.066319097633892321 0.35584104015204371 0 0.077666072186121204 0.34516438853037801 0 0.072599628298336438 0.35832736929116349 0 0.077666072186121204 0.34516438853037801 0 0.081721611841939504 0.36609117471043517 0 0.066319097633892321 0.35584104015204371 0 0.062348332468100641 0.35957723222249638 0 0.066319097633892321 0.35584104015204371 0 0.062348332468100641 0.35957723222249638 0 0.059887644102313231 0.35583194796273382 0 0.066319097633892321 0.35584104015204371 0 0.072599628298336438 0.35832736929116349 0 0.077666072186121204 0.34516438853037801 0 0.066319097633892321 0.35584104015204371 0 0.077666072186121204 0.34516438853037801 0 0.098425786747696614 0.33961598467064208 0 0.077666072186121204 0.34516438853037801 0 0.092108983285303703 0.34963298478862909 0 0.077666072186121204 0.34516438853037801 0 0.0886058398182544 0.35723480305553018 0 0.081721611841939504 0.36609117471043517 0 0.077666072186121204 0.34516438853037801 0 0.081721611841939504 0.36609117471043517 0 0.094552077149147498 0.35507933330598812 0 0.096970081433520233 0.36378808174502919 0 0.0886058398182544 0.35723480305553018 0 0.094552077149147498 0.35507933330598812 0 0.0886058398182544 0.35723480305553018 0 0.092108983285303703 0.34963298478862909 0 0.077666072186121204 0.34516438853037801 0 0.0886058398182544 0.35723480305553018 0 0.092108983285303703 0.34963298478862909 0 0.084341955444361044 0.37961227792723379 0 0.092449965536357898 0.37143171703073841 0 0.081721611841939504 0.36609117471043517 0 0.096970081433520233 0.36378808174502919 0 0.092449965536357898 0.37143171703073841 0 0.081721611841939504 0.36609117471043517 0 0.096970081433520233 0.36378808174502919 0 0.0886058398182544 0.35723480305553018 0 0.081721611841939504 0.36609117471043517 0 0.096970081433520233 0.36378808174502919 0 0.081721611841939504 0.36609117471043517 0 0.084341955444361044 0.37961227792723379 0 0.081721611841939504 0.36609117471043517 0 0.07856329134812981 0.37390160315812471 0 0.084341955444361044 0.37961227792723379 0 0.081721611841939504 0.36609117471043517 0 0.077205184093142948 0.38219006419039903 0 0.07856329134812981 0.37390160315812471 0 0.07098441401307648 0.36771289580443028 0 0.077205184093142948 0.38219006419039903 0 0.07098441401307648 0.36771289580443028 0 0.067990626142223565 0.36816507047965702 0 0.077205184093142948 0.38219006419039903 0 0.07098441401307648 0.36771289580443028 0 0.081721611841939504 0.36609117471043517 0 0.07856329134812981 0.37390160315812471 0 0.07098441401307648 0.36771289580443028 0 0.081721611841939504 0.36609117471043517 0 0.07098441401307648 0.36771289580443028 0 0.072599628298336438 0.35832736929116349 0 0.081721611841939504 0.36609117471043517 0 0.07098441401307648 0.36771289580443028 0 0.066319097633892321 0.35584104015204371 0 0.06620082230776396 0.36544090425750653 0 0.066319097633892321 0.35584104015204371 0 0.06620082230776396 0.36544090425750653 0 0.062348332468100641 0.35957723222249638 0 0.066319097633892321 0.35584104015204371 0 0.07098441401307648 0.36771289580443028 0 0.06620082230776396 0.36544090425750653 0 0.066319097633892321 0.35584104015204371 0 0.072599628298336438 0.35832736929116349 0 0.07098441401307648 0.36771289580443028 0 0.066319097633892321 0.35584104015204371 0 0.07098441401307648 0.36771289580443028 0 0.07098441401307648 0.36771289580443028 0 0.06620082230776396 0.36544090425750653 0 0.067990626142223565 0.36816507047965702 0 0.06620082230776396 0.36544090425750653 0 0.067990626142223565 0.36816507047965702 0 0.06620082230776396 0.36544090425750653 0 0.063556055498084824 0.36649689731633661 0 0.060859471313764242 0.36135991842726878 0 0.06620082230776396 0.36544090425750653 0 0.06616385980000257 0.36844098096937927 0 0.06620082230776396 0.36544090425750653 0 0.063556055498084824 0.36649689731633661 0 0.06616385980000257 0.36844098096937927 0 0.06620082230776396 0.36544090425750653 0 0.060859471313764242 0.36135991842726878 0 0.062348332468100641 0.35957723222249638 0 0.06620082230776396 0.36544090425750653 0 0.062348332468100641 0.35957723222249638 0 0.070727618337926235 0.37997122991889831 0 0.067990626142223565 0.36816507047965702 0 0.066137955661315584 0.37494030005877049 0 0.067990626142223565 0.36816507047965702 0 0.06616385980000257 0.36844098096937927 0 0.066137955661315584 0.37494030005877049 0 0.07098441401307648 0.36771289580443028 0 0.067990626142223565 0.36816507047965702 0 0.06620082230776396 0.36544090425750653 0 0.067990626142223565 0.36816507047965702 0 0.06616385980000257 0.36844098096937927 0 0.067990626142223565 0.36816507047965702 0 0.06616385980000257 0.36844098096937927 0 0.06616385980000257 0.36844098096937927 0 0.061342901162887847 0.36916912721753858 0 0.06616385980000257 0.36844098096937927 0 0.066137955661315584 0.37494030005877049 0 0.061342901162887847 0.36916912721753858 0 0.063556055498084824 0.36649689731633661 0 0.06616385980000257 0.36844098096937927 0 0.061342901162887847 0.36916912721753858 0 0.066137955661315584 0.37494030005877049 0 0.061342901162887847 0.36916912721753858 0 0.06616385980000257 0.36844098096937927 0 0.066137955661315584 0.37494030005877049 0 0.066137955661315584 0.37494030005877049 0 0.060386341461311763 0.37478775816706661 0 0.061342901162887847 0.36916912721753858 0 0.061342901162887847 0.36916912721753858 0 0.042954253050239047 0.3719465053574999 0 0.052946775063646367 0.37584257789266518 0 0.061342901162887847 0.36916912721753858 0 0.042954253050239047 0.3719465053574999 0 0.061342901162887847 0.36916912721753858 0 0.060859471313764242 0.36135991842726878 0 0.05299352348986535 0.35140499166627043 0 0.052946775063646367 0.37584257789266518 0 0.060386341461311763 0.37478775816706661 0 0.061342901162887847 0.36916912721753858 0 0.061342901162887847 0.36916912721753858 0 0.043527626987868231 0.3477272381812978 0 0.045735100492876102 0.3624552404071974 0 0.061342901162887847 0.36916912721753858 0 0.042954253050239047 0.3719465053574999 0 0.045735100492876102 0.3624552404071974 0 0.063556055498084824 0.36649689731633661 0 0.061342901162887847 0.36916912721753858 0 0.060859471313764242 0.36135991842726878 0 0.061342901162887847 0.36916912721753858 0 0.043527626987868231 0.3477272381812978 0 0.066319097633892321 0.35584104015204371 0 0.057906489009868743 0.33727754455793763 0 0.059887644102313231 0.35583194796273382 0 0.05299352348986535 0.35140499166627043 0 0.057906489009868743 0.33727754455793763 0 0.061342901162887847 0.36916912721753858 0 0.05299352348986535 0.35140499166627043 0 0.043527626987868231 0.3477272381812978 0 0.066319097633892321 0.35584104015204371 0 0.059887644102313231 0.35583194796273382 0 0.057906489009868743 0.33727754455793763 0 0.060859471313764242 0.36135991842726878 0 0.059887644102313231 0.35583194796273382 0 0.05299352348986535 0.35140499166627043 0 0.060859471313764242 0.36135991842726878 0 0.062348332468100641 0.35957723222249638 0 0.059887644102313231 0.35583194796273382 0 0.062348332468100641 0.35957723222249638 0 0.059887644102313231 0.35583194796273382 0 0.05299352348986535 0.35140499166627043 0 0.043527626987868231 0.3477272381812978 0 0.050727992485640069 0.34204781896865111 0 0.043527626987868231 0.3477272381812978 0 0.02860565798467302 0.35013504693425868 0 0.025767130556677151 0.34067197388867948 0 0.043527626987868231 0.3477272381812978 0 0.045735100492876102 0.3624552404071974 0 0.035115620770509212 0.36097809087245269 0 0.043527626987868231 0.3477272381812978 0 0.035115620770509212 0.36097809087245269 0 0.02860565798467302 0.35013504693425868 0 0.042954253050239047 0.3719465053574999 0 0.024565604937590229 0.37472388349746072 0 0.042954253050239047 0.3719465053574999 0 0.035115620770509212 0.36097809087245269 0 0.024565604937590229 0.37472388349746072 0 0.042954253050239047 0.3719465053574999 0 0.045735100492876102 0.3624552404071974 0 0.035115620770509212 0.36097809087245269 0 0.024565604937590229 0.37472388349746072 0 0.020277031743418689 0.3599481341989576 0 0.024565604937590229 0.37472388349746072 0 0.020277031743418689 0.3599481341989576 0 0.0095873604691705736 0.36677720413169801 0 0.035115620770509212 0.36097809087245269 0 0.024565604937590229 0.37472388349746072 0 0.020277031743418689 0.3599481341989576 0 0.035115620770509212 0.36097809087245269 0 0.020277031743418689 0.3599481341989576 0 0.02860565798467302 0.35013504693425868 0 0.02860565798467302 0.35013504693425868 0 0.0159884585492472 0.34517238490045449 0 0.025767130556677151 0.34067197388867948 0 0.020277031743418689 0.3599481341989576 0 0.02860565798467302 0.35013504693425868 0 0.0159884585492472 0.34517238490045449 0 0.020277031743418689 0.3599481341989576 0 0.0159884585492472 0.34517238490045449 0 0.020277031743418689 0.3599481341989576 0 0.0159884585492472 0.34517238490045449 0 0.0075999617333648113 0.35561733717685878 0 0.0159884585492472 0.34517238490045449 0 0.0075999617333648113 0.35561733717685878 0 0.003323615605882289 0.33927713467499387 0 -0.0040827383222195781 0.35109057594634829 0 0.0075999617333648113 0.35561733717685878 0 0.003323615605882289 0.33927713467499387 0 -0.0059749126274599154 0.3653843430321988 0 0.0075999617333648113 0.35561733717685878 0 0.0095873604691705736 0.36677720413169801 0 0.001469116558939054 0.37821232275301397 0 0.024565604937590229 0.37472388349746072 0 0.0095873604691705736 0.36677720413169801 0 -0.0059749126274599154 0.3653843430321988 0 0.001469116558939054 0.37821232275301397 0 0.0095873604691705736 0.36677720413169801 0 0.020277031743418689 0.3599481341989576 0 0.0075999617333648113 0.35561733717685878 0 0.0095873604691705736 0.36677720413169801 0 -0.003860846205333693 0.31351861193422748 0 0.0072672062347961756 0.32307572668094031 0 0.0078970786378271193 0.30484346010881752 0 0.0072672062347961756 0.32307572668094031 0 0.025712352812847668 0.32628534914505758 0 0.0078970786378271193 0.30484346010881752 0 0.0072672062347961756 0.32307572668094031 0 0.003323615605882289 0.33927713467499387 0 0.01500155644874961 0.33403985028232908 0 -0.0083119161314481969 0.32689323102362622 0 0.0072672062347961756 0.32307572668094031 0 0.003323615605882289 0.33927713467499387 0 0.0159884585492472 0.34517238490045449 0 0.003323615605882289 0.33927713467499387 0 0.01500155644874961 0.33403985028232908 0 0.01500155644874961 0.33403985028232908 0 0.025767130556677151 0.34067197388867948 0 0.025712352812847668 0.32628534914505758 0 0.0159884585492472 0.34517238490045449 0 0.01500155644874961 0.33403985028232908 0 0.025767130556677151 0.34067197388867948 0 0.0072672062347961756 0.32307572668094031 0 0.01500155644874961 0.33403985028232908 0 0.025712352812847668 0.32628534914505758 0 0.025712352812847668 0.32628534914505758 0 0.0078970786378271193 0.30484346010881752 0 0.025712352812847668 0.32628534914505758 0 0.036080602804983937 0.30960050646949611 0 0.024304984730837299 0.30413502623142308 0 0.025712352812847668 0.32628534914505758 0 0.039673435971373183 0.31862497568920117 0 0.036080602804983937 0.30960050646949611 0 0.025712352812847668 0.32628534914505758 0 0.039673435971373183 0.31862497568920117 0 0.041475438167891801 0.33064690994676132 0 0.039673435971373183 0.31862497568920117 0 0.041475438167891801 0.33064690994676132 0 0.049804326775705871 0.31842194220570208 0 0.039673435971373183 0.31862497568920117 0 0.046241097532026987 0.31012948498664628 0 0.036080602804983937 0.30960050646949611 0 0.039673435971373183 0.31862497568920117 0 0.049804326775705871 0.31842194220570208 0 0.046241097532026987 0.31012948498664628 0 0.043527626987868231 0.3477272381812978 0 0.025767130556677151 0.34067197388867948 0 0.025712352812847668 0.32628534914505758 0 0.043527626987868231 0.3477272381812978 0 0.025712352812847668 0.32628534914505758 0 0.041475438167891801 0.33064690994676132 0 0.043527626987868231 0.3477272381812978 0 0.025712352812847668 0.32628534914505758 0 0.043527626987868231 0.3477272381812978 0 0.041475438167891801 0.33064690994676132 0 0.050727992485640069 0.34204781896865111 0 0.050727992485640069 0.34204781896865111 0 0.049804326775705871 0.31842194220570208 0 0.041475438167891801 0.33064690994676132 0 0.050727992485640069 0.34204781896865111 0 0.049804326775705871 0.31842194220570208 0 0.050727992485640069 0.34204781896865111 0 0.057906489009868743 0.33727754455793763 0 0.049804326775705871 0.31842194220570208 0 0.05299352348986535 0.35140499166627043 0 0.050727992485640069 0.34204781896865111 0 0.057906489009868743 0.33727754455793763 0 0.066573411289030826 0.33519957072024492 0 0.057906489009868743 0.33727754455793763 0 0.059633388311997673 0.32536697280426158 0 0.066827724944140271 0.31455810128844558 0 0.049804326775705871 0.31842194220570208 0 0.059633388311997673 0.32536697280426158 0 0.057906489009868743 0.33727754455793763 0 0.049804326775705871 0.31842194220570208 0 0.057906489009868743 0.33727754455793763 0 0.049804326775705871 0.31842194220570208 0 0.059633388311997673 0.32536697280426158 0 0.049804326775705871 0.31842194220570208 0 0.046241097532026987 0.31012948498664628 0 0.066827724944140271 0.31455810128844558 0 0.04901500651346534 0.29823240497190889 0 0.067082038599260249 0.29391663185664663 0 0.066827724944140271 0.31455810128844558 0 0.049804326775705871 0.31842194220570208 0 0.04901500651346534 0.29823240497190889 0 0.049804326775705871 0.31842194220570208 0 0.04901500651346534 0.29823240497190889 0 0.049804326775705871 0.31842194220570208 0 0.04901500651346534 0.29823240497190889 0 0.046241097532026987 0.31012948498664628 0 0.04901500651346534 0.29823240497190889 0 0.055615433555380588 0.28588892805208932 0 0.067082038599260249 0.29391663185664663 0 0.04901500651346534 0.29823240497190889 0 0.048071476563774758 0.27409843304489889 0 0.04901500651346534 0.29823240497190889 0 0.055615433555380588 0.28588892805208932 0 0.048071476563774758 0.27409843304489889 0 0.055615433555380588 0.28588892805208932 0 0.058842539712014558 0.27764054003748578 0 0.067082038599260249 0.29391663185664663 0 0.04901500651346534 0.29823240497190889 0 0.067082038599260249 0.29391663185664663 0 0.04901500651346534 0.29823240497190889 0 0.032017373421507657 0.29394929332400332 0 0.037541657333522369 0.28783475914438239 0 0.04901500651346534 0.29823240497190889 0 0.037541657333522369 0.28783475914438239 0 0.041700371433828792 0.28083150275320751 0 0.04901500651346534 0.29823240497190889 0 0.041700371433828792 0.28083150275320751 0 0.048071476563774758 0.27409843304489889 0 0.032017373421507657 0.29394929332400332 0 0.037541657333522369 0.28783475914438239 0 0.03064180209764937 0.28579829389447042 0 0.037541657333522369 0.28783475914438239 0 0.03064180209764937 0.28579829389447042 0 0.033912109114237289 0.27972077196759632 0 0.037541657333522369 0.28783475914438239 0 0.033912109114237289 0.27972077196759632 0 0.041700371433828792 0.28083150275320751 0 0.04901500651346534 0.29823240497190889 0 0.032017373421507657 0.29394929332400332 0 0.024304984730837299 0.30413502623142308 0 0.04901500651346534 0.29823240497190889 0 0.036080602804983937 0.30960050646949611 0 0.024304984730837299 0.30413502623142308 0 0.04901500651346534 0.29823240497190889 0 0.024304984730837299 0.30413502623142308 0 0.04901500651346534 0.29823240497190889 0 0.046241097532026987 0.31012948498664628 0 0.036080602804983937 0.30960050646949611 0 0.025712352812847668 0.32628534914505758 0 0.024304984730837299 0.30413502623142308 0 0.0078970786378271193 0.30484346010881752 0 0.024304984730837299 0.30413502623142308 0 0.022413573075614101 0.28706631093808832 0 0.01160775709485508 0.29261288285021197 0 0.032017373421507657 0.29394929332400332 0 0.024304984730837299 0.30413502623142308 0 0.022413573075614101 0.28706631093808832 0 0.03064180209764937 0.28579829389447042 0 0.022413573075614101 0.28706631093808832 0 0.027324297543365451 0.28042033409828182 0 0.032017373421507657 0.29394929332400332 0 0.03064180209764937 0.28579829389447042 0 0.022413573075614101 0.28706631093808832 0 0.03064180209764937 0.28579829389447042 0 0.027324297543365451 0.28042033409828182 0 0.033912109114237289 0.27972077196759632 0 0.022413573075614101 0.28706631093808832 0 0.01160775709485508 0.29261288285021197 0 0.012595922244947939 0.27412516136125692 0 -0.00043330719363736072 0.28730603648085062 0 0.01160775709485508 0.29261288285021197 0 0.012595922244947939 0.27412516136125692 0 -0.00043330719363736072 0.28730603648085062 0 0.01160775709485508 0.29261288285021197 0 0.0078970786378271193 0.30484346010881752 0 0.024304984730837299 0.30413502623142308 0 0.01160775709485508 0.29261288285021197 0 0.0078970786378271193 0.30484346010881752 0 -0.0010946476457873409 0.26599280009174858 0 0.013123440841508641 0.25580196675434841 0 0.027075822383603908 0.26749949190636652 0 -0.0010946476457873409 0.26599280009174858 0 0.00078604608867878457 0.24678879113798841 0 0.013123440841508641 0.25580196675434841 0 -0.0010946476457873409 0.26599280009174858 0 0.012595922244947939 0.27412516136125692 0 0.027075822383603908 0.26749949190636652 0 -0.0010946476457873409 0.26599280009174858 0 -0.00043330719363736072 0.28730603648085062 0 0.012595922244947939 0.27412516136125692 0 -0.0010946476457873409 0.26599280009174858 0 0.027075822383603908 0.26749949190636652 0 0.012595922244947939 0.27412516136125692 0 0.022117402899652739 0.27602894114557908 0 0.027075822383603908 0.26749949190636652 0 0.022413573075614101 0.28706631093808832 0 0.012595922244947939 0.27412516136125692 0 0.022117402899652739 0.27602894114557908 0 0.022413573075614101 0.28706631093808832 0 0.022117402899652739 0.27602894114557908 0 0.027324297543365451 0.28042033409828182 0 0.022117402899652739 0.27602894114557908 0 0.027324297543365451 0.28042033409828182 0 0.02851597346585857 0.27378023691374131 0 0.027324297543365451 0.28042033409828182 0 0.02851597346585857 0.27378023691374131 0 0.033912109114237289 0.27972077196759632 0 0.022117402899652739 0.27602894114557908 0 0.02851597346585857 0.27378023691374131 0 0.027075822383603908 0.26749949190636652 0 0.02851597346585857 0.27378023691374131 0 0.027075822383603908 0.26749949190636652 0 0.031953200633371912 0.27350184254223903 0 0.02851597346585857 0.27378023691374131 0 0.027075822383603908 0.26749949190636652 0 0.02074561315948352 0.23989236757757401 0 0.013123440841508641 0.25580196675434841 0 0.027075822383603908 0.26749949190636652 0 0.02074561315948352 0.23989236757757401 0 0.034451152271647488 0.24664222207921541 0 0.027075822383603908 0.26749949190636652 0 0.02074561315948352 0.23989236757757401 0 0.027075822383603908 0.26749949190636652 0 0.047127946614086987 0.24996446111788881 0 0.037978623397910263 0.25875735230657138 0 0.047072742622351497 0.26856902308600028 0 0.034451152271647488 0.24664222207921541 0 0.027075822383603908 0.26749949190636652 0 0.037978623397910263 0.25875735230657138 0 0.027075822383603908 0.26749949190636652 0 0.037978623397910263 0.25875735230657138 0 0.047072742622351497 0.26856902308600028 0 0.047127946614086987 0.24996446111788881 0 0.034451152271647488 0.24664222207921541 0 0.037978623397910263 0.25875735230657138 0 0.027075822383603908 0.26749949190636652 0 0.047072742622351497 0.26856902308600028 0 0.027075822383603908 0.26749949190636652 0 0.038308897569787899 0.27300686938125213 0 0.047072742622351497 0.26856902308600028 0 0.033912109114237289 0.27972077196759632 0 0.038308897569787899 0.27300686938125213 0 0.041700371433828792 0.28083150275320751 0 0.033912109114237289 0.27972077196759632 0 0.031953200633371912 0.27350184254223903 0 0.038308897569787899 0.27300686938125213 0 0.02851597346585857 0.27378023691374131 0 0.033912109114237289 0.27972077196759632 0 0.031953200633371912 0.27350184254223903 0 0.027075822383603908 0.26749949190636652 0 0.031953200633371912 0.27350184254223903 0 0.038308897569787899 0.27300686938125213 0 0.038308897569787899 0.27300686938125213 0 0.043664003321935527 0.27354626305001573 0 0.047072742622351497 0.26856902308600028 0 0.043664003321935527 0.27354626305001573 0 0.048071476563774758 0.27409843304489889 0 0.047072742622351497 0.26856902308600028 0 0.038308897569787899 0.27300686938125213 0 0.043664003321935527 0.27354626305001573 0 0.041700371433828792 0.28083150275320751 0 0.043664003321935527 0.27354626305001573 0 0.041700371433828792 0.28083150275320751 0 0.048071476563774758 0.27409843304489889 0 0.055615433555380588 0.28588892805208932 0 0.048071476563774758 0.27409843304489889 0 0.058842539712014558 0.27764054003748578 0 0.048071476563774758 0.27409843304489889 0 0.058842539712014558 0.27764054003748578 0 0.056060401587328022 0.26483799392533292 0 0.058842539712014558 0.27764054003748578 0 0.056060401587328022 0.26483799392533292 0 0.067383348254339753 0.26946071330846172 0 0.056060401587328022 0.26483799392533292 0 0.056540995624820033 0.25261720487182782 0 0.067383348254339753 0.26946071330846172 0 0.047127946614086987 0.24996446111788881 0 0.048071476563774758 0.27409843304489889 0 0.047127946614086987 0.24996446111788881 0 0.048071476563774758 0.27409843304489889 0 0.056060401587328022 0.26483799392533292 0 0.047127946614086987 0.24996446111788881 0 0.048071476563774758 0.27409843304489889 0 0.047072742622351497 0.26856902308600028 0 0.047127946614086987 0.24996446111788881 0 0.056060401587328022 0.26483799392533292 0 0.056540995624820033 0.25261720487182782 0 0.067684657909432247 0.24500479476027689 0 0.056540995624820033 0.25261720487182782 0 0.067383348254339753 0.26946071330846172 0 0.067684657909432247 0.24500479476027689 0 0.067383348254339753 0.26946071330846172 0 0.067684657909432247 0.24500479476027689 0 0.081311918929848126 0.25262264126969791 0 0.067383348254339753 0.26946071330846172 0 0.096376220560316098 0.24709182360332529 0 0.081311918929848126 0.25262264126969791 0 0.093307184097297213 0.26619908151258098 0 0.081311918929848126 0.25262264126969791 0 0.093307184097297213 0.26619908151258098 0 0.067383348254339753 0.26946071330846172 0 0.093307184097297213 0.26619908151258098 0 0.067383348254339753 0.26946071330846172 0 0.089636342191476925 0.2885289590716133 0 0.058842539712014558 0.27764054003748578 0 0.067383348254339753 0.26946071330846172 0 0.067082038599260249 0.29391663185664663 0 0.067383348254339753 0.26946071330846172 0 0.067082038599260249 0.29391663185664663 0 0.089636342191476925 0.2885289590716133 0 0.067383348254339753 0.26946071330846172 0 0.067082038599260249 0.29391663185664663 0 0.066827724944140271 0.31455810128844558 0 0.067082038599260249 0.29391663185664663 0 0.083900487564655263 0.31546065793833822 0 0.066827724944140271 0.31455810128844558 0 0.080722167008445034 0.30224889853638959 0 0.066827724944140271 0.31455810128844558 0 0.067082038599260249 0.29391663185664663 0 0.080722167008445034 0.30224889853638959 0 0.080722167008445034 0.30224889853638959 0 0.089636342191476925 0.2885289590716133 0 0.096615630641231035 0.30611309179795571 0 0.083900487564655263 0.31546065793833822 0 0.080722167008445034 0.30224889853638959 0 0.096615630641231035 0.30611309179795571 0 0.067082038599260249 0.29391663185664663 0 0.080722167008445034 0.30224889853638959 0 0.089636342191476925 0.2885289590716133 0 0.067082038599260249 0.29391663185664663 0 0.089636342191476925 0.2885289590716133 0 0.089636342191476925 0.2885289590716133 0 0.1086137941887079 0.29850486439461082 0 0.11219064578368371 0.28314128628653801 0 0.089636342191476925 0.2885289590716133 0 0.11219064578368371 0.28314128628653801 0 0.096615630641231035 0.30611309179795571 0 0.1086137941887079 0.29850486439461082 0 0.1156520549318536 0.30942242908436141 0 0.089636342191476925 0.2885289590716133 0 0.096615630641231035 0.30611309179795571 0 0.1086137941887079 0.29850486439461082 0 0.1086137941887079 0.29850486439461082 0 0.1156520549318536 0.30942242908436141 0 0.1212776406944049 0.29225856843692177 0 0.1156520549318536 0.30942242908436141 0 0.1212776406944049 0.29225856843692177 0 0.1346450463047206 0.29155144936135369 0 0.11219064578368371 0.28314128628653801 0 0.1212776406944049 0.29225856843692177 0 0.1347449493758904 0.2777536135014626 0 0.1086137941887079 0.29850486439461082 0 0.11219064578368371 0.28314128628653801 0 0.1212776406944049 0.29225856843692177 0 0.11219064578368371 0.28314128628653801 0 0.1347449493758904 0.2777536135014626 0 0.11219064578368371 0.28314128628653801 0 0.122598329490925 0.27089276136067392 0 0.1118780970565018 0.26182923586056789 0 0.11219064578368371 0.28314128628653801 0 0.122598329490925 0.27089276136067392 0 0.1347449493758904 0.2777536135014626 0 0.1137556677469518 0.24327785068076879 0 0.13157962574762419 0.26084690979412711 0 0.1137556677469518 0.24327785068076879 0 0.1118780970565018 0.26182923586056789 0 0.13157962574762419 0.26084690979412711 0 0.122598329490925 0.27089276136067392 0 0.1118780970565018 0.26182923586056789 0 0.13157962574762419 0.26084690979412711 0 0.1137556677469518 0.24327785068076879 0 0.096376220560316098 0.24709182360332529 0 0.1118780970565018 0.26182923586056789 0 0.096376220560316098 0.24709182360332529 0 0.093307184097297213 0.26619908151258098 0 0.1118780970565018 0.26182923586056789 0 0.093307184097297213 0.26619908151258098 0 0.089636342191476925 0.2885289590716133 0 0.11219064578368371 0.28314128628653801 0 0.093307184097297213 0.26619908151258098 0 0.11219064578368371 0.28314128628653801 0 0.1118780970565018 0.26182923586056789 0 0.14940358374829679 0.27841596890748538 0 0.14893238512369489 0.25643887141978111 0 0.16576628710114549 0.26960293963739668 0 0.14940358374829679 0.27841596890748538 0 0.14893238512369489 0.25643887141978111 0 0.13157962574762419 0.26084690979412711 0 0.13577324987587541 0.24088922869785701 0 0.14893238512369489 0.25643887141978111 0 0.13157962574762419 0.26084690979412711 0 0.14940358374829679 0.27841596890748538 0 0.13157962574762419 0.26084690979412711 0 0.14940358374829679 0.27841596890748538 0 0.13157962574762419 0.26084690979412711 0 0.1347449493758904 0.2777536135014626 0 0.122598329490925 0.27089276136067392 0 0.13157962574762419 0.26084690979412711 0 0.1347449493758904 0.2777536135014626 0 0.1212776406944049 0.29225856843692177 0 0.1347449493758904 0.2777536135014626 0 0.1346450463047206 0.29155144936135369 0 0.14940358374829679 0.27841596890748538 0 0.1347449493758904 0.2777536135014626 0 0.1346450463047206 0.29155144936135369 0 0.1156520549318536 0.30942242908436141 0 0.1346450463047206 0.29155144936135369 0 0.1346450463047206 0.29155144936135369 0 0.12877679390037611 0.31000209145944507 0 0.14089987585839489 0.30250575362905929 0 0.1156520549318536 0.30942242908436141 0 0.1346450463047206 0.29155144936135369 0 0.12877679390037611 0.31000209145944507 0 0.12877679390037611 0.31000209145944507 0 0.14089987585839489 0.30250575362905929 0 0.15056160185224221 0.31280009542650339 0 0.1496160613762407 0.29566937826893508 0 0.16722754174896939 0.29598502802084381 0 0.15056160185224221 0.31280009542650339 0 0.14089987585839489 0.30250575362905929 0 0.1496160613762407 0.29566937826893508 0 0.15056160185224221 0.31280009542650339 0 0.14940358374829679 0.27841596890748538 0 0.1496160613762407 0.29566937826893508 0 0.16722754174896939 0.29598502802084381 0 0.14940358374829679 0.27841596890748538 0 0.1346450463047206 0.29155144936135369 0 0.1496160613762407 0.29566937826893508 0 0.1346450463047206 0.29155144936135369 0 0.14089987585839489 0.30250575362905929 0 0.1496160613762407 0.29566937826893508 0 0.14940358374829679 0.27841596890748538 0 0.16722754174896939 0.29598502802084381 0 0.14940358374829679 0.27841596890748538 0 0.16722754174896939 0.29598502802084381 0 0.16576628710114549 0.26960293963739668 0 0.16722754174896939 0.29598502802084381 0 0.15056160185224221 0.31280009542650339 0 0.16722754174896939 0.29598502802084381 0 0.1640633387012338 0.315782588619403 0 0.15056160185224221 0.31280009542650339 0 0.16722754174896939 0.29598502802084381 0 0.17511810654585039 0.31720785356835768 0 0.1640633387012338 0.315782588619403 0 0.16722754174896939 0.29598502802084381 0 0.18622225067974779 0.31470809525615079 0 0.16722754174896939 0.29598502802084381 0 0.18622225067974779 0.31470809525615079 0 0.17511810654585039 0.31720785356835768 0 0.16722754174896939 0.29598502802084381 0 0.1959824317677841 0.29412413634298762 0 0.18622225067974779 0.31470809525615079 0 0.16722754174896939 0.29598502802084381 0 0.18619284212434559 0.27685002536536418 0 0.16722754174896939 0.29598502802084381 0 0.18619284212434559 0.27685002536536418 0 0.1959824317677841 0.29412413634298762 0 0.18619284212434559 0.27685002536536418 0 0.16576628710114549 0.26960293963739668 0 0.17931245999239509 0.25959839036624888 0 0.16722754174896939 0.29598502802084381 0 0.18619284212434559 0.27685002536536418 0 0.16576628710114549 0.26960293963739668 0 0.14893238512369489 0.25643887141978111 0 0.16576628710114549 0.26960293963739668 0 0.1635289098691716 0.25032935374465742 0 0.16576628710114549 0.26960293963739668 0 0.1635289098691716 0.25032935374465742 0 0.17931245999239509 0.25959839036624888 0 0.17702095730703921 0.24263156709986539 0 0.19154732197045099 0.24989166113898409 0 0.17931245999239509 0.25959839036624888 0 0.17702095730703921 0.24263156709986539 0 0.1635289098691716 0.25032935374465742 0 0.17931245999239509 0.25959839036624888 0 0.19154732197045099 0.24989166113898409 0 0.17931245999239509 0.25959839036624888 0 0.20515814249971351 0.25771502270987628 0 0.18619284212434559 0.27685002536536418 0 0.17931245999239509 0.25959839036624888 0 0.20515814249971351 0.25771502270987628 0 0.19154732197045099 0.24989166113898409 0 0.2068760714913315 0.25384484126876389 0 0.20515814249971351 0.25771502270987628 0 0.18619284212434559 0.27685002536536418 0 0.20515814249971351 0.25771502270987628 0 0.18619284212434559 0.27685002536536418 0 0.20747451401872469 0.27456655474043629 0 0.20515814249971351 0.25771502270987628 0 0.20747451401872469 0.27456655474043629 0 0.21615741577319009 0.26763240529397991 0 0.22465158988199771 0.27823475258349289 0 0.20747451401872469 0.27456655474043629 0 0.22465158988199771 0.27823475258349289 0 0.21329321475596999 0.28901379052801868 0 0.20747451401872469 0.27456655474043629 0 0.21615741577319009 0.26763240529397991 0 0.21247500370739639 0.26196120618749869 0 0.22412344287508229 0.2385800200543893 0 0.2068760714913315 0.25384484126876389 0 0.20515814249971351 0.25771502270987628 0 0.20747451401872469 0.27456655474043629 0 0.20515814249971351 0.25771502270987628 0 0.21247500370739639 0.26196120618749869 0 0.20515814249971351 0.25771502270987628 0 0.21247500370739639 0.26196120618749869 0 0.21600402894377591 0.25574719168017052 0 0.21615741577319009 0.26763240529397991 0 0.21247500370739639 0.26196120618749869 0 0.21983853686688101 0.26140438256590692 0 0.21247500370739639 0.26196120618749869 0 0.21600402894377591 0.25574719168017052 0 0.21983853686688101 0.26140438256590692 0 0.20515814249971351 0.25771502270987628 0 0.21600402894377591 0.25574719168017052 0 0.22036769382774901 0.25054791410220723 0 0.21906318420961379 0.247802371404342 0 0.20515814249971351 0.25771502270987628 0 0.22036769382774901 0.25054791410220723 0 0.22255875348912821 0.25571012252952918 0 0.22885494512739871 0.25024572599068279 0 0.22772856267983621 0.2606053983086789 0 0.22036769382774901 0.25054791410220723 0 0.22255875348912821 0.25571012252952918 0 0.22885494512739871 0.25024572599068279 0 0.21600402894377591 0.25574719168017052 0 0.22036769382774901 0.25054791410220723 0 0.22255875348912821 0.25571012252952918 0 0.21600402894377591 0.25574719168017052 0 0.22255875348912821 0.25571012252952918 0 0.21983853686688101 0.26140438256590692 0 0.22885494512739871 0.25024572599068279 0 0.22772856267983621 0.2606053983086789 0 0.23507042217394439 0.25756457460733628 0 0.22772856267983621 0.2606053983086789 0 0.23856470965594639 0.26807141709233429 0 0.23507042217394439 0.25756457460733628 0 0.22772856267983621 0.2606053983086789 0 0.21983853686688101 0.26140438256590692 0 0.22451572724532209 0.26854475801069339 0 0.22255875348912821 0.25571012252952918 0 0.22772856267983621 0.2606053983086789 0 0.21983853686688101 0.26140438256590692 0 0.21615741577319009 0.26763240529397991 0 0.21983853686688101 0.26140438256590692 0 0.22451572724532209 0.26854475801069339 0 0.21615741577319009 0.26763240529397991 0 0.22451572724532209 0.26854475801069339 0 0.22465158988199771 0.27823475258349289 0 0.22451572724532209 0.26854475801069339 0 0.22465158988199771 0.27823475258349289 0 0.23856470965594639 0.26807141709233429 0 0.22772856267983621 0.2606053983086789 0 0.22451572724532209 0.26854475801069339 0 0.23856470965594639 0.26807141709233429 0 0.22465158988199771 0.27823475258349289 0 0.23856470965594639 0.26807141709233429 0 0.2399843947419818 0.28661617184751792 0 0.23856470965594639 0.26807141709233429 0 0.2399843947419818 0.28661617184751792 0 0.25620705141910971 0.27963943373887518 0 0.23856470965594639 0.26807141709233429 0 0.2438721241591377 0.25167873840379662 0 0.23507042217394439 0.25756457460733628 0 0.23856470965594639 0.26807141709233429 0 0.2438721241591377 0.25167873840379662 0 0.25837332287901649 0.26029226688259027 0 0.22885494512739871 0.25024572599068279 0 0.2438721241591377 0.25167873840379662 0 0.23507042217394439 0.25756457460733628 0 0.23908292882361229 0.30258203705803582 0 0.24808748913268031 0.31562373023971702 0 0.23857683436127861 0.31792718636871159 0 0.23908292882361229 0.30258203705803582 0 0.24808748913268031 0.31562373023971702 0 0.25358365163434232 0.30053274337824049 0 0.23908292882361229 0.30258203705803582 0 0.2399843947419818 0.28661617184751792 0 0.25358365163434232 0.30053274337824049 0 0.2399843947419818 0.28661617184751792 0 0.25358365163434232 0.30053274337824049 0 0.25620705141910971 0.27963943373887518 0 0.23908292882361229 0.30258203705803582 0 0.2399843947419818 0.28661617184751792 0 0.22521493312828389 0.29383819736544259 0 0.22465158988199771 0.27823475258349289 0 0.2399843947419818 0.28661617184751792 0 0.22521493312828389 0.29383819736544259 0 0.22465158988199771 0.27823475258349289 0 0.22521493312828389 0.29383819736544259 0 0.21329321475596999 0.28901379052801868 0 0.22521493312828389 0.29383819736544259 0 0.22477075182866091 0.3063184979960405 0 0.2131426049830594 0.30430531160773427 0 0.23908292882361229 0.30258203705803582 0 0.22521493312828389 0.29383819736544259 0 0.22477075182866091 0.3063184979960405 0 0.23908292882361229 0.30258203705803582 0 0.22477075182866091 0.3063184979960405 0 0.2268533686681117 0.31489035328121412 0 0.22477075182866091 0.3063184979960405 0 0.21992743813388299 0.31318074430373061 0 0.2268533686681117 0.31489035328121412 0 0.22477075182866091 0.3063184979960405 0 0.2131426049830594 0.30430531160773427 0 0.21992743813388299 0.31318074430373061 0 0.2131426049830594 0.30430531160773427 0 0.21344653687764031 0.31919484327667552 0 0.21992743813388299 0.31318074430373061 0 0.2131426049830594 0.30430531160773427 0 0.1959824317677841 0.29412413634298762 0 0.2022063955520188 0.31274697880855118 0 0.2131426049830594 0.30430531160773427 0 0.2022063955520188 0.31274697880855118 0 0.21344653687764031 0.31919484327667552 0 0.2131426049830594 0.30430531160773427 0 0.21329321475596999 0.28901379052801868 0 0.1959824317677841 0.29412413634298762 0 0.20747451401872469 0.27456655474043629 0 0.21329321475596999 0.28901379052801868 0 0.1959824317677841 0.29412413634298762 0 0.22521493312828389 0.29383819736544259 0 0.2131426049830594 0.30430531160773427 0 0.21329321475596999 0.28901379052801868 0 0.18619284212434559 0.27685002536536418 0 0.20747451401872469 0.27456655474043629 0 0.1959824317677841 0.29412413634298762 0 0.1959824317677841 0.29412413634298762 0 0.2022063955520188 0.31274697880855118 0 0.18622225067974779 0.31470809525615079 0 0.2022063955520188 0.31274697880855118 0 0.20521695961052661 0.33343116249145749 0 0.18622225067974779 0.31470809525615079 0 0.19016753307818859 0.32531950802990739 0 0.20521695961052661 0.33343116249145749 0 0.18622225067974779 0.31470809525615079 0 0.20521695961052661 0.33343116249145749 0 0.18622225067974779 0.31470809525615079 0 0.19016753307818859 0.32531950802990739 0 0.19224120776601131 0.34110995331931632 0 0.18351907589344141 0.32549743268375098 0 0.19016753307818859 0.32531950802990739 0 0.19224120776601131 0.34110995331931632 0 0.20521695961052661 0.33343116249145749 0 0.19224120776601131 0.34110995331931632 0 0.18351907589344141 0.32549743268375098 0 0.19016753307818859 0.32531950802990739 0 0.20521695961052661 0.33343116249145749 0 0.19224120776601131 0.34110995331931632 0 0.20521695961052661 0.33343116249145749 0 0.2065514902329609 0.34657223030076001 0 0.20521695961052661 0.33343116249145749 0 0.22115676709391111 0.3420227330879177 0 0.20521695961052661 0.33343116249145749 0 0.22115676709391111 0.3420227330879177 0 0.21892181289016061 0.34694002384541461 0 0.20521695961052661 0.33343116249145749 0 0.2173925770623201 0.32848297773663743 0 0.22115676709391111 0.3420227330879177 0 0.20521695961052661 0.33343116249145749 0 0.21892181289016061 0.34694002384541461 0 0.2065514902329609 0.34657223030076001 0 0.20521695961052661 0.33343116249145749 0 0.21892181289016061 0.34694002384541461 0 0.2022063955520188 0.31274697880855118 0 0.20521695961052661 0.33343116249145749 0 0.21344653687764031 0.31919484327667552 0 0.2173925770623201 0.32848297773663743 0 0.21344653687764031 0.31919484327667552 0 0.22142392831194271 0.32119471535698851 0 0.20521695961052661 0.33343116249145749 0 0.2173925770623201 0.32848297773663743 0 0.21344653687764031 0.31919484327667552 0 0.21344653687764031 0.31919484327667552 0 0.21992743813388299 0.31318074430373061 0 0.22142392831194271 0.32119471535698851 0 0.21992743813388299 0.31318074430373061 0 0.2268533686681117 0.31489035328121412 0 0.22142392831194271 0.32119471535698851 0 0.23908292882361229 0.30258203705803582 0 0.2268533686681117 0.31489035328121412 0 0.23072367765895199 0.32301448762834117 0 0.2268533686681117 0.31489035328121412 0 0.2256364766727017 0.32179911962176461 0 0.22142392831194271 0.32119471535698851 0 0.2268533686681117 0.31489035328121412 0 0.23072367765895199 0.32301448762834117 0 0.2256364766727017 0.32179911962176461 0 0.23072367765895199 0.32301448762834117 0 0.23567513802859341 0.32328133624743888 0 0.23438019201156629 0.32810793723973958 0 0.23072367765895199 0.32301448762834117 0 0.2231955650799306 0.32724200194756498 0 0.2256364766727017 0.32179911962176461 0 0.2231955650799306 0.32724200194756498 0 0.2256364766727017 0.32179911962176461 0 0.22142392831194271 0.32119471535698851 0 0.2173925770623201 0.32848297773663743 0 0.2231955650799306 0.32724200194756498 0 0.22142392831194271 0.32119471535698851 0 0.23072367765895199 0.32301448762834117 0 0.22115676709391111 0.3420227330879177 0 0.23072367765895199 0.32301448762834117 0 0.23220718014058991 0.34280652424742208 0 0.22850835527070959 0.33523123379445557 0 0.23072367765895199 0.32301448762834117 0 0.23220718014058991 0.34280652424742208 0 0.23072367765895199 0.32301448762834117 0 0.23220718014058991 0.34280652424742208 0 0.23299968021618619 0.33400139933927181 0 0.2173925770623201 0.32848297773663743 0 0.2231955650799306 0.32724200194756498 0 0.22115676709391111 0.3420227330879177 0 0.23072367765895199 0.32301448762834117 0 0.22115676709391111 0.3420227330879177 0 0.22850835527070959 0.33523123379445557 0 0.23072367765895199 0.32301448762834117 0 0.2231955650799306 0.32724200194756498 0 0.22115676709391111 0.3420227330879177 0 0.22115676709391111 0.3420227330879177 0 0.22850835527070959 0.33523123379445557 0 0.22852748895707301 0.3459955588137118 0 0.23220718014058991 0.34280652424742208 0 0.23299968021618619 0.33400139933927181 0 0.2326111967174361 0.34819668097626588 0 0.23299968021618619 0.33400139933927181 0 0.23554799802528839 0.34073043797420732 0 0.2326111967174361 0.34819668097626588 0 0.23220718014058991 0.34280652424742208 0 0.22850835527070959 0.33523123379445557 0 0.22852748895707301 0.3459955588137118 0 0.23072367765895199 0.32301448762834117 0 0.23299968021618619 0.33400139933927181 0 0.23438019201156629 0.32810793723973958 0 0.23299968021618619 0.33400139933927181 0 0.23589196666075471 0.33148199127555139 0 0.23438019201156629 0.32810793723973958 0 0.23849056376145111 0.3320035277129269 0 0.24428309002532289 0.33375713509263161 0 0.24069478785101381 0.32579353879793971 0 0.23719433858867731 0.32851951605627422 0 0.23589196666075471 0.33148199127555139 0 0.23438019201156629 0.32810793723973958 0 0.23719433858867731 0.32851951605627422 0 0.23589196666075471 0.33148199127555139 0 0.23849056376145111 0.3320035277129269 0 0.23299968021618619 0.33400139933927181 0 0.23622025776130809 0.33437564915292511 0 0.2373504644595176 0.33741453307082903 0 0.23299968021618619 0.33400139933927181 0 0.23589196666075471 0.33148199127555139 0 0.23622025776130809 0.33437564915292511 0 0.23622025776130809 0.33437564915292511 0 0.23849056376145111 0.3320035277129269 0 0.2373504644595176 0.33741453307082903 0 0.23589196666075471 0.33148199127555139 0 0.23622025776130809 0.33437564915292511 0 0.23849056376145111 0.3320035277129269 0 0.23849056376145111 0.3320035277129269 0 0.2373504644595176 0.33741453307082903 0 0.24428309002532289 0.33375713509263161 0 0.23719433858867731 0.32851951605627422 0 0.23849056376145111 0.3320035277129269 0 0.24069478785101381 0.32579353879793971 0 0.23554799802528839 0.34073043797420732 0 0.2373504644595176 0.33741453307082903 0 0.23923065070801369 0.34330913851046241 0 0.23299968021618619 0.33400139933927181 0 0.23554799802528839 0.34073043797420732 0 0.2373504644595176 0.33741453307082903 0 0.2373504644595176 0.33741453307082903 0 0.2442109069357796 0.33974485927538678 0 0.24428309002532289 0.33375713509263161 0 0.2373504644595176 0.33741453307082903 0 0.23923065070801369 0.34330913851046241 0 0.2442109069357796 0.33974485927538678 0 0.2442109069357796 0.33974485927538678 0 0.24428309002532289 0.33375713509263161 0 0.25276909406611109 0.33853655995408199 0 0.2442109069357796 0.33974485927538678 0 0.2465577747650276 0.34464272094215392 0 0.25276909406611109 0.33853655995408199 0 0.23923065070801369 0.34330913851046241 0 0.2442109069357796 0.33974485927538678 0 0.2465577747650276 0.34464272094215392 0 0.24428309002532289 0.33375713509263161 0 0.25219736353756511 0.32691542280319091 0 0.25276909406611109 0.33853655995408199 0 0.24428309002532289 0.33375713509263161 0 0.24069478785101381 0.32579353879793971 0 0.25219736353756511 0.32691542280319091 0 0.24808748913268031 0.31562373023971702 0 0.24069478785101381 0.32579353879793971 0 0.25219736353756511 0.32691542280319091 0 0.23908292882361229 0.30258203705803582 0 0.23072367765895199 0.32301448762834117 0 0.23857683436127861 0.31792718636871159 0 0.23908292882361229 0.30258203705803582 0 0.23072367765895199 0.32301448762834117 0 0.24808748913268031 0.31562373023971702 0 0.23857683436127861 0.31792718636871159 0 0.24069478785101381 0.32579353879793971 0 0.23072367765895199 0.32301448762834117 0 0.23857683436127861 0.31792718636871159 0 0.23567513802859341 0.32328133624743888 0 0.23857683436127861 0.31792718636871159 0 0.23567513802859341 0.32328133624743888 0 0.24069478785101381 0.32579353879793971 0 0.23719433858867731 0.32851951605627422 0 0.23567513802859341 0.32328133624743888 0 0.24069478785101381 0.32579353879793971 0 0.23719433858867731 0.32851951605627422 0 0.23567513802859341 0.32328133624743888 0 0.23438019201156629 0.32810793723973958 0 0.237880124679344 0.36678126610568262 0 0.23457292647272809 0.37436895074600141 0 0.25118990869597579 0.37874665639394561 0 0.23360158420270791 0.36140986101350958 0 0.25118990869597579 0.37874665639394561 0 0.237880124679344 0.36678126610568262 0 0.23360158420270791 0.36140986101350958 0 0.25118990869597579 0.37874665639394561 0 0.23360158420270791 0.36140986101350958 0 0.25118990869597579 0.37874665639394561 0 0.26437826943248371 0.36531916179410401 0 0.237880124679344 0.36678126610568262 0 0.23457292647272809 0.37436895074600141 0 0.237880124679344 0.36678126610568262 0 0.23457292647272809 0.37436895074600141 0 0.23360158420270791 0.36140986101350958 0 0.2465577747650276 0.34464272094215392 0 0.2384823244012641 0.3513612240881604 0 0.25537891313490357 0.34894679750734542 0 0.2384823244012641 0.3513612240881604 0 0.23360158420270791 0.36140986101350958 0 0.26437826943248371 0.36531916179410401 0 0.2384823244012641 0.3513612240881604 0 0.25537891313490357 0.34894679750734542 0 0.23923065070801369 0.34330913851046241 0 0.2384823244012641 0.3513612240881604 0 0.2326111967174361 0.34819668097626588 0 0.23923065070801369 0.34330913851046241 0 0.2465577747650276 0.34464272094215392 0 0.2384823244012641 0.3513612240881604 0 0.2384823244012641 0.3513612240881604 0 0.2326111967174361 0.34819668097626588 0 0.2384823244012641 0.3513612240881604 0 0.2329080966882901 0.35215774957445062 0 0.2326111967174361 0.34819668097626588 0 0.23554799802528839 0.34073043797420732 0 0.23923065070801369 0.34330913851046241 0 0.2326111967174361 0.34819668097626588 0 0.2384823244012641 0.3513612240881604 0 0.2329080966882901 0.35215774957445062 0 0.23360158420270791 0.36140986101350958 0 0.2384823244012641 0.3513612240881604 0 0.2329080966882901 0.35215774957445062 0 0.2329080966882901 0.35215774957445062 0 0.23360158420270791 0.36140986101350958 0 0.22531586606529411 0.35324263621712387 0 0.23360158420270791 0.36140986101350958 0 0.2329080966882901 0.35215774957445062 0 0.22531586606529411 0.35324263621712387 0 0.23360158420270791 0.36140986101350958 0 0.22370358518378969 0.35775343857925368 0 0.22531586606529411 0.35324263621712387 0 0.23360158420270791 0.36140986101350958 0 0.2329080966882901 0.35215774957445062 0 0.22531586606529411 0.35324263621712387 0 0.2329080966882901 0.35215774957445062 0 0.22847976433211581 0.35011763413132158 0 0.22531586606529411 0.35324263621712387 0 0.23220718014058991 0.34280652424742208 0 0.2326111967174361 0.34819668097626588 0 0.2326111967174361 0.34819668097626588 0 0.22852748895707301 0.3459955588137118 0 0.23220718014058991 0.34280652424742208 0 0.2326111967174361 0.34819668097626588 0 0.22852748895707301 0.3459955588137118 0 0.2329080966882901 0.35215774957445062 0 0.2326111967174361 0.34819668097626588 0 0.22847976433211581 0.35011763413132158 0 0.2329080966882901 0.35215774957445062 0 0.2326111967174361 0.34819668097626588 0 0.2326111967174361 0.34819668097626588 0 0.22847976433211581 0.35011763413132158 0 0.22852748895707301 0.3459955588137118 0 0.22847976433211581 0.35011763413132158 0 0.22852748895707301 0.3459955588137118 0 0.22303617323248651 0.35099554507505598 0 0.23220718014058991 0.34280652424742208 0 0.22852748895707301 0.3459955588137118 0 0.22115676709391111 0.3420227330879177 0 0.22852748895707301 0.3459955588137118 0 0.21892181289016061 0.34694002384541461 0 0.22852748895707301 0.3459955588137118 0 0.22303617323248651 0.35099554507505598 0 0.21892181289016061 0.34694002384541461 0 0.22115676709391111 0.3420227330879177 0 0.22852748895707301 0.3459955588137118 0 0.22847976433211581 0.35011763413132158 0 0.22303617323248651 0.35099554507505598 0 0.22531586606529411 0.35324263621712387 0 0.22852748895707301 0.3459955588137118 0 0.22303617323248651 0.35099554507505598 0 0.22303617323248651 0.35099554507505598 0 0.21892181289016061 0.34694002384541461 0 0.21968450594629779 0.35404732559980462 0 0.22303617323248651 0.35099554507505598 0 0.21892181289016061 0.34694002384541461 0 0.22115676709391111 0.3420227330879177 0 0.21892181289016061 0.34694002384541461 0 0.22370358518378969 0.35775343857925368 0 0.22531586606529411 0.35324263621712387 0 0.21968450594629779 0.35404732559980462 0 0.22303617323248651 0.35099554507505598 0 0.22531586606529411 0.35324263621712387 0 0.21968450594629779 0.35404732559980462 0 0.22303617323248651 0.35099554507505598 0 0.22531586606529411 0.35324263621712387 0 0.22531586606529411 0.35324263621712387 0 0.21968450594629779 0.35404732559980462 0 0.22303617323248651 0.35099554507505598 0 0.21968450594629779 0.35404732559980462 0 0.22370358518378969 0.35775343857925368 0 0.21968450594629779 0.35404732559980462 0 0.2190120100733586 0.36060376489944151 0 0.2190120100733586 0.36060376489944151 0 0.2213117526922459 0.36531851871984361 0 0.2242333209384878 0.3620599753308032 0 0.22370358518378969 0.35775343857925368 0 0.2190120100733586 0.36060376489944151 0 0.2242333209384878 0.3620599753308032 0 0.2213117526922459 0.36531851871984361 0 0.22591339296006091 0.36652256294099361 0 0.2242333209384878 0.3620599753308032 0 0.22591339296006091 0.36652256294099361 0 0.23360158420270791 0.36140986101350958 0 0.22837210257845639 0.37175930682888059 0 0.22370358518378969 0.35775343857925368 0 0.2242333209384878 0.3620599753308032 0 0.23360158420270791 0.36140986101350958 0 0.22591339296006091 0.36652256294099361 0 0.2242333209384878 0.3620599753308032 0 0.23360158420270791 0.36140986101350958 0 0.23457292647272809 0.37436895074600141 0 0.23360158420270791 0.36140986101350958 0 0.22837210257845639 0.37175930682888059 0 0.23457292647272809 0.37436895074600141 0 0.22837210257845639 0.37175930682888059 0 0.22585405805035749 0.37623525690190462 0 0.23457292647272809 0.37436895074600141 0 0.23360158420270791 0.36140986101350958 0 0.22837210257845639 0.37175930682888059 0 0.2218196235328721 0.37023435545289568 0 0.22585405805035749 0.37623525690190462 0 0.2213117526922459 0.36531851871984361 0 0.22591339296006091 0.36652256294099361 0 0.2218196235328721 0.37023435545289568 0 0.22591339296006091 0.36652256294099361 0 0.22837210257845639 0.37175930682888059 0 0.2218196235328721 0.37023435545289568 0 0.2213117526922459 0.36531851871984361 0 0.2218196235328721 0.37023435545289568 0 0.21558041595644989 0.36717193497508349 0 0.2218196235328721 0.37023435545289568 0 0.21866656125640971 0.37518547870806751 0 0.22585405805035749 0.37623525690190462 0 0.2218196235328721 0.37023435545289568 0 0.21558041595644989 0.36717193497508349 0 0.21866656125640971 0.37518547870806751 0 0.21558041595644989 0.36717193497508349 0 0.20841399459180779 0.37005906481422618 0 0.21866656125640971 0.37518547870806751 0 0.2190120100733586 0.36060376489944151 0 0.2213117526922459 0.36531851871984361 0 0.21558041595644989 0.36717193497508349 0 0.21558041595644989 0.36717193497508349 0 0.2128722961648882 0.36025002036819359 0 0.20841399459180779 0.37005906481422618 0 0.2190120100733586 0.36060376489944151 0 0.21558041595644989 0.36717193497508349 0 0.2128722961648882 0.36025002036819359 0 0.2128722961648882 0.36025002036819359 0 0.20628490284613599 0.36624801388081268 0 0.20096333963858121 0.35672247395488149 0 0.2128722961648882 0.36025002036819359 0 0.20628490284613599 0.36624801388081268 0 0.20841399459180779 0.37005906481422618 0 0.20628490284613599 0.36624801388081268 0 0.20096333963858121 0.35672247395488149 0 0.2128722961648882 0.36025002036819359 0 0.20841399459180779 0.37005906481422618 0 0.2128722961648882 0.36025002036819359 0 0.20628490284613599 0.36624801388081268 0 0.20628490284613599 0.36624801388081268 0 0.20841399459180779 0.37005906481422618 0 0.20184956898591869 0.37547944144833922 0 0.20628490284613599 0.36624801388081268 0 0.20841399459180779 0.37005906481422618 0 0.21892181289016061 0.34694002384541461 0 0.21541413125952549 0.35465753789273019 0 0.2065514902329609 0.34657223030076001 0 0.21892181289016061 0.34694002384541461 0 0.21541413125952549 0.35465753789273019 0 0.21968450594629779 0.35404732559980462 0 0.21541413125952549 0.35465753789273019 0 0.21892181289016061 0.34694002384541461 0 0.21968450594629779 0.35404732559980462 0 0.21541413125952549 0.35465753789273019 0 0.21968450594629779 0.35404732559980462 0 0.2190120100733586 0.36060376489944151 0 0.2128722961648882 0.36025002036819359 0 0.21968450594629779 0.35404732559980462 0 0.2128722961648882 0.36025002036819359 0 0.21541413125952549 0.35465753789273019 0 0.21968450594629779 0.35404732559980462 0 0.2128722961648882 0.36025002036819359 0 0.2128722961648882 0.36025002036819359 0 0.21541413125952549 0.35465753789273019 0 0.21541413125952549 0.35465753789273019 0 0.20096333963858121 0.35672247395488149 0 0.2128722961648882 0.36025002036819359 0 0.21541413125952549 0.35465753789273019 0 0.20096333963858121 0.35672247395488149 0 0.21541413125952549 0.35465753789273019 0 0.2065514902329609 0.34657223030076001 0 0.20096333963858121 0.35672247395488149 0 0.19224120776601131 0.34110995331931632 0 0.20096333963858121 0.35672247395488149 0 0.18546400528544579 0.3589372408191932 0 0.19224120776601131 0.34110995331931632 0 0.2065514902329609 0.34657223030076001 0 0.20096333963858121 0.35672247395488149 0 0.19224120776601131 0.34110995331931632 0 0.20096333963858121 0.35672247395488149 0 0.20096333963858121 0.35672247395488149 0 0.18546400528544579 0.3589372408191932 0 0.20628490284613599 0.36624801388081268 0 0.19228717343725599 0.37899331177382778 0 0.20628490284613599 0.36624801388081268 0 0.19228717343725599 0.37899331177382778 0 0.20184956898591869 0.37547944144833922 0 0.20628490284613599 0.36624801388081268 0 0.19306729237789069 0.3665282458408412 0 0.19228717343725599 0.37899331177382778 0 0.20628490284613599 0.36624801388081268 0 0.20096333963858121 0.35672247395488149 0 0.19306729237789069 0.3665282458408412 0 0.20096333963858121 0.35672247395488149 0 0.19306729237789069 0.3665282458408412 0 0.18546400528544579 0.3589372408191932 0 0.19306729237789069 0.3665282458408412 0 0.18033704068203521 0.37174018877549081 0 0.19228717343725599 0.37899331177382778 0 0.18033704068203521 0.37174018877549081 0 0.1699646709323101 0.36115200768350442 0 0.16800483183096471 0.37802389816723919 0 0.19306729237789069 0.3665282458408412 0 0.18033704068203521 0.37174018877549081 0 0.18546400528544579 0.3589372408191932 0 0.1699646709323101 0.36115200768350442 0 0.18546400528544579 0.3589372408191932 0 0.18033704068203521 0.37174018877549081 0 0.1699646709323101 0.36115200768350442 0 0.18546400528544579 0.3589372408191932 0 0.1699646709323101 0.36115200768350442 0 0.16800483183096471 0.37802389816723919 0 0.1699646709323101 0.36115200768350442 0 0.1567668837839398 0.36303789652185708 0 0.16800483183096471 0.37802389816723919 0 0.1699646709323101 0.36115200768350442 0 0.1567668837839398 0.36303789652185708 0 0.16458959539153961 0.35732027904175628 0 0.1699646709323101 0.36115200768350442 0 0.1567668837839398 0.36303789652185708 0 0.1567668837839398 0.36303789652185708 0 0.15559501663287911 0.37369825934902468 0 0.16800483183096471 0.37802389816723919 0 0.1567668837839398 0.36303789652185708 0 0.16800483183096471 0.37802389816723919 0 0.1596245678969003 0.34780363618391757 0 0.15614148140597969 0.33998058930149477 0 0.15456391976108999 0.34885385400351138 0 0.1596245678969003 0.34780363618391757 0 0.16581467922742771 0.35166159932845381 0 0.16467571254984409 0.34342081108504202 0 0.1596245678969003 0.34780363618391757 0 0.16001343299228801 0.35324491415657361 0 0.16581467922742771 0.35166159932845381 0 0.1596245678969003 0.34780363618391757 0 0.16001343299228801 0.35324491415657361 0 0.15456391976108999 0.34885385400351138 0 0.1567668837839398 0.36303789652185708 0 0.16001343299228801 0.35324491415657361 0 0.16458959539153961 0.35732027904175628 0 0.1567668837839398 0.36303789652185708 0 0.16001343299228801 0.35324491415657361 0 0.15456391976108999 0.34885385400351138 0 0.16001343299228801 0.35324491415657361 0 0.16581467922742771 0.35166159932845381 0 0.16458959539153961 0.35732027904175628 0 0.16581467922742771 0.35166159932845381 0 0.16458959539153961 0.35732027904175628 0 0.17038831002173269 0.35750497751839361 0 0.1699646709323101 0.36115200768350442 0 0.16458959539153961 0.35732027904175628 0 0.17038831002173269 0.35750497751839361 0 0.1699646709323101 0.36115200768350442 0 0.17038831002173269 0.35750497751839361 0 0.16581467922742771 0.35166159932845381 0 0.17038831002173269 0.35750497751839361 0 0.17070709761643871 0.35181243969092918 0 0.16581467922742771 0.35166159932845381 0 0.17063951493970189 0.34686222529448768 0 0.16467571254984409 0.34342081108504202 0 0.16581467922742771 0.35166159932845381 0 0.17070709761643871 0.35181243969092918 0 0.17063951493970189 0.34686222529448768 0 0.17598588627689241 0.35122095662238201 0 0.18181789371959639 0.34621076850869842 0 0.17651015532500369 0.34310092554850968 0 0.17063951493970189 0.34686222529448768 0 0.17598588627689241 0.35122095662238201 0 0.17651015532500369 0.34310092554850968 0 0.19224120776601131 0.34110995331931632 0 0.18546400528544579 0.3589372408191932 0 0.18181789371959639 0.34621076850869842 0 0.17070709761643871 0.35181243969092918 0 0.17063951493970189 0.34686222529448768 0 0.17598588627689241 0.35122095662238201 0 0.1699646709323101 0.36115200768350442 0 0.17038831002173269 0.35750497751839361 0 0.18546400528544579 0.3589372408191932 0 0.17038831002173269 0.35750497751839361 0 0.17598588627689241 0.35122095662238201 0 0.18546400528544579 0.3589372408191932 0 0.17038831002173269 0.35750497751839361 0 0.17070709761643871 0.35181243969092918 0 0.17598588627689241 0.35122095662238201 0 0.17598588627689241 0.35122095662238201 0 0.18546400528544579 0.3589372408191932 0 0.18181789371959639 0.34621076850869842 0 0.19224120776601131 0.34110995331931632 0 0.18201824041583489 0.33974712359776199 0 0.1821981474181886 0.33412207025752422 0 0.19224120776601131 0.34110995331931632 0 0.18181789371959639 0.34621076850869842 0 0.18201824041583489 0.33974712359776199 0 0.18181789371959639 0.34621076850869842 0 0.18201824041583489 0.33974712359776199 0 0.17651015532500369 0.34310092554850968 0 0.18201824041583489 0.33974712359776199 0 0.1821981474181886 0.33412207025752422 0 0.17687629506357799 0.33583271586494817 0 0.19224120776601131 0.34110995331931632 0 0.1821981474181886 0.33412207025752422 0 0.18351907589344141 0.32549743268375098 0 0.1821981474181886 0.33412207025752422 0 0.1763359179520772 0.32842312582184319 0 0.18351907589344141 0.32549743268375098 0 0.1821981474181886 0.33412207025752422 0 0.17687629506357799 0.33583271586494817 0 0.1763359179520772 0.32842312582184319 0 0.1763359179520772 0.32842312582184319 0 0.16867159354445621 0.32642324469953998 0 0.17154356767783341 0.33297918055764603 0 0.17687629506357799 0.33583271586494817 0 0.1763359179520772 0.32842312582184319 0 0.17154356767783341 0.33297918055764603 0 0.17687629506357799 0.33583271586494817 0 0.17651015532500369 0.34310092554850968 0 0.1707841960723514 0.33926600350929509 0 0.17687629506357799 0.33583271586494817 0 0.1707841960723514 0.33926600350929509 0 0.17154356767783341 0.33297918055764603 0 0.17063951493970189 0.34686222529448768 0 0.17651015532500369 0.34310092554850968 0 0.1707841960723514 0.33926600350929509 0 0.18201824041583489 0.33974712359776199 0 0.17687629506357799 0.33583271586494817 0 0.17651015532500369 0.34310092554850968 0 0.19016753307818859 0.32531950802990739 0 0.18622225067974779 0.31470809525615079 0 0.17511810654585039 0.31720785356835768 0 0.19016753307818859 0.32531950802990739 0 0.18351907589344141 0.32549743268375098 0 0.17511810654585039 0.31720785356835768 0 0.19016753307818859 0.32531950802990739 0 0.17511810654585039 0.31720785356835768 0 0.1763359179520772 0.32842312582184319 0 0.17511810654585039 0.31720785356835768 0 0.16867159354445621 0.32642324469953998 0 0.1763359179520772 0.32842312582184319 0 0.18351907589344141 0.32549743268375098 0 0.17511810654585039 0.31720785356835768 0 0.17511810654585039 0.31720785356835768 0 0.1640633387012338 0.315782588619403 0 0.16867159354445621 0.32642324469953998 0 0.1640633387012338 0.315782588619403 0 0.16867159354445621 0.32642324469953998 0 0.15873784981465069 0.32649672138176999 0 0.1640633387012338 0.315782588619403 0 0.15873784981465069 0.32649672138176999 0 0.15056160185224221 0.31280009542650339 0 0.16467571254984409 0.34342081108504202 0 0.1707841960723514 0.33926600350929509 0 0.16504983575670401 0.3349508128926032 0 0.17063951493970189 0.34686222529448768 0 0.16467571254984409 0.34342081108504202 0 0.1707841960723514 0.33926600350929509 0 0.1707841960723514 0.33926600350929509 0 0.17154356767783341 0.33297918055764603 0 0.16504983575670401 0.3349508128926032 0 0.16867159354445621 0.32642324469953998 0 0.17154356767783341 0.33297918055764603 0 0.16504983575670401 0.3349508128926032 0 0.16867159354445621 0.32642324469953998 0 0.15873784981465069 0.32649672138176999 0 0.16504983575670401 0.3349508128926032 0 0.15873784981465069 0.32649672138176999 0 0.16504983575670401 0.3349508128926032 0 0.15614148140597969 0.33998058930149477 0 0.1596245678969003 0.34780363618391757 0 0.16467571254984409 0.34342081108504202 0 0.15614148140597969 0.33998058930149477 0 0.16467571254984409 0.34342081108504202 0 0.16504983575670401 0.3349508128926032 0 0.15614148140597969 0.33998058930149477 0 0.149703536823901 0.34106899023611342 0 0.15614148140597969 0.33998058930149477 0 0.15456391976108999 0.34885385400351138 0 0.149703536823901 0.34106899023611342 0 0.15614148140597969 0.33998058930149477 0 0.1499000586686802 0.33176962466262289 0 0.15873784981465069 0.32649672138176999 0 0.15614148140597969 0.33998058930149477 0 0.1499000586686802 0.33176962466262289 0 0.1499000586686802 0.33176962466262289 0 0.14192641153621571 0.33050903507335821 0 0.14418034527378121 0.33686602381223152 0 0.14418034527378121 0.33686602381223152 0 0.13423810367657729 0.33299537146795 0 0.14550249373025739 0.3480166339949044 0 0.149703536823901 0.34106899023611342 0 0.1499000586686802 0.33176962466262289 0 0.14418034527378121 0.33686602381223152 0 0.149703536823901 0.34106899023611342 0 0.14418034527378121 0.33686602381223152 0 0.14550249373025739 0.3480166339949044 0 0.14192641153621571 0.33050903507335821 0 0.15056160185224221 0.31280009542650339 0 0.13389566195550659 0.32961516283215492 0 0.15056160185224221 0.31280009542650339 0 0.13389566195550659 0.32961516283215492 0 0.1499000586686802 0.33176962466262289 0 0.14192641153621571 0.33050903507335821 0 0.15056160185224221 0.31280009542650339 0 0.15873784981465069 0.32649672138176999 0 0.1499000586686802 0.33176962466262289 0 0.15056160185224221 0.31280009542650339 0 0.1181745564114227 0.3279307548879723 0 0.12877679390037611 0.31000209145944507 0 0.13389566195550659 0.32961516283215492 0 0.12877679390037611 0.31000209145944507 0 0.15056160185224221 0.31280009542650339 0 0.13389566195550659 0.32961516283215492 0 0.117229722058771 0.34643023023780622 0 0.13423810367657729 0.33299537146795 0 0.12909490417984781 0.34730226367485229 0 0.117229722058771 0.34643023023780622 0 0.13423810367657729 0.33299537146795 0 0.13389566195550659 0.32961516283215492 0 0.117229722058771 0.34643023023780622 0 0.13389566195550659 0.32961516283215492 0 0.13423810367657729 0.33299537146795 0 0.13641616222916411 0.34806655783248019 0 0.14550249373025739 0.3480166339949044 0 0.13423810367657729 0.33299537146795 0 0.12909490417984781 0.34730226367485229 0 0.13641616222916411 0.34806655783248019 0 0.13423810367657729 0.33299537146795 0 0.14550249373025739 0.3480166339949044 0 0.14192641153621571 0.33050903507335821 0 0.14418034527378121 0.33686602381223152 0 0.13423810367657729 0.33299537146795 0 0.14192641153621571 0.33050903507335821 0 0.13423810367657729 0.33299537146795 0 0.13389566195550659 0.32961516283215492 0 0.1210829497201717 0.36014613085985381 0 0.14160211727830629 0.35704696407624698 0 0.1210829497201717 0.36014613085985381 0 0.13046838729231139 0.3528896797631047 0 0.14160211727830629 0.35704696407624698 0 0.1241458030540669 0.3518864823720903 0 0.12909490417984781 0.34730226367485229 0 0.13046838729231139 0.3528896797631047 0 0.12909490417984781 0.34730226367485229 0 0.13641616222916411 0.34806655783248019 0 0.13046838729231139 0.3528896797631047 0 0.13641616222916411 0.34806655783248019 0 0.13046838729231139 0.3528896797631047 0 0.14160211727830629 0.35704696407624698 0 0.1210829497201717 0.36014613085985381 0 0.1241458030540669 0.3518864823720903 0 0.13046838729231139 0.3528896797631047 0 0.1210829497201717 0.36014613085985381 0 0.12551479594939799 0.36750364240483918 0 0.14160211727830629 0.35704696407624698 0 0.12551479594939799 0.36750364240483918 0 0.14114083986666881 0.36527076946334752 0 0.12551479594939799 0.36750364240483918 0 0.14114083986666881 0.36527076946334752 0 0.14160211727830629 0.35704696407624698 0 0.12551479594939799 0.36750364240483918 0 0.1339353388624212 0.37178676495940088 0 0.14114083986666881 0.36527076946334752 0 0.12784274552907141 0.37445089338973708 0 0.12551479594939799 0.36750364240483918 0 0.1339353388624212 0.37178676495940088 0 0.12784274552907141 0.37445089338973708 0 0.1339353388624212 0.37178676495940088 0 0.13393948177229409 0.37855972345554367 0 0.1339353388624212 0.37178676495940088 0 0.14114083986666881 0.36527076946334752 0 0.14148366969842249 0.37431976025069519 0 0.1339353388624212 0.37178676495940088 0 0.14148366969842249 0.37431976025069519 0 0.13393948177229409 0.37855972345554367 0 0.1567668837839398 0.36303789652185708 0 0.14114083986666881 0.36527076946334752 0 0.14160211727830629 0.35704696407624698 0 0.1567668837839398 0.36303789652185708 0 0.14114083986666881 0.36527076946334752 0 0.1487932584290369 0.37022934879909503 0 0.1567668837839398 0.36303789652185708 0 0.14114083986666881 0.36527076946334752 0 0.14114083986666881 0.36527076946334752 0 0.14148366969842249 0.37431976025069519 0 0.1487932584290369 0.37022934879909503 0 0.14148366969842249 0.37431976025069519 0 0.1487932584290369 0.37022934879909503 0 0.14845004422706559 0.37647105357028049 0 0.1567668837839398 0.36303789652185708 0 0.1487932584290369 0.37022934879909503 0 0.15559501663287911 0.37369825934902468 0 0.1487932584290369 0.37022934879909503 0 0.15559501663287911 0.37369825934902468 0 0.14845004422706559 0.37647105357028049 0 0.1567668837839398 0.36303789652185708 0 0.14550249373025739 0.3480166339949044 0 0.1567668837839398 0.36303789652185708 0 0.15456391976108999 0.34885385400351138 0 0.14550249373025739 0.3480166339949044 0 0.149703536823901 0.34106899023611342 0 0.15456391976108999 0.34885385400351138 0 0.14550249373025739 0.3480166339949044 0 0.13641616222916411 0.34806655783248019 0 0.14550249373025739 0.3480166339949044 0 0.14160211727830629 0.35704696407624698 0 0.1567668837839398 0.36303789652185708 0 0.14550249373025739 0.3480166339949044 0 0.14160211727830629 0.35704696407624698 0 0.14663277326372701 0.39614154427881498 0 0.14385970217766131 0.38469990959277128 0 0.13685552682275301 0.39550847292701541 0 0.14663277326372701 0.39614154427881498 0 0.14322836617504639 0.40232761128890582 0 0.13685552682275301 0.39550847292701541 0 0.14663277326372701 0.39614154427881498 0 0.14322836617504639 0.40232761128890582 0 0.14959500679943841 0.40550477481228869 0 0.14663277326372701 0.39614154427881498 0 0.14959500679943841 0.40550477481228869 0 0.15519765398380941 0.39997841816642032 0 0.14959500679943841 0.40550477481228869 0 0.15519765398380941 0.39997841816642032 0 0.15673335615863471 0.40968153338218649 0 0.14663277326372701 0.39614154427881498 0 0.15519765398380941 0.39997841816642032 0 0.15585171999193589 0.38993574203358938 0 0.14663277326372701 0.39614154427881498 0 0.15585171999193589 0.38993574203358938 0 0.14385970217766131 0.38469990959277128 0 0.15585171999193589 0.38993574203358938 0 0.15596006489338929 0.38072909968665258 0 0.14385970217766131 0.38469990959277128 0 0.15596006489338929 0.38072909968665258 0 0.14845004422706559 0.37647105357028049 0 0.14385970217766131 0.38469990959277128 0 0.15559501663287911 0.37369825934902468 0 0.15596006489338929 0.38072909968665258 0 0.14845004422706559 0.37647105357028049 0 0.14148366969842249 0.37431976025069519 0 0.14845004422706559 0.37647105357028049 0 0.14385970217766131 0.38469990959277128 0 0.14385970217766131 0.38469990959277128 0 0.1319491752554515 0.38710484470673701 0 0.13685552682275301 0.39550847292701541 0 0.14385970217766131 0.38469990959277128 0 0.13393948177229409 0.37855972345554367 0 0.1319491752554515 0.38710484470673701 0 0.14148366969842249 0.37431976025069519 0 0.14385970217766131 0.38469990959277128 0 0.13393948177229409 0.37855972345554367 0 0.12784274552907141 0.37445089338973708 0 0.13393948177229409 0.37855972345554367 0 0.12576558562142021 0.38108448267032891 0 0.13393948177229409 0.37855972345554367 0 0.12576558562142021 0.38108448267032891 0 0.1319491752554515 0.38710484470673701 0 0.12483432845731431 0.3920386013744388 0 0.12576558562142021 0.38108448267032891 0 0.1319491752554515 0.38710484470673701 0 0.12483432845731431 0.3920386013744388 0 0.1319491752554515 0.38710484470673701 0 0.13685552682275301 0.39550847292701541 0 0.12483432845731431 0.3920386013744388 0 0.13685552682275301 0.39550847292701541 0 0.13021439542875479 0.40078433468945102 0 0.13685552682275301 0.39550847292701541 0 0.13021439542875479 0.40078433468945102 0 0.137012166532296 0.40625040057670919 0 0.14322836617504639 0.40232761128890582 0 0.13685552682275301 0.39550847292701541 0 0.137012166532296 0.40625040057670919 0 0.12231423594728109 0.40435843208107952 0 0.12483432845731431 0.3920386013744388 0 0.13021439542875479 0.40078433468945102 0 0.12231423594728109 0.40435843208107952 0 0.13021439542875479 0.40078433468945102 0 0.12851505446848019 0.41250129933738711 0 0.13021439542875479 0.40078433468945102 0 0.12851505446848019 0.41250129933738711 0 0.137012166532296 0.40625040057670919 0 0.12334343746547451 0.42282390921553709 0 0.12851505446848019 0.41250129933738711 0 0.13308327788055091 0.4225114190202513 0 0.12851505446848019 0.41250129933738711 0 0.1384024494973933 0.41680378574257471 0 0.13308327788055091 0.4225114190202513 0 0.1384024494973933 0.41680378574257471 0 0.13308327788055091 0.4225114190202513 0 0.14125420699109151 0.42362069779884398 0 0.12851505446848019 0.41250129933738711 0 0.1384024494973933 0.41680378574257471 0 0.137012166532296 0.40625040057670919 0 0.1384024494973933 0.41680378574257471 0 0.137012166532296 0.40625040057670919 0 0.1436212773908459 0.41141398623664638 0 0.13543753526146821 0.43397545952730809 0 0.1475833771263011 0.43869291545493688 0 0.12712502726540631 0.43823690565346551 0 0.12850296771530451 0.42923587583194978 0 0.13543753526146821 0.43397545952730809 0 0.12712502726540631 0.43823690565346551 0 0.1209544195606387 0.43040174782631491 0 0.12850296771530451 0.42923587583194978 0 0.12712502726540631 0.43823690565346551 0 0.12334343746547451 0.42282390921553709 0 0.12850296771530451 0.42923587583194978 0 0.13308327788055091 0.4225114190202513 0 0.12850296771530451 0.42923587583194978 0 0.13308327788055091 0.4225114190202513 0 0.138538768938861 0.42973614116888009 0 0.13308327788055091 0.4225114190202513 0 0.138538768938861 0.42973614116888009 0 0.14125420699109151 0.42362069779884398 0 0.138538768938861 0.42973614116888009 0 0.13543753526146821 0.43397545952730809 0 0.1475833771263011 0.43869291545493688 0 0.12850296771530451 0.42923587583194978 0 0.138538768938861 0.42973614116888009 0 0.13543753526146821 0.43397545952730809 0 0.138538768938861 0.42973614116888009 0 0.1478458505812702 0.42670730266814638 0 0.1475833771263011 0.43869291545493688 0 0.14125420699109151 0.42362069779884398 0 0.1478458505812702 0.42670730266814638 0 0.14921363846458349 0.41741743458019809 0 0.138538768938861 0.42973614116888009 0 0.14125420699109151 0.42362069779884398 0 0.1478458505812702 0.42670730266814638 0 0.1478458505812702 0.42670730266814638 0 0.14921363846458349 0.41741743458019809 0 0.16269647917881369 0.42372251931153743 0 0.1478458505812702 0.42670730266814638 0 0.16269647917881369 0.42372251931153743 0 0.1475833771263011 0.43869291545493688 0 0.14959500679943841 0.40550477481228869 0 0.1436212773908459 0.41141398623664638 0 0.14921363846458349 0.41741743458019809 0 0.14322836617504639 0.40232761128890582 0 0.137012166532296 0.40625040057670919 0 0.1436212773908459 0.41141398623664638 0 0.14322836617504639 0.40232761128890582 0 0.14959500679943841 0.40550477481228869 0 0.1436212773908459 0.41141398623664638 0 0.1384024494973933 0.41680378574257471 0 0.14125420699109151 0.42362069779884398 0 0.14921363846458349 0.41741743458019809 0 0.1384024494973933 0.41680378574257471 0 0.1436212773908459 0.41141398623664638 0 0.14921363846458349 0.41741743458019809 0 0.14921363846458349 0.41741743458019809 0 0.15673335615863471 0.40968153338218649 0 0.16269647917881369 0.42372251931153743 0 0.14959500679943841 0.40550477481228869 0 0.14921363846458349 0.41741743458019809 0 0.15673335615863471 0.40968153338218649 0 0.15673335615863471 0.40968153338218649 0 0.16269647917881369 0.42372251931153743 0 0.16535065550488939 0.40087320873938831 0 0.16269647917881369 0.42372251931153743 0 0.16535065550488939 0.40087320873938831 0 0.16934648468828889 0.40895373843002741 0 0.16269647917881369 0.42372251931153743 0 0.16535065550488939 0.40087320873938831 0 0.16934648468828889 0.40895373843002741 0 0.16269647917881369 0.42372251931153743 0 0.17643851866188581 0.41580523298895661 0 0.16269647917881369 0.42372251931153743 0 0.1732545027601694 0.43789489259122788 0 0.16004230285273799 0.44657182988368632 0 0.16269647917881369 0.42372251931153743 0 0.16004230285273799 0.44657182988368632 0 0.16269647917881369 0.42372251931153743 0 0.16004230285273799 0.44657182988368632 0 0.1475833771263011 0.43869291545493688 0 0.16269647917881369 0.42372251931153743 0 0.17455137553560149 0.42622820949976631 0 0.17643851866188581 0.41580523298895661 0 0.16269647917881369 0.42372251931153743 0 0.17455137553560149 0.42622820949976631 0 0.1732545027601694 0.43789489259122788 0 0.17455137553560149 0.42622820949976631 0 0.18544788972008719 0.4292397985891373 0 0.1732545027601694 0.43789489259122788 0 0.17455137553560149 0.42622820949976631 0 0.18544788972008719 0.4292397985891373 0 0.17643851866188581 0.41580523298895661 0 0.18544788972008719 0.4292397985891373 0 0.1888245482483677 0.43977847129862963 0 0.1732545027601694 0.43789489259122788 0 0.17643851866188581 0.41580523298895661 0 0.18172889730252689 0.4089885268248491 0 0.17382910078154551 0.40485149331171888 0 0.16934648468828889 0.40895373843002741 0 0.17643851866188581 0.41580523298895661 0 0.17382910078154551 0.40485149331171888 0 0.18544788972008719 0.4292397985891373 0 0.17643851866188581 0.41580523298895661 0 0.19018018631803449 0.4160287695218422 0 0.17643851866188581 0.41580523298895661 0 0.18172889730252689 0.4089885268248491 0 0.19018018631803449 0.4160287695218422 0 0.18172889730252689 0.4089885268248491 0 0.1890667700418521 0.40611036371793119 0 0.19018018631803449 0.4160287695218422 0 0.1782894440283741 0.39173860966684071 0 0.1890667700418521 0.40611036371793119 0 0.18172889730252689 0.4089885268248491 0 0.179129910709317 0.40214677458379677 0 0.1890667700418521 0.40611036371793119 0 0.1782894440283741 0.39173860966684071 0 0.179129910709317 0.40214677458379677 0 0.1890667700418521 0.40611036371793119 0 0.1782894440283741 0.39173860966684071 0 0.1890667700418521 0.40611036371793119 0 0.19107010118365339 0.39268600606932252 0 0.1782894440283741 0.39173860966684071 0 0.1693499374744255 0.39987826365774598 0 0.1782894440283741 0.39173860966684071 0 0.179129910709317 0.40214677458379677 0 0.1693499374744255 0.39987826365774598 0 0.179129910709317 0.40214677458379677 0 0.17382910078154551 0.40485149331171888 0 0.1693499374744255 0.39987826365774598 0 0.18172889730252689 0.4089885268248491 0 0.179129910709317 0.40214677458379677 0 0.17382910078154551 0.40485149331171888 0 0.16934648468828889 0.40895373843002741 0 0.16946904461228729 0.4036391760347201 0 0.16535065550488939 0.40087320873938831 0 0.16535065550488939 0.40087320873938831 0 0.1693499374744255 0.39987826365774598 0 0.16800483183096471 0.37802389816723919 0 0.17382910078154551 0.40485149331171888 0 0.16946904461228729 0.4036391760347201 0 0.1693499374744255 0.39987826365774598 0 0.16934648468828889 0.40895373843002741 0 0.17382910078154551 0.40485149331171888 0 0.16946904461228729 0.4036391760347201 0 0.16946904461228729 0.4036391760347201 0 0.16535065550488939 0.40087320873938831 0 0.1693499374744255 0.39987826365774598 0 0.15519765398380941 0.39997841816642032 0 0.15585171999193589 0.38993574203358938 0 0.16535065550488939 0.40087320873938831 0 0.15519765398380941 0.39997841816642032 0 0.15673335615863471 0.40968153338218649 0 0.16535065550488939 0.40087320873938831 0 0.15585171999193589 0.38993574203358938 0 0.16535065550488939 0.40087320873938831 0 0.16800483183096471 0.37802389816723919 0 0.16535065550488939 0.40087320873938831 0 0.16800483183096471 0.37802389816723919 0 0.15559501663287911 0.37369825934902468 0 0.15596006489338929 0.38072909968665258 0 0.16800483183096471 0.37802389816723919 0 0.15585171999193589 0.38993574203358938 0 0.15596006489338929 0.38072909968665258 0 0.16800483183096471 0.37802389816723919 0 0.18033704068203521 0.37174018877549081 0 0.1782894440283741 0.39173860966684071 0 0.19228717343725599 0.37899331177382778 0 0.18033704068203521 0.37174018877549081 0 0.1782894440283741 0.39173860966684071 0 0.16800483183096471 0.37802389816723919 0 0.1782894440283741 0.39173860966684071 0 0.1693499374744255 0.39987826365774598 0 0.16800483183096471 0.37802389816723919 0 0.1782894440283741 0.39173860966684071 0 0.16800483183096471 0.37802389816723919 0 0.1782894440283741 0.39173860966684071 0 0.19228717343725599 0.37899331177382778 0 0.1782894440283741 0.39173860966684071 0 0.19228717343725599 0.37899331177382778 0 0.19107010118365339 0.39268600606932252 0 0.19228717343725599 0.37899331177382778 0 0.20137370433419791 0.38554893666741319 0 0.19107010118365339 0.39268600606932252 0 0.19228717343725599 0.37899331177382778 0 0.20137370433419791 0.38554893666741319 0 0.20184956898591869 0.37547944144833922 0 0.1890667700418521 0.40611036371793119 0 0.19433341407658711 0.4010388085205997 0 0.19107010118365339 0.39268600606932252 0 0.1890667700418521 0.40611036371793119 0 0.19433341407658711 0.4010388085205997 0 0.1958158334226385 0.40782989948832449 0 0.20137370433419791 0.38554893666741319 0 0.19433341407658711 0.4010388085205997 0 0.20137370433419791 0.38554893666741319 0 0.19433341407658711 0.4010388085205997 0 0.20290073250943219 0.39607459909254272 0 0.20137370433419791 0.38554893666741319 0 0.19433341407658711 0.4010388085205997 0 0.19107010118365339 0.39268600606932252 0 0.19433341407658711 0.4010388085205997 0 0.20290073250943219 0.39607459909254272 0 0.20213195198526779 0.40360353850356828 0 0.19433341407658711 0.4010388085205997 0 0.20213195198526779 0.40360353850356828 0 0.1958158334226385 0.40782989948832449 0 0.2163667656098974 0.40130979316057092 0 0.22476035176883841 0.39688188093981752 0 0.2149477770649495 0.41939481113363369 0 0.20213195198526779 0.40360353850356828 0 0.20949453170194141 0.40590993912757117 0 0.2078881067627906 0.39867692631845969 0 0.20290073250943219 0.39607459909254272 0 0.20213195198526779 0.40360353850356828 0 0.2078881067627906 0.39867692631845969 0 0.2078881067627906 0.39867692631845969 0 0.2121332302927609 0.39693589556428782 0 0.21167270850820849 0.40066106743854579 0 0.20949453170194141 0.40590993912757117 0 0.2078881067627906 0.39867692631845969 0 0.21167270850820849 0.40066106743854579 0 0.20137370433419791 0.38554893666741319 0 0.20290073250943219 0.39607459909254272 0 0.20877648538831781 0.39150478545267231 0 0.2078881067627906 0.39867692631845969 0 0.20877648538831781 0.39150478545267231 0 0.2121332302927609 0.39693589556428782 0 0.20290073250943219 0.39607459909254272 0 0.2078881067627906 0.39867692631845969 0 0.20877648538831781 0.39150478545267231 0 0.21545696040368811 0.39264458321163181 0 0.21587278001067439 0.38341020911812518 0 0.2233315654295415 0.39676135342202401 0 0.21545696040368811 0.39264458321163181 0 0.2121332302927609 0.39693589556428782 0 0.2163667656098974 0.40130979316057092 0 0.21545696040368811 0.39264458321163181 0 0.2163667656098974 0.40130979316057092 0 0.2233315654295415 0.39676135342202401 0 0.20877648538831781 0.39150478545267231 0 0.21545696040368811 0.39264458321163181 0 0.2121332302927609 0.39693589556428782 0 0.2121332302927609 0.39693589556428782 0 0.21167270850820849 0.40066106743854579 0 0.2163667656098974 0.40130979316057092 0 0.20949453170194141 0.40590993912757117 0 0.21167270850820849 0.40066106743854579 0 0.2163667656098974 0.40130979316057092 0 0.20841399459180779 0.37005906481422618 0 0.20137370433419791 0.38554893666741319 0 0.20184956898591869 0.37547944144833922 0 0.20841399459180779 0.37005906481422618 0 0.20137370433419791 0.38554893666741319 0 0.20841399459180779 0.37005906481422618 0 0.20137370433419791 0.38554893666741319 0 0.21587278001067439 0.38341020911812518 0 0.20137370433419791 0.38554893666741319 0 0.20877648538831781 0.39150478545267231 0 0.21587278001067439 0.38341020911812518 0 0.20877648538831781 0.39150478545267231 0 0.21545696040368811 0.39264458321163181 0 0.21587278001067439 0.38341020911812518 0 0.20841399459180779 0.37005906481422618 0 0.21587278001067439 0.38341020911812518 0 0.21866656125640971 0.37518547870806751 0 0.20841399459180779 0.37005906481422618 0 0.21587278001067439 0.38341020911812518 0 0.23457292647272809 0.37436895074600141 0 0.22476035176883841 0.39688188093981752 0 0.21866656125640971 0.37518547870806751 0 0.22585405805035749 0.37623525690190462 0 0.224458495396297 0.38400205098617002 0 0.23457292647272809 0.37436895074600141 0 0.22476035176883841 0.39688188093981752 0 0.23595456745107871 0.3928020097913304 0 0.23457292647272809 0.37436895074600141 0 0.22452700661512559 0.38949759336648299 0 0.22476035176883841 0.39688188093981752 0 0.21587278001067439 0.38341020911812518 0 0.21866656125640971 0.37518547870806751 0 0.224458495396297 0.38400205098617002 0 0.23457292647272809 0.37436895074600141 0 0.22585405805035749 0.37623525690190462 0 0.224458495396297 0.38400205098617002 0 0.23457292647272809 0.37436895074600141 0 0.224458495396297 0.38400205098617002 0 0.22452700661512559 0.38949759336648299 0 0.21587278001067439 0.38341020911812518 0 0.2233315654295415 0.39676135342202401 0 0.21587278001067439 0.38341020911812518 0 0.22452700661512559 0.38949759336648299 0 0.2233315654295415 0.39676135342202401 0 0.21587278001067439 0.38341020911812518 0 0.224458495396297 0.38400205098617002 0 0.22452700661512559 0.38949759336648299 0 0.2163667656098974 0.40130979316057092 0 0.22476035176883841 0.39688188093981752 0 0.2233315654295415 0.39676135342202401 0 0.22452700661512559 0.38949759336648299 0 0.22476035176883841 0.39688188093981752 0 0.2233315654295415 0.39676135342202401 0 0.22476035176883841 0.39688188093981752 0 0.23103426212848491 0.40484276767644861 0 0.22627238523225879 0.4105595448014504 0 0.22476035176883841 0.39688188093981752 0 0.23103426212848491 0.40484276767644861 0 0.23595456745107871 0.3928020097913304 0 0.23595456745107871 0.3928020097913304 0 0.2429198700278816 0.40154823855985128 0 0.2373362084294284 0.41123506883665928 0 0.23595456745107871 0.3928020097913304 0 0.2373362084294284 0.41123506883665928 0 0.23103426212848491 0.40484276767644861 0 0.23595456745107871 0.3928020097913304 0 0.2373362084294284 0.41123506883665928 0 0.23595456745107871 0.3928020097913304 0 0.2432725560210984 0.38503685377657998 0 0.25137282146461121 0.39422979817504239 0 0.23595456745107871 0.3928020097913304 0 0.2429198700278816 0.40154823855985128 0 0.25137282146461121 0.39422979817504239 0 0.23457292647272809 0.37436895074600141 0 0.23595456745107871 0.3928020097913304 0 0.2432725560210984 0.38503685377657998 0 0.23457292647272809 0.37436895074600141 0 0.2432725560210984 0.38503685377657998 0 0.25118990869597579 0.37874665639394561 0 0.2432725560210984 0.38503685377657998 0 0.25118990869597579 0.37874665639394561 0 0.25137282146461121 0.39422979817504239 0 0.23457292647272809 0.37436895074600141 0 0.23595456745107871 0.3928020097913304 0 0.2435217460266236 0.42183389744484701 0 0.22527741296318071 0.44043504749073381 0 0.2435217460266236 0.42183389744484701 0 0.22527741296318071 0.44043504749073381 0 0.2426690178941325 0.44391826882859919 0 0.2435217460266236 0.42183389744484701 0 0.24162283316394431 0.42067897469673787 0 0.22527741296318071 0.44043504749073381 0 0.2435217460266236 0.42183389744484701 0 0.2426690178941325 0.44391826882859919 0 0.26276772926709291 0.43353934443560388 0 0.2435217460266236 0.42183389744484701 0 0.25614998960793017 0.40895867460961588 0 0.2435217460266236 0.42183389744484701 0 0.2451475384980121 0.4109184687308377 0 0.2408374516114459 0.41599100256191818 0 0.2435217460266236 0.42183389744484701 0 0.24162283316394431 0.42067897469673787 0 0.2435217460266236 0.42183389744484701 0 0.2451475384980121 0.4109184687308377 0 0.25614998960793017 0.40895867460961588 0 0.2429198700278816 0.40154823855985128 0 0.2451475384980121 0.4109184687308377 0 0.25614998960793017 0.40895867460961588 0 0.2429198700278816 0.40154823855985128 0 0.2451475384980121 0.4109184687308377 0 0.2373362084294284 0.41123506883665928 0 0.2451475384980121 0.4109184687308377 0 0.2373362084294284 0.41123506883665928 0 0.2408374516114459 0.41599100256191818 0 0.2373362084294284 0.41123506883665928 0 0.23552300969198151 0.41632496525857199 0 0.23168037876577829 0.41280456645233649 0 0.24162283316394431 0.42067897469673787 0 0.23552300969198151 0.41632496525857199 0 0.22823602834673781 0.42106048568855209 0 0.2435217460266236 0.42183389744484701 0 0.24162283316394431 0.42067897469673787 0 0.2408374516114459 0.41599100256191818 0 0.24162283316394431 0.42067897469673787 0 0.2408374516114459 0.41599100256191818 0 0.23552300969198151 0.41632496525857199 0 0.2373362084294284 0.41123506883665928 0 0.2408374516114459 0.41599100256191818 0 0.23552300969198151 0.41632496525857199 0 0.22476035176883841 0.39688188093981752 0 0.2149477770649495 0.41939481113363369 0 0.22823602834673781 0.42106048568855209 0 0.23168037876577829 0.41280456645233649 0 0.22627238523225879 0.4105595448014504 0 0.23552300969198151 0.41632496525857199 0 0.22823602834673781 0.42106048568855209 0 0.23168037876577829 0.41280456645233649 0 0.22476035176883841 0.39688188093981752 0 0.22627238523225879 0.4105595448014504 0 0.2149477770649495 0.41939481113363369 0 0.23103426212848491 0.40484276767644861 0 0.23168037876577829 0.41280456645233649 0 0.22627238523225879 0.4105595448014504 0 0.23103426212848491 0.40484276767644861 0 0.2373362084294284 0.41123506883665928 0 0.23168037876577829 0.41280456645233649 0 0.22823602834673781 0.42106048568855209 0 0.22627238523225879 0.4105595448014504 0 0.2149477770649495 0.41939481113363369 0 0.22823602834673781 0.42106048568855209 0 0.2149477770649495 0.41939481113363369 0 0.22527741296318071 0.44043504749073381 0 0.24162283316394431 0.42067897469673787 0 0.22823602834673781 0.42106048568855209 0 0.22527741296318071 0.44043504749073381 0 0.2149477770649495 0.41939481113363369 0 0.2051352023610605 0.44190774132745009 0 0.22527741296318071 0.44043504749073381 0 0.2149477770649495 0.41939481113363369 0 0.19790009895877619 0.42659424630802018 0 0.2051352023610605 0.44190774132745009 0 0.2149477770649495 0.41939481113363369 0 0.2051352023610605 0.44190774132745009 0 0.2149477770649495 0.41939481113363369 0 0.20336684469145089 0.41236801717768112 0 0.19790009895877619 0.42659424630802018 0 0.20949453170194141 0.40590993912757117 0 0.2163667656098974 0.40130979316057092 0 0.2149477770649495 0.41939481113363369 0 0.20949453170194141 0.40590993912757117 0 0.2149477770649495 0.41939481113363369 0 0.20336684469145089 0.41236801717768112 0 0.20213195198526779 0.40360353850356828 0 0.20949453170194141 0.40590993912757117 0 0.20336684469145089 0.41236801717768112 0 0.20213195198526779 0.40360353850356828 0 0.20336684469145089 0.41236801717768112 0 0.1958158334226385 0.40782989948832449 0 0.20336684469145089 0.41236801717768112 0 0.1958158334226385 0.40782989948832449 0 0.19018018631803449 0.4160287695218422 0 0.20336684469145089 0.41236801717768112 0 0.19018018631803449 0.4160287695218422 0 0.19790009895877619 0.42659424630802018 0 0.1890667700418521 0.40611036371793119 0 0.1958158334226385 0.40782989948832449 0 0.19018018631803449 0.4160287695218422 0 0.19790009895877619 0.42659424630802018 0 0.1888245482483677 0.43977847129862963 0 0.2051352023610605 0.44190774132745009 0 0.18544788972008719 0.4292397985891373 0 0.19018018631803449 0.4160287695218422 0 0.19790009895877619 0.42659424630802018 0 0.18544788972008719 0.4292397985891373 0 0.19790009895877619 0.42659424630802018 0 0.1888245482483677 0.43977847129862963 0 0.1888245482483677 0.43977847129862963 0 0.19142257890317041 0.45099418766238658 0 0.2051352023610605 0.44190774132745009 0 0.19142257890317041 0.45099418766238658 0 0.19532262765717159 0.46442067152126643 0 0.2051352023610605 0.44190774132745009 0 0.19532262765717159 0.46442067152126643 0 0.2070330798997396 0.45903619753662228 0 0.2051352023610605 0.44190774132745009 0 0.19532262765717159 0.46442067152126643 0 0.2070330798997396 0.45903619753662228 0 0.18878874683629851 0.47763734758251092 0 0.2070330798997396 0.45903619753662228 0 0.18878874683629851 0.47763734758251092 0 0.19532262765717159 0.46442067152126643 0 0.2051352023610605 0.44190774132745009 0 0.19532262765717159 0.46442067152126643 0 0.17986202334542789 0.46500087158953413 0 0.1873409029504991 0.45801110917067739 0 0.19142257890317041 0.45099418766238658 0 0.19532262765717159 0.46442067152126643 0 0.1873409029504991 0.45801110917067739 0 0.21453187761829839 0.45281800831342228 0 0.22194197356966841 0.46642760970431019 0 0.2100885969700251 0.47640900415671078 0 0.2070330798997396 0.45903619753662228 0 0.21453187761829839 0.45281800831342228 0 0.2100885969700251 0.47640900415671078 0 0.21453187761829839 0.45281800831342228 0 0.2100885969700251 0.47640900415671078 0 0.2070330798997396 0.45903619753662228 0 0.2051352023610605 0.44190774132745009 0 0.22527741296318071 0.44043504749073381 0 0.2070330798997396 0.45903619753662228 0 0.21453187761829839 0.45281800831342228 0 0.22527741296318071 0.44043504749073381 0 0.2070330798997396 0.45903619753662228 0 0.22527741296318071 0.44043504749073381 0 0.22527741296318071 0.44043504749073381 0 0.22701931350411839 0.4528004082727487 0 0.2426690178941325 0.44391826882859919 0 0.21453187761829839 0.45281800831342228 0 0.22527741296318071 0.44043504749073381 0 0.22701931350411839 0.4528004082727487 0 0.21453187761829839 0.45281800831342228 0 0.22701931350411839 0.4528004082727487 0 0.22194197356966841 0.46642760970431019 0 0.22701931350411839 0.4528004082727487 0 0.22194197356966841 0.46642760970431019 0 0.23645079978521591 0.46098474888720142 0 0.23645079978521591 0.46098474888720142 0 0.25044195169525613 0.46847414930888109 0 0.25994723793266422 0.45598679955958499 0 0.23645079978521591 0.46098474888720142 0 0.2426690178941325 0.44391826882859919 0 0.25994723793266422 0.45598679955958499 0 0.22701931350411839 0.4528004082727487 0 0.23645079978521591 0.46098474888720142 0 0.2426690178941325 0.44391826882859919 0 0.24483898282083391 0.48281988538596848 0 0.22613804643396099 0.48304484195670438 0 0.23373817092943391 0.5 0 0.24483898282083391 0.48281988538596848 0 0.23373817092943391 0.5 0 0.26183102553711568 0.5 0 0.23645079978521591 0.46098474888720142 0 0.24483898282083391 0.48281988538596848 0 0.25044195169525613 0.46847414930888109 0 0.23645079978521591 0.46098474888720142 0 0.24483898282083391 0.48281988538596848 0 0.22613804643396099 0.48304484195670438 0 0.22194197356966841 0.46642760970431019 0 0.23645079978521591 0.46098474888720142 0 0.22613804643396099 0.48304484195670438 0 0.22194197356966841 0.46642760970431019 0 0.22613804643396099 0.48304484195670438 0 0.2100885969700251 0.47640900415671078 0 0.22613804643396099 0.48304484195670438 0 0.23373817092943391 0.5 0 0.20564531632175201 0.49999999999999928 0 0.20564531632175201 0.49999999999999928 0 0.2100885969700251 0.47640900415671078 0 0.22613804643396099 0.48304484195670438 0 0.20564531632175201 0.49999999999999928 0 0.2100885969700251 0.47640900415671078 0 0.2070330798997396 0.45903619753662228 0 0.2100885969700251 0.47640900415671078 0 0.18878874683629851 0.47763734758251092 0 0.19532262765717159 0.46442067152126643 0 0.18878874683629851 0.47763734758251092 0 0.17986202334542789 0.46500087158953413 0 0.20564531632175201 0.49999999999999928 0 0.18878874683629851 0.47763734758251092 0 0.17742484988924331 0.5 0 0.20564531632175201 0.49999999999999928 0 0.2100885969700251 0.47640900415671078 0 0.18878874683629851 0.47763734758251092 0 0.18878874683629851 0.47763734758251092 0 0.17742484988924331 0.5 0 0.1705444137728574 0.49623849762839939 0 0.18878874683629851 0.47763734758251092 0 0.1705444137728574 0.49623849762839939 0 0.1705444137728574 0.49623849762839939 0 0.15755314014648611 0.48534703383262368 0 0.17163990689440531 0.47906522103993948 0 0.1705444137728574 0.49623849762839939 0 0.15755314014648611 0.48534703383262368 0 0.14920438345673451 0.5 0 0.17742484988924331 0.5 0 0.1705444137728574 0.49623849762839939 0 0.14920438345673451 0.5 0 0.15755314014648611 0.48534703383262368 0 0.15738812652666229 0.46942114045583511 0 0.17163990689440531 0.47906522103993948 0 0.15738812652666229 0.46942114045583511 0 0.17163990689440531 0.47906522103993948 0 0.1691301579663671 0.46787373281266992 0 0.18878874683629851 0.47763734758251092 0 0.17163990689440531 0.47906522103993948 0 0.17986202334542789 0.46500087158953413 0 0.18878874683629851 0.47763734758251092 0 0.1705444137728574 0.49623849762839939 0 0.17163990689440531 0.47906522103993948 0 0.17163990689440531 0.47906522103993948 0 0.17986202334542789 0.46500087158953413 0 0.1691301579663671 0.46787373281266992 0 0.17986202334542789 0.46500087158953413 0 0.1873409029504991 0.45801110917067739 0 0.18099146795004609 0.45000507619416158 0 0.17986202334542789 0.46500087158953413 0 0.18099146795004609 0.45000507619416158 0 0.17007557889691041 0.45615508891696882 0 0.17986202334542789 0.46500087158953413 0 0.1691301579663671 0.46787373281266992 0 0.17007557889691041 0.45615508891696882 0 0.18099146795004609 0.45000507619416158 0 0.1732545027601694 0.43789489259122788 0 0.17007557889691041 0.45615508891696882 0 0.1888245482483677 0.43977847129862963 0 0.18099146795004609 0.45000507619416158 0 0.1732545027601694 0.43789489259122788 0 0.1888245482483677 0.43977847129862963 0 0.19142257890317041 0.45099418766238658 0 0.18099146795004609 0.45000507619416158 0 0.19142257890317041 0.45099418766238658 0 0.1873409029504991 0.45801110917067739 0 0.18099146795004609 0.45000507619416158 0 0.1732545027601694 0.43789489259122788 0 0.16004230285273799 0.44657182988368632 0 0.17007557889691041 0.45615508891696882 0 0.15738812652666229 0.46942114045583511 0 0.16004230285273799 0.44657182988368632 0 0.17007557889691041 0.45615508891696882 0 0.15738812652666229 0.46942114045583511 0 0.16004230285273799 0.44657182988368632 0 0.15738812652666229 0.46942114045583511 0 0.1691301579663671 0.46787373281266992 0 0.17007557889691041 0.45615508891696882 0 0.15738812652666229 0.46942114045583511 0 0.16004230285273799 0.44657182988368632 0 0.14778807667062721 0.45064895147753442 0 0.15738812652666229 0.46942114045583511 0 0.14778807667062721 0.45064895147753442 0 0.13872382032612021 0.45844817940074412 0 0.16004230285273799 0.44657182988368632 0 0.14778807667062721 0.45064895147753442 0 0.1475833771263011 0.43869291545493688 0 0.14778807667062721 0.45064895147753442 0 0.13707321412885029 0.44622181830043722 0 0.13872382032612021 0.45844817940074412 0 0.14778807667062721 0.45064895147753442 0 0.1475833771263011 0.43869291545493688 0 0.13707321412885029 0.44622181830043722 0 0.1246563877060802 0.44199006469265029 0 0.1475833771263011 0.43869291545493688 0 0.12712502726540631 0.43823690565346551 0 0.1246563877060802 0.44199006469265029 0 0.1475833771263011 0.43869291545493688 0 0.13707321412885029 0.44622181830043722 0 0.1246563877060802 0.44199006469265029 0 0.1475833771263011 0.43869291545493688 0 0.13707321412885029 0.44622181830043722 0 0.12960071115027069 0.44840118378863691 0 0.13872382032612021 0.45844817940074412 0 0.11980953052138919 0.44948907119100989 0 0.12960071115027069 0.44840118378863691 0 0.12685937845245909 0.45572263694949983 0 0.1246563877060802 0.44199006469265029 0 0.13707321412885029 0.44622181830043722 0 0.12960071115027069 0.44840118378863691 0 0.13872382032612021 0.45844817940074412 0 0.12906247977961399 0.46660672509549889 0 0.13833352194313761 0.4790861776640451 0 0.12960071115027069 0.44840118378863691 0 0.13872382032612021 0.45844817940074412 0 0.12685937845245909 0.45572263694949983 0 0.13872382032612021 0.45844817940074412 0 0.12685937845245909 0.45572263694949983 0 0.12906247977961399 0.46660672509549889 0 0.115091112272804 0.47231809867616492 0 0.12906247977961399 0.46660672509549889 0 0.13833352194313761 0.4790861776640451 0 0.1209839170242257 0.5 0 0.13833352194313761 0.4790861776640451 0 0.14920438345673451 0.5 0 0.15755314014648611 0.48534703383262368 0 0.13833352194313761 0.4790861776640451 0 0.14920438345673451 0.5 0 0.15755314014648611 0.48534703383262368 0 0.15738812652666229 0.46942114045583511 0 0.13833352194313761 0.4790861776640451 0 0.15738812652666229 0.46942114045583511 0 0.13872382032612021 0.45844817940074412 0 0.13833352194313761 0.4790861776640451 0 0.35654691942848682 0.4825969655955476 0 0.33889139488913189 0.4651939311910922 0 0.35654691942848682 0.4825969655955476 0 0.33889139488913189 0.4651939311910922 0 0.33918069303948661 0.48511011273318172 0 0.35654691942848682 0.4825969655955476 0 0.3534222470005442 0.46810961585913152 0 0.33889139488913189 0.4651939311910922 0 0.35654691942848682 0.4825969655955476 0 0.3461095893601609 0.5 0 0.37420244396784258 0.500000000000002 0 0.35654691942848682 0.4825969655955476 0 0.3461095893601609 0.5 0 0.33918069303948661 0.48511011273318172 0 0.35654691942848682 0.4825969655955476 0 0.37420244396784258 0.500000000000002 0 0.35654691942848682 0.4825969655955476 0 0.37420244396784258 0.500000000000002 0 0.37572687517328129 0.48034458252852968 0 0.35654691942848682 0.4825969655955476 0 0.36860561038677397 0.46251868070522451 0 0.37572687517328129 0.48034458252852968 0 0.35654691942848682 0.4825969655955476 0 0.36860561038677397 0.46251868070522451 0 0.3534222470005442 0.46810961585913152 0 0.36860561038677397 0.46251868070522451 0 0.3705945277430176 0.44134522703541063 0 0.35752529845659631 0.44656930123953598 0 0.3705945277430176 0.44134522703541063 0 0.35752529845659631 0.44656930123953598 0 0.35050391817635401 0.43437110775068372 0 0.35752529845659631 0.44656930123953598 0 0.34755687037767619 0.44427964482718141 0 0.35050391817635401 0.43437110775068372 0 0.35752529845659631 0.44656930123953598 0 0.34755687037767619 0.44427964482718141 0 0.34632837061468907 0.45509716804984562 0 0.34755687037767619 0.44427964482718141 0 0.33586989426306552 0.44108100226866032 0 0.35050391817635401 0.43437110775068372 0 0.36860561038677397 0.46251868070522451 0 0.34632837061468907 0.45509716804984562 0 0.36860561038677397 0.46251868070522451 0 0.3534222470005442 0.46810961585913152 0 0.34632837061468907 0.45509716804984562 0 0.36860561038677397 0.46251868070522451 0 0.35752529845659631 0.44656930123953598 0 0.34632837061468907 0.45509716804984562 0 0.3534222470005442 0.46810961585913152 0 0.34632837061468907 0.45509716804984562 0 0.33889139488913189 0.4651939311910922 0 0.34632837061468907 0.45509716804984562 0 0.33889139488913189 0.4651939311910922 0 0.32405113084260412 0.44767565539446658 0 0.33889139488913189 0.4651939311910922 0 0.32123587034977708 0.44779089678663692 0 0.34632837061468907 0.45509716804984562 0 0.33586989426306552 0.44108100226866032 0 0.32405113084260412 0.44767565539446658 0 0.34632837061468907 0.45509716804984562 0 0.32405113084260412 0.44767565539446658 0 0.33586989426306552 0.44108100226866032 0 0.35050391817635401 0.43437110775068372 0 0.34755687037767619 0.44427964482718141 0 0.34632837061468907 0.45509716804984562 0 0.33586989426306552 0.44108100226866032 0 0.33586989426306552 0.44108100226866032 0 0.32123587034977708 0.44779089678663692 0 0.33586989426306552 0.44108100226866032 0 0.32123587034977708 0.44779089678663692 0 0.32496301259183669 0.42997353384538423 0 0.33586989426306552 0.44108100226866032 0 0.32123587034977708 0.44779089678663692 0 0.32405113084260412 0.44767565539446658 0 0.32123587034977708 0.44779089678663692 0 0.30564736051652153 0.43242531688910207 0 0.33889139488913189 0.4651939311910922 0 0.32123587034977708 0.44779089678663692 0 0.31254704891762558 0.4638152300645581 0 0.33889139488913189 0.4651939311910922 0 0.32123587034977708 0.44779089678663692 0 0.32405113084260412 0.44767565539446658 0 0.33889139488913189 0.4651939311910922 0 0.31254704891762558 0.4638152300645581 0 0.32488441752376418 0.48045609830764407 0 0.31254704891762558 0.4638152300645581 0 0.32488441752376418 0.48045609830764407 0 0.30831884531275539 0.48378806107616379 0 0.33889139488913189 0.4651939311910922 0 0.32488441752376418 0.48045609830764407 0 0.33918069303948661 0.48511011273318172 0 0.3461095893601609 0.5 0 0.33918069303948661 0.48511011273318172 0 0.31801673475247921 0.5 0 0.32488441752376418 0.48045609830764407 0 0.31801673475247921 0.5 0 0.30831884531275539 0.48378806107616379 0 0.32488441752376418 0.48045609830764407 0 0.33918069303948661 0.48511011273318172 0 0.31801673475247921 0.5 0 0.30831884531275539 0.48378806107616379 0 0.29622214522511059 0.47466897700861682 0 0.28992388014479747 0.5 0 0.31801673475247921 0.5 0 0.30831884531275539 0.48378806107616379 0 0.28992388014479747 0.5 0 0.31254704891762558 0.4638152300645581 0 0.30831884531275539 0.48378806107616379 0 0.29622214522511059 0.47466897700861682 0 0.29622214522511059 0.47466897700861682 0 0.27932582031755221 0.48372971458644981 0 0.2824527914389659 0.46557345407339928 0 0.29622214522511059 0.47466897700861682 0 0.28992388014479747 0.5 0 0.27932582031755221 0.48372971458644981 0 0.27932582031755221 0.48372971458644981 0 0.26364588712989989 0.47419666972968388 0 0.26183102553711568 0.5 0 0.28992388014479747 0.5 0 0.27932582031755221 0.48372971458644981 0 0.26183102553711568 0.5 0 0.27932582031755221 0.48372971458644981 0 0.26364588712989989 0.47419666972968388 0 0.2824527914389659 0.46557345407339928 0 0.26364588712989989 0.47419666972968388 0 0.2824527914389659 0.46557345407339928 0 0.24483898282083391 0.48281988538596848 0 0.26364588712989989 0.47419666972968388 0 0.24483898282083391 0.48281988538596848 0 0.26364588712989989 0.47419666972968388 0 0.25044195169525613 0.46847414930888109 0 0.24483898282083391 0.48281988538596848 0 0.26364588712989989 0.47419666972968388 0 0.26183102553711568 0.5 0 0.2426690178941325 0.44391826882859919 0 0.25994723793266422 0.45598679955958499 0 0.26276772926709291 0.43353934443560388 0 0.26364588712989989 0.47419666972968388 0 0.25044195169525613 0.46847414930888109 0 0.25994723793266422 0.45598679955958499 0 0.25994723793266422 0.45598679955958499 0 0.28201371250756252 0.4452447914263602 0 0.2824527914389659 0.46557345407339928 0 0.26364588712989989 0.47419666972968388 0 0.25994723793266422 0.45598679955958499 0 0.2824527914389659 0.46557345407339928 0 0.25994723793266422 0.45598679955958499 0 0.28201371250756252 0.4452447914263602 0 0.26276772926709291 0.43353934443560388 0 0.28201371250756252 0.4452447914263602 0 0.26276772926709291 0.43353934443560388 0 0.28201371250756252 0.4452447914263602 0 0.29340052722609139 0.43837676135226661 0 0.3012596957480323 0.45695023841711591 0 0.28201371250756252 0.4452447914263602 0 0.29340052722609139 0.43837676135226661 0 0.28306310195657541 0.43266516710112962 0 0.28201371250756252 0.4452447914263602 0 0.3012596957480323 0.45695023841711591 0 0.2824527914389659 0.46557345407339928 0 0.3012596957480323 0.45695023841711591 0 0.29622214522511059 0.47466897700861682 0 0.2824527914389659 0.46557345407339928 0 0.3012596957480323 0.45695023841711591 0 0.28201371250756252 0.4452447914263602 0 0.2824527914389659 0.46557345407339928 0 0.3012596957480323 0.45695023841711591 0 0.31254704891762558 0.4638152300645581 0 0.29622214522511059 0.47466897700861682 0 0.3012596957480323 0.45695023841711591 0 0.32123587034977708 0.44779089678663692 0 0.31254704891762558 0.4638152300645581 0 0.3012596957480323 0.45695023841711591 0 0.31254704891762558 0.4638152300645581 0 0.3012596957480323 0.45695023841711591 0 0.32123587034977708 0.44779089678663692 0 0.3012596957480323 0.45695023841711591 0 0.29340052722609139 0.43837676135226661 0 0.3012596957480323 0.45695023841711591 0 0.30564736051652153 0.43242531688910207 0 0.32123587034977708 0.44779089678663692 0 0.3012596957480323 0.45695023841711591 0 0.30564736051652153 0.43242531688910207 0 0.30564736051652153 0.43242531688910207 0 0.29005885068326592 0.41705973699156762 0 0.30564736051652153 0.43242531688910207 0 0.29005885068326592 0.41705973699156762 0 0.31580085904858068 0.41371102861472492 0 0.29005885068326592 0.41705973699156762 0 0.30133209013916451 0.40325784294305173 0 0.31580085904858068 0.41371102861472492 0 0.29005885068326592 0.41705973699156762 0 0.27447034085001071 0.4016941570940325 0 0.29340052722609139 0.43837676135226661 0 0.29005885068326592 0.41705973699156762 0 0.28306310195657541 0.43266516710112962 0 0.29340052722609139 0.43837676135226661 0 0.30564736051652153 0.43242531688910207 0 0.29005885068326592 0.41705973699156762 0 0.29005885068326592 0.41705973699156762 0 0.28306310195657541 0.43266516710112962 0 0.27876672140329328 0.41717966209758089 0 0.28201371250756252 0.4452447914263602 0 0.27266171584030252 0.42721222498007572 0 0.26276772926709291 0.43353934443560388 0 0.28201371250756252 0.4452447914263602 0 0.28306310195657541 0.43266516710112962 0 0.27266171584030252 0.42721222498007572 0 0.28306310195657541 0.43266516710112962 0 0.27266171584030252 0.42721222498007572 0 0.27876672140329328 0.41717966209758089 0 0.28306310195657541 0.43266516710112962 0 0.27876672140329328 0.41717966209758089 0 0.27876672140329328 0.41717966209758089 0 0.27447034085001071 0.4016941570940325 0 0.27876672140329328 0.41717966209758089 0 0.26789932753875578 0.41185601163520252 0 0.27447034085001071 0.4016941570940325 0 0.29005885068326592 0.41705973699156762 0 0.27876672140329328 0.41717966209758089 0 0.27447034085001071 0.4016941570940325 0 0.27266171584030252 0.42721222498007572 0 0.26789932753875578 0.41185601163520252 0 0.26060010165614089 0.42068003062106912 0 0.27266171584030252 0.42721222498007572 0 0.27876672140329328 0.41717966209758089 0 0.26789932753875578 0.41185601163520252 0 0.2435217460266236 0.42183389744484701 0 0.26060010165614089 0.42068003062106912 0 0.25614998960793017 0.40895867460961588 0 0.26789932753875578 0.41185601163520252 0 0.26060010165614089 0.42068003062106912 0 0.25614998960793017 0.40895867460961588 0 0.2435217460266236 0.42183389744484701 0 0.26276772926709291 0.43353934443560388 0 0.2435217460266236 0.42183389744484701 0 0.26060010165614089 0.42068003062106912 0 0.26276772926709291 0.43353934443560388 0 0.27266171584030252 0.42721222498007572 0 0.26060010165614089 0.42068003062106912 0 0.26276772926709291 0.43353934443560388 0 0.25118990869597579 0.37874665639394561 0 0.26877823318923849 0.39608345177438659 0 0.25118990869597579 0.37874665639394561 0 0.25137282146461121 0.39422979817504239 0 0.26877823318923849 0.39608345177438659 0 0.25118990869597579 0.37874665639394561 0 0.26877823318923849 0.39608345177438659 0 0.27200181707317678 0.39279682204108107 0 0.25118990869597579 0.37874665639394561 0 0.27200181707317678 0.39279682204108107 0 0.26437826943248371 0.36531916179410401 0 0.25614998960793017 0.40895867460961588 0 0.25137282146461121 0.39422979817504239 0 0.26877823318923849 0.39608345177438659 0 0.26789932753875578 0.41185601163520252 0 0.25614998960793017 0.40895867460961588 0 0.26877823318923849 0.39608345177438659 0 0.2429198700278816 0.40154823855985128 0 0.25614998960793017 0.40895867460961588 0 0.25137282146461121 0.39422979817504239 0 0.25614998960793017 0.40895867460961588 0 0.26877823318923849 0.39608345177438659 0 0.27200181707317678 0.39279682204108107 0 0.27447034085001071 0.4016941570940325 0 0.28786213468886129 0.39440877086228282 0 0.26877823318923849 0.39608345177438659 0 0.27200181707317678 0.39279682204108107 0 0.27447034085001071 0.4016941570940325 0 0.26789932753875578 0.41185601163520252 0 0.26877823318923849 0.39608345177438659 0 0.27447034085001071 0.4016941570940325 0 0.27200181707317678 0.39279682204108107 0 0.27447034085001071 0.4016941570940325 0 0.26877823318923849 0.39608345177438659 0 0.27200181707317678 0.39279682204108107 0 0.26877823318923849 0.39608345177438659 0 0.27447034085001071 0.4016941570940325 0 0.27200181707317678 0.39279682204108107 0 0.26437826943248371 0.36531916179410401 0 0.27200181707317678 0.39279682204108107 0 0.28699551789137961 0.37750987909322148 0 0.27200181707317678 0.39279682204108107 0 0.28699551789137961 0.37750987909322148 0 0.26437826943248371 0.36531916179410401 0 0.28699551789137961 0.37750987909322148 0 0.28786213468886129 0.39440877086228282 0 0.30371818864625588 0.38652341369843118 0 0.27200181707317678 0.39279682204108107 0 0.28699551789137961 0.37750987909322148 0 0.28786213468886129 0.39440877086228282 0 0.28699551789137961 0.37750987909322148 0 0.30371818864625588 0.38652341369843118 0 0.29005885068326592 0.41705973699156762 0 0.27447034085001071 0.4016941570940325 0 0.28786213468886129 0.39440877086228282 0 0.29005885068326592 0.41705973699156762 0 0.28786213468886129 0.39440877086228282 0 0.30133209013916451 0.40325784294305173 0 0.30133209013916451 0.40325784294305173 0 0.30371818864625588 0.38652341369843118 0 0.32044085940113132 0.39553694830364222 0 0.28786213468886129 0.39440877086228282 0 0.30133209013916451 0.40325784294305173 0 0.30371818864625588 0.38652341369843118 0 0.30371818864625588 0.38652341369843118 0 0.32044085940113132 0.39553694830364222 0 0.30371818864625588 0.38652341369843118 0 0.32044085940113132 0.39553694830364222 0 0.32428573035753427 0.37454978793987381 0 0.34141312810638941 0.38740518223138531 0 0.3497575667784204 0.36424410841202359 0 0.32428573035753427 0.37454978793987381 0 0.34141312810638941 0.38740518223138531 0 0.32044085940113132 0.39553694830364222 0 0.32428573035753427 0.37454978793987381 0 0.34141312810638941 0.38740518223138531 0 0.33408213750957938 0.40263879163041733 0 0.35387421401387548 0.41247148598627648 0 0.34141312810638941 0.38740518223138531 0 0.33408213750957938 0.40263879163041733 0 0.32044085940113132 0.39553694830364222 0 0.33408213750957938 0.40263879163041733 0 0.32044085940113132 0.39553694830364222 0 0.31580085904858068 0.41371102861472492 0 0.30133209013916451 0.40325784294305173 0 0.32044085940113132 0.39553694830364222 0 0.31580085904858068 0.41371102861472492 0 0.33408213750957938 0.40263879163041733 0 0.31580085904858068 0.41371102861472492 0 0.33345995062300199 0.41651193600610781 0 0.31580085904858068 0.41371102861472492 0 0.32496301259183669 0.42997353384538423 0 0.33345995062300199 0.41651193600610781 0 0.32123587034977708 0.44779089678663692 0 0.30564736051652153 0.43242531688910207 0 0.32496301259183669 0.42997353384538423 0 0.30564736051652153 0.43242531688910207 0 0.31580085904858068 0.41371102861472492 0 0.32496301259183669 0.42997353384538423 0 0.33586989426306552 0.44108100226866032 0 0.32496301259183669 0.42997353384538423 0 0.33932659559133221 0.42761603992363678 0 0.32496301259183669 0.42997353384538423 0 0.33932659559133221 0.42761603992363678 0 0.33345995062300199 0.41651193600610781 0 0.33586989426306552 0.44108100226866032 0 0.33932659559133221 0.42761603992363678 0 0.35050391817635401 0.43437110775068372 0 0.33932659559133221 0.42761603992363678 0 0.33345995062300199 0.41651193600610781 0 0.35387421401387548 0.41247148598627648 0 0.33408213750957938 0.40263879163041733 0 0.33345995062300199 0.41651193600610781 0 0.35387421401387548 0.41247148598627648 0 0.35387421401387548 0.41247148598627648 0 0.35050391817635401 0.43437110775068372 0 0.36323150974858093 0.42739503681771418 0 0.33932659559133221 0.42761603992363678 0 0.35387421401387548 0.41247148598627648 0 0.35050391817635401 0.43437110775068372 0 0.3705945277430176 0.44134522703541063 0 0.36323150974858093 0.42739503681771418 0 0.37795337906107629 0.42139232649848579 0 0.3705945277430176 0.44134522703541063 0 0.35050391817635401 0.43437110775068372 0 0.36323150974858093 0.42739503681771418 0 0.35387421401387548 0.41247148598627648 0 0.37066327734310889 0.3919173187360443 0 0.37795337906107629 0.42139232649848579 0 0.35387421401387548 0.41247148598627648 0 0.36323150974858093 0.42739503681771418 0 0.37795337906107629 0.42139232649848579 0 0.34141312810638941 0.38740518223138531 0 0.37066327734310889 0.3919173187360443 0 0.34141312810638941 0.38740518223138531 0 0.37066327734310889 0.3919173187360443 0 0.3497575667784204 0.36424410841202359 0 0.34141312810638941 0.38740518223138531 0 0.35387421401387548 0.41247148598627648 0 0.37066327734310889 0.3919173187360443 0 0.3497575667784204 0.36424410841202359 0 0.35546018143314417 0.34029530503237782 0 0.33166663686561132 0.35712453969031632 0 0.3497575667784204 0.36424410841202359 0 0.36969699905057951 0.35149713060627391 0 0.35546018143314417 0.34029530503237782 0 0.3497575667784204 0.36424410841202359 0 0.37289207530280949 0.36561539260536879 0 0.36969699905057951 0.35149713060627391 0 0.37066327734310889 0.3919173187360443 0 0.3497575667784204 0.36424410841202359 0 0.37289207530280949 0.36561539260536879 0 0.36969699905057951 0.35149713060627391 0 0.35546018143314417 0.34029530503237782 0 0.38533089315871227 0.34193328573644149 0 0.36782465737738818 0.33023566754044598 0 0.35771634269531127 0.31791095471892478 0 0.35546018143314417 0.34029530503237782 0 0.36782465737738818 0.33023566754044598 0 0.35546018143314417 0.34029530503237782 0 0.38533089315871227 0.34193328573644149 0 0.35546018143314417 0.34029530503237782 0 0.38533089315871227 0.34193328573644149 0 0.37472895794248501 0.31550722054144797 0 0.35771634269531127 0.31791095471892478 0 0.38372978902200161 0.32918525847137431 0 0.36782465737738818 0.33023566754044598 0 0.35771634269531127 0.31791095471892478 0 0.38372978902200161 0.32918525847137431 0 0.37472895794248501 0.31550722054144797 0 0.35771634269531127 0.31791095471892478 0 0.36939539495710833 0.30854513180684351 0 0.35771634269531127 0.31791095471892478 0 0.38372978902200161 0.32918525847137431 0 0.35771634269531127 0.31791095471892478 0 0.35546018143314417 0.34029530503237782 0 0.3393298241950965 0.32468672166385909 0 0.35546018143314417 0.34029530503237782 0 0.3393298241950965 0.32468672166385909 0 0.32558946970757602 0.33865732432831419 0 0.35546018143314417 0.34029530503237782 0 0.32558946970757602 0.33865732432831419 0 0.3393298241950965 0.32468672166385909 0 0.32325718877729259 0.32008512032791342 0 0.32558946970757602 0.33865732432831419 0 0.35771634269531127 0.31791095471892478 0 0.3393298241950965 0.32468672166385909 0 0.33170289636862088 0.30663665096647541 0 0.3393298241950965 0.32468672166385909 0 0.32325718877729259 0.32008512032791342 0 0.33170289636862088 0.30663665096647541 0 0.32325718877729259 0.32008512032791342 0 0.32558946970757602 0.33865732432831419 0 0.30461012032082851 0.32189096203948819 0 0.32325718877729259 0.32008512032791342 0 0.30461012032082851 0.32189096203948819 0 0.3143899840562781 0.30732118102087269 0 0.32558946970757602 0.33865732432831419 0 0.33166663686561132 0.35712453969031632 0 0.30554299134728929 0.35859965992950549 0 0.35546018143314417 0.34029530503237782 0 0.32558946970757602 0.33865732432831419 0 0.33166663686561132 0.35712453969031632 0 0.3497575667784204 0.36424410841202359 0 0.33166663686561132 0.35712453969031632 0 0.32428573035753427 0.37454978793987381 0 0.33166663686561132 0.35712453969031632 0 0.32428573035753427 0.37454978793987381 0 0.30554299134728929 0.35859965992950549 0 0.28699551789137961 0.37750987909322148 0 0.30371818864625588 0.38652341369843118 0 0.30554299134728929 0.35859965992950549 0 0.30371818864625588 0.38652341369843118 0 0.32428573035753427 0.37454978793987381 0 0.30554299134728929 0.35859965992950549 0 0.32558946970757602 0.33865732432831419 0 0.30554299134728929 0.35859965992950549 0 0.29571875798200781 0.33701934362425051 0 0.30554299134728929 0.35859965992950549 0 0.28653429321579282 0.34802826956553862 0 0.29571875798200781 0.33701934362425051 0 0.30554299134728929 0.35859965992950549 0 0.28653429321579282 0.34802826956553862 0 0.28211878375832211 0.36128156525990213 0 0.28699551789137961 0.37750987909322148 0 0.30554299134728929 0.35859965992950549 0 0.28211878375832211 0.36128156525990213 0 0.28699551789137961 0.37750987909322148 0 0.30554299134728929 0.35859965992950549 0 0.28211878375832211 0.36128156525990213 0 0.27187147084844132 0.35681806029675128 0 0.26437826943248371 0.36531916179410401 0 0.28699551789137961 0.37750987909322148 0 0.26437826943248371 0.36531916179410401 0 0.28699551789137961 0.37750987909322148 0 0.28211878375832211 0.36128156525990213 0 0.26437826943248371 0.36531916179410401 0 0.28653429321579282 0.34802826956553862 0 0.28211878375832211 0.36128156525990213 0 0.27187147084844132 0.35681806029675128 0 0.28653429321579282 0.34802826956553862 0 0.27227550186854282 0.34653237092652939 0 0.27187147084844132 0.35681806029675128 0 0.27187147084844132 0.35681806029675128 0 0.26165987003319352 0.35552119651210667 0 0.26437826943248371 0.36531916179410401 0 0.27227550186854282 0.34653237092652939 0 0.27187147084844132 0.35681806029675128 0 0.26165987003319352 0.35552119651210667 0 0.2384823244012641 0.3513612240881604 0 0.26437826943248371 0.36531916179410401 0 0.27227550186854282 0.34653237092652939 0 0.25537891313490357 0.34894679750734542 0 0.26343371324167641 0.34143214775837749 0 0.27227550186854282 0.34653237092652939 0 0.26165987003319352 0.35552119651210667 0 0.25537891313490357 0.34894679750734542 0 0.2384823244012641 0.3513612240881604 0 0.26165987003319352 0.35552119651210667 0 0.25537891313490357 0.34894679750734542 0 0.2384823244012641 0.3513612240881604 0 0.26165987003319352 0.35552119651210667 0 0.26437826943248371 0.36531916179410401 0 0.27227550186854282 0.34653237092652939 0 0.25537891313490357 0.34894679750734542 0 0.2465577747650276 0.34464272094215392 0 0.25537891313490357 0.34894679750734542 0 0.25276909406611109 0.33853655995408199 0 0.26165987003319352 0.35552119651210667 0 0.26437826943248371 0.36531916179410401 0 0.24808748913268031 0.31562373023971702 0 0.26485613167357869 0.31659667885524201 0 0.25219736353756511 0.32691542280319091 0 0.26485613167357869 0.31659667885524201 0 0.25219736353756511 0.32691542280319091 0 0.26249358847668408 0.33118489387953348 0 0.25219736353756511 0.32691542280319091 0 0.25276909406611109 0.33853655995408199 0 0.26249358847668408 0.33118489387953348 0 0.25537891313490357 0.34894679750734542 0 0.25276909406611109 0.33853655995408199 0 0.26343371324167641 0.34143214775837749 0 0.25276909406611109 0.33853655995408199 0 0.26343371324167641 0.34143214775837749 0 0.26249358847668408 0.33118489387953348 0 0.26343371324167641 0.34143214775837749 0 0.26249358847668408 0.33118489387953348 0 0.27998578451608319 0.33159900934936731 0 0.28653429321579282 0.34802826956553862 0 0.27227550186854282 0.34653237092652939 0 0.27998578451608319 0.33159900934936731 0 0.27227550186854282 0.34653237092652939 0 0.26343371324167641 0.34143214775837749 0 0.27998578451608319 0.33159900934936731 0 0.26485613167357869 0.31659667885524201 0 0.26249358847668408 0.33118489387953348 0 0.27998578451608319 0.33159900934936731 0 0.26485613167357869 0.31659667885524201 0 0.27998578451608319 0.33159900934936731 0 0.2903677670307161 0.30937816355314168 0 0.27998578451608319 0.33159900934936731 0 0.30461012032082851 0.32189096203948819 0 0.2903677670307161 0.30937816355314168 0 0.27998578451608319 0.33159900934936731 0 0.29571875798200781 0.33701934362425051 0 0.30461012032082851 0.32189096203948819 0 0.28653429321579282 0.34802826956553862 0 0.27998578451608319 0.33159900934936731 0 0.29571875798200781 0.33701934362425051 0 0.32558946970757602 0.33865732432831419 0 0.29571875798200781 0.33701934362425051 0 0.32558946970757602 0.33865732432831419 0 0.29571875798200781 0.33701934362425051 0 0.30461012032082851 0.32189096203948819 0 0.30461012032082851 0.32189096203948819 0 0.2903677670307161 0.30937816355314168 0 0.3143899840562781 0.30732118102087269 0 0.30220217382048992 0.29471521394158467 0 0.2903677670307161 0.30937816355314168 0 0.3143899840562781 0.30732118102087269 0 0.30220217382048992 0.29471521394158467 0 0.31988913808627878 0.27814654644892178 0 0.3143899840562781 0.30732118102087269 0 0.30220217382048992 0.29471521394158467 0 0.30273324978810251 0.28044393983364763 0 0.31988913808627878 0.27814654644892178 0 0.30220217382048992 0.29471521394158467 0 0.28770107244241672 0.2874525166111952 0 0.30273324978810251 0.28044393983364763 0 0.30220217382048992 0.29471521394158467 0 0.28770107244241672 0.2874525166111952 0 0.2903677670307161 0.30937816355314168 0 0.28770107244241672 0.2874525166111952 0 0.2903677670307161 0.30937816355314168 0 0.26962472211910848 0.29420309291478308 0 0.26485613167357869 0.31659667885524201 0 0.2903677670307161 0.30937816355314168 0 0.26962472211910848 0.29420309291478308 0 0.26962472211910848 0.29420309291478308 0 0.25620705141910971 0.27963943373887518 0 0.27521684301793181 0.27113957603071742 0 0.28770107244241672 0.2874525166111952 0 0.26962472211910848 0.29420309291478308 0 0.27521684301793181 0.27113957603071742 0 0.26962472211910848 0.29420309291478308 0 0.25358365163434232 0.30053274337824049 0 0.25620705141910971 0.27963943373887518 0 0.26485613167357869 0.31659667885524201 0 0.26962472211910848 0.29420309291478308 0 0.25358365163434232 0.30053274337824049 0 0.24808748913268031 0.31562373023971702 0 0.26485613167357869 0.31659667885524201 0 0.25358365163434232 0.30053274337824049 0 0.25837332287901649 0.26029226688259027 0 0.27954809663536612 0.24742483709009899 0 0.25683111238660761 0.24379959893971959 0 0.2438721241591377 0.25167873840379662 0 0.25837332287901649 0.26029226688259027 0 0.25683111238660761 0.24379959893971959 0 0.23856470965594639 0.26807141709233429 0 0.25837332287901649 0.26029226688259027 0 0.25620705141910971 0.27963943373887518 0 0.25837332287901649 0.26029226688259027 0 0.25620705141910971 0.27963943373887518 0 0.27521684301793181 0.27113957603071742 0 0.25837332287901649 0.26029226688259027 0 0.27521684301793181 0.27113957603071742 0 0.27954809663536612 0.24742483709009899 0 0.27521684301793181 0.27113957603071742 0 0.29847933329574461 0.26441301039474852 0 0.27954809663536612 0.24742483709009899 0 0.28770107244241672 0.2874525166111952 0 0.30273324978810251 0.28044393983364763 0 0.29847933329574461 0.26441301039474852 0 0.28770107244241672 0.2874525166111952 0 0.27521684301793181 0.27113957603071742 0 0.29847933329574461 0.26441301039474852 0 0.30273324978810251 0.28044393983364763 0 0.29847933329574461 0.26441301039474852 0 0.31988913808627878 0.27814654644892178 0 0.29847933329574461 0.26441301039474852 0 0.31988913808627878 0.27814654644892178 0 0.32538829211628489 0.2489719118769719 0 0.31988913808627878 0.27814654644892178 0 0.32538829211628489 0.2489719118769719 0 0.31988913808627878 0.27814654644892178 0 0.34779853276984413 0.26215334039684829 0 0.32538829211628489 0.2489719118769719 0 0.34779853276984413 0.26215334039684829 0 0.32538829211628489 0.2489719118769719 0 0.31988913808627878 0.27814654644892178 0 0.34379095829174139 0.28367187861656512 0 0.34779853276984413 0.26215334039684829 0 0.31988913808627878 0.27814654644892178 0 0.3143899840562781 0.30732118102087269 0 0.31988913808627878 0.27814654644892178 0 0.3143899840562781 0.30732118102087269 0 0.3292579820075448 0.29357651780203597 0 0.32325718877729259 0.32008512032791342 0 0.3143899840562781 0.30732118102087269 0 0.33170289636862088 0.30663665096647541 0 0.3143899840562781 0.30732118102087269 0 0.33170289636862088 0.30663665096647541 0 0.3292579820075448 0.29357651780203597 0 0.33170289636862088 0.30663665096647541 0 0.33958459709277761 0.29607521625869471 0 0.35512038363218928 0.30240025980037732 0 0.33170289636862088 0.30663665096647541 0 0.3292579820075448 0.29357651780203597 0 0.33958459709277761 0.29607521625869471 0 0.31988913808627878 0.27814654644892178 0 0.3292579820075448 0.29357651780203597 0 0.34379095829174139 0.28367187861656512 0 0.3292579820075448 0.29357651780203597 0 0.33958459709277761 0.29607521625869471 0 0.34379095829174139 0.28367187861656512 0 0.33958459709277761 0.29607521625869471 0 0.34379095829174139 0.28367187861656512 0 0.35512038363218928 0.30240025980037732 0 0.34379095829174139 0.28367187861656512 0 0.35512038363218928 0.30240025980037732 0 0.36561841316174232 0.28530600046300292 0 0.35771634269531127 0.31791095471892478 0 0.33170289636862088 0.30663665096647541 0 0.35512038363218928 0.30240025980037732 0 0.35771634269531127 0.31791095471892478 0 0.33170289636862088 0.30663665096647541 0 0.35512038363218928 0.30240025980037732 0 0.36939539495710833 0.30854513180684351 0 0.38073501833434981 0.29829023857975828 0 0.35512038363218928 0.30240025980037732 0 0.38073501833434981 0.29829023857975828 0 0.35771634269531127 0.31791095471892478 0 0.35512038363218928 0.30240025980037732 0 0.36939539495710833 0.30854513180684351 0 0.37472895794248501 0.31550722054144797 0 0.36939539495710833 0.30854513180684351 0 0.37867627218120631 0.30861698539370919 0 0.36561841316174232 0.28530600046300292 0 0.37020877342339947 0.27533476891673098 0 0.38073501833434981 0.29829023857975828 0 0.35512038363218928 0.30240025980037732 0 0.36561841316174232 0.28530600046300292 0 0.38073501833434981 0.29829023857975828 0 0.36561841316174232 0.28530600046300292 0 0.37020877342339947 0.27533476891673098 0 0.36561841316174232 0.28530600046300292 0 0.37020877342339947 0.27533476891673098 0 0.34779853276984413 0.26215334039684829 0 0.37020877342339947 0.27533476891673098 0 0.36083912985981348 0.24913549553757319 0 0.38206125475814667 0.24958867731389359 0 0.37020877342339947 0.27533476891673098 0 0.34779853276984413 0.26215334039684829 0 0.36083912985981348 0.24913549553757319 0 0.34379095829174139 0.28367187861656512 0 0.36561841316174232 0.28530600046300292 0 0.34779853276984413 0.26215334039684829 0 0.37020877342339947 0.27533476891673098 0 0.34779853276984413 0.26215334039684829 0 0.40607724214345892 0.27769938249506909 0 0.39176719638803931 0.26829413317901002 0 0.41186466019954732 0.2622657206562346 0 0.40607724214345892 0.27769938249506909 0 0.39176719638803931 0.26829413317901002 0 0.39503557293764319 0.28993758770093031 0 0.39176719638803931 0.26829413317901002 0 0.40604663183827611 0.24222092895334069 0 0.38206125475814667 0.24958867731389359 0 0.39176719638803931 0.26829413317901002 0 0.41186466019954732 0.2622657206562346 0 0.40604663183827611 0.24222092895334069 0 0.37020877342339947 0.27533476891673098 0 0.39176719638803931 0.26829413317901002 0 0.38206125475814667 0.24958867731389359 0 0.37020877342339947 0.27533476891673098 0 0.38206125475814667 0.24958867731389359 0 0.37020877342339947 0.27533476891673098 0 0.39176719638803931 0.26829413317901002 0 0.39503557293764319 0.28993758770093031 0 0.37020877342339947 0.27533476891673098 0 0.38073501833434981 0.29829023857975828 0 0.39503557293764319 0.28993758770093031 0 0.37020877342339947 0.27533476891673098 0 0.39503557293764319 0.28993758770093031 0 0.38073501833434981 0.29829023857975828 0 0.39792806090674449 0.3071898739509758 0 0.38817498791584981 0.31316171144430482 0 0.37867627218120631 0.30861698539370919 0 0.38073501833434981 0.29829023857975828 0 0.38817498791584981 0.31316171144430482 0 0.37472895794248501 0.31550722054144797 0 0.37867627218120631 0.30861698539370919 0 0.38817498791584981 0.31316171144430482 0 0.36939539495710833 0.30854513180684351 0 0.37867627218120631 0.30861698539370919 0 0.38073501833434981 0.29829023857975828 0 0.38073501833434981 0.29829023857975828 0 0.39792806090674449 0.3071898739509758 0 0.40634965303651011 0.29418021735913952 0 0.39792806090674449 0.3071898739509758 0 0.39649907274880702 0.31550894877057661 0 0.38817498791584981 0.31316171144430482 0 0.39792806090674449 0.3071898739509758 0 0.40634965303651011 0.29418021735913952 0 0.40886081965842352 0.30844225178462542 0 0.39792806090674449 0.3071898739509758 0 0.40886081965842352 0.30844225178462542 0 0.40419991039170761 0.31760194929573932 0 0.38073501833434981 0.29829023857975828 0 0.39503557293764319 0.28993758770093031 0 0.40634965303651011 0.29418021735913952 0 0.40607724214345892 0.27769938249506909 0 0.39503557293764319 0.28993758770093031 0 0.40634965303651011 0.29418021735913952 0 0.38073501833434981 0.29829023857975828 0 0.40634965303651011 0.29418021735913952 0 0.40634965303651011 0.29418021735913952 0 0.4216156668419172 0.30627080459198558 0 0.43196428773867029 0.29007019613852048 0 0.40634965303651011 0.29418021735913952 0 0.43196428773867029 0.29007019613852048 0 0.40607724214345892 0.27769938249506909 0 0.40634965303651011 0.29418021735913952 0 0.42230322522903979 0.27492776793443308 0 0.40634965303651011 0.29418021735913952 0 0.43196428773867029 0.29007019613852048 0 0.42230322522903979 0.27492776793443308 0 0.40634965303651011 0.29418021735913952 0 0.40886081965842352 0.30844225178462542 0 0.4216156668419172 0.30627080459198558 0 0.40886081965842352 0.30844225178462542 0 0.4216156668419172 0.30627080459198558 0 0.41421080711523828 0.31696841372528689 0 0.4216156668419172 0.30627080459198558 0 0.43196428773867029 0.29007019613852048 0 0.4394779674401415 0.30688967390460242 0 0.4216156668419172 0.30627080459198558 0 0.4394779674401415 0.30688967390460242 0 0.42935326040146821 0.32199002092562512 0 0.43196428773867029 0.29007019613852048 0 0.42230322522903979 0.27492776793443308 0 0.44392037998397449 0.27022839011935967 0 0.42230322522903979 0.27492776793443308 0 0.42889529200320847 0.25303008029564289 0 0.44392037998397449 0.27022839011935967 0 0.40607724214345892 0.27769938249506909 0 0.42230322522903979 0.27492776793443308 0 0.41186466019954732 0.2622657206562346 0 0.41186466019954732 0.2622657206562346 0 0.42889529200320847 0.25303008029564289 0 0.40604663183827611 0.24222092895334069 0 0.42230322522903979 0.27492776793443308 0 0.41186466019954732 0.2622657206562346 0 0.42889529200320847 0.25303008029564289 0 0.42889529200320847 0.25303008029564289 0 0.45095767982717339 0.2516030008942155 0 0.44392037998397449 0.27022839011935967 0 0.5 0.26776742217061072 0 0.46892701935690739 0.29481950255521272 0 0.4744563855037533 0.35477230099091261 0 0.44392037998397449 0.27022839011935967 0 0.45869888629496081 0.28014712678774001 0 0.45071916439200738 0.29205092407883471 0 0.45869888629496081 0.28014712678774001 0 0.46658482199607421 0.2641796619238409 0 0.46892701935690739 0.29481950255521272 0 0.44392037998397449 0.27022839011935967 0 0.45869888629496081 0.28014712678774001 0 0.46658482199607421 0.2641796619238409 0 0.45095767982717339 0.2516030008942155 0 0.44392037998397449 0.27022839011935967 0 0.46658482199607421 0.2641796619238409 0 0.45095767982717339 0.2516030008942155 0 0.46658482199607421 0.2641796619238409 0 0.46307205025087572 0.24152961596284159 0 0.46658482199607421 0.2641796619238409 0 0.5 0.26776742217061072 0 0.48051773825862748 0.24316257497690641 0 0.46658482199607421 0.2641796619238409 0 0.5 0.26776742217061072 0 0.46892701935690739 0.29481950255521272 0 0.46892701935690739 0.29481950255521272 0 0.46132644553738988 0.31015065496757299 0 0.45071916439200738 0.29205092407883471 0 0.45869888629496081 0.28014712678774001 0 0.46892701935690739 0.29481950255521272 0 0.45071916439200738 0.29205092407883471 0 0.43196428773867029 0.29007019613852048 0 0.45071916439200738 0.29205092407883471 0 0.4394779674401415 0.30688967390460242 0 0.43196428773867029 0.29007019613852048 0 0.44392037998397449 0.27022839011935967 0 0.45071916439200738 0.29205092407883471 0 0.46132644553738988 0.31015065496757299 0 0.45071916439200738 0.29205092407883471 0 0.4394779674401415 0.30688967390460242 0 0.44775043047180357 0.32081450615603191 0 0.4424915868006794 0.33640718108372081 0 0.42935326040146821 0.32199002092562512 0 0.46132644553738988 0.31015065496757299 0 0.45928765691476681 0.33268133536300531 0 0.4744563855037533 0.35477230099091261 0 0.46132644553738988 0.31015065496757299 0 0.4394779674401415 0.30688967390460242 0 0.44775043047180357 0.32081450615603191 0 0.4394779674401415 0.30688967390460242 0 0.44775043047180357 0.32081450615603191 0 0.42935326040146821 0.32199002092562512 0 0.46892701935690739 0.29481950255521272 0 0.46132644553738988 0.31015065496757299 0 0.4744563855037533 0.35477230099091261 0 0.5 0.26776742217061072 0 0.4744563855037533 0.35477230099091261 0 0.5 0.38218688082651342 0 0.4424915868006794 0.33640718108372081 0 0.45928765691476681 0.33268133536300531 0 0.45724886829214351 0.35521201575843753 0 0.44775043047180357 0.32081450615603191 0 0.4424915868006794 0.33640718108372081 0 0.45928765691476681 0.33268133536300531 0 0.46132644553738988 0.31015065496757299 0 0.44775043047180357 0.32081450615603191 0 0.45928765691476681 0.33268133536300531 0 0.46132644553738988 0.31015065496757299 0 0.45928765691476681 0.33268133536300531 0 0.4744563855037533 0.35477230099091261 0 0.4664812215634086 0.38012013624496521 0 0.5 0.38218688082651342 0 0.4744563855037533 0.35477230099091261 0 0.4664812215634086 0.38012013624496521 0 0.4744563855037533 0.35477230099091261 0 0.46334913875720651 0.36696178728704631 0 0.4664812215634086 0.38012013624496521 0 0.46334913875720651 0.36696178728704631 0 0.45724886829214351 0.35521201575843753 0 0.45521007966952032 0.37774269615386991 0 0.45724886829214351 0.35521201575843753 0 0.45521007966952032 0.37774269615386991 0 0.45724886829214351 0.35521201575843753 0 0.44817328548063989 0.36454661661699062 0 0.45521007966952032 0.37774269615386991 0 0.46334913875720651 0.36696178728704631 0 0.45521007966952032 0.37774269615386991 0 0.4664812215634086 0.38012013624496521 0 0.4744563855037533 0.35477230099091261 0 0.46334913875720651 0.36696178728704631 0 0.45724886829214351 0.35521201575843753 0 0.45928765691476681 0.33268133536300531 0 0.4744563855037533 0.35477230099091261 0 0.45724886829214351 0.35521201575843753 0 0.45928765691476681 0.33268133536300531 0 0.45724886829214351 0.35521201575843753 0 0.4424915868006794 0.33640718108372081 0 0.45724886829214351 0.35521201575843753 0 0.43575668167538212 0.35173386597627321 0 0.45724886829214351 0.35521201575843753 0 0.44817328548063989 0.36454661661699062 0 0.43575668167538212 0.35173386597627321 0 0.4478062579380831 0.37413884582092038 0 0.43873713396489178 0.36494574650753703 0 0.43192784699413489 0.37303701948332457 0 0.4478062579380831 0.37413884582092038 0 0.44817328548063989 0.36454661661699062 0 0.45521007966952032 0.37774269615386991 0 0.44817328548063989 0.36454661661699062 0 0.43873713396489178 0.36494574650753703 0 0.43575668167538212 0.35173386597627321 0 0.4478062579380831 0.37413884582092038 0 0.44817328548063989 0.36454661661699062 0 0.43873713396489178 0.36494574650753703 0 0.43873713396489178 0.36494574650753703 0 0.42696789480462932 0.36179242820621849 0 0.43575668167538212 0.35173386597627321 0 0.43873713396489178 0.36494574650753703 0 0.43192784699413489 0.37303701948332457 0 0.42696789480462932 0.36179242820621849 0 0.43192784699413489 0.37303701948332457 0 0.42696789480462932 0.36179242820621849 0 0.41822119890699833 0.37126524873438288 0 0.42696789480462932 0.36179242820621849 0 0.41822119890699833 0.37126524873438288 0 0.41344283339688043 0.35747745658086161 0 0.41822119890699833 0.37126524873438288 0 0.41344283339688043 0.35747745658086161 0 0.4043931483687826 0.36943856651623719 0 0.41822119890699833 0.37126524873438288 0 0.4043931483687826 0.36943856651623719 0 0.40808084241684078 0.3807928051824212 0 0.40725438771253392 0.35130792578067749 0 0.41547380693871688 0.34294320871839867 0 0.39819659026815363 0.35002097606450833 0 0.40725438771253392 0.35130792578067749 0 0.41444925350555961 0.35150117213534449 0 0.41547380693871688 0.34294320871839867 0 0.40725438771253392 0.35130792578067749 0 0.41344283339688043 0.35747745658086161 0 0.399339301059361 0.35754738949915021 0 0.40725438771253392 0.35130792578067749 0 0.41344283339688043 0.35747745658086161 0 0.41444925350555961 0.35150117213534449 0 0.41344283339688043 0.35747745658086161 0 0.41444925350555961 0.35150117213534449 0 0.42189818802854401 0.35364803973933401 0 0.42696789480462932 0.36179242820621849 0 0.41344283339688043 0.35747745658086161 0 0.42189818802854401 0.35364803973933401 0 0.41444925350555961 0.35150117213534449 0 0.42189818802854401 0.35364803973933401 0 0.41547380693871688 0.34294320871839867 0 0.42189818802854401 0.35364803973933401 0 0.43575668167538212 0.35173386597627321 0 0.41547380693871688 0.34294320871839867 0 0.43575668167538212 0.35173386597627321 0 0.41547380693871688 0.34294320871839867 0 0.42696789480462932 0.36179242820621849 0 0.42189818802854401 0.35364803973933401 0 0.43575668167538212 0.35173386597627321 0 0.4424915868006794 0.33640718108372081 0 0.42477105937138271 0.33647537161932428 0 0.42935326040146821 0.32199002092562512 0 0.4424915868006794 0.33640718108372081 0 0.43575668167538212 0.35173386597627321 0 0.42477105937138271 0.33647537161932428 0 0.43575668167538212 0.35173386597627321 0 0.42477105937138271 0.33647537161932428 0 0.41547380693871688 0.34294320871839867 0 0.42477105937138271 0.33647537161932428 0 0.42935326040146821 0.32199002092562512 0 0.41822920063266711 0.3269698572687354 0 0.4216156668419172 0.30627080459198558 0 0.42935326040146821 0.32199002092562512 0 0.41421080711523828 0.31696841372528689 0 0.41421080711523828 0.31696841372528689 0 0.41822920063266711 0.3269698572687354 0 0.41095098751352849 0.32402894009384359 0 0.42935326040146821 0.32199002092562512 0 0.41421080711523828 0.31696841372528689 0 0.41822920063266711 0.3269698572687354 0 0.41095098751352849 0.32402894009384359 0 0.41251014829712651 0.33191286042823598 0 0.4056048711309031 0.32669161975122007 0 0.41095098751352849 0.32402894009384359 0 0.40419991039170761 0.31760194929573932 0 0.4056048711309031 0.32669161975122007 0 0.41822920063266711 0.3269698572687354 0 0.41095098751352849 0.32402894009384359 0 0.41251014829712651 0.33191286042823598 0 0.41421080711523828 0.31696841372528689 0 0.41095098751352849 0.32402894009384359 0 0.40419991039170761 0.31760194929573932 0 0.40886081965842352 0.30844225178462542 0 0.41421080711523828 0.31696841372528689 0 0.40419991039170761 0.31760194929573932 0 0.42477105937138271 0.33647537161932428 0 0.41547380693871688 0.34294320871839867 0 0.40974323534869178 0.34045956222382368 0 0.42477105937138271 0.33647537161932428 0 0.41251014829712651 0.33191286042823598 0 0.40974323534869178 0.34045956222382368 0 0.42477105937138271 0.33647537161932428 0 0.41822920063266711 0.3269698572687354 0 0.41251014829712651 0.33191286042823598 0 0.41251014829712651 0.33191286042823598 0 0.40145627511592991 0.33046631225318812 0 0.4056048711309031 0.32669161975122007 0 0.41251014829712651 0.33191286042823598 0 0.40974323534869178 0.34045956222382368 0 0.40145627511592991 0.33046631225318812 0 0.41547380693871688 0.34294320871839867 0 0.40974323534869178 0.34045956222382368 0 0.41547380693871688 0.34294320871839867 0 0.38533089315871227 0.34193328573644149 0 0.40974323534869178 0.34045956222382368 0 0.40145627511592991 0.33046631225318812 0 0.38372978902200161 0.32918525847137431 0 0.40974323534869178 0.34045956222382368 0 0.38372978902200161 0.32918525847137431 0 0.41547380693871688 0.34294320871839867 0 0.40974323534869178 0.34045956222382368 0 0.38533089315871227 0.34193328573644149 0 0.40974323534869178 0.34045956222382368 0 0.38372978902200161 0.32918525847137431 0 0.38533089315871227 0.34193328573644149 0 0.40145627511592991 0.33046631225318812 0 0.39569333178092608 0.32408226039128668 0 0.38372978902200161 0.32918525847137431 0 0.39792806090674449 0.3071898739509758 0 0.40419991039170761 0.31760194929573932 0 0.39649907274880702 0.31550894877057661 0 0.40419991039170761 0.31760194929573932 0 0.39569333178092608 0.32408226039128668 0 0.39649907274880702 0.31550894877057661 0 0.40145627511592991 0.33046631225318812 0 0.4056048711309031 0.32669161975122007 0 0.39569333178092608 0.32408226039128668 0 0.40419991039170761 0.31760194929573932 0 0.4056048711309031 0.32669161975122007 0 0.39569333178092608 0.32408226039128668 0 0.39569333178092608 0.32408226039128668 0 0.39649907274880702 0.31550894877057661 0 0.38817498791584981 0.31316171144430482 0 0.39569333178092608 0.32408226039128668 0 0.38817498791584981 0.31316171144430482 0 0.38372978902200161 0.32918525847137431 0 0.37472895794248501 0.31550722054144797 0 0.38817498791584981 0.31316171144430482 0 0.38372978902200161 0.32918525847137431 0 0.36782465737738818 0.33023566754044598 0 0.38372978902200161 0.32918525847137431 0 0.38533089315871227 0.34193328573644149 0 0.37289207530280949 0.36561539260536879 0 0.36969699905057951 0.35149713060627391 0 0.385949038149073 0.3555738810010175 0 0.36969699905057951 0.35149713060627391 0 0.38533089315871227 0.34193328573644149 0 0.385949038149073 0.3555738810010175 0 0.38533089315871227 0.34193328573644149 0 0.385949038149073 0.3555738810010175 0 0.39819659026815363 0.35002097606450833 0 0.37066327734310889 0.3919173187360443 0 0.37289207530280949 0.36561539260536879 0 0.39023837005482281 0.36682911149436248 0 0.37289207530280949 0.36561539260536879 0 0.385949038149073 0.3555738810010175 0 0.39023837005482281 0.36682911149436248 0 0.39023837005482281 0.36682911149436248 0 0.4043931483687826 0.36943856651623719 0 0.399339301059361 0.35754738949915021 0 0.385949038149073 0.3555738810010175 0 0.39023837005482281 0.36682911149436248 0 0.399339301059361 0.35754738949915021 0 0.39023837005482281 0.36682911149436248 0 0.4043931483687826 0.36943856651623719 0 0.39544018780827611 0.38076860707975779 0 0.41344283339688043 0.35747745658086161 0 0.4043931483687826 0.36943856651623719 0 0.399339301059361 0.35754738949915021 0 0.41547380693871688 0.34294320871839867 0 0.38533089315871227 0.34193328573644149 0 0.39819659026815363 0.35002097606450833 0 0.40725438771253392 0.35130792578067749 0 0.399339301059361 0.35754738949915021 0 0.39819659026815363 0.35002097606450833 0 0.385949038149073 0.3555738810010175 0 0.399339301059361 0.35754738949915021 0 0.39819659026815363 0.35002097606450833 0 0.39991342657982842 0.39642945524070328 0 0.39544018780827611 0.38076860707975779 0 0.40808084241684078 0.3807928051824212 0 0.4043931483687826 0.36943856651623719 0 0.39544018780827611 0.38076860707975779 0 0.40808084241684078 0.3807928051824212 0 0.37066327734310889 0.3919173187360443 0 0.39023837005482281 0.36682911149436248 0 0.39544018780827611 0.38076860707975779 0 0.37066327734310889 0.3919173187360443 0 0.39991342657982842 0.39642945524070328 0 0.39544018780827611 0.38076860707975779 0 0.37066327734310889 0.3919173187360443 0 0.39991342657982842 0.39642945524070328 0 0.37795337906107629 0.42139232649848579 0 0.37066327734310889 0.3919173187360443 0 0.39991342657982842 0.39642945524070328 0 0.37795337906107629 0.42139232649848579 0 0.40287333655568969 0.4387392969579339 0 0.38688384976119988 0.45000345338151698 0 0.37795337906107629 0.42139232649848579 0 0.39856009499275269 0.4195355633387815 0 0.40287333655568969 0.4387392969579339 0 0.39856009499275269 0.4195355633387815 0 0.41601845618611838 0.41984044435164752 0 0.40287333655568969 0.4387392969579339 0 0.39991342657982842 0.39642945524070328 0 0.39856009499275269 0.4195355633387815 0 0.41601845618611838 0.41984044435164752 0 0.39991342657982842 0.39642945524070328 0 0.37795337906107629 0.42139232649848579 0 0.39856009499275269 0.4195355633387815 0 0.41601845618611838 0.41984044435164752 0 0.42870335573571228 0.43635758940424668 0 0.40287333655568969 0.4387392969579339 0 0.41601845618611838 0.41984044435164752 0 0.40287333655568969 0.4387392969579339 0 0.41601845618611838 0.41984044435164752 0 0.42870335573571228 0.43635758940424668 0 0.43686331413452839 0.41856745146380397 0 0.41601845618611838 0.41984044435164752 0 0.43686331413452839 0.41856745146380397 0 0.42916357581654802 0.40094159174536181 0 0.41601845618611838 0.41984044435164752 0 0.42916357581654802 0.40094159174536181 0 0.42916357581654802 0.40094159174536181 0 0.42243625042031868 0.38606214834102498 0 0.43848491687731511 0.38754021878314082 0 0.42916357581654802 0.40094159174536181 0 0.43848491687731511 0.38754021878314082 0 0.39991342657982842 0.39642945524070328 0 0.41601845618611838 0.41984044435164752 0 0.42916357581654802 0.40094159174536181 0 0.39991342657982842 0.39642945524070328 0 0.42916357581654802 0.40094159174536181 0 0.42243625042031868 0.38606214834102498 0 0.39991342657982842 0.39642945524070328 0 0.42916357581654802 0.40094159174536181 0 0.39991342657982842 0.39642945524070328 0 0.40808084241684078 0.3807928051824212 0 0.42243625042031868 0.38606214834102498 0 0.41822119890699833 0.37126524873438288 0 0.40808084241684078 0.3807928051824212 0 0.42243625042031868 0.38606214834102498 0 0.43192784699413489 0.37303701948332457 0 0.42243625042031868 0.38606214834102498 0 0.43848491687731511 0.38754021878314082 0 0.43192784699413489 0.37303701948332457 0 0.41822119890699833 0.37126524873438288 0 0.42243625042031868 0.38606214834102498 0 0.44892353895489839 0.38675088130945029 0 0.45317129104689707 0.40027337654930228 0 0.45521007966952032 0.37774269615386991 0 0.4478062579380831 0.37413884582092038 0 0.43848491687731511 0.38754021878314082 0 0.44882786822586151 0.38144723375148859 0 0.5 0.38218688082651342 0 0.49405465749444499 0.41095170882531501 0 0.5 0.5 0 0.4478062579380831 0.37413884582092038 0 0.43192784699413489 0.37303701948332457 0 0.43848491687731511 0.38754021878314082 0 0.4478062579380831 0.37413884582092038 0 0.43848491687731511 0.38754021878314082 0 0.43848491687731511 0.38754021878314082 0 0.44892353895489839 0.38675088130945029 0 0.44882786822586151 0.38144723375148859 0 0.44892353895489839 0.38675088130945029 0 0.44882786822586151 0.38144723375148859 0 0.45521007966952032 0.37774269615386991 0 0.4478062579380831 0.37413884582092038 0 0.44882786822586151 0.38144723375148859 0 0.45521007966952032 0.37774269615386991 0 0.42916357581654802 0.40094159174536181 0 0.43848491687731511 0.38754021878314082 0 0.45317129104689707 0.40027337654930228 0 0.42916357581654802 0.40094159174536181 0 0.45850605762306262 0.40546797149901742 0 0.42916357581654802 0.40094159174536181 0 0.45317129104689707 0.40027337654930228 0 0.45850605762306262 0.40546797149901742 0 0.43848491687731511 0.38754021878314082 0 0.44892353895489839 0.38675088130945029 0 0.45317129104689707 0.40027337654930228 0 0.45850605762306262 0.40546797149901742 0 0.4664812215634086 0.38012013624496521 0 0.47628035755875392 0.4082098401621661 0 0.45850605762306262 0.40546797149901742 0 0.45834216247572213 0.39090104511178858 0 0.4664812215634086 0.38012013624496521 0 0.45850605762306262 0.40546797149901742 0 0.4664812215634086 0.38012013624496521 0 0.45317129104689707 0.40027337654930228 0 0.45850605762306262 0.40546797149901742 0 0.45834216247572213 0.39090104511178858 0 0.45317129104689707 0.40027337654930228 0 0.45521007966952032 0.37774269615386991 0 0.45317129104689707 0.40027337654930228 0 0.45834216247572213 0.39090104511178858 0 0.45521007966952032 0.37774269615386991 0 0.45834216247572213 0.39090104511178858 0 0.45521007966952032 0.37774269615386991 0 0.4664812215634086 0.38012013624496521 0 0.4664812215634086 0.38012013624496521 0 0.5 0.38218688082651342 0 0.47628035755875392 0.4082098401621661 0 0.5 0.38218688082651342 0 0.49405465749444499 0.41095170882531501 0 0.47628035755875392 0.4082098401621661 0 0.49405465749444499 0.41095170882531501 0 0.47963362803360238 0.42176580783950651 0 0.47982216293327368 0.44181379244336949 0 0.49405465749444499 0.41095170882531501 0 0.47628035755875392 0.4082098401621661 0 0.49405465749444499 0.41095170882531501 0 0.47963362803360238 0.42176580783950651 0 0.47628035755875392 0.4082098401621661 0 0.47963362803360238 0.42176580783950651 0 0.47628035755875392 0.4082098401621661 0 0.46837733414793697 0.42608788992717539 0 0.47963362803360238 0.42176580783950651 0 0.46837733414793697 0.42608788992717539 0 0.47982216293327368 0.44181379244336949 0 0.46837733414793697 0.42608788992717539 0 0.45066171642882358 0.43040000672180517 0 0.46081559970033958 0.4452160280060331 0 0.45850605762306262 0.40546797149901742 0 0.47628035755875392 0.4082098401621661 0 0.46837733414793697 0.42608788992717539 0 0.45850605762306262 0.40546797149901742 0 0.46837733414793697 0.42608788992717539 0 0.45066171642882358 0.43040000672180517 0 0.45850605762306262 0.40546797149901742 0 0.47628035755875392 0.4082098401621661 0 0.45850605762306262 0.40546797149901742 0 0.45066171642882358 0.43040000672180517 0 0.43686331413452839 0.41856745146380397 0 0.45850605762306262 0.40546797149901742 0 0.45066171642882358 0.43040000672180517 0 0.43686331413452839 0.41856745146380397 0 0.42916357581654802 0.40094159174536181 0 0.45850605762306262 0.40546797149901742 0 0.42870335573571228 0.43635758940424668 0 0.43686331413452839 0.41856745146380397 0 0.45066171642882358 0.43040000672180517 0 0.42870335573571228 0.43635758940424668 0 0.45066171642882358 0.43040000672180517 0 0.44281737523458342 0.45533204194459248 0 0.45066171642882358 0.43040000672180517 0 0.44281737523458342 0.45533204194459248 0 0.46081559970033958 0.4452160280060331 0 0.45066171642882358 0.43040000672180517 0 0.44281737523458342 0.45533204194459248 0 0.49405465749444499 0.41095170882531501 0 0.47982216293327368 0.44181379244336949 0 0.5 0.5 0 0.44281737523458342 0.45533204194459248 0 0.4349730340403431 0.48026407716738018 0 0.46081559970033958 0.4452160280060331 0 0.47982216293327368 0.44181379244336949 0 0.46239940975707972 0.47244640899322249 0 0.44281737523458342 0.45533204194459248 0 0.46081559970033958 0.4452160280060331 0 0.46239940975707972 0.47244640899322249 0 0.46837733414793697 0.42608788992717539 0 0.46081559970033958 0.4452160280060331 0 0.47982216293327368 0.44181379244336949 0 0.5 0.5 0 0.46239940975707972 0.47244640899322249 0 0.44522048074552789 0.5 0 0.47982216293327368 0.44181379244336949 0 0.5 0.5 0 0.46239940975707972 0.47244640899322249 0 0.46239940975707972 0.47244640899322249 0 0.44522048074552789 0.5 0 0.4349730340403431 0.48026407716738018 0 0.44281737523458342 0.45533204194459248 0 0.46239940975707972 0.47244640899322249 0 0.4349730340403431 0.48026407716738018 0 0.44522048074552789 0.5 0 0.4349730340403431 0.48026407716738018 0 0.40448891233450313 0.5 0 0.41316008993094377 0.47736170601598238 0 0.4349730340403431 0.48026407716738018 0 0.40448891233450313 0.5 0 0.41316008993094377 0.47736170601598238 0 0.4349730340403431 0.48026407716738018 0 0.41995375455682521 0.45567512635303659 0 0.44281737523458342 0.45533204194459248 0 0.4349730340403431 0.48026407716738018 0 0.41995375455682521 0.45567512635303659 0 0.42870335573571228 0.43635758940424668 0 0.44281737523458342 0.45533204194459248 0 0.41995375455682521 0.45567512635303659 0 0.42870335573571228 0.43635758940424668 0 0.41995375455682521 0.45567512635303659 0 0.40287333655568969 0.4387392969579339 0 0.41995375455682521 0.45567512635303659 0 0.40289592266469559 0.45801870747629952 0 0.40287333655568969 0.4387392969579339 0 0.41316008993094377 0.47736170601598238 0 0.41995375455682521 0.45567512635303659 0 0.40289592266469559 0.45801870747629952 0 0.41316008993094377 0.47736170601598238 0 0.40289592266469559 0.45801870747629952 0 0.39088285015885887 0.46994019336060339 0 0.40289592266469559 0.45801870747629952 0 0.38688384976119988 0.45000345338151698 0 0.39088285015885887 0.46994019336060339 0 0.40289592266469559 0.45801870747629952 0 0.40287333655568969 0.4387392969579339 0 0.38688384976119988 0.45000345338151698 0 0.3705945277430176 0.44134522703541063 0 0.37795337906107629 0.42139232649848579 0 0.38688384976119988 0.45000345338151698 0 0.36860561038677397 0.46251868070522451 0 0.3705945277430176 0.44134522703541063 0 0.38688384976119988 0.45000345338151698 0 0.36860561038677397 0.46251868070522451 0 0.39088285015885887 0.46994019336060339 0 0.36860561038677397 0.46251868070522451 0 0.38688384976119988 0.45000345338151698 0 0.39088285015885887 0.46994019336060339 0 0.36860561038677397 0.46251868070522451 0 0.37572687517328129 0.48034458252852968 0 0.39088285015885887 0.46994019336060339 0 0.37572687517328129 0.48034458252852968 0 0.39169223431308581 0.48552929638102382 0 0.39088285015885887 0.46994019336060339 0 0.37420244396784258 0.500000000000002 0 0.40448891233450313 0.5 0 0.39169223431308581 0.48552929638102382 0 0.37420244396784258 0.500000000000002 0 0.37572687517328129 0.48034458252852968 0 0.39169223431308581 0.48552929638102382 0 0.41316008993094377 0.47736170601598238 0 0.40448891233450313 0.5 0 0.39169223431308581 0.48552929638102382 0 0.41316008993094377 0.47736170601598238 0 0.39088285015885887 0.46994019336060339 0 0.41316008993094377 0.47736170601598238 0 0.39169223431308581 0.48552929638102382 0 0.39088285015885887 0.46994019336060339 0 0.34293781640415338 0.087292218529047089 0 0.32116753328673259 0.091981683751102827 0 0.33366928850209171 0.10172474599342381 0 0.34293781640415338 0.087292218529047089 0 0.33003433635438628 0.073719362038793548 0 0.31617120364569801 0.075711138780457224 0 0.34293781640415338 0.087292218529047089 0 0.31617120364569801 0.075711138780457224 0 0.33003433635438628 0.073719362038793548 0 0.35358732366028939 0.068665658686024728 0 0.33003433635438628 0.073719362038793548 0 0.35358732366028939 0.068665658686024728 0 0.33729680427899089 0.059636240372677563 0 0.34293781640415338 0.087292218529047089 0 0.33003433635438628 0.073719362038793548 0 0.35358732366028939 0.068665658686024728 0 0.33003433635438628 0.073719362038793548 0 0.33729680427899089 0.059636240372677563 0 0.3240617327592436 0.060092650422404449 0 0.31617120364569801 0.075711138780457224 0 0.3240617327592436 0.060092650422404449 0 0.30772393368124712 0.057332118614841478 0 0.33003433635438628 0.073719362038793548 0 0.31617120364569801 0.075711138780457224 0 0.3240617327592436 0.060092650422404449 0 0.31617120364569801 0.075711138780457224 0 0.32116753328673259 0.091981683751102827 0 0.31035678071649098 0.08568617399181544 0 0.34293781640415338 0.087292218529047089 0 0.31617120364569801 0.075711138780457224 0 0.32116753328673259 0.091981683751102827 0 0.32116753328673259 0.091981683751102827 0 0.31035678071649098 0.08568617399181544 0 0.3075496865138202 0.096467053973533903 0 0.31676081294145758 0.1060561683469823 0 0.32831003131186559 0.1141704830316722 0 0.33366928850209171 0.10172474599342381 0 0.32116753328673259 0.091981683751102827 0 0.31676081294145758 0.1060561683469823 0 0.33366928850209171 0.10172474599342381 0 0.32116753328673259 0.091981683751102827 0 0.31676081294145758 0.1060561683469823 0 0.3075496865138202 0.096467053973533903 0 0.32831003131186559 0.1141704830316722 0 0.3122880780541169 0.1180758610802294 0 0.3245146634885665 0.12706791928245009 0 0.31676081294145758 0.1060561683469823 0 0.32831003131186559 0.1141704830316722 0 0.3122880780541169 0.1180758610802294 0 0.32831003131186559 0.1141704830316722 0 0.34669391551977508 0.1112449469745317 0 0.33805724807416199 0.1297431271969651 0 0.32831003131186559 0.1141704830316722 0 0.33805724807416199 0.1297431271969651 0 0.3245146634885665 0.12706791928245009 0 0.32831003131186559 0.1141704830316722 0 0.33366928850209171 0.10172474599342381 0 0.34669391551977508 0.1112449469745317 0 0.33366928850209171 0.10172474599342381 0 0.34547685842903042 0.099198013104333363 0 0.34669391551977508 0.1112449469745317 0 0.34293781640415338 0.087292218529047089 0 0.33366928850209171 0.10172474599342381 0 0.34547685842903042 0.099198013104333363 0 0.35860641329010162 0.096530140920330854 0 0.34669391551977508 0.1112449469745317 0 0.36352822570966498 0.1199074593567073 0 0.34293781640415338 0.087292218529047089 0 0.35860641329010162 0.096530140920330854 0 0.36970442916260859 0.098873298277636884 0 0.34293781640415338 0.087292218529047089 0 0.34547685842903042 0.099198013104333363 0 0.35860641329010162 0.096530140920330854 0 0.34547685842903042 0.099198013104333363 0 0.35860641329010162 0.096530140920330854 0 0.34669391551977508 0.1112449469745317 0 0.34669391551977508 0.1112449469745317 0 0.33805724807416199 0.1297431271969651 0 0.35390678597640041 0.13312310803449121 0 0.34669391551977508 0.1112449469745317 0 0.36352822570966498 0.1199074593567073 0 0.35390678597640041 0.13312310803449121 0 0.36352822570966498 0.1199074593567073 0 0.36970442916260859 0.098873298277636884 0 0.37807516818821962 0.1143336682491599 0 0.36352822570966498 0.1199074593567073 0 0.38259697595954079 0.1280995373360688 0 0.37807516818821962 0.1143336682491599 0 0.35860641329010162 0.096530140920330854 0 0.36352822570966498 0.1199074593567073 0 0.35860641329010162 0.096530140920330854 0 0.36352822570966498 0.1199074593567073 0 0.36970442916260859 0.098873298277636884 0 0.36970442916260859 0.098873298277636884 0 0.36137097124462358 0.083164443900838825 0 0.37577154926106882 0.084268762090540045 0 0.34293781640415338 0.087292218529047089 0 0.36137097124462358 0.083164443900838825 0 0.35358732366028939 0.068665658686024728 0 0.34293781640415338 0.087292218529047089 0 0.36970442916260859 0.098873298277636884 0 0.36137097124462358 0.083164443900838825 0 0.34293781640415338 0.087292218529047089 0 0.36970442916260859 0.098873298277636884 0 0.36137097124462358 0.083164443900838825 0 0.37714031096619238 0.063611955333255907 0 0.37577154926106882 0.084268762090540045 0 0.36137097124462358 0.083164443900838825 0 0.35358732366028939 0.068665658686024728 0 0.37714031096619238 0.063611955333255907 0 0.35358732366028939 0.068665658686024728 0 0.37714031096619238 0.063611955333255907 0 0.35358732366028939 0.068665658686024728 0 0.36477455860353691 0.044596483390004972 0 0.37714031096619238 0.063611955333255907 0 0.36477455860353691 0.044596483390004972 0 0.37497075983577061 0.018948531908704831 0 0.34684354477029788 0.030465290920241431 0 0.36477455860353691 0.044596483390004972 0 0.3469599518863431 0.049974705610143937 0 0.34684354477029788 0.030465290920241431 0 0.35358732366028939 0.068665658686024728 0 0.36477455860353691 0.044596483390004972 0 0.3469599518863431 0.049974705610143937 0 0.35358732366028939 0.068665658686024728 0 0.3469599518863431 0.049974705610143937 0 0.33729680427899089 0.059636240372677563 0 0.37497075983577061 0.018948531908704831 0 0.35915158492916199 0.0079260634808653013 0 0.37898781164764822 -0.01117852005808853 0 0.37497075983577061 0.018948531908704831 0 0.34684354477029788 0.030465290920241431 0 0.35915158492916199 0.0079260634808653013 0 0.34684354477029788 0.030465290920241431 0 0.35915158492916199 0.0079260634808653013 0 0.33938907275826552 0.01063358945049037 0 0.35915158492916199 0.0079260634808653013 0 0.33938907275826552 0.01063358945049037 0 0.35556673563382762 -0.0092385748170215991 0 0.33938907275826552 0.01063358945049037 0 0.32125639535210132 0.011525324495911839 0 0.33214565962000692 -0.0072986295759546668 0 0.34684354477029788 0.030465290920241431 0 0.33938907275826552 0.01063358945049037 0 0.32094170856369569 0.029577279443373058 0 0.34684354477029788 0.030465290920241431 0 0.32094170856369569 0.029577279443373058 0 0.32094170856369569 0.029577279443373058 0 0.32125639535210132 0.011525324495911839 0 0.31050366710434679 0.020516156039299929 0 0.33938907275826552 0.01063358945049037 0 0.32094170856369569 0.029577279443373058 0 0.32125639535210132 0.011525324495911839 0 0.32125639535210132 0.011525324495911839 0 0.31483687449220549 0.002832224057131111 0 0.33214565962000692 -0.0072986295759546668 0 0.32125639535210132 0.011525324495911839 0 0.30969621282895171 0.01160010063091353 0 0.31050366710434679 0.020516156039299929 0 0.32125639535210132 0.011525324495911839 0 0.31483687449220549 0.002832224057131111 0 0.30969621282895171 0.01160010063091353 0 0.33729680427899089 0.059636240372677563 0 0.33229752811860069 0.046509854681771018 0 0.3240617327592436 0.060092650422404449 0 0.3469599518863431 0.049974705610143937 0 0.33729680427899089 0.059636240372677563 0 0.33229752811860069 0.046509854681771018 0 0.3469599518863431 0.049974705610143937 0 0.34684354477029788 0.030465290920241431 0 0.33229752811860069 0.046509854681771018 0 0.34684354477029788 0.030465290920241431 0 0.32094170856369569 0.029577279443373058 0 0.33229752811860069 0.046509854681771018 0 0.32094170856369569 0.029577279443373058 0 0.33229752811860069 0.046509854681771018 0 0.3178811683511979 0.047218804517551012 0 0.32094170856369569 0.029577279443373058 0 0.3178811683511979 0.047218804517551012 0 0.30438093863320231 0.042582119425365023 0 0.3178811683511979 0.047218804517551012 0 0.3240617327592436 0.060092650422404449 0 0.30772393368124712 0.057332118614841478 0 0.33229752811860069 0.046509854681771018 0 0.3178811683511979 0.047218804517551012 0 0.3240617327592436 0.060092650422404449 0 0.30772393368124712 0.057332118614841478 0 0.29779098592544562 0.052779850837777358 0 0.28940459088724302 0.064130059031866693 0 0.30772393368124712 0.057332118614841478 0 0.29779098592544562 0.052779850837777358 0 0.30438093863320231 0.042582119425365023 0 0.29779098592544562 0.052779850837777358 0 0.30438093863320231 0.042582119425365023 0 0.28965448050009052 0.047075106279035522 0 0.3178811683511979 0.047218804517551012 0 0.30772393368124712 0.057332118614841478 0 0.30438093863320231 0.042582119425365023 0 0.32094170856369569 0.029577279443373058 0 0.30438093863320231 0.042582119425365023 0 0.29503987235709361 0.028689267966503989 0 0.28965448050009052 0.047075106279035522 0 0.29503987235709361 0.028689267966503989 0 0.28992643889377823 0.028513960410491781 0 0.28965448050009052 0.047075106279035522 0 0.29503987235709361 0.028689267966503989 0 0.28188835542846957 0.040158609786560467 0 0.28965448050009052 0.047075106279035522 0 0.28992643889377823 0.028513960410491781 0 0.28965448050009052 0.047075106279035522 0 0.28992643889377823 0.028513960410491781 0 0.30438093863320231 0.042582119425365023 0 0.28965448050009052 0.047075106279035522 0 0.29503987235709361 0.028689267966503989 0 0.28188835542846957 0.040158609786560467 0 0.28992643889377823 0.028513960410491781 0 0.28168211408134192 0.02823131423073668 0 0.28188835542846957 0.040158609786560467 0 0.28965448050009052 0.047075106279035522 0 0.27841913892968401 0.050754215378281051 0 0.28965448050009052 0.047075106279035522 0 0.28940459088724302 0.064130059031866693 0 0.28519270297659249 0.062307706303653891 0 0.28965448050009052 0.047075106279035522 0 0.28940459088724302 0.064130059031866693 0 0.29779098592544562 0.052779850837777358 0 0.28965448050009052 0.047075106279035522 0 0.28940459088724302 0.064130059031866693 0 0.28519270297659249 0.062307706303653891 0 0.28965448050009052 0.047075106279035522 0 0.27841913892968401 0.050754215378281051 0 0.28519270297659249 0.062307706303653891 0 0.28965448050009052 0.047075106279035522 0 0.30236152105378 0.0036930090696695372 0 0.29012509451929769 0.0149557245607731 0 0.30272876338121668 -0.0048620563018758464 0 0.31483687449220549 0.002832224057131111 0 0.30236152105378 0.0036930090696695372 0 0.30872458360618632 -0.0053586843348857188 0 0.31483687449220549 0.002832224057131111 0 0.30236152105378 0.0036930090696695372 0 0.30969621282895171 0.01160010063091353 0 0.30236152105378 0.0036930090696695372 0 0.2925997977392446 0.017579423954881521 0 0.30236152105378 0.0036930090696695372 0 0.29824403811713329 0.017750180309561811 0 0.30236152105378 0.0036930090696695372 0 0.30969621282895171 0.01160010063091353 0 0.30187936995323322 0.017860160744624869 0 0.30236152105378 0.0036930090696695372 0 0.29824403811713329 0.017750180309561811 0 0.30187936995323322 0.017860160744624869 0 0.30236152105378 0.0036930090696695372 0 0.29824403811713329 0.017750180309561811 0 0.2925997977392446 0.017579423954881521 0 0.32094170856369569 0.029577279443373058 0 0.29503987235709361 0.028689267966503989 0 0.32094170856369569 0.029577279443373058 0 0.31050366710434679 0.020516156039299929 0 0.29503987235709361 0.028689267966503989 0 0.29824403811713329 0.017750180309561811 0 0.30187936995323322 0.017860160744624869 0 0.29503987235709361 0.028689267966503989 0 0.30187936995323322 0.017860160744624869 0 0.31050366710434679 0.020516156039299929 0 0.29503987235709361 0.028689267966503989 0 0.29824403811713329 0.017750180309561811 0 0.30187936995323322 0.017860160744624869 0 0.30969621282895171 0.01160010063091353 0 0.30187936995323322 0.017860160744624869 0 0.31050366710434679 0.020516156039299929 0 0.29503987235709361 0.028689267966503989 0 0.29223275696489248 0.024919279279063868 0 0.2937776647541257 0.021646597735866531 0 0.28992643889377823 0.028513960410491781 0 0.29003315534465379 0.021230568328148292 0 0.29223275696489248 0.024919279279063868 0 0.28992643889377823 0.028513960410491781 0 0.29003315534465379 0.021230568328148292 0 0.29503987235709361 0.028689267966503989 0 0.28992643889377823 0.028513960410491781 0 0.29503987235709361 0.028689267966503989 0 0.29223275696489248 0.024919279279063868 0 0.28992643889377823 0.028513960410491781 0 0.28550138132365549 0.027677185610149559 0 0.28168211408134192 0.02823131423073668 0 0.2885346940107002 0.017456441543148109 0 0.28992643889377823 0.028513960410491781 0 0.28550138132365549 0.027677185610149559 0 0.28168211408134192 0.02823131423073668 0 0.28992643889377823 0.028513960410491781 0 0.28168211408134192 0.02823131423073668 0 0.28992643889377823 0.028513960410491781 0 0.28550138132365549 0.027677185610149559 0 0.29003315534465379 0.021230568328148292 0 0.28550138132365549 0.027677185610149559 0 0.29003315534465379 0.021230568328148292 0 0.28168211408134192 0.02823131423073668 0 0.2885346940107002 0.017456441543148109 0 0.2740341663592768 0.022489972256945889 0 0.28550138132365549 0.027677185610149559 0 0.2885346940107002 0.017456441543148109 0 0.29003315534465379 0.021230568328148292 0 0.28168211408134192 0.02823131423073668 0 0.2885346940107002 0.017456441543148109 0 0.2885346940107002 0.017456441543148109 0 0.29012509451929769 0.0149557245607731 0 0.29824403811713329 0.017750180309561811 0 0.29503987235709361 0.028689267966503989 0 0.29008776551766308 0.017503426932028578 0 0.29012509451929769 0.0149557245607731 0 0.29824403811713329 0.017750180309561811 0 0.29503987235709361 0.028689267966503989 0 0.2937776647541257 0.021646597735866531 0 0.2885346940107002 0.017456441543148109 0 0.29008776551766308 0.017503426932028578 0 0.29012509451929769 0.0149557245607731 0 0.29008776551766308 0.017503426932028578 0 0.2925997977392446 0.017579423954881521 0 0.29012509451929769 0.0149557245607731 0 0.2885346940107002 0.017456441543148109 0 0.29008776551766308 0.017503426932028578 0 0.29008776551766308 0.017503426932028578 0 0.2925997977392446 0.017579423954881521 0 0.2925997977392446 0.017579423954881521 0 0.29003315534465379 0.021230568328148292 0 0.29008776551766308 0.017503426932028578 0 0.29003315534465379 0.021230568328148292 0 0.2885346940107002 0.017456441543148109 0 0.29008776551766308 0.017503426932028578 0 0.29003315534465379 0.021230568328148292 0 0.29008776551766308 0.017503426932028578 0 0.2925997977392446 0.017579423954881521 0 0.29003315534465379 0.021230568328148292 0 0.2925997977392446 0.017579423954881521 0 0.29003315534465379 0.021230568328148292 0 0.2937776647541257 0.021646597735866531 0 0.29223275696489248 0.024919279279063868 0 0.29003315534465379 0.021230568328148292 0 0.2937776647541257 0.021646597735866531 0 0.29824403811713329 0.017750180309561811 0 0.2925997977392446 0.017579423954881521 0 0.2937776647541257 0.021646597735866531 0 0.29824403811713329 0.017750180309561811 0 0.2925997977392446 0.017579423954881521 0 0.29012509451929769 0.0149557245607731 0 0.29725171961803792 -0.0044083980251518858 0 0.30272876338121668 -0.0048620563018758464 0 0.29012509451929769 0.0149557245607731 0 0.27598913265549041 0.002700792776901364 0 0.2905643360198632 -0.0150224844328585 0 0.29012509451929769 0.0149557245607731 0 0.30272876338121668 -0.0048620563018758464 0 0.30236152105378 0.0036930090696695372 0 0.2925997977392446 0.017579423954881521 0 0.29012509451929769 0.0149557245607731 0 0.2885346940107002 0.017456441543148109 0 0.29012509451929769 0.0149557245607731 0 0.27598913265549041 0.002700792776901364 0 0.2885346940107002 0.017456441543148109 0 0.27598913265549041 0.002700792776901364 0 0.26296926762040529 0.01668300548729458 0 0.2885346940107002 0.017456441543148109 0 0.2740341663592768 0.022489972256945889 0 0.26296926762040529 0.01668300548729458 0 0.28168211408134192 0.02823131423073668 0 0.26295058972466029 0.02758912776660603 0 0.28168211408134192 0.02823131423073668 0 0.2740341663592768 0.022489972256945889 0 0.26295058972466029 0.02758912776660603 0 0.28168211408134192 0.02823131423073668 0 0.26295058972466029 0.02758912776660603 0 0.26944609677483022 0.035058538759194693 0 0.2885346940107002 0.017456441543148109 0 0.26296926762040529 0.01668300548729458 0 0.2740341663592768 0.022489972256945889 0 0.26295058972466029 0.02758912776660603 0 0.26296926762040529 0.01668300548729458 0 0.23740384123011041 0.015909569431439341 0 0.26295058972466029 0.02758912776660603 0 0.26296926762040529 0.01668300548729458 0 0.23740384123011041 0.015909569431439341 0 0.26296926762040529 0.01668300548729458 0 0.24360219425436941 0.0024857581900680202 0 0.26296926762040529 0.01668300548729458 0 0.25588371482308608 -0.0061647016811608134 0 0.27598913265549041 0.002700792776901364 0 0.26296926762040529 0.01668300548729458 0 0.25588371482308608 -0.0061647016811608134 0 0.28519270297659249 0.062307706303653891 0 0.27841913892968401 0.050754215378281051 0 0.25864351714315309 0.050820700414198471 0 0.27841913892968401 0.050754215378281051 0 0.27074895923799669 0.045422409077532401 0 0.25864351714315309 0.050820700414198471 0 0.28036694649713179 0.062174997887912517 0 0.25864351714315309 0.050820700414198471 0 0.26185905163455958 0.066340364090568843 0 0.28519270297659249 0.062307706303653891 0 0.25864351714315309 0.050820700414198471 0 0.28519270297659249 0.062307706303653891 0 0.28036694649713179 0.062174997887912517 0 0.25864351714315309 0.050820700414198471 0 0.28188835542846957 0.040158609786560467 0 0.27841913892968401 0.050754215378281051 0 0.27074895923799669 0.045422409077532401 0 0.28168211408134192 0.02823131423073668 0 0.26944609677483022 0.035058538759194693 0 0.27074895923799669 0.045422409077532401 0 0.28188835542846957 0.040158609786560467 0 0.28168211408134192 0.02823131423073668 0 0.27074895923799669 0.045422409077532401 0 0.28168211408134192 0.02823131423073668 0 0.27074895923799669 0.045422409077532401 0 0.26944609677483022 0.035058538759194693 0 0.27074895923799669 0.045422409077532401 0 0.26240272405532178 0.038991303961905088 0 0.27074895923799669 0.045422409077532401 0 0.26240272405532178 0.038991303961905088 0 0.25864351714315309 0.050820700414198471 0 0.24941127910515279 0.036109464950164052 0 0.26295058972466029 0.02758912776660603 0 0.26240272405532178 0.038991303961905088 0 0.26295058972466029 0.02758912776660603 0 0.26944609677483022 0.035058538759194693 0 0.26240272405532178 0.038991303961905088 0 0.24941127910515279 0.036109464950164052 0 0.26240272405532178 0.038991303961905088 0 0.25864351714315309 0.050820700414198471 0 0.24666024164512479 0.069066845306638189 0 0.25864351714315309 0.050820700414198471 0 0.26185905163455958 0.066340364090568843 0 0.24666024164512479 0.069066845306638189 0 0.26185905163455958 0.066340364090568843 0 0.2625581105604271 0.083504717760294028 0 0.2447492746237224 0.1048344376326756 0 0.24538200687215811 0.087263294126548194 0 0.2625581105604271 0.083504717760294028 0 0.24538200687215811 0.087263294126548194 0 0.24666024164512479 0.069066845306638189 0 0.2625581105604271 0.083504717760294028 0 0.2625581105604271 0.083504717760294028 0 0.27356512968973917 0.087284715508075011 0 0.26155298514579067 0.09618130092776081 0 0.2625581105604271 0.083504717760294028 0 0.27356512968973917 0.087284715508075011 0 0.27656712766196201 0.077508732349291204 0 0.27356512968973917 0.087284715508075011 0 0.27656712766196201 0.077508732349291204 0 0.28364580317887328 0.081112696372306253 0 0.27356512968973917 0.087284715508075011 0 0.28364580317887328 0.081112696372306253 0 0.28375414840417468 0.092804687267302455 0 0.28036694649713179 0.062174997887912517 0 0.2625581105604271 0.083504717760294028 0 0.28036694649713179 0.062174997887912517 0 0.26185905163455958 0.066340364090568843 0 0.2625581105604271 0.083504717760294028 0 0.28036694649713179 0.062174997887912517 0 0.2625581105604271 0.083504717760294028 0 0.27656712766196201 0.077508732349291204 0 0.27656712766196201 0.077508732349291204 0 0.28244197628467449 0.071698743677068827 0 0.28364580317887328 0.081112696372306253 0 0.28036694649713179 0.062174997887912517 0 0.27656712766196201 0.077508732349291204 0 0.28244197628467449 0.071698743677068827 0 0.28519270297659249 0.062307706303653891 0 0.28940459088724302 0.064130059031866693 0 0.28244197628467449 0.071698743677068827 0 0.28519270297659249 0.062307706303653891 0 0.28036694649713179 0.062174997887912517 0 0.28244197628467449 0.071698743677068827 0 0.28519270297659249 0.062307706303653891 0 0.28244197628467449 0.071698743677068827 0 0.28940459088724302 0.064130059031866693 0 0.28928034837223637 0.072609604056719859 0 0.28244197628467449 0.071698743677068827 0 0.28519270297659249 0.062307706303653891 0 0.28940459088724302 0.064130059031866693 0 0.28940459088724302 0.064130059031866693 0 0.294289427755073 0.073851687171478816 0 0.28928034837223637 0.072609604056719859 0 0.28940459088724302 0.064130059031866693 0 0.28928034837223637 0.072609604056719859 0 0.294289427755073 0.073851687171478816 0 0.28928034837223637 0.072609604056719859 0 0.29380699855640008 0.082105911870406625 0 0.28940459088724302 0.064130059031866693 0 0.294289427755073 0.073851687171478816 0 0.30466577320441279 0.07656117372692138 0 0.28928034837223637 0.072609604056719859 0 0.28244197628467449 0.071698743677068827 0 0.28364580317887328 0.081112696372306253 0 0.28364580317887328 0.081112696372306253 0 0.28375414840417468 0.092804687267302455 0 0.29380699855640008 0.082105911870406625 0 0.28928034837223637 0.072609604056719859 0 0.28364580317887328 0.081112696372306253 0 0.29380699855640008 0.082105911870406625 0 0.28375414840417468 0.092804687267302455 0 0.29380699855640008 0.082105911870406625 0 0.29553168733579421 0.096019518232800152 0 0.29380699855640008 0.082105911870406625 0 0.30222970693179119 0.087709819727061863 0 0.30466577320441279 0.07656117372692138 0 0.29380699855640008 0.082105911870406625 0 0.30222970693179119 0.087709819727061863 0 0.29553168733579421 0.096019518232800152 0 0.30222970693179119 0.087709819727061863 0 0.3075496865138202 0.096467053973533903 0 0.29553168733579421 0.096019518232800152 0 0.30222970693179119 0.087709819727061863 0 0.31035678071649098 0.08568617399181544 0 0.3075496865138202 0.096467053973533903 0 0.31617120364569801 0.075711138780457224 0 0.31035678071649098 0.08568617399181544 0 0.30466577320441279 0.07656117372692138 0 0.30222970693179119 0.087709819727061863 0 0.31035678071649098 0.08568617399181544 0 0.30466577320441279 0.07656117372692138 0 0.31617120364569801 0.075711138780457224 0 0.28940459088724302 0.064130059031866693 0 0.30466577320441279 0.07656117372692138 0 0.31617120364569801 0.075711138780457224 0 0.28940459088724302 0.064130059031866693 0 0.31617120364569801 0.075711138780457224 0 0.30772393368124712 0.057332118614841478 0 0.28940459088724302 0.064130059031866693 0 0.294289427755073 0.073851687171478816 0 0.29380699855640008 0.082105911870406625 0 0.30466577320441279 0.07656117372692138 0 0.3122880780541169 0.1180758610802294 0 0.30019286658774019 0.11038029811046619 0 0.29927381675924403 0.13002852083960131 0 0.31676081294145758 0.1060561683469823 0 0.3122880780541169 0.1180758610802294 0 0.30019286658774019 0.11038029811046619 0 0.31676081294145758 0.1060561683469823 0 0.30019286658774019 0.11038029811046619 0 0.3075496865138202 0.096467053973533903 0 0.30019286658774019 0.11038029811046619 0 0.3075496865138202 0.096467053973533903 0 0.29553168733579421 0.096019518232800152 0 0.30019286658774019 0.11038029811046619 0 0.29553168733579421 0.096019518232800152 0 0.2856567170208385 0.1066493384480298 0 0.28375414840417468 0.092804687267302455 0 0.29553168733579421 0.096019518232800152 0 0.2856567170208385 0.1066493384480298 0 0.30019286658774019 0.11038029811046619 0 0.28826264884904967 0.1185553539241159 0 0.29927381675924403 0.13002852083960131 0 0.2856567170208385 0.1066493384480298 0 0.28826264884904967 0.1185553539241159 0 0.27642073026315828 0.1160961700510811 0 0.30019286658774019 0.11038029811046619 0 0.2856567170208385 0.1066493384480298 0 0.28826264884904967 0.1185553539241159 0 0.28826264884904967 0.1185553539241159 0 0.27642073026315828 0.1160961700510811 0 0.28005226282775009 0.12935703738488491 0 0.27642073026315828 0.1160961700510811 0 0.26914316120917509 0.1255612116215174 0 0.28005226282775009 0.12935703738488491 0 0.27642073026315828 0.1160961700510811 0 0.27128922077482098 0.101996164583392 0 0.26380914817732831 0.1133778628946655 0 0.27642073026315828 0.1160961700510811 0 0.26380914817732831 0.1133778628946655 0 0.26914316120917509 0.1255612116215174 0 0.27356512968973917 0.087284715508075011 0 0.28375414840417468 0.092804687267302455 0 0.27128922077482098 0.101996164583392 0 0.28375414840417468 0.092804687267302455 0 0.2856567170208385 0.1066493384480298 0 0.27128922077482098 0.101996164583392 0 0.2856567170208385 0.1066493384480298 0 0.27642073026315828 0.1160961700510811 0 0.27128922077482098 0.101996164583392 0 0.27356512968973917 0.087284715508075011 0 0.27128922077482098 0.101996164583392 0 0.26155298514579067 0.09618130092776081 0 0.2447492746237224 0.1048344376326756 0 0.2625581105604271 0.083504717760294028 0 0.26155298514579067 0.09618130092776081 0 0.2447492746237224 0.1048344376326756 0 0.26155298514579067 0.09618130092776081 0 0.25549207038459648 0.1038896446823738 0 0.27128922077482098 0.101996164583392 0 0.26155298514579067 0.09618130092776081 0 0.25549207038459648 0.1038896446823738 0 0.27128922077482098 0.101996164583392 0 0.25549207038459648 0.1038896446823738 0 0.26380914817732831 0.1133778628946655 0 0.2447492746237224 0.1048344376326756 0 0.2625581105604271 0.083504717760294028 0 0.25832525489360281 0.12223929131243159 0 0.26380914817732831 0.1133778628946655 0 0.26914316120917509 0.1255612116215174 0 0.25832525489360281 0.12223929131243159 0 0.26380914817732831 0.1133778628946655 0 0.25324217801320742 0.1153607628831249 0 0.25549207038459648 0.1038896446823738 0 0.26380914817732831 0.1133778628946655 0 0.25324217801320742 0.1153607628831249 0 0.24794648612135611 0.1223238382092047 0 0.25832525489360281 0.12223929131243159 0 0.25324217801320742 0.1153607628831249 0 0.25832525489360281 0.12223929131243159 0 0.25144494256168609 0.1319752725567547 0 0.26740803439442051 0.13794503939852351 0 0.24794648612135611 0.1223238382092047 0 0.25832525489360281 0.12223929131243159 0 0.25144494256168609 0.1319752725567547 0 0.25832525489360281 0.12223929131243159 0 0.26914316120917509 0.1255612116215174 0 0.26740803439442051 0.13794503939852351 0 0.25144494256168609 0.1319752725567547 0 0.26740803439442051 0.13794503939852351 0 0.25207379538507518 0.1432516637935872 0 0.26914316120917509 0.1255612116215174 0 0.26740803439442051 0.13794503939852351 0 0.28005226282775009 0.12935703738488491 0 0.26740803439442051 0.13794503939852351 0 0.28005226282775009 0.12935703738488491 0 0.2846327663216443 0.1434308830262882 0 0.26740803439442051 0.13794503939852351 0 0.27377075710346321 0.16423169209477731 0 0.2846327663216443 0.1434308830262882 0 0.27377075710346321 0.16423169209477731 0 0.2846327663216443 0.1434308830262882 0 0.26740803439442051 0.13794503939852351 0 0.25681636437199401 0.15682310848494821 0 0.27377075710346321 0.16423169209477731 0 0.26740803439442051 0.13794503939852351 0 0.25207379538507518 0.1432516637935872 0 0.25681636437199401 0.15682310848494821 0 0.2415776953324367 0.149084223004644 0 0.25207379538507518 0.1432516637935872 0 0.25681636437199401 0.15682310848494821 0 0.24211261818636931 0.1623099121402044 0 0.25681636437199401 0.15682310848494821 0 0.25583925113042488 0.17312828799689009 0 0.25681636437199401 0.15682310848494821 0 0.25583925113042488 0.17312828799689009 0 0.27377075710346321 0.16423169209477731 0 0.25583925113042488 0.17312828799689009 0 0.26290874788528201 0.18503250116326639 0 0.27377075710346321 0.16423169209477731 0 0.24634121590032301 0.18101059397227429 0 0.25257572134146028 0.18705864139486761 0 0.25583925113042488 0.17312828799689009 0 0.25257572134146028 0.18705864139486761 0 0.25583925113042488 0.17312828799689009 0 0.26290874788528201 0.18503250116326639 0 0.26290874788528201 0.18503250116326639 0 0.27377075710346321 0.16423169209477731 0 0.26290874788528201 0.18503250116326639 0 0.27377075710346321 0.16423169209477731 0 0.28467121379418919 0.1800533915312704 0 0.29045032717785879 0.16206182078351561 0 0.28467121379418919 0.1800533915312704 0 0.30664582520251382 0.17092974582876991 0 0.27377075710346321 0.16423169209477731 0 0.29045032717785879 0.16206182078351561 0 0.28467121379418919 0.1800533915312704 0 0.27377075710346321 0.16423169209477731 0 0.29045032717785879 0.16206182078351561 0 0.2846327663216443 0.1434308830262882 0 0.30664582520251382 0.17092974582876991 0 0.30212351210439758 0.1921362665791356 0 0.32493745776742361 0.18397935582364289 0 0.28467121379418919 0.1800533915312704 0 0.30664582520251382 0.17092974582876991 0 0.30212351210439758 0.1921362665791356 0 0.29045032717785879 0.16206182078351561 0 0.30664582520251382 0.17092974582876991 0 0.30253107346748348 0.1516633914364722 0 0.30664582520251382 0.17092974582876991 0 0.30253107346748348 0.1516633914364722 0 0.32625236812611269 0.1604294171297401 0 0.3122880780541169 0.1180758610802294 0 0.29927381675924403 0.13002852083960131 0 0.31849749607394068 0.14012229345739921 0 0.30253107346748348 0.1516633914364722 0 0.29927381675924403 0.13002852083960131 0 0.31849749607394068 0.14012229345739921 0 0.28005226282775009 0.12935703738488491 0 0.29927381675924403 0.13002852083960131 0 0.2846327663216443 0.1434308830262882 0 0.28826264884904967 0.1185553539241159 0 0.28005226282775009 0.12935703738488491 0 0.29927381675924403 0.13002852083960131 0 0.30253107346748348 0.1516633914364722 0 0.29927381675924403 0.13002852083960131 0 0.2846327663216443 0.1434308830262882 0 0.29045032717785879 0.16206182078351561 0 0.30253107346748348 0.1516633914364722 0 0.2846327663216443 0.1434308830262882 0 0.2685555013172104 0.23454703804013771 0 0.27954809663536612 0.24742483709009899 0 0.25683111238660761 0.24379959893971959 0 0.27954809663536612 0.24742483709009899 0 0.25683111238660761 0.24379959893971959 0 0.2685555013172104 0.23454703804013771 0 0.27954809663536612 0.24742483709009899 0 0.27945984455766021 0.22195736268573399 0 0.2685555013172104 0.23454703804013771 0 0.25683111238660761 0.24379959893971959 0 0.25838295168920761 0.22500635344499789 0 0.24172970213161429 0.22559049353151511 0 0.24989052864815531 0.2205716808775571 0 0.25838295168920761 0.22500635344499789 0 0.24172970213161429 0.22559049353151511 0 0.25683111238660761 0.24379959893971959 0 0.25838295168920761 0.22500635344499789 0 0.2685555013172104 0.23454703804013771 0 0.25838295168920761 0.22500635344499789 0 0.27945984455766021 0.22195736268573399 0 0.25649562077834531 0.2084500880901195 0 0.27930956644137189 0.20029317733462881 0 0.27945984455766021 0.22195736268573399 0 0.25649562077834531 0.2084500880901195 0 0.27930956644137189 0.20029317733462881 0 0.27945984455766021 0.22195736268573399 0 0.25649562077834531 0.2084500880901195 0 0.24989052864815531 0.2205716808775571 0 0.25838295168920761 0.22500635344499789 0 0.25649562077834531 0.2084500880901195 0 0.25838295168920761 0.22500635344499789 0 0.27945984455766021 0.22195736268573399 0 0.25649562077834531 0.2084500880901195 0 0.24934527612537849 0.21100662627368691 0 0.24989052864815531 0.2205716808775571 0 0.25649562077834531 0.2084500880901195 0 0.24934527612537849 0.21100662627368691 0 0.25649562077834531 0.2084500880901195 0 0.24934527612537849 0.21100662627368691 0 0.25204673866710092 0.2058333102317555 0 0.24934527612537849 0.21100662627368691 0 0.25204673866710092 0.2058333102317555 0 0.25649562077834531 0.2084500880901195 0 0.25204673866710092 0.2058333102317555 0 0.25649562077834531 0.2084500880901195 0 0.26290874788528201 0.18503250116326639 0 0.25204673866710092 0.2058333102317555 0 0.25649562077834531 0.2084500880901195 0 0.26290874788528201 0.18503250116326639 0 0.25204673866710092 0.2058333102317555 0 0.25318479180384301 0.19297637564069689 0 0.26290874788528201 0.18503250116326639 0 0.25204673866710092 0.2058333102317555 0 0.24520795932152911 0.1939810497728984 0 0.25204673866710092 0.2058333102317555 0 0.25318479180384301 0.19297637564069689 0 0.25257572134146028 0.18705864139486761 0 0.26290874788528201 0.18503250116326639 0 0.25318479180384301 0.19297637564069689 0 0.24520795932152911 0.1939810497728984 0 0.25257572134146028 0.18705864139486761 0 0.25318479180384301 0.19297637564069689 0 0.26290874788528201 0.18503250116326639 0 0.28467121379418919 0.1800533915312704 0 0.27930956644137189 0.20029317733462881 0 0.26290874788528201 0.18503250116326639 0 0.25649562077834531 0.2084500880901195 0 0.27930956644137189 0.20029317733462881 0 0.28467121379418919 0.1800533915312704 0 0.27930956644137189 0.20029317733462881 0 0.30212351210439758 0.1921362665791356 0 0.27930956644137189 0.20029317733462881 0 0.30212351210439758 0.1921362665791356 0 0.27930956644137189 0.20029317733462881 0 0.30212351210439758 0.1921362665791356 0 0.30146263765974191 0.21248138548804479 0 0.30212351210439758 0.1921362665791356 0 0.30146263765974191 0.21248138548804479 0 0.31892439470881501 0.20135900054956901 0 0.27945984455766021 0.22195736268573399 0 0.27930956644137189 0.20029317733462881 0 0.30146263765974191 0.21248138548804479 0 0.27945984455766021 0.22195736268573399 0 0.30242406833697288 0.23546463728135211 0 0.27945984455766021 0.22195736268573399 0 0.30146263765974191 0.21248138548804479 0 0.30242406833697288 0.23546463728135211 0 0.30146263765974191 0.21248138548804479 0 0.30242406833697288 0.23546463728135211 0 0.33076077822175681 0.22046928801608581 0 0.29847933329574461 0.26441301039474852 0 0.30242406833697288 0.23546463728135211 0 0.32538829211628489 0.2489719118769719 0 0.27954809663536612 0.24742483709009899 0 0.27945984455766021 0.22195736268573399 0 0.30242406833697288 0.23546463728135211 0 0.29847933329574461 0.26441301039474852 0 0.27954809663536612 0.24742483709009899 0 0.30242406833697288 0.23546463728135211 0 0.34779853276984413 0.26215334039684829 0 0.33915831076210728 0.23699708836674779 0 0.32538829211628489 0.2489719118769719 0 0.33915831076210728 0.23699708836674779 0 0.32538829211628489 0.2489719118769719 0 0.33076077822175681 0.22046928801608581 0 0.30242406833697288 0.23546463728135211 0 0.32538829211628489 0.2489719118769719 0 0.32538829211628489 0.2489719118769719 0 0.33076077822175681 0.22046928801608581 0 0.30242406833697288 0.23546463728135211 0 0.32538829211628489 0.2489719118769719 0 0.33076077822175681 0.22046928801608581 0 0.33915831076210728 0.23699708836674779 0 0.33076077822175681 0.22046928801608581 0 0.34682230307527351 0.21429442097949639 0 0.33076077822175681 0.22046928801608581 0 0.33613326432723228 0.19196666415520039 0 0.33076077822175681 0.22046928801608581 0 0.31892439470881501 0.20135900054956901 0 0.33613326432723228 0.19196666415520039 0 0.3391055680671563 0.19408716403156781 0 0.34682230307527351 0.21429442097949639 0 0.33076077822175681 0.22046928801608581 0 0.3391055680671563 0.19408716403156781 0 0.34682230307527351 0.21429442097949639 0 0.30146263765974191 0.21248138548804479 0 0.33076077822175681 0.22046928801608581 0 0.31892439470881501 0.20135900054956901 0 0.30212351210439758 0.1921362665791356 0 0.31892439470881501 0.20135900054956901 0 0.32493745776742361 0.18397935582364289 0 0.30212351210439758 0.1921362665791356 0 0.32493745776742361 0.18397935582364289 0 0.31892439470881501 0.20135900054956901 0 0.33613326432723228 0.19196666415520039 0 0.32493745776742361 0.18397935582364289 0 0.33684791759722771 0.18817521771017329 0 0.33613326432723228 0.19196666415520039 0 0.32493745776742361 0.18397935582364289 0 0.33613326432723228 0.19196666415520039 0 0.32493745776742361 0.18397935582364289 0 0.33076077822175681 0.22046928801608581 0 0.33613326432723228 0.19196666415520039 0 0.3391055680671563 0.19408716403156781 0 0.33684791759722771 0.18817521771017329 0 0.3391055680671563 0.19408716403156781 0 0.34385559518278641 0.1889158374652237 0 0.33684791759722771 0.18817521771017329 0 0.3391055680671563 0.19408716403156781 0 0.33684791759722771 0.18817521771017329 0 0.33613326432723228 0.19196666415520039 0 0.33613326432723228 0.19196666415520039 0 0.3391055680671563 0.19408716403156781 0 0.33684791759722771 0.18817521771017329 0 0.33613326432723228 0.19196666415520039 0 0.3391055680671563 0.19408716403156781 0 0.3391055680671563 0.19408716403156781 0 0.35132413651511551 0.1937209644956033 0 0.35866257585850392 0.20803951757016639 0 0.3391055680671563 0.19408716403156781 0 0.35866257585850392 0.20803951757016639 0 0.35132413651511551 0.1937209644956033 0 0.36312383446793622 0.18929535671809289 0 0.35866257585850392 0.20803951757016639 0 0.3391055680671563 0.19408716403156781 0 0.35132413651511551 0.1937209644956033 0 0.34385559518278641 0.1889158374652237 0 0.35132413651511551 0.1937209644956033 0 0.34385559518278641 0.1889158374652237 0 0.35087658143359529 0.18609652604924551 0 0.35132413651511551 0.1937209644956033 0 0.36312383446793622 0.18929535671809289 0 0.35087658143359529 0.18609652604924551 0 0.36312383446793622 0.18929535671809289 0 0.37326070818919249 0.20296527965472649 0 0.35866257585850392 0.20803951757016639 0 0.36312383446793622 0.18929535671809289 0 0.37326070818919249 0.20296527965472649 0 0.37821586635925752 0.1896699011718003 0 0.35866257585850392 0.20803951757016639 0 0.36225237224269791 0.2229278344074607 0 0.37821958364985042 0.22199187110876659 0 0.35866257585850392 0.20803951757016639 0 0.37821958364985042 0.22199187110876659 0 0.37326070818919249 0.20296527965472649 0 0.35866257585850392 0.20803951757016639 0 0.37821958364985042 0.22199187110876659 0 0.3391055680671563 0.19408716403156781 0 0.35866257585850392 0.20803951757016639 0 0.34682230307527351 0.21429442097949639 0 0.35866257585850392 0.20803951757016639 0 0.34682230307527351 0.21429442097949639 0 0.36225237224269791 0.2229278344074607 0 0.33915831076210728 0.23699708836674779 0 0.34682230307527351 0.21429442097949639 0 0.35453903808339199 0.23450167792742441 0 0.34682230307527351 0.21429442097949639 0 0.35453903808339199 0.23450167792742441 0 0.34682230307527351 0.21429442097949639 0 0.36225237224269791 0.2229278344074607 0 0.35453903808339199 0.23450167792742441 0 0.36225237224269791 0.2229278344074607 0 0.37126886936199149 0.23623742030379469 0 0.37821958364985042 0.22199187110876659 0 0.36225237224269791 0.2229278344074607 0 0.37126886936199149 0.23623742030379469 0 0.35453903808339199 0.23450167792742441 0 0.36083912985981348 0.24913549553757319 0 0.37126886936199149 0.23623742030379469 0 0.38206125475814667 0.24958867731389359 0 0.36083912985981348 0.24913549553757319 0 0.37126886936199149 0.23623742030379469 0 0.35453903808339199 0.23450167792742441 0 0.34779853276984413 0.26215334039684829 0 0.33915831076210728 0.23699708836674779 0 0.36083912985981348 0.24913549553757319 0 0.33915831076210728 0.23699708836674779 0 0.36083912985981348 0.24913549553757319 0 0.35453903808339199 0.23450167792742441 0 0.34161885875908521 0.16286396725198951 0 0.3446810784563778 0.14661798829592609 0 0.33144605620476969 0.14569132069002541 0 0.34161885875908521 0.16286396725198951 0 0.3446810784563778 0.14661798829592609 0 0.33144605620476969 0.14569132069002541 0 0.33805724807416199 0.1297431271969651 0 0.3446810784563778 0.14661798829592609 0 0.33144605620476969 0.14569132069002541 0 0.33805724807416199 0.1297431271969651 0 0.3245146634885665 0.12706791928245009 0 0.3122880780541169 0.1180758610802294 0 0.31849749607394068 0.14012229345739921 0 0.3245146634885665 0.12706791928245009 0 0.33144605620476969 0.14569132069002541 0 0.31849749607394068 0.14012229345739921 0 0.3245146634885665 0.12706791928245009 0 0.31849749607394068 0.14012229345739921 0 0.32625236812611269 0.1604294171297401 0 0.33144605620476969 0.14569132069002541 0 0.31849749607394068 0.14012229345739921 0 0.32625236812611269 0.1604294171297401 0 0.30253107346748348 0.1516633914364722 0 0.31849749607394068 0.14012229345739921 0 0.32625236812611269 0.1604294171297401 0 0.30664582520251382 0.17092974582876991 0 0.32625236812611269 0.1604294171297401 0 0.32437444525399028 0.1731369857550859 0 0.30664582520251382 0.17092974582876991 0 0.32493745776742361 0.18397935582364289 0 0.30664582520251382 0.17092974582876991 0 0.32437444525399028 0.1731369857550859 0 0.32493745776742361 0.18397935582364289 0 0.32437444525399028 0.1731369857550859 0 0.32493745776742361 0.18397935582364289 0 0.33400724017828098 0.18073654080208251 0 0.32625236812611269 0.1604294171297401 0 0.33400724017828098 0.18073654080208251 0 0.33855663906179329 0.17910994620805301 0 0.33684791759722771 0.18817521771017329 0 0.32493745776742361 0.18397935582364289 0 0.33400724017828098 0.18073654080208251 0 0.32493745776742361 0.18397935582364289 0 0.33400724017828098 0.18073654080208251 0 0.33684791759722771 0.18817521771017329 0 0.33400724017828098 0.18073654080208251 0 0.33684791759722771 0.18817521771017329 0 0.33855663906179329 0.17910994620805301 0 0.33684791759722771 0.18817521771017329 0 0.34385559518278641 0.1889158374652237 0 0.33855663906179329 0.17910994620805301 0 0.33684791759722771 0.18817521771017329 0 0.33400724017828098 0.18073654080208251 0 0.33855663906179329 0.17910994620805301 0 0.33400724017828098 0.18073654080208251 0 0.33855663906179329 0.17910994620805301 0 0.32625236812611269 0.1604294171297401 0 0.33400724017828098 0.18073654080208251 0 0.33144605620476969 0.14569132069002541 0 0.32625236812611269 0.1604294171297401 0 0.34161885875908521 0.16286396725198951 0 0.33855663906179329 0.17910994620805301 0 0.34161885875908521 0.16286396725198951 0 0.32625236812611269 0.1604294171297401 0 0.32437444525399028 0.1731369857550859 0 0.33400724017828098 0.18073654080208251 0 0.32625236812611269 0.1604294171297401 0 0.33855663906179329 0.17910994620805301 0 0.34161885875908521 0.16286396725198951 0 0.33855663906179329 0.17910994620805301 0 0.34161885875908521 0.16286396725198951 0 0.35596424480529693 0.17288602121875651 0 0.34161885875908521 0.16286396725198951 0 0.35681721413975759 0.15846297015784311 0 0.35596424480529693 0.17288602121875651 0 0.33855663906179329 0.17910994620805301 0 0.35596424480529693 0.17288602121875651 0 0.33855663906179329 0.17910994620805301 0 0.35087658143359529 0.18609652604924551 0 0.35596424480529693 0.17288602121875651 0 0.36312383446793622 0.18929535671809289 0 0.35087658143359529 0.18609652604924551 0 0.35596424480529693 0.17288602121875651 0 0.34385559518278641 0.1889158374652237 0 0.33855663906179329 0.17910994620805301 0 0.35087658143359529 0.18609652604924551 0 0.36312383446793622 0.18929535671809289 0 0.35596424480529693 0.17288602121875651 0 0.37337185054879968 0.16666209622945849 0 0.36312383446793622 0.18929535671809289 0 0.37337185054879968 0.16666209622945849 0 0.37821586635925752 0.1896699011718003 0 0.35681721413975759 0.15846297015784311 0 0.35596424480529693 0.17288602121875651 0 0.37337185054879968 0.16666209622945849 0 0.35596424480529693 0.17288602121875651 0 0.37337185054879968 0.16666209622945849 0 0.37337185054879968 0.16666209622945849 0 0.36845003812922827 0.14328477779308371 0 0.35681721413975759 0.15846297015784311 0 0.37337185054879968 0.16666209622945849 0 0.36845003812922827 0.14328477779308371 0 0.36845003812922827 0.14328477779308371 0 0.3446810784563778 0.14661798829592609 0 0.35390678597640041 0.13312310803449121 0 0.35681721413975759 0.15846297015784311 0 0.36845003812922827 0.14328477779308371 0 0.3446810784563778 0.14661798829592609 0 0.34161885875908521 0.16286396725198951 0 0.35681721413975759 0.15846297015784311 0 0.3446810784563778 0.14661798829592609 0 0.33805724807416199 0.1297431271969651 0 0.3446810784563778 0.14661798829592609 0 0.35390678597640041 0.13312310803449121 0 0.36352822570966498 0.1199074593567073 0 0.36845003812922827 0.14328477779308371 0 0.38259697595954079 0.1280995373360688 0 0.36352822570966498 0.1199074593567073 0 0.36845003812922827 0.14328477779308371 0 0.36352822570966498 0.1199074593567073 0 0.36845003812922827 0.14328477779308371 0 0.35390678597640041 0.13312310803449121 0 0.36845003812922827 0.14328477779308371 0 0.38259697595954079 0.1280995373360688 0 0.38629195675005717 0.14466105091457321 0 0.38259697595954079 0.1280995373360688 0 0.40561940378974659 0.12862563964825049 0 0.38629195675005717 0.14466105091457321 0 0.40561940378974659 0.12862563964825049 0 0.38629195675005717 0.14466105091457321 0 0.40142151532296988 0.15663320356600349 0 0.37337185054879968 0.16666209622945849 0 0.36845003812922827 0.14328477779308371 0 0.38629195675005717 0.14466105091457321 0 0.37337185054879968 0.16666209622945849 0 0.38629195675005717 0.14466105091457321 0 0.40142151532296988 0.15663320356600349 0 0.37337185054879968 0.16666209622945849 0 0.40142151532296988 0.15663320356600349 0 0.37337185054879968 0.16666209622945849 0 0.39653744385362238 0.17787094126613839 0 0.40142151532296988 0.15663320356600349 0 0.37337185054879968 0.16666209622945849 0 0.37821586635925752 0.1896699011718003 0 0.37337185054879968 0.16666209622945849 0 0.39653744385362238 0.17787094126613839 0 0.37821586635925752 0.1896699011718003 0 0.39653744385362238 0.17787094126613839 0 0.40142151532296988 0.15663320356600349 0 0.41761869876238961 0.17235040250538211 0 0.40142151532296988 0.15663320356600349 0 0.41761869876238961 0.17235040250538211 0 0.42947118009713908 0.14660431090254589 0 0.41761869876238961 0.17235040250538211 0 0.40576621742764202 0.19809649410821931 0 0.39653744385362238 0.17787094126613839 0 0.41761869876238961 0.17235040250538211 0 0.40576621742764202 0.19809649410821931 0 0.41761869876238961 0.17235040250538211 0 0.40576621742764202 0.19809649410821931 0 0.42452308497122848 0.18799792314227251 0 0.41761869876238961 0.17235040250538211 0 0.42452308497122848 0.18799792314227251 0 0.44412378587840112 0.18169279763009669 0 0.41761869876238961 0.17235040250538211 0 0.42947118009713908 0.14660431090254589 0 0.41761869876238961 0.17235040250538211 0 0.43805277782239921 0.16096090069195201 0 0.44412378587840112 0.18169279763009669 0 0.41761869876238961 0.17235040250538211 0 0.42947118009713908 0.14660431090254589 0 0.43805277782239921 0.16096090069195201 0 0.42947118009713908 0.14660431090254589 0 0.44402095070549319 0.14140217786873491 0 0.43805277782239921 0.16096090069195201 0 0.42947118009713908 0.14660431090254589 0 0.4324326193293776 0.1401714397090702 0 0.42218479762870709 0.13572162511479879 0 0.42947118009713908 0.14660431090254589 0 0.44402095070549319 0.14140217786873491 0 0.42947118009713908 0.14660431090254589 0 0.4324326193293776 0.1401714397090702 0 0.44402095070549319 0.14140217786873491 0 0.42947118009713908 0.14660431090254589 0 0.4324326193293776 0.1401714397090702 0 0.4324326193293776 0.1401714397090702 0 0.42218479762870709 0.13572162511479879 0 0.43384741516086089 0.1216687626148904 0 0.4324326193293776 0.1401714397090702 0 0.44402095070549319 0.14140217786873491 0 0.43384741516086089 0.1216687626148904 0 0.42218479762870709 0.13572162511479879 0 0.43384741516086089 0.1216687626148904 0 0.42662034777092628 0.1224176779367297 0 0.42218479762870709 0.13572162511479879 0 0.42662034777092628 0.1224176779367297 0 0.42164062919100648 0.1244980441607199 0 0.42218479762870709 0.13572162511479879 0 0.43384741516086089 0.1216687626148904 0 0.40561940378974659 0.12862563964825049 0 0.42218479762870709 0.13572162511479879 0 0.42164062919100648 0.1244980441607199 0 0.40561940378974659 0.12862563964825049 0 0.40142151532296988 0.15663320356600349 0 0.42218479762870709 0.13572162511479879 0 0.40142151532296988 0.15663320356600349 0 0.42947118009713908 0.14660431090254589 0 0.40142151532296988 0.15663320356600349 0 0.42947118009713908 0.14660431090254589 0 0.42218479762870709 0.13572162511479879 0 0.40604663183827611 0.24222092895334069 0 0.38206125475814667 0.24958867731389359 0 0.39391373609289432 0.22384258571105639 0 0.38206125475814667 0.24958867731389359 0 0.39391373609289432 0.22384258571105639 0 0.37126886936199149 0.23623742030379469 0 0.38206125475814667 0.24958867731389359 0 0.39391373609289432 0.22384258571105639 0 0.37126886936199149 0.23623742030379469 0 0.37821958364985042 0.22199187110876659 0 0.39391373609289432 0.22384258571105639 0 0.40604663183827611 0.24222092895334069 0 0.39391373609289432 0.22384258571105639 0 0.41303284257265832 0.21962183099374771 0 0.39391373609289432 0.22384258571105639 0 0.40576621742764202 0.19809649410821931 0 0.41303284257265832 0.21962183099374771 0 0.39391373609289432 0.22384258571105639 0 0.40576621742764202 0.19809649410821931 0 0.39391373609289432 0.22384258571105639 0 0.38808168061041459 0.20582975170480669 0 0.40576621742764202 0.19809649410821931 0 0.37821958364985042 0.22199187110876659 0 0.39391373609289432 0.22384258571105639 0 0.38808168061041459 0.20582975170480669 0 0.37326070818919249 0.20296527965472649 0 0.37821958364985042 0.22199187110876659 0 0.38808168061041459 0.20582975170480669 0 0.37326070818919249 0.20296527965472649 0 0.38808168061041459 0.20582975170480669 0 0.37821586635925752 0.1896699011718003 0 0.39653744385362238 0.17787094126613839 0 0.37821586635925752 0.1896699011718003 0 0.40576621742764202 0.19809649410821931 0 0.38808168061041459 0.20582975170480669 0 0.37821586635925752 0.1896699011718003 0 0.40576621742764202 0.19809649410821931 0 0.40576621742764202 0.19809649410821931 0 0.42452308497122848 0.18799792314227251 0 0.41814469285105238 0.2038671249169047 0 0.42452308497122848 0.18799792314227251 0 0.41814469285105238 0.2038671249169047 0 0.44473927081379688 0.2082364454030759 0 0.41814469285105238 0.2038671249169047 0 0.44473927081379688 0.2082364454030759 0 0.42867935217801129 0.2178044812286479 0 0.41814469285105238 0.2038671249169047 0 0.44473927081379688 0.2082364454030759 0 0.42867935217801129 0.2178044812286479 0 0.41814469285105238 0.2038671249169047 0 0.41303284257265832 0.21962183099374771 0 0.40576621742764202 0.19809649410821931 0 0.41814469285105238 0.2038671249169047 0 0.41303284257265832 0.21962183099374771 0 0.40604663183827611 0.24222092895334069 0 0.41303284257265832 0.21962183099374771 0 0.42581510826064839 0.23358407449275359 0 0.42867935217801129 0.2178044812286479 0 0.42581510826064839 0.23358407449275359 0 0.43996163458994397 0.2248335389724026 0 0.42867935217801129 0.2178044812286479 0 0.41303284257265832 0.21962183099374771 0 0.42581510826064839 0.23358407449275359 0 0.42581510826064839 0.23358407449275359 0 0.44212338901905213 0.23815193365682641 0 0.43996163458994397 0.2248335389724026 0 0.42889529200320847 0.25303008029564289 0 0.42581510826064839 0.23358407449275359 0 0.44212338901905213 0.23815193365682641 0 0.42889529200320847 0.25303008029564289 0 0.40604663183827611 0.24222092895334069 0 0.42581510826064839 0.23358407449275359 0 0.46307205025087572 0.24152961596284159 0 0.44212338901905213 0.23815193365682641 0 0.45504462907429738 0.22863197735199911 0 0.45095767982717339 0.2516030008942155 0 0.46307205025087572 0.24152961596284159 0 0.44212338901905213 0.23815193365682641 0 0.42889529200320847 0.25303008029564289 0 0.45095767982717339 0.2516030008942155 0 0.44212338901905213 0.23815193365682641 0 0.44212338901905213 0.23815193365682641 0 0.43996163458994397 0.2248335389724026 0 0.45504462907429738 0.22863197735199911 0 0.43996163458994397 0.2248335389724026 0 0.45504462907429738 0.22863197735199911 0 0.44473927081379688 0.2082364454030759 0 0.46053736631600789 0.21951606046485969 0 0.47133384877654139 0.21260576588924721 0 0.47103171659939619 0.2285900532151168 0 0.46307205025087572 0.24152961596284159 0 0.45504462907429738 0.22863197735199911 0 0.47103171659939619 0.2285900532151168 0 0.46053736631600789 0.21951606046485969 0 0.45504462907429738 0.22863197735199911 0 0.44473927081379688 0.2082364454030759 0 0.46053736631600789 0.21951606046485969 0 0.45504462907429738 0.22863197735199911 0 0.47103171659939619 0.2285900532151168 0 0.46053736631600789 0.21951606046485969 0 0.44473927081379688 0.2082364454030759 0 0.47133384877654139 0.21260576588924721 0 0.44473927081379688 0.2082364454030759 0 0.45998269114494711 0.19960220381287591 0 0.47133384877654139 0.21260576588924721 0 0.44473927081379688 0.2082364454030759 0 0.47133384877654139 0.21260576588924721 0 0.42867935217801129 0.2178044812286479 0 0.43996163458994397 0.2248335389724026 0 0.44473927081379688 0.2082364454030759 0 0.42452308497122848 0.18799792314227251 0 0.44473927081379688 0.2082364454030759 0 0.44412378587840112 0.18169279763009669 0 0.44473927081379688 0.2082364454030759 0 0.45998269114494711 0.19960220381287591 0 0.44412378587840112 0.18169279763009669 0 0.45998269114494711 0.19960220381287591 0 0.47704591959473502 0.20546008792152551 0 0.46603759663165362 0.18410745123726241 0 0.45998269114494711 0.19960220381287591 0 0.44412378587840112 0.18169279763009669 0 0.46603759663165362 0.18410745123726241 0 0.48372026918296368 0.18944051653507801 0 0.5 0.21697508637541851 0 0.5 0.18013799908791031 0 0.48372026918296368 0.18944051653507801 0 0.47704591959473502 0.20546008792152551 0 0.46603759663165362 0.18410745123726241 0 0.47704591959473502 0.20546008792152551 0 0.46603759663165362 0.18410745123726241 0 0.48372026918296368 0.18944051653507801 0 0.5 0.21697508637541851 0 0.47704591959473502 0.20546008792152551 0 0.5 0.21697508637541851 0 0.47133384877654139 0.21260576588924721 0 0.5 0.21697508637541851 0 0.47704591959473502 0.20546008792152551 0 0.47133384877654139 0.21260576588924721 0 0.45998269114494711 0.19960220381287591 0 0.47704591959473502 0.20546008792152551 0 0.47133384877654139 0.21260576588924721 0 0.5 0.26776742217061072 0 0.5 0.21697508637541851 0 0.48051773825862748 0.24316257497690641 0 0.5 0.21697508637541851 0 0.47133384877654139 0.21260576588924721 0 0.47103171659939619 0.2285900532151168 0 0.5 0.21697508637541851 0 0.47103171659939619 0.2285900532151168 0 0.48051773825862748 0.24316257497690641 0 0.46658482199607421 0.2641796619238409 0 0.46307205025087572 0.24152961596284159 0 0.48051773825862748 0.24316257497690641 0 0.46307205025087572 0.24152961596284159 0 0.47103171659939619 0.2285900532151168 0 0.48051773825862748 0.24316257497690641 0 0.46212294937073312 0.14903258468521111 0 0.44402095070549319 0.14140217786873491 0 0.45502927366857221 0.16275481455299931 0 0.46212294937073312 0.14903258468521111 0 0.44402095070549319 0.14140217786873491 0 0.47185217015972342 0.13145138826583699 0 0.44402095070549319 0.14140217786873491 0 0.47185217015972342 0.13145138826583699 0 0.44402095070549319 0.14140217786873491 0 0.47185217015972342 0.13145138826583699 0 0.45514358255272308 0.12047558815332669 0 0.44402095070549319 0.14140217786873491 0 0.43384741516086089 0.1216687626148904 0 0.44402095070549319 0.14140217786873491 0 0.45514358255272308 0.12047558815332669 0 0.43384741516086089 0.1216687626148904 0 0.44402095070549319 0.14140217786873491 0 0.45502927366857221 0.16275481455299931 0 0.44402095070549319 0.14140217786873491 0 0.43805277782239921 0.16096090069195201 0 0.45502927366857221 0.16275481455299931 0 0.43805277782239921 0.16096090069195201 0 0.44412378587840112 0.18169279763009669 0 0.45502927366857221 0.16275481455299931 0 0.44412378587840112 0.18169279763009669 0 0.46603759663165362 0.18410745123726241 0 0.45502927366857221 0.16275481455299931 0 0.46603759663165362 0.18410745123726241 0 0.45502927366857221 0.16275481455299931 0 0.46603759663165362 0.18410745123726241 0 0.45502927366857221 0.16275481455299931 0 0.47758940294914393 0.16052195805327329 0 0.46212294937073312 0.14903258468521111 0 0.45502927366857221 0.16275481455299931 0 0.47758940294914393 0.16052195805327329 0 0.47758940294914393 0.16052195805327329 0 0.5 0.18013799908791031 0 0.48728124068070522 0.14840298601749011 0 0.48372026918296368 0.18944051653507801 0 0.46603759663165362 0.18410745123726241 0 0.47758940294914393 0.16052195805327329 0 0.48372026918296368 0.18944051653507801 0 0.47758940294914393 0.16052195805327329 0 0.5 0.18013799908791031 0 0.5 0.18013799908791031 0 0.48728124068070522 0.14840298601749011 0 0.5 0.12150059866293959 0 0.46212294937073312 0.14903258468521111 0 0.47758940294914393 0.16052195805327329 0 0.47185217015972342 0.13145138826583699 0 0.47758940294914393 0.16052195805327329 0 0.48728124068070522 0.14840298601749011 0 0.47185217015972342 0.13145138826583699 0 0.47185217015972342 0.13145138826583699 0 0.5 0.12150059866293959 0 0.48728124068070522 0.14840298601749011 0 0.47185217015972342 0.13145138826583699 0 0.5 0.12150059866293959 0 0.5 0.11662602654305181 0 0.47566375273060402 0.1060518947422171 0 0.4833060416990777 0.062073626595079527 0 0.5 0.11662602654305181 0 0.4833060416990777 0.062073626595079527 0 0.50000000000000377 0.042208581255142277 0 0.5 0.11662602654305181 0 0.5 0.12150059866293959 0 0.47566375273060402 0.1060518947422171 0 0.47185217015972342 0.13145138826583699 0 0.5 0.12150059866293959 0 0.47566375273060402 0.1060518947422171 0 0.47566375273060402 0.1060518947422171 0 0.46681983285300588 0.081938671935016805 0 0.4833060416990777 0.062073626595079527 0 0.46681983285300588 0.081938671935016805 0 0.4833060416990777 0.062073626595079527 0 0.46681983285300588 0.081938671935016805 0 0.46437963260426379 0.060396454760273423 0 0.4833060416990777 0.062073626595079527 0 0.46681983285300588 0.081938671935016805 0 0.44746687222407833 0.083744452441356962 0 0.44952954695634217 0.067712390893937074 0 0.46681983285300588 0.081938671935016805 0 0.44952954695634217 0.067712390893937074 0 0.46437963260426379 0.060396454760273423 0 0.46681983285300588 0.081938671935016805 0 0.44746687222407833 0.083744452441356962 0 0.45033362400693389 0.1018037172749541 0 0.46681983285300588 0.081938671935016805 0 0.45033362400693389 0.1018037172749541 0 0.44746687222407833 0.083744452441356962 0 0.45033362400693389 0.1018037172749541 0 0.4370548795278052 0.090152726673807082 0 0.44746687222407833 0.083744452441356962 0 0.4370548795278052 0.090152726673807082 0 0.43455494679965612 0.0768888064023944 0 0.44746687222407833 0.083744452441356962 0 0.44952954695634217 0.067712390893937074 0 0.43455494679965612 0.0768888064023944 0 0.44952954695634217 0.067712390893937074 0 0.43455494679965612 0.0768888064023944 0 0.4352860471045254 0.062167033992187003 0 0.47566375273060402 0.1060518947422171 0 0.45514358255272308 0.12047558815332669 0 0.45033362400693389 0.1018037172749541 0 0.47185217015972342 0.13145138826583699 0 0.47566375273060402 0.1060518947422171 0 0.45514358255272308 0.12047558815332669 0 0.47566375273060402 0.1060518947422171 0 0.46681983285300588 0.081938671935016805 0 0.45033362400693389 0.1018037172749541 0 0.45033362400693389 0.1018037172749541 0 0.43100635300065637 0.10019381899880291 0 0.4370548795278052 0.090152726673807082 0 0.45033362400693389 0.1018037172749541 0 0.43384741516086089 0.1216687626148904 0 0.43124718033100962 0.11662513609686651 0 0.45514358255272308 0.12047558815332669 0 0.45033362400693389 0.1018037172749541 0 0.43384741516086089 0.1216687626148904 0 0.45033362400693389 0.1018037172749541 0 0.43384741516086089 0.1216687626148904 0 0.43384741516086089 0.1216687626148904 0 0.43124718033100962 0.11662513609686651 0 0.43384741516086089 0.1216687626148904 0 0.43124718033100962 0.11662513609686651 0 0.42662034777092628 0.1224176779367297 0 0.43124718033100962 0.11662513609686651 0 0.42157648067840597 0.1153481425976956 0 0.42983707259557319 0.1081917010280929 0 0.42157648067840597 0.1153481425976956 0 0.41502172496086043 0.10698769017214529 0 0.42983707259557319 0.1081917010280929 0 0.43124718033100962 0.11662513609686651 0 0.42662034777092628 0.1224176779367297 0 0.42157648067840597 0.1153481425976956 0 0.42662034777092628 0.1224176779367297 0 0.42164062919100648 0.1244980441607199 0 0.42157648067840597 0.1153481425976956 0 0.40561940378974659 0.12862563964825049 0 0.42157648067840597 0.1153481425976956 0 0.41502172496086043 0.10698769017214529 0 0.40561940378974659 0.12862563964825049 0 0.42164062919100648 0.1244980441607199 0 0.42157648067840597 0.1153481425976956 0 0.41502172496086043 0.10698769017214529 0 0.42417439773641868 0.089432360776682304 0 0.40776222722062799 0.091246510304245673 0 0.41502172496086043 0.10698769017214529 0 0.40776222722062799 0.091246510304245673 0 0.39647104192106392 0.11045437802622669 0 0.45033362400693389 0.1018037172749541 0 0.42983707259557319 0.1081917010280929 0 0.43100635300065637 0.10019381899880291 0 0.45033362400693389 0.1018037172749541 0 0.43124718033100962 0.11662513609686651 0 0.42983707259557319 0.1081917010280929 0 0.41502172496086043 0.10698769017214529 0 0.43100635300065637 0.10019381899880291 0 0.42417439773641868 0.089432360776682304 0 0.41502172496086043 0.10698769017214529 0 0.42983707259557319 0.1081917010280929 0 0.43100635300065637 0.10019381899880291 0 0.43100635300065637 0.10019381899880291 0 0.4370548795278052 0.090152726673807082 0 0.42417439773641868 0.089432360776682304 0 0.42417439773641868 0.089432360776682304 0 0.43455494679965612 0.0768888064023944 0 0.41924624795768972 0.071242727696768718 0 0.4370548795278052 0.090152726673807082 0 0.42417439773641868 0.089432360776682304 0 0.43455494679965612 0.0768888064023944 0 0.43455494679965612 0.0768888064023944 0 0.41924624795768972 0.071242727696768718 0 0.4352860471045254 0.062167033992187003 0 0.41924624795768972 0.071242727696768718 0 0.40431348323597188 0.07596827623812473 0 0.40069329827209549 0.058558251980487079 0 0.41924624795768972 0.071242727696768718 0 0.40776222722062799 0.091246510304245673 0 0.40431348323597188 0.07596827623812473 0 0.42417439773641868 0.089432360776682304 0 0.41924624795768972 0.071242727696768718 0 0.40776222722062799 0.091246510304245673 0 0.40776222722062799 0.091246510304245673 0 0.40431348323597188 0.07596827623812473 0 0.39045851188817893 0.085919723152736799 0 0.40431348323597188 0.07596827623812473 0 0.37714031096619238 0.063611955333255907 0 0.40069329827209549 0.058558251980487079 0 0.40431348323597188 0.07596827623812473 0 0.37714031096619238 0.063611955333255907 0 0.39045851188817893 0.085919723152736799 0 0.37714031096619238 0.063611955333255907 0 0.37577154926106882 0.084268762090540045 0 0.39045851188817893 0.085919723152736799 0 0.36970442916260859 0.098873298277636884 0 0.37577154926106882 0.084268762090540045 0 0.39045851188817893 0.085919723152736799 0 0.36970442916260859 0.098873298277636884 0 0.37807516818821962 0.1143336682491599 0 0.39647104192106392 0.11045437802622669 0 0.36970442916260859 0.098873298277636884 0 0.39045851188817893 0.085919723152736799 0 0.39647104192106392 0.11045437802622669 0 0.36970442916260859 0.098873298277636884 0 0.39647104192106392 0.11045437802622669 0 0.38259697595954079 0.1280995373360688 0 0.37807516818821962 0.1143336682491599 0 0.39647104192106392 0.11045437802622669 0 0.40561940378974659 0.12862563964825049 0 0.41502172496086043 0.10698769017214529 0 0.39647104192106392 0.11045437802622669 0 0.38259697595954079 0.1280995373360688 0 0.40561940378974659 0.12862563964825049 0 0.39647104192106392 0.11045437802622669 0 0.40776222722062799 0.091246510304245673 0 0.39045851188817893 0.085919723152736799 0 0.39647104192106392 0.11045437802622669 0 0.39265656573566748 0.0096679386167966043 0 0.38960231188623701 0.036693787457408887 0 0.40670468296404011 0.020940342140974441 0 0.39265656573566748 0.0096679386167966043 0 0.40670468296404011 0.020940342140974441 0 0.41009497645066811 0.0039050710386491299 0 0.39265656573566748 0.0096679386167966043 0 0.41009497645066811 0.0039050710386491299 0 0.400196106343358 -0.0076650283668836059 0 0.37497075983577061 0.018948531908704831 0 0.39265656573566748 0.0096679386167966043 0 0.37898781164764822 -0.01117852005808853 0 0.37497075983577061 0.018948531908704831 0 0.39265656573566748 0.0096679386167966043 0 0.38960231188623701 0.036693787457408887 0 0.36477455860353691 0.044596483390004972 0 0.37497075983577061 0.018948531908704831 0 0.38960231188623701 0.036693787457408887 0 0.37714031096619238 0.063611955333255907 0 0.38960231188623701 0.036693787457408887 0 0.40069329827209549 0.058558251980487079 0 0.37714031096619238 0.063611955333255907 0 0.40069329827209549 0.058558251980487079 0 0.36477455860353691 0.044596483390004972 0 0.37714031096619238 0.063611955333255907 0 0.38960231188623701 0.036693787457408887 0 0.38960231188623701 0.036693787457408887 0 0.40069329827209549 0.058558251980487079 0 0.41508537740549611 0.037599190939584248 0 0.38960231188623701 0.036693787457408887 0 0.41508537740549611 0.037599190939584248 0 0.40670468296404011 0.020940342140974441 0 0.41924624795768972 0.071242727696768718 0 0.40069329827209549 0.058558251980487079 0 0.42424628557799882 0.053504548627718217 0 0.40069329827209549 0.058558251980487079 0 0.41508537740549611 0.037599190939584248 0 0.42424628557799882 0.053504548627718217 0 0.40069329827209549 0.058558251980487079 0 0.42424628557799882 0.053504548627718217 0 0.42424628557799882 0.053504548627718217 0 0.44779927288390231 0.048450845274950832 0 0.42424628557799882 0.053504548627718217 0 0.4352860471045254 0.062167033992187003 0 0.44779927288390231 0.048450845274950832 0 0.42424628557799882 0.053504548627718217 0 0.43345525575244792 0.040177897211411948 0 0.44779927288390231 0.048450845274950832 0 0.41924624795768972 0.071242727696768718 0 0.42424628557799882 0.053504548627718217 0 0.4352860471045254 0.062167033992187003 0 0.41508537740549611 0.037599190939584248 0 0.43345525575244792 0.040177897211411948 0 0.43109108177213429 0.027556727492174658 0 0.41508537740549611 0.037599190939584248 0 0.42424628557799882 0.053504548627718217 0 0.43345525575244792 0.040177897211411948 0 0.43345525575244792 0.040177897211411948 0 0.43109108177213429 0.027556727492174658 0 0.44727586844743972 0.027822396242105831 0 0.43109108177213429 0.027556727492174658 0 0.4187281006660592 0.024545773208399919 0 0.42305703920260479 0.01186078162065215 0 0.43109108177213429 0.027556727492174658 0 0.42305703920260479 0.01186078162065215 0 0.4455570731088791 0.0078869224280541037 0 0.40670468296404011 0.020940342140974441 0 0.4187281006660592 0.024545773208399919 0 0.42305703920260479 0.01186078162065215 0 0.41508537740549611 0.037599190939584248 0 0.43109108177213429 0.027556727492174658 0 0.4187281006660592 0.024545773208399919 0 0.41508537740549611 0.037599190939584248 0 0.40670468296404011 0.020940342140974441 0 0.4187281006660592 0.024545773208399919 0 0.40670468296404011 0.020940342140974441 0 0.41009497645066811 0.0039050710386491299 0 0.42305703920260479 0.01186078162065215 0 0.41009497645066811 0.0039050710386491299 0 0.41897626367806479 0.00066143370406012173 0 0.42305703920260479 0.01186078162065215 0 0.4455570731088791 0.0078869224280541037 0 0.4281797331679516 -0.0064768029116052516 0 0.42305703920260479 0.01186078162065215 0 0.4455570731088791 0.0078869224280541037 0 0.4281797331679516 -0.0064768029116052516 0 0.41897626367806479 0.00066143370406012173 0 0.42305703920260479 0.01186078162065215 0 0.4281797331679516 -0.0064768029116052516 0 0.4455570731088791 0.0078869224280541037 0 0.44727586844743972 0.027822396242105831 0 0.46108062987457271 0.014904200016225279 0 0.43109108177213429 0.027556727492174658 0 0.4455570731088791 0.0078869224280541037 0 0.44727586844743972 0.027822396242105831 0 0.46108062987457271 0.014904200016225279 0 0.46295643311916818 0.031836546622491503 0 0.47811359335443282 0.015222247970030909 0 0.44727586844743972 0.027822396242105831 0 0.46108062987457271 0.014904200016225279 0 0.46295643311916818 0.031836546622491503 0 0.4455570731088791 0.0078869224280541037 0 0.46108062987457271 0.014904200016225279 0 0.46634936328909238 -0.0054823721987209972 0 0.46108062987457271 0.014904200016225279 0 0.4703799186058169 0.0067965832963905216 0 0.46634936328909238 -0.0054823721987209972 0 0.44952954695634217 0.067712390893937074 0 0.4352860471045254 0.062167033992187003 0 0.44779927288390231 0.048450845274950832 0 0.4352860471045254 0.062167033992187003 0 0.44779927288390231 0.048450845274950832 0 0.43345525575244792 0.040177897211411948 0 0.44727586844743972 0.027822396242105831 0 0.44779927288390231 0.048450845274950832 0 0.44727586844743972 0.027822396242105831 0 0.44779927288390231 0.048450845274950832 0 0.46295643311916818 0.031836546622491503 0 0.44779927288390231 0.048450845274950832 0 0.46295643311916818 0.031836546622491503 0 0.44779927288390231 0.048450845274950832 0 0.46295643311916818 0.031836546622491503 0 0.47389963644195299 0.042850558011653973 0 0.44779927288390231 0.048450845274950832 0 0.47389963644195299 0.042850558011653973 0 0.44779927288390231 0.048450845274950832 0 0.46437963260426379 0.060396454760273423 0 0.47389963644195299 0.042850558011653973 0 0.44952954695634217 0.067712390893937074 0 0.44779927288390231 0.048450845274950832 0 0.46437963260426379 0.060396454760273423 0 0.46437963260426379 0.060396454760273423 0 0.4833060416990777 0.062073626595079527 0 0.47389963644195299 0.042850558011653973 0 0.46295643311916818 0.031836546622491503 0 0.47389963644195299 0.042850558011653973 0 0.48299393258311091 0.027912339459993659 0 0.47389963644195299 0.042850558011653973 0 0.500000000000004 0.037250270748357711 0 0.48299393258311091 0.027912339459993659 0 0.47389963644195299 0.042850558011653973 0 0.50000000000000377 0.042208581255142277 0 0.500000000000004 0.037250270748357711 0 0.47389963644195299 0.042850558011653973 0 0.500000000000004 0.037250270748357711 0 0.4833060416990777 0.062073626595079527 0 0.47389963644195299 0.042850558011653973 0 0.50000000000000377 0.042208581255142277 0 0.4833060416990777 0.062073626595079527 0 0.50000000000000377 0.042208581255142277 0 0.48300826515730871 0.0084876879706565628 0 0.4703799186058169 0.0067965832963905216 0 0.46634936328909238 -0.0054823721987209972 0 0.48300826515730871 0.0084876879706565628 0 0.46634936328909238 -0.0054823721987209972 0 0.46108062987457271 0.014904200016225279 0 0.47811359335443282 0.015222247970030909 0 0.4703799186058169 0.0067965832963905216 0 0.47811359335443282 0.015222247970030909 0 0.48300826515730871 0.0084876879706565628 0 0.4703799186058169 0.0067965832963905216 0 0.46295643311916818 0.031836546622491503 0 0.47811359335443282 0.015222247970030909 0 0.46295643311916818 0.031836546622491503 0 0.47811359335443282 0.015222247970030909 0 0.48299393258311091 0.027912339459993659 0 0.500000000000004 0.037250270748357711 0 0.48299393258311091 0.027912339459993659 0 0.5 0.0124020739474342 0 0.47811359335443282 0.015222247970030909 0 0.48299393258311091 0.027912339459993659 0 0.5 0.0124020739474342 0 0.47811359335443282 0.015222247970030909 0 0.5 0.0124020739474342 0 0.49327075358969752 -0.001392050682429716 0 0.47811359335443282 0.015222247970030909 0 0.49327075358969752 -0.001392050682429716 0 0.47811359335443282 0.015222247970030909 0 0.48300826515730871 0.0084876879706565628 0 0.49327075358969752 -0.001392050682429716 0 0.48300826515730871 0.0084876879706565628 0 0.49327075358969752 -0.001392050682429716 0 0.4813802113439114 -0.003417979918573638 0 0.5 0.0124020739474342 0 0.49327075358969752 -0.001392050682429716 0 0.5 -0.01244612285348934 0 0.49327075358969752 -0.001392050682429716 0 0.5 -0.01244612285348934 0 0.48289246333954727 -0.0152851847638004 0 0.49327075358969752 -0.001392050682429716 0 0.4813802113439114 -0.003417979918573638 0 0.48289246333954727 -0.0152851847638004 0 0.4813802113439114 -0.003417979918573638 0 0.48289246333954727 -0.0152851847638004 0 0.46634936328909238 -0.0054823721987209972 0 0.48300826515730871 0.0084876879706565628 0 0.4813802113439114 -0.003417979918573638 0 0.46634936328909238 -0.0054823721987209972 0 0.48289246333954727 -0.0152851847638004 0 0.47170768249117201 -0.028805393878638751 0 0.46634936328909238 -0.0054823721987209972 0 0.48289246333954727 -0.0152851847638004 0 0.47170768249117201 -0.028805393878638751 0 0.48697588378395862 -0.02851687936247474 0 0.5 -0.01244612285348934 0 0.48697588378395862 -0.02851687936247474 0 0.50000000000000089 -0.037294319654412877 0 0.5 -0.01244612285348934 0 0.48289246333954727 -0.0152851847638004 0 0.48697588378395862 -0.02851687936247474 0 0.48697588378395862 -0.02851687936247474 0 0.50000000000000089 -0.037294319654412877 0 0.4802792730890737 -0.048753375662032347 0 0.50000000000000089 -0.037294319654412877 0 0.4802792730890737 -0.048753375662032347 0 0.4802792730890737 -0.048753375662032347 0 0.5 -0.062695539532148681 0 0.47760945267796828 -0.064321156498220594 0 0.50000000000000089 -0.037294319654412877 0 0.4802792730890737 -0.048753375662032347 0 0.5 -0.062695539532148681 0 0.4802792730890737 -0.048753375662032347 0 0.46055854617814612 -0.060212431669651519 0 0.47760945267796828 -0.064321156498220594 0 0.4802792730890737 -0.048753375662032347 0 0.46055854617814612 -0.060212431669651519 0 0.47170768249117201 -0.028805393878638751 0 0.48697588378395862 -0.02851687936247474 0 0.4802792730890737 -0.048753375662032347 0 0.47170768249117201 -0.028805393878638751 0 0.4802792730890737 -0.048753375662032347 0 0.45658653113877212 -0.043598404764500137 0 0.47170768249117201 -0.028805393878638751 0 0.45658653113877212 -0.043598404764500137 0 0.45899186421544919 -0.026839127790256118 0 0.45658653113877212 -0.043598404764500137 0 0.44867161037407938 -0.032718900222612202 0 0.45899186421544919 -0.026839127790256118 0 0.4802792730890737 -0.048753375662032347 0 0.45658653113877212 -0.043598404764500137 0 0.46055854617814612 -0.060212431669651519 0 0.45658653113877212 -0.043598404764500137 0 0.46055854617814612 -0.060212431669651519 0 0.44824732015985902 -0.058142825035838952 0 0.45658653113877212 -0.043598404764500137 0 0.44824732015985902 -0.058142825035838952 0 0.44168415030879782 -0.051577669863923342 0 0.44824732015985902 -0.058142825035838952 0 0.44168415030879782 -0.051577669863923342 0 0.43885303495432032 -0.061523158387983001 0 0.44867161037407938 -0.032718900222612202 0 0.44119354281757939 -0.040672027585114817 0 0.43303155955265882 -0.033422492537474778 0 0.44867161037407938 -0.032718900222612202 0 0.43303155955265882 -0.033422492537474778 0 0.45658653113877212 -0.043598404764500137 0 0.44867161037407938 -0.032718900222612202 0 0.44119354281757939 -0.040672027585114817 0 0.45658653113877212 -0.043598404764500137 0 0.44168415030879782 -0.051577669863923342 0 0.44119354281757939 -0.040672027585114817 0 0.44168415030879782 -0.051577669863923342 0 0.44119354281757939 -0.040672027585114817 0 0.43184727087558672 -0.047093391488808513 0 0.44867161037407938 -0.032718900222612202 0 0.4496904614208761 -0.019452432368098529 0 0.43303155955265882 -0.033422492537474778 0 0.4496904614208761 -0.019452432368098529 0 0.43303155955265882 -0.033422492537474778 0 0.4496904614208761 -0.019452432368098529 0 0.43647993322734152 -0.017090192495124949 0 0.43303155955265882 -0.033422492537474778 0 0.44867161037407938 -0.032718900222612202 0 0.4496904614208761 -0.019452432368098529 0 0.45899186421544919 -0.026839127790256118 0 0.4455570731088791 0.0078869224280541037 0 0.44616978830999132 -0.0067247126137383838 0 0.46634936328909238 -0.0054823721987209972 0 0.4455570731088791 0.0078869224280541037 0 0.44616978830999132 -0.0067247126137383838 0 0.4281797331679516 -0.0064768029116052516 0 0.4496904614208761 -0.019452432368098529 0 0.44616978830999132 -0.0067247126137383838 0 0.43647993322734152 -0.017090192495124949 0 0.4496904614208761 -0.019452432368098529 0 0.44616978830999132 -0.0067247126137383838 0 0.46634936328909238 -0.0054823721987209972 0 0.4496904614208761 -0.019452432368098529 0 0.46634936328909238 -0.0054823721987209972 0 0.4496904614208761 -0.019452432368098529 0 0.46634936328909238 -0.0054823721987209972 0 0.45899186421544919 -0.026839127790256118 0 0.47170768249117201 -0.028805393878638751 0 0.46634936328909238 -0.0054823721987209972 0 0.45899186421544919 -0.026839127790256118 0 0.47163713788373318 -0.11271087201801989 0 0.48139964457095469 -0.1179916218699773 0 0.48031365886015742 -0.10177553107716029 0 0.47132948585385198 -0.1237168696133549 0 0.47163713788373318 -0.11271087201801989 0 0.46864714632167231 -0.12701204618258541 0 0.47132948585385198 -0.1237168696133549 0 0.47163713788373318 -0.11271087201801989 0 0.48139964457095469 -0.1179916218699773 0 0.47132948585385198 -0.1237168696133549 0 0.48139964457095469 -0.1179916218699773 0 0.47850296460072422 -0.12923472475304679 0 0.48139964457095469 -0.1179916218699773 0 0.48693253848029699 -0.1276409801415864 0 0.47850296460072422 -0.12923472475304679 0 0.48139964457095469 -0.1179916218699773 0 0.5 -0.1134979792876203 0 0.48031365886015742 -0.10177553107716029 0 0.48139964457095469 -0.1179916218699773 0 0.5 -0.1134979792876203 0 0.48693253848029699 -0.1276409801415864 0 0.5 -0.1134979792876203 0 0.48031365886015742 -0.10177553107716029 0 0.5 -0.08809675940988454 0 0.48031365886015742 -0.10177553107716029 0 0.4683974351121456 -0.086564392668117149 0 0.46101273635115742 -0.1019699136795246 0 0.47163713788373318 -0.11271087201801989 0 0.48031365886015742 -0.10177553107716029 0 0.46101273635115742 -0.1019699136795246 0 0.48031365886015742 -0.10177553107716029 0 0.48152981512055509 -0.079805302453960281 0 0.4683974351121456 -0.086564392668117149 0 0.48152981512055509 -0.079805302453960281 0 0.46698311227591582 -0.072830011536869271 0 0.4683974351121456 -0.086564392668117149 0 0.48031365886015742 -0.10177553107716029 0 0.48152981512055509 -0.079805302453960281 0 0.5 -0.08809675940988454 0 0.48152981512055509 -0.079805302453960281 0 0.5 -0.08809675940988454 0 0.5 -0.062695539532148681 0 0.48152981512055509 -0.079805302453960281 0 0.5 -0.062695539532148681 0 0.47760945267796828 -0.064321156498220594 0 0.48152981512055509 -0.079805302453960281 0 0.47760945267796828 -0.064321156498220594 0 0.46698311227591582 -0.072830011536869271 0 0.46055854617814612 -0.060212431669651519 0 0.46698311227591582 -0.072830011536869271 0 0.45337832638064052 -0.07692778117646458 0 0.46055854617814612 -0.060212431669651519 0 0.47760945267796828 -0.064321156498220594 0 0.46698311227591582 -0.072830011536869271 0 0.46055854617814612 -0.060212431669651519 0 0.45337832638064052 -0.07692778117646458 0 0.44083781926721849 -0.07167148767727069 0 0.46055854617814612 -0.060212431669651519 0 0.44824732015985902 -0.058142825035838952 0 0.44083781926721849 -0.07167148767727069 0 0.46055854617814612 -0.060212431669651519 0 0.44083781926721849 -0.07167148767727069 0 0.44824732015985902 -0.058142825035838952 0 0.43885303495432032 -0.061523158387983001 0 0.44083781926721849 -0.07167148767727069 0 0.45337832638064052 -0.07692778117646458 0 0.43838725020888852 -0.086503678625914071 0 0.4460404974401147 -0.096036006748782737 0 0.45337832638064052 -0.07692778117646458 0 0.44083781926721849 -0.07167148767727069 0 0.43838725020888852 -0.086503678625914071 0 0.45337832638064052 -0.07692778117646458 0 0.46101273635115742 -0.1019699136795246 0 0.4460404974401147 -0.096036006748782737 0 0.45337832638064052 -0.07692778117646458 0 0.4683974351121456 -0.086564392668117149 0 0.46101273635115742 -0.1019699136795246 0 0.45337832638064052 -0.07692778117646458 0 0.46101273635115742 -0.1019699136795246 0 0.46698311227591582 -0.072830011536869271 0 0.45337832638064052 -0.07692778117646458 0 0.4683974351121456 -0.086564392668117149 0 0.43838725020888852 -0.086503678625914071 0 0.4460404974401147 -0.096036006748782737 0 0.42956839586260021 -0.099823066893351298 0 0.44785577839728691 -0.114955593368659 0 0.42956839586260021 -0.099823066893351298 0 0.46101273635115742 -0.1019699136795246 0 0.4460404974401147 -0.096036006748782737 0 0.44785577839728691 -0.114955593368659 0 0.4460404974401147 -0.096036006748782737 0 0.44785577839728691 -0.114955593368659 0 0.42956839586260021 -0.099823066893351298 0 0.44785577839728691 -0.114955593368659 0 0.43613336312651968 -0.122784714366969 0 0.42956839586260021 -0.099823066893351298 0 0.44785577839728691 -0.114955593368659 0 0.43613336312651968 -0.122784714366969 0 0.45057495674546771 -0.12819946303377849 0 0.44785577839728691 -0.114955593368659 0 0.466143160931974 -0.13008811984396629 0 0.45057495674546771 -0.12819946303377849 0 0.46101273635115742 -0.1019699136795246 0 0.46864714632167231 -0.12701204618258541 0 0.44785577839728691 -0.114955593368659 0 0.466143160931974 -0.13008811984396629 0 0.44785577839728691 -0.114955593368659 0 0.46864714632167231 -0.12701204618258541 0 0.466143160931974 -0.13008811984396629 0 0.46101273635115742 -0.1019699136795246 0 0.44785577839728691 -0.114955593368659 0 0.46864714632167231 -0.12701204618258541 0 0.47163713788373318 -0.11271087201801989 0 0.46101273635115742 -0.1019699136795246 0 0.46864714632167231 -0.12701204618258541 0 0.40873754477022989 -0.1136119743593146 0 0.42215261761117978 -0.12059275905020719 0 0.41384201319835262 -0.13049276915318689 0 0.40873754477022989 -0.1136119743593146 0 0.42215261761117978 -0.12059275905020719 0 0.42956839586260021 -0.099823066893351298 0 0.42215261761117978 -0.12059275905020719 0 0.43613336312651968 -0.122784714366969 0 0.42956839586260021 -0.099823066893351298 0 0.40873754477022989 -0.1136119743593146 0 0.42956839586260021 -0.099823066893351298 0 0.41128101332791339 -0.084690540418043497 0 0.42956839586260021 -0.099823066893351298 0 0.41128101332791339 -0.084690540418043497 0 0.42956839586260021 -0.099823066893351298 0 0.41128101332791339 -0.084690540418043497 0 0.42111709235629102 -0.083130543684889882 0 0.41128101332791339 -0.084690540418043497 0 0.42111709235629102 -0.083130543684889882 0 0.41229430499283148 -0.074987740586916637 0 0.43838725020888852 -0.086503678625914071 0 0.42956839586260021 -0.099823066893351298 0 0.42111709235629102 -0.083130543684889882 0 0.44083781926721849 -0.07167148767727069 0 0.43838725020888852 -0.086503678625914071 0 0.42111709235629102 -0.083130543684889882 0 0.44083781926721849 -0.07167148767727069 0 0.42111709235629102 -0.083130543684889882 0 0.44083781926721849 -0.07167148767727069 0 0.4235948296245301 -0.071646646613971673 0 0.42852159744637658 -0.061088008813704409 0 0.44083781926721849 -0.07167148767727069 0 0.42111709235629102 -0.083130543684889882 0 0.4235948296245301 -0.071646646613971673 0 0.43885303495432032 -0.061523158387983001 0 0.44083781926721849 -0.07167148767727069 0 0.42852159744637658 -0.061088008813704409 0 0.4235948296245301 -0.071646646613971673 0 0.41248495886219261 -0.065912958274946309 0 0.42852159744637658 -0.061088008813704409 0 0.42111709235629102 -0.083130543684889882 0 0.4235948296245301 -0.071646646613971673 0 0.41229430499283148 -0.074987740586916637 0 0.4235948296245301 -0.071646646613971673 0 0.41229430499283148 -0.074987740586916637 0 0.41248495886219261 -0.065912958274946309 0 0.41248495886219261 -0.065912958274946309 0 0.39299363079323008 -0.06955801394273145 0 0.39657944895238068 -0.06399102475017196 0 0.41128101332791339 -0.084690540418043497 0 0.39299363079323008 -0.06955801394273145 0 0.41229430499283148 -0.074987740586916637 0 0.41248495886219261 -0.065912958274946309 0 0.39299363079323008 -0.06955801394273145 0 0.41128101332791339 -0.084690540418043497 0 0.41229430499283148 -0.074987740586916637 0 0.39299363079323008 -0.06955801394273145 0 0.39299363079323008 -0.06955801394273145 0 0.39657944895238068 -0.06399102475017196 0 0.38239526636350041 -0.075885799435057549 0 0.39299363079323008 -0.06955801394273145 0 0.39657944895238068 -0.06399102475017196 0 0.39657944895238068 -0.06399102475017196 0 0.38239526636350041 -0.075885799435057549 0 0.38384044741453188 -0.057119215976211141 0 0.38239526636350041 -0.075885799435057549 0 0.38384044741453188 -0.057119215976211141 0 0.38239526636350041 -0.075885799435057549 0 0.38384044741453188 -0.057119215976211141 0 0.37399656981387569 -0.062461616764116837 0 0.39299363079323008 -0.06955801394273145 0 0.38239526636350041 -0.075885799435057549 0 0.38150957732531399 -0.08738702777030849 0 0.39657944895238068 -0.06399102475017196 0 0.38239526636350041 -0.075885799435057549 0 0.38239526636350041 -0.075885799435057549 0 0.37399656981387569 -0.062461616764116837 0 0.37187821865404541 -0.073385226930072572 0 0.38239526636350041 -0.075885799435057549 0 0.37187821865404541 -0.073385226930072572 0 0.37250813375658048 -0.084177092493506564 0 0.39299363079323008 -0.06955801394273145 0 0.38150957732531399 -0.08738702777030849 0 0.38239526636350041 -0.075885799435057549 0 0.38150957732531399 -0.08738702777030849 0 0.38239526636350041 -0.075885799435057549 0 0.38150957732531399 -0.08738702777030849 0 0.37250813375658048 -0.084177092493506564 0 0.38239526636350041 -0.075885799435057549 0 0.37250813375658048 -0.084177092493506564 0 0.41128101332791339 -0.084690540418043497 0 0.39299363079323008 -0.06955801394273145 0 0.38150957732531399 -0.08738702777030849 0 0.41128101332791339 -0.084690540418043497 0 0.38150957732531399 -0.08738702777030849 0 0.39521797991419982 -0.1003001884103957 0 0.40873754477022989 -0.1136119743593146 0 0.41128101332791339 -0.084690540418043497 0 0.39521797991419982 -0.1003001884103957 0 0.38150957732531399 -0.08738702777030849 0 0.37934378423334508 -0.1155112110939164 0 0.38150957732531399 -0.08738702777030849 0 0.39521797991419982 -0.1003001884103957 0 0.37934378423334508 -0.1155112110939164 0 0.38150957732531399 -0.08738702777030849 0 0.36944154193379142 -0.1061226745929468 0 0.38150957732531399 -0.08738702777030849 0 0.37934378423334508 -0.1155112110939164 0 0.36944154193379142 -0.1061226745929468 0 0.37934378423334508 -0.1155112110939164 0 0.37832409813727819 -0.1287524753701009 0 0.37934378423334508 -0.1155112110939164 0 0.37648634552666121 -0.128162964220709 0 0.37832409813727819 -0.1287524753701009 0 0.40873754477022989 -0.1136119743593146 0 0.37934378423334508 -0.1155112110939164 0 0.40097204220777982 -0.13601744425832429 0 0.40873754477022989 -0.1136119743593146 0 0.39521797991419982 -0.1003001884103957 0 0.37934378423334508 -0.1155112110939164 0 0.41080239322702422 -0.02084052825126461 0 0.4157690902138424 -0.034199071904189783 0 0.39342505328609723 -0.035204253590924661 0 0.41080239322702422 -0.02084052825126461 0 0.4281797331679516 -0.0064768029116052516 0 0.42480147490818532 -0.020176278292046369 0 0.41080239322702422 -0.02084052825126461 0 0.42480147490818532 -0.020176278292046369 0 0.4157690902138424 -0.034199071904189783 0 0.42480147490818532 -0.020176278292046369 0 0.4157690902138424 -0.034199071904189783 0 0.41080239322702422 -0.02084052825126461 0 0.4281797331679516 -0.0064768029116052516 0 0.41080239322702422 -0.02084052825126461 0 0.41457330589103508 -0.0066433149314555368 0 0.400196106343358 -0.0076650283668836059 0 0.41080239322702422 -0.02084052825126461 0 0.41457330589103508 -0.0066433149314555368 0 0.4281797331679516 -0.0064768029116052516 0 0.41009497645066811 0.0039050710386491299 0 0.41457330589103508 -0.0066433149314555368 0 0.400196106343358 -0.0076650283668836059 0 0.41897626367806479 0.00066143370406012173 0 0.41457330589103508 -0.0066433149314555368 0 0.4281797331679516 -0.0064768029116052516 0 0.41009497645066811 0.0039050710386491299 0 0.41897626367806479 0.00066143370406012173 0 0.41457330589103508 -0.0066433149314555368 0 0.44616978830999132 -0.0067247126137383838 0 0.4281797331679516 -0.0064768029116052516 0 0.43647993322734152 -0.017090192495124949 0 0.4281797331679516 -0.0064768029116052516 0 0.43647993322734152 -0.017090192495124949 0 0.42480147490818532 -0.020176278292046369 0 0.42480147490818532 -0.020176278292046369 0 0.43303155955265882 -0.033422492537474778 0 0.4157690902138424 -0.034199071904189783 0 0.43647993322734152 -0.017090192495124949 0 0.42480147490818532 -0.020176278292046369 0 0.43303155955265882 -0.033422492537474778 0 0.43303155955265882 -0.033422492537474778 0 0.43184727087558672 -0.047093391488808513 0 0.41480550425252027 -0.048706758643823921 0 0.43303155955265882 -0.033422492537474778 0 0.4157690902138424 -0.034199071904189783 0 0.43303155955265882 -0.033422492537474778 0 0.41480550425252027 -0.048706758643823921 0 0.44119354281757939 -0.040672027585114817 0 0.43303155955265882 -0.033422492537474778 0 0.43184727087558672 -0.047093391488808513 0 0.43184727087558672 -0.047093391488808513 0 0.42852159744637658 -0.061088008813704409 0 0.41480550425252027 -0.048706758643823921 0 0.44168415030879782 -0.051577669863923342 0 0.43885303495432032 -0.061523158387983001 0 0.42852159744637658 -0.061088008813704409 0 0.44168415030879782 -0.051577669863923342 0 0.43184727087558672 -0.047093391488808513 0 0.42852159744637658 -0.061088008813704409 0 0.41248495886219261 -0.065912958274946309 0 0.42852159744637658 -0.061088008813704409 0 0.41480550425252027 -0.048706758643823921 0 0.41248495886219261 -0.065912958274946309 0 0.39657944895238068 -0.06399102475017196 0 0.41480550425252027 -0.048706758643823921 0 0.43303155955265882 -0.033422492537474778 0 0.41480550425252027 -0.048706758643823921 0 0.4157690902138424 -0.034199071904189783 0 0.41480550425252027 -0.048706758643823921 0 0.4157690902138424 -0.034199071904189783 0 0.40617426958311242 -0.049095048327181312 0 0.4157690902138424 -0.034199071904189783 0 0.40617426958311242 -0.049095048327181312 0 0.4157690902138424 -0.034199071904189783 0 0.39342505328609723 -0.035204253590924661 0 0.4157690902138424 -0.034199071904189783 0 0.39342505328609723 -0.035204253590924661 0 0.40617426958311242 -0.049095048327181312 0 0.39342505328609723 -0.035204253590924661 0 0.40617426958311242 -0.049095048327181312 0 0.39272973982143422 -0.049801373967598893 0 0.39657944895238068 -0.06399102475017196 0 0.41480550425252027 -0.048706758643823921 0 0.39657944895238068 -0.06399102475017196 0 0.41480550425252027 -0.048706758643823921 0 0.40617426958311242 -0.049095048327181312 0 0.39657944895238068 -0.06399102475017196 0 0.40617426958311242 -0.049095048327181312 0 0.39657944895238068 -0.06399102475017196 0 0.40617426958311242 -0.049095048327181312 0 0.39272973982143422 -0.049801373967598893 0 0.39657944895238068 -0.06399102475017196 0 0.39272973982143422 -0.049801373967598893 0 0.38384044741453188 -0.057119215976211141 0 0.39272973982143422 -0.049801373967598893 0 0.38384044741453188 -0.057119215976211141 0 0.3818667058031962 -0.044758128302997073 0 0.38384044741453188 -0.057119215976211141 0 0.37599297436973311 -0.05025206290640493 0 0.3818667058031962 -0.044758128302997073 0 0.38384044741453188 -0.057119215976211141 0 0.37599297436973311 -0.05025206290640493 0 0.37399656981387569 -0.062461616764116837 0 0.39342505328609723 -0.035204253590924661 0 0.3818667058031962 -0.044758128302997073 0 0.37408676880857261 -0.036074216770478298 0 0.39342505328609723 -0.035204253590924661 0 0.38277589814286372 -0.02608624261155006 0 0.37408676880857261 -0.036074216770478298 0 0.39342505328609723 -0.035204253590924661 0 0.37408676880857261 -0.036074216770478298 0 0.39342505328609723 -0.035204253590924661 0 0.39272973982143422 -0.049801373967598893 0 0.3818667058031962 -0.044758128302997073 0 0.39342505328609723 -0.035204253590924661 0 0.3818667058031962 -0.044758128302997073 0 0.37599297436973311 -0.05025206290640493 0 0.3818667058031962 -0.044758128302997073 0 0.37408676880857261 -0.036074216770478298 0 0.38277589814286372 -0.02608624261155006 0 0.37898781164764822 -0.01117852005808853 0 0.36533524944456658 -0.023406129650250369 0 0.38277589814286372 -0.02608624261155006 0 0.39406158510810507 -0.020900816615938692 0 0.37898781164764822 -0.01117852005808853 0 0.39342505328609723 -0.035204253590924661 0 0.38277589814286372 -0.02608624261155006 0 0.39406158510810507 -0.020900816615938692 0 0.41080239322702422 -0.02084052825126461 0 0.39406158510810507 -0.020900816615938692 0 0.400196106343358 -0.0076650283668836059 0 0.41080239322702422 -0.02084052825126461 0 0.39342505328609723 -0.035204253590924661 0 0.39406158510810507 -0.020900816615938692 0 0.41080239322702422 -0.02084052825126461 0 0.39342505328609723 -0.035204253590924661 0 0.39406158510810507 -0.020900816615938692 0 0.400196106343358 -0.0076650283668836059 0 0.37898781164764822 -0.01117852005808853 0 0.39265656573566748 0.0096679386167966043 0 0.400196106343358 -0.0076650283668836059 0 0.37898781164764822 -0.01117852005808853 0 0.35915158492916199 0.0079260634808653013 0 0.37898781164764822 -0.01117852005808853 0 0.35556673563382762 -0.0092385748170215991 0 0.37898781164764822 -0.01117852005808853 0 0.35556673563382762 -0.0092385748170215991 0 0.37898781164764822 -0.01117852005808853 0 0.36533524944456658 -0.023406129650250369 0 0.35556673563382762 -0.0092385748170215991 0 0.38277589814286372 -0.02608624261155006 0 0.36533524944456658 -0.023406129650250369 0 0.37408676880857261 -0.036074216770478298 0 0.36533524944456658 -0.023406129650250369 0 0.34528392997144841 -0.02065693021093791 0 0.35474848433104789 -0.036944179950031242 0 0.34528392997144841 -0.02065693021093791 0 0.33877122988932418 -0.030413225822010458 0 0.35474848433104789 -0.036944179950031242 0 0.36533524944456658 -0.023406129650250369 0 0.34528392997144841 -0.02065693021093791 0 0.35556673563382762 -0.0092385748170215991 0 0.35556673563382762 -0.0092385748170215991 0 0.33214565962000692 -0.0072986295759546668 0 0.34528392997144841 -0.02065693021093791 0 0.35556673563382762 -0.0092385748170215991 0 0.33214565962000692 -0.0072986295759546668 0 0.33938907275826552 0.01063358945049037 0 0.35556673563382762 -0.0092385748170215991 0 0.33214565962000692 -0.0072986295759546668 0 0.33214565962000692 -0.0072986295759546668 0 0.33104291587925999 -0.019261687345335309 0 0.32393707334895128 -0.014693251642263139 0 0.34528392997144841 -0.02065693021093791 0 0.33214565962000692 -0.0072986295759546668 0 0.33104291587925999 -0.019261687345335309 0 0.34528392997144841 -0.02065693021093791 0 0.33877122988932418 -0.030413225822010458 0 0.33104291587925999 -0.019261687345335309 0 0.33877122988932418 -0.030413225822010458 0 0.33104291587925999 -0.019261687345335309 0 0.32383513429035082 -0.02685400531287762 0 0.32383513429035082 -0.02685400531287762 0 0.32393707334895128 -0.014693251642263139 0 0.30872458360618632 -0.0053586843348857188 0 0.33104291587925999 -0.019261687345335309 0 0.32383513429035082 -0.02685400531287762 0 0.32393707334895128 -0.014693251642263139 0 0.31889935370817962 -0.030288399934848029 0 0.32383513429035082 -0.02685400531287762 0 0.30669332649862419 -0.01109586361129177 0 0.31889935370817962 -0.030288399934848029 0 0.314442955565715 -0.037553256275193167 0 0.30669332649862419 -0.01109586361129177 0 0.31889935370817962 -0.030288399934848029 0 0.30669332649862419 -0.01109586361129177 0 0.32383513429035082 -0.02685400531287762 0 0.30872458360618632 -0.0053586843348857188 0 0.32383513429035082 -0.02685400531287762 0 0.30669332649862419 -0.01109586361129177 0 0.30872458360618632 -0.0053586843348857188 0 0.33214565962000692 -0.0072986295759546668 0 0.32393707334895128 -0.014693251642263139 0 0.30872458360618632 -0.0053586843348857188 0 0.33214565962000692 -0.0072986295759546668 0 0.30872458360618632 -0.0053586843348857188 0 0.31483687449220549 0.002832224057131111 0 0.33214565962000692 -0.0072986295759546668 0 0.30872458360618632 -0.0053586843348857188 0 0.314442955565715 -0.037553256275193167 0 0.32219258463280592 -0.064010648939094514 0 0.30365769883117838 -0.044217921006371709 0 0.314442955565715 -0.037553256275193167 0 0.33894568497451411 -0.048349326290870208 0 0.32219258463280592 -0.064010648939094514 0 0.314442955565715 -0.037553256275193167 0 0.32219258463280592 -0.064010648939094514 0 0.31889935370817962 -0.030288399934848029 0 0.314442955565715 -0.037553256275193167 0 0.33894568497451411 -0.048349326290870208 0 0.31889935370817962 -0.030288399934848029 0 0.32383513429035082 -0.02685400531287762 0 0.33894568497451411 -0.048349326290870208 0 0.32383513429035082 -0.02685400531287762 0 0.33894568497451411 -0.048349326290870208 0 0.33877122988932418 -0.030413225822010458 0 0.32383513429035082 -0.02685400531287762 0 0.33894568497451411 -0.048349326290870208 0 0.33894568497451411 -0.048349326290870208 0 0.34490711484355979 -0.064050126546692704 0 0.32219258463280592 -0.064010648939094514 0 0.33894568497451411 -0.048349326290870208 0 0.35316174971769271 -0.051119266768919133 0 0.34490711484355979 -0.064050126546692704 0 0.35316174971769271 -0.051119266768919133 0 0.36341508881179929 -0.06554338567096013 0 0.34490711484355979 -0.064050126546692704 0 0.33894568497451411 -0.048349326290870208 0 0.35316174971769271 -0.051119266768919133 0 0.35474848433104789 -0.036944179950031242 0 0.33877122988932418 -0.030413225822010458 0 0.33894568497451411 -0.048349326290870208 0 0.35474848433104789 -0.036944179950031242 0 0.35316174971769271 -0.051119266768919133 0 0.35474848433104789 -0.036944179950031242 0 0.36617438000848901 -0.050847136718221247 0 0.36533524944456658 -0.023406129650250369 0 0.35474848433104789 -0.036944179950031242 0 0.37408676880857261 -0.036074216770478298 0 0.35474848433104789 -0.036944179950031242 0 0.37408676880857261 -0.036074216770478298 0 0.35474848433104789 -0.036944179950031242 0 0.37408676880857261 -0.036074216770478298 0 0.36617438000848901 -0.050847136718221247 0 0.37599297436973311 -0.05025206290640493 0 0.37408676880857261 -0.036074216770478298 0 0.36617438000848901 -0.050847136718221247 0 0.35316174971769271 -0.051119266768919133 0 0.36617438000848901 -0.050847136718221247 0 0.36341508881179929 -0.06554338567096013 0 0.37599297436973311 -0.05025206290640493 0 0.36617438000848901 -0.050847136718221247 0 0.37399656981387569 -0.062461616764116837 0 0.36617438000848901 -0.050847136718221247 0 0.37399656981387569 -0.062461616764116837 0 0.36341508881179929 -0.06554338567096013 0 0.37399656981387569 -0.062461616764116837 0 0.36341508881179929 -0.06554338567096013 0 0.37187821865404541 -0.073385226930072572 0 0.36341508881179929 -0.06554338567096013 0 0.36468605026092138 -0.077765137298670184 0 0.3535392414215866 -0.078255762911707952 0 0.36341508881179929 -0.06554338567096013 0 0.36468605026092138 -0.077765137298670184 0 0.37187821865404541 -0.073385226930072572 0 0.36468605026092138 -0.077765137298670184 0 0.37187821865404541 -0.073385226930072572 0 0.37250813375658048 -0.084177092493506564 0 0.38150957732531399 -0.08738702777030849 0 0.37250813375658048 -0.084177092493506564 0 0.36935991114130579 -0.092701560101932076 0 0.37250813375658048 -0.084177092493506564 0 0.36935991114130579 -0.092701560101932076 0 0.36208956866059511 -0.087464218487103743 0 0.36935991114130579 -0.092701560101932076 0 0.36208956866059511 -0.087464218487103743 0 0.36125073403024882 -0.098356787165794463 0 0.36468605026092138 -0.077765137298670184 0 0.36208956866059511 -0.087464218487103743 0 0.3535392414215866 -0.078255762911707952 0 0.36468605026092138 -0.077765137298670184 0 0.37250813375658048 -0.084177092493506564 0 0.36208956866059511 -0.087464218487103743 0 0.36208956866059511 -0.087464218487103743 0 0.3535392414215866 -0.078255762911707952 0 0.34702771845632119 -0.094184473173097499 0 0.3535392414215866 -0.078255762911707952 0 0.34702771845632119 -0.094184473173097499 0 0.33818833950296079 -0.077022368698604363 0 0.36208956866059511 -0.087464218487103743 0 0.36125073403024882 -0.098356787165794463 0 0.34702771845632119 -0.094184473173097499 0 0.36341508881179929 -0.06554338567096013 0 0.3535392414215866 -0.078255762911707952 0 0.34490711484355979 -0.064050126546692704 0 0.3535392414215866 -0.078255762911707952 0 0.34490711484355979 -0.064050126546692704 0 0.33818833950296079 -0.077022368698604363 0 0.36470071927033793 -0.113482810372266 0 0.35888227241674919 -0.1225159596603199 0 0.37648634552666121 -0.128162964220709 0 0.36470071927033793 -0.113482810372266 0 0.35888227241674919 -0.1225159596603199 0 0.37934378423334508 -0.1155112110939164 0 0.36470071927033793 -0.113482810372266 0 0.37648634552666121 -0.128162964220709 0 0.36470071927033793 -0.113482810372266 0 0.37648634552666121 -0.128162964220709 0 0.37934378423334508 -0.1155112110939164 0 0.36944154193379142 -0.1061226745929468 0 0.37934378423334508 -0.1155112110939164 0 0.36470071927033793 -0.113482810372266 0 0.36944154193379142 -0.1061226745929468 0 0.36470071927033793 -0.113482810372266 0 0.36065067066371759 -0.1085348234248332 0 0.36944154193379142 -0.1061226745929468 0 0.36470071927033793 -0.113482810372266 0 0.36065067066371759 -0.1085348234248332 0 0.35888227241674919 -0.1225159596603199 0 0.36470071927033793 -0.113482810372266 0 0.36944154193379142 -0.1061226745929468 0 0.38150957732531399 -0.08738702777030849 0 0.36935991114130579 -0.092701560101932076 0 0.36944154193379142 -0.1061226745929468 0 0.36944154193379142 -0.1061226745929468 0 0.36125073403024882 -0.098356787165794463 0 0.36065067066371759 -0.1085348234248332 0 0.36944154193379142 -0.1061226745929468 0 0.36125073403024882 -0.098356787165794463 0 0.36935991114130579 -0.092701560101932076 0 0.36944154193379142 -0.1061226745929468 0 0.36125073403024882 -0.098356787165794463 0 0.36125073403024882 -0.098356787165794463 0 0.34702771845632119 -0.094184473173097499 0 0.35302813427408081 -0.1071438722802712 0 0.34702771845632119 -0.094184473173097499 0 0.34386591217427331 -0.1067764981182672 0 0.35302813427408081 -0.1071438722802712 0 0.34386591217427331 -0.1067764981182672 0 0.35302813427408081 -0.1071438722802712 0 0.34906382797694252 -0.11318166604912611 0 0.36065067066371759 -0.1085348234248332 0 0.36125073403024882 -0.098356787165794463 0 0.35302813427408081 -0.1071438722802712 0 0.34906382797694252 -0.11318166604912611 0 0.35888227241674919 -0.1225159596603199 0 0.34270678016947698 -0.11732721283357429 0 0.35888227241674919 -0.1225159596603199 0 0.34270678016947698 -0.11732721283357429 0 0.36065067066371759 -0.1085348234248332 0 0.35302813427408081 -0.1071438722802712 0 0.35888227241674919 -0.1225159596603199 0 0.35302813427408081 -0.1071438722802712 0 0.34906382797694252 -0.11318166604912611 0 0.35888227241674919 -0.1225159596603199 0 0.34386591217427331 -0.1067764981182672 0 0.34906382797694252 -0.11318166604912611 0 0.34270678016947698 -0.11732721283357429 0 0.34386591217427331 -0.1067764981182672 0 0.34270678016947698 -0.11732721283357429 0 0.33769184276698749 -0.116925434266897 0 0.33769184276698749 -0.116925434266897 0 0.32994221369989668 -0.090468041602995874 0 0.34386591217427331 -0.1067764981182672 0 0.33769184276698749 -0.116925434266897 0 0.32994221369989668 -0.090468041602995874 0 0.34702771845632119 -0.094184473173097499 0 0.34386591217427331 -0.1067764981182672 0 0.32994221369989668 -0.090468041602995874 0 0.3146630019107105 -0.1111230659484212 0 0.32994221369989668 -0.090468041602995874 0 0.30545681348555331 -0.08539399450045429 0 0.33769184276698749 -0.116925434266897 0 0.3146630019107105 -0.1111230659484212 0 0.32994221369989668 -0.090468041602995874 0 0.33769184276698749 -0.116925434266897 0 0.3146630019107105 -0.1111230659484212 0 0.32386919033586758 -0.1368521373963881 0 0.3146630019107105 -0.1111230659484212 0 0.32386919033586758 -0.1368521373963881 0 0.34490711484355979 -0.064050126546692704 0 0.33818833950296079 -0.077022368698604363 0 0.32219258463280592 -0.064010648939094514 0 0.33818833950296079 -0.077022368698604363 0 0.32994221369989668 -0.090468041602995874 0 0.32219258463280592 -0.064010648939094514 0 0.34702771845632119 -0.094184473173097499 0 0.33818833950296079 -0.077022368698604363 0 0.32994221369989668 -0.090468041602995874 0 0.32994221369989668 -0.090468041602995874 0 0.30858649601180399 -0.070602618650759327 0 0.30545681348555331 -0.08539399450045429 0 0.32994221369989668 -0.090468041602995874 0 0.32219258463280592 -0.064010648939094514 0 0.32994221369989668 -0.090468041602995874 0 0.32219258463280592 -0.064010648939094514 0 0.30858649601180399 -0.070602618650759327 0 0.30545681348555331 -0.08539399450045429 0 0.29625062506039618 -0.059664923052487322 0 0.30858649601180399 -0.070602618650759327 0 0.30545681348555331 -0.08539399450045429 0 0.29625062506039618 -0.059664923052487322 0 0.32219258463280592 -0.064010648939094514 0 0.30858649601180399 -0.070602618650759327 0 0.30235244850459853 -0.056828862303271242 0 0.30545681348555331 -0.08539399450045429 0 0.28549220902505718 -0.085593347451699581 0 0.29525068796770942 -0.1030030443394792 0 0.27330550655162361 -0.070329562989045025 0 0.29123141869238939 -0.060550841264584279 0 0.29625062506039618 -0.059664923052487322 0 0.27330550655162361 -0.070329562989045025 0 0.29625062506039618 -0.059664923052487322 0 0.30545681348555331 -0.08539399450045429 0 0.28549220902505718 -0.085593347451699581 0 0.29625062506039618 -0.059664923052487322 0 0.28549220902505718 -0.085593347451699581 0 0.27330550655162361 -0.070329562989045025 0 0.29625062506039618 -0.059664923052487322 0 0.3146630019107105 -0.1111230659484212 0 0.29525068796770942 -0.1030030443394792 0 0.29513323820690268 -0.1273986056088563 0 0.3146630019107105 -0.1111230659484212 0 0.30545681348555331 -0.08539399450045429 0 0.29525068796770942 -0.1030030443394792 0 0.3146630019107105 -0.1111230659484212 0 0.30545681348555331 -0.08539399450045429 0 0.28549220902505718 -0.085593347451699581 0 0.29525068796770942 -0.1030030443394792 0 0.27550817721032361 -0.1055062081879647 0 0.29525068796770942 -0.1030030443394792 0 0.27550817721032361 -0.1055062081879647 0 0.29513323820690268 -0.1273986056088563 0 0.27550817721032361 -0.1055062081879647 0 0.26546892566193231 -0.1358239841599812 0 0.29513323820690268 -0.1273986056088563 0 0.27550817721032361 -0.1055062081879647 0 0.26670448122355611 -0.089867910678253088 0 0.24773076343232489 -0.11194471229237909 0 0.26670448122355611 -0.089867910678253088 0 0.25036038804285082 -0.080994202925602082 0 0.24773076343232489 -0.11194471229237909 0 0.27550817721032361 -0.1055062081879647 0 0.26546892566193231 -0.1358239841599812 0 0.24773076343232489 -0.11194471229237909 0 0.27330550655162361 -0.070329562989045025 0 0.25751068913328939 -0.063954986009077994 0 0.26833522515522229 -0.056596875488382742 0 0.28549220902505718 -0.085593347451699581 0 0.27330550655162361 -0.070329562989045025 0 0.26670448122355611 -0.089867910678253088 0 0.28549220902505718 -0.085593347451699581 0 0.27550817721032361 -0.1055062081879647 0 0.26670448122355611 -0.089867910678253088 0 0.27330550655162361 -0.070329562989045025 0 0.26670448122355611 -0.089867910678253088 0 0.25036038804285082 -0.080994202925602082 0 0.27330550655162361 -0.070329562989045025 0 0.25036038804285082 -0.080994202925602082 0 0.27330550655162361 -0.070329562989045025 0 0.25036038804285082 -0.080994202925602082 0 0.25751068913328939 -0.063954986009077994 0 0.25751068913328939 -0.063954986009077994 0 0.25824058407494688 -0.049435220191031921 0 0.24438717338176699 -0.054105405518205238 0 0.25824058407494688 -0.049435220191031921 0 0.24438717338176699 -0.054105405518205238 0 0.2480947890546242 -0.045966293254975567 0 0.25751068913328939 -0.063954986009077994 0 0.25824058407494688 -0.049435220191031921 0 0.26833522515522229 -0.056596875488382742 0 0.27330550655162361 -0.070329562989045025 0 0.26833522515522229 -0.056596875488382742 0 0.28127593121444222 -0.053273343437439821 0 0.25824058407494688 -0.049435220191031921 0 0.26833522515522229 -0.056596875488382742 0 0.27134341480180918 -0.0459912648153189 0 0.26833522515522229 -0.056596875488382742 0 0.27134341480180918 -0.0459912648153189 0 0.28127593121444222 -0.053273343437439821 0 0.28068685106863189 -0.042768739469615367 0 0.27134341480180918 -0.0459912648153189 0 0.28127593121444222 -0.053273343437439821 0 0.28068685106863189 -0.042768739469615367 0 0.2725116089567366 -0.034929080799236727 0 0.28729972284974359 -0.03464931486959115 0 0.28068685106863189 -0.042768739469615367 0 0.27134341480180918 -0.0459912648153189 0 0.2725116089567366 -0.034929080799236727 0 0.27134341480180918 -0.0459912648153189 0 0.2725116089567366 -0.034929080799236727 0 0.26400378617379933 -0.040408361231744232 0 0.2725116089567366 -0.034929080799236727 0 0.26074657356094638 -0.032086525775053033 0 0.26400378617379933 -0.040408361231744232 0 0.26074657356094638 -0.032086525775053033 0 0.26400378617379933 -0.040408361231744232 0 0.25117533351094129 -0.037336580867862117 0 0.25824058407494688 -0.049435220191031921 0 0.27134341480180918 -0.0459912648153189 0 0.26400378617379933 -0.040408361231744232 0 0.25824058407494688 -0.049435220191031921 0 0.25117533351094129 -0.037336580867862117 0 0.2480947890546242 -0.045966293254975567 0 0.25824058407494688 -0.049435220191031921 0 0.26400378617379933 -0.040408361231744232 0 0.25117533351094129 -0.037336580867862117 0 0.26074657356094638 -0.032086525775053033 0 0.25117533351094129 -0.037336580867862117 0 0.25496149132205381 -0.026198307184793539 0 0.25117533351094129 -0.037336580867862117 0 0.25496149132205381 -0.026198307184793539 0 0.24692454306444639 -0.027596528692534771 0 0.25496149132205381 -0.026198307184793539 0 0.25819897443239292 -0.01703612764640754 0 0.24759495222635161 -0.018769166369227801 0 0.25819897443239292 -0.01703612764640754 0 0.26546566106218578 -0.023898857826792481 0 0.26853358871840749 -0.012269336606309319 0 0.25496149132205381 -0.026198307184793539 0 0.25819897443239292 -0.01703612764640754 0 0.26546566106218578 -0.023898857826792481 0 0.26074657356094638 -0.032086525775053033 0 0.25496149132205381 -0.026198307184793539 0 0.26546566106218578 -0.023898857826792481 0 0.25819897443239292 -0.01703612764640754 0 0.25588371482308608 -0.0061647016811608134 0 0.24759495222635161 -0.018769166369227801 0 0.25819897443239292 -0.01703612764640754 0 0.25588371482308608 -0.0061647016811608134 0 0.26853358871840749 -0.012269336606309319 0 0.27598913265549041 0.002700792776901364 0 0.25588371482308608 -0.0061647016811608134 0 0.26853358871840749 -0.012269336606309319 0 0.27598913265549041 0.002700792776901364 0 0.26853358871840749 -0.012269336606309319 0 0.2905643360198632 -0.0150224844328585 0 0.26853358871840749 -0.012269336606309319 0 0.27662353418633168 -0.02384655221281862 0 0.2905643360198632 -0.0150224844328585 0 0.2725116089567366 -0.034929080799236727 0 0.26546566106218578 -0.023898857826792481 0 0.27662353418633168 -0.02384655221281862 0 0.2725116089567366 -0.034929080799236727 0 0.26074657356094638 -0.032086525775053033 0 0.26546566106218578 -0.023898857826792481 0 0.26546566106218578 -0.023898857826792481 0 0.26853358871840749 -0.012269336606309319 0 0.27662353418633168 -0.02384655221281862 0 0.2725116089567366 -0.034929080799236727 0 0.27662353418633168 -0.02384655221281862 0 0.28729972284974359 -0.03464931486959115 0 0.27662353418633168 -0.02384655221281862 0 0.2905643360198632 -0.0150224844328585 0 0.28729972284974359 -0.03464931486959115 0 0.2905643360198632 -0.0150224844328585 0 0.30081408358685557 -0.02758551104699267 0 0.29100357752042838 -0.045000693426490247 0 0.2905643360198632 -0.0150224844328585 0 0.29100357752042838 -0.045000693426490247 0 0.2905643360198632 -0.0150224844328585 0 0.29852260708532452 -0.01262284752975068 0 0.30081408358685557 -0.02758551104699267 0 0.29012509451929769 0.0149557245607731 0 0.2905643360198632 -0.0150224844328585 0 0.29725171961803792 -0.0044083980251518858 0 0.29012509451929769 0.0149557245607731 0 0.2905643360198632 -0.0150224844328585 0 0.2905643360198632 -0.0150224844328585 0 0.29725171961803792 -0.0044083980251518858 0 0.29852260708532452 -0.01262284752975068 0 0.30236152105378 0.0036930090696695372 0 0.30272876338121668 -0.0048620563018758464 0 0.30492055949125441 -0.0050436006694624426 0 0.29725171961803792 -0.0044083980251518858 0 0.30272876338121668 -0.0048620563018758464 0 0.29852260708532452 -0.01262284752975068 0 0.30236152105378 0.0036930090696695372 0 0.30492055949125441 -0.0050436006694624426 0 0.29725171961803792 -0.0044083980251518858 0 0.30272876338121668 -0.0048620563018758464 0 0.30272876338121668 -0.0048620563018758464 0 0.30492055949125441 -0.0050436006694624426 0 0.30272876338121668 -0.0048620563018758464 0 0.29852260708532452 -0.01262284752975068 0 0.30669332649862419 -0.01109586361129177 0 0.30669332649862419 -0.01109586361129177 0 0.30492055949125441 -0.0050436006694624426 0 0.30272876338121668 -0.0048620563018758464 0 0.30669332649862419 -0.01109586361129177 0 0.30236152105378 0.0036930090696695372 0 0.30872458360618632 -0.0053586843348857188 0 0.30236152105378 0.0036930090696695372 0 0.30492055949125441 -0.0050436006694624426 0 0.30872458360618632 -0.0053586843348857188 0 0.30669332649862419 -0.01109586361129177 0 0.30492055949125441 -0.0050436006694624426 0 0.30872458360618632 -0.0053586843348857188 0 0.30272876338121668 -0.0048620563018758464 0 0.30669332649862419 -0.01109586361129177 0 0.30492055949125441 -0.0050436006694624426 0 0.30492055949125441 -0.0050436006694624426 0 0.30872458360618632 -0.0053586843348857188 0 0.314442955565715 -0.037553256275193167 0 0.30669332649862419 -0.01109586361129177 0 0.314442955565715 -0.037553256275193167 0 0.30669332649862419 -0.01109586361129177 0 0.30081408358685557 -0.02758551104699267 0 0.29852260708532452 -0.01262284752975068 0 0.30669332649862419 -0.01109586361129177 0 0.30081408358685557 -0.02758551104699267 0 0.30081408358685557 -0.02758551104699267 0 0.30365769883117838 -0.044217921006371709 0 0.29100357752042838 -0.045000693426490247 0 0.314442955565715 -0.037553256275193167 0 0.30081408358685557 -0.02758551104699267 0 0.30365769883117838 -0.044217921006371709 0 0.32219258463280592 -0.064010648939094514 0 0.30365769883117838 -0.044217921006371709 0 0.30235244850459853 -0.056828862303271242 0 0.30858649601180399 -0.070602618650759327 0 0.30235244850459853 -0.056828862303271242 0 0.29625062506039618 -0.059664923052487322 0 0.30235244850459853 -0.056828862303271242 0 0.29625062506039618 -0.059664923052487322 0 0.30365769883117838 -0.044217921006371709 0 0.30235244850459853 -0.056828862303271242 0 0.29100357752042838 -0.045000693426490247 0 0.30235244850459853 -0.056828862303271242 0 0.29625062506039618 -0.059664923052487322 0 0.29100357752042838 -0.045000693426490247 0 0.29123141869238939 -0.060550841264584279 0 0.29100357752042838 -0.045000693426490247 0 0.27330550655162361 -0.070329562989045025 0 0.29123141869238939 -0.060550841264584279 0 0.28127593121444222 -0.053273343437439821 0 0.29625062506039618 -0.059664923052487322 0 0.29100357752042838 -0.045000693426490247 0 0.29123141869238939 -0.060550841264584279 0 0.29625062506039618 -0.059664923052487322 0 0.29100357752042838 -0.045000693426490247 0 0.29123141869238939 -0.060550841264584279 0 0.28127593121444222 -0.053273343437439821 0 0.29100357752042838 -0.045000693426490247 0 0.28068685106863189 -0.042768739469615367 0 0.28127593121444222 -0.053273343437439821 0 0.29100357752042838 -0.045000693426490247 0 0.2905643360198632 -0.0150224844328585 0 0.28729972284974359 -0.03464931486959115 0 0.29100357752042838 -0.045000693426490247 0 0.28068685106863189 -0.042768739469615367 0 0.28729972284974359 -0.03464931486959115 0 0.29100357752042838 -0.045000693426490247 0 0.28729972284974359 -0.03464931486959115 0 0.29100357752042838 -0.045000693426490247 0 0.28323921807590452 -0.21471415656553139 0 0.29353611780662697 -0.19008435279266181 0 0.3035329552806848 -0.20558737528796089 0 0.28323921807590452 -0.21471415656553139 0 0.3035329552806848 -0.20558737528796089 0 0.29748256776229581 -0.220886853963117 0 0.28323921807590452 -0.21471415656553139 0 0.29353611780662697 -0.19008435279266181 0 0.26925372904517608 -0.19003272049834211 0 0.29353611780662697 -0.19008435279266181 0 0.31208084341075332 -0.19009786032476589 0 0.3035329552806848 -0.20558737528796089 0 0.31208084341075332 -0.19009786032476589 0 0.3035329552806848 -0.20558737528796089 0 0.31892108884509601 -0.20466356123903129 0 0.3035329552806848 -0.20558737528796089 0 0.3114159520914474 -0.21134282389962489 0 0.31892108884509601 -0.20466356123903129 0 0.3035329552806848 -0.20558737528796089 0 0.30663479565466278 -0.21847385935877339 0 0.29748256776229581 -0.220886853963117 0 0.3035329552806848 -0.20558737528796089 0 0.3114159520914474 -0.21134282389962489 0 0.30663479565466278 -0.21847385935877339 0 0.3114159520914474 -0.21134282389962489 0 0.30663479565466278 -0.21847385935877339 0 0.31658175095876367 -0.2182296243775472 0 0.3036409362625152 -0.2282847194198952 0 0.29748256776229581 -0.220886853963117 0 0.29722470710663301 -0.23939559263272081 0 0.30663479565466278 -0.21847385935877339 0 0.31147951467216639 -0.22593456563964431 0 0.3036409362625152 -0.2282847194198952 0 0.30663479565466278 -0.21847385935877339 0 0.31147951467216639 -0.22593456563964431 0 0.31658175095876367 -0.2182296243775472 0 0.31147951467216639 -0.22593456563964431 0 0.3036409362625152 -0.2282847194198952 0 0.3088129829012784 -0.23774344222986871 0 0.30663479565466278 -0.21847385935877339 0 0.3036409362625152 -0.2282847194198952 0 0.29748256776229581 -0.220886853963117 0 0.30503355016040851 -0.24455767959907179 0 0.3088129829012784 -0.23774344222986871 0 0.32140124380329088 -0.23461863491331561 0 0.30503355016040851 -0.24455767959907179 0 0.32140124380329088 -0.23461863491331561 0 0.30422372247005153 -0.25477663167984083 0 0.3036409362625152 -0.2282847194198952 0 0.3088129829012784 -0.23774344222986871 0 0.29722470710663301 -0.23939559263272081 0 0.30503355016040851 -0.24455767959907179 0 0.3088129829012784 -0.23774344222986871 0 0.29722470710663301 -0.23939559263272081 0 0.30503355016040851 -0.24455767959907179 0 0.29722470710663301 -0.23939559263272081 0 0.30422372247005153 -0.25477663167984083 0 0.29722470710663301 -0.23939559263272081 0 0.28413004761536498 -0.2381259043685697 0 0.30422372247005153 -0.25477663167984083 0 0.28413004761536498 -0.2381259043685697 0 0.27543402669994532 -0.24910534309240301 0 0.28573134910733872 -0.25585429266773813 0 0.28413004761536498 -0.2381259043685697 0 0.30422372247005153 -0.25477663167984083 0 0.28573134910733872 -0.25585429266773813 0 0.28413004761536498 -0.2381259043685697 0 0.30422372247005153 -0.25477663167984083 0 0.28323921807590452 -0.21471415656553139 0 0.29748256776229581 -0.220886853963117 0 0.29722470710663301 -0.23939559263272081 0 0.28323921807590452 -0.21471415656553139 0 0.29722470710663301 -0.23939559263272081 0 0.28413004761536498 -0.2381259043685697 0 0.28323921807590452 -0.21471415656553139 0 0.29722470710663301 -0.23939559263272081 0 0.28323921807590452 -0.21471415656553139 0 0.28413004761536498 -0.2381259043685697 0 0.26403637276067871 -0.22147517705729849 0 0.28413004761536498 -0.2381259043685697 0 0.26358232833744422 -0.2424727382481226 0 0.26403637276067871 -0.22147517705729849 0 0.28413004761536498 -0.2381259043685697 0 0.26403637276067871 -0.22147517705729849 0 0.28413004761536498 -0.2381259043685697 0 0.27543402669994532 -0.24910534309240301 0 0.26358232833744422 -0.2424727382481226 0 0.26358232833744422 -0.2424727382481226 0 0.249183462268279 -0.25713094297952488 0 0.23991114730868279 -0.23163852260462789 0 0.26358232833744422 -0.2424727382481226 0 0.26403637276067871 -0.22147517705729849 0 0.23991114730868279 -0.23163852260462789 0 0.26403637276067871 -0.22147517705729849 0 0.26925372904517608 -0.19003272049834211 0 0.2439426979059923 -0.20482444974602729 0 0.26403637276067871 -0.22147517705729849 0 0.2439426979059923 -0.20482444974602729 0 0.28323921807590452 -0.21471415656553139 0 0.26403637276067871 -0.22147517705729849 0 0.26925372904517608 -0.19003272049834211 0 0.28323921807590452 -0.21471415656553139 0 0.26925372904517608 -0.19003272049834211 0 0.26925372904517608 -0.19003272049834211 0 0.244462968919885 -0.183239804984342 0 0.2439426979059923 -0.20482444974602729 0 0.26925372904517608 -0.19003272049834211 0 0.2552682400144477 -0.1653512844311528 0 0.244462968919885 -0.183239804984342 0 0.26925372904517608 -0.19003272049834211 0 0.2552682400144477 -0.1653512844311528 0 0.2552682400144477 -0.1653512844311528 0 0.28600630015430228 -0.1519732718427074 0 0.28212161233344513 -0.17311283781805961 0 0.26925372904517608 -0.19003272049834211 0 0.2552682400144477 -0.1653512844311528 0 0.28212161233344513 -0.17311283781805961 0 0.26546892566193231 -0.1358239841599812 0 0.24773076343232489 -0.11194471229237909 0 0.2455508571621941 -0.14546861019775381 0 0.2552682400144477 -0.1653512844311528 0 0.26546892566193231 -0.1358239841599812 0 0.2455508571621941 -0.14546861019775381 0 0.2552682400144477 -0.1653512844311528 0 0.26546892566193231 -0.1358239841599812 0 0.28600630015430228 -0.1519732718427074 0 0.26546892566193231 -0.1358239841599812 0 0.28600630015430228 -0.1519732718427074 0 0.26546892566193231 -0.1358239841599812 0 0.29513323820690268 -0.1273986056088563 0 0.28600630015430228 -0.1519732718427074 0 0.29513323820690268 -0.1273986056088563 0 0.28600630015430228 -0.1519732718427074 0 0.30612502930667101 -0.14828346353624949 0 0.28600630015430228 -0.1519732718427074 0 0.30612502930667101 -0.14828346353624949 0 0.30654367464667243 -0.16812255952543359 0 0.29513323820690268 -0.1273986056088563 0 0.30612502930667101 -0.14828346353624949 0 0.32386919033586758 -0.1368521373963881 0 0.3146630019107105 -0.1111230659484212 0 0.29513323820690268 -0.1273986056088563 0 0.32386919033586758 -0.1368521373963881 0 0.29353611780662697 -0.19008435279266181 0 0.28212161233344513 -0.17311283781805961 0 0.30654367464667243 -0.16812255952543359 0 0.29353611780662697 -0.19008435279266181 0 0.26925372904517608 -0.19003272049834211 0 0.28212161233344513 -0.17311283781805961 0 0.28600630015430228 -0.1519732718427074 0 0.30654367464667243 -0.16812255952543359 0 0.28600630015430228 -0.1519732718427074 0 0.28212161233344513 -0.17311283781805961 0 0.30654367464667243 -0.16812255952543359 0 0.30612502930667101 -0.14828346353624949 0 0.30654367464667243 -0.16812255952543359 0 0.31907274318961021 -0.15707074330786239 0 0.29353611780662697 -0.19008435279266181 0 0.31208084341075332 -0.19009786032476589 0 0.30654367464667243 -0.16812255952543359 0 0.31208084341075332 -0.19009786032476589 0 0.30654367464667243 -0.16812255952543359 0 0.32708104913904268 -0.18427184720815981 0 0.30654367464667243 -0.16812255952543359 0 0.32708104913904268 -0.18427184720815981 0 0.32662336972040079 -0.17259796457630991 0 0.30654367464667243 -0.16812255952543359 0 0.32708104913904268 -0.18427184720815981 0 0.30654367464667243 -0.16812255952543359 0 0.32662336972040079 -0.17259796457630991 0 0.31907274318961021 -0.15707074330786239 0 0.32662336972040079 -0.17259796457630991 0 0.31907274318961021 -0.15707074330786239 0 0.33307537876102039 -0.16258120884435651 0 0.32662336972040079 -0.17259796457630991 0 0.33307537876102039 -0.16258120884435651 0 0.33307537876102039 -0.16258120884435651 0 0.34291694909148318 -0.16645624069520171 0 0.34544147183407942 -0.14338282693079801 0 0.33307537876102039 -0.16258120884435651 0 0.33776772078339912 -0.17569517062489581 0 0.32662336972040079 -0.17259796457630991 0 0.33307537876102039 -0.16258120884435651 0 0.33776772078339912 -0.17569517062489581 0 0.33307537876102039 -0.16258120884435651 0 0.34291694909148318 -0.16645624069520171 0 0.33776772078339912 -0.17569517062489581 0 0.34291694909148318 -0.16645624069520171 0 0.33776772078339912 -0.17569517062489581 0 0.34948893652894131 -0.17759570931399729 0 0.33776772078339912 -0.17569517062489581 0 0.34125341335475118 -0.18737536760527371 0 0.34653658168086171 -0.18484532022259309 0 0.32708104913904268 -0.18427184720815981 0 0.33776772078339912 -0.17569517062489581 0 0.34125341335475118 -0.18737536760527371 0 0.32708104913904268 -0.18427184720815981 0 0.32662336972040079 -0.17259796457630991 0 0.33776772078339912 -0.17569517062489581 0 0.31907274318961021 -0.15707074330786239 0 0.33307537876102039 -0.16258120884435651 0 0.32386919033586758 -0.1368521373963881 0 0.30612502930667101 -0.14828346353624949 0 0.31907274318961021 -0.15707074330786239 0 0.32386919033586758 -0.1368521373963881 0 0.33307537876102039 -0.16258120884435651 0 0.32386919033586758 -0.1368521373963881 0 0.34544147183407942 -0.14338282693079801 0 0.33307537876102039 -0.16258120884435651 0 0.34544147183407942 -0.14338282693079801 0 0.33307537876102039 -0.16258120884435651 0 0.32386919033586758 -0.1368521373963881 0 0.33769184276698749 -0.116925434266897 0 0.34544147183407942 -0.14338282693079801 0 0.34270678016947698 -0.11732721283357429 0 0.33769184276698749 -0.116925434266897 0 0.34544147183407942 -0.14338282693079801 0 0.33769184276698749 -0.116925434266897 0 0.32386919033586758 -0.1368521373963881 0 0.34544147183407942 -0.14338282693079801 0 0.35888227241674919 -0.1225159596603199 0 0.34544147183407942 -0.14338282693079801 0 0.35888227241674919 -0.1225159596603199 0 0.34270678016947698 -0.11732721283357429 0 0.34544147183407942 -0.14338282693079801 0 0.35888227241674919 -0.1225159596603199 0 0.34544147183407942 -0.14338282693079801 0 0.36195517600972288 -0.14192170223924999 0 0.34544147183407942 -0.14338282693079801 0 0.35937731848399529 -0.1553847638606827 0 0.35306910887246212 -0.16942373630531521 0 0.34544147183407942 -0.14338282693079801 0 0.35937731848399529 -0.1553847638606827 0 0.36195517600972288 -0.14192170223924999 0 0.35937731848399529 -0.1553847638606827 0 0.36835541207988548 -0.15081225480559371 0 0.36195517600972288 -0.14192170223924999 0 0.35937731848399529 -0.1553847638606827 0 0.36835541207988548 -0.15081225480559371 0 0.37171518111635399 -0.16123121672003141 0 0.36835541207988548 -0.15081225480559371 0 0.37171518111635399 -0.16123121672003141 0 0.37654699642712791 -0.15182925701937849 0 0.36835541207988548 -0.15081225480559371 0 0.37112600087122621 -0.14190017721947151 0 0.37654699642712791 -0.15182925701937849 0 0.36835541207988548 -0.15081225480559371 0 0.37112600087122621 -0.14190017721947151 0 0.36195517600972288 -0.14192170223924999 0 0.35888227241674919 -0.1225159596603199 0 0.36195517600972288 -0.14192170223924999 0 0.3705700571182553 -0.1346043858399166 0 0.35888227241674919 -0.1225159596603199 0 0.37648634552666121 -0.128162964220709 0 0.35888227241674919 -0.1225159596603199 0 0.3705700571182553 -0.1346043858399166 0 0.37648634552666121 -0.128162964220709 0 0.37112600087122621 -0.14190017721947151 0 0.3705700571182553 -0.1346043858399166 0 0.37820236272113428 -0.1303332861932181 0 0.37112600087122621 -0.14190017721947151 0 0.36195517600972288 -0.14192170223924999 0 0.3705700571182553 -0.1346043858399166 0 0.34948893652894131 -0.17759570931399729 0 0.35306910887246212 -0.16942373630531521 0 0.36341780173684829 -0.17732166849843919 0 0.3566317042475845 -0.18597656083682429 0 0.34948893652894131 -0.17759570931399729 0 0.36341780173684829 -0.17732166849843919 0 0.3566317042475845 -0.18597656083682429 0 0.34653658168086171 -0.18484532022259309 0 0.35301308450239532 -0.19127884209787549 0 0.3566317042475845 -0.18597656083682429 0 0.34653658168086171 -0.18484532022259309 0 0.34948893652894131 -0.17759570931399729 0 0.33776772078339912 -0.17569517062489581 0 0.34653658168086171 -0.18484532022259309 0 0.34948893652894131 -0.17759570931399729 0 0.34291694909148318 -0.16645624069520171 0 0.34948893652894131 -0.17759570931399729 0 0.35306910887246212 -0.16942373630531521 0 0.34544147183407942 -0.14338282693079801 0 0.35306910887246212 -0.16942373630531521 0 0.34291694909148318 -0.16645624069520171 0 0.34544147183407942 -0.14338282693079801 0 0.35306910887246212 -0.16942373630531521 0 0.35937731848399529 -0.1553847638606827 0 0.35306910887246212 -0.16942373630531521 0 0.36449420806855531 -0.1673373226460014 0 0.35306910887246212 -0.16942373630531521 0 0.36449420806855531 -0.1673373226460014 0 0.36341780173684829 -0.17732166849843919 0 0.37171518111635399 -0.16123121672003141 0 0.3748916301331161 -0.17332522784553861 0 0.37654699642712791 -0.15182925701937849 0 0.35937731848399529 -0.1553847638606827 0 0.36449420806855531 -0.1673373226460014 0 0.37171518111635399 -0.16123121672003141 0 0.37171518111635399 -0.16123121672003141 0 0.3748916301331161 -0.17332522784553861 0 0.36449420806855531 -0.1673373226460014 0 0.37171518111635399 -0.16123121672003141 0 0.3748916301331161 -0.17332522784553861 0 0.3748916301331161 -0.17332522784553861 0 0.37418345882206372 -0.18252127702053381 0 0.36449420806855531 -0.1673373226460014 0 0.3748916301331161 -0.17332522784553861 0 0.36341780173684829 -0.17732166849843919 0 0.3748916301331161 -0.17332522784553861 0 0.36850373942360137 -0.1810236888022099 0 0.37418345882206372 -0.18252127702053381 0 0.3748916301331161 -0.17332522784553861 0 0.36341780173684829 -0.17732166849843919 0 0.36850373942360137 -0.1810236888022099 0 0.3566317042475845 -0.18597656083682429 0 0.36341780173684829 -0.17732166849843919 0 0.3650364732024643 -0.18561116033437369 0 0.36341780173684829 -0.17732166849843919 0 0.3650364732024643 -0.18561116033437369 0 0.36850373942360137 -0.1810236888022099 0 0.3650364732024643 -0.18561116033437369 0 0.36850373942360137 -0.1810236888022099 0 0.37418345882206372 -0.18252127702053381 0 0.37418345882206372 -0.18252127702053381 0 0.36154400611628018 -0.19649721953995319 0 0.37418345882206372 -0.18252127702053381 0 0.37223485586726651 -0.20782511002692061 0 0.37418345882206372 -0.18252127702053381 0 0.36885463579900529 -0.19077884273797599 0 0.36154400611628018 -0.19649721953995319 0 0.37418345882206372 -0.18252127702053381 0 0.36885463579900529 -0.19077884273797599 0 0.36851707203006617 -0.19787959309087511 0 0.37418345882206372 -0.18252127702053381 0 0.36851707203006617 -0.19787959309087511 0 0.37223485586726651 -0.20782511002692061 0 0.36851707203006617 -0.19787959309087511 0 0.36154400611628018 -0.19649721953995319 0 0.36540025384305608 -0.20474644217763449 0 0.3650364732024643 -0.18561116033437369 0 0.37418345882206372 -0.18252127702053381 0 0.36154400611628018 -0.19649721953995319 0 0.3566317042475845 -0.18597656083682429 0 0.3650364732024643 -0.18561116033437369 0 0.36154400611628018 -0.19649721953995319 0 0.36885463579900529 -0.19077884273797599 0 0.36154400611628018 -0.19649721953995319 0 0.36885463579900529 -0.19077884273797599 0 0.36851707203006617 -0.19787959309087511 0 0.36154400611628018 -0.19649721953995319 0 0.37223485586726651 -0.20782511002692061 0 0.36536423493863368 -0.2151801688146896 0 0.37028625291247069 -0.2331289430333075 0 0.36851707203006617 -0.19787959309087511 0 0.37223485586726651 -0.20782511002692061 0 0.36540025384305608 -0.20474644217763449 0 0.37223485586726651 -0.20782511002692061 0 0.36540025384305608 -0.20474644217763449 0 0.36536423493863368 -0.2151801688146896 0 0.36540025384305608 -0.20474644217763449 0 0.36536423493863368 -0.2151801688146896 0 0.35867036505117161 -0.20952552766198959 0 0.36154400611628018 -0.19649721953995319 0 0.36540025384305608 -0.20474644217763449 0 0.35867036505117161 -0.20952552766198959 0 0.36536423493863368 -0.2151801688146896 0 0.35867036505117161 -0.20952552766198959 0 0.3602294470192034 -0.22067482117359549 0 0.36154400611628018 -0.19649721953995319 0 0.34608419894132869 -0.21359173949013591 0 0.33857876513653501 -0.21446063814679439 0 0.36154400611628018 -0.19649721953995319 0 0.33857876513653501 -0.21446063814679439 0 0.36154400611628018 -0.19649721953995319 0 0.35867036505117161 -0.20952552766198959 0 0.34608419894132869 -0.21359173949013591 0 0.35308983892821028 -0.1974317448101732 0 0.34761842363141282 -0.20042113489088609 0 0.33857876513653501 -0.21446063814679439 0 0.35308983892821028 -0.1974317448101732 0 0.33857876513653501 -0.21446063814679439 0 0.36154400611628018 -0.19649721953995319 0 0.34608419894132869 -0.21359173949013591 0 0.35351519702052231 -0.2167156076602938 0 0.35867036505117161 -0.20952552766198959 0 0.34608419894132869 -0.21359173949013591 0 0.35351519702052231 -0.2167156076602938 0 0.35867036505117161 -0.20952552766198959 0 0.3602294470192034 -0.22067482117359549 0 0.35351519702052231 -0.2167156076602938 0 0.34608419894132869 -0.21359173949013591 0 0.34868583354542038 -0.22134286183993679 0 0.36154400611628018 -0.19649721953995319 0 0.35308983892821028 -0.1974317448101732 0 0.33857876513653501 -0.21446063814679439 0 0.3566317042475845 -0.18597656083682429 0 0.36154400611628018 -0.19649721953995319 0 0.35301308450239532 -0.19127884209787549 0 0.36154400611628018 -0.19649721953995319 0 0.35301308450239532 -0.19127884209787549 0 0.35308983892821028 -0.1974317448101732 0 0.35308983892821028 -0.1974317448101732 0 0.34761842363141282 -0.20042113489088609 0 0.3472632915390399 -0.19164336507983351 0 0.34125341335475118 -0.18737536760527371 0 0.34761842363141282 -0.20042113489088609 0 0.3472632915390399 -0.19164336507983351 0 0.35301308450239532 -0.19127884209787549 0 0.35308983892821028 -0.1974317448101732 0 0.3472632915390399 -0.19164336507983351 0 0.34653658168086171 -0.18484532022259309 0 0.35301308450239532 -0.19127884209787549 0 0.3472632915390399 -0.19164336507983351 0 0.34125341335475118 -0.18737536760527371 0 0.34653658168086171 -0.18484532022259309 0 0.3472632915390399 -0.19164336507983351 0 0.32708104913904268 -0.18427184720815981 0 0.34761842363141282 -0.20042113489088609 0 0.32708104913904268 -0.18427184720815981 0 0.34125341335475118 -0.18737536760527371 0 0.34761842363141282 -0.20042113489088609 0 0.32708104913904268 -0.18427184720815981 0 0.34761842363141282 -0.20042113489088609 0 0.33303611729776889 -0.20096192819575659 0 0.34761842363141282 -0.20042113489088609 0 0.33303611729776889 -0.20096192819575659 0 0.33805436120117471 -0.20592959137173189 0 0.34761842363141282 -0.20042113489088609 0 0.33805436120117471 -0.20592959137173189 0 0.33857876513653501 -0.21446063814679439 0 0.33805436120117471 -0.20592959137173189 0 0.33857876513653501 -0.21446063814679439 0 0.33298413873898219 -0.20787466425349069 0 0.33857876513653501 -0.21446063814679439 0 0.32634359202406338 -0.21388356423094179 0 0.3236958740189067 -0.2261020401883316 0 0.33857876513653501 -0.21446063814679439 0 0.33298413873898219 -0.20787466425349069 0 0.32634359202406338 -0.21388356423094179 0 0.33298413873898219 -0.20787466425349069 0 0.32660897743327932 -0.20459317529547419 0 0.32634359202406338 -0.21388356423094179 0 0.33303611729776889 -0.20096192819575659 0 0.33805436120117471 -0.20592959137173189 0 0.33298413873898219 -0.20787466425349069 0 0.33303611729776889 -0.20096192819575659 0 0.33298413873898219 -0.20787466425349069 0 0.32660897743327932 -0.20459317529547419 0 0.32660897743327932 -0.20459317529547419 0 0.32634359202406338 -0.21388356423094179 0 0.31892108884509601 -0.20466356123903129 0 0.32634359202406338 -0.21388356423094179 0 0.31658175095876367 -0.2182296243775472 0 0.31892108884509601 -0.20466356123903129 0 0.3114159520914474 -0.21134282389962489 0 0.31658175095876367 -0.2182296243775472 0 0.31892108884509601 -0.20466356123903129 0 0.32708104913904268 -0.18427184720815981 0 0.33303611729776889 -0.20096192819575659 0 0.32388264995274418 -0.19482047817992471 0 0.31208084341075332 -0.19009786032476589 0 0.31892108884509601 -0.20466356123903129 0 0.32388264995274418 -0.19482047817992471 0 0.31208084341075332 -0.19009786032476589 0 0.32708104913904268 -0.18427184720815981 0 0.32388264995274418 -0.19482047817992471 0 0.32660897743327932 -0.20459317529547419 0 0.31892108884509601 -0.20466356123903129 0 0.32388264995274418 -0.19482047817992471 0 0.33303611729776889 -0.20096192819575659 0 0.32660897743327932 -0.20459317529547419 0 0.32388264995274418 -0.19482047817992471 0 0.32140124380329088 -0.23461863491331561 0 0.30422372247005153 -0.25477663167984083 0 0.32140124380329088 -0.23461863491331561 0 0.31678988285030069 -0.25058484649103441 0 0.30422372247005153 -0.25477663167984083 0 0.32140124380329088 -0.23461863491331561 0 0.32264717387843078 -0.2448270135925518 0 0.31678988285030069 -0.25058484649103441 0 0.32140124380329088 -0.23461863491331561 0 0.32264717387843078 -0.2448270135925518 0 0.32989419099344969 -0.24130129543993559 0 0.32140124380329088 -0.23461863491331561 0 0.33062439176637698 -0.23068625944031851 0 0.32989419099344969 -0.24130129543993559 0 0.32264717387843078 -0.2448270135925518 0 0.32989419099344969 -0.24130129543993559 0 0.32559372426922811 -0.25235623485284842 0 0.32264717387843078 -0.2448270135925518 0 0.31678988285030069 -0.25058484649103441 0 0.32559372426922811 -0.25235623485284842 0 0.33857876513653501 -0.21446063814679439 0 0.32140124380329088 -0.23461863491331561 0 0.3236958740189067 -0.2261020401883316 0 0.31147951467216639 -0.22593456563964431 0 0.3088129829012784 -0.23774344222986871 0 0.3236958740189067 -0.2261020401883316 0 0.3088129829012784 -0.23774344222986871 0 0.32140124380329088 -0.23461863491331561 0 0.3236958740189067 -0.2261020401883316 0 0.3088129829012784 -0.23774344222986871 0 0.3236958740189067 -0.2261020401883316 0 0.31147951467216639 -0.22593456563964431 0 0.31658175095876367 -0.2182296243775472 0 0.3236958740189067 -0.2261020401883316 0 0.32634359202406338 -0.21388356423094179 0 0.31658175095876367 -0.2182296243775472 0 0.3236958740189067 -0.2261020401883316 0 0.33857876513653501 -0.21446063814679439 0 0.32140124380329088 -0.23461863491331561 0 0.33062439176637698 -0.23068625944031851 0 0.34608419894132869 -0.21359173949013591 0 0.33062439176637698 -0.23068625944031851 0 0.33857876513653501 -0.21446063814679439 0 0.32140124380329088 -0.23461863491331561 0 0.34608419894132869 -0.21359173949013591 0 0.33062439176637698 -0.23068625944031851 0 0.34292025110560581 -0.22615333697170359 0 0.34608419894132869 -0.21359173949013591 0 0.33857876513653501 -0.21446063814679439 0 0.33062439176637698 -0.23068625944031851 0 0.33857876513653501 -0.21446063814679439 0 0.3236958740189067 -0.2261020401883316 0 0.33062439176637698 -0.23068625944031851 0 0.34292025110560581 -0.22615333697170359 0 0.33950803773136767 -0.2341864206554809 0 0.33950803773136767 -0.2341864206554809 0 0.32989419099344969 -0.24130129543993559 0 0.33910009289611492 -0.24372601578183781 0 0.33950803773136767 -0.2341864206554809 0 0.33910009289611492 -0.24372601578183781 0 0.34992682598094399 -0.2438058699606922 0 0.33062439176637698 -0.23068625944031851 0 0.33950803773136767 -0.2341864206554809 0 0.32989419099344969 -0.24130129543993559 0 0.32989419099344969 -0.24130129543993559 0 0.33910009289611492 -0.24372601578183781 0 0.33400535805737203 -0.2517659625411961 0 0.32989419099344969 -0.24130129543993559 0 0.32559372426922811 -0.25235623485284842 0 0.33400535805737203 -0.2517659625411961 0 0.33910009289611492 -0.24372601578183781 0 0.34992682598094399 -0.2438058699606922 0 0.344264411345303 -0.25725337817701638 0 0.33950803773136767 -0.2341864206554809 0 0.34992682598094399 -0.2438058699606922 0 0.35043592123748513 -0.23129037424449719 0 0.34992682598094399 -0.2438058699606922 0 0.35043592123748513 -0.23129037424449719 0 0.35951862711982158 -0.2406260276213448 0 0.34992682598094399 -0.2438058699606922 0 0.35951862711982158 -0.2406260276213448 0 0.35754962389898892 -0.25149465906435842 0 0.34868583354542038 -0.22134286183993679 0 0.35043592123748513 -0.23129037424449719 0 0.35411464012598121 -0.22267022263622141 0 0.34608419894132869 -0.21359173949013591 0 0.34292025110560581 -0.22615333697170359 0 0.34868583354542038 -0.22134286183993679 0 0.34292025110560581 -0.22615333697170359 0 0.34868583354542038 -0.22134286183993679 0 0.35043592123748513 -0.23129037424449719 0 0.34292025110560581 -0.22615333697170359 0 0.33950803773136767 -0.2341864206554809 0 0.35043592123748513 -0.23129037424449719 0 0.35043592123748513 -0.23129037424449719 0 0.35875525685457849 -0.23000386548132681 0 0.35951862711982158 -0.2406260276213448 0 0.35043592123748513 -0.23129037424449719 0 0.35875525685457849 -0.23000386548132681 0 0.35411464012598121 -0.22267022263622141 0 0.35875525685457849 -0.23000386548132681 0 0.35411464012598121 -0.22267022263622141 0 0.3602294470192034 -0.22067482117359549 0 0.35351519702052231 -0.2167156076602938 0 0.35411464012598121 -0.22267022263622141 0 0.3602294470192034 -0.22067482117359549 0 0.35351519702052231 -0.2167156076602938 0 0.34868583354542038 -0.22134286183993679 0 0.35411464012598121 -0.22267022263622141 0 0.37223485586726651 -0.20782511002692061 0 0.37028625291247069 -0.2331289430333075 0 0.36536423493863368 -0.2151801688146896 0 0.3602294470192034 -0.22067482117359549 0 0.37028625291247069 -0.2331289430333075 0 0.37223485586726651 -0.20782511002692061 0 0.37028625291247069 -0.2331289430333075 0 0.37908872258066317 -0.2197936142354413 0 0.35875525685457849 -0.23000386548132681 0 0.3602294470192034 -0.22067482117359549 0 0.37028625291247069 -0.2331289430333075 0 0.37028625291247069 -0.2331289430333075 0 0.36833764995767848 -0.25843277603969472 0 0.37028625291247069 -0.2331289430333075 0 0.35951862711982158 -0.2406260276213448 0 0.36833764995767848 -0.25843277603969472 0 0.37028625291247069 -0.2331289430333075 0 0.38239558738084822 -0.24828307997950019 0 0.36833764995767848 -0.25843277603969472 0 0.35875525685457849 -0.23000386548132681 0 0.37028625291247069 -0.2331289430333075 0 0.35951862711982158 -0.2406260276213448 0 0.38239558738084822 -0.24828307997950019 0 0.39035452886211652 -0.23219866427544231 0 0.39722980504343369 -0.25837558894478962 0 0.37028625291247069 -0.2331289430333075 0 0.38239558738084822 -0.24828307997950019 0 0.39035452886211652 -0.23219866427544231 0 0.39035452886211652 -0.23219866427544231 0 0.40646741491459182 -0.24266775271262619 0 0.39722980504343369 -0.25837558894478962 0 0.39035452886211652 -0.23219866427544231 0 0.39722980504343369 -0.25837558894478962 0 0.39035452886211652 -0.23219866427544231 0 0.40646741491459182 -0.24266775271262619 0 0.40952450294023218 -0.22729326167579511 0 0.39035452886211652 -0.23219866427544231 0 0.39754035536088128 -0.216266228206035 0 0.40952450294023218 -0.22729326167579511 0 0.39035452886211652 -0.23219866427544231 0 0.37908872258066317 -0.2197936142354413 0 0.3834792526807993 -0.20602173960609479 0 0.37028625291247069 -0.2331289430333075 0 0.39035452886211652 -0.23219866427544231 0 0.37908872258066317 -0.2197936142354413 0 0.39035452886211652 -0.23219866427544231 0 0.3834792526807993 -0.20602173960609479 0 0.39035452886211652 -0.23219866427544231 0 0.3834792526807993 -0.20602173960609479 0 0.39754035536088128 -0.216266228206035 0 0.37223485586726651 -0.20782511002692061 0 0.37908872258066317 -0.2197936142354413 0 0.3834792526807993 -0.20602173960609479 0 0.37418345882206372 -0.18252127702053381 0 0.37223485586726651 -0.20782511002692061 0 0.3834792526807993 -0.20602173960609479 0 0.3834792526807993 -0.20602173960609479 0 0.37660397649948352 -0.17984481493674689 0 0.39064611612477279 -0.18233489870353839 0 0.3834792526807993 -0.20602173960609479 0 0.37660397649948352 -0.17984481493674689 0 0.37418345882206372 -0.18252127702053381 0 0.3834792526807993 -0.20602173960609479 0 0.37660397649948352 -0.17984481493674689 0 0.3834792526807993 -0.20602173960609479 0 0.39886497956440298 -0.1913747484320171 0 0.39064611612477279 -0.18233489870353839 0 0.3834792526807993 -0.20602173960609479 0 0.39886497956440298 -0.1913747484320171 0 0.40037792428941449 -0.20417968286198679 0 0.39886497956440298 -0.1913747484320171 0 0.40037792428941449 -0.20417968286198679 0 0.41215697569587972 -0.19597670877393861 0 0.3834792526807993 -0.20602173960609479 0 0.39754035536088128 -0.216266228206035 0 0.40037792428941449 -0.20417968286198679 0 0.39754035536088128 -0.216266228206035 0 0.40037792428941449 -0.20417968286198679 0 0.40981758195384221 -0.21227133269763071 0 0.39754035536088128 -0.216266228206035 0 0.40981758195384221 -0.21227133269763071 0 0.40952450294023218 -0.22729326167579511 0 0.40037792428941449 -0.20417968286198679 0 0.40981758195384221 -0.21227133269763071 0 0.41215697569587972 -0.19597670877393861 0 0.40981758195384221 -0.21227133269763071 0 0.41215697569587972 -0.19597670877393861 0 0.43485794073674 -0.20198807277050829 0 0.39886497956440298 -0.1913747484320171 0 0.41215697569587972 -0.19597670877393861 0 0.41660069954715251 -0.17889734160597101 0 0.41215697569587972 -0.19597670877393861 0 0.43485794073674 -0.20198807277050829 0 0.41660069954715251 -0.17889734160597101 0 0.43485794073674 -0.20198807277050829 0 0.41660069954715251 -0.17889734160597101 0 0.42308839184736641 -0.1829796589571579 0 0.43485794073674 -0.20198807277050829 0 0.42308839184736641 -0.1829796589571579 0 0.43779570447596072 -0.18275583478861249 0 0.43485794073674 -0.20198807277050829 0 0.41660069954715251 -0.17889734160597101 0 0.40981758195384221 -0.21227133269763071 0 0.43485794073674 -0.20198807277050829 0 0.427776273515521 -0.2203728082232671 0 0.427776273515521 -0.2203728082232671 0 0.42519086303444098 -0.23998278393976971 0 0.45311518192632749 -0.22507880393504559 0 0.42519086303444098 -0.23998278393976971 0 0.44599599997607198 -0.24965978204602779 0 0.4277230159403882 -0.25720133080015573 0 0.42519086303444098 -0.23998278393976971 0 0.40646741491459182 -0.24266775271262619 0 0.41305436357402792 -0.25485420803451297 0 0.42519086303444098 -0.23998278393976971 0 0.40646741491459182 -0.24266775271262619 0 0.40952450294023218 -0.22729326167579511 0 0.427776273515521 -0.2203728082232671 0 0.42519086303444098 -0.23998278393976971 0 0.40952450294023218 -0.22729326167579511 0 0.40981758195384221 -0.21227133269763071 0 0.427776273515521 -0.2203728082232671 0 0.40952450294023218 -0.22729326167579511 0 0.37934378423334508 -0.1155112110939164 0 0.40097204220777982 -0.13601744425832429 0 0.40097204220777982 -0.13601744425832429 0 0.37832409813727819 -0.1287524753701009 0 0.40097204220777982 -0.13601744425832429 0 0.37820236272113428 -0.1303332861932181 0 0.3882729105393472 -0.14306994831732811 0 0.40097204220777982 -0.13601744425832429 0 0.37820236272113428 -0.1303332861932181 0 0.37832409813727819 -0.1287524753701009 0 0.37934378423334508 -0.1155112110939164 0 0.40097204220777982 -0.13601744425832429 0 0.37832409813727819 -0.1287524753701009 0 0.37820236272113428 -0.1303332861932181 0 0.37832409813727819 -0.1287524753701009 0 0.37820236272113428 -0.1303332861932181 0 0.37648634552666121 -0.128162964220709 0 0.3705700571182553 -0.1346043858399166 0 0.37820236272113428 -0.1303332861932181 0 0.37648634552666121 -0.128162964220709 0 0.37820236272113428 -0.1303332861932181 0 0.37648634552666121 -0.128162964220709 0 0.37832409813727819 -0.1287524753701009 0 0.37648634552666121 -0.128162964220709 0 0.37832409813727819 -0.1287524753701009 0 0.37820236272113428 -0.1303332861932181 0 0.3882729105393472 -0.14306994831732811 0 0.37820236272113428 -0.1303332861932181 0 0.37654699642712791 -0.15182925701937849 0 0.37112600087122621 -0.14190017721947151 0 0.37820236272113428 -0.1303332861932181 0 0.37654699642712791 -0.15182925701937849 0 0.37820236272113428 -0.1303332861932181 0 0.3882729105393472 -0.14306994831732811 0 0.37654699642712791 -0.15182925701937849 0 0.3882729105393472 -0.14306994831732811 0 0.37654699642712791 -0.15182925701937849 0 0.38765927068814132 -0.15463288211680781 0 0.3882729105393472 -0.14306994831732811 0 0.39834345835756529 -0.15580661044143401 0 0.3882729105393472 -0.14306994831732811 0 0.38765927068814132 -0.15463288211680781 0 0.39834345835756529 -0.15580661044143401 0 0.3882729105393472 -0.14306994831732811 0 0.39834345835756529 -0.15580661044143401 0 0.39832792383343768 -0.14563511206331431 0 0.40097204220777982 -0.13601744425832429 0 0.3882729105393472 -0.14306994831732811 0 0.39832792383343768 -0.14563511206331431 0 0.40097204220777982 -0.13601744425832429 0 0.39832792383343768 -0.14563511206331431 0 0.40572328422905868 -0.14764644523617099 0 0.39834345835756529 -0.15580661044143401 0 0.39832792383343768 -0.14563511206331431 0 0.40572328422905868 -0.14764644523617099 0 0.39834345835756529 -0.15580661044143401 0 0.40572328422905868 -0.14764644523617099 0 0.41179881287691272 -0.16051437118729611 0 0.39834345835756529 -0.15580661044143401 0 0.40572328422905868 -0.14764644523617099 0 0.39834345835756529 -0.15580661044143401 0 0.38747371742852482 -0.16782571268909069 0 0.41660069954715251 -0.17889734160597101 0 0.38765927068814132 -0.15463288211680781 0 0.39834345835756529 -0.15580661044143401 0 0.38747371742852482 -0.16782571268909069 0 0.39834345835756529 -0.15580661044143401 0 0.38747371742852482 -0.16782571268909069 0 0.37654699642712791 -0.15182925701937849 0 0.38765927068814132 -0.15463288211680781 0 0.38747371742852482 -0.16782571268909069 0 0.3748916301331161 -0.17332522784553861 0 0.37654699642712791 -0.15182925701937849 0 0.38747371742852482 -0.16782571268909069 0 0.3748916301331161 -0.17332522784553861 0 0.37654699642712791 -0.15182925701937849 0 0.38747371742852482 -0.16782571268909069 0 0.37660397649948352 -0.17984481493674689 0 0.39064611612477279 -0.18233489870353839 0 0.3748916301331161 -0.17332522784553861 0 0.37418345882206372 -0.18252127702053381 0 0.37660397649948352 -0.17984481493674689 0 0.38747371742852482 -0.16782571268909069 0 0.37660397649948352 -0.17984481493674689 0 0.3748916301331161 -0.17332522784553861 0 0.38747371742852482 -0.16782571268909069 0 0.37660397649948352 -0.17984481493674689 0 0.3748916301331161 -0.17332522784553861 0 0.37660397649948352 -0.17984481493674689 0 0.37418345882206372 -0.18252127702053381 0 0.37660397649948352 -0.17984481493674689 0 0.39886497956440298 -0.1913747484320171 0 0.39064611612477279 -0.18233489870353839 0 0.41660069954715251 -0.17889734160597101 0 0.38747371742852482 -0.16782571268909069 0 0.39064611612477279 -0.18233489870353839 0 0.41660069954715251 -0.17889734160597101 0 0.41660069954715251 -0.17889734160597101 0 0.42308839184736641 -0.1829796589571579 0 0.42032532873154621 -0.16805820189220511 0 0.42308839184736641 -0.1829796589571579 0 0.43503054483070103 -0.16830906926307529 0 0.43779570447596072 -0.18275583478861249 0 0.42308839184736641 -0.1829796589571579 0 0.43503054483070103 -0.16830906926307529 0 0.42032532873154621 -0.16805820189220511 0 0.42308839184736641 -0.1829796589571579 0 0.43503054483070103 -0.16830906926307529 0 0.43503054483070103 -0.16830906926307529 0 0.41800129351924081 -0.15216325676069939 0 0.43521399347871031 -0.15620780530270459 0 0.43503054483070103 -0.16830906926307529 0 0.41800129351924081 -0.15216325676069939 0 0.43503054483070103 -0.16830906926307529 0 0.42032532873154621 -0.16805820189220511 0 0.41800129351924081 -0.15216325676069939 0 0.42032532873154621 -0.16805820189220511 0 0.41179881287691272 -0.16051437118729611 0 0.41800129351924081 -0.15216325676069939 0 0.39834345835756529 -0.15580661044143401 0 0.41660069954715251 -0.17889734160597101 0 0.39834345835756529 -0.15580661044143401 0 0.41660069954715251 -0.17889734160597101 0 0.41179881287691272 -0.16051437118729611 0 0.41660069954715251 -0.17889734160597101 0 0.42032532873154621 -0.16805820189220511 0 0.41179881287691272 -0.16051437118729611 0 0.40097204220777982 -0.13601744425832429 0 0.42056390422844808 -0.14230208835667771 0 0.41800129351924081 -0.15216325676069939 0 0.40097204220777982 -0.13601744425832429 0 0.41800129351924081 -0.15216325676069939 0 0.40097204220777982 -0.13601744425832429 0 0.40572328422905868 -0.14764644523617099 0 0.41800129351924081 -0.15216325676069939 0 0.40572328422905868 -0.14764644523617099 0 0.41179881287691272 -0.16051437118729611 0 0.41800129351924081 -0.15216325676069939 0 0.42056390422844808 -0.14230208835667771 0 0.41800129351924081 -0.15216325676069939 0 0.42616964984690531 -0.14752281596549061 0 0.41800129351924081 -0.15216325676069939 0 0.43521399347871031 -0.15620780530270459 0 0.42616964984690531 -0.14752281596549061 0 0.43521399347871031 -0.15620780530270459 0 0.43182678352543558 -0.14344137169670959 0 0.42616964984690531 -0.14752281596549061 0 0.43521399347871031 -0.15620780530270459 0 0.43182678352543558 -0.14344137169670959 0 0.44267453686232211 -0.1466781392400216 0 0.43182678352543558 -0.14344137169670959 0 0.42616964984690531 -0.14752281596549061 0 0.42563538335396162 -0.14213673469906279 0 0.42056390422844808 -0.14230208835667771 0 0.42616964984690531 -0.14752281596549061 0 0.42563538335396162 -0.14213673469906279 0 0.43613336312651968 -0.122784714366969 0 0.42398119581505728 -0.13528066277737341 0 0.44224122569553809 -0.1361498501222233 0 0.42056390422844808 -0.14230208835667771 0 0.42563538335396162 -0.14213673469906279 0 0.42398119581505728 -0.13528066277737341 0 0.43182678352543558 -0.14344137169670959 0 0.42398119581505728 -0.13528066277737341 0 0.44224122569553809 -0.1361498501222233 0 0.43182678352543558 -0.14344137169670959 0 0.42563538335396162 -0.14213673469906279 0 0.42398119581505728 -0.13528066277737341 0 0.42398119581505728 -0.13528066277737341 0 0.44224122569553809 -0.1361498501222233 0 0.42215261761117978 -0.12059275905020719 0 0.43613336312651968 -0.122784714366969 0 0.42398119581505728 -0.13528066277737341 0 0.40097204220777982 -0.13601744425832429 0 0.42056390422844808 -0.14230208835667771 0 0.42215261761117978 -0.12059275905020719 0 0.42398119581505728 -0.13528066277737341 0 0.41384201319835262 -0.13049276915318689 0 0.40097204220777982 -0.13601744425832429 0 0.42056390422844808 -0.14230208835667771 0 0.41384201319835262 -0.13049276915318689 0 0.40873754477022989 -0.1136119743593146 0 0.40097204220777982 -0.13601744425832429 0 0.41384201319835262 -0.13049276915318689 0 0.42056390422844808 -0.14230208835667771 0 0.42398119581505728 -0.13528066277737341 0 0.41384201319835262 -0.13049276915318689 0 0.46864714632167231 -0.12701204618258541 0 0.466143160931974 -0.13008811984396629 0 0.466143160931974 -0.13008811984396629 0 0.47074610733539718 -0.13389698686920509 0 0.46864714632167231 -0.12701204618258541 0 0.466143160931974 -0.13008811984396629 0 0.47074610733539718 -0.13389698686920509 0 0.46050125557601901 -0.13701903746707461 0 0.47186277800635651 -0.1375598521086297 0 0.46050125557601901 -0.13701903746707461 0 0.4735791742455846 -0.14318991680471441 0 0.47186277800635651 -0.1375598521086297 0 0.466143160931974 -0.13008811984396629 0 0.46050125557601901 -0.13701903746707461 0 0.47074610733539718 -0.13389698686920509 0 0.46050125557601901 -0.13701903746707461 0 0.47186277800635651 -0.1375598521086297 0 0.47074610733539718 -0.13389698686920509 0 0.466143160931974 -0.13008811984396629 0 0.46050125557601901 -0.13701903746707461 0 0.466143160931974 -0.13008811984396629 0 0.46050125557601901 -0.13701903746707461 0 0.45057495674546771 -0.12819946303377849 0 0.46050125557601901 -0.13701903746707461 0 0.45057495674546771 -0.12819946303377849 0 0.44224122569553809 -0.1361498501222233 0 0.46050125557601901 -0.13701903746707461 0 0.44224122569553809 -0.1361498501222233 0 0.45364665995588638 -0.14543971002102479 0 0.46050125557601901 -0.13701903746707461 0 0.44224122569553809 -0.1361498501222233 0 0.43613336312651968 -0.122784714366969 0 0.45057495674546771 -0.12819946303377849 0 0.44224122569553809 -0.1361498501222233 0 0.43521399347871031 -0.15620780530270459 0 0.44267453686232211 -0.1466781392400216 0 0.45364665995588638 -0.14543971002102479 0 0.44224122569553809 -0.1361498501222233 0 0.44267453686232211 -0.1466781392400216 0 0.45364665995588638 -0.14543971002102479 0 0.44267453686232211 -0.1466781392400216 0 0.45364665995588638 -0.14543971002102479 0 0.43182678352543558 -0.14344137169670959 0 0.44224122569553809 -0.1361498501222233 0 0.44267453686232211 -0.1466781392400216 0 0.45364665995588638 -0.14543971002102479 0 0.4735791742455846 -0.14318991680471441 0 0.45364665995588638 -0.14543971002102479 0 0.46078134844418861 -0.16439683011681 0 0.4735791742455846 -0.14318991680471441 0 0.46050125557601901 -0.13701903746707461 0 0.45364665995588638 -0.14543971002102479 0 0.4735791742455846 -0.14318991680471441 0 0.46050125557601901 -0.13701903746707461 0 0.45364665995588638 -0.14543971002102479 0 0.43503054483070103 -0.16830906926307529 0 0.45364665995588638 -0.14543971002102479 0 0.43503054483070103 -0.16830906926307529 0 0.43521399347871031 -0.15620780530270459 0 0.45364665995588638 -0.14543971002102479 0 0.43503054483070103 -0.16830906926307529 0 0.45364665995588638 -0.14543971002102479 0 0.46078134844418861 -0.16439683011681 0 0.43503054483070103 -0.16830906926307529 0 0.45236916093524299 -0.1847481974170033 0 0.43503054483070103 -0.16830906926307529 0 0.45236916093524299 -0.1847481974170033 0 0.43779570447596072 -0.18275583478861249 0 0.43503054483070103 -0.16830906926307529 0 0.46078134844418861 -0.16439683011681 0 0.45236916093524299 -0.1847481974170033 0 0.46078134844418861 -0.16439683011681 0 0.45236916093524299 -0.1847481974170033 0 0.4699664508452388 -0.18034214174574531 0 0.4699664508452388 -0.18034214174574531 0 0.48678958712279108 -0.18652226481441581 0 0.48018438068418717 -0.1648560908095652 0 0.48678958712279108 -0.18652226481441581 0 0.48018438068418717 -0.1648560908095652 0 0.48678958712279108 -0.18652226481441581 0 0.5 -0.17009006061559351 0 0.5 -0.19997233671985509 0 0.48678958712279108 -0.18652226481441581 0 0.5 -0.17009006061559351 0 0.48018438068418717 -0.1648560908095652 0 0.5 -0.17009006061559351 0 0.48018438068418717 -0.1648560908095652 0 0.49999999999999989 -0.1388991991653562 0 0.46078134844418861 -0.16439683011681 0 0.4699664508452388 -0.18034214174574531 0 0.48018438068418717 -0.1648560908095652 0 0.46078134844418861 -0.16439683011681 0 0.48018438068418717 -0.1648560908095652 0 0.4735791742455846 -0.14318991680471441 0 0.48018438068418717 -0.1648560908095652 0 0.4735791742455846 -0.14318991680471441 0 0.48018438068418717 -0.1648560908095652 0 0.4735791742455846 -0.14318991680471441 0 0.49999999999999989 -0.1388991991653562 0 0.4735791742455846 -0.14318991680471441 0 0.49999999999999989 -0.1388991991653562 0 0.49999999999999989 -0.1388991991653562 0 0.47537463040584271 -0.1377270181911949 0 0.5 -0.1134979792876203 0 0.49999999999999989 -0.1388991991653562 0 0.48693253848029699 -0.1276409801415864 0 0.49999999999999989 -0.1388991991653562 0 0.48693253848029699 -0.1276409801415864 0 0.47537463040584271 -0.1377270181911949 0 0.4735791742455846 -0.14318991680471441 0 0.49999999999999989 -0.1388991991653562 0 0.47537463040584271 -0.1377270181911949 0 0.48693253848029699 -0.1276409801415864 0 0.47850296460072422 -0.12923472475304679 0 0.47537463040584271 -0.1377270181911949 0 0.47537463040584271 -0.1377270181911949 0 0.47186277800635651 -0.1375598521086297 0 0.47074610733539718 -0.13389698686920509 0 0.47537463040584271 -0.1377270181911949 0 0.47074610733539718 -0.13389698686920509 0 0.47850296460072422 -0.12923472475304679 0 0.47537463040584271 -0.1377270181911949 0 0.47074610733539718 -0.13389698686920509 0 0.4735791742455846 -0.14318991680471441 0 0.47537463040584271 -0.1377270181911949 0 0.47186277800635651 -0.1375598521086297 0 0.4735791742455846 -0.14318991680471441 0 0.47186277800635651 -0.1375598521086297 0 0.47537463040584271 -0.1377270181911949 0 0.47186277800635651 -0.1375598521086297 0 0.47186277800635651 -0.1375598521086297 0 0.47074610733539718 -0.13389698686920509 0 0.46864714632167231 -0.12701204618258541 0 0.47074610733539718 -0.13389698686920509 0 0.47230642602791068 -0.12846515685454801 0 0.46864714632167231 -0.12701204618258541 0 0.47074610733539718 -0.13389698686920509 0 0.47132948585385198 -0.1237168696133549 0 0.46864714632167231 -0.12701204618258541 0 0.47230642602791068 -0.12846515685454801 0 0.47132948585385198 -0.1237168696133549 0 0.46864714632167231 -0.12701204618258541 0 0.47132948585385198 -0.1237168696133549 0 0.47850296460072422 -0.12923472475304679 0 0.47230642602791068 -0.12846515685454801 0 0.47850296460072422 -0.12923472475304679 0 0.47074610733539718 -0.13389698686920509 0 0.47230642602791068 -0.12846515685454801 0 0.45311518192632749 -0.22507880393504559 0 0.46903285614812051 -0.21826636425226431 0 0.47137242311591487 -0.2481695350995827 0 0.45311518192632749 -0.22507880393504559 0 0.47137242311591487 -0.2481695350995827 0 0.44599599997607198 -0.24965978204602779 0 0.45311518192632749 -0.22507880393504559 0 0.47137242311591487 -0.2481695350995827 0 0.42519086303444098 -0.23998278393976971 0 0.44599599997607198 -0.24965978204602779 0 0.45311518192632749 -0.22507880393504559 0 0.43485794073674 -0.20198807277050829 0 0.427776273515521 -0.2203728082232671 0 0.45311518192632749 -0.22507880393504559 0 0.43485794073674 -0.20198807277050829 0 0.45311518192632749 -0.22507880393504559 0 0.45245532377937359 -0.2022315829087786 0 0.43485794073674 -0.20198807277050829 0 0.45311518192632749 -0.22507880393504559 0 0.45236916093524299 -0.1847481974170033 0 0.43779570447596072 -0.18275583478861249 0 0.45245532377937359 -0.2022315829087786 0 0.43485794073674 -0.20198807277050829 0 0.43779570447596072 -0.18275583478861249 0 0.45245532377937359 -0.2022315829087786 0 0.45236916093524299 -0.1847481974170033 0 0.45245532377937359 -0.2022315829087786 0 0.46970777703978411 -0.20118732557093241 0 0.45236916093524299 -0.1847481974170033 0 0.46970777703978411 -0.20118732557093241 0 0.45236916093524299 -0.1847481974170033 0 0.4699664508452388 -0.18034214174574531 0 0.46970777703978411 -0.20118732557093241 0 0.45311518192632749 -0.22507880393504559 0 0.45245532377937359 -0.2022315829087786 0 0.46903285614812051 -0.21826636425226431 0 0.45245532377937359 -0.2022315829087786 0 0.46903285614812051 -0.21826636425226431 0 0.46970777703978411 -0.20118732557093241 0 0.46903285614812051 -0.21826636425226431 0 0.49339479356139498 -0.2081884388192663 0 0.48244309040580807 -0.2277774841191581 0 0.46903285614812051 -0.21826636425226431 0 0.46970777703978411 -0.20118732557093241 0 0.49339479356139498 -0.2081884388192663 0 0.4699664508452388 -0.18034214174574531 0 0.48678958712279108 -0.18652226481441581 0 0.46970777703978411 -0.20118732557093241 0 0.48678958712279108 -0.18652226481441581 0 0.46970777703978411 -0.20118732557093241 0 0.49339479356139498 -0.2081884388192663 0 0.48678958712279108 -0.18652226481441581 0 0.49339479356139498 -0.2081884388192663 0 0.48678958712279108 -0.18652226481441581 0 0.5 -0.19997233671985509 0 0.49339479356139498 -0.2081884388192663 0 0.5 -0.19997233671985509 0 0.49339479356139498 -0.2081884388192663 0 0.49999999999999939 -0.22985461282411671 0 0.49339479356139498 -0.2081884388192663 0 0.49999999999999939 -0.22985461282411671 0 0.49339479356139498 -0.2081884388192663 0 0.49999999999999939 -0.22985461282411671 0 0.48244309040580807 -0.2277774841191581 0 0.46903285614812051 -0.21826636425226431 0 0.48244309040580807 -0.2277774841191581 0 0.47137242311591487 -0.2481695350995827 0 0.48244309040580807 -0.2277774841191581 0 0.47137242311591487 -0.2481695350995827 0 0.48603637735565658 -0.24951887519163851 0 0.48244309040580807 -0.2277774841191581 0 0.48603637735565658 -0.24951887519163851 0 0.49999999999999939 -0.22985461282411671 0 0.48603637735565658 -0.24951887519163851 0 0.5 -0.25711534802331137 0 0.49999999999999939 -0.22985461282411671 0 0.48244309040580807 -0.2277774841191581 0 0.48603637735565658 -0.24951887519163851 0 0.48603637735565658 -0.24951887519163851 0 0.5 -0.25711534802331137 0 0.48962966430550348 -0.27126026626411898 0 0.48603637735565658 -0.24951887519163851 0 0.48962966430550348 -0.27126026626411898 0 0.5 -0.25711534802331137 0 0.48962966430550348 -0.27126026626411898 0 0.50000000000000189 -0.28437608322250602 0 0.48962966430550348 -0.27126026626411898 0 0.50000000000000189 -0.28437608322250602 0 0.47267349332167719 -0.27262632581546042 0 0.47366020426263289 -0.28862767402305711 0 0.48701959181009219 -0.28176784162473478 0 0.48962966430550348 -0.27126026626411898 0 0.47267349332167719 -0.27262632581546042 0 0.48701959181009219 -0.28176784162473478 0 0.47137242311591487 -0.2481695350995827 0 0.48962966430550348 -0.27126026626411898 0 0.47267349332167719 -0.27262632581546042 0 0.47137242311591487 -0.2481695350995827 0 0.48603637735565658 -0.24951887519163851 0 0.48962966430550348 -0.27126026626411898 0 0.47137242311591487 -0.2481695350995827 0 0.48962966430550348 -0.27126026626411898 0 0.47137242311591487 -0.2481695350995827 0 0.47267349332167719 -0.27262632581546042 0 0.45751620168837759 -0.26365342051079288 0 0.44599599997607198 -0.24965978204602779 0 0.47137242311591487 -0.2481695350995827 0 0.45751620168837759 -0.26365342051079288 0 0.47267349332167719 -0.27262632581546042 0 0.45751620168837759 -0.26365342051079288 0 0.46087326971543258 -0.28494222639799188 0 0.45751620168837759 -0.26365342051079288 0 0.44046344452137542 -0.27078493512161528 0 0.46087326971543258 -0.28494222639799188 0 0.44599599997607198 -0.24965978204602779 0 0.45751620168837759 -0.26365342051079288 0 0.44046344452137542 -0.27078493512161528 0 0.44599599997607198 -0.24965978204602779 0 0.44046344452137542 -0.27078493512161528 0 0.4277230159403882 -0.25720133080015573 0 0.44435859768009489 -0.30732422522640379 0 0.44259806509373162 -0.28919155668608842 0 0.45524658727348738 -0.29821876846450751 0 0.44046344452137542 -0.27078493512161528 0 0.44259806509373162 -0.28919155668608842 0 0.46087326971543258 -0.28494222639799188 0 0.44259806509373162 -0.28919155668608842 0 0.46087326971543258 -0.28494222639799188 0 0.45524658727348738 -0.29821876846450751 0 0.46087326971543258 -0.28494222639799188 0 0.46683978048401348 -0.29788288712043759 0 0.45524658727348738 -0.29821876846450751 0 0.46087326971543258 -0.28494222639799188 0 0.46683978048401348 -0.29788288712043759 0 0.47366020426263289 -0.28862767402305711 0 0.44435859768009489 -0.30732422522640379 0 0.45524658727348738 -0.29821876846450751 0 0.46217375265462152 -0.30969927232241262 0 0.46683978048401348 -0.29788288712043759 0 0.45524658727348738 -0.29821876846450751 0 0.46217375265462152 -0.30969927232241262 0 0.46683978048401348 -0.29788288712043759 0 0.46217375265462152 -0.30969927232241262 0 0.47954468345000412 -0.30391168391910223 0 0.47954468345000412 -0.30391168391910223 0 0.47366020426263289 -0.28862767402305711 0 0.48701959181009219 -0.28176784162473478 0 0.47267349332167719 -0.27262632581546042 0 0.46087326971543258 -0.28494222639799188 0 0.47366020426263289 -0.28862767402305711 0 0.47954468345000412 -0.30391168391910223 0 0.48701959181009219 -0.28176784162473478 0 0.46683978048401348 -0.29788288712043759 0 0.47954468345000412 -0.30391168391910223 0 0.47366020426263289 -0.28862767402305711 0 0.48962966430550348 -0.27126026626411898 0 0.50000000000000189 -0.28437608322250602 0 0.49390973069152783 -0.29715705614298482 0 0.50000000000000189 -0.28437608322250602 0 0.5 -0.30263101493746902 0 0.49390973069152783 -0.29715705614298482 0 0.47954468345000412 -0.30391168391910223 0 0.48701959181009219 -0.28176784162473478 0 0.49390973069152783 -0.29715705614298482 0 0.48962966430550348 -0.27126026626411898 0 0.48701959181009219 -0.28176784162473478 0 0.49390973069152783 -0.29715705614298482 0 0.48962966430550348 -0.27126026626411898 0 0.49390973069152783 -0.29715705614298482 0 0.5 -0.30263101493746902 0 0.49390973069152783 -0.29715705614298482 0 0.49818979707755728 -0.32305384602184978 0 0.47954468345000412 -0.30391168391910223 0 0.49390973069152783 -0.29715705614298482 0 0.49818979707755728 -0.32305384602184978 0 0.49390973069152783 -0.29715705614298482 0 0.49818979707755728 -0.32305384602184978 0 0.5 -0.30263101493746902 0 0.49818979707755728 -0.32305384602184978 0 0.5 -0.32088594665243209 0 0.5 -0.32088594665243209 0 0.49853760294476279 -0.32515826559142791 0 0.5 -0.38617369454138312 0 0.49818979707755728 -0.32305384602184978 0 0.5 -0.32088594665243209 0 0.49853760294476279 -0.32515826559142791 0 0.49818979707755728 -0.32305384602184978 0 0.49853760294476279 -0.32515826559142791 0 0.49818979707755728 -0.32305384602184978 0 0.5 -0.32088594665243209 0 0.49818979707755728 -0.32305384602184978 0 0.47972097135831032 -0.34517211526912001 0 0.49818979707755728 -0.32305384602184978 0 0.49853760294476279 -0.32515826559142791 0 0.47972097135831032 -0.34517211526912001 0 0.47206977508991588 -0.32605552621346973 0 0.47972097135831032 -0.34517211526912001 0 0.46459486672982769 -0.34819936850783723 0 0.49818979707755728 -0.32305384602184978 0 0.47206977508991588 -0.32605552621346973 0 0.47972097135831032 -0.34517211526912001 0 0.47954468345000412 -0.30391168391910223 0 0.49818979707755728 -0.32305384602184978 0 0.47206977508991588 -0.32605552621346973 0 0.47954468345000412 -0.30391168391910223 0 0.47206977508991588 -0.32605552621346973 0 0.46217375265462152 -0.30969927232241262 0 0.47954468345000412 -0.30391168391910223 0 0.47206977508991588 -0.32605552621346973 0 0.49853760294476279 -0.32515826559142791 0 0.47972097135831032 -0.34517211526912001 0 0.48351437618107218 -0.36557166804404889 0 0.49853760294476279 -0.32515826559142791 0 0.48351437618107218 -0.36557166804404889 0 0.5 -0.38617369454138312 0 0.47972097135831032 -0.34517211526912001 0 0.48351437618107218 -0.36557166804404889 0 0.4612521456390597 -0.36729038451638729 0 0.47972097135831032 -0.34517211526912001 0 0.4612521456390597 -0.36729038451638729 0 0.45711995836973951 -0.37034321080220473 0 0.4612521456390597 -0.36729038451638729 0 0.46459486672982769 -0.34819936850783723 0 0.45711995836973951 -0.37034321080220473 0 0.46459486672982769 -0.34819936850783723 0 0.45597388700215519 -0.3510717816552657 0 0.47972097135831032 -0.34517211526912001 0 0.4612521456390597 -0.36729038451638729 0 0.46459486672982769 -0.34819936850783723 0 0.45711995836973951 -0.37034321080220473 0 0.46459486672982769 -0.34819936850783723 0 0.46459486672982769 -0.34819936850783723 0 0.45597388700215519 -0.3510717816552657 0 0.45401706607343822 -0.34173266088720411 0 0.45597388700215519 -0.3510717816552657 0 0.44184586252412961 -0.34664049667104169 0 0.43725829270087629 -0.36831673671253667 0 0.45597388700215519 -0.3510717816552657 0 0.44184586252412961 -0.34664049667104169 0 0.45401706607343822 -0.34173266088720411 0 0.45597388700215519 -0.3510717816552657 0 0.43725829270087629 -0.36831673671253667 0 0.45711995836973951 -0.37034321080220473 0 0.45597388700215519 -0.3510717816552657 0 0.43725829270087629 -0.36831673671253667 0 0.46217375265462152 -0.30969927232241262 0 0.47206977508991588 -0.32605552621346973 0 0.45452590417837962 -0.32148332845977612 0 0.47206977508991588 -0.32605552621346973 0 0.45452590417837962 -0.32148332845977612 0 0.45945350902400123 -0.3335178863721931 0 0.44435859768009489 -0.30732422522640379 0 0.46217375265462152 -0.30969927232241262 0 0.45452590417837962 -0.32148332845977612 0 0.47206977508991588 -0.32605552621346973 0 0.46459486672982769 -0.34819936850783723 0 0.47206977508991588 -0.32605552621346973 0 0.46459486672982769 -0.34819936850783723 0 0.45945350902400123 -0.3335178863721931 0 0.46459486672982769 -0.34819936850783723 0 0.45401706607343822 -0.34173266088720411 0 0.45945350902400123 -0.3335178863721931 0 0.45401706607343822 -0.34173266088720411 0 0.45945350902400123 -0.3335178863721931 0 0.44949298944090149 -0.33102238750591417 0 0.45452590417837962 -0.32148332845977612 0 0.45945350902400123 -0.3335178863721931 0 0.44949298944090149 -0.33102238750591417 0 0.44949298944090149 -0.33102238750591417 0 0.43960680118074269 -0.32128067311826308 0 0.42776826203163032 -0.34279018703838637 0 0.44184586252412961 -0.34664049667104169 0 0.44949298944090149 -0.33102238750591417 0 0.42776826203163032 -0.34279018703838637 0 0.44949298944090149 -0.33102238750591417 0 0.42776826203163032 -0.34279018703838637 0 0.44184586252412961 -0.34664049667104169 0 0.45401706607343822 -0.34173266088720411 0 0.44949298944090149 -0.33102238750591417 0 0.45452590417837962 -0.32148332845977612 0 0.44949298944090149 -0.33102238750591417 0 0.43960680118074269 -0.32128067311826308 0 0.44435859768009489 -0.30732422522640379 0 0.45452590417837962 -0.32148332845977612 0 0.43960680118074269 -0.32128067311826308 0 0.44435859768009489 -0.30732422522640379 0 0.43960680118074269 -0.32128067311826308 0 0.43355097412465998 -0.31143167266087052 0 0.43960680118074269 -0.32128067311826308 0 0.42222889226423033 -0.31377396079187009 0 0.43355097412465998 -0.31143167266087052 0 0.43960680118074269 -0.32128067311826308 0 0.41192576480661358 -0.32965438940239339 0 0.43960680118074269 -0.32128067311826308 0 0.42222889226423033 -0.31377396079187009 0 0.41192576480661358 -0.32965438940239339 0 0.43960680118074269 -0.32128067311826308 0 0.42776826203163032 -0.34279018703838637 0 0.41192576480661358 -0.32965438940239339 0 0.42776826203163032 -0.34279018703838637 0 0.41192576480661358 -0.32965438940239339 0 0.40604353462235909 -0.35455798657085841 0 0.42222889226423033 -0.31377396079187009 0 0.41192576480661358 -0.32965438940239339 0 0.39978142524983928 -0.3181172401173592 0 0.43725829270087629 -0.36831673671253667 0 0.42262383785819552 -0.35923006860183693 0 0.41854269839959751 -0.38556169176980781 0 0.44184586252412961 -0.34664049667104169 0 0.42776826203163032 -0.34279018703838637 0 0.42262383785819552 -0.35923006860183693 0 0.44184586252412961 -0.34664049667104169 0 0.43725829270087629 -0.36831673671253667 0 0.42262383785819552 -0.35923006860183693 0 0.42776826203163032 -0.34279018703838637 0 0.42262383785819552 -0.35923006860183693 0 0.40604353462235909 -0.35455798657085841 0 0.42776826203163032 -0.34279018703838637 0 0.40604353462235909 -0.35455798657085841 0 0.42262383785819552 -0.35923006860183693 0 0.4024294783452203 -0.37416683928025107 0 0.41854269839959751 -0.38556169176980781 0 0.42262383785819552 -0.35923006860183693 0 0.4024294783452203 -0.37416683928025107 0 0.40604353462235909 -0.35455798657085841 0 0.40604353462235909 -0.35455798657085841 0 0.38431880721308798 -0.36632578610333039 0 0.4024294783452203 -0.37416683928025107 0 0.40604353462235909 -0.35455798657085841 0 0.38431880721308798 -0.36632578610333039 0 0.40604353462235909 -0.35455798657085841 0 0.38431880721308798 -0.36632578610333039 0 0.38424472843248442 -0.33802810568652369 0 0.38431880721308798 -0.36632578610333039 0 0.38424472843248442 -0.33802810568652369 0 0.3689832942181 -0.35831011676533292 0 0.39978142524983928 -0.3181172401173592 0 0.38096284545511888 -0.3183985270001119 0 0.39229925927071491 -0.30565285840566969 0 0.41192576480661358 -0.32965438940239339 0 0.39978142524983928 -0.3181172401173592 0 0.38424472843248442 -0.33802810568652369 0 0.41192576480661358 -0.32965438940239339 0 0.38424472843248442 -0.33802810568652369 0 0.41192576480661358 -0.32965438940239339 0 0.40604353462235909 -0.35455798657085841 0 0.38424472843248442 -0.33802810568652369 0 0.38424472843248442 -0.33802810568652369 0 0.38096284545511888 -0.3183985270001119 0 0.36724422664717382 -0.32878838774256169 0 0.39978142524983928 -0.3181172401173592 0 0.38424472843248442 -0.33802810568652369 0 0.38096284545511888 -0.3183985270001119 0 0.38096284545511888 -0.3183985270001119 0 0.37854106749779681 -0.30128135518808591 0 0.39229925927071491 -0.30565285840566969 0 0.37854106749779681 -0.30128135518808591 0 0.39229925927071491 -0.30565285840566969 0 0.38972854216538327 -0.28988345008209349 0 0.39978142524983928 -0.3181172401173592 0 0.39229925927071491 -0.30565285840566969 0 0.40764122669833741 -0.30056188933697481 0 0.39229925927071491 -0.30565285840566969 0 0.38972854216538327 -0.28988345008209349 0 0.40764122669833741 -0.30056188933697481 0 0.38972854216538327 -0.28988345008209349 0 0.40764122669833741 -0.30056188933697481 0 0.40635778100714731 -0.2828847114728632 0 0.37854106749779681 -0.30128135518808591 0 0.37749657929070801 -0.28237435872387351 0 0.38972854216538327 -0.28988345008209349 0 0.38735737267067433 -0.27066495459609169 0 0.36739914411634528 -0.27061986373044061 0 0.37749657929070801 -0.28237435872387351 0 0.38735737267067433 -0.27066495459609169 0 0.36739914411634528 -0.27061986373044061 0 0.37749657929070801 -0.28237435872387351 0 0.38972854216538327 -0.28988345008209349 0 0.38735737267067433 -0.27066495459609169 0 0.38735737267067433 -0.27066495459609169 0 0.38383010376315763 -0.25893909989001929 0 0.36833764995767848 -0.25843277603969472 0 0.38735737267067433 -0.27066495459609169 0 0.36833764995767848 -0.25843277603969472 0 0.38239558738084822 -0.24828307997950019 0 0.38383010376315763 -0.25893909989001929 0 0.36833764995767848 -0.25843277603969472 0 0.38735737267067433 -0.27066495459609169 0 0.38383010376315763 -0.25893909989001929 0 0.39722980504343369 -0.25837558894478962 0 0.38239558738084822 -0.24828307997950019 0 0.38383010376315763 -0.25893909989001929 0 0.39722980504343369 -0.25837558894478962 0 0.40646741491459182 -0.24266775271262619 0 0.39722980504343369 -0.25837558894478962 0 0.41305436357402792 -0.25485420803451297 0 0.38735737267067433 -0.27066495459609169 0 0.39722980504343369 -0.25837558894478962 0 0.41391040859602479 -0.27072494485885268 0 0.38972854216538327 -0.28988345008209349 0 0.38735737267067433 -0.27066495459609169 0 0.40635778100714731 -0.2828847114728632 0 0.38735737267067433 -0.27066495459609169 0 0.41391040859602479 -0.27072494485885268 0 0.40635778100714731 -0.2828847114728632 0 0.38735737267067433 -0.27066495459609169 0 0.40635778100714731 -0.2828847114728632 0 0.38735737267067433 -0.27066495459609169 0 0.41391040859602479 -0.27072494485885268 0 0.41391040859602479 -0.27072494485885268 0 0.42573757771238002 -0.28173812329781062 0 0.40635778100714731 -0.2828847114728632 0 0.39722980504343369 -0.25837558894478962 0 0.41391040859602479 -0.27072494485885268 0 0.41305436357402792 -0.25485420803451297 0 0.41391040859602479 -0.27072494485885268 0 0.41305436357402792 -0.25485420803451297 0 0.4277230159403882 -0.25720133080015573 0 0.42519086303444098 -0.23998278393976971 0 0.41305436357402792 -0.25485420803451297 0 0.4277230159403882 -0.25720133080015573 0 0.44046344452137542 -0.27078493512161528 0 0.41391040859602479 -0.27072494485885268 0 0.42573757771238002 -0.28173812329781062 0 0.44046344452137542 -0.27078493512161528 0 0.41391040859602479 -0.27072494485885268 0 0.44046344452137542 -0.27078493512161528 0 0.44259806509373162 -0.28919155668608842 0 0.42573757771238002 -0.28173812329781062 0 0.44046344452137542 -0.27078493512161528 0 0.41391040859602479 -0.27072494485885268 0 0.4277230159403882 -0.25720133080015573 0 0.44259806509373162 -0.28919155668608842 0 0.42573757771238002 -0.28173812329781062 0 0.42535818934362107 -0.2951044683496335 0 0.44435859768009489 -0.30732422522640379 0 0.42535818934362107 -0.2951044683496335 0 0.43355097412465998 -0.31143167266087052 0 0.42222889226423033 -0.31377396079187009 0 0.42535818934362107 -0.2951044683496335 0 0.43355097412465998 -0.31143167266087052 0 0.44435859768009489 -0.30732422522640379 0 0.44259806509373162 -0.28919155668608842 0 0.42535818934362107 -0.2951044683496335 0 0.44435859768009489 -0.30732422522640379 0 0.42535818934362107 -0.2951044683496335 0 0.42222889226423033 -0.31377396079187009 0 0.42535818934362107 -0.2951044683496335 0 0.40764122669833741 -0.30056188933697481 0 0.42222889226423033 -0.31377396079187009 0 0.39978142524983928 -0.3181172401173592 0 0.40764122669833741 -0.30056188933697481 0 0.42535818934362107 -0.2951044683496335 0 0.40764122669833741 -0.30056188933697481 0 0.40635778100714731 -0.2828847114728632 0 0.42535818934362107 -0.2951044683496335 0 0.40635778100714731 -0.2828847114728632 0 0.42573757771238002 -0.28173812329781062 0 0.42535818934362107 -0.2951044683496335 0 0.40635778100714731 -0.2828847114728632 0 0.5 -0.5 0 0.46721269804519788 -0.45192723495752379 0 0.5 -0.43522801879982348 0 0.44519312025765961 -0.49999999999999972 0 0.4587391263075678 -0.47694837234938942 0 0.5 -0.5 0 0.44519312025765961 -0.49999999999999972 0 0.4378940562595165 -0.47415982890424652 0 0.43005833288184919 -0.48763392346593692 0 0.44519312025765961 -0.49999999999999972 0 0.4378940562595165 -0.47415982890424652 0 0.4378940562595165 -0.47415982890424652 0 0.4587391263075678 -0.47694837234938942 0 0.44487261185169857 -0.45748516867407252 0 0.44519312025765961 -0.49999999999999972 0 0.4378940562595165 -0.47415982890424652 0 0.4587391263075678 -0.47694837234938942 0 0.4587391263075678 -0.47694837234938942 0 0.5 -0.5 0 0.46721269804519788 -0.45192723495752379 0 0.46721269804519788 -0.45192723495752379 0 0.46371647835764468 -0.42589943780431838 0 0.5 -0.43522801879982348 0 0.46721269804519788 -0.45192723495752379 0 0.44487261185169857 -0.45748516867407252 0 0.45166237431785811 -0.44009700241048511 0 0.46721269804519788 -0.45192723495752379 0 0.45166237431785811 -0.44009700241048511 0 0.46371647835764468 -0.42589943780431838 0 0.4587391263075678 -0.47694837234938942 0 0.46721269804519788 -0.45192723495752379 0 0.44487261185169857 -0.45748516867407252 0 0.4378940562595165 -0.47415982890424652 0 0.44487261185169857 -0.45748516867407252 0 0.43059499226137338 -0.44831965780849342 0 0.44487261185169857 -0.45748516867407252 0 0.43994961099573371 -0.44063491301665569 0 0.43059499226137338 -0.44831965780849342 0 0.44487261185169857 -0.45748516867407252 0 0.43994961099573371 -0.44063491301665569 0 0.45166237431785811 -0.44009700241048511 0 0.43994961099573371 -0.44063491301665569 0 0.44692515118507992 -0.42410973388113521 0 0.43376158441064139 -0.4316810981773932 0 0.43994961099573371 -0.44063491301665569 0 0.45166237431785811 -0.44009700241048511 0 0.44692515118507992 -0.42410973388113521 0 0.44692515118507992 -0.42410973388113521 0 0.44069913294654772 -0.40890813090319189 0 0.45542039724449901 -0.40062048023485619 0 0.44692515118507992 -0.42410973388113521 0 0.44069913294654772 -0.40890813090319189 0 0.43376158441064139 -0.4316810981773932 0 0.46371647835764468 -0.42589943780431838 0 0.47550080658017058 -0.39885027343953561 0 0.45542039724449901 -0.40062048023485619 0 0.44692515118507992 -0.42410973388113521 0 0.46371647835764468 -0.42589943780431838 0 0.45542039724449901 -0.40062048023485619 0 0.45166237431785811 -0.44009700241048511 0 0.44692515118507992 -0.42410973388113521 0 0.46371647835764468 -0.42589943780431838 0 0.46371647835764468 -0.42589943780431838 0 0.5 -0.43522801879982348 0 0.47550080658017058 -0.39885027343953561 0 0.5 -0.43522801879982348 0 0.5 -0.38617369454138312 0 0.47550080658017058 -0.39885027343953561 0 0.48351437618107218 -0.36557166804404889 0 0.4612521456390597 -0.36729038451638729 0 0.47550080658017058 -0.39885027343953561 0 0.48351437618107218 -0.36557166804404889 0 0.5 -0.38617369454138312 0 0.47550080658017058 -0.39885027343953561 0 0.45711995836973951 -0.37034321080220473 0 0.4612521456390597 -0.36729038451638729 0 0.44278331991980913 -0.38940865376365458 0 0.4612521456390597 -0.36729038451638729 0 0.47550080658017058 -0.39885027343953561 0 0.45542039724449901 -0.40062048023485619 0 0.4612521456390597 -0.36729038451638729 0 0.45542039724449901 -0.40062048023485619 0 0.44278331991980913 -0.38940865376365458 0 0.44069913294654772 -0.40890813090319189 0 0.45542039724449901 -0.40062048023485619 0 0.44278331991980913 -0.38940865376365458 0 0.45711995836973951 -0.37034321080220473 0 0.43725829270087629 -0.36831673671253667 0 0.44278331991980913 -0.38940865376365458 0 0.4612521456390597 -0.36729038451638729 0 0.44278331991980913 -0.38940865376365458 0 0.43725829270087629 -0.36831673671253667 0 0.41854269839959751 -0.38556169176980781 0 0.43725829270087629 -0.36831673671253667 0 0.44278331991980913 -0.38940865376365458 0 0.41854269839959751 -0.38556169176980781 0 0.44278331991980913 -0.38940865376365458 0 0.41854269839959751 -0.38556169176980781 0 0.4243144942005585 -0.41152692301092192 0 0.44278331991980913 -0.38940865376365458 0 0.4243144942005585 -0.41152692301092192 0 0.44069913294654772 -0.40890813090319189 0 0.44278331991980913 -0.38940865376365458 0 0.4243144942005585 -0.41152692301092192 0 0.41854269839959751 -0.38556169176980781 0 0.39982710409831862 -0.40280664682707878 0 0.4243144942005585 -0.41152692301092192 0 0.41854269839959751 -0.38556169176980781 0 0.39982710409831862 -0.40280664682707878 0 0.4024294783452203 -0.37416683928025107 0 0.41854269839959751 -0.38556169176980781 0 0.39982710409831862 -0.40280664682707878 0 0.4024294783452203 -0.37416683928025107 0 0.38431880721308798 -0.36632578610333039 0 0.38546565537993871 -0.38710232369321662 0 0.4024294783452203 -0.37416683928025107 0 0.38546565537993871 -0.38710232369321662 0 0.39982710409831862 -0.40280664682707878 0 0.38431880721308798 -0.36632578610333039 0 0.38546565537993871 -0.38710232369321662 0 0.36259407980381692 -0.37809358563580248 0 0.38546565537993871 -0.38710232369321662 0 0.38467199553552661 -0.40206213615926722 0 0.39982710409831862 -0.40280664682707878 0 0.38546565537993871 -0.38710232369321662 0 0.38467199553552661 -0.40206213615926722 0 0.36995057727811331 -0.39786542255765572 0 0.39982710409831862 -0.40280664682707878 0 0.38344464538573553 -0.42047415155911788 0 0.40584566848130799 -0.4336451922581892 0 0.38467199553552661 -0.40206213615926722 0 0.38344464538573553 -0.42047415155911788 0 0.36995057727811331 -0.39786542255765572 0 0.38467199553552661 -0.40206213615926722 0 0.39982710409831862 -0.40280664682707878 0 0.38344464538573553 -0.42047415155911788 0 0.38344464538573553 -0.42047415155911788 0 0.37691683557173572 -0.4354002665163676 0 0.39010948581035271 -0.43414187090184708 0 0.38344464538573553 -0.42047415155911788 0 0.39010948581035271 -0.43414187090184708 0 0.40584566848130799 -0.4336451922581892 0 0.40584566848130799 -0.4336451922581892 0 0.4243144942005585 -0.41152692301092192 0 0.40584566848130799 -0.4336451922581892 0 0.42112594450211749 -0.43649324312384669 0 0.4243144942005585 -0.41152692301092192 0 0.39982710409831862 -0.40280664682707878 0 0.40584566848130799 -0.4336451922581892 0 0.4243144942005585 -0.41152692301092192 0 0.44069913294654772 -0.40890813090319189 0 0.4243144942005585 -0.41152692301092192 0 0.43376158441064139 -0.4316810981773932 0 0.44069913294654772 -0.40890813090319189 0 0.43376158441064139 -0.4316810981773932 0 0.42112594450211749 -0.43649324312384669 0 0.4243144942005585 -0.41152692301092192 0 0.43376158441064139 -0.4316810981773932 0 0.42112594450211749 -0.43649324312384669 0 0.43376158441064139 -0.4316810981773932 0 0.42682403587473522 -0.4544540654515945 0 0.43994961099573371 -0.44063491301665569 0 0.43376158441064139 -0.4316810981773932 0 0.43059499226137338 -0.44831965780849342 0 0.43376158441064139 -0.4316810981773932 0 0.43059499226137338 -0.44831965780849342 0 0.42682403587473522 -0.4544540654515945 0 0.43376158441064139 -0.4316810981773932 0 0.42682403587473522 -0.4544540654515945 0 0.42682403587473522 -0.4544540654515945 0 0.41988648733882888 -0.47722703272579559 0 0.4378940562595165 -0.47415982890424652 0 0.42682403587473522 -0.4544540654515945 0 0.41988648733882888 -0.47722703272579559 0 0.4378940562595165 -0.47415982890424652 0 0.43059499226137338 -0.44831965780849342 0 0.42682403587473522 -0.4544540654515945 0 0.4378940562595165 -0.47415982890424652 0 0.43059499226137338 -0.44831965780849342 0 0.41747542715151947 -0.46052010474250521 0 0.40729425589320151 -0.46094773010152429 0 0.41988648733882888 -0.47722703272579559 0 0.42682403587473522 -0.4544540654515945 0 0.41747542715151947 -0.46052010474250521 0 0.41988648733882888 -0.47722703272579559 0 0.42682403587473522 -0.4544540654515945 0 0.41747542715151947 -0.46052010474250521 0 0.41589692949931262 -0.44945159069110668 0 0.41747542715151947 -0.46052010474250521 0 0.40729425589320151 -0.46094773010152429 0 0.41589692949931262 -0.44945159069110668 0 0.40584566848130799 -0.4336451922581892 0 0.42112594450211749 -0.43649324312384669 0 0.41589692949931262 -0.44945159069110668 0 0.42112594450211749 -0.43649324312384669 0 0.42682403587473522 -0.4544540654515945 0 0.41589692949931262 -0.44945159069110668 0 0.40584566848130799 -0.4336451922581892 0 0.40729425589320151 -0.46094773010152429 0 0.41589692949931262 -0.44945159069110668 0 0.40584566848130799 -0.4336451922581892 0 0.40729425589320151 -0.46094773010152429 0 0.38737684276205731 -0.45576346150545649 0 0.40584566848130799 -0.4336451922581892 0 0.38737684276205731 -0.45576346150545649 0 0.40584566848130799 -0.4336451922581892 0 0.385539979935277 -0.44737487096537448 0 0.38737684276205731 -0.45576346150545649 0 0.39010948581035271 -0.43414187090184708 0 0.40584566848130799 -0.4336451922581892 0 0.385539979935277 -0.44737487096537448 0 0.37691683557173572 -0.4354002665163676 0 0.39010948581035271 -0.43414187090184708 0 0.385539979935277 -0.44737487096537448 0 0.37691683557173572 -0.4354002665163676 0 0.385539979935277 -0.44737487096537448 0 0.36534163142114201 -0.44525279965723208 0 0.385539979935277 -0.44737487096537448 0 0.38737684276205731 -0.45576346150545649 0 0.36690988061846758 -0.46491658064358338 0 0.38737684276205731 -0.45576346150545649 0 0.36890801704280668 -0.47788173075272378 0 0.385539979935277 -0.44737487096537448 0 0.36690988061846758 -0.46491658064358338 0 0.40729425589320151 -0.46094773010152429 0 0.38737684276205731 -0.45576346150545649 0 0.4005196510176634 -0.47995724848524768 0 0.38737684276205731 -0.45576346150545649 0 0.4005196510176634 -0.47995724848524768 0 0.38403852818980211 -0.48272048814868562 0 0.38737684276205731 -0.45576346150545649 0 0.38403852818980211 -0.48272048814868562 0 0.36890801704280668 -0.47788173075272378 0 0.38403852818980211 -0.48272048814868562 0 0.39211235630980212 -0.5 0 0.37127577381668081 -0.5 0 0.4005196510176634 -0.47995724848524768 0 0.38403852818980211 -0.48272048814868562 0 0.39211235630980212 -0.5 0 0.4005196510176634 -0.47995724848524768 0 0.39211235630980212 -0.5 0 0.41294893880292349 -0.499999999999997 0 0.4005196510176634 -0.47995724848524768 0 0.41294893880292349 -0.499999999999997 0 0.41988648733882888 -0.47722703272579559 0 0.41294893880292349 -0.499999999999997 0 0.41988648733882888 -0.47722703272579559 0 0.41294893880292349 -0.499999999999997 0 0.41988648733882888 -0.47722703272579559 0 0.43005833288184919 -0.48763392346593692 0 0.40729425589320151 -0.46094773010152429 0 0.4005196510176634 -0.47995724848524768 0 0.41988648733882888 -0.47722703272579559 0 0.4378940562595165 -0.47415982890424652 0 0.41988648733882888 -0.47722703272579559 0 0.43005833288184919 -0.48763392346593692 0 0.44519312025765961 -0.49999999999999972 0 0.43005833288184919 -0.48763392346593692 0 0.42907102953029153 -0.5 0 0.41294893880292349 -0.499999999999997 0 0.43005833288184919 -0.48763392346593692 0 0.42907102953029153 -0.5 0 0.32700412445262922 -0.48463201190809962 0 0.32964968198484818 -0.50000000000000089 0 0.31049857924223828 -0.49009814725053269 0 0.32964968198484818 -0.50000000000000089 0 0.30698783679753883 -0.5 0 0.31049857924223828 -0.49009814725053269 0 0.32700412445262922 -0.48463201190809962 0 0.31310731338212611 -0.47742635206927858 0 0.31049857924223828 -0.49009814725053269 0 0.32700412445262922 -0.48463201190809962 0 0.31310731338212611 -0.47742635206927858 0 0.33348526635227521 -0.47317726989889408 0 0.31310731338212611 -0.47742635206927858 0 0.33348526635227521 -0.47317726989889408 0 0.31809946673549883 -0.46578974098580478 0 0.31310731338212611 -0.47742635206927858 0 0.31809946673549883 -0.46578974098580478 0 0.30770619373922231 -0.46640933190370631 0 0.32700412445262922 -0.48463201190809962 0 0.33348526635227521 -0.47317726989889408 0 0.34827978130165821 -0.48245829032179238 0 0.32964968198484818 -0.50000000000000089 0 0.35043919132355927 -0.49999999999999373 0 0.34827978130165821 -0.48245829032179238 0 0.32964968198484818 -0.50000000000000089 0 0.34827978130165821 -0.48245829032179238 0 0.32700412445262922 -0.48463201190809962 0 0.32964968198484818 -0.50000000000000089 0 0.34827978130165821 -0.48245829032179238 0 0.35043919132355927 -0.49999999999999373 0 0.36890801704280668 -0.47788173075272378 0 0.34827978130165821 -0.48245829032179238 0 0.38403852818980211 -0.48272048814868562 0 0.37127577381668081 -0.5 0 0.36890801704280668 -0.47788173075272378 0 0.35043919132355927 -0.49999999999999373 0 0.37127577381668081 -0.5 0 0.36890801704280668 -0.47788173075272378 0 0.35043919132355927 -0.49999999999999373 0 0.36890801704280668 -0.47788173075272378 0 0.36890801704280668 -0.47788173075272378 0 0.34827978130165821 -0.48245829032179238 0 0.36690988061846758 -0.46491658064358338 0 0.34827978130165821 -0.48245829032179238 0 0.36690988061846758 -0.46491658064358338 0 0.33348526635227521 -0.47317726989889408 0 0.34827978130165821 -0.48245829032179238 0 0.35048522092265499 -0.46480699149953081 0 0.34827978130165821 -0.48245829032179238 0 0.35048522092265499 -0.46480699149953081 0 0.36690988061846758 -0.46491658064358338 0 0.35738471305555902 -0.45566158677547708 0 0.35048522092265499 -0.46480699149953081 0 0.34564036999422121 -0.44807332078514789 0 0.35738471305555902 -0.45566158677547708 0 0.35048522092265499 -0.46480699149953081 0 0.36690988061846758 -0.46491658064358338 0 0.38737684276205731 -0.45576346150545649 0 0.36890801704280668 -0.47788173075272378 0 0.36690988061846758 -0.46491658064358338 0 0.35738471305555902 -0.45566158677547708 0 0.36690988061846758 -0.46491658064358338 0 0.36534163142114201 -0.44525279965723208 0 0.385539979935277 -0.44737487096537448 0 0.36690988061846758 -0.46491658064358338 0 0.36534163142114201 -0.44525279965723208 0 0.36534163142114201 -0.44525279965723208 0 0.34564036999422121 -0.44807332078514789 0 0.35779547363616732 -0.42296937167140181 0 0.35738471305555902 -0.45566158677547708 0 0.36534163142114201 -0.44525279965723208 0 0.34564036999422121 -0.44807332078514789 0 0.34564036999422121 -0.44807332078514789 0 0.32851781256824347 -0.45464811382271969 0 0.33542369548232931 -0.43255533971038501 0 0.33348526635227521 -0.47317726989889408 0 0.35048522092265499 -0.46480699149953081 0 0.34564036999422121 -0.44807332078514789 0 0.33348526635227521 -0.47317726989889408 0 0.34564036999422121 -0.44807332078514789 0 0.33348526635227521 -0.47317726989889408 0 0.34564036999422121 -0.44807332078514789 0 0.32851781256824347 -0.45464811382271969 0 0.33348526635227521 -0.47317726989889408 0 0.32851781256824347 -0.45464811382271969 0 0.31809946673549883 -0.46578974098580478 0 0.32851781256824347 -0.45464811382271969 0 0.31809946673549883 -0.46578974098580478 0 0.31206486676565892 -0.45530613981540358 0 0.31809946673549883 -0.46578974098580478 0 0.31206486676565892 -0.45530613981540358 0 0.30770619373922231 -0.46640933190370631 0 0.32851781256824347 -0.45464811382271969 0 0.31767628736544218 -0.44318457360955538 0 0.33542369548232931 -0.43255533971038501 0 0.32851781256824347 -0.45464811382271969 0 0.31767628736544218 -0.44318457360955538 0 0.31206486676565892 -0.45530613981540358 0 0.32878945366914081 -0.41012357299672852 0 0.33542369548232931 -0.43255533971038501 0 0.31034882158485022 -0.42734244552937523 0 0.31767628736544218 -0.44318457360955538 0 0.33542369548232931 -0.43255533971038501 0 0.31034882158485022 -0.42734244552937523 0 0.32878945366914081 -0.41012357299672852 0 0.30452913602498122 -0.40862153130369772 0 0.31034882158485022 -0.42734244552937523 0 0.32878945366914081 -0.41012357299672852 0 0.33542369548232931 -0.43255533971038501 0 0.35779547363616732 -0.42296937167140181 0 0.34564036999422121 -0.44807332078514789 0 0.35779547363616732 -0.42296937167140181 0 0.34564036999422121 -0.44807332078514789 0 0.33542369548232931 -0.43255533971038501 0 0.35779547363616732 -0.42296937167140181 0 0.38344464538573553 -0.42047415155911788 0 0.37691683557173572 -0.4354002665163676 0 0.35779547363616732 -0.42296937167140181 0 0.37691683557173572 -0.4354002665163676 0 0.36534163142114201 -0.44525279965723208 0 0.35779547363616732 -0.42296937167140181 0 0.38344464538573553 -0.42047415155911788 0 0.35779547363616732 -0.42296937167140181 0 0.36995057727811331 -0.39786542255765572 0 0.35779547363616732 -0.42296937167140181 0 0.36995057727811331 -0.39786542255765572 0 0.35779547363616732 -0.42296937167140181 0 0.34868865998339188 -0.39967165766822599 0 0.36995057727811331 -0.39786542255765572 0 0.32878945366914081 -0.41012357299672852 0 0.35779547363616732 -0.42296937167140181 0 0.34868865998339188 -0.39967165766822599 0 0.34868865998339188 -0.39967165766822599 0 0.36995057727811331 -0.39786542255765572 0 0.36259407980381692 -0.37809358563580248 0 0.38546565537993871 -0.38710232369321662 0 0.36995057727811331 -0.39786542255765572 0 0.36259407980381692 -0.37809358563580248 0 0.36259407980381692 -0.37809358563580248 0 0.34668395347050518 -0.38370795539682101 0 0.34289405917448779 -0.37054664264174991 0 0.34868865998339188 -0.39967165766822599 0 0.36259407980381692 -0.37809358563580248 0 0.34668395347050518 -0.38370795539682101 0 0.34868865998339188 -0.39967165766822599 0 0.34668395347050518 -0.38370795539682101 0 0.33255901492032458 -0.38651993564150572 0 0.33255901492032458 -0.38651993564150572 0 0.34289405917448779 -0.37054664264174991 0 0.33083029988665508 -0.37096000160335357 0 0.34668395347050518 -0.38370795539682101 0 0.33255901492032458 -0.38651993564150572 0 0.34289405917448779 -0.37054664264174991 0 0.32878945366914081 -0.41012357299672852 0 0.34868865998339188 -0.39967165766822599 0 0.33255901492032458 -0.38651993564150572 0 0.32878945366914081 -0.41012357299672852 0 0.31506741213293948 -0.3929118574380378 0 0.30452913602498122 -0.40862153130369772 0 0.32878945366914081 -0.41012357299672852 0 0.33255901492032458 -0.38651993564150572 0 0.31506741213293948 -0.3929118574380378 0 0.33255901492032458 -0.38651993564150572 0 0.31506741213293948 -0.3929118574380378 0 0.31898546976758219 -0.37199788987537458 0 0.33255901492032458 -0.38651993564150572 0 0.33083029988665508 -0.37096000160335357 0 0.31898546976758219 -0.37199788987537458 0 0.31506741213293948 -0.3929118574380378 0 0.29496616738285691 -0.38713702173115261 0 0.31898546976758219 -0.37199788987537458 0 0.31506741213293948 -0.3929118574380378 0 0.29496616738285691 -0.38713702173115261 0 0.30452913602498122 -0.40862153130369772 0 0.29496616738285691 -0.38713702173115261 0 0.28352318482535022 -0.40880455050796499 0 0.30452913602498122 -0.40862153130369772 0 0.29496616738285691 -0.38713702173115261 0 0.27018185723317562 -0.3928714298101682 0 0.28352318482535022 -0.40880455050796499 0 0.29496616738285691 -0.38713702173115261 0 0.27018185723317562 -0.3928714298101682 0 0.27352058293596743 -0.37152297082304497 0 0.25958906805366788 -0.38509416330003671 0 0.27018185723317562 -0.3928714298101682 0 0.27352058293596743 -0.37152297082304497 0 0.25958906805366788 -0.38509416330003671 0 0.27352058293596743 -0.37152297082304497 0 0.24583954656183821 -0.37989668710717522 0 0.27352058293596743 -0.37152297082304497 0 0.24583954656183821 -0.37989668710717522 0 0.25958906805366788 -0.38509416330003671 0 0.2488142854836905 -0.39608556545975832 0 0.24583954656183821 -0.37989668710717522 0 0.27018185723317562 -0.3928714298101682 0 0.25902581985590339 -0.41832754609287509 0 0.2488142854836905 -0.39608556545975832 0 0.25958906805366788 -0.38509416330003671 0 0.27018185723317562 -0.3928714298101682 0 0.2488142854836905 -0.39608556545975832 0 0.27018185723317562 -0.3928714298101682 0 0.25902581985590339 -0.41832754609287509 0 0.28352318482535022 -0.40880455050796499 0 0.25902581985590339 -0.41832754609287509 0 0.27811069113329312 -0.42666491051128652 0 0.28352318482535022 -0.40880455050796499 0 0.25902581985590339 -0.41832754609287509 0 0.2488142854836905 -0.39608556545975832 0 0.25902581985590339 -0.41832754609287509 0 0.24458567755625779 -0.41149206855898302 0 0.2488142854836905 -0.39608556545975832 0 0.25902581985590339 -0.41832754609287509 0 0.26923735422811618 -0.44056952672599192 0 0.25720603490363919 -0.44626966043819438 0 0.25902581985590339 -0.41832754609287509 0 0.26923735422811618 -0.44056952672599192 0 0.25902581985590339 -0.41832754609287509 0 0.25720603490363919 -0.44626966043819438 0 0.2349631812069525 -0.42972781351727768 0 0.25902581985590339 -0.41832754609287509 0 0.27811069113329312 -0.42666491051128652 0 0.26923735422811618 -0.44056952672599192 0 0.27811069113329312 -0.42666491051128652 0 0.28060581909500543 -0.43710209597042132 0 0.26923735422811618 -0.44056952672599192 0 0.27811069113329312 -0.42666491051128652 0 0.29177294194822878 -0.43344993029353801 0 0.29425397926681751 -0.41924286390128518 0 0.27811069113329312 -0.42666491051128652 0 0.28060581909500543 -0.43710209597042132 0 0.29177294194822878 -0.43344993029353801 0 0.27811069113329312 -0.42666491051128652 0 0.29425397926681751 -0.41924286390128518 0 0.28352318482535022 -0.40880455050796499 0 0.29425397926681751 -0.41924286390128518 0 0.28352318482535022 -0.40880455050796499 0 0.30452913602498122 -0.40862153130369772 0 0.29425397926681751 -0.41924286390128518 0 0.30452913602498122 -0.40862153130369772 0 0.31034882158485022 -0.42734244552937523 0 0.29177294194822878 -0.43344993029353801 0 0.29425397926681751 -0.41924286390128518 0 0.31034882158485022 -0.42734244552937523 0 0.29177294194822878 -0.43344993029353801 0 0.31034882158485022 -0.42734244552937523 0 0.30304498679142772 -0.44396323363810902 0 0.31767628736544218 -0.44318457360955538 0 0.31034882158485022 -0.42734244552937523 0 0.30304498679142772 -0.44396323363810902 0 0.30304498679142772 -0.44396323363810902 0 0.31206486676565892 -0.45530613981540358 0 0.29734445339411869 -0.45784184493252639 0 0.31767628736544218 -0.44318457360955538 0 0.30304498679142772 -0.44396323363810902 0 0.31206486676565892 -0.45530613981540358 0 0.30770619373922231 -0.46640933190370631 0 0.29734445339411869 -0.45784184493252639 0 0.30130496852074312 -0.47536710622167622 0 0.31206486676565892 -0.45530613981540358 0 0.30770619373922231 -0.46640933190370631 0 0.29734445339411869 -0.45784184493252639 0 0.29734445339411869 -0.45784184493252639 0 0.28353905943753283 -0.47415364235229329 0 0.29734445339411869 -0.45784184493252639 0 0.28649582786442518 -0.46805226433019598 0 0.28353905943753283 -0.47415364235229329 0 0.29734445339411869 -0.45784184493252639 0 0.28795414737537561 -0.45873316546686471 0 0.28721457730676903 -0.4466160595283144 0 0.29734445339411869 -0.45784184493252639 0 0.28649582786442518 -0.46805226433019598 0 0.28795414737537561 -0.45873316546686471 0 0.28649582786442518 -0.46805226433019598 0 0.28403954506633389 -0.46213128515879498 0 0.28795414737537561 -0.45873316546686471 0 0.28403954506633389 -0.46213128515879498 0 0.28316635945729879 -0.45930191262415682 0 0.27944888860032702 -0.46281150735910959 0 0.28649582786442518 -0.46805226433019598 0 0.28403954506633389 -0.46213128515879498 0 0.27944888860032702 -0.46281150735910959 0 0.28649582786442518 -0.46805226433019598 0 0.28092738418645152 -0.46603185299905148 0 0.28230168297608071 -0.46978226038482829 0 0.28649582786442518 -0.46805226433019598 0 0.27944888860032702 -0.46281150735910959 0 0.28649582786442518 -0.46805226433019598 0 0.27944888860032702 -0.46281150735910959 0 0.28092738418645152 -0.46603185299905148 0 0.28316635945729879 -0.45930191262415682 0 0.28122285678715908 -0.4535316925118581 0 0.27944888860032702 -0.46281150735910959 0 0.28795414737537561 -0.45873316546686471 0 0.28316635945729879 -0.45930191262415682 0 0.28122285678715908 -0.4535316925118581 0 0.28403954506633389 -0.46213128515879498 0 0.28795414737537561 -0.45873316546686471 0 0.28316635945729879 -0.45930191262415682 0 0.30304498679142772 -0.44396323363810902 0 0.29734445339411869 -0.45784184493252639 0 0.28721457730676903 -0.4466160595283144 0 0.28795414737537561 -0.45873316546686471 0 0.28721457730676903 -0.4466160595283144 0 0.28122285678715908 -0.4535316925118581 0 0.29177294194822878 -0.43344993029353801 0 0.30304498679142772 -0.44396323363810902 0 0.28721457730676903 -0.4466160595283144 0 0.28060581909500543 -0.43710209597042132 0 0.29177294194822878 -0.43344993029353801 0 0.28721457730676903 -0.4466160595283144 0 0.28060581909500543 -0.43710209597042132 0 0.28721457730676903 -0.4466160595283144 0 0.26923735422811618 -0.44056952672599192 0 0.26923735422811618 -0.44056952672599192 0 0.27944888860032702 -0.46281150735910959 0 0.26923735422811618 -0.44056952672599192 0 0.28122285678715908 -0.4535316925118581 0 0.27944888860032702 -0.46281150735910959 0 0.28721457730676903 -0.4466160595283144 0 0.26923735422811618 -0.44056952672599192 0 0.28122285678715908 -0.4535316925118581 0 0.26923735422811618 -0.44056952672599192 0 0.25720603490363919 -0.44626966043819438 0 0.27944888860032702 -0.46281150735910959 0 0.25720603490363919 -0.44626966043819438 0 0.25581343166225801 -0.45598587035180721 0 0.24538897653839259 -0.45606013660258321 0 0.25503377928763937 -0.46343917210454472 0 0.25581343166225801 -0.45598587035180721 0 0.24538897653839259 -0.45606013660258321 0 0.25720603490363919 -0.44626966043819438 0 0.25581343166225801 -0.45598587035180721 0 0.26562493591936059 -0.45817451226190647 0 0.25503377928763937 -0.46343917210454472 0 0.25581343166225801 -0.45598587035180721 0 0.26562493591936059 -0.45817451226190647 0 0.25503377928763937 -0.46343917210454472 0 0.26497441494620622 -0.46548527584892352 0 0.26268738410699488 -0.47245646523083651 0 0.25503377928763937 -0.46343917210454472 0 0.26562493591936059 -0.45817451226190647 0 0.26497441494620622 -0.46548527584892352 0 0.25720603490363919 -0.44626966043819438 0 0.27944888860032702 -0.46281150735910959 0 0.26497441494620622 -0.46548527584892352 0 0.27137861480690129 -0.46445906676346038 0 0.27093586443668333 -0.46955466292280867 0 0.26562493591936059 -0.45817451226190647 0 0.27137861480690129 -0.46445906676346038 0 0.27944888860032702 -0.46281150735910959 0 0.25720603490363919 -0.44626966043819438 0 0.26562493591936059 -0.45817451226190647 0 0.27944888860032702 -0.46281150735910959 0 0.26562493591936059 -0.45817451226190647 0 0.26497441494620622 -0.46548527584892352 0 0.27137861480690129 -0.46445906676346038 0 0.27137861480690129 -0.46445906676346038 0 0.27599939488268049 -0.46634477680516567 0 0.27093586443668333 -0.46955466292280867 0 0.27137861480690129 -0.46445906676346038 0 0.27599939488268049 -0.46634477680516567 0 0.27944888860032702 -0.46281150735910959 0 0.27944888860032702 -0.46281150735910959 0 0.28092738418645152 -0.46603185299905148 0 0.27599939488268049 -0.46634477680516567 0 0.27944888860032702 -0.46281150735910959 0 0.28092738418645152 -0.46603185299905148 0 0.27599939488268049 -0.46634477680516567 0 0.28092738418645152 -0.46603185299905148 0 0.27768109505554822 -0.47061088365926362 0 0.27768109505554822 -0.47061088365926362 0 0.27203108106363227 -0.47762285761736623 0 0.27093586443668333 -0.46955466292280867 0 0.27768109505554822 -0.47061088365926362 0 0.27203108106363227 -0.47762285761736623 0 0.28353905943753283 -0.47415364235229329 0 0.26973366548094763 -0.49046543977206081 0 0.28353905943753283 -0.47415364235229329 0 0.26973366548094763 -0.49046543977206081 0 0.28289498127206508 -0.48382143684047968 0 0.28353905943753283 -0.47415364235229329 0 0.27768109505554822 -0.47061088365926362 0 0.28230168297608071 -0.46978226038482829 0 0.28353905943753283 -0.47415364235229329 0 0.27203108106363227 -0.47762285761736623 0 0.26973366548094763 -0.49046543977206081 0 0.28353905943753283 -0.47415364235229329 0 0.28092738418645152 -0.46603185299905148 0 0.27768109505554822 -0.47061088365926362 0 0.28230168297608071 -0.46978226038482829 0 0.27599939488268049 -0.46634477680516567 0 0.27768109505554822 -0.47061088365926362 0 0.27093586443668333 -0.46955466292280867 0 0.27203108106363227 -0.47762285761736623 0 0.26268738410699488 -0.47245646523083651 0 0.26389297998693612 -0.48191398840700722 0 0.27203108106363227 -0.47762285761736623 0 0.26389297998693612 -0.48191398840700722 0 0.26973366548094763 -0.49046543977206081 0 0.27203108106363227 -0.47762285761736623 0 0.27093586443668333 -0.46955466292280867 0 0.26268738410699488 -0.47245646523083651 0 0.26497441494620622 -0.46548527584892352 0 0.27093586443668333 -0.46955466292280867 0 0.26268738410699488 -0.47245646523083651 0 0.26268738410699488 -0.47245646523083651 0 0.26389297998693612 -0.48191398840700722 0 0.25407204585126059 -0.47620043434077042 0 0.25407204585126059 -0.47620043434077042 0 0.25491662500511097 -0.48445596515858608 0 0.2464824476869493 -0.48087113117199448 0 0.26389297998693612 -0.48191398840700722 0 0.25407204585126059 -0.47620043434077042 0 0.25491662500511097 -0.48445596515858608 0 0.25503377928763937 -0.46343917210454472 0 0.25407204585126059 -0.47620043434077042 0 0.24397303115376431 -0.47314498618462919 0 0.25503377928763937 -0.46343917210454472 0 0.26268738410699488 -0.47245646523083651 0 0.25407204585126059 -0.47620043434077042 0 0.25491662500511097 -0.48445596515858608 0 0.26973366548094763 -0.49046543977206081 0 0.24107657024902099 -0.4907236406560157 0 0.26973366548094763 -0.49046543977206081 0 0.24107657024902099 -0.4907236406560157 0 0.26166414642292007 -0.49999999999999911 0 0.26973366548094763 -0.49046543977206081 0 0.24107657024902099 -0.4907236406560157 0 0.26389297998693612 -0.48191398840700722 0 0.25491662500511097 -0.48445596515858608 0 0.26973366548094763 -0.49046543977206081 0 0.26973366548094763 -0.49046543977206081 0 0.2901161223615929 -0.49028179351129753 0 0.26973366548094763 -0.49046543977206081 0 0.2901161223615929 -0.49028179351129753 0 0.28289498127206508 -0.48382143684047968 0 0.26166414642292007 -0.49999999999999911 0 0.26973366548094763 -0.49046543977206081 0 0.26166414642292007 -0.49999999999999911 0 0.26973366548094763 -0.49046543977206081 0 0.28432599161022948 -0.5 0 0.28432599161022948 -0.5 0 0.2901161223615929 -0.49028179351129753 0 0.30698783679753883 -0.5 0 0.26973366548094763 -0.49046543977206081 0 0.28432599161022948 -0.5 0 0.2901161223615929 -0.49028179351129753 0 0.28289498127206508 -0.48382143684047968 0 0.28353905943753283 -0.47415364235229329 0 0.29241187532797969 -0.47758175532629188 0 0.2901161223615929 -0.49028179351129753 0 0.28289498127206508 -0.48382143684047968 0 0.29241187532797969 -0.47758175532629188 0 0.29734445339411869 -0.45784184493252639 0 0.28353905943753283 -0.47415364235229329 0 0.29241187532797969 -0.47758175532629188 0 0.28649582786442518 -0.46805226433019598 0 0.28230168297608071 -0.46978226038482829 0 0.28353905943753283 -0.47415364235229329 0 0.2901161223615929 -0.49028179351129753 0 0.29241187532797969 -0.47758175532629188 0 0.29927166698182628 -0.48402470809947862 0 0.29734445339411869 -0.45784184493252639 0 0.29241187532797969 -0.47758175532629188 0 0.30130496852074312 -0.47536710622167622 0 0.29241187532797969 -0.47758175532629188 0 0.29927166698182628 -0.48402470809947862 0 0.30130496852074312 -0.47536710622167622 0 0.29927166698182628 -0.48402470809947862 0 0.30130496852074312 -0.47536710622167622 0 0.30611301963230841 -0.48244298351364467 0 0.31310731338212611 -0.47742635206927858 0 0.30770619373922231 -0.46640933190370631 0 0.30130496852074312 -0.47536710622167622 0 0.31310731338212611 -0.47742635206927858 0 0.30130496852074312 -0.47536710622167622 0 0.30611301963230841 -0.48244298351364467 0 0.31310731338212611 -0.47742635206927858 0 0.30611301963230841 -0.48244298351364467 0 0.31049857924223828 -0.49009814725053269 0 0.2901161223615929 -0.49028179351129753 0 0.30698783679753883 -0.5 0 0.31049857924223828 -0.49009814725053269 0 0.2901161223615929 -0.49028179351129753 0 0.31049857924223828 -0.49009814725053269 0 0.29927166698182628 -0.48402470809947862 0 0.30611301963230841 -0.48244298351364467 0 0.31049857924223828 -0.49009814725053269 0 0.2901161223615929 -0.49028179351129753 0 0.29927166698182628 -0.48402470809947862 0 0.31049857924223828 -0.49009814725053269 0 0.34095827995425032 -0.29012695832502849 0 0.32491773948603098 -0.28606216958119102 0 0.33245232168688882 -0.27054090970552541 0 0.34095827995425032 -0.29012695832502849 0 0.32892328444339242 -0.29950960167713531 0 0.32491773948603098 -0.28606216958119102 0 0.34095827995425032 -0.29012695832502849 0 0.3527190839753353 -0.30299037072501589 0 0.33592363771660227 -0.31311351187357261 0 0.34095827995425032 -0.29012695832502849 0 0.32892328444339242 -0.29950960167713531 0 0.33592363771660227 -0.31311351187357261 0 0.31410372665620689 -0.30443912167880199 0 0.33592363771660227 -0.31311351187357261 0 0.32892328444339242 -0.29950960167713531 0 0.31410372665620689 -0.30443912167880199 0 0.33592363771660227 -0.31311351187357261 0 0.31410372665620689 -0.30443912167880199 0 0.32491773948603098 -0.28606216958119102 0 0.30956632487289981 -0.28415741229002878 0 0.32892328444339242 -0.29950960167713531 0 0.31410372665620689 -0.30443912167880199 0 0.32491773948603098 -0.28606216958119102 0 0.32491773948603098 -0.28606216958119102 0 0.31874593085573188 -0.26965377131483831 0 0.30956632487289981 -0.28415741229002878 0 0.32491773948603098 -0.28606216958119102 0 0.31874593085573188 -0.26965377131483831 0 0.33245232168688882 -0.27054090970552541 0 0.31874593085573188 -0.26965377131483831 0 0.31318274161812809 -0.26365317930056881 0 0.30627750564979223 -0.26893971800459993 0 0.31874593085573188 -0.26965377131483831 0 0.32891205146093527 -0.26003523287426328 0 0.33245232168688882 -0.27054090970552541 0 0.31678988285030069 -0.25058484649103441 0 0.31841056255108829 -0.25864114065415539 0 0.30846287012971518 -0.25828942325349441 0 0.31678988285030069 -0.25058484649103441 0 0.31841056255108829 -0.25864114065415539 0 0.32559372426922811 -0.25235623485284842 0 0.31841056255108829 -0.25864114065415539 0 0.31318274161812809 -0.26365317930056881 0 0.30846287012971518 -0.25828942325349441 0 0.31874593085573188 -0.26965377131483831 0 0.31841056255108829 -0.25864114065415539 0 0.31318274161812809 -0.26365317930056881 0 0.31874593085573188 -0.26965377131483831 0 0.31841056255108829 -0.25864114065415539 0 0.32891205146093527 -0.26003523287426328 0 0.31841056255108829 -0.25864114065415539 0 0.32559372426922811 -0.25235623485284842 0 0.32891205146093527 -0.26003523287426328 0 0.33400535805737203 -0.2517659625411961 0 0.32891205146093527 -0.26003523287426328 0 0.344264411345303 -0.25725337817701638 0 0.32559372426922811 -0.25235623485284842 0 0.33400535805737203 -0.2517659625411961 0 0.32891205146093527 -0.26003523287426328 0 0.32891205146093527 -0.26003523287426328 0 0.33245232168688882 -0.27054090970552541 0 0.344264411345303 -0.25725337817701638 0 0.33910009289611492 -0.24372601578183781 0 0.33400535805737203 -0.2517659625411961 0 0.344264411345303 -0.25725337817701638 0 0.33245232168688882 -0.27054090970552541 0 0.3499257329016171 -0.27058038671798762 0 0.344264411345303 -0.25725337817701638 0 0.34095827995425032 -0.29012695832502849 0 0.33245232168688882 -0.27054090970552541 0 0.3499257329016171 -0.27058038671798762 0 0.33245232168688882 -0.27054090970552541 0 0.3499257329016171 -0.27058038671798762 0 0.3499257329016171 -0.27058038671798762 0 0.35749531244398569 -0.26167621274589947 0 0.36739914411634528 -0.27061986373044061 0 0.35863868890170608 -0.28111223412796538 0 0.3499257329016171 -0.27058038671798762 0 0.36739914411634528 -0.27061986373044061 0 0.3499257329016171 -0.27058038671798762 0 0.36739914411634528 -0.27061986373044061 0 0.34095827995425032 -0.29012695832502849 0 0.35863868890170608 -0.28111223412796538 0 0.3499257329016171 -0.27058038671798762 0 0.34992682598094399 -0.2438058699606922 0 0.344264411345303 -0.25725337817701638 0 0.35754962389898892 -0.25149465906435842 0 0.3499257329016171 -0.27058038671798762 0 0.344264411345303 -0.25725337817701638 0 0.35749531244398569 -0.26167621274589947 0 0.344264411345303 -0.25725337817701638 0 0.35749531244398569 -0.26167621274589947 0 0.35754962389898892 -0.25149465906435842 0 0.35951862711982158 -0.2406260276213448 0 0.35754962389898892 -0.25149465906435842 0 0.36833764995767848 -0.25843277603969472 0 0.35749531244398569 -0.26167621274589947 0 0.35754962389898892 -0.25149465906435842 0 0.36833764995767848 -0.25843277603969472 0 0.35754962389898892 -0.25149465906435842 0 0.36833764995767848 -0.25843277603969472 0 0.35749531244398569 -0.26167621274589947 0 0.36833764995767848 -0.25843277603969472 0 0.36739914411634528 -0.27061986373044061 0 0.36833764995767848 -0.25843277603969472 0 0.36739914411634528 -0.27061986373044061 0 0.38735737267067433 -0.27066495459609169 0 0.36833764995767848 -0.25843277603969472 0 0.36739914411634528 -0.27061986373044061 0 0.37749657929070801 -0.28237435872387351 0 0.36739914411634528 -0.27061986373044061 0 0.36568938243403948 -0.29282219283154959 0 0.36739914411634528 -0.27061986373044061 0 0.36568938243403948 -0.29282219283154959 0 0.37854106749779681 -0.30128135518808591 0 0.37749657929070801 -0.28237435872387351 0 0.36568938243403948 -0.29282219283154959 0 0.35863868890170608 -0.28111223412796538 0 0.36739914411634528 -0.27061986373044061 0 0.36568938243403948 -0.29282219283154959 0 0.34095827995425032 -0.29012695832502849 0 0.35863868890170608 -0.28111223412796538 0 0.3527190839753353 -0.30299037072501589 0 0.35863868890170608 -0.28111223412796538 0 0.36568938243403948 -0.29282219283154959 0 0.3527190839753353 -0.30299037072501589 0 0.36568938243403948 -0.29282219283154959 0 0.3527190839753353 -0.30299037072501589 0 0.36397962075173451 -0.31502452193265851 0 0.36568938243403948 -0.29282219283154959 0 0.36397962075173451 -0.31502452193265851 0 0.37854106749779681 -0.30128135518808591 0 0.36568938243403948 -0.29282219283154959 0 0.36397962075173451 -0.31502452193265851 0 0.38096284545511888 -0.3183985270001119 0 0.37854106749779681 -0.30128135518808591 0 0.36397962075173451 -0.31502452193265851 0 0.36397962075173451 -0.31502452193265851 0 0.36724422664717382 -0.32878838774256169 0 0.3504702465381761 -0.32608896212286032 0 0.38096284545511888 -0.3183985270001119 0 0.36397962075173451 -0.31502452193265851 0 0.36724422664717382 -0.32878838774256169 0 0.38424472843248442 -0.33802810568652369 0 0.36724422664717382 -0.32878838774256169 0 0.35656369205835498 -0.34640182197065411 0 0.38424472843248442 -0.33802810568652369 0 0.35656369205835498 -0.34640182197065411 0 0.36724422664717382 -0.32878838774256169 0 0.3504702465381761 -0.32608896212286032 0 0.35656369205835498 -0.34640182197065411 0 0.3504702465381761 -0.32608896212286032 0 0.35656369205835498 -0.34640182197065411 0 0.33245656838307908 -0.34063460031132098 0 0.3527190839753353 -0.30299037072501589 0 0.36397962075173451 -0.31502452193265851 0 0.3504702465381761 -0.32608896212286032 0 0.3527190839753353 -0.30299037072501589 0 0.3504702465381761 -0.32608896212286032 0 0.33592363771660227 -0.31311351187357261 0 0.38431880721308798 -0.36632578610333039 0 0.36259407980381692 -0.37809358563580248 0 0.3689832942181 -0.35831011676533292 0 0.36259407980381692 -0.37809358563580248 0 0.3689832942181 -0.35831011676533292 0 0.35719516358275583 -0.36270128443035388 0 0.38431880721308798 -0.36632578610333039 0 0.36259407980381692 -0.37809358563580248 0 0.3689832942181 -0.35831011676533292 0 0.35656369205835498 -0.34640182197065411 0 0.35719516358275583 -0.36270128443035388 0 0.38424472843248442 -0.33802810568652369 0 0.3689832942181 -0.35831011676533292 0 0.35656369205835498 -0.34640182197065411 0 0.35656369205835498 -0.34640182197065411 0 0.35719516358275583 -0.36270128443035388 0 0.3288826556842257 -0.35477553825478442 0 0.36259407980381692 -0.37809358563580248 0 0.35719516358275583 -0.36270128443035388 0 0.34289405917448779 -0.37054664264174991 0 0.34289405917448779 -0.37054664264174991 0 0.33083029988665508 -0.37096000160335357 0 0.3288826556842257 -0.35477553825478442 0 0.35719516358275583 -0.36270128443035388 0 0.34289405917448779 -0.37054664264174991 0 0.3288826556842257 -0.35477553825478442 0 0.35656369205835498 -0.34640182197065411 0 0.3288826556842257 -0.35477553825478442 0 0.35656369205835498 -0.34640182197065411 0 0.3288826556842257 -0.35477553825478442 0 0.33245656838307908 -0.34063460031132098 0 0.3288826556842257 -0.35477553825478442 0 0.33245656838307908 -0.34063460031132098 0 0.30677130631061528 -0.34111148037627481 0 0.3288826556842257 -0.35477553825478442 0 0.30120161931009648 -0.36314925453891472 0 0.33083029988665508 -0.37096000160335357 0 0.3288826556842257 -0.35477553825478442 0 0.31898546976758219 -0.37199788987537458 0 0.3288826556842257 -0.35477553825478442 0 0.31898546976758219 -0.37199788987537458 0 0.30120161931009648 -0.36314925453891472 0 0.33592363771660227 -0.31311351187357261 0 0.33245656838307908 -0.34063460031132098 0 0.31799862798828821 -0.32443077202903359 0 0.3504702465381761 -0.32608896212286032 0 0.33592363771660227 -0.31311351187357261 0 0.33245656838307908 -0.34063460031132098 0 0.33245656838307908 -0.34063460031132098 0 0.30677130631061528 -0.34111148037627481 0 0.33245656838307908 -0.34063460031132098 0 0.31799862798828821 -0.32443077202903359 0 0.30677130631061528 -0.34111148037627481 0 0.31410372665620689 -0.30443912167880199 0 0.33592363771660227 -0.31311351187357261 0 0.31799862798828821 -0.32443077202903359 0 0.31410372665620689 -0.30443912167880199 0 0.31799862798828821 -0.32443077202903359 0 0.29439893518731269 -0.32011975226801498 0 0.31799862798828821 -0.32443077202903359 0 0.30677130631061528 -0.34111148037627481 0 0.29439893518731269 -0.32011975226801498 0 0.29439893518731269 -0.32011975226801498 0 0.26919843122085829 -0.32467734453298341 0 0.28108604423815148 -0.34158836044122848 0 0.30677130631061528 -0.34111148037627481 0 0.28108604423815148 -0.34158836044122848 0 0.30677130631061528 -0.34111148037627481 0 0.29439893518731269 -0.32011975226801498 0 0.28108604423815148 -0.34158836044122848 0 0.29496616738285691 -0.38713702173115261 0 0.31898546976758219 -0.37199788987537458 0 0.30120161931009648 -0.36314925453891472 0 0.3288826556842257 -0.35477553825478442 0 0.30677130631061528 -0.34111148037627481 0 0.30120161931009648 -0.36314925453891472 0 0.30120161931009648 -0.36314925453891472 0 0.27211590917613182 -0.35522612658685848 0 0.28108604423815148 -0.34158836044122848 0 0.30677130631061528 -0.34111148037627481 0 0.30120161931009648 -0.36314925453891472 0 0.28108604423815148 -0.34158836044122848 0 0.30120161931009648 -0.36314925453891472 0 0.27352058293596743 -0.37152297082304497 0 0.27211590917613182 -0.35522612658685848 0 0.29496616738285691 -0.38713702173115261 0 0.30120161931009648 -0.36314925453891472 0 0.27352058293596743 -0.37152297082304497 0 0.30120161931009648 -0.36314925453891472 0 0.27352058293596743 -0.37152297082304497 0 0.27352058293596743 -0.37152297082304497 0 0.27211590917613182 -0.35522612658685848 0 0.25669679711280169 -0.36205118638645611 0 0.27211590917613182 -0.35522612658685848 0 0.28108604423815148 -0.34158836044122848 0 0.25540078216568762 -0.34206524050618231 0 0.27211590917613182 -0.35522612658685848 0 0.25669679711280169 -0.36205118638645611 0 0.25540078216568762 -0.34206524050618231 0 0.25669679711280169 -0.36205118638645611 0 0.25540078216568762 -0.34206524050618231 0 0.24055670875288529 -0.35702118497538182 0 0.27352058293596743 -0.37152297082304497 0 0.25669679711280169 -0.36205118638645611 0 0.24583954656183821 -0.37989668710717522 0 0.29439893518731269 -0.32011975226801498 0 0.26919843122085829 -0.32467734453298341 0 0.27685803410614651 -0.30745307109841191 0 0.26919843122085829 -0.32467734453298341 0 0.259660424111052 -0.30961194238307299 0 0.27685803410614651 -0.30745307109841191 0 0.28108604423815148 -0.34158836044122848 0 0.25540078216568762 -0.34206524050618231 0 0.26919843122085829 -0.32467734453298341 0 0.28108604423815148 -0.34158836044122848 0 0.25540078216568762 -0.34206524050618231 0 0.26919843122085829 -0.32467734453298341 0 0.25540078216568762 -0.34206524050618231 0 0.24780266221312031 -0.32293856896847711 0 0.26919843122085829 -0.32467734453298341 0 0.259660424111052 -0.30961194238307299 0 0.24780266221312031 -0.32293856896847711 0 0.259660424111052 -0.30961194238307299 0 0.2546763412149694 -0.29502247761241579 0 0.24352898260121089 -0.30464655820294378 0 0.259660424111052 -0.30961194238307299 0 0.24352898260121089 -0.30464655820294378 0 0.24780266221312031 -0.32293856896847711 0 0.259660424111052 -0.30961194238307299 0 0.2546763412149694 -0.29502247761241579 0 0.26773001285928122 -0.29901970202347278 0 0.27046390453541608 -0.28709034128926098 0 0.2486439934750205 -0.27841595109449041 0 0.2546763412149694 -0.29502247761241579 0 0.27046390453541608 -0.28709034128926098 0 0.26773001285928122 -0.29901970202347278 0 0.2546763412149694 -0.29502247761241579 0 0.27046390453541608 -0.28709034128926098 0 0.2486439934750205 -0.27841595109449041 0 0.27046390453541608 -0.28709034128926098 0 0.27683394177416382 -0.29733196147379432 0 0.29228381559581151 -0.29576473148403148 0 0.27046390453541608 -0.28709034128926098 0 0.27587377797705609 -0.28804558115945578 0 0.29228381559581151 -0.29576473148403148 0 0.27046390453541608 -0.28709034128926098 0 0.26773001285928122 -0.29901970202347278 0 0.27683394177416382 -0.29733196147379432 0 0.27046390453541608 -0.28709034128926098 0 0.27587377797705609 -0.28804558115945578 0 0.27551977783460457 -0.27425374585800882 0 0.259660424111052 -0.30961194238307299 0 0.26773001285928122 -0.29901970202347278 0 0.27685803410614651 -0.30745307109841191 0 0.26773001285928122 -0.29901970202347278 0 0.27683394177416382 -0.29733196147379432 0 0.27685803410614651 -0.30745307109841191 0 0.29439893518731269 -0.32011975226801498 0 0.27685803410614651 -0.30745307109841191 0 0.29228381559581151 -0.29576473148403148 0 0.27683394177416382 -0.29733196147379432 0 0.27685803410614651 -0.30745307109841191 0 0.29228381559581151 -0.29576473148403148 0 0.27587377797705609 -0.28804558115945578 0 0.28946129011509469 -0.28398452472694807 0 0.29228381559581151 -0.29576473148403148 0 0.27046390453541608 -0.28709034128926098 0 0.29228381559581151 -0.29576473148403148 0 0.28946129011509469 -0.28398452472694807 0 0.29228381559581151 -0.29576473148403148 0 0.29813075996929572 -0.28081297894493878 0 0.29228381559581151 -0.29576473148403148 0 0.30956632487289981 -0.28415741229002878 0 0.29813075996929572 -0.28081297894493878 0 0.31410372665620689 -0.30443912167880199 0 0.29228381559581151 -0.29576473148403148 0 0.30956632487289981 -0.28415741229002878 0 0.31410372665620689 -0.30443912167880199 0 0.29439893518731269 -0.32011975226801498 0 0.29228381559581151 -0.29576473148403148 0 0.31410372665620689 -0.30443912167880199 0 0.29228381559581151 -0.29576473148403148 0 0.30422372247005153 -0.25477663167984083 0 0.29004875022355148 -0.27141110641964639 0 0.30422372247005153 -0.25477663167984083 0 0.30627750564979223 -0.26893971800459993 0 0.29004875022355148 -0.27141110641964639 0 0.31678988285030069 -0.25058484649103441 0 0.30422372247005153 -0.25477663167984083 0 0.30846287012971518 -0.25828942325349441 0 0.30422372247005153 -0.25477663167984083 0 0.30846287012971518 -0.25828942325349441 0 0.31318274161812809 -0.26365317930056881 0 0.30846287012971518 -0.25828942325349441 0 0.30627750564979223 -0.26893971800459993 0 0.30422372247005153 -0.25477663167984083 0 0.30846287012971518 -0.25828942325349441 0 0.30627750564979223 -0.26893971800459993 0 0.30627750564979223 -0.26893971800459993 0 0.29813075996929572 -0.28081297894493878 0 0.29004875022355148 -0.27141110641964639 0 0.31874593085573188 -0.26965377131483831 0 0.30956632487289981 -0.28415741229002878 0 0.30627750564979223 -0.26893971800459993 0 0.30956632487289981 -0.28415741229002878 0 0.30627750564979223 -0.26893971800459993 0 0.29813075996929572 -0.28081297894493878 0 0.27587377797705609 -0.28804558115945578 0 0.28946129011509469 -0.28398452472694807 0 0.29004875022355148 -0.27141110641964639 0 0.27587377797705609 -0.28804558115945578 0 0.29004875022355148 -0.27141110641964639 0 0.29004875022355148 -0.27141110641964639 0 0.28573134910733872 -0.25585429266773813 0 0.27551977783460457 -0.27425374585800882 0 0.28946129011509469 -0.28398452472694807 0 0.29813075996929572 -0.28081297894493878 0 0.29004875022355148 -0.27141110641964639 0 0.30422372247005153 -0.25477663167984083 0 0.29004875022355148 -0.27141110641964639 0 0.28573134910733872 -0.25585429266773813 0 0.27543402669994532 -0.24910534309240301 0 0.28573134910733872 -0.25585429266773813 0 0.26829238173963371 -0.2599684370851818 0 0.28573134910733872 -0.25585429266773813 0 0.26829238173963371 -0.2599684370851818 0 0.27551977783460457 -0.27425374585800882 0 0.27543402669994532 -0.24910534309240301 0 0.26358232833744422 -0.2424727382481226 0 0.26829238173963371 -0.2599684370851818 0 0.27587377797705609 -0.28804558115945578 0 0.29004875022355148 -0.27141110641964639 0 0.27551977783460457 -0.27425374585800882 0 0.26829238173963371 -0.2599684370851818 0 0.27551977783460457 -0.27425374585800882 0 0.26214719379346529 -0.27264107175074942 0 0.27046390453541608 -0.28709034128926098 0 0.27551977783460457 -0.27425374585800882 0 0.26214719379346529 -0.27264107175074942 0 0.27046390453541608 -0.28709034128926098 0 0.26214719379346529 -0.27264107175074942 0 0.2486439934750205 -0.27841595109449041 0 0.26214719379346529 -0.27264107175074942 0 0.249183462268279 -0.25713094297952488 0 0.2486439934750205 -0.27841595109449041 0 0.26358232833744422 -0.2424727382481226 0 0.26829238173963371 -0.2599684370851818 0 0.249183462268279 -0.25713094297952488 0 0.26829238173963371 -0.2599684370851818 0 0.26214719379346529 -0.27264107175074942 0 0.249183462268279 -0.25713094297952488 0 0.249183462268279 -0.25713094297952488 0 0.23477315424469389 -0.26842271364516729 0 0.22927533636427999 -0.2470671696831829 0 0.249183462268279 -0.25713094297952488 0 0.2486439934750205 -0.27841595109449041 0 0.23477315424469389 -0.26842271364516729 0 0.2486439934750205 -0.27841595109449041 0 0.23477315424469389 -0.26842271364516729 0 0.23356145010391549 -0.28903227635947082 0 0.23477315424469389 -0.26842271364516729 0 0.21320152901197409 -0.27046722810916762 0 0.23356145010391549 -0.28903227635947082 0 0.23477315424469389 -0.26842271364516729 0 0.21320152901197409 -0.27046722810916762 0 0.22927533636427999 -0.2470671696831829 0 0.21320152901197409 -0.27046722810916762 0 0.22927533636427999 -0.2470671696831829 0 0.21320152901197409 -0.27046722810916762 0 0.20129499954753871 -0.25133160893564049 0 0.22927533636427999 -0.2470671696831829 0 0.21320152901197409 -0.27046722810916762 0 0.1858551055233762 -0.26374402218189552 0 0.1859061777918618 -0.28095433545807169 0 0.21320152901197409 -0.27046722810916762 0 0.20129499954753871 -0.25133160893564049 0 0.1858551055233762 -0.26374402218189552 0 0.20129499954753871 -0.25133160893564049 0 0.1858551055233762 -0.26374402218189552 0 0.18363812540975549 -0.2472389054033737 0 0.1971277216596683 -0.29386728653515221 0 0.18105391430736251 -0.31726734496113679 0 0.19886462609391189 -0.31134603288761897 0 0.1971277216596683 -0.29386728653515221 0 0.18105391430736251 -0.31726734496113679 0 0.21320152901197409 -0.27046722810916762 0 0.1971277216596683 -0.29386728653515221 0 0.1859061777918618 -0.28095433545807169 0 0.21320152901197409 -0.27046722810916762 0 0.1971277216596683 -0.29386728653515221 0 0.21320152901197409 -0.27046722810916762 0 0.1971277216596683 -0.29386728653515221 0 0.2159457094943586 -0.29564097558985553 0 0.19886462609391189 -0.31134603288761897 0 0.2159457094943586 -0.29564097558985553 0 0.2265017400704484 -0.3113200335171028 0 0.19886462609391189 -0.31134603288761897 0 0.1971277216596683 -0.29386728653515221 0 0.2159457094943586 -0.29564097558985553 0 0.2159457094943586 -0.29564097558985553 0 0.2265017400704484 -0.3113200335171028 0 0.23356145010391549 -0.28903227635947082 0 0.21320152901197409 -0.27046722810916762 0 0.2159457094943586 -0.29564097558985553 0 0.23356145010391549 -0.28903227635947082 0 0.2546763412149694 -0.29502247761241579 0 0.23356145010391549 -0.28903227635947082 0 0.24352898260121089 -0.30464655820294378 0 0.2546763412149694 -0.29502247761241579 0 0.2486439934750205 -0.27841595109449041 0 0.23356145010391549 -0.28903227635947082 0 0.2265017400704484 -0.3113200335171028 0 0.23356145010391549 -0.28903227635947082 0 0.24352898260121089 -0.30464655820294378 0 0.2265017400704484 -0.3113200335171028 0 0.24352898260121089 -0.30464655820294378 0 0.24780266221312031 -0.32293856896847711 0 0.2265017400704484 -0.3113200335171028 0 0.24780266221312031 -0.32293856896847711 0 0.23256472038063389 -0.33502117899054701 0 0.25540078216568762 -0.34206524050618231 0 0.24780266221312031 -0.32293856896847711 0 0.23256472038063389 -0.33502117899054701 0 0.23256472038063389 -0.33502117899054701 0 0.2158396471567875 -0.34593663351588161 0 0.20930307662119471 -0.32655828092774392 0 0.2265017400704484 -0.3113200335171028 0 0.23256472038063389 -0.33502117899054701 0 0.20930307662119471 -0.32655828092774392 0 0.25669679711280169 -0.36205118638645611 0 0.24055670875288529 -0.35702118497538182 0 0.24583954656183821 -0.37989668710717522 0 0.24055670875288529 -0.35702118497538182 0 0.23075626102303451 -0.3728515272981055 0 0.24583954656183821 -0.37989668710717522 0 0.25540078216568762 -0.34206524050618231 0 0.23256472038063389 -0.33502117899054701 0 0.24055670875288529 -0.35702118497538182 0 0.24055670875288529 -0.35702118497538182 0 0.21847027858970561 -0.36621783371855959 0 0.2158396471567875 -0.34593663351588161 0 0.23256472038063389 -0.33502117899054701 0 0.24055670875288529 -0.35702118497538182 0 0.2158396471567875 -0.34593663351588161 0 0.24055670875288529 -0.35702118497538182 0 0.23075626102303451 -0.3728515272981055 0 0.21847027858970561 -0.36621783371855959 0 0.24055670875288529 -0.35702118497538182 0 0.21847027858970561 -0.36621783371855959 0 0.21847027858970561 -0.36621783371855959 0 0.1963838484265257 -0.37541448246173748 0 0.21847027858970561 -0.36621783371855959 0 0.2029585383000701 -0.35810186902671642 0 0.1963838484265257 -0.37541448246173748 0 0.2158396471567875 -0.34593663351588161 0 0.2029585383000701 -0.35810186902671642 0 0.19210441317194099 -0.34179652833838498 0 0.21847027858970561 -0.36621783371855959 0 0.2158396471567875 -0.34593663351588161 0 0.2029585383000701 -0.35810186902671642 0 0.2029585383000701 -0.35810186902671642 0 0.19210441317194099 -0.34179652833838498 0 0.18723650852750909 -0.36436459437949448 0 0.2029585383000701 -0.35810186902671642 0 0.18723650852750909 -0.36436459437949448 0 0.1963838484265257 -0.37541448246173748 0 0.19886462609391189 -0.31134603288761897 0 0.2265017400704484 -0.3113200335171028 0 0.20930307662119471 -0.32655828092774392 0 0.2265017400704484 -0.3113200335171028 0 0.20930307662119471 -0.32655828092774392 0 0.2158396471567875 -0.34593663351588161 0 0.20930307662119471 -0.32655828092774392 0 0.19210441317194099 -0.34179652833838498 0 0.20930307662119471 -0.32655828092774392 0 0.19210441317194099 -0.34179652833838498 0 0.20930307662119471 -0.32655828092774392 0 0.19210441317194099 -0.34179652833838498 0 0.18927473722192709 -0.32535310909185611 0 0.19886462609391189 -0.31134603288761897 0 0.20930307662119471 -0.32655828092774392 0 0.18927473722192709 -0.32535310909185611 0 0.19886462609391189 -0.31134603288761897 0 0.18927473722192709 -0.32535310909185611 0 0.18105391430736251 -0.31726734496113679 0 0.18105391430736251 -0.31726734496113679 0 0.1730720941421105 -0.31737581670331172 0 0.17749740010036899 -0.32344745315433188 0 0.18105391430736251 -0.31726734496113679 0 0.1730720941421105 -0.31737581670331172 0 0.17843700997123119 -0.30522522203657521 0 0.17749740010036899 -0.32344745315433188 0 0.17870035339199289 -0.33167858114743798 0 0.170516235210464 -0.32419908555908411 0 0.1730720941421105 -0.31737581670331172 0 0.17749740010036899 -0.32344745315433188 0 0.170516235210464 -0.32419908555908411 0 0.18927473722192709 -0.32535310909185611 0 0.18105391430736251 -0.31726734496113679 0 0.17749740010036899 -0.32344745315433188 0 0.18927473722192709 -0.32535310909185611 0 0.17749740010036899 -0.32344745315433188 0 0.17870035339199289 -0.33167858114743798 0 0.19210441317194099 -0.34179652833838498 0 0.18927473722192709 -0.32535310909185611 0 0.17870035339199289 -0.33167858114743798 0 0.19210441317194099 -0.34179652833838498 0 0.17473708792418099 -0.34206401797849229 0 0.17870035339199289 -0.33167858114743798 0 0.17870035339199289 -0.33167858114743798 0 0.17024683503005539 -0.33231108955924821 0 0.170516235210464 -0.32419908555908411 0 0.17473708792418099 -0.34206401797849229 0 0.17870035339199289 -0.33167858114743798 0 0.17024683503005539 -0.33231108955924821 0 0.17024683503005539 -0.33231108955924821 0 0.16462029456373159 -0.33763846028973138 0 0.16266020405990769 -0.32597530282149512 0 0.17473708792418099 -0.34206401797849229 0 0.17024683503005539 -0.33231108955924821 0 0.16462029456373159 -0.33763846028973138 0 0.17473708792418099 -0.34206401797849229 0 0.16462029456373159 -0.33763846028973138 0 0.16545131832889551 -0.34708741219719269 0 0.16462029456373159 -0.33763846028973138 0 0.15412876763843589 -0.3445310399698096 0 0.1543122309796007 -0.33139400358737792 0 0.16462029456373159 -0.33763846028973138 0 0.16545131832889551 -0.34708741219719269 0 0.15412876763843589 -0.3445310399698096 0 0.16462029456373159 -0.33763846028973138 0 0.16266020405990769 -0.32597530282149512 0 0.1543122309796007 -0.33139400358737792 0 0.16266020405990769 -0.32597530282149512 0 0.1632363789230859 -0.31893285398989718 0 0.15487278720864811 -0.31919320137034668 0 0.16266020405990769 -0.32597530282149512 0 0.15487278720864811 -0.31919320137034668 0 0.1543122309796007 -0.33139400358737792 0 0.1632363789230859 -0.31893285398989718 0 0.15803780292130629 -0.31348972747064008 0 0.15487278720864811 -0.31919320137034668 0 0.1730720941421105 -0.31737581670331172 0 0.1632363789230859 -0.31893285398989718 0 0.170516235210464 -0.32419908555908411 0 0.1730720941421105 -0.31737581670331172 0 0.1632363789230859 -0.31893285398989718 0 0.15803780292130629 -0.31348972747064008 0 0.17024683503005539 -0.33231108955924821 0 0.16266020405990769 -0.32597530282149512 0 0.170516235210464 -0.32419908555908411 0 0.16266020405990769 -0.32597530282149512 0 0.1632363789230859 -0.31893285398989718 0 0.170516235210464 -0.32419908555908411 0 0.18723650852750909 -0.36436459437949448 0 0.1963838484265257 -0.37541448246173748 0 0.17886155037258661 -0.37681591764212569 0 0.17426480488801979 -0.37048903382710913 0 0.18723650852750909 -0.36436459437949448 0 0.17886155037258661 -0.37681591764212569 0 0.17426480488801979 -0.37048903382710913 0 0.18723650852750909 -0.36436459437949448 0 0.17490574972268741 -0.35703477574902609 0 0.19210441317194099 -0.34179652833838498 0 0.18723650852750909 -0.36436459437949448 0 0.17490574972268741 -0.35703477574902609 0 0.19210441317194099 -0.34179652833838498 0 0.17473708792418099 -0.34206401797849229 0 0.17490574972268741 -0.35703477574902609 0 0.19210441317194099 -0.34179652833838498 0 0.17490574972268741 -0.35703477574902609 0 0.17490574972268741 -0.35703477574902609 0 0.16545131832889551 -0.34708741219719269 0 0.1582330973120058 -0.35562199083290669 0 0.17473708792418099 -0.34206401797849229 0 0.17490574972268741 -0.35703477574902609 0 0.16545131832889551 -0.34708741219719269 0 0.16545131832889551 -0.34708741219719269 0 0.1582330973120058 -0.35562199083290669 0 0.15412876763843589 -0.3445310399698096 0 0.17490574972268741 -0.35703477574902609 0 0.15770708627343691 -0.37227302315967092 0 0.17490574972268741 -0.35703477574902609 0 0.1582330973120058 -0.35562199083290669 0 0.15770708627343691 -0.37227302315967092 0 0.17426480488801979 -0.37048903382710913 0 0.17490574972268741 -0.35703477574902609 0 0.15770708627343691 -0.37227302315967092 0 0.15770708627343691 -0.37227302315967092 0 0.1376788770424183 -0.35737819106135399 0 0.1391110311350767 -0.37261691868665109 0 0.1582330973120058 -0.35562199083290669 0 0.15770708627343691 -0.37227302315967092 0 0.1376788770424183 -0.35737819106135399 0 0.15770708627343691 -0.37227302315967092 0 0.1376788770424183 -0.35737819106135399 0 0.1582330973120058 -0.35562199083290669 0 0.15412876763843589 -0.3445310399698096 0 0.1376788770424183 -0.35737819106135399 0 0.15412876763843589 -0.3445310399698096 0 0.1376788770424183 -0.35737819106135399 0 0.1444767876039634 -0.33806618185029519 0 0.1376788770424183 -0.35737819106135399 0 0.1444767876039634 -0.33806618185029519 0 0.13150140011442771 -0.33605452762183557 0 0.1376788770424183 -0.35737819106135399 0 0.11765066781140041 -0.34248335896303639 0 0.1248201907380299 -0.36363684837108118 0 0.1376788770424183 -0.35737819106135399 0 0.13150140011442771 -0.33605452762183557 0 0.11765066781140041 -0.34248335896303639 0 0.1376788770424183 -0.35737819106135399 0 0.11765066781140041 -0.34248335896303639 0 0.1376788770424183 -0.35737819106135399 0 0.1391110311350767 -0.37261691868665109 0 0.1248201907380299 -0.36363684837108118 0 0.1391110311350767 -0.37261691868665109 0 0.1276170841357129 -0.37816195344217318 0 0.1248201907380299 -0.36363684837108118 0 0.1440116870232486 -0.32409754804328578 0 0.14851445394196169 -0.31262015445959501 0 0.13952815315935799 -0.30914698732994461 0 0.15803780292130629 -0.31348972747064008 0 0.15487278720864811 -0.31919320137034668 0 0.14851445394196169 -0.31262015445959501 0 0.1440116870232486 -0.32409754804328578 0 0.15487278720864811 -0.31919320137034668 0 0.14851445394196169 -0.31262015445959501 0 0.1440116870232486 -0.32409754804328578 0 0.15487278720864811 -0.31919320137034668 0 0.1543122309796007 -0.33139400358737792 0 0.15412876763843589 -0.3445310399698096 0 0.1543122309796007 -0.33139400358737792 0 0.1444767876039634 -0.33806618185029519 0 0.1440116870232486 -0.32409754804328578 0 0.1543122309796007 -0.33139400358737792 0 0.1444767876039634 -0.33806618185029519 0 0.1440116870232486 -0.32409754804328578 0 0.1444767876039634 -0.33806618185029519 0 0.13150140011442771 -0.33605452762183557 0 0.13150140011442771 -0.33605452762183557 0 0.12537450164912489 -0.32583360346286522 0 0.1189838061657293 -0.33196696644828239 0 0.13150140011442771 -0.33605452762183557 0 0.12537450164912489 -0.32583360346286522 0 0.13355645892532561 -0.32132434924634801 0 0.12537450164912489 -0.32583360346286522 0 0.13355645892532561 -0.32132434924634801 0 0.12373562356947609 -0.31678119362931417 0 0.1440116870232486 -0.32409754804328578 0 0.13150140011442771 -0.33605452762183557 0 0.13355645892532561 -0.32132434924634801 0 0.1440116870232486 -0.32409754804328578 0 0.13355645892532561 -0.32132434924634801 0 0.13952815315935799 -0.30914698732994461 0 0.13355645892532561 -0.32132434924634801 0 0.12844577558116871 -0.30988530195065322 0 0.13952815315935799 -0.30914698732994461 0 0.13355645892532561 -0.32132434924634801 0 0.12844577558116871 -0.30988530195065322 0 0.12373562356947609 -0.31678119362931417 0 0.12844577558116871 -0.30988530195065322 0 0.13089662702219551 -0.30232917311616098 0 0.122259089804518 -0.30262204367803403 0 0.13089662702219551 -0.30232917311616098 0 0.1396088250872973 -0.29587615384039151 0 0.1246412914786356 -0.29411537878178168 0 0.13089662702219551 -0.30232917311616098 0 0.1246412914786356 -0.29411537878178168 0 0.122259089804518 -0.30262204367803403 0 0.13089662702219551 -0.30232917311616098 0 0.13952815315935799 -0.30914698732994461 0 0.1396088250872973 -0.29587615384039151 0 0.12844577558116871 -0.30988530195065322 0 0.13089662702219551 -0.30232917311616098 0 0.13952815315935799 -0.30914698732994461 0 0.14851445394196169 -0.31262015445959501 0 0.13952815315935799 -0.30914698732994461 0 0.15049330039072539 -0.29932661083004969 0 0.13952815315935799 -0.30914698732994461 0 0.15049330039072539 -0.29932661083004969 0 0.1396088250872973 -0.29587615384039151 0 0.15803780292130629 -0.31348972747064008 0 0.14851445394196169 -0.31262015445959501 0 0.15049330039072539 -0.29932661083004969 0 0.15049330039072539 -0.29932661083004969 0 0.151548357436358 -0.28747439461185348 0 0.12791450663934029 -0.28127740495678782 0 0.15049330039072539 -0.29932661083004969 0 0.151548357436358 -0.28747439461185348 0 0.16205642144906041 -0.29228981479550281 0 0.15049330039072539 -0.29932661083004969 0 0.1396088250872973 -0.29587615384039151 0 0.12791450663934029 -0.28127740495678782 0 0.151548357436358 -0.28747439461185348 0 0.12791450663934029 -0.28127740495678782 0 0.14177924048381541 -0.2765660433916648 0 0.1396088250872973 -0.29587615384039151 0 0.1224497833659107 -0.27957584667364271 0 0.1396088250872973 -0.29587615384039151 0 0.12791450663934029 -0.28127740495678782 0 0.1224497833659107 -0.27957584667364271 0 0.15049330039072539 -0.29932661083004969 0 0.12791450663934029 -0.28127740495678782 0 0.1396088250872973 -0.29587615384039151 0 0.1224497833659107 -0.27957584667364271 0 0.1246412914786356 -0.29411537878178168 0 0.12791450663934029 -0.28127740495678782 0 0.1330808699564664 -0.27008557697483032 0 0.1249604328357178 -0.27102265948516302 0 0.1330808699564664 -0.27008557697483032 0 0.1236937780082713 -0.26412796472653721 0 0.1249604328357178 -0.27102265948516302 0 0.12791450663934029 -0.28127740495678782 0 0.1330808699564664 -0.27008557697483032 0 0.14177924048381541 -0.2765660433916648 0 0.1330808699564664 -0.27008557697483032 0 0.13448309619329249 -0.25824462846157331 0 0.15004912102267259 -0.26448147272289563 0 0.13448309619329249 -0.25824462846157331 0 0.122950809996049 -0.25239340012073208 0 0.13262045681175449 -0.24449406379594699 0 0.13448309619329249 -0.25824462846157331 0 0.1236937780082713 -0.26412796472653721 0 0.122950809996049 -0.25239340012073208 0 0.1330808699564664 -0.27008557697483032 0 0.13448309619329249 -0.25824462846157331 0 0.1236937780082713 -0.26412796472653721 0 0.15004912102267259 -0.26448147272289563 0 0.1485498846089871 -0.24148855083393761 0 0.15004912102267259 -0.26448147272289563 0 0.16656330691575069 -0.25417207272616349 0 0.1485498846089871 -0.24148855083393761 0 0.13448309619329249 -0.25824462846157331 0 0.15004912102267259 -0.26448147272289563 0 0.1485498846089871 -0.24148855083393761 0 0.151548357436358 -0.28747439461185348 0 0.15004912102267259 -0.26448147272289563 0 0.14177924048381541 -0.2765660433916648 0 0.1330808699564664 -0.27008557697483032 0 0.15004912102267259 -0.26448147272289563 0 0.14177924048381541 -0.2765660433916648 0 0.151548357436358 -0.28747439461185348 0 0.15004912102267259 -0.26448147272289563 0 0.151548357436358 -0.28747439461185348 0 0.15004912102267259 -0.26448147272289563 0 0.16730912967120359 -0.27703240655233591 0 0.15004912102267259 -0.26448147272289563 0 0.16730912967120359 -0.27703240655233591 0 0.16656330691575069 -0.25417207272616349 0 0.16730912967120359 -0.27703240655233591 0 0.16656330691575069 -0.25417207272616349 0 0.1858551055233762 -0.26374402218189552 0 0.16656330691575069 -0.25417207272616349 0 0.1858551055233762 -0.26374402218189552 0 0.18363812540975549 -0.2472389054033737 0 0.16730912967120359 -0.27703240655233591 0 0.1858551055233762 -0.26374402218189552 0 0.1859061777918618 -0.28095433545807169 0 0.16730912967120359 -0.27703240655233591 0 0.1859061777918618 -0.28095433545807169 0 0.17529320178430291 -0.29304112094275958 0 0.1971277216596683 -0.29386728653515221 0 0.1859061777918618 -0.28095433545807169 0 0.17529320178430291 -0.29304112094275958 0 0.1971277216596683 -0.29386728653515221 0 0.18105391430736251 -0.31726734496113679 0 0.17843700997123119 -0.30522522203657521 0 0.1730720941421105 -0.31737581670331172 0 0.17843700997123119 -0.30522522203657521 0 0.16787040554748611 -0.30145171706163981 0 0.1971277216596683 -0.29386728653515221 0 0.17529320178430291 -0.29304112094275958 0 0.17843700997123119 -0.30522522203657521 0 0.17529320178430291 -0.29304112094275958 0 0.17843700997123119 -0.30522522203657521 0 0.16787040554748611 -0.30145171706163981 0 0.1730720941421105 -0.31737581670331172 0 0.15049330039072539 -0.29932661083004969 0 0.15049330039072539 -0.29932661083004969 0 0.16787040554748611 -0.30145171706163981 0 0.16205642144906041 -0.29228981479550281 0 0.1730720941421105 -0.31737581670331172 0 0.15803780292130629 -0.31348972747064008 0 0.15049330039072539 -0.29932661083004969 0 0.1730720941421105 -0.31737581670331172 0 0.15049330039072539 -0.29932661083004969 0 0.16787040554748611 -0.30145171706163981 0 0.16730912967120359 -0.27703240655233591 0 0.17529320178430291 -0.29304112094275958 0 0.16205642144906041 -0.29228981479550281 0 0.151548357436358 -0.28747439461185348 0 0.16730912967120359 -0.27703240655233591 0 0.16205642144906041 -0.29228981479550281 0 0.17529320178430291 -0.29304112094275958 0 0.16787040554748611 -0.30145171706163981 0 0.16205642144906041 -0.29228981479550281 0 0.19665944497451049 -0.48657824546695089 0 0.2063682028697752 -0.5 0 0.17872023109320281 -0.5 0 0.19665944497451049 -0.48657824546695089 0 0.19916240626110751 -0.47082756718197177 0 0.20833436366157229 -0.47895489250355677 0 0.19665944497451049 -0.48657824546695089 0 0.19916240626110751 -0.47082756718197177 0 0.1842242097311072 -0.48024281914927758 0 0.19916240626110751 -0.47082756718197177 0 0.18670759339650611 -0.46732136909016192 0 0.1842242097311072 -0.48024281914927758 0 0.19916240626110751 -0.47082756718197177 0 0.20833436366157229 -0.47895489250355677 0 0.21467337173610579 -0.46854845128016859 0 0.20833436366157229 -0.47895489250355677 0 0.2173756322858815 -0.47810765144475292 0 0.21467337173610579 -0.46854845128016859 0 0.20833436366157229 -0.47895489250355677 0 0.2173756322858815 -0.47810765144475292 0 0.21241947501709429 -0.49098184153996899 0 0.19665944497451049 -0.48657824546695089 0 0.21241947501709429 -0.49098184153996899 0 0.2063682028697752 -0.5 0 0.19665944497451049 -0.48657824546695089 0 0.20833436366157229 -0.47895489250355677 0 0.21241947501709429 -0.49098184153996899 0 0.21241947501709429 -0.49098184153996899 0 0.2063682028697752 -0.5 0 0.23401617464634761 -0.5 0 0.21241947501709429 -0.49098184153996899 0 0.23401617464634761 -0.5 0 0.24107657024902099 -0.4907236406560157 0 0.21241947501709429 -0.49098184153996899 0 0.24107657024902099 -0.4907236406560157 0 0.2274713191227464 -0.48125600322114143 0 0.21241947501709429 -0.49098184153996899 0 0.24107657024902099 -0.4907236406560157 0 0.26166414642292007 -0.49999999999999911 0 0.23401617464634761 -0.5 0 0.24107657024902099 -0.4907236406560157 0 0.25491662500511097 -0.48445596515858608 0 0.24107657024902099 -0.4907236406560157 0 0.2464824476869493 -0.48087113117199448 0 0.25407204585126059 -0.47620043434077042 0 0.24397303115376431 -0.47314498618462919 0 0.2464824476869493 -0.48087113117199448 0 0.24397303115376431 -0.47314498618462919 0 0.2464824476869493 -0.48087113117199448 0 0.2383739661755894 -0.47983062951997102 0 0.24107657024902099 -0.4907236406560157 0 0.2383739661755894 -0.47983062951997102 0 0.2274713191227464 -0.48125600322114143 0 0.24107657024902099 -0.4907236406560157 0 0.2464824476869493 -0.48087113117199448 0 0.2383739661755894 -0.47983062951997102 0 0.24397303115376431 -0.47314498618462919 0 0.2383739661755894 -0.47983062951997102 0 0.23343944183345089 -0.47154438910414648 0 0.24397303115376431 -0.47314498618462919 0 0.23343944183345089 -0.47154438910414648 0 0.2404995493850747 -0.46477991348397452 0 0.23343944183345089 -0.47154438910414648 0 0.2274713191227464 -0.48125600322114143 0 0.22452214931548881 -0.47217627458127998 0 0.2383739661755894 -0.47983062951997102 0 0.23343944183345089 -0.47154438910414648 0 0.2274713191227464 -0.48125600322114143 0 0.2173756322858815 -0.47810765144475292 0 0.21241947501709429 -0.49098184153996899 0 0.2274713191227464 -0.48125600322114143 0 0.2173756322858815 -0.47810765144475292 0 0.2274713191227464 -0.48125600322114143 0 0.22452214931548881 -0.47217627458127998 0 0.2173756322858815 -0.47810765144475292 0 0.22452214931548881 -0.47217627458127998 0 0.21467337173610579 -0.46854845128016859 0 0.22965098159925951 -0.46142487785619091 0 0.2178106002396325 -0.45514670206137758 0 0.21467337173610579 -0.46854845128016859 0 0.22452214931548881 -0.47217627458127998 0 0.22965098159925951 -0.46142487785619091 0 0.21467337173610579 -0.46854845128016859 0 0.22965098159925951 -0.46142487785619091 0 0.2338350789714109 -0.4468079314395117 0 0.2178106002396325 -0.45514670206137758 0 0.23343944183345089 -0.47154438910414648 0 0.22452214931548881 -0.47217627458127998 0 0.22965098159925951 -0.46142487785619091 0 0.23343944183345089 -0.47154438910414648 0 0.22965098159925951 -0.46142487785619091 0 0.2404995493850747 -0.46477991348397452 0 0.22965098159925951 -0.46142487785619091 0 0.24538897653839259 -0.45606013660258321 0 0.2338350789714109 -0.4468079314395117 0 0.22965098159925951 -0.46142487785619091 0 0.2404995493850747 -0.46477991348397452 0 0.24538897653839259 -0.45606013660258321 0 0.25503377928763937 -0.46343917210454472 0 0.24397303115376431 -0.47314498618462919 0 0.2404995493850747 -0.46477991348397452 0 0.25503377928763937 -0.46343917210454472 0 0.2404995493850747 -0.46477991348397452 0 0.24538897653839259 -0.45606013660258321 0 0.25720603490363919 -0.44626966043819438 0 0.24538897653839259 -0.45606013660258321 0 0.2338350789714109 -0.4468079314395117 0 0.25720603490363919 -0.44626966043819438 0 0.2338350789714109 -0.4468079314395117 0 0.2349631812069525 -0.42972781351727768 0 0.25720603490363919 -0.44626966043819438 0 0.2349631812069525 -0.42972781351727768 0 0.2338350789714109 -0.4468079314395117 0 0.2212005543772555 -0.44296402446083449 0 0.2178106002396325 -0.45514670206137758 0 0.2338350789714109 -0.4468079314395117 0 0.2212005543772555 -0.44296402446083449 0 0.2349631812069525 -0.42972781351727768 0 0.2073495146571675 -0.44698049227774678 0 0.19563255096235321 -0.44043816190007667 0 0.20820094609588449 -0.43088417246255012 0 0.2212005543772555 -0.44296402446083449 0 0.2073495146571675 -0.44698049227774678 0 0.20820094609588449 -0.43088417246255012 0 0.2212005543772555 -0.44296402446083449 0 0.2073495146571675 -0.44698049227774678 0 0.2178106002396325 -0.45514670206137758 0 0.2178106002396325 -0.45514670206137758 0 0.21467337173610579 -0.46854845128016859 0 0.2050666376436702 -0.45948047182569818 0 0.19916240626110751 -0.47082756718197177 0 0.21467337173610579 -0.46854845128016859 0 0.2050666376436702 -0.45948047182569818 0 0.2073495146571675 -0.44698049227774678 0 0.2178106002396325 -0.45514670206137758 0 0.2050666376436702 -0.45948047182569818 0 0.2050666376436702 -0.45948047182569818 0 0.1950514053378134 -0.46156783975666521 0 0.1965932951483754 -0.45254695265000949 0 0.19916240626110751 -0.47082756718197177 0 0.2050666376436702 -0.45948047182569818 0 0.1950514053378134 -0.46156783975666521 0 0.1950514053378134 -0.46156783975666521 0 0.1877270942394077 -0.45766283803548441 0 0.18670759339650611 -0.46732136909016192 0 0.19916240626110751 -0.47082756718197177 0 0.1950514053378134 -0.46156783975666521 0 0.18670759339650611 -0.46732136909016192 0 0.1950514053378134 -0.46156783975666521 0 0.1877270942394077 -0.45766283803548441 0 0.1965932951483754 -0.45254695265000949 0 0.1877270942394077 -0.45766283803548441 0 0.1877054933454371 -0.44926449164075088 0 0.1965932951483754 -0.45254695265000949 0 0.1877054933454371 -0.44926449164075088 0 0.19563255096235321 -0.44043816190007667 0 0.1965932951483754 -0.45254695265000949 0 0.2073495146571675 -0.44698049227774678 0 0.19563255096235321 -0.44043816190007667 0 0.1965932951483754 -0.45254695265000949 0 0.2073495146571675 -0.44698049227774678 0 0.2050666376436702 -0.45948047182569818 0 0.1965932951483754 -0.45254695265000949 0 0.18834771874503331 -0.42738382581320822 0 0.19623686992420439 -0.41648926914166889 0 0.20820094609588449 -0.43088417246255012 0 0.19563255096235321 -0.44043816190007667 0 0.18834771874503331 -0.42738382581320822 0 0.20820094609588449 -0.43088417246255012 0 0.19563255096235321 -0.44043816190007667 0 0.18834771874503331 -0.42738382581320822 0 0.1787021715675369 -0.44105606288026272 0 0.19623686992420439 -0.41648926914166889 0 0.19047747381358149 -0.39664411967544161 0 0.1814378834562568 -0.41434826116078433 0 0.19623686992420439 -0.41648926914166889 0 0.21272032751026601 -0.41318596659636098 0 0.19047747381358149 -0.39664411967544161 0 0.18834771874503331 -0.42738382581320822 0 0.19623686992420439 -0.41648926914166889 0 0.1814378834562568 -0.41434826116078433 0 0.19623686992420439 -0.41648926914166889 0 0.21272032751026601 -0.41318596659636098 0 0.20820094609588449 -0.43088417246255012 0 0.21272032751026601 -0.41318596659636098 0 0.20820094609588449 -0.43088417246255012 0 0.2349631812069525 -0.42972781351727768 0 0.2212005543772555 -0.44296402446083449 0 0.20820094609588449 -0.43088417246255012 0 0.2349631812069525 -0.42972781351727768 0 0.2349631812069525 -0.42972781351727768 0 0.24458567755625779 -0.41149206855898302 0 0.2314360397253282 -0.40377484035833983 0 0.25902581985590339 -0.41832754609287509 0 0.2349631812069525 -0.42972781351727768 0 0.24458567755625779 -0.41149206855898302 0 0.21272032751026601 -0.41318596659636098 0 0.2349631812069525 -0.42972781351727768 0 0.2314360397253282 -0.40377484035833983 0 0.21272032751026601 -0.41318596659636098 0 0.2349631812069525 -0.42972781351727768 0 0.2314360397253282 -0.40377484035833983 0 0.24583954656183821 -0.37989668710717522 0 0.21815851018770899 -0.38827040339130547 0 0.21272032751026601 -0.41318596659636098 0 0.2314360397253282 -0.40377484035833983 0 0.21815851018770899 -0.38827040339130547 0 0.24458567755625779 -0.41149206855898302 0 0.2314360397253282 -0.40377484035833983 0 0.2488142854836905 -0.39608556545975832 0 0.2314360397253282 -0.40377484035833983 0 0.2488142854836905 -0.39608556545975832 0 0.24583954656183821 -0.37989668710717522 0 0.23075626102303451 -0.3728515272981055 0 0.24583954656183821 -0.37989668710717522 0 0.21815851018770899 -0.38827040339130547 0 0.23075626102303451 -0.3728515272981055 0 0.21847027858970561 -0.36621783371855959 0 0.21815851018770899 -0.38827040339130547 0 0.24583954656183821 -0.37989668710717522 0 0.21815851018770899 -0.38827040339130547 0 0.21847027858970561 -0.36621783371855959 0 0.21815851018770899 -0.38827040339130547 0 0.1963838484265257 -0.37541448246173748 0 0.21815851018770899 -0.38827040339130547 0 0.19047747381358149 -0.39664411967544161 0 0.21272032751026601 -0.41318596659636098 0 0.21815851018770899 -0.38827040339130547 0 0.19047747381358149 -0.39664411967544161 0 0.21272032751026601 -0.41318596659636098 0 0.19047747381358149 -0.39664411967544161 0 0.21815851018770899 -0.38827040339130547 0 0.19047747381358149 -0.39664411967544161 0 0.1963838484265257 -0.37541448246173748 0 0.1963838484265257 -0.37541448246173748 0 0.17429741826334599 -0.38461113120491552 0 0.17886155037258661 -0.37681591764212569 0 0.1963838484265257 -0.37541448246173748 0 0.17429741826334599 -0.38461113120491552 0 0.19047747381358149 -0.39664411967544161 0 0.1963838484265257 -0.37541448246173748 0 0.17429741826334599 -0.38461113120491552 0 0.17429741826334599 -0.38461113120491552 0 0.17665753088647751 -0.3928753291820406 0 0.17140299159004679 -0.385816352022881 0 0.17429741826334599 -0.38461113120491552 0 0.17140299159004679 -0.385816352022881 0 0.17429741826334599 -0.38461113120491552 0 0.17195349329567991 -0.38286797142254458 0 0.17429741826334599 -0.38461113120491552 0 0.17195349329567991 -0.38286797142254458 0 0.17140299159004679 -0.385816352022881 0 0.17426480488801979 -0.37048903382710913 0 0.17195349329567991 -0.38286797142254458 0 0.17886155037258661 -0.37681591764212569 0 0.17426480488801979 -0.37048903382710913 0 0.17195349329567991 -0.38286797142254458 0 0.17429741826334599 -0.38461113120491552 0 0.17195349329567991 -0.38286797142254458 0 0.17886155037258661 -0.37681591764212569 0 0.19047747381358149 -0.39664411967544161 0 0.1736365096474802 -0.40173863470630811 0 0.19047747381358149 -0.39664411967544161 0 0.17429741826334599 -0.38461113120491552 0 0.17665753088647751 -0.3928753291820406 0 0.19047747381358149 -0.39664411967544161 0 0.1736365096474802 -0.40173863470630811 0 0.1814378834562568 -0.41434826116078433 0 0.19047747381358149 -0.39664411967544161 0 0.17429741826334599 -0.38461113120491552 0 0.1736365096474802 -0.40173863470630811 0 0.17665753088647751 -0.3928753291820406 0 0.17140299159004679 -0.385816352022881 0 0.19047747381358149 -0.39664411967544161 0 0.1736365096474802 -0.40173863470630811 0 0.17665753088647751 -0.3928753291820406 0 0.17140299159004679 -0.385816352022881 0 0.16665108553138069 -0.41126664126752749 0 0.16320029300295541 -0.39696292143703937 0 0.17140299159004679 -0.385816352022881 0 0.16665108553138069 -0.41126664126752749 0 0.1736365096474802 -0.40173863470630811 0 0.17140299159004679 -0.385816352022881 0 0.16665108553138069 -0.41126664126752749 0 0.15993736716764401 -0.40526062715401218 0 0.16320029300295541 -0.39696292143703937 0 0.16665108553138069 -0.41126664126752749 0 0.15993736716764401 -0.40526062715401218 0 0.16320029300295541 -0.39696292143703937 0 0.1548919577416156 -0.3986174319533845 0 0.16320029300295541 -0.39696292143703937 0 0.15844468015737689 -0.39034093461551922 0 0.1548919577416156 -0.3986174319533845 0 0.16320029300295541 -0.39696292143703937 0 0.15844468015737689 -0.39034093461551922 0 0.16514022688096139 -0.38842412732948778 0 0.17426480488801979 -0.37048903382710913 0 0.15770708627343691 -0.37227302315967092 0 0.17195349329567991 -0.38286797142254458 0 0.15844468015737689 -0.39034093461551922 0 0.1604319772032575 -0.38343165866750828 0 0.15524888132794229 -0.3833165514061514 0 0.1604319772032575 -0.38343165866750828 0 0.16514022688096139 -0.38842412732948778 0 0.16561901137657009 -0.38280365682671252 0 0.15844468015737689 -0.39034093461551922 0 0.1604319772032575 -0.38343165866750828 0 0.16514022688096139 -0.38842412732948778 0 0.16320029300295541 -0.39696292143703937 0 0.16514022688096139 -0.38842412732948778 0 0.17140299159004679 -0.385816352022881 0 0.16514022688096139 -0.38842412732948778 0 0.17140299159004679 -0.385816352022881 0 0.16561901137657009 -0.38280365682671252 0 0.17195349329567991 -0.38286797142254458 0 0.17140299159004679 -0.385816352022881 0 0.16561901137657009 -0.38280365682671252 0 0.17195349329567991 -0.38286797142254458 0 0.17140299159004679 -0.385816352022881 0 0.16514022688096139 -0.38842412732948778 0 0.17140299159004679 -0.385816352022881 0 0.15770708627343691 -0.37227302315967092 0 0.17195349329567991 -0.38286797142254458 0 0.15770708627343691 -0.37227302315967092 0 0.17195349329567991 -0.38286797142254458 0 0.16561901137657009 -0.38280365682671252 0 0.15770708627343691 -0.37227302315967092 0 0.1604319772032575 -0.38343165866750828 0 0.15524888132794229 -0.3833165514061514 0 0.15770708627343691 -0.37227302315967092 0 0.1604319772032575 -0.38343165866750828 0 0.16561901137657009 -0.38280365682671252 0 0.15770708627343691 -0.37227302315967092 0 0.14775449342421509 -0.38109115444418579 0 0.15770708627343691 -0.37227302315967092 0 0.1391110311350767 -0.37261691868665109 0 0.14775449342421509 -0.38109115444418579 0 0.15770708627343691 -0.37227302315967092 0 0.15524888132794229 -0.3833165514061514 0 0.14775449342421509 -0.38109115444418579 0 0.15844468015737689 -0.39034093461551922 0 0.15524888132794229 -0.3833165514061514 0 0.15206030205519541 -0.38850508229623498 0 0.15524888132794229 -0.3833165514061514 0 0.15206030205519541 -0.38850508229623498 0 0.14775449342421509 -0.38109115444418579 0 0.1439614976248268 -0.38915933906193417 0 0.14775449342421509 -0.38109115444418579 0 0.13778824669707129 -0.38174121517266141 0 0.15206030205519541 -0.38850508229623498 0 0.1439614976248268 -0.38915933906193417 0 0.14775449342421509 -0.38109115444418579 0 0.1391110311350767 -0.37261691868665109 0 0.14775449342421509 -0.38109115444418579 0 0.13778824669707129 -0.38174121517266141 0 0.1391110311350767 -0.37261691868665109 0 0.13778824669707129 -0.38174121517266141 0 0.1276170841357129 -0.37816195344217318 0 0.1439614976248268 -0.38915933906193417 0 0.13778824669707129 -0.38174121517266141 0 0.12980237072861961 -0.39074982306661488 0 0.13778824669707129 -0.38174121517266141 0 0.1276170841357129 -0.37816195344217318 0 0.12980237072861961 -0.39074982306661488 0 0.1439614976248268 -0.38915933906193417 0 0.1348537509427736 -0.40607963720001761 0 0.12980237072861961 -0.39074982306661488 0 0.1348537509427736 -0.40607963720001761 0 0.12980237072861961 -0.39074982306661488 0 0.1170467385926309 -0.40208567913311671 0 0.1439614976248268 -0.38915933906193417 0 0.1548919577416156 -0.3986174319533845 0 0.15293033854877169 -0.4129381347870541 0 0.1439614976248268 -0.38915933906193417 0 0.1348537509427736 -0.40607963720001761 0 0.15293033854877169 -0.4129381347870541 0 0.1439614976248268 -0.38915933906193417 0 0.15293033854877169 -0.4129381347870541 0 0.15206030205519541 -0.38850508229623498 0 0.1439614976248268 -0.38915933906193417 0 0.1548919577416156 -0.3986174319533845 0 0.15844468015737689 -0.39034093461551922 0 0.15206030205519541 -0.38850508229623498 0 0.1548919577416156 -0.3986174319533845 0 0.15993736716764401 -0.40526062715401218 0 0.1548919577416156 -0.3986174319533845 0 0.15293033854877169 -0.4129381347870541 0 0.1348537509427736 -0.40607963720001761 0 0.15293033854877169 -0.4129381347870541 0 0.13750258051360489 -0.42371442025800782 0 0.1348537509427736 -0.40607963720001761 0 0.12387681452055541 -0.41636652505165422 0 0.1170467385926309 -0.40208567913311671 0 0.1348537509427736 -0.40607963720001761 0 0.13750258051360489 -0.42371442025800782 0 0.12387681452055541 -0.41636652505165422 0 0.13750258051360489 -0.42371442025800782 0 0.13724103818608099 -0.44005985586381041 0 0.117826144764139 -0.43250691168741212 0 0.13750258051360489 -0.42371442025800782 0 0.117826144764139 -0.43250691168741212 0 0.12387681452055541 -0.41636652505165422 0 0.13750258051360489 -0.42371442025800782 0 0.14805778104287581 -0.43154366047239889 0 0.13724103818608099 -0.44005985586381041 0 0.15293033854877169 -0.4129381347870541 0 0.14805778104287581 -0.43154366047239889 0 0.16189917947271559 -0.43671693051217431 0 0.15293033854877169 -0.4129381347870541 0 0.13750258051360489 -0.42371442025800782 0 0.14805778104287581 -0.43154366047239889 0 0.14805778104287581 -0.43154366047239889 0 0.16189917947271559 -0.43671693051217431 0 0.15004411383675809 -0.44315578562955921 0 0.16189917947271559 -0.43671693051217431 0 0.16665108553138069 -0.41126664126752749 0 0.1754076077545845 -0.42615434432679139 0 0.15293033854877169 -0.4129381347870541 0 0.16189917947271559 -0.43671693051217431 0 0.16189917947271559 -0.43671693051217431 0 0.16665108553138069 -0.41126664126752749 0 0.15293033854877169 -0.4129381347870541 0 0.16189917947271559 -0.43671693051217431 0 0.16665108553138069 -0.41126664126752749 0 0.15993736716764401 -0.40526062715401218 0 0.15293033854877169 -0.4129381347870541 0 0.16665108553138069 -0.41126664126752749 0 0.16665108553138069 -0.41126664126752749 0 0.1814378834562568 -0.41434826116078433 0 0.1754076077545845 -0.42615434432679139 0 0.1736365096474802 -0.40173863470630811 0 0.16665108553138069 -0.41126664126752749 0 0.1814378834562568 -0.41434826116078433 0 0.16189917947271559 -0.43671693051217431 0 0.1754076077545845 -0.42615434432679139 0 0.1787021715675369 -0.44105606288026272 0 0.18834771874503331 -0.42738382581320822 0 0.1814378834562568 -0.41434826116078433 0 0.1754076077545845 -0.42615434432679139 0 0.18834771874503331 -0.42738382581320822 0 0.1754076077545845 -0.42615434432679139 0 0.1787021715675369 -0.44105606288026272 0 0.1787021715675369 -0.44105606288026272 0 0.17977846917020571 -0.45483664318930911 0 0.17059569471897609 -0.45977371804077288 0 0.1877054933454371 -0.44926449164075088 0 0.19563255096235321 -0.44043816190007667 0 0.1787021715675369 -0.44105606288026272 0 0.1877054933454371 -0.44926449164075088 0 0.1787021715675369 -0.44105606288026272 0 0.17977846917020571 -0.45483664318930911 0 0.1877270942394077 -0.45766283803548441 0 0.17977846917020571 -0.45483664318930911 0 0.17916636396037031 -0.4628951365557431 0 0.1877270942394077 -0.45766283803548441 0 0.1877054933454371 -0.44926449164075088 0 0.17977846917020571 -0.45483664318930911 0 0.1877270942394077 -0.45766283803548441 0 0.18670759339650611 -0.46732136909016192 0 0.17916636396037031 -0.4628951365557431 0 0.18670759339650611 -0.46732136909016192 0 0.17916636396037031 -0.4628951365557431 0 0.17463658375914251 -0.47048719549552998 0 0.17059569471897609 -0.45977371804077288 0 0.17463658375914251 -0.47048719549552998 0 0.17916636396037031 -0.4628951365557431 0 0.17059569471897609 -0.45977371804077288 0 0.17463658375914251 -0.47048719549552998 0 0.17977846917020571 -0.45483664318930911 0 0.17916636396037031 -0.4628951365557431 0 0.17059569471897609 -0.45977371804077288 0 0.17977846917020571 -0.45483664318930911 0 0.17059569471897609 -0.45977371804077288 0 0.17059569471897609 -0.45977371804077288 0 0.1643068682771012 -0.47582101284537948 0 0.17463658375914251 -0.47048719549552998 0 0.17059569471897609 -0.45977371804077288 0 0.1561433680745882 -0.46754394247567388 0 0.1643068682771012 -0.47582101284537948 0 0.17059569471897609 -0.45977371804077288 0 0.1561433680745882 -0.46754394247567388 0 0.15902127377365199 -0.45213043649392409 0 0.1561433680745882 -0.46754394247567388 0 0.17059569471897609 -0.45977371804077288 0 0.15902127377365199 -0.45213043649392409 0 0.1561433680745882 -0.46754394247567388 0 0.16189917947271559 -0.43671693051217431 0 0.17059569471897609 -0.45977371804077288 0 0.16189917947271559 -0.43671693051217431 0 0.17059569471897609 -0.45977371804077288 0 0.15902127377365199 -0.45213043649392409 0 0.16189917947271559 -0.43671693051217431 0 0.1787021715675369 -0.44105606288026272 0 0.17059569471897609 -0.45977371804077288 0 0.16189917947271559 -0.43671693051217431 0 0.15902127377365199 -0.45213043649392409 0 0.15004411383675809 -0.44315578562955921 0 0.16189917947271559 -0.43671693051217431 0 0.15902127377365199 -0.45213043649392409 0 0.15902127377365199 -0.45213043649392409 0 0.15004411383675809 -0.44315578562955921 0 0.1426579873955697 -0.45306169418270897 0 0.15004411383675809 -0.44315578562955921 0 0.1426579873955697 -0.45306169418270897 0 0.13724103818608099 -0.44005985586381041 0 0.14805778104287581 -0.43154366047239889 0 0.15004411383675809 -0.44315578562955921 0 0.13724103818608099 -0.44005985586381041 0 0.1426579873955697 -0.45306169418270897 0 0.12631641679992839 -0.4523370251888581 0 0.13724103818608099 -0.44005985586381041 0 0.12631641679992839 -0.4523370251888581 0 0.13724103818608099 -0.44005985586381041 0 0.117826144764139 -0.43250691168741212 0 0.1426579873955697 -0.45306169418270897 0 0.12631641679992839 -0.4523370251888581 0 0.1362301401405869 -0.46518672938287159 0 0.12631641679992839 -0.4523370251888581 0 0.1362301401405869 -0.46518672938287159 0 0.1163542145109222 -0.46972592710188488 0 0.1362301401405869 -0.46518672938287159 0 0.1163542145109222 -0.46972592710188488 0 0.15902127377365199 -0.45213043649392409 0 0.1426579873955697 -0.45306169418270897 0 0.14601475733772359 -0.4632570861704588 0 0.1426579873955697 -0.45306169418270897 0 0.1362301401405869 -0.46518672938287159 0 0.14601475733772359 -0.4632570861704588 0 0.15902127377365199 -0.45213043649392409 0 0.14601475733772359 -0.4632570861704588 0 0.1561433680745882 -0.46754394247567388 0 0.14601475733772359 -0.4632570861704588 0 0.1561433680745882 -0.46754394247567388 0 0.13602101730422009 -0.47836262831711551 0 0.1561433680745882 -0.46754394247567388 0 0.1534830993042213 -0.48179182718519881 0 0.13602101730422009 -0.47836262831711551 0 0.1561433680745882 -0.46754394247567388 0 0.1534830993042213 -0.48179182718519881 0 0.1561433680745882 -0.46754394247567388 0 0.13602101730422009 -0.47836262831711551 0 0.1534830993042213 -0.48179182718519881 0 0.13602101730422009 -0.47836262831711551 0 0.13819091986327001 -0.48993447634973541 0 0.1362301401405869 -0.46518672938287159 0 0.13602101730422009 -0.47836262831711551 0 0.1163542145109222 -0.46972592710188488 0 0.13602101730422009 -0.47836262831711551 0 0.11589866653385281 -0.48918131415855848 0 0.1362301401405869 -0.46518672938287159 0 0.14601475733772359 -0.4632570861704588 0 0.13602101730422009 -0.47836262831711551 0 0.13602101730422009 -0.47836262831711551 0 0.12838372281035021 -0.48936960470635232 0 0.11589866653385281 -0.48918131415855848 0 0.13819091986327001 -0.48993447634973541 0 0.15107225931663029 -0.5 0 0.1234242875400577 -0.5 0 0.12838372281035021 -0.48936960470635232 0 0.13819091986327001 -0.48993447634973541 0 0.1234242875400577 -0.5 0 0.13602101730422009 -0.47836262831711551 0 0.12838372281035021 -0.48936960470635232 0 0.13819091986327001 -0.48993447634973541 0 0.1534830993042213 -0.48179182718519881 0 0.13819091986327001 -0.48993447634973541 0 0.15107225931663029 -0.5 0 0.15107225931663029 -0.5 0 0.16858223513247689 -0.48546767615672098 0 0.17872023109320281 -0.5 0 0.1534830993042213 -0.48179182718519881 0 0.15107225931663029 -0.5 0 0.16858223513247689 -0.48546767615672098 0 0.1534830993042213 -0.48179182718519881 0 0.16858223513247689 -0.48546767615672098 0 0.1643068682771012 -0.47582101284537948 0 0.1561433680745882 -0.46754394247567388 0 0.1534830993042213 -0.48179182718519881 0 0.1643068682771012 -0.47582101284537948 0 0.16858223513247689 -0.48546767615672098 0 0.1643068682771012 -0.47582101284537948 0 0.17463658375914251 -0.47048719549552998 0 0.16858223513247689 -0.48546767615672098 0 0.17463658375914251 -0.47048719549552998 0 0.1842242097311072 -0.48024281914927758 0 0.18670759339650611 -0.46732136909016192 0 0.17463658375914251 -0.47048719549552998 0 0.1842242097311072 -0.48024281914927758 0 0.19665944497451049 -0.48657824546695089 0 0.1842242097311072 -0.48024281914927758 0 0.17872023109320281 -0.5 0 0.16858223513247689 -0.48546767615672098 0 0.1842242097311072 -0.48024281914927758 0 0.17872023109320281 -0.5 0 0.076863505038291285 -0.5000000000000272 0 0.063525541944137426 -0.4909774490221232 0 0.076602363251595113 -0.47880432253992222 0 0.063525541944137426 -0.4909774490221232 0 0.076602363251595113 -0.47880432253992222 0 0.049011318185575178 -0.48510547354854372 0 0.076863505038291285 -0.5000000000000272 0 0.063525541944137426 -0.4909774490221232 0 0.05162498130108617 -0.5 0 0.076863505038291285 -0.5000000000000272 0 0.076602363251595113 -0.47880432253992222 0 0.076602363251595113 -0.47880432253992222 0 0.049011318185575178 -0.48510547354854372 0 0.076602363251595113 -0.47880432253992222 0 0.088564245630065708 -0.48804711395327338 0 0.096478288881257465 -0.47426512482089822 0 0.076602363251595113 -0.47880432253992222 0 0.096478288881257465 -0.47426512482089822 0 0.076863505038291285 -0.5000000000000272 0 0.076602363251595113 -0.47880432253992222 0 0.088564245630065708 -0.48804711395327338 0 0.076863505038291285 -0.5000000000000272 0 0.088564245630065708 -0.48804711395327338 0 0.09577631576348522 -0.50000000000000089 0 0.09577631576348522 -0.50000000000000089 0 0.11589866653385281 -0.48918131415855848 0 0.09577631576348522 -0.50000000000000089 0 0.10204162515151841 -0.48650452113878212 0 0.11589866653385281 -0.48918131415855848 0 0.088564245630065708 -0.48804711395327338 0 0.09577631576348522 -0.50000000000000089 0 0.10204162515151841 -0.48650452113878212 0 0.09577631576348522 -0.50000000000000089 0 0.11589866653385281 -0.48918131415855848 0 0.1234242875400577 -0.5 0 0.12838372281035021 -0.48936960470635232 0 0.11589866653385281 -0.48918131415855848 0 0.1234242875400577 -0.5 0 0.13602101730422009 -0.47836262831711551 0 0.11589866653385281 -0.48918131415855848 0 0.1163542145109222 -0.46972592710188488 0 0.10204162515151841 -0.48650452113878212 0 0.11589866653385281 -0.48918131415855848 0 0.1163542145109222 -0.46972592710188488 0 0.10204162515151841 -0.48650452113878212 0 0.1163542145109222 -0.46972592710188488 0 0.096478288881257465 -0.47426512482089822 0 0.1163542145109222 -0.46972592710188488 0 0.096478288881257465 -0.47426512482089822 0 0.088564245630065708 -0.48804711395327338 0 0.10204162515151841 -0.48650452113878212 0 0.096478288881257465 -0.47426512482089822 0 0.1163542145109222 -0.46972592710188488 0 0.096478288881257465 -0.47426512482089822 0 0.1051590056059491 -0.45231405281677051 0 0.12631641679992839 -0.4523370251888581 0 0.1163542145109222 -0.46972592710188488 0 0.1051590056059491 -0.45231405281677051 0 0.12631641679992839 -0.4523370251888581 0 0.1051590056059491 -0.45231405281677051 0 0.117826144764139 -0.43250691168741212 0 0.1051590056059491 -0.45231405281677051 0 0.095313111812278528 -0.43550135262411099 0 0.117826144764139 -0.43250691168741212 0 0.1051590056059491 -0.45231405281677051 0 0.076275282419099727 -0.45225667608018649 0 0.095313111812278528 -0.43550135262411099 0 0.076275282419099727 -0.45225667608018649 0 0.075948201586602065 -0.42570902962045132 0 0.095313111812278528 -0.43550135262411099 0 0.076602363251595113 -0.47880432253992222 0 0.096478288881257465 -0.47426512482089822 0 0.076275282419099727 -0.45225667608018649 0 0.096478288881257465 -0.47426512482089822 0 0.1051590056059491 -0.45231405281677051 0 0.076275282419099727 -0.45225667608018649 0 0.076275282419099727 -0.45225667608018649 0 0.059068879854558873 -0.44727189934084449 0 0.060551371068239303 -0.47207880323510892 0 0.076602363251595113 -0.47880432253992222 0 0.076275282419099727 -0.45225667608018649 0 0.076602363251595113 -0.47880432253992222 0 0.076275282419099727 -0.45225667608018649 0 0.060551371068239303 -0.47207880323510892 0 0.076275282419099727 -0.45225667608018649 0 0.075948201586602065 -0.42570902962045132 0 0.059068879854558873 -0.44727189934084449 0 0.076275282419099727 -0.45225667608018649 0 0.075948201586602065 -0.42570902962045132 0 0.075948201586602065 -0.42570902962045132 0 0.055752302135903653 -0.42861104069970751 0 0.059068879854558873 -0.44727189934084449 0 0.075948201586602065 -0.42570902962045132 0 0.075621120754104376 -0.39916138316071592 0 0.075948201586602065 -0.42570902962045132 0 0.058851404526313753 -0.41041176462824852 0 0.055752302135903653 -0.42861104069970751 0 0.075948201586602065 -0.42570902962045132 0 0.075621120754104376 -0.39916138316071592 0 0.058851404526313753 -0.41041176462824852 0 0.075948201586602065 -0.42570902962045132 0 0.1013569246856028 -0.41472009291573492 0 0.075621120754104376 -0.39916138316071592 0 0.075948201586602065 -0.42570902962045132 0 0.095313111812278528 -0.43550135262411099 0 0.1013569246856028 -0.41472009291573492 0 0.095313111812278528 -0.43550135262411099 0 0.117826144764139 -0.43250691168741212 0 0.1013569246856028 -0.41472009291573492 0 0.117826144764139 -0.43250691168741212 0 0.12387681452055541 -0.41636652505165422 0 0.1013569246856028 -0.41472009291573492 0 0.12387681452055541 -0.41636652505165422 0 0.1013569246856028 -0.41472009291573492 0 0.1170467385926309 -0.40208567913311671 0 0.1013569246856028 -0.41472009291573492 0 0.098082319372188309 -0.39368337343193549 0 0.1170467385926309 -0.40208567913311671 0 0.098082319372188309 -0.39368337343193549 0 0.1170467385926309 -0.40208567913311671 0 0.1164187569499574 -0.38715045104000551 0 0.12980237072861961 -0.39074982306661488 0 0.1170467385926309 -0.40208567913311671 0 0.1164187569499574 -0.38715045104000551 0 0.1276170841357129 -0.37816195344217318 0 0.1164187569499574 -0.38715045104000551 0 0.1145965701523915 -0.37278566669197549 0 0.1276170841357129 -0.37816195344217318 0 0.12980237072861961 -0.39074982306661488 0 0.1164187569499574 -0.38715045104000551 0 0.1164187569499574 -0.38715045104000551 0 0.1145965701523915 -0.37278566669197549 0 0.094945305036997829 -0.37269970169653871 0 0.098082319372188309 -0.39368337343193549 0 0.1164187569499574 -0.38715045104000551 0 0.094945305036997829 -0.37269970169653871 0 0.085985696271224293 -0.38453954874754259 0 0.094945305036997829 -0.37269970169653871 0 0.075294039921604661 -0.37261373670098041 0 0.085985696271224293 -0.38453954874754259 0 0.075621120754104376 -0.39916138316071592 0 0.075294039921604661 -0.37261373670098041 0 0.098082319372188309 -0.39368337343193549 0 0.085985696271224293 -0.38453954874754259 0 0.094945305036997829 -0.37269970169653871 0 0.1013569246856028 -0.41472009291573492 0 0.098082319372188309 -0.39368337343193549 0 0.075621120754104376 -0.39916138316071592 0 0.098082319372188309 -0.39368337343193549 0 0.085985696271224293 -0.38453954874754259 0 0.075621120754104376 -0.39916138316071592 0 0.075621120754104376 -0.39916138316071592 0 0.059519437783538243 -0.38877242465303358 0 0.058851404526313753 -0.41041176462824852 0 0.075621120754104376 -0.39916138316071592 0 0.059519437783538243 -0.38877242465303358 0 0.075294039921604661 -0.37261373670098041 0 0.075621120754104376 -0.39916138316071592 0 0.075294039921604661 -0.37261373670098041 0 0.059519437783538243 -0.38877242465303358 0 0.075294039921604661 -0.37261373670098041 0 0.054855735139516901 -0.37252432877916841 0 0.059519437783538243 -0.38877242465303358 0 0.044182764363928477 -0.38456261285095877 0 0.054855735139516901 -0.37252432877916841 0 0.059519437783538243 -0.38877242465303358 0 0.044296505939948203 -0.39894270510113361 0 0.058851404526313753 -0.41041176462824852 0 0.059519437783538243 -0.38877242465303358 0 0.044296505939948203 -0.39894270510113361 0 0.044182764363928477 -0.38456261285095877 0 0.044296505939948203 -0.39894270510113361 0 0.044182764363928477 -0.38456261285095877 0 0.027824712599209281 -0.39013868486422348 0 0.031608173458146031 -0.40590387111443432 0 0.044296505939948203 -0.39894270510113361 0 0.027824712599209281 -0.39013868486422348 0 0.044182764363928477 -0.38456261285095877 0 0.054855735139516901 -0.37252432877916841 0 0.034417430357429737 -0.37243492085723512 0 0.044182764363928477 -0.38456261285095877 0 0.027824712599209281 -0.39013868486422348 0 0.034417430357429737 -0.37243492085723512 0 0.027824712599209281 -0.39013868486422348 0 0.01344107391546359 -0.37733410516826449 0 0.034417430357429737 -0.37243492085723512 0 0.027824712599209281 -0.39013868486422348 0 0.01344107391546359 -0.37733410516826449 0 0.0092612891580817983 -0.39124849293512559 0 -0.0067772076658356058 -0.36990237411869542 0 0.01344107391546359 -0.37733410516826449 0 0.00075797251546615531 -0.38237517200786991 0 0.01344107391546359 -0.37733410516826449 0 0.00075797251546615531 -0.38237517200786991 0 0.0092612891580817983 -0.39124849293512559 0 -0.0036743792100369151 -0.39310732864226139 0 0.00075797251546615531 -0.38237517200786991 0 0.0092612891580817983 -0.39124849293512559 0 -0.0036743792100369151 -0.39310732864226139 0 0.00023836058689544591 -0.40455715327592823 0 0.0092612891580817983 -0.39124849293512559 0 0.00023836058689544591 -0.40455715327592823 0 0.0092612891580817983 -0.39124849293512559 0 0.01499998029119568 -0.40512051615440092 0 0.031608173458146031 -0.40590387111443432 0 0.027824712599209281 -0.39013868486422348 0 0.01499998029119568 -0.40512051615440092 0 0.027824712599209281 -0.39013868486422348 0 0.0092612891580817983 -0.39124849293512559 0 0.01499998029119568 -0.40512051615440092 0 0.031608173458146031 -0.40590387111443432 0 0.01499998029119568 -0.40512051615440092 0 0.025272699777180239 -0.41728400239055741 0 0.01499998029119568 -0.40512051615440092 0 0.025272699777180239 -0.41728400239055741 0 0.0098855530659783582 -0.42263406498122003 0 0.00023836058689544591 -0.40455715327592823 0 0.01499998029119568 -0.40512051615440092 0 0.0098855530659783582 -0.42263406498122003 0 -0.0043419640350712179 -0.43578204779098217 0 0.0098855530659783582 -0.42263406498122003 0 0.017092950577533642 -0.44278769620395758 0 0.025272699777180239 -0.41728400239055741 0 0.0098855530659783582 -0.42263406498122003 0 0.028730036348681511 -0.43227293188706711 0 0.0098855530659783582 -0.42263406498122003 0 0.028730036348681511 -0.43227293188706711 0 0.017092950577533642 -0.44278769620395758 0 0.025272699777180239 -0.41728400239055741 0 0.028730036348681511 -0.43227293188706711 0 0.042543433668163572 -0.4187383249118487 0 0.028730036348681511 -0.43227293188706711 0 0.042543433668163572 -0.4187383249118487 0 0.042349591043880017 -0.44092418499714442 0 0.031608173458146031 -0.40590387111443432 0 0.044296505939948203 -0.39894270510113361 0 0.042543433668163572 -0.4187383249118487 0 0.031608173458146031 -0.40590387111443432 0 0.025272699777180239 -0.41728400239055741 0 0.042543433668163572 -0.4187383249118487 0 0.044296505939948203 -0.39894270510113361 0 0.042543433668163572 -0.4187383249118487 0 0.058851404526313753 -0.41041176462824852 0 0.042543433668163572 -0.4187383249118487 0 0.058851404526313753 -0.41041176462824852 0 0.055752302135903653 -0.42861104069970751 0 0.042543433668163572 -0.4187383249118487 0 0.055752302135903653 -0.42861104069970751 0 0.042349591043880017 -0.44092418499714442 0 0.059068879854558873 -0.44727189934084449 0 0.044109105584006131 -0.46151598178986852 0 0.042349591043880017 -0.44092418499714442 0 0.055752302135903653 -0.42861104069970751 0 0.059068879854558873 -0.44727189934084449 0 0.042349591043880017 -0.44092418499714442 0 0.059068879854558873 -0.44727189934084449 0 0.044109105584006131 -0.46151598178986852 0 0.060551371068239303 -0.47207880323510892 0 0.044109105584006131 -0.46151598178986852 0 0.032583033382470331 -0.46249342763299561 0 0.033946230781415128 -0.4724264814259046 0 0.044109105584006131 -0.46151598178986852 0 0.032583033382470331 -0.46249342763299561 0 0.030278922166909181 -0.45186572364673899 0 0.028730036348681511 -0.43227293188706711 0 0.042349591043880017 -0.44092418499714442 0 0.030278922166909181 -0.45186572364673899 0 0.044109105584006131 -0.46151598178986852 0 0.042349591043880017 -0.44092418499714442 0 0.030278922166909181 -0.45186572364673899 0 0.028730036348681511 -0.43227293188706711 0 0.030278922166909181 -0.45186572364673899 0 0.017092950577533642 -0.44278769620395758 0 0.030278922166909181 -0.45186572364673899 0 0.017092950577533642 -0.44278769620395758 0 0.02043872710117995 -0.45700295199561253 0 0.017092950577533642 -0.44278769620395758 0 0.0031868441554037852 -0.45433946608745762 0 0.02043872710117995 -0.45700295199561253 0 -0.0043419640350712179 -0.43578204779098217 0 0.017092950577533642 -0.44278769620395758 0 0.0031868441554037852 -0.45433946608745762 0 0.0031868441554037852 -0.45433946608745762 0 0.01176477214613972 -0.4644686470257684 0 0.02043872710117995 -0.45700295199561253 0 0.0021010566397200461 -0.46756239227329749 0 0.0031868441554037852 -0.45433946608745762 0 0.01176477214613972 -0.4644686470257684 0 0.01176477214613972 -0.4644686470257684 0 0.02043872710117995 -0.45700295199561253 0 0.023716879043573579 -0.46698971956201463 0 0.01176477214613972 -0.4644686470257684 0 0.023716879043573579 -0.46698971956201463 0 0.01591867147587667 -0.4720709072186754 0 0.032583033382470331 -0.46249342763299561 0 0.030278922166909181 -0.45186572364673899 0 0.02043872710117995 -0.45700295199561253 0 0.032583033382470331 -0.46249342763299561 0 0.02043872710117995 -0.45700295199561253 0 0.023716879043573579 -0.46698971956201463 0 0.032583033382470331 -0.46249342763299561 0 0.023716879043573579 -0.46698971956201463 0 0.033946230781415128 -0.4724264814259046 0 0.027540488289167751 -0.47959092676213932 0 0.023029201032023539 -0.4743971342622581 0 0.033946230781415128 -0.4724264814259046 0 0.023716879043573579 -0.46698971956201463 0 0.023029201032023539 -0.4743971342622581 0 0.033946230781415128 -0.4724264814259046 0 0.027540488289167751 -0.47959092676213932 0 0.016568572802498509 -0.48016219701767221 0 0.023029201032023539 -0.4743971342622581 0 0.027540488289167751 -0.47959092676213932 0 0.025276245437842411 -0.48385398796247792 0 0.016568572802498509 -0.48016219701767221 0 0.016568572802498509 -0.48016219701767221 0 0.023029201032023539 -0.4743971342622581 0 0.01591867147587667 -0.4720709072186754 0 0.023716879043573579 -0.46698971956201463 0 0.023029201032023539 -0.4743971342622581 0 0.01591867147587667 -0.4720709072186754 0 0.016568572802498509 -0.48016219701767221 0 0.01591867147587667 -0.4720709072186754 0 0.0069491287843030302 -0.47458936831486992 0 0.01176477214613972 -0.4644686470257684 0 0.01591867147587667 -0.4720709072186754 0 0.0069491287843030302 -0.47458936831486992 0 0.016568572802498509 -0.48016219701767221 0 0.0080389899805126657 -0.48275036947546518 0 0.0069491287843030302 -0.47458936831486992 0 -0.001243411789432144 -0.47807675656639181 0 0.0080389899805126657 -0.48275036947546518 0 0.001691648207849188 -0.4882926267913022 0 -0.001243411789432144 -0.47807675656639181 0 0.0080389899805126657 -0.48275036947546518 0 0.0069491287843030302 -0.47458936831486992 0 -0.001243411789432144 -0.47807675656639181 0 0.0021010566397200461 -0.46756239227329749 0 0.0069491287843030302 -0.47458936831486992 0 0.0021010566397200461 -0.46756239227329749 0 0.01176477214613972 -0.4644686470257684 0 0.0069491287843030302 -0.47458936831486992 0 -0.0061707719464598023 -0.49770777556580809 0 0.021420273119557721 -0.49140662455717582 0 -0.0097154785912969069 -0.49659757064225962 0 0.001691648207849188 -0.4882926267913022 0 0.015760147356135481 -0.4907534662374532 0 -0.0061707719464598023 -0.49770777556580809 0 0.021420273119557721 -0.49140662455717582 0 0.015760147356135481 -0.4907534662374532 0 -0.0097154785912969069 -0.49659757064225962 0 0.015760147356135481 -0.4907534662374532 0 -0.0061707719464598023 -0.49770777556580809 0 0.00114793382667621 -0.49999999999999989 0 0.021420273119557721 -0.49140662455717582 0 0.0080389899805126657 -0.48275036947546518 0 0.001691648207849188 -0.4882926267913022 0 0.015760147356135481 -0.4907534662374532 0 0.016568572802498509 -0.48016219701767221 0 0.0080389899805126657 -0.48275036947546518 0 0.015760147356135481 -0.4907534662374532 0 0.015760147356135481 -0.4907534662374532 0 0.041235773303567938 -0.48490936183264699 0 0.021420273119557721 -0.49140662455717582 0 0.015760147356135481 -0.4907534662374532 0 0.041235773303567938 -0.48490936183264699 0 0.025276245437842411 -0.48385398796247792 0 0.015760147356135481 -0.4907534662374532 0 0.041235773303567938 -0.48490936183264699 0 0.00114793382667621 -0.49999999999999989 0 0.026386457563881249 -0.5 0 0.021420273119557721 -0.49140662455717582 0 0.025276245437842411 -0.48385398796247792 0 0.016568572802498509 -0.48016219701767221 0 0.015760147356135481 -0.4907534662374532 0 0.026386457563881249 -0.5 0 0.021420273119557721 -0.49140662455717582 0 0.049011318185575178 -0.48510547354854372 0 0.021420273119557721 -0.49140662455717582 0 0.041235773303567938 -0.48490936183264699 0 0.049011318185575178 -0.48510547354854372 0 0.026386457563881249 -0.5 0 0.05162498130108617 -0.5 0 0.049011318185575178 -0.48510547354854372 0 0.021420273119557721 -0.49140662455717582 0 0.049011318185575178 -0.48510547354854372 0 0.027540488289167751 -0.47959092676213932 0 0.025276245437842411 -0.48385398796247792 0 0.041235773303567938 -0.48490936183264699 0 0.027540488289167751 -0.47959092676213932 0 0.041235773303567938 -0.48490936183264699 0 0.033946230781415128 -0.4724264814259046 0 0.044109105584006131 -0.46151598178986852 0 0.033946230781415128 -0.4724264814259046 0 0.045770759784560737 -0.47520722036641461 0 0.041235773303567938 -0.48490936183264699 0 0.045770759784560737 -0.47520722036641461 0 0.049011318185575178 -0.48510547354854372 0 0.041235773303567938 -0.48490936183264699 0 0.033946230781415128 -0.4724264814259046 0 0.045770759784560737 -0.47520722036641461 0 0.076602363251595113 -0.47880432253992222 0 0.060551371068239303 -0.47207880323510892 0 0.049011318185575178 -0.48510547354854372 0 0.045770759784560737 -0.47520722036641461 0 0.060551371068239303 -0.47207880323510892 0 0.049011318185575178 -0.48510547354854372 0 0.044109105584006131 -0.46151598178986852 0 0.045770759784560737 -0.47520722036641461 0 0.060551371068239303 -0.47207880323510892 0 0.063525541944137426 -0.4909774490221232 0 0.05162498130108617 -0.5 0 0.049011318185575178 -0.48510547354854372 0 0.089282800727915321 -0.28398325390393608 0 0.074471197896176178 -0.30582743492745718 0 0.095143986873736958 -0.29621252350960042 0 0.089282800727915321 -0.28398325390393608 0 0.074471197896176178 -0.30582743492745718 0 0.089282800727915321 -0.28398325390393608 0 0.074471197896176178 -0.30582743492745718 0 0.074175469235251534 -0.28182450000123771 0 0.088064920472815514 -0.30849308178977691 0 0.074471197896176178 -0.30582743492745718 0 0.095143986873736958 -0.29621252350960042 0 0.088064920472815514 -0.30849308178977691 0 0.074540998541040723 -0.31149283215745383 0 0.074471197896176178 -0.30582743492745718 0 0.074471197896176178 -0.30582743492745718 0 0.071768761165364237 -0.30981299393976203 0 0.065167962798880402 -0.29553101893330752 0 0.071768761165364237 -0.30981299393976203 0 0.065167962798880402 -0.29553101893330752 0 0.051219723187124047 -0.29736129711357362 0 0.074540998541040723 -0.31149283215745383 0 0.074471197896176178 -0.30582743492745718 0 0.074471197896176178 -0.30582743492745718 0 0.071768761165364237 -0.30981299393976203 0 0.074540998541040723 -0.31149283215745383 0 0.074471197896176178 -0.30582743492745718 0 0.071768761165364237 -0.30981299393976203 0 0.074540998541040723 -0.31149283215745383 0 0.071768761165364237 -0.30981299393976203 0 0.074175469235251534 -0.28182450000123771 0 0.065167962798880402 -0.29553101893330752 0 0.054204662510492413 -0.28282886868450691 0 0.074471197896176178 -0.30582743492745718 0 0.074175469235251534 -0.28182450000123771 0 0.065167962798880402 -0.29553101893330752 0 0.074471197896176178 -0.30582743492745718 0 0.074175469235251534 -0.28182450000123771 0 0.074175469235251534 -0.28182450000123771 0 0.073879740574333774 -0.25782156507501819 0 0.058954211922476032 -0.26766693945416897 0 0.074175469235251534 -0.28182450000123771 0 0.073879740574333774 -0.25782156507501819 0 0.074175469235251534 -0.28182450000123771 0 0.073879740574333774 -0.25782156507501819 0 0.086111555576077636 -0.26673751191116651 0 0.073879740574333774 -0.25782156507501819 0 0.058954211922476032 -0.26766693945416897 0 0.06353971008292858 -0.24694136108008011 0 0.073879740574333774 -0.25782156507501819 0 0.086111555576077636 -0.26673751191116651 0 0.089125363783243566 -0.24791916769523201 0 0.086111555576077636 -0.26673751191116651 0 0.1053357128879555 -0.26322819908352613 0 0.089125363783243566 -0.24791916769523201 0 0.089282800727915321 -0.28398325390393608 0 0.086111555576077636 -0.26673751191116651 0 0.1053357128879555 -0.26322819908352613 0 0.089282800727915321 -0.28398325390393608 0 0.074175469235251534 -0.28182450000123771 0 0.086111555576077636 -0.26673751191116651 0 0.089282800727915321 -0.28398325390393608 0 0.1053357128879555 -0.26322819908352613 0 0.089282800727915321 -0.28398325390393608 0 0.1020040465766008 -0.2782540687679157 0 0.1053357128879555 -0.26322819908352613 0 0.1020040465766008 -0.2782540687679157 0 0.1053357128879555 -0.26322819908352613 0 0.1096687131858948 -0.27582409224873528 0 0.1020040465766008 -0.2782540687679157 0 0.1096687131858948 -0.27582409224873528 0 0.10849866222445829 -0.28813727098128789 0 0.1053357128879555 -0.26322819908352613 0 0.11258481616026179 -0.24961739565754379 0 0.10216954282952841 -0.24283827424479509 0 0.1053357128879555 -0.26322819908352613 0 0.089125363783243566 -0.24791916769523201 0 0.10216954282952841 -0.24283827424479509 0 0.1053357128879555 -0.26322819908352613 0 0.089125363783243566 -0.24791916769523201 0 0.1053357128879555 -0.26322819908352613 0 0.11258481616026179 -0.24961739565754379 0 0.1053357128879555 -0.26322819908352613 0 0.1139865165490731 -0.26024487806584612 0 0.11258481616026179 -0.24961739565754379 0 0.1139865165490731 -0.26024487806584612 0 0.122950809996049 -0.25239340012073208 0 0.11258481616026179 -0.24961739565754379 0 0.1053357128879555 -0.26322819908352613 0 0.1139865165490731 -0.26024487806584612 0 0.1191781893840716 -0.26798022126357213 0 0.1139865165490731 -0.26024487806584612 0 0.1236937780082713 -0.26412796472653721 0 0.122950809996049 -0.25239340012073208 0 0.1139865165490731 -0.26024487806584612 0 0.1236937780082713 -0.26412796472653721 0 0.1191781893840716 -0.26798022126357213 0 0.12791450663934029 -0.28127740495678782 0 0.1053357128879555 -0.26322819908352613 0 0.1053357128879555 -0.26322819908352613 0 0.1224497833659107 -0.27957584667364271 0 0.12791450663934029 -0.28127740495678782 0 0.1053357128879555 -0.26322819908352613 0 0.1191781893840716 -0.26798022126357213 0 0.12791450663934029 -0.28127740495678782 0 0.1053357128879555 -0.26322819908352613 0 0.1224497833659107 -0.27957584667364271 0 0.1053357128879555 -0.26322819908352613 0 0.1096687131858948 -0.27582409224873528 0 0.1224497833659107 -0.27957584667364271 0 0.1096687131858948 -0.27582409224873528 0 0.1224497833659107 -0.27957584667364271 0 0.11446855566236511 -0.28285107773575668 0 0.12791450663934029 -0.28127740495678782 0 0.1191781893840716 -0.26798022126357213 0 0.1249604328357178 -0.27102265948516302 0 0.1236937780082713 -0.26412796472653721 0 0.1191781893840716 -0.26798022126357213 0 0.1249604328357178 -0.27102265948516302 0 0.1224497833659107 -0.27957584667364271 0 0.11725706387319659 -0.28786710103936108 0 0.11446855566236511 -0.28285107773575668 0 0.1224497833659107 -0.27957584667364271 0 0.11725706387319659 -0.28786710103936108 0 0.1246412914786356 -0.29411537878178168 0 0.11725706387319659 -0.28786710103936108 0 0.1246412914786356 -0.29411537878178168 0 0.1154840005258813 -0.29632875177336598 0 0.1154840005258813 -0.29632875177336598 0 0.10849866222445829 -0.28813727098128789 0 0.1066281490245507 -0.29989017312126759 0 0.11725706387319659 -0.28786710103936108 0 0.1154840005258813 -0.29632875177336598 0 0.10849866222445829 -0.28813727098128789 0 0.11725706387319659 -0.28786710103936108 0 0.11446855566236511 -0.28285107773575668 0 0.10849866222445829 -0.28813727098128789 0 0.1096687131858948 -0.27582409224873528 0 0.11446855566236511 -0.28285107773575668 0 0.10849866222445829 -0.28813727098128789 0 0.1020040465766008 -0.2782540687679157 0 0.10849866222445829 -0.28813727098128789 0 0.095143986873736958 -0.29621252350960042 0 0.089282800727915321 -0.28398325390393608 0 0.1020040465766008 -0.2782540687679157 0 0.095143986873736958 -0.29621252350960042 0 0.10849866222445829 -0.28813727098128789 0 0.095143986873736958 -0.29621252350960042 0 0.1066281490245507 -0.29989017312126759 0 0.088064920472815514 -0.30849308178977691 0 0.098930858003293001 -0.30561483323554028 0 0.097554260737118176 -0.314298341047136 0 0.098930858003293001 -0.30561483323554028 0 0.106742461238334 -0.31015795904200472 0 0.097554260737118176 -0.314298341047136 0 0.088064920472815514 -0.30849308178977691 0 0.095143986873736958 -0.29621252350960042 0 0.098930858003293001 -0.30561483323554028 0 0.095143986873736958 -0.29621252350960042 0 0.098930858003293001 -0.30561483323554028 0 0.1066281490245507 -0.29989017312126759 0 0.098930858003293001 -0.30561483323554028 0 0.1066281490245507 -0.29989017312126759 0 0.106742461238334 -0.31015795904200472 0 0.1066281490245507 -0.29989017312126759 0 0.106742461238334 -0.31015795904200472 0 0.11423801088809681 -0.30549257256264339 0 0.106742461238334 -0.31015795904200472 0 0.11423801088809681 -0.30549257256264339 0 0.1145518917314788 -0.31461482995023882 0 0.11423801088809681 -0.30549257256264339 0 0.1202051800888963 -0.30957617026590889 0 0.1145518917314788 -0.31461482995023882 0 0.1154840005258813 -0.29632875177336598 0 0.1066281490245507 -0.29989017312126759 0 0.11423801088809681 -0.30549257256264339 0 0.1246412914786356 -0.29411537878178168 0 0.1154840005258813 -0.29632875177336598 0 0.122259089804518 -0.30262204367803403 0 0.1154840005258813 -0.29632875177336598 0 0.11423801088809681 -0.30549257256264339 0 0.122259089804518 -0.30262204367803403 0 0.12844577558116871 -0.30988530195065322 0 0.1202051800888963 -0.30957617026590889 0 0.12373562356947609 -0.31678119362931417 0 0.12844577558116871 -0.30988530195065322 0 0.122259089804518 -0.30262204367803403 0 0.1202051800888963 -0.30957617026590889 0 0.11423801088809681 -0.30549257256264339 0 0.122259089804518 -0.30262204367803403 0 0.1202051800888963 -0.30957617026590889 0 0.12373562356947609 -0.31678119362931417 0 0.1145518917314788 -0.31461482995023882 0 0.11909521947066599 -0.32304098036854573 0 0.1202051800888963 -0.30957617026590889 0 0.12373562356947609 -0.31678119362931417 0 0.1145518917314788 -0.31461482995023882 0 0.1145518917314788 -0.31461482995023882 0 0.1123647887630814 -0.3242678263062877 0 0.10528533215447559 -0.31971842499259961 0 0.1123647887630814 -0.3242678263062877 0 0.11909521947066599 -0.32304098036854573 0 0.1189838061657293 -0.33196696644828239 0 0.1145518917314788 -0.31461482995023882 0 0.1123647887630814 -0.3242678263062877 0 0.11909521947066599 -0.32304098036854573 0 0.12537450164912489 -0.32583360346286522 0 0.12373562356947609 -0.31678119362931417 0 0.11909521947066599 -0.32304098036854573 0 0.12537450164912489 -0.32583360346286522 0 0.11909521947066599 -0.32304098036854573 0 0.1189838061657293 -0.33196696644828239 0 0.11765066781140041 -0.34248335896303639 0 0.10879035219983681 -0.33224624011277137 0 0.1020242216040001 -0.33924757462661309 0 0.13150140011442771 -0.33605452762183557 0 0.1189838061657293 -0.33196696644828239 0 0.11765066781140041 -0.34248335896303639 0 0.1189838061657293 -0.33196696644828239 0 0.11765066781140041 -0.34248335896303639 0 0.10879035219983681 -0.33224624011277137 0 0.1123647887630814 -0.3242678263062877 0 0.1189838061657293 -0.33196696644828239 0 0.10879035219983681 -0.33224624011277137 0 0.10879035219983681 -0.33224624011277137 0 0.1020242216040001 -0.33924757462661309 0 0.098626487137509197 -0.33012317827891718 0 0.1020242216040001 -0.33924757462661309 0 0.098626487137509197 -0.33012317827891718 0 0.091872309357222265 -0.34310736417052962 0 0.10879035219983681 -0.33224624011277137 0 0.10528533215447559 -0.31971842499259961 0 0.091665675370444122 -0.32186953613510372 0 0.10879035219983681 -0.33224624011277137 0 0.091665675370444122 -0.32186953613510372 0 0.10879035219983681 -0.33224624011277137 0 0.098626487137509197 -0.33012317827891718 0 0.091665675370444122 -0.32186953613510372 0 0.097554260737118176 -0.314298341047136 0 0.10528533215447559 -0.31971842499259961 0 0.091665675370444122 -0.32186953613510372 0 0.106742461238334 -0.31015795904200472 0 0.1145518917314788 -0.31461482995023882 0 0.10528533215447559 -0.31971842499259961 0 0.106742461238334 -0.31015795904200472 0 0.097554260737118176 -0.314298341047136 0 0.10528533215447559 -0.31971842499259961 0 0.1123647887630814 -0.3242678263062877 0 0.10879035219983681 -0.33224624011277137 0 0.10528533215447559 -0.31971842499259961 0 0.1276170841357129 -0.37816195344217318 0 0.1145965701523915 -0.37278566669197549 0 0.1248201907380299 -0.36363684837108118 0 0.1145965701523915 -0.37278566669197549 0 0.1248201907380299 -0.36363684837108118 0 0.1122669141511794 -0.35839500138129748 0 0.1145965701523915 -0.37278566669197549 0 0.1122669141511794 -0.35839500138129748 0 0.1018810760226955 -0.3619228680590123 0 0.11765066781140041 -0.34248335896303639 0 0.1248201907380299 -0.36363684837108118 0 0.1122669141511794 -0.35839500138129748 0 0.11765066781140041 -0.34248335896303639 0 0.1122669141511794 -0.35839500138129748 0 0.1019874270423143 -0.35016861698856849 0 0.11765066781140041 -0.34248335896303639 0 0.1020242216040001 -0.33924757462661309 0 0.1019874270423143 -0.35016861698856849 0 0.1019874270423143 -0.35016861698856849 0 0.089936697381043818 -0.35768445098932039 0 0.091872309357222265 -0.34310736417052962 0 0.1020242216040001 -0.33924757462661309 0 0.1019874270423143 -0.35016861698856849 0 0.091872309357222265 -0.34310736417052962 0 0.1019874270423143 -0.35016861698856849 0 0.1018810760226955 -0.3619228680590123 0 0.089936697381043818 -0.35768445098932039 0 0.1122669141511794 -0.35839500138129748 0 0.1019874270423143 -0.35016861698856849 0 0.1018810760226955 -0.3619228680590123 0 0.1145965701523915 -0.37278566669197549 0 0.1018810760226955 -0.3619228680590123 0 0.094945305036997829 -0.37269970169653871 0 0.1145965701523915 -0.37278566669197549 0 0.094945305036997829 -0.37269970169653871 0 0.1018810760226955 -0.3619228680590123 0 0.094945305036997829 -0.37269970169653871 0 0.089936697381043818 -0.35768445098932039 0 0.094945305036997829 -0.37269970169653871 0 0.089936697381043818 -0.35768445098932039 0 0.075294039921604661 -0.37261373670098041 0 0.094945305036997829 -0.37269970169653871 0 0.075294039921604661 -0.37261373670098041 0 0.089936697381043818 -0.35768445098932039 0 0.074980122896238788 -0.34713453590672932 0 0.075294039921604661 -0.37261373670098041 0 0.089936697381043818 -0.35768445098932039 0 0.074980122896238788 -0.34713453590672932 0 0.091872309357222265 -0.34310736417052962 0 0.074980122896238788 -0.34713453590672932 0 0.056685261065341011 -0.36272968062753203 0 0.061224838342003957 -0.34806407001790951 0 0.074980122896238788 -0.34713453590672932 0 0.062245516844513613 -0.33973167479916988 0 0.061224838342003957 -0.34806407001790951 0 0.075294039921604661 -0.37261373670098041 0 0.054855735139516901 -0.37252432877916841 0 0.074980122896238788 -0.34713453590672932 0 0.075294039921604661 -0.37261373670098041 0 0.056685261065341011 -0.36272968062753203 0 0.074980122896238788 -0.34713453590672932 0 0.075294039921604661 -0.37261373670098041 0 0.074540998541040723 -0.31149283215745383 0 0.091665675370444122 -0.32186953613510372 0 0.074666205870844465 -0.32165533511247868 0 0.098626487137509197 -0.33012317827891718 0 0.074666205870844465 -0.32165533511247868 0 0.098626487137509197 -0.33012317827891718 0 0.091665675370444122 -0.32186953613510372 0 0.074666205870844465 -0.32165533511247868 0 0.088064920472815514 -0.30849308178977691 0 0.074540998541040723 -0.31149283215745383 0 0.091665675370444122 -0.32186953613510372 0 0.074540998541040723 -0.31149283215745383 0 0.091665675370444122 -0.32186953613510372 0 0.088064920472815514 -0.30849308178977691 0 0.097554260737118176 -0.314298341047136 0 0.091665675370444122 -0.32186953613510372 0 0.098626487137509197 -0.33012317827891718 0 0.083678900082227517 -0.33428582823302883 0 0.074666205870844465 -0.32165533511247868 0 0.098626487137509197 -0.33012317827891718 0 0.091872309357222265 -0.34310736417052962 0 0.083678900082227517 -0.33428582823302883 0 0.074980122896238788 -0.34713453590672932 0 0.091872309357222265 -0.34310736417052962 0 0.083678900082227517 -0.33428582823302883 0 0.074980122896238788 -0.34713453590672932 0 0.083678900082227517 -0.33428582823302883 0 0.074666205870844465 -0.32165533511247868 0 0.074980122896238788 -0.34713453590672932 0 0.074666205870844465 -0.32165533511247868 0 0.074980122896238788 -0.34713453590672932 0 0.067919336930941765 -0.3308994160386951 0 0.062245516844513613 -0.33973167479916988 0 0.074980122896238788 -0.34713453590672932 0 0.067919336930941765 -0.3308994160386951 0 0.074666205870844465 -0.32165533511247868 0 0.067919336930941765 -0.3308994160386951 0 0.058984177278542889 -0.32866772343169037 0 0.062245516844513613 -0.33973167479916988 0 0.067919336930941765 -0.3308994160386951 0 0.06585131797746091 -0.31854005080602521 0 0.058984177278542889 -0.32866772343169037 0 0.067919336930941765 -0.3308994160386951 0 0.074666205870844465 -0.32165533511247868 0 0.06585131797746091 -0.31854005080602521 0 0.074540998541040723 -0.31149283215745383 0 0.074666205870844465 -0.32165533511247868 0 0.074666205870844465 -0.32165533511247868 0 0.071546803774496626 -0.31629040218770138 0 0.06585131797746091 -0.31854005080602521 0 0.074540998541040723 -0.31149283215745383 0 0.074666205870844465 -0.32165533511247868 0 0.071546803774496626 -0.31629040218770138 0 0.074540998541040723 -0.31149283215745383 0 0.071768761165364237 -0.30981299393976203 0 0.071546803774496626 -0.31629040218770138 0 0.071768761165364237 -0.30981299393976203 0 0.071546803774496626 -0.31629040218770138 0 0.06585131797746091 -0.31854005080602521 0 0.071768761165364237 -0.30981299393976203 0 0.06585131797746091 -0.31854005080602521 0 0.059314715853899982 -0.30952340738401979 0 0.071768761165364237 -0.30981299393976203 0 0.06585131797746091 -0.31854005080602521 0 0.074666205870844465 -0.32165533511247868 0 0.06585131797746091 -0.31854005080602521 0 0.06585131797746091 -0.31854005080602521 0 0.050000527604054497 -0.32292413279372378 0 0.048419061085650417 -0.31237928767671819 0 0.06585131797746091 -0.31854005080602521 0 0.048419061085650417 -0.31237928767671819 0 0.06585131797746091 -0.31854005080602521 0 0.059314715853899982 -0.30952340738401979 0 0.048419061085650417 -0.31237928767671819 0 0.06585131797746091 -0.31854005080602521 0 0.050000527604054497 -0.32292413279372378 0 0.058984177278542889 -0.32866772343169037 0 0.06585131797746091 -0.31854005080602521 0 0.058984177278542889 -0.32866772343169037 0 0.050000527604054497 -0.32292413279372378 0 0.058984177278542889 -0.32866772343169037 0 0.048119108774840623 -0.34389262860082498 0 0.058984177278542889 -0.32866772343169037 0 0.062245516844513613 -0.33973167479916988 0 0.048119108774840623 -0.34389262860082498 0 0.039552956484340207 -0.32505557657411799 0 0.048119108774840623 -0.34389262860082498 0 0.027716551589642549 -0.34163332715623113 0 0.050000527604054497 -0.32292413279372378 0 0.039552956484340207 -0.32505557657411799 0 0.048119108774840623 -0.34389262860082498 0 0.039552956484340207 -0.32505557657411799 0 0.048119108774840623 -0.34389262860082498 0 0.039552956484340207 -0.32505557657411799 0 0.030986804193839961 -0.30621852454741089 0 0.039552956484340207 -0.32505557657411799 0 0.030986804193839961 -0.30621852454741089 0 0.048419061085650417 -0.31237928767671819 0 0.039552956484340207 -0.32505557657411799 0 0.02473762862877717 -0.32037798517154448 0 0.030986804193839961 -0.30621852454741089 0 0.050000527604054497 -0.32292413279372378 0 0.039552956484340207 -0.32505557657411799 0 0.048419061085650417 -0.31237928767671819 0 0.075294039921604661 -0.37261373670098041 0 0.054855735139516901 -0.37252432877916841 0 0.056685261065341011 -0.36272968062753203 0 0.054855735139516901 -0.37252432877916841 0 0.056685261065341011 -0.36272968062753203 0 0.047454115232350602 -0.36607360147391971 0 0.056685261065341011 -0.36272968062753203 0 0.047454115232350602 -0.36607360147391971 0 0.041493483459436743 -0.35827188827202883 0 0.056685261065341011 -0.36272968062753203 0 0.061224838342003957 -0.34806407001790951 0 0.048119108774840623 -0.34389262860082498 0 0.056685261065341011 -0.36272968062753203 0 0.048119108774840623 -0.34389262860082498 0 0.041493483459436743 -0.35827188827202883 0 0.056685261065341011 -0.36272968062753203 0 0.048119108774840623 -0.34389262860082498 0 0.062245516844513613 -0.33973167479916988 0 0.061224838342003957 -0.34806407001790951 0 0.048119108774840623 -0.34389262860082498 0 0.048119108774840623 -0.34389262860082498 0 0.041493483459436743 -0.35827188827202883 0 0.027716551589642549 -0.34163332715623113 0 0.041493483459436743 -0.35827188827202883 0 0.034417430357429737 -0.37243492085723512 0 0.021082921273227001 -0.36269765762046702 0 0.054855735139516901 -0.37252432877916841 0 0.034417430357429737 -0.37243492085723512 0 0.054855735139516901 -0.37252432877916841 0 0.047454115232350602 -0.36607360147391971 0 0.034417430357429737 -0.37243492085723512 0 0.047454115232350602 -0.36607360147391971 0 0.041493483459436743 -0.35827188827202883 0 0.034417430357429737 -0.37243492085723512 0 0.01344107391546359 -0.37733410516826449 0 0.034417430357429737 -0.37243492085723512 0 0.021082921273227001 -0.36269765762046702 0 0.021082921273227001 -0.36269765762046702 0 0.010832911374833431 -0.34975313271834613 0 0.027716551589642549 -0.34163332715623113 0 0.041493483459436743 -0.35827188827202883 0 0.021082921273227001 -0.36269765762046702 0 0.027716551589642549 -0.34163332715623113 0 -0.0077462043469716524 -0.35128538252732211 0 0.010832911374833431 -0.34975313271834613 0 0.0081968511320427359 -0.33138442113628902 0 -0.0067772076658356058 -0.36990237411869542 0 0.01344107391546359 -0.37733410516826449 0 0.021082921273227001 -0.36269765762046702 0 -0.0067772076658356058 -0.36990237411869542 0 0.021082921273227001 -0.36269765762046702 0 0.010832911374833431 -0.34975313271834613 0 -0.0067772076658356058 -0.36990237411869542 0 0.010832911374833431 -0.34975313271834613 0 0.02473762862877717 -0.32037798517154448 0 0.0050813500114497926 -0.31072192134635379 0 0.018648248480839739 -0.30936460464561921 0 0.02473762862877717 -0.32037798517154448 0 0.027716551589642549 -0.34163332715623113 0 0.0081968511320427359 -0.33138442113628902 0 0.039552956484340207 -0.32505557657411799 0 0.02473762862877717 -0.32037798517154448 0 0.027716551589642549 -0.34163332715623113 0 0.010832911374833431 -0.34975313271834613 0 0.027716551589642549 -0.34163332715623113 0 0.0081968511320427359 -0.33138442113628902 0 -0.01057433678700309 -0.32921904890168052 0 0.0081968511320427359 -0.33138442113628902 0 0.0050813500114497926 -0.31072192134635379 0 0.02473762862877717 -0.32037798517154448 0 0.0050813500114497926 -0.31072192134635379 0 0.02473762862877717 -0.32037798517154448 0 0.0081968511320427359 -0.33138442113628902 0 0.0050813500114497926 -0.31072192134635379 0 -0.0034123820152559409 -0.29406145048692378 0 0.0050813500114497926 -0.31072192134635379 0 0.013787211089292021 -0.30013998751716742 0 -0.0034123820152559409 -0.29406145048692378 0 0.013787211089292021 -0.30013998751716742 0 0.0050813500114497926 -0.31072192134635379 0 0.013787211089292021 -0.30013998751716742 0 0.018648248480839739 -0.30936460464561921 0 -0.0034123820152559409 -0.29406145048692378 0 0.013787211089292021 -0.30013998751716742 0 0.0093977306250921447 -0.28881489018637552 0 0.0005044884639468436 -0.28428256264433588 0 0.0093977306250921447 -0.28881489018637552 0 0.0066867488031422074 -0.27900332548264861 0 -0.0034123820152559409 -0.29406145048692378 0 0.0005044884639468436 -0.28428256264433588 0 0.0093977306250921447 -0.28881489018637552 0 0.013787211089292021 -0.30013998751716742 0 0.0093977306250921447 -0.28881489018637552 0 0.0179229784341596 -0.29415244242339728 0 0.0093977306250921447 -0.28881489018637552 0 0.015353375909059211 -0.28565112352167887 0 0.0179229784341596 -0.29415244242339728 0 0.0093977306250921447 -0.28881489018637552 0 0.011660142520958681 -0.28137015988183439 0 0.0066867488031422074 -0.27900332548264861 0 0.0093977306250921447 -0.28881489018637552 0 0.015353375909059211 -0.28565112352167887 0 0.011660142520958681 -0.28137015988183439 0 0.023240762565370179 -0.28918490382619949 0 0.0179229784341596 -0.29415244242339728 0 0.030986804193839961 -0.30621852454741089 0 0.023240762565370179 -0.28918490382619949 0 0.030810482961118799 -0.29453884135447739 0 0.030986804193839961 -0.30621852454741089 0 0.023240762565370179 -0.28918490382619949 0 0.030670685208883799 -0.28490960028738532 0 0.015494720936900861 -0.27215128310498782 0 0.015353375909059211 -0.28565112352167887 0 0.023240762565370179 -0.28918490382619949 0 0.01454526539971546 -0.27473322129058808 0 0.015353375909059211 -0.28565112352167887 0 0.023240762565370179 -0.28918490382619949 0 0.0179229784341596 -0.29415244242339728 0 0.023240762565370179 -0.28918490382619949 0 0.030810482961118799 -0.29453884135447739 0 0.030670685208883799 -0.28490960028738532 0 0.013787211089292021 -0.30013998751716742 0 0.030986804193839961 -0.30621852454741089 0 0.013787211089292021 -0.30013998751716742 0 0.0179229784341596 -0.29415244242339728 0 0.030986804193839961 -0.30621852454741089 0 0.013787211089292021 -0.30013998751716742 0 0.018648248480839739 -0.30936460464561921 0 0.030986804193839961 -0.30621852454741089 0 0.023240762565370179 -0.28918490382619949 0 0.030986804193839961 -0.30621852454741089 0 0.02473762862877717 -0.32037798517154448 0 0.018648248480839739 -0.30936460464561921 0 0.030986804193839961 -0.30621852454741089 0 0.030986804193839961 -0.30621852454741089 0 0.038343679876381258 -0.29784233675691402 0 0.048419061085650417 -0.31237928767671819 0 0.030986804193839961 -0.30621852454741089 0 0.048419061085650417 -0.31237928767671819 0 0.038343679876381258 -0.29784233675691402 0 0.048419061085650417 -0.31237928767671819 0 0.051219723187124047 -0.29736129711357362 0 0.030810482961118799 -0.29453884135447739 0 0.030986804193839961 -0.30621852454741089 0 0.038343679876381258 -0.29784233675691402 0 0.030670685208883799 -0.28490960028738532 0 0.038343679876381258 -0.29784233675691402 0 0.051219723187124047 -0.29736129711357362 0 0.030670685208883799 -0.28490960028738532 0 0.051219723187124047 -0.29736129711357362 0 0.039574727112442858 -0.28000612433212541 0 0.030670685208883799 -0.28490960028738532 0 0.051219723187124047 -0.29736129711357362 0 0.030810482961118799 -0.29453884135447739 0 0.030670685208883799 -0.28490960028738532 0 0.038343679876381258 -0.29784233675691402 0 0.054204662510492413 -0.28282886868450691 0 0.051219723187124047 -0.29736129711357362 0 0.039574727112442858 -0.28000612433212541 0 0.065167962798880402 -0.29553101893330752 0 0.054204662510492413 -0.28282886868450691 0 0.051219723187124047 -0.29736129711357362 0 0.071768761165364237 -0.30981299393976203 0 0.059314715853899982 -0.30952340738401979 0 0.051219723187124047 -0.29736129711357362 0 0.071768761165364237 -0.30981299393976203 0 0.051219723187124047 -0.29736129711357362 0 0.059314715853899982 -0.30952340738401979 0 0.048419061085650417 -0.31237928767671819 0 0.051219723187124047 -0.29736129711357362 0 0.047813738821929658 -0.25677683227199732 0 0.058954211922476032 -0.26766693945416897 0 0.06353971008292858 -0.24694136108008011 0 0.047813738821929658 -0.25677683227199732 0 0.058954211922476032 -0.26766693945416897 0 0.047572659049752053 -0.2700808664820647 0 0.074175469235251534 -0.28182450000123771 0 0.054204662510492413 -0.28282886868450691 0 0.058954211922476032 -0.26766693945416897 0 0.054204662510492413 -0.28282886868450691 0 0.047572659049752053 -0.2700808664820647 0 0.039574727112442858 -0.28000612433212541 0 0.054204662510492413 -0.28282886868450691 0 0.058954211922476032 -0.26766693945416897 0 0.047572659049752053 -0.2700808664820647 0 0.039574727112442858 -0.28000612433212541 0 0.03731595488141929 -0.26312556766752482 0 0.02064183812321085 -0.25815427335718782 0 0.047572659049752053 -0.2700808664820647 0 0.039574727112442858 -0.28000612433212541 0 0.03731595488141929 -0.26312556766752482 0 0.047813738821929658 -0.25677683227199732 0 0.047572659049752053 -0.2700808664820647 0 0.03731595488141929 -0.26312556766752482 0 0.047813738821929658 -0.25677683227199732 0 0.03731595488141929 -0.26312556766752482 0 0.035768680097194347 -0.25045790292748088 0 0.03731595488141929 -0.26312556766752482 0 0.035768680097194347 -0.25045790292748088 0 0.02064183812321085 -0.25815427335718782 0 0.02064183812321085 -0.25815427335718782 0 0.015494720936900861 -0.27215128310498782 0 0.023240762565370179 -0.28918490382619949 0 0.01454526539971546 -0.27473322129058808 0 0.015494720936900861 -0.27215128310498782 0 0.039574727112442858 -0.28000612433212541 0 0.02064183812321085 -0.25815427335718782 0 0.030670685208883799 -0.28490960028738532 0 0.039574727112442858 -0.28000612433212541 0 0.015494720936900861 -0.27215128310498782 0 0.039574727112442858 -0.28000612433212541 0 0.02064183812321085 -0.25815427335718782 0 0.015494720936900861 -0.27215128310498782 0 0.023240762565370179 -0.28918490382619949 0 0.015494720936900861 -0.27215128310498782 0 0.010659661302004979 -0.27712448631473158 0 0.0073487086021330411 -0.27097751715627239 0 0.0066867488031422074 -0.27900332548264861 0 0.015353375909059211 -0.28565112352167887 0 0.011660142520958681 -0.28137015988183439 0 0.01454526539971546 -0.27473322129058808 0 0.011660142520958681 -0.28137015988183439 0 0.010659661302004979 -0.27712448631473158 0 0.0066867488031422074 -0.27900332548264861 0 0.011660142520958681 -0.28137015988183439 0 0.01454526539971546 -0.27473322129058808 0 0.010659661302004979 -0.27712448631473158 0 0.01454526539971546 -0.27473322129058808 0 0.015494720936900861 -0.27215128310498782 0 0.01454526539971546 -0.27473322129058808 0 0.010659661302004979 -0.27712448631473158 0 0.0073487086021330411 -0.27097751715627239 0 0.01454526539971546 -0.27473322129058808 0 0.015494720936900861 -0.27215128310498782 0 0.0073487086021330411 -0.27097751715627239 0 -0.00066879478938417663 -0.27607701057605472 0 -0.0014412548413753219 -0.26637053980784359 0 0.0073487086021330411 -0.27097751715627239 0 -0.00066879478938417663 -0.27607701057605472 0 0.0073487086021330411 -0.27097751715627239 0 0.0066867488031422074 -0.27900332548264861 0 -0.00066879478938417663 -0.27607701057605472 0 0.0005044884639468436 -0.28428256264433588 0 0.0066867488031422074 -0.27900332548264861 0 0.02064183812321085 -0.25815427335718782 0 0.015494720936900861 -0.27215128310498782 0 0.0059536600781536506 -0.25117039767460608 0 -0.0014412548413753219 -0.26637053980784359 0 0.0073487086021330411 -0.27097751715627239 0 0.0059536600781536506 -0.25117039767460608 0 0.015494720936900861 -0.27215128310498782 0 0.0073487086021330411 -0.27097751715627239 0 0.0059536600781536506 -0.25117039767460608 0 0.015494720936900861 -0.27215128310498782 0 0.0059536600781536506 -0.25117039767460608 0 0.02064183812321085 -0.25815427335718782 0 0.0085272186713099413 -0.2441718928007052 0 0.02064183812321085 -0.25815427335718782 0 0.0059536600781536506 -0.25117039767460608 0 0.0085272186713099413 -0.2441718928007052 0 -0.00358740078059251 -0.2301895122442239 0 0.0059536600781536506 -0.25117039767460608 0 0.0085272186713099413 -0.2441718928007052 0 -0.00358740078059251 -0.2301895122442239 0 0.0059536600781536506 -0.25117039767460608 0 -0.00358740078059251 -0.2301895122442239 0 0.0085272186713099413 -0.2441718928007052 0 -0.00358740078059251 -0.2301895122442239 0 0.0085272186713099413 -0.2441718928007052 0 0.01238423573823769 -0.22709816842259381 0 -0.00358740078059251 -0.2301895122442239 0 0.0035297938300472001 -0.21986774507615159 0 0.01238423573823769 -0.22709816842259381 0 0.0035297938300472001 -0.21986774507615159 0 0.01238423573823769 -0.22709816842259381 0 0.010429461154378931 -0.21178399523623981 0 0.01238423573823769 -0.22709816842259381 0 0.010429461154378931 -0.21178399523623981 0 0.024018968430179592 -0.21850884767214099 0 0.029058701774303659 -0.23526555365140231 0 0.024018968430179592 -0.21850884767214099 0 0.037475565425397067 -0.21237683394561699 0 0.01238423573823769 -0.22709816842259381 0 0.029058701774303659 -0.23526555365140231 0 0.024018968430179592 -0.21850884767214099 0 0.02064183812321085 -0.25815427335718782 0 0.029058701774303659 -0.23526555365140231 0 0.0085272186713099413 -0.2441718928007052 0 0.01238423573823769 -0.22709816842259381 0 0.029058701774303659 -0.23526555365140231 0 0.02064183812321085 -0.25815427335718782 0 0.0085272186713099413 -0.2441718928007052 0 0.029058701774303659 -0.23526555365140231 0 0.035768680097194347 -0.25045790292748088 0 0.02064183812321085 -0.25815427335718782 0 0.029058701774303659 -0.23526555365140231 0 -0.001394300706792132 -0.19959582481195021 0 0.015882690115080599 -0.1999314613024277 0 0.0088310485035662332 -0.18499497339519749 0 -0.001394300706792132 -0.19959582481195021 0 0.010429461154378931 -0.21178399523623981 0 0.015882690115080599 -0.1999314613024277 0 -0.0015516111982930129 -0.21027501658404171 0 -0.001394300706792132 -0.19959582481195021 0 0.010429461154378931 -0.21178399523623981 0 -0.0015516111982930129 -0.21027501658404171 0 0.0035297938300472001 -0.21986774507615159 0 0.010429461154378931 -0.21178399523623981 0 0.010429461154378931 -0.21178399523623981 0 0.024018968430179592 -0.21850884767214099 0 0.020618589153898251 -0.20783845861769071 0 0.024018968430179592 -0.21850884767214099 0 0.028243381550459742 -0.20974782789634469 0 0.037475565425397067 -0.21237683394561699 0 0.024018968430179592 -0.21850884767214099 0 0.028243381550459742 -0.20974782789634469 0 0.020618589153898251 -0.20783845861769071 0 0.028243381550459742 -0.20974782789634469 0 0.02714694274836725 -0.20215338642260761 0 0.032394899571496903 -0.2056058586153304 0 0.028243381550459742 -0.20974782789634469 0 0.020618589153898251 -0.20783845861769071 0 0.02714694274836725 -0.20215338642260761 0 0.020618589153898251 -0.20783845861769071 0 0.015882690115080599 -0.1999314613024277 0 0.02714694274836725 -0.20215338642260761 0 0.010429461154378931 -0.21178399523623981 0 0.020618589153898251 -0.20783845861769071 0 0.015882690115080599 -0.1999314613024277 0 0.024531243648390849 -0.19433408654789189 0 0.034081828313176632 -0.18644522542247419 0 0.0088310485035662332 -0.18499497339519749 0 0.015882690115080599 -0.1999314613024277 0 0.024531243648390849 -0.19433408654789189 0 0.0088310485035662332 -0.18499497339519749 0 0.015882690115080599 -0.1999314613024277 0 0.02714694274836725 -0.20215338642260761 0 0.024531243648390849 -0.19433408654789189 0 0.02714694274836725 -0.20215338642260761 0 0.024531243648390849 -0.19433408654789189 0 0.036713708561763529 -0.19814538619675229 0 0.045892429076490493 -0.18948811423983161 0 0.036713708561763529 -0.19814538619675229 0 0.037475565425397067 -0.21237683394561699 0 0.045892429076490493 -0.18948811423983161 0 0.037475565425397067 -0.21237683394561699 0 0.045892429076490493 -0.18948811423983161 0 0.042387278588356392 -0.20352011806107961 0 0.037475565425397067 -0.21237683394561699 0 0.045892429076490493 -0.18948811423983161 0 0.036713708561763529 -0.19814538619675229 0 0.034081828313176632 -0.18644522542247419 0 0.024531243648390849 -0.19433408654789189 0 0.036713708561763529 -0.19814538619675229 0 0.034081828313176632 -0.18644522542247419 0 0.02714694274836725 -0.20215338642260761 0 0.036713708561763529 -0.19814538619675229 0 0.032394899571496903 -0.2056058586153304 0 0.042387278588356392 -0.20352011806107961 0 0.037475565425397067 -0.21237683394561699 0 0.057981512393228872 -0.21833392906386431 0 0.036713708561763529 -0.19814538619675229 0 0.032394899571496903 -0.2056058586153304 0 0.037475565425397067 -0.21237683394561699 0 0.028243381550459742 -0.20974782789634469 0 0.032394899571496903 -0.2056058586153304 0 0.037475565425397067 -0.21237683394561699 0 0.042387278588356392 -0.20352011806107961 0 0.057981512393228872 -0.21833392906386431 0 0.058354622499787158 -0.19585472239058341 0 0.042387278588356392 -0.20352011806107961 0 0.057981512393228872 -0.21833392906386431 0 0.045892429076490493 -0.18948811423983161 0 0.042387278588356392 -0.20352011806107961 0 0.058354622499787158 -0.19585472239058341 0 0.045892429076490493 -0.18948811423983161 0 0.058354622499787158 -0.19585472239058341 0 0.055208242740051698 -0.17907699079005829 0 0.047813738821929658 -0.25677683227199732 0 0.035768680097194347 -0.25045790292748088 0 0.049705072387382941 -0.2381324665825163 0 0.035768680097194347 -0.25045790292748088 0 0.029058701774303659 -0.23526555365140231 0 0.049705072387382941 -0.2381324665825163 0 0.029058701774303659 -0.23526555365140231 0 0.037475565425397067 -0.21237683394561699 0 0.029058701774303659 -0.23526555365140231 0 0.043555212995078127 -0.22602719581085001 0 0.049705072387382941 -0.2381324665825163 0 0.029058701774303659 -0.23526555365140231 0 0.037475565425397067 -0.21237683394561699 0 0.043555212995078127 -0.22602719581085001 0 0.037475565425397067 -0.21237683394561699 0 0.057981512393228872 -0.21833392906386431 0 0.043555212995078127 -0.22602719581085001 0 0.057981512393228872 -0.21833392906386431 0 0.049705072387382941 -0.2381324665825163 0 0.071544300918191514 -0.2342440544721936 0 0.057981512393228872 -0.21833392906386431 0 0.043555212995078127 -0.22602719581085001 0 0.049705072387382941 -0.2381324665825163 0 0.049705072387382941 -0.2381324665825163 0 0.06353971008292858 -0.24694136108008011 0 0.071544300918191514 -0.2342440544721936 0 0.047813738821929658 -0.25677683227199732 0 0.049705072387382941 -0.2381324665825163 0 0.06353971008292858 -0.24694136108008011 0 0.073879740574333774 -0.25782156507501819 0 0.06353971008292858 -0.24694136108008011 0 0.073584011913408937 -0.23381863014879881 0 0.073879740574333774 -0.25782156507501819 0 0.073584011913408937 -0.23381863014879881 0 0.06353971008292858 -0.24694136108008011 0 0.071544300918191514 -0.2342440544721936 0 0.073584011913408937 -0.23381863014879881 0 0.073879740574333774 -0.25782156507501819 0 0.089125363783243566 -0.24791916769523201 0 0.073584011913408937 -0.23381863014879881 0 0.089125363783243566 -0.24791916769523201 0 0.073584011913408937 -0.23381863014879881 0 0.098454432069662701 -0.22863138465503011 0 0.089125363783243566 -0.24791916769523201 0 0.073584011913408937 -0.23381863014879881 0 0.084452103328721939 -0.22227973666619269 0 0.073584011913408937 -0.23381863014879881 0 0.098454432069662701 -0.22863138465503011 0 0.073584011913408937 -0.23381863014879881 0 0.098454432069662701 -0.22863138465503011 0 0.073584011913408937 -0.23381863014879881 0 0.073237455570387799 -0.20569024609511921 0 0.057981512393228872 -0.21833392906386431 0 0.073584011913408937 -0.23381863014879881 0 0.073237455570387799 -0.20569024609511921 0 0.057981512393228872 -0.21833392906386431 0 0.071544300918191514 -0.2342440544721936 0 0.073584011913408937 -0.23381863014879881 0 0.084452103328721939 -0.22227973666619269 0 0.073584011913408937 -0.23381863014879881 0 0.073237455570387799 -0.20569024609511921 0 0.071544300918191514 -0.2342440544721936 0 0.073584011913408937 -0.23381863014879881 0 0.057981512393228872 -0.21833392906386431 0 0.073584011913408937 -0.23381863014879881 0 0.057981512393228872 -0.21833392906386431 0 0.058354622499787158 -0.19585472239058341 0 0.073237455570387799 -0.20569024609511921 0 0.073237455570387799 -0.20569024609511921 0 0.072899164942624592 -0.1782327521236152 0 0.058354622499787158 -0.19585472239058341 0 0.073237455570387799 -0.20569024609511921 0 0.072899164942624592 -0.1782327521236152 0 0.073237455570387799 -0.20569024609511921 0 0.089662633033838035 -0.18670224364426319 0 0.072899164942624592 -0.1782327521236152 0 0.073237455570387799 -0.20569024609511921 0 0.097760281032013938 -0.20471962820000289 0 0.089662633033838035 -0.18670224364426319 0 0.084452103328721939 -0.22227973666619269 0 0.097760281032013938 -0.20471962820000289 0 0.098454432069662701 -0.22863138465503011 0 0.084452103328721939 -0.22227973666619269 0 0.073237455570387799 -0.20569024609511921 0 0.097760281032013938 -0.20471962820000289 0 0.097760281032013938 -0.20471962820000289 0 0.11357790737626 -0.21017515178023519 0 0.098454432069662701 -0.22863138465503011 0 0.097760281032013938 -0.20471962820000289 0 0.11997030887787009 -0.18991310481957921 0 0.089662633033838035 -0.18670224364426319 0 0.11997030887787009 -0.18991310481957921 0 0.11357790737626 -0.21017515178023519 0 0.13043208189753189 -0.2066469910259516 0 0.097760281032013938 -0.20471962820000289 0 0.11997030887787009 -0.18991310481957921 0 0.11357790737626 -0.21017515178023519 0 0.11357790737626 -0.21017515178023519 0 0.1227525401324822 -0.22356350680000489 0 0.13043208189753189 -0.2066469910259516 0 0.11357790737626 -0.21017515178023519 0 0.1227525401324822 -0.22356350680000489 0 0.098454432069662701 -0.22863138465503011 0 0.1227525401324822 -0.22356350680000489 0 0.098454432069662701 -0.22863138465503011 0 0.1227525401324822 -0.22356350680000489 0 0.118233132557587 -0.23876189541744641 0 0.098454432069662701 -0.22863138465503011 0 0.118233132557587 -0.23876189541744641 0 0.11258481616026179 -0.24961739565754379 0 0.10216954282952841 -0.24283827424479509 0 0.122950809996049 -0.25239340012073208 0 0.118233132557587 -0.23876189541744641 0 0.11258481616026179 -0.24961739565754379 0 0.122950809996049 -0.25239340012073208 0 0.118233132557587 -0.23876189541744641 0 0.13262045681175449 -0.24449406379594699 0 0.089125363783243566 -0.24791916769523201 0 0.10216954282952841 -0.24283827424479509 0 0.098454432069662701 -0.22863138465503011 0 0.118233132557587 -0.23876189541744641 0 0.10216954282952841 -0.24283827424479509 0 0.098454432069662701 -0.22863138465503011 0 0.0963590508029952 -0.13782861576134439 0 0.12049551791894809 -0.15233946734203499 0 0.099682360962073766 -0.16873427242558839 0 0.0963590508029952 -0.13782861576134439 0 0.12049551791894809 -0.15233946734203499 0 0.0963590508029952 -0.13782861576134439 0 0.12049551791894809 -0.15233946734203499 0 0.1274321486448233 -0.1276430607905818 0 0.12049551791894809 -0.15233946734203499 0 0.099682360962073766 -0.16873427242558839 0 0.12558608820142819 -0.17120111343300851 0 0.11997030887787009 -0.18991310481957921 0 0.099682360962073766 -0.16873427242558839 0 0.12558608820142819 -0.17120111343300851 0 0.11997030887787009 -0.18991310481957921 0 0.099682360962073766 -0.16873427242558839 0 0.089662633033838035 -0.18670224364426319 0 0.099682360962073766 -0.16873427242558839 0 0.072899164942624592 -0.1782327521236152 0 0.072560874314861384 -0.1507752581521111 0 0.099682360962073766 -0.16873427242558839 0 0.089662633033838035 -0.18670224364426319 0 0.072899164942624592 -0.1782327521236152 0 0.072899164942624592 -0.1782327521236152 0 0.072560874314861384 -0.1507752581521111 0 0.072899164942624592 -0.1782327521236152 0 0.072560874314861384 -0.1507752581521111 0 0.059354472593879687 -0.16526647563497701 0 0.0963590508029952 -0.13782861576134439 0 0.099682360962073766 -0.16873427242558839 0 0.072560874314861384 -0.1507752581521111 0 0.0963590508029952 -0.13782861576134439 0 0.072222583687069963 -0.1233177641806079 0 0.0963590508029952 -0.13782861576134439 0 0.072560874314861384 -0.1507752581521111 0 0.072222583687069963 -0.1233177641806079 0 0.072560874314861384 -0.1507752581521111 0 0.072222583687069963 -0.1233177641806079 0 0.072560874314861384 -0.1507752581521111 0 0.052527383879967887 -0.13485330806025539 0 0.072222583687069963 -0.1233177641806079 0 0.072560874314861384 -0.1507752581521111 0 0.052709967375438288 -0.1524107920417728 0 0.059354472593879687 -0.16526647563497701 0 0.072560874314861384 -0.1507752581521111 0 0.052527383879967887 -0.13485330806025539 0 0.052709967375438288 -0.1524107920417728 0 0.052709967375438288 -0.1524107920417728 0 0.032880200611753542 -0.1467778413205271 0 0.043394113596422527 -0.16583658506732729 0 0.052527383879967887 -0.13485330806025539 0 0.052709967375438288 -0.1524107920417728 0 0.032880200611753542 -0.1467778413205271 0 0.052527383879967887 -0.13485330806025539 0 0.032880200611753542 -0.1467778413205271 0 0.03588960581394969 -0.1245225484383756 0 0.058354622499787158 -0.19585472239058341 0 0.072899164942624592 -0.1782327521236152 0 0.055208242740051698 -0.17907699079005829 0 0.072899164942624592 -0.1782327521236152 0 0.055208242740051698 -0.17907699079005829 0 0.059354472593879687 -0.16526647563497701 0 0.045892429076490493 -0.18948811423983161 0 0.055208242740051698 -0.17907699079005829 0 0.042469897800599871 -0.17935196178251309 0 0.055208242740051698 -0.17907699079005829 0 0.043394113596422527 -0.16583658506732729 0 0.042469897800599871 -0.17935196178251309 0 0.052709967375438288 -0.1524107920417728 0 0.059354472593879687 -0.16526647563497701 0 0.043394113596422527 -0.16583658506732729 0 0.055208242740051698 -0.17907699079005829 0 0.059354472593879687 -0.16526647563497701 0 0.043394113596422527 -0.16583658506732729 0 0.043394113596422527 -0.16583658506732729 0 0.03125122358927486 -0.17512670942294201 0 0.02358635623494303 -0.16560806334502531 0 0.032880200611753542 -0.1467778413205271 0 0.043394113596422527 -0.16583658506732729 0 0.02358635623494303 -0.16560806334502531 0 0.043394113596422527 -0.16583658506732729 0 0.042469897800599871 -0.17935196178251309 0 0.03125122358927486 -0.17512670942294201 0 0.042469897800599871 -0.17935196178251309 0 0.03125122358927486 -0.17512670942294201 0 0.034081828313176632 -0.18644522542247419 0 0.045892429076490493 -0.18948811423983161 0 0.042469897800599871 -0.17935196178251309 0 0.034081828313176632 -0.18644522542247419 0 0.034081828313176632 -0.18644522542247419 0 0.0088310485035662332 -0.18499497339519749 0 0.03125122358927486 -0.17512670942294201 0 0.02358635623494303 -0.16560806334502531 0 0.0088310485035662332 -0.18499497339519749 0 0.03125122358927486 -0.17512670942294201 0 0.034081828313176632 -0.18644522542247419 0 0.0088310485035662332 -0.18499497339519749 0 0.02358635623494303 -0.16560806334502531 0 0.0073780211962345722 -0.1675384859478232 0 0.017098496912337301 -0.15233364923107151 0 -0.003004005103060921 -0.15307056508902001 0 0.0073780211962345722 -0.1675384859478232 0 0.017098496912337301 -0.15233364923107151 0 0.02358635623494303 -0.16560806334502531 0 0.0073780211962345722 -0.1675384859478232 0 0.0088310485035662332 -0.18499497339519749 0 -0.0087818727483572646 -0.16854142425400009 0 0.0073780211962345722 -0.1675384859478232 0 0.0088310485035662332 -0.18499497339519749 0 -0.01829416010236987 -0.133605792362194 0 0.013646756960559409 -0.13380361011871339 0 0.0052588520052682464 -0.11514370574485849 0 0.032880200611753542 -0.1467778413205271 0 0.013646756960559409 -0.13380361011871339 0 0.03588960581394969 -0.1245225484383756 0 0.032880200611753542 -0.1467778413205271 0 0.017098496912337301 -0.15233364923107151 0 0.013646756960559409 -0.13380361011871339 0 0.032880200611753542 -0.1467778413205271 0 0.02358635623494303 -0.16560806334502531 0 0.017098496912337301 -0.15233364923107151 0 -0.003004005103060921 -0.15307056508902001 0 0.017098496912337301 -0.15233364923107151 0 0.013646756960559409 -0.13380361011871339 0 0.013646756960559409 -0.13380361011871339 0 0.0052588520052682464 -0.11514370574485849 0 0.022470609847376189 -0.1145799291286372 0 -0.0050141511229591469 -0.083295860522754159 0 0.0052588520052682464 -0.11514370574485849 0 0.01902964537787933 -0.09636909773937849 0 0.013646756960559409 -0.13380361011871339 0 0.022470609847376189 -0.1145799291286372 0 0.03588960581394969 -0.1245225484383756 0 0.01902964537787933 -0.09636909773937849 0 0.03117513248298568 -0.088891679417870059 0 0.038528189079224298 -0.10306068360186001 0 0.022470609847376189 -0.1145799291286372 0 0.01902964537787933 -0.09636909773937849 0 0.038528189079224298 -0.10306068360186001 0 0.0052588520052682464 -0.11514370574485849 0 0.022470609847376189 -0.1145799291286372 0 0.01902964537787933 -0.09636909773937849 0 -0.0050141511229591469 -0.083295860522754159 0 0.01902964537787933 -0.09636909773937849 0 0.019312895087505472 -0.076184312901996565 0 -0.0050141511229591469 -0.083295860522754159 0 0.005219015958159736 -0.06731093962953405 0 0.019312895087505472 -0.076184312901996565 0 0.005219015958159736 -0.06731093962953405 0 0.019312895087505472 -0.076184312901996565 0 0.01467734231981324 -0.055341534468490439 0 0.030588928213701641 -0.062604387916258719 0 0.019312895087505472 -0.076184312901996565 0 0.01467734231981324 -0.055341534468490439 0 0.030588928213701641 -0.062604387916258719 0 0.019312895087505472 -0.076184312901996565 0 0.042391322206324467 -0.077144053959437478 0 0.01902964537787933 -0.09636909773937849 0 0.019312895087505472 -0.076184312901996565 0 0.03117513248298568 -0.088891679417870059 0 0.019312895087505472 -0.076184312901996565 0 0.03117513248298568 -0.088891679417870059 0 0.042391322206324467 -0.077144053959437478 0 0.03117513248298568 -0.088891679417870059 0 0.042391322206324467 -0.077144053959437478 0 0.051790732322162913 -0.092886278711381623 0 0.030588928213701641 -0.062604387916258719 0 0.042391322206324467 -0.077144053959437478 0 0.05439223323867682 -0.056098194637741128 0 0.058392915129229193 -0.077428867989544931 0 0.05439223323867682 -0.056098194637741128 0 0.071519330690288416 -0.066237953699240459 0 0.042391322206324467 -0.077144053959437478 0 0.058392915129229193 -0.077428867989544931 0 0.05439223323867682 -0.056098194637741128 0 0.058392915129229193 -0.077428867989544931 0 0.051790732322162913 -0.092886278711381623 0 0.071870957188693296 -0.094777858939923965 0 0.042391322206324467 -0.077144053959437478 0 0.058392915129229193 -0.077428867989544931 0 0.051790732322162913 -0.092886278711381623 0 0.051790732322162913 -0.092886278711381623 0 0.055375386383133267 -0.11318922389125689 0 0.038528189079224298 -0.10306068360186001 0 0.055375386383133267 -0.11318922389125689 0 0.038528189079224298 -0.10306068360186001 0 0.051790732322162913 -0.092886278711381623 0 0.055375386383133267 -0.11318922389125689 0 0.071870957188693296 -0.094777858939923965 0 0.052527383879967887 -0.13485330806025539 0 0.055375386383133267 -0.11318922389125689 0 0.072222583687069963 -0.1233177641806079 0 0.052527383879967887 -0.13485330806025539 0 0.055375386383133267 -0.11318922389125689 0 0.03588960581394969 -0.1245225484383756 0 0.022470609847376189 -0.1145799291286372 0 0.03588960581394969 -0.1245225484383756 0 0.038528189079224298 -0.10306068360186001 0 0.055375386383133267 -0.11318922389125689 0 0.03588960581394969 -0.1245225484383756 0 0.038528189079224298 -0.10306068360186001 0 0.03117513248298568 -0.088891679417870059 0 0.051790732322162913 -0.092886278711381623 0 0.038528189079224298 -0.10306068360186001 0 0.019263101964042351 -0.012654202445213369 0 0.017202183584489831 -0.00165383889496219 0 0.039156041060281373 -0.0063405088962643318 0 0.019263101964042351 -0.012654202445213369 0 0.018666845930286551 -0.02718761331871852 0 0.039156041060281373 -0.0063405088962643318 0 0.0013368076600828139 0.00064641566715705325 0 0.017202183584489831 -0.00165383889496219 0 0.0068361993923145544 -0.010550644143705471 0 -0.005601158127135077 -0.013126242894221769 0 0.0013368076600828139 0.00064641566715705325 0 0.0068361993923145544 -0.010550644143705471 0 0.019263101964042351 -0.012654202445213369 0 0.017202183584489831 -0.00165383889496219 0 0.0068361993923145544 -0.010550644143705471 0 -0.005601158127135077 -0.013126242894221769 0 0.018666845930286551 -0.02718761331871852 0 0.01205219038001208 -0.033917814973801461 0 0.019263101964042351 -0.012654202445213369 0 0.0068361993923145544 -0.010550644143705471 0 0.018666845930286551 -0.02718761331871852 0 -0.005601158127135077 -0.013126242894221769 0 0.0068361993923145544 -0.010550644143705471 0 0.018666845930286551 -0.02718761331871852 0 -0.005601158127135077 -0.013126242894221769 0 0.018666845930286551 -0.02718761331871852 0 0.018666845930286551 -0.02718761331871852 0 0.01205219038001208 -0.033917814973801461 0 0.018666845930286551 -0.02718761331871852 0 0.028566022107778938 -0.03341544190346922 0 0.039360190331369317 -0.02616088137281377 0 0.018666845930286551 -0.02718761331871852 0 0.039156041060281373 -0.0063405088962643318 0 0.028566022107778938 -0.03341544190346922 0 0.01205219038001208 -0.033917814973801461 0 0.033222211809343691 -0.045008004805772869 0 0.018666845930286551 -0.02718761331871852 0 0.028566022107778938 -0.03341544190346922 0 0.01205219038001208 -0.033917814973801461 0 0.01205219038001208 -0.033917814973801461 0 0.01467734231981324 -0.055341534468490439 0 0.033222211809343691 -0.045008004805772869 0 0.01205219038001208 -0.033917814973801461 0 0.033222211809343691 -0.045008004805772869 0 -0.0081000224517206176 -0.054422050624895073 0 0.01205219038001208 -0.033917814973801461 0 -0.0081000224517206176 -0.054422050624895073 0 0.01205219038001208 -0.033917814973801461 0 0.01467734231981324 -0.055341534468490439 0 -0.0081000224517206176 -0.054422050624895073 0 0.005219015958159736 -0.06731093962953405 0 0.01467734231981324 -0.055341534468490439 0 0.030588928213701641 -0.062604387916258719 0 0.01467734231981324 -0.055341534468490439 0 0.033222211809343691 -0.045008004805772869 0 0.030588928213701641 -0.062604387916258719 0 0.05439223323867682 -0.056098194637741128 0 0.033222211809343691 -0.045008004805772869 0 0.05439223323867682 -0.056098194637741128 0 0.033222211809343691 -0.045008004805772869 0 0.051532584457026347 -0.03732311634119078 0 0.05499965885689323 -0.022451291172250389 0 0.071167704191883535 -0.037698048458556843 0 0.05439223323867682 -0.056098194637741128 0 0.051532584457026347 -0.03732311634119078 0 0.071167704191883535 -0.037698048458556843 0 0.051532584457026347 -0.03732311634119078 0 0.033222211809343691 -0.045008004805772869 0 0.039360190331369317 -0.02616088137281377 0 0.028566022107778938 -0.03341544190346922 0 0.033222211809343691 -0.045008004805772869 0 0.039360190331369317 -0.02616088137281377 0 0.05439223323867682 -0.056098194637741128 0 0.051532584457026347 -0.03732311634119078 0 0.033222211809343691 -0.045008004805772869 0 0.059645236190275362 0.0145065955261905 0 0.039156041060281373 -0.0063405088962643318 0 0.070816077693478641 -0.009158143217873338 0 0.05499965885689323 -0.022451291172250389 0 0.039156041060281373 -0.0063405088962643318 0 0.070816077693478641 -0.009158143217873338 0 0.018666845930286551 -0.02718761331871852 0 0.039360190331369317 -0.02616088137281377 0 0.039156041060281373 -0.0063405088962643318 0 0.039360190331369317 -0.02616088137281377 0 0.05499965885689323 -0.022451291172250389 0 0.039156041060281373 -0.0063405088962643318 0 0.051532584457026347 -0.03732311634119078 0 0.039360190331369317 -0.02616088137281377 0 0.05499965885689323 -0.022451291172250389 0 0.094115934799620465 0.002956992047629543 0 0.070816077693478641 -0.009158143217873338 0 0.090849286416598285 -0.01846056750712026 0 0.05499965885689323 -0.022451291172250389 0 0.070816077693478641 -0.009158143217873338 0 0.071167704191883535 -0.037698048458556843 0 0.070816077693478641 -0.009158143217873338 0 0.090849286416598285 -0.01846056750712026 0 0.071167704191883535 -0.037698048458556843 0 0.070816077693478641 -0.009158143217873338 0 0.071167704191883535 -0.037698048458556843 0 0.090849286416598285 -0.01846056750712026 0 0.071167704191883535 -0.037698048458556843 0 0.1000221442672679 -0.036174541187982433 0 0.071167704191883535 -0.037698048458556843 0 0.081919717403794834 -0.060119985657146623 0 0.1000221442672679 -0.036174541187982433 0 0.071167704191883535 -0.037698048458556843 0 0.081919717403794834 -0.060119985657146623 0 0.071519330690288416 -0.066237953699240459 0 0.05439223323867682 -0.056098194637741128 0 0.071167704191883535 -0.037698048458556843 0 0.071519330690288416 -0.066237953699240459 0 0.071167704191883535 -0.037698048458556843 0 0.071519330690288416 -0.066237953699240459 0 0.081919717403794834 -0.060119985657146623 0 0.098937427992466284 -0.05750657342906898 0 0.1000221442672679 -0.036174541187982433 0 0.081919717403794834 -0.060119985657146623 0 0.1000221442672679 -0.036174541187982433 0 0.098937427992466284 -0.05750657342906898 0 0.1139888728713398 -0.051824845735443922 0 0.107229069515778 -0.068013165106373258 0 0.098937427992466284 -0.05750657342906898 0 0.1139888728713398 -0.051824845735443922 0 0.1000221442672679 -0.036174541187982433 0 0.1139888728713398 -0.051824845735443922 0 0.123899384167079 -0.066571737467211456 0 0.1309700066266844 -0.049888515695384217 0 0.1139888728713398 -0.051824845735443922 0 0.107229069515778 -0.068013165106373258 0 0.123899384167079 -0.066571737467211456 0 0.1139888728713398 -0.051824845735443922 0 0.1000221442672679 -0.036174541187982433 0 0.12631312962385449 -0.031395791648174402 0 0.1139888728713398 -0.051824845735443922 0 0.12631312962385449 -0.031395791648174402 0 0.1309700066266844 -0.049888515695384217 0 0.1000221442672679 -0.036174541187982433 0 0.1181245711307409 -0.01222909671881825 0 0.090849286416598285 -0.01846056750712026 0 0.1000221442672679 -0.036174541187982433 0 0.1181245711307409 -0.01222909671881825 0 0.1000221442672679 -0.036174541187982433 0 0.1181245711307409 -0.01222909671881825 0 0.12631312962385449 -0.031395791648174402 0 0.094115934799620465 0.002956992047629543 0 0.090849286416598285 -0.01846056750712026 0 0.1181245711307409 -0.01222909671881825 0 0.08688326626169432 -0.1091601490986817 0 0.08683177687151547 -0.084036650810827673 0 0.1071319627581694 -0.10583985580070469 0 0.08688326626169432 -0.1091601490986817 0 0.071870957188693296 -0.094777858939923965 0 0.08683177687151547 -0.084036650810827673 0 0.0963590508029952 -0.13782861576134439 0 0.08688326626169432 -0.1091601490986817 0 0.072222583687069963 -0.1233177641806079 0 0.055375386383133267 -0.11318922389125689 0 0.072222583687069963 -0.1233177641806079 0 0.055375386383133267 -0.11318922389125689 0 0.072222583687069963 -0.1233177641806079 0 0.071870957188693296 -0.094777858939923965 0 0.08688326626169432 -0.1091601490986817 0 0.072222583687069963 -0.1233177641806079 0 0.071870957188693296 -0.094777858939923965 0 0.072222583687069963 -0.1233177641806079 0 0.071870957188693296 -0.094777858939923965 0 0.071870957188693296 -0.094777858939923965 0 0.071519330690288416 -0.066237953699240459 0 0.058392915129229193 -0.077428867989544931 0 0.071870957188693296 -0.094777858939923965 0 0.071519330690288416 -0.066237953699240459 0 0.071870957188693296 -0.094777858939923965 0 0.071519330690288416 -0.066237953699240459 0 0.081020317358779501 -0.075197993223235074 0 0.081919717403794834 -0.060119985657146623 0 0.098937427992466284 -0.05750657342906898 0 0.092959804639605473 -0.070817517009036657 0 0.081919717403794834 -0.060119985657146623 0 0.081020317358779501 -0.075197993223235074 0 0.092959804639605473 -0.070817517009036657 0 0.081919717403794834 -0.060119985657146623 0 0.071519330690288416 -0.066237953699240459 0 0.081020317358779501 -0.075197993223235074 0 0.081020317358779501 -0.075197993223235074 0 0.092959804639605473 -0.070817517009036657 0 0.08683177687151547 -0.084036650810827673 0 0.071870957188693296 -0.094777858939923965 0 0.081020317358779501 -0.075197993223235074 0 0.08683177687151547 -0.084036650810827673 0 0.092959804639605473 -0.070817517009036657 0 0.08683177687151547 -0.084036650810827673 0 0.1058163221234063 -0.086712810112717711 0 0.08683177687151547 -0.084036650810827673 0 0.1058163221234063 -0.086712810112717711 0 0.1071319627581694 -0.10583985580070469 0 0.092959804639605473 -0.070817517009036657 0 0.1058163221234063 -0.086712810112717711 0 0.107229069515778 -0.068013165106373258 0 0.098937427992466284 -0.05750657342906898 0 0.092959804639605473 -0.070817517009036657 0 0.107229069515778 -0.068013165106373258 0 0.107229069515778 -0.068013165106373258 0 0.123899384167079 -0.066571737467211456 0 0.12609816485918399 -0.083936703101593388 0 0.1058163221234063 -0.086712810112717711 0 0.107229069515778 -0.068013165106373258 0 0.12609816485918399 -0.083936703101593388 0 0.1058163221234063 -0.086712810112717711 0 0.1071319627581694 -0.10583985580070469 0 0.12609816485918399 -0.083936703101593388 0 0.1071319627581694 -0.10583985580070469 0 0.1398333295492368 -0.106428500266016 0 0.1274321486448233 -0.1276430607905818 0 0.0963590508029952 -0.13782861576134439 0 0.08688326626169432 -0.1091601490986817 0 0.1071319627581694 -0.10583985580070469 0 0.1071319627581694 -0.10583985580070469 0 0.1398333295492368 -0.106428500266016 0 0.12609816485918399 -0.083936703101593388 0 0.0963590508029952 -0.13782861576134439 0 0.1071319627581694 -0.10583985580070469 0 0.1274321486448233 -0.1276430607905818 0 0.08683177687151547 -0.084036650810827673 0 0.1071319627581694 -0.10583985580070469 0 0.1071319627581694 -0.10583985580070469 0 0.1274321486448233 -0.1276430607905818 0 0.1398333295492368 -0.106428500266016 0 0.12609816485918399 -0.083936703101593388 0 0.15752537699319061 -0.091124157234495864 0 0.1398333295492368 -0.106428500266016 0 0.1274321486448233 -0.1276430607905818 0 0.14965432360240241 -0.12659195717646241 0 0.1398333295492368 -0.106428500266016 0 0.16523345765870509 -0.1127996030301629 0 0.14965432360240241 -0.12659195717646241 0 0.1398333295492368 -0.106428500266016 0 0.15752537699319061 -0.091124157234495864 0 0.16523345765870509 -0.1127996030301629 0 0.12609816485918399 -0.083936703101593388 0 0.14695147345159801 -0.071605669629206142 0 0.15752537699319061 -0.091124157234495864 0 0.123899384167079 -0.066571737467211456 0 0.12609816485918399 -0.083936703101593388 0 0.14695147345159801 -0.071605669629206142 0 0.12609816485918399 -0.083936703101593388 0 0.14695147345159801 -0.071605669629206142 0 0.123899384167079 -0.066571737467211456 0 0.14695147345159801 -0.071605669629206142 0 0.1309700066266844 -0.049888515695384217 0 0.15752537699319061 -0.091124157234495864 0 0.18062583218352149 -0.087587297626925492 0 0.167804782044012 -0.059274636156818938 0 0.14695147345159801 -0.071605669629206142 0 0.15752537699319061 -0.091124157234495864 0 0.167804782044012 -0.059274636156818938 0 0.14695147345159801 -0.071605669629206142 0 0.167804782044012 -0.059274636156818938 0 0.18062583218352149 -0.087587297626925492 0 0.167804782044012 -0.059274636156818938 0 0.19217803993604601 -0.067894271864980579 0 0.18062583218352149 -0.087587297626925492 0 0.18480487912463159 -0.1073857917465867 0 0.16523345765870509 -0.1127996030301629 0 0.18480487912463159 -0.1073857917465867 0 0.16523345765870509 -0.1127996030301629 0 0.1892365866787773 -0.1267328851321958 0 0.15752537699319061 -0.091124157234495864 0 0.18062583218352149 -0.087587297626925492 0 0.16523345765870509 -0.1127996030301629 0 0.1418822081713659 -0.01261971330765857 0 0.15943889897531829 -0.017158345549407709 0 0.15877106624987389 -0.00039752605429424232 0 0.13622699799421389 0.01171634775034593 0 0.1418822081713659 -0.01261971330765857 0 0.15877106624987389 -0.00039752605429424232 0 0.13622699799421389 0.01171634775034593 0 0.1181245711307409 -0.01222909671881825 0 0.13622699799421389 0.01171634775034593 0 0.1181245711307409 -0.01222909671881825 0 0.1418822081713659 -0.01261971330765857 0 0.1181245711307409 -0.01222909671881825 0 0.1418822081713659 -0.01261971330765857 0 0.12631312962385449 -0.031395791648174402 0 0.1418822081713659 -0.01261971330765857 0 0.14882149022626351 -0.029567056138362191 0 0.12631312962385449 -0.031395791648174402 0 0.1418822081713659 -0.01261971330765857 0 0.14882149022626351 -0.029567056138362191 0 0.15943889897531829 -0.017158345549407709 0 0.14882149022626351 -0.029567056138362191 0 0.1309700066266844 -0.049888515695384217 0 0.15001541587148401 -0.050637191681852461 0 0.14882149022626351 -0.029567056138362191 0 0.15001541587148401 -0.050637191681852461 0 0.16968417311819331 -0.033374711031309831 0 0.14882149022626351 -0.029567056138362191 0 0.12631312962385449 -0.031395791648174402 0 0.1309700066266844 -0.049888515695384217 0 0.14695147345159801 -0.071605669629206142 0 0.15001541587148401 -0.050637191681852461 0 0.167804782044012 -0.059274636156818938 0 0.14695147345159801 -0.071605669629206142 0 0.1309700066266844 -0.049888515695384217 0 0.15001541587148401 -0.050637191681852461 0 0.15001541587148401 -0.050637191681852461 0 0.167804782044012 -0.059274636156818938 0 0.16968417311819331 -0.033374711031309831 0 0.167804782044012 -0.059274636156818938 0 0.188658090636426 -0.046943602684431721 0 0.19217803993604601 -0.067894271864980579 0 0.167804782044012 -0.059274636156818938 0 0.188658090636426 -0.046943602684431721 0 0.167804782044012 -0.059274636156818938 0 0.16968417311819331 -0.033374711031309831 0 0.188658090636426 -0.046943602684431721 0 0.16968417311819331 -0.033374711031309831 0 0.1947066215046788 -0.020975778739027399 0 0.188658090636426 -0.046943602684431721 0 0.16968417311819331 -0.033374711031309831 0 0.15943889897531829 -0.017158345549407709 0 0.17803555711089469 -0.0098327212154136895 0 0.14882149022626351 -0.029567056138362191 0 0.16968417311819331 -0.033374711031309831 0 0.15943889897531829 -0.017158345549407709 0 0.16968417311819331 -0.033374711031309831 0 0.17803555711089469 -0.0098327212154136895 0 0.1947066215046788 -0.020975778739027399 0 0.18859511266510859 0.0076245034646380038 0 0.17803555711089469 -0.0098327212154136895 0 0.19209992203558721 -0.0051250894014892127 0 0.18859511266510859 0.0076245034646380038 0 0.17803555711089469 -0.0098327212154136895 0 0.1729201067315736 0.0058886509416483691 0 0.17803555711089469 -0.0098327212154136895 0 0.15877106624987389 -0.00039752605429424232 0 0.15943889897531829 -0.017158345549407709 0 0.17803555711089469 -0.0098327212154136895 0 0.15877106624987389 -0.00039752605429424232 0 0.20534867250976391 -0.0043642885281037769 0 0.1947066215046788 -0.020975778739027399 0 0.2127623016291928 -0.017589952776530669 0 0.20534867250976391 -0.0043642885281037769 0 0.2127623016291928 -0.017589952776530669 0 0.2211015613305348 -0.0035727011820369729 0 0.1986053995495487 0.0055804718487439519 0 0.20534867250976391 -0.0043642885281037769 0 0.19209992203558721 -0.0051250894014892127 0 0.20534867250976391 -0.0043642885281037769 0 0.19209992203558721 -0.0051250894014892127 0 0.1947066215046788 -0.020975778739027399 0 0.17803555711089469 -0.0098327212154136895 0 0.19209992203558721 -0.0051250894014892127 0 0.1947066215046788 -0.020975778739027399 0 0.1947066215046788 -0.020975778739027399 0 0.2127623016291928 -0.017589952776530669 0 0.20951139922883999 -0.034612569212044517 0 0.2127623016291928 -0.017589952776530669 0 0.20951139922883999 -0.034612569212044517 0 0.23036470782125421 -0.02228153573965768 0 0.20951139922883999 -0.034612569212044517 0 0.21376513407977729 -0.060804000930962478 0 0.22459544482032809 -0.039982432579894638 0 0.20951139922883999 -0.034612569212044517 0 0.188658090636426 -0.046943602684431721 0 0.1947066215046788 -0.020975778739027399 0 0.20951139922883999 -0.034612569212044517 0 0.188658090636426 -0.046943602684431721 0 0.188658090636426 -0.046943602684431721 0 0.21376513407977729 -0.060804000930962478 0 0.19217803993604601 -0.067894271864980579 0 0.20951139922883999 -0.034612569212044517 0 0.188658090636426 -0.046943602684431721 0 0.21376513407977729 -0.060804000930962478 0 0.21376513407977729 -0.060804000930962478 0 0.2316785883463828 -0.051549492650177831 0 0.22459544482032809 -0.039982432579894638 0 0.21376513407977729 -0.060804000930962478 0 0.2316785883463828 -0.051549492650177831 0 0.23363073776543339 -0.070879144379656853 0 0.2316785883463828 -0.051549492650177831 0 0.24438717338176699 -0.054105405518205238 0 0.23363073776543339 -0.070879144379656853 0 0.24438717338176699 -0.054105405518205238 0 0.2406275060619473 -0.044006100301045882 0 0.2480947890546242 -0.045966293254975567 0 0.2316785883463828 -0.051549492650177831 0 0.24438717338176699 -0.054105405518205238 0 0.2406275060619473 -0.044006100301045882 0 0.2316785883463828 -0.051549492650177831 0 0.2406275060619473 -0.044006100301045882 0 0.2330655339690442 -0.039519872191301951 0 0.25117533351094129 -0.037336580867862117 0 0.2406275060619473 -0.044006100301045882 0 0.2480947890546242 -0.045966293254975567 0 0.25117533351094129 -0.037336580867862117 0 0.2406275060619473 -0.044006100301045882 0 0.24063999153796811 -0.033267748821308847 0 0.25117533351094129 -0.037336580867862117 0 0.24063999153796811 -0.033267748821308847 0 0.24692454306444639 -0.027596528692534771 0 0.24063999153796811 -0.033267748821308847 0 0.2330655339690442 -0.039519872191301951 0 0.23335193287317171 -0.028314852749023438 0 0.2406275060619473 -0.044006100301045882 0 0.24063999153796811 -0.033267748821308847 0 0.2330655339690442 -0.039519872191301951 0 0.2330655339690442 -0.039519872191301951 0 0.22459544482032809 -0.039982432579894638 0 0.23335193287317171 -0.028314852749023438 0 0.20951139922883999 -0.034612569212044517 0 0.22459544482032809 -0.039982432579894638 0 0.23036470782125421 -0.02228153573965768 0 0.2316785883463828 -0.051549492650177831 0 0.2330655339690442 -0.039519872191301951 0 0.22459544482032809 -0.039982432579894638 0 0.22459544482032809 -0.039982432579894638 0 0.23036470782125421 -0.02228153573965768 0 0.23335193287317171 -0.028314852749023438 0 0.20951139922883999 -0.034612569212044517 0 0.23036470782125421 -0.02228153573965768 0 0.23036470782125421 -0.02228153573965768 0 0.23658754366383131 -0.018601832026074589 0 0.23036470782125421 -0.02228153573965768 0 0.23526357796032971 -0.023612177939488058 0 0.23658754366383131 -0.018601832026074589 0 0.23036470782125421 -0.02228153573965768 0 0.23335193287317171 -0.028314852749023438 0 0.23526357796032971 -0.023612177939488058 0 0.23036470782125421 -0.02228153573965768 0 0.23335193287317171 -0.028314852749023438 0 0.24063999153796811 -0.033267748821308847 0 0.23335193287317171 -0.028314852749023438 0 0.240096266146333 -0.025166096277225859 0 0.23335193287317171 -0.028314852749023438 0 0.23526357796032971 -0.023612177939488058 0 0.240096266146333 -0.025166096277225859 0 0.24063999153796811 -0.033267748821308847 0 0.240096266146333 -0.025166096277225859 0 0.24692454306444639 -0.027596528692534771 0 0.25496149132205381 -0.026198307184793539 0 0.24692454306444639 -0.027596528692534771 0 0.24759495222635161 -0.018769166369227801 0 0.240096266146333 -0.025166096277225859 0 0.24692454306444639 -0.027596528692534771 0 0.24759495222635161 -0.018769166369227801 0 0.240096266146333 -0.025166096277225859 0 0.24759495222635161 -0.018769166369227801 0 0.23658754366383131 -0.018601832026074589 0 0.23526357796032971 -0.023612177939488058 0 0.240096266146333 -0.025166096277225859 0 0.23658754366383131 -0.018601832026074589 0 0.24360219425436941 0.0024857581900680202 0 0.24095399325963471 -0.0089245286136864308 0 0.2211015613305348 -0.0035727011820369729 0 0.24759495222635161 -0.018769166369227801 0 0.23658754366383131 -0.018601832026074589 0 0.24095399325963471 -0.0089245286136864308 0 0.25588371482308608 -0.0061647016811608134 0 0.24759495222635161 -0.018769166369227801 0 0.24095399325963471 -0.0089245286136864308 0 0.24360219425436941 0.0024857581900680202 0 0.25588371482308608 -0.0061647016811608134 0 0.24095399325963471 -0.0089245286136864308 0 0.2127623016291928 -0.017589952776530669 0 0.23036470782125421 -0.02228153573965768 0 0.2211015613305348 -0.0035727011820369729 0 0.23036470782125421 -0.02228153573965768 0 0.23658754366383131 -0.018601832026074589 0 0.2211015613305348 -0.0035727011820369729 0 0.23036470782125421 -0.02228153573965768 0 0.2211015613305348 -0.0035727011820369729 0 0.23658754366383131 -0.018601832026074589 0 0.24095399325963471 -0.0089245286136864308 0 0.2211015613305348 -0.0035727011820369729 0 0.20447015102530511 -0.1023234827987161 0 0.2274152695340779 -0.091658842862159126 0 0.20447015102530511 -0.1023234827987161 0 0.2274152695340779 -0.091658842862159126 0 0.22301725254402721 -0.11336891578448639 0 0.20447015102530511 -0.1023234827987161 0 0.20952819884325291 -0.1244079594870756 0 0.22301725254402721 -0.11336891578448639 0 0.20447015102530511 -0.1023234827987161 0 0.20952819884325291 -0.1244079594870756 0 0.1892365866787773 -0.1267328851321958 0 0.18480487912463159 -0.1073857917465867 0 0.20447015102530511 -0.1023234827987161 0 0.1892365866787773 -0.1267328851321958 0 0.18062583218352149 -0.087587297626925492 0 0.18480487912463159 -0.1073857917465867 0 0.20447015102530511 -0.1023234827987161 0 0.18062583218352149 -0.087587297626925492 0 0.20447015102530511 -0.1023234827987161 0 0.20843950375358511 -0.080894137559536908 0 0.18062583218352149 -0.087587297626925492 0 0.19217803993604601 -0.067894271864980579 0 0.20843950375358511 -0.080894137559536908 0 0.21376513407977729 -0.060804000930962478 0 0.19217803993604601 -0.067894271864980579 0 0.20843950375358511 -0.080894137559536908 0 0.21376513407977729 -0.060804000930962478 0 0.20843950375358511 -0.080894137559536908 0 0.23363073776543339 -0.070879144379656853 0 0.20447015102530511 -0.1023234827987161 0 0.20843950375358511 -0.080894137559536908 0 0.2274152695340779 -0.091658842862159126 0 0.20843950375358511 -0.080894137559536908 0 0.2274152695340779 -0.091658842862159126 0 0.23363073776543339 -0.070879144379656853 0 0.25751068913328939 -0.063954986009077994 0 0.24438717338176699 -0.054105405518205238 0 0.23363073776543339 -0.070879144379656853 0 0.25036038804285082 -0.080994202925602082 0 0.25751068913328939 -0.063954986009077994 0 0.23363073776543339 -0.070879144379656853 0 0.25036038804285082 -0.080994202925602082 0 0.2274152695340779 -0.091658842862159126 0 0.25036038804285082 -0.080994202925602082 0 0.2274152695340779 -0.091658842862159126 0 0.23363073776543339 -0.070879144379656853 0 0.25036038804285082 -0.080994202925602082 0 0.2274152695340779 -0.091658842862159126 0 0.24773076343232489 -0.11194471229237909 0 0.2274152695340779 -0.091658842862159126 0 0.22301725254402721 -0.11336891578448639 0 0.24773076343232489 -0.11194471229237909 0 0.22301725254402721 -0.11336891578448639 0 0.24773076343232489 -0.11194471229237909 0 0.22629605965176311 -0.1344702529103475 0 0.20952819884325291 -0.1244079594870756 0 0.22301725254402721 -0.11336891578448639 0 0.22629605965176311 -0.1344702529103475 0 0.24773076343232489 -0.11194471229237909 0 0.2455508571621941 -0.14546861019775381 0 0.22629605965176311 -0.1344702529103475 0 0.2455508571621941 -0.14546861019775381 0 0.22629605965176311 -0.1344702529103475 0 0.22872108492109089 -0.16215583142112611 0 0.22629605965176311 -0.1344702529103475 0 0.2046209443163915 -0.145144260809632 0 0.22872108492109089 -0.16215583142112611 0 0.20952819884325291 -0.1244079594870756 0 0.22629605965176311 -0.1344702529103475 0 0.2046209443163915 -0.145144260809632 0 0.2046209443163915 -0.145144260809632 0 0.1892365866787773 -0.1267328851321958 0 0.18366167334193309 -0.15487226781221369 0 0.20952819884325291 -0.1244079594870756 0 0.2046209443163915 -0.145144260809632 0 0.1892365866787773 -0.1267328851321958 0 0.2037553481966195 -0.1715229951234849 0 0.18833270630478499 -0.1930526757602129 0 0.18586628659583629 -0.17499707939040099 0 0.2037553481966195 -0.1715229951234849 0 0.206846759066841 -0.19611572858455789 0 0.18833270630478499 -0.1930526757602129 0 0.2037553481966195 -0.1715229951234849 0 0.18366167334193309 -0.15487226781221369 0 0.2037553481966195 -0.1715229951234849 0 0.18366167334193309 -0.15487226781221369 0 0.18586628659583629 -0.17499707939040099 0 0.2046209443163915 -0.145144260809632 0 0.2037553481966195 -0.1715229951234849 0 0.18366167334193309 -0.15487226781221369 0 0.2046209443163915 -0.145144260809632 0 0.2037553481966195 -0.1715229951234849 0 0.22872108492109089 -0.16215583142112611 0 0.2037553481966195 -0.1715229951234849 0 0.22384902305130591 -0.18817372243475611 0 0.206846759066841 -0.19611572858455789 0 0.2037553481966195 -0.1715229951234849 0 0.22384902305130591 -0.18817372243475611 0 0.2037553481966195 -0.1715229951234849 0 0.22872108492109089 -0.16215583142112611 0 0.22384902305130591 -0.18817372243475611 0 0.22872108492109089 -0.16215583142112611 0 0.244462968919885 -0.183239804984342 0 0.22384902305130591 -0.18817372243475611 0 0.2552682400144477 -0.1653512844311528 0 0.22872108492109089 -0.16215583142112611 0 0.244462968919885 -0.183239804984342 0 0.2552682400144477 -0.1653512844311528 0 0.2455508571621941 -0.14546861019775381 0 0.22872108492109089 -0.16215583142112611 0 0.244462968919885 -0.183239804984342 0 0.2439426979059923 -0.20482444974602729 0 0.22384902305130591 -0.18817372243475611 0 0.2439426979059923 -0.20482444974602729 0 0.23991114730868279 -0.23163852260462789 0 0.21747039269303159 -0.2141802844061676 0 0.2439426979059923 -0.20482444974602729 0 0.22384902305130591 -0.18817372243475611 0 0.2439426979059923 -0.20482444974602729 0 0.22384902305130591 -0.18817372243475611 0 0.21747039269303159 -0.2141802844061676 0 0.249183462268279 -0.25713094297952488 0 0.23991114730868279 -0.23163852260462789 0 0.22927533636427999 -0.2470671696831829 0 0.26403637276067871 -0.22147517705729849 0 0.2439426979059923 -0.20482444974602729 0 0.23991114730868279 -0.23163852260462789 0 0.23991114730868279 -0.23163852260462789 0 0.21396532618098771 -0.23537031424170421 0 0.21747039269303159 -0.2141802844061676 0 0.23991114730868279 -0.23163852260462789 0 0.22927533636427999 -0.2470671696831829 0 0.21396532618098771 -0.23537031424170421 0 0.20129499954753871 -0.25133160893564049 0 0.22927533636427999 -0.2470671696831829 0 0.21396532618098771 -0.23537031424170421 0 0.21396532618098771 -0.23537031424170421 0 0.1936347879825564 -0.2315581015309231 0 0.21747039269303159 -0.2141802844061676 0 0.1936347879825564 -0.2315581015309231 0 0.21747039269303159 -0.2141802844061676 0 0.19595388692465271 -0.21129460479369769 0 0.1936347879825564 -0.2315581015309231 0 0.19595388692465271 -0.21129460479369769 0 0.18203915694400999 -0.2209904013754958 0 0.20129499954753871 -0.25133160893564049 0 0.21396532618098771 -0.23537031424170421 0 0.1936347879825564 -0.2315581015309231 0 0.20129499954753871 -0.25133160893564049 0 0.1936347879825564 -0.2315581015309231 0 0.18363812540975549 -0.2472389054033737 0 0.22384902305130591 -0.18817372243475611 0 0.206846759066841 -0.19611572858455789 0 0.21747039269303159 -0.2141802844061676 0 0.206846759066841 -0.19611572858455789 0 0.21747039269303159 -0.2141802844061676 0 0.19595388692465271 -0.21129460479369769 0 0.19595388692465271 -0.21129460479369769 0 0.18833270630478499 -0.1930526757602129 0 0.18000592726175141 -0.20785641367191149 0 0.206846759066841 -0.19611572858455789 0 0.19595388692465271 -0.21129460479369769 0 0.18833270630478499 -0.1930526757602129 0 0.18833270630478499 -0.1930526757602129 0 0.17080621374284499 -0.1958184866744942 0 0.1687684521508542 -0.18136117050341641 0 0.18833270630478499 -0.1930526757602129 0 0.18000592726175141 -0.20785641367191149 0 0.17080621374284499 -0.1958184866744942 0 0.19595388692465271 -0.21129460479369769 0 0.18000592726175141 -0.20785641367191149 0 0.18203915694400999 -0.2209904013754958 0 0.18000592726175141 -0.20785641367191149 0 0.18203915694400999 -0.2209904013754958 0 0.16975875547153391 -0.21885416523870069 0 0.18000592726175141 -0.20785641367191149 0 0.16590656326301259 -0.2069589823937838 0 0.16975875547153391 -0.21885416523870069 0 0.18000592726175141 -0.20785641367191149 0 0.16590656326301259 -0.2069589823937838 0 0.17080621374284499 -0.1958184866744942 0 0.16590656326301259 -0.2069589823937838 0 0.15791630767768711 -0.21622936875185439 0 0.16975875547153391 -0.21885416523870069 0 0.16590656326301259 -0.2069589823937838 0 0.15791630767768711 -0.21622936875185439 0 0.15554334350916141 -0.20662061146547139 0 0.16590656326301259 -0.2069589823937838 0 0.15949674462150201 -0.19807136758149091 0 0.15554334350916141 -0.20662061146547139 0 0.15949674462150201 -0.19807136758149091 0 0.16116363117767199 -0.18974731836151951 0 0.15219615884432949 -0.19290384013501219 0 0.15949674462150201 -0.19807136758149091 0 0.16116363117767199 -0.18974731836151951 0 0.17080621374284499 -0.1958184866744942 0 0.16116363117767199 -0.18974731836151951 0 0.17080621374284499 -0.1958184866744942 0 0.1687684521508542 -0.18136117050341641 0 0.16590656326301259 -0.2069589823937838 0 0.15949674462150201 -0.19807136758149091 0 0.17080621374284499 -0.1958184866744942 0 0.16656330691575069 -0.25417207272616349 0 0.18363812540975549 -0.2472389054033737 0 0.17084242707955549 -0.23538872164224589 0 0.1936347879825564 -0.2315581015309231 0 0.18363812540975549 -0.2472389054033737 0 0.17084242707955549 -0.23538872164224589 0 0.1936347879825564 -0.2315581015309231 0 0.18203915694400999 -0.2209904013754958 0 0.17084242707955549 -0.23538872164224589 0 0.18203915694400999 -0.2209904013754958 0 0.16975875547153391 -0.21885416523870069 0 0.17084242707955549 -0.23538872164224589 0 0.16975875547153391 -0.21885416523870069 0 0.15902210746724049 -0.22662248485854261 0 0.17084242707955549 -0.23538872164224589 0 0.15791630767768711 -0.21622936875185439 0 0.16975875547153391 -0.21885416523870069 0 0.15902210746724049 -0.22662248485854261 0 0.16656330691575069 -0.25417207272616349 0 0.17084242707955549 -0.23538872164224589 0 0.1485498846089871 -0.24148855083393761 0 0.15902210746724049 -0.22662248485854261 0 0.17084242707955549 -0.23538872164224589 0 0.1485498846089871 -0.24148855083393761 0 0.1485498846089871 -0.24148855083393761 0 0.14705064819530159 -0.2184956289449797 0 0.1485498846089871 -0.24148855083393761 0 0.1369188987366165 -0.23070160139537529 0 0.14705064819530159 -0.2184956289449797 0 0.15902210746724049 -0.22662248485854261 0 0.1485498846089871 -0.24148855083393761 0 0.14705064819530159 -0.2184956289449797 0 0.15791630767768711 -0.21622936875185439 0 0.15902210746724049 -0.22662248485854261 0 0.14705064819530159 -0.2184956289449797 0 0.1227525401324822 -0.22356350680000489 0 0.1369188987366165 -0.23070160139537529 0 0.14705064819530159 -0.2184956289449797 0 0.1227525401324822 -0.22356350680000489 0 0.14705064819530159 -0.2184956289449797 0 0.1227525401324822 -0.22356350680000489 0 0.118233132557587 -0.23876189541744641 0 0.1369188987366165 -0.23070160139537529 0 0.1485498846089871 -0.24148855083393761 0 0.1369188987366165 -0.23070160139537529 0 0.13262045681175449 -0.24449406379594699 0 0.13448309619329249 -0.25824462846157331 0 0.1485498846089871 -0.24148855083393761 0 0.13262045681175449 -0.24449406379594699 0 0.118233132557587 -0.23876189541744641 0 0.1369188987366165 -0.23070160139537529 0 0.13262045681175449 -0.24449406379594699 0 0.14749473319877879 -0.20015947318745339 0 0.1397846750987288 -0.20518485896519259 0 0.14048122448925759 -0.1929486193450973 0 0.14749473319877879 -0.20015947318745339 0 0.15219615884432949 -0.19290384013501219 0 0.14048122448925759 -0.1929486193450973 0 0.15219615884432949 -0.19290384013501219 0 0.14048122448925759 -0.1929486193450973 0 0.15234446073443711 -0.18359242219949981 0 0.16116363117767199 -0.18974731836151951 0 0.15219615884432949 -0.19290384013501219 0 0.15234446073443711 -0.18359242219949981 0 0.15949674462150201 -0.19807136758149091 0 0.14749473319877879 -0.20015947318745339 0 0.15219615884432949 -0.19290384013501219 0 0.15949674462150201 -0.19807136758149091 0 0.14749473319877879 -0.20015947318745339 0 0.15554334350916141 -0.20662061146547139 0 0.14749473319877879 -0.20015947318745339 0 0.15554334350916141 -0.20662061146547139 0 0.14654512062965469 -0.21074264501026951 0 0.15791630767768711 -0.21622936875185439 0 0.14705064819530159 -0.2184956289449797 0 0.15791630767768711 -0.21622936875185439 0 0.14705064819530159 -0.2184956289449797 0 0.14654512062965469 -0.21074264501026951 0 0.15791630767768711 -0.21622936875185439 0 0.15554334350916141 -0.20662061146547139 0 0.14654512062965469 -0.21074264501026951 0 0.14705064819530159 -0.2184956289449797 0 0.14654512062965469 -0.21074264501026951 0 0.1397846750987288 -0.20518485896519259 0 0.14705064819530159 -0.2184956289449797 0 0.14654512062965469 -0.21074264501026951 0 0.14749473319877879 -0.20015947318745339 0 0.14654512062965469 -0.21074264501026951 0 0.1397846750987288 -0.20518485896519259 0 0.14705064819530159 -0.2184956289449797 0 0.1397846750987288 -0.20518485896519259 0 0.13043208189753189 -0.2066469910259516 0 0.1227525401324822 -0.22356350680000489 0 0.14705064819530159 -0.2184956289449797 0 0.13043208189753189 -0.2066469910259516 0 0.11997030887787009 -0.18991310481957921 0 0.13043208189753189 -0.2066469910259516 0 0.14048122448925759 -0.1929486193450973 0 0.11997030887787009 -0.18991310481957921 0 0.14048122448925759 -0.1929486193450973 0 0.13660281346757891 -0.1809011157439821 0 0.1397846750987288 -0.20518485896519259 0 0.13043208189753189 -0.2066469910259516 0 0.14048122448925759 -0.1929486193450973 0 0.11997030887787009 -0.18991310481957921 0 0.13660281346757891 -0.1809011157439821 0 0.12558608820142819 -0.17120111343300851 0 0.13660281346757891 -0.1809011157439821 0 0.14463198503490121 -0.1668503189227257 0 0.12558608820142819 -0.17120111343300851 0 0.14048122448925759 -0.1929486193450973 0 0.13660281346757891 -0.1809011157439821 0 0.15234446073443711 -0.18359242219949981 0 0.13660281346757891 -0.1809011157439821 0 0.15234446073443711 -0.18359242219949981 0 0.14463198503490121 -0.1668503189227257 0 0.15234446073443711 -0.18359242219949981 0 0.14463198503490121 -0.1668503189227257 0 0.1687684521508542 -0.18136117050341641 0 0.14463198503490121 -0.1668503189227257 0 0.14773233453147719 -0.1494462657804588 0 0.1680325204181311 -0.17124947077033589 0 0.12049551791894809 -0.15233946734203499 0 0.14463198503490121 -0.1668503189227257 0 0.12558608820142819 -0.17120111343300851 0 0.12049551791894809 -0.15233946734203499 0 0.14463198503490121 -0.1668503189227257 0 0.12049551791894809 -0.15233946734203499 0 0.1274321486448233 -0.1276430607905818 0 0.14773233453147719 -0.1494462657804588 0 0.12049551791894809 -0.15233946734203499 0 0.14463198503490121 -0.1668503189227257 0 0.14773233453147719 -0.1494462657804588 0 0.1274321486448233 -0.1276430607905818 0 0.14773233453147719 -0.1494462657804588 0 0.1274321486448233 -0.1276430607905818 0 0.14965432360240241 -0.12659195717646241 0 0.14773233453147719 -0.1494462657804588 0 0.14965432360240241 -0.12659195717646241 0 0.14773233453147719 -0.1494462657804588 0 0.1680403476277694 -0.13664235601509259 0 0.14773233453147719 -0.1494462657804588 0 0.16726620788750279 -0.15446894756842669 0 0.1680403476277694 -0.13664235601509259 0 0.16523345765870509 -0.1127996030301629 0 0.14965432360240241 -0.12659195717646241 0 0.1680403476277694 -0.13664235601509259 0 0.1892365866787773 -0.1267328851321958 0 0.1680403476277694 -0.13664235601509259 0 0.18366167334193309 -0.15487226781221369 0 0.16523345765870509 -0.1127996030301629 0 0.1892365866787773 -0.1267328851321958 0 0.1680403476277694 -0.13664235601509259 0 0.16726620788750279 -0.15446894756842669 0 0.1680403476277694 -0.13664235601509259 0 0.18366167334193309 -0.15487226781221369 0 0.16726620788750279 -0.15446894756842669 0 0.18366167334193309 -0.15487226781221369 0 0.17620667206085081 -0.1638969413853443 0 0.18366167334193309 -0.15487226781221369 0 0.17620667206085081 -0.1638969413853443 0 0.18586628659583629 -0.17499707939040099 0 0.17620667206085081 -0.1638969413853443 0 0.18586628659583629 -0.17499707939040099 0 0.1680325204181311 -0.17124947077033589 0 0.18833270630478499 -0.1930526757602129 0 0.1680325204181311 -0.17124947077033589 0 0.18833270630478499 -0.1930526757602129 0 0.18586628659583629 -0.17499707939040099 0 0.1680325204181311 -0.17124947077033589 0 0.18833270630478499 -0.1930526757602129 0 0.1687684521508542 -0.18136117050341641 0 0.1680325204181311 -0.17124947077033589 0 0.14463198503490121 -0.1668503189227257 0 0.1687684521508542 -0.18136117050341641 0 0.14463198503490121 -0.1668503189227257 0 0.1687684521508542 -0.18136117050341641 0 0.1680325204181311 -0.17124947077033589 0 0.16116363117767199 -0.18974731836151951 0 0.15234446073443711 -0.18359242219949981 0 0.1687684521508542 -0.18136117050341641 0 0.14773233453147719 -0.1494462657804588 0 0.16726620788750279 -0.15446894756842669 0 0.1680325204181311 -0.17124947077033589 0 0.14773233453147719 -0.1494462657804588 0 0.1680325204181311 -0.17124947077033589 0 0.16726620788750279 -0.15446894756842669 0 0.17620667206085081 -0.1638969413853443 0 0.1680325204181311 -0.17124947077033589 0 
</DataArray>
</Points>
<Cells>
<DataArray type="UInt32" Name="connectivity" format="ascii">
0 1 2 3 4 5 6 7 8 9 10 11 12 13 14 15 16 17 18 19 20 21 22 23 24 25 26 27 28 29 30 31 32 33 34 35 36 37 38 39 40 41 42 43 44 45 46 47 48 49 50 51 52 53 54 55 56 57 58 59 60 61 62 63 64 65 66 67 68 69 70 71 72 73 74 75 76 77 78 79 80 81 82 83 84 85 86 87 88 89 90 91 92 93 94 95 96 97 98 99 100 101 102 103 104 105 106 107 108 109 110 111 112 113 114 115 116 117 118 119 120 121 122 123 124 125 126 127 128 129 130 131 132 133 134 135 136 137 138 139 140 141 142 143 144 145 146 147 148 149 150 151 152 153 154 155 156 157 158 159 160 161 162 163 164 165 166 167 168 169 170 171 172 173 174 175 176 177 178 179 180 181 182 183 184 185 186 187 188 189 190 191 192 193 194 195 196 197 198 199 200 201 202 203 204 205 206 207 208 209 210 211 212 213 214 215 216 217 218 219 220 221 222 223 224 225 226 227 228 229 230 231 232 233 234 235 236 237 238 239 240 241 242 243 244 245 246 247 248 249 250 251 252 253 254 255 256 257 258 259 260 261 262 263 264 265 266 267 268 269 270 271 272 273 274 275 276 277 278 279 280 281 282 283 284 285 286 287 288 289 290 291 292 293 294 295 296 297 298 299 300 301 302 303 304 305 306 307 308 309 310 311 312 313 314 315 316 317 318 319 320 321 322 323 324 325 326 327 328 329 330 331 332 333 334 335 336 337 338 339 340 341 342 343 344 345 346 347 348 349 350 351 352 353 354 355 356 357 358 359 360 361 362 363 364 365 366 367 368 369 370 371 372 373 374 375 376 377 378 379 380 381 382 383 384 385 386 387 388 389 390 391 392 393 394 395 396 397 398 399 400 401 402 403 404 405 406 407 408 409 410 411 412 413 414 415 416 417 418 419 420 421 422 423 424 425 426 427 428 429 430 431 432 433 434 435 436 437 438 439 440 441 442 443 444 445 446 447 448 449 450 451 452 453 454 455 456 457 458 459 460 461 462 463 464 465 466 467 468 469 470 471 472 473 474 475 476 477 478 479 480 481 482 483 484 485 486 487 488 489 490 491 492 493 494 495 496 497 498 499 500 501 502 503 504 505 506 507 508 509 510 511 512 513 514 515 516 517 518 519 520 521 522 523 524 525 526 527 528 529 530 531 532 533 534 535 536 537 538 539 540 541 542 543 544 545 546 547 548 549 550 551 552 553 554 555 556 557 558 559 560 561 562 563 564 565 566 567 568 569 570 571 572 573 574 575 576 577 578 579 580 581 582 583 584 585 586 587 588 589 590 591 592 593 594 595 596 597 598 599 600 601 602 603 604 605 606 607 608 609 610 611 612 613 614 615 616 617 618 619 620 621 622 623 624 625 626 627 628 629 630 631 632 633 634 635 636 637 638 639 640 641 642 643 644 645 646 647 648 649 650 651 652 653 654 655 656 657 658 659 660 661 662 663 664 665 666 667 668 669 670 671 672 673 674 675 676 677 678 679 680 681 682 683 684 685 686 687 688 689 690 691 692 693 694 695 696 697 698 699 700 701 702 703 704 705 706 707 708 709 710 711 712 713 714 715 716 717 718 719 720 721 722 723 724 725 726 727 728 729 730 731 732 733 734 735 736 737 738 739 740 741 742 743 744 745 746 747 748 749 750 751 752 753 754 755 756 757 758 759 760 761 762 763 764 765 766 767 768 769 770 771 772 773 774 775 776 777 778 779 780 781 782 783 784 785 786 787 788 789 790 791 792 793 794 795 796 797 798 799 800 801 802 803 804 805 806 807 808 809 810 811 812 813 814 815 816 817 818 819 820 821 822 823 824 825 826 827 828 829 830 831 832 833 834 835 836 837 838 839 840 841 842 843 844 845 846 847 848 849 850 851 852 853 854 855 856 857 858 859 860 861 862 863 864 865 866 867 868 869 870 871 872 873 874 875 876 877 878 879 880 881 882 883 884 885 886 887 888 889 890 891 892 893 894 895 896 897 898 899 900 901 902 903 904 905 906 907 908 909 910 911 912 913 914 915 916 917 918 919 920 921 922 923 924 925 926 927 928 929 930 931 932 933 934 935 936 937 938 939 940 941 942 943 944 945 946 947 948 949 950 951 952 953 954 955 956 957 958 959 960 961 962 963 964 965 966 967 968 969 970 971 972 973 974 975 976 977 978 979 980 981 982 983 984 985 986 987 988 989 990 991 992 993 994 995 996 997 998 999 1000 1001 1002 1003 1004 1005 1006 1007 1008 1009 1010 1011 1012 1013 1014 1015 1016 1017 1018 1019 1020 1021 1022 1023 1024 1025 1026 1027 1028 1029 1030 1031 1032 1033 1034 1035 1036 1037 1038 1039 1040 1041 1042 1043 1044 1045 1046 1047 1048 1049 1050 1051 1052 1053 1054 1055 1056 1057 1058 1059 1060 1061 1062 1063 1064 1065 1066 1067 1068 1069 1070 1071 1072 1073 1074 1075 1076 1077 1078 1079 1080 1081 1082 1083 1084 1085 1086 1087 1088 1089 1090 1091 1092 1093 1094 1095 1096 1097 1098 1099 1100 1101 1102 1103 1104 1105 1106 1107 1108 1109 1110 1111 1112 1113 1114 1115 1116 1117 1118 1119 1120 1121 1122 1123 1124 1125 1126 1127 1128 1129 1130 1131 1132 1133 1134 1135 1136 1137 1138 1139 1140 1141 1142 1143 1144 1145 1146 1147 1148 1149 1150 1151 1152 1153 1154 1155 1156 1157 1158 1159 1160 1161 1162 1163 1164 1165 1166 1167 1168 1169 1170 1171 1172 1173 1174 1175 1176 1177 1178 1179 1180 1181 1182 1183 1184 1185 1186 1187 1188 1189 1190 1191 1192 1193 1194 1195 1196 1197 1198 1199 1200 1201 1202 1203 1204 1205 1206 1207 1208 1209 1210 1211 1212 1213 1214 1215 1216 1217 1218 1219 1220 1221 1222 1223 1224 1225 1226 1227 1228 1229 1230 1231 1232 1233 1234 1235 1236 1237 1238 1239 1240 1241 1242 1243 1244 1245 1246 1247 1248 1249 1250 1251 1252 1253 1254 1255 1256 1257 1258 1259 1260 1261 1262 1263 1264 1265 1266 1267 1268 1269 1270 1271 1272 1273 1274 1275 1276 1277 1278 1279 1280 1281 1282 1283 1284 1285 1286 1287 1288 1289 1290 1291 1292 1293 1294 1295 1296 1297 1298 1299 1300 1301 1302 1303 1304 1305 1306 1307 1308 1309 1310 1311 1312 1313 1314 1315 1316 1317 1318 1319 1320 1321 1322 1323 1324 1325 1326 1327 1328 1329 1330 1331 1332 1333 1334 1335 1336 1337 1338 1339 1340 1341 1342 1343 1344 1345 1346 1347 1348 1349 1350 1351 1352 1353 1354 1355 1356 1357 1358 1359 1360 1361 1362 1363 1364 1365 1366 1367 1368 1369 1370 1371 1372 1373 1374 1375 1376 1377 1378 1379 1380 1381 1382 1383 1384 1385 1386 1387 1388 1389 1390 1391 1392 1393 1394 1395 1396 1397 1398 1399 1400 1401 1402 1403 1404 1405 1406 1407 1408 1409 1410 1411 1412 1413 1414 1415 1416 1417 1418 1419 1420 1421 1422 1423 1424 1425 1426 1427 1428 1429 1430 1431 1432 1433 1434 1435 1436 1437 1438 1439 1440 1441 1442 1443 1444 1445 1446 1447 1448 1449 1450 1451 1452 1453 1454 1455 1456 1457 1458 1459 1460 1461 1462 1463 1464 1465 1466 1467 1468 1469 1470 1471 1472 1473 1474 1475 1476 1477 1478 1479 1480 1481 1482 1483 1484 1485 1486 1487 1488 1489 1490 1491 1492 1493 1494 1495 1496 1497 1498 1499 1500 1501 1502 1503 1504 1505 1506 1507 1508 1509 1510 1511 1512 1513 1514 1515 1516 1517 1518 1519 1520 1521 1522 1523 1524 1525 1526 1527 1528 1529 1530 1531 1532 1533 1534 1535 1536 1537 1538 1539 1540 1541 1542 1543 1544 1545 1546 1547 1548 1549 1550 1551 1552 1553 1554 1555 1556 1557 1558 1559 1560 1561 1562 1563 1564 1565 1566 1567 1568 1569 1570 1571 1572 1573 1574 1575 1576 1577 1578 1579 1580 1581 1582 1583 1584 1585 1586 1587 1588 1589 1590 1591 1592 1593 1594 1595 1596 1597 1598 1599 1600 1601 1602 1603 1604 1605 1606 1607 1608 1609 1610 1611 1612 1613 1614 1615 1616 1617 1618 1619 1620 1621 1622 1623 1624 1625 1626 1627 1628 1629 1630 1631 1632 1633 1634 1635 1636 1637 1638 1639 1640 1641 1642 1643 1644 1645 1646 1647 1648 1649 1650 1651 1652 1653 1654 1655 1656 1657 1658 1659 1660 1661 1662 1663 1664 1665 1666 1667 1668 1669 1670 1671 1672 1673 1674 1675 1676 1677 1678 1679 1680 1681 1682 1683 1684 1685 1686 1687 1688 1689 1690 1691 1692 1693 1694 1695 1696 1697 1698 1699 1700 1701 1702 1703 1704 1705 1706 1707 1708 1709 1710 1711 1712 1713 1714 1715 1716 1717 1718 1719 1720 1721 1722 1723 1724 1725 1726 1727 1728 1729 1730 1731 1732 1733 1734 1735 1736 1737 1738 1739 1740 1741 1742 1743 1744 1745 1746 1747 1748 1749 1750 1751 1752 1753 1754 1755 1756 1757 1758 1759 1760 1761 1762 1763 1764 1765 1766 1767 1768 1769 1770 1771 1772 1773 1774 1775 1776 1777 1778 1779 1780 1781 1782 1783 1784 1785 1786 1787 1788 1789 1790 1791 1792 1793 1794 1795 1796 1797 1798 1799 1800 1801 1802 1803 1804 1805 1806 1807 1808 1809 1810 1811 1812 1813 1814 1815 1816 1817 1818 1819 1820 1821 1822 1823 1824 1825 1826 1827 1828 1829 1830 1831 1832 1833 1834 1835 1836 1837 1838 1839 1840 1841 1842 1843 1844 1845 1846 1847 1848 1849 1850 1851 1852 1853 1854 1855 1856 1857 1858 1859 1860 1861 1862 1863 1864 1865 1866 1867 1868 1869 1870 1871 1872 1873 1874 1875 1876 1877 1878 1879 1880 1881 1882 1883 1884 1885 1886 1887 1888 1889 1890 1891 1892 1893 1894 1895 1896 1897 1898 1899 1900 1901 1902 1903 1904 1905 1906 1907 1908 1909 1910 1911 1912 1913 1914 1915 1916 1917 1918 1919 1920 1921 1922 1923 1924 1925 1926 1927 1928 1929 1930 1931 1932 1933 1934 1935 1936 1937 1938 1939 1940 1941 1942 1943 1944 1945 1946 1947 1948 1949 1950 1951 1952 1953 1954 1955 1956 1957 1958 1959 1960 1961 1962 1963 1964 1965 1966 1967 1968 1969 1970 1971 1972 1973 1974 1975 1976 1977 1978 1979 1980 1981 1982 1983 1984 1985 1986 1987 1988 1989 1990 1991 1992 1993 1994 1995 1996 1997 1998 1999 2000 2001 2002 2003 2004 2005 2006 2007 2008 2009 2010 2011 2012 2013 2014 2015 2016 2017 2018 2019 2020 2021 2022 2023 2024 2025 2026 2027 2028 2029 2030 2031 2032 2033 2034 2035 2036 2037 2038 2039 2040 2041 2042 2043 2044 2045 2046 2047 2048 2049 2050 2051 2052 2053 2054 2055 2056 2057 2058 2059 2060 2061 2062 2063 2064 2065 2066 2067 2068 2069 2070 2071 2072 2073 2074 2075 2076 2077 2078 2079 2080 2081 2082 2083 2084 2085 2086 2087 2088 2089 2090 2091 2092 2093 2094 2095 2096 2097 2098 2099 2100 2101 2102 2103 2104 2105 2106 2107 2108 2109 2110 2111 2112 2113 2114 2115 2116 2117 2118 2119 2120 2121 2122 2123 2124 2125 2126 2127 2128 2129 2130 2131 2132 2133 2134 2135 2136 2137 2138 2139 2140 2141 2142 2143 2144 2145 2146 2147 2148 2149 2150 2151 2152 2153 2154 2155 2156 2157 2158 2159 2160 2161 2162 2163 2164 2165 2166 2167 2168 2169 2170 2171 2172 2173 2174 2175 2176 2177 2178 2179 2180 2181 2182 2183 2184 2185 2186 2187 2188 2189 2190 2191 2192 2193 2194 2195 2196 2197 2198 2199 2200 2201 2202 2203 2204 2205 2206 2207 2208 2209 2210 2211 2212 2213 2214 2215 2216 2217 2218 2219 2220 2221 2222 2223 2224 2225 2226 2227 2228 2229 2230 2231 2232 2233 2234 2235 2236 2237 2238 2239 2240 2241 2242 2243 2244 2245 2246 2247 2248 2249 2250 2251 2252 2253 2254 2255 2256 2257 2258 2259 2260 2261 2262 2263 2264 2265 2266 2267 2268 2269 2270 2271 2272 2273 2274 2275 2276 2277 2278 2279 2280 2281 2282 2283 2284 2285 2286 2287 2288 2289 2290 2291 2292 2293 2294 2295 2296 2297 2298 2299 2300 2301 2302 2303 2304 2305 2306 2307 2308 2309 2310 2311 2312 2313 2314 2315 2316 2317 2318 2319 2320 2321 2322 2323 2324 2325 2326 2327 2328 2329 2330 2331 2332 2333 2334 2335 2336 2337 2338 2339 2340 2341 2342 2343 2344 2345 2346 2347 2348 2349 2350 2351 2352 2353 2354 2355 2356 2357 2358 2359 2360 2361 2362 2363 2364 2365 2366 2367 2368 2369 2370 2371 2372 2373 2374 2375 2376 2377 2378 2379 2380 2381 2382 2383 2384 2385 2386 2387 2388 2389 2390 2391 2392 2393 2394 2395 2396 2397 2398 2399 2400 2401 2402 2403 2404 2405 2406 2407 2408 2409 2410 2411 2412 2413 2414 2415 2416 2417 2418 2419 2420 2421 2422 2423 2424 2425 2426 2427 2428 2429 2430 2431 2432 2433 2434 2435 2436 2437 2438 2439 2440 2441 2442 2443 2444 2445 2446 2447 2448 2449 2450 2451 2452 2453 2454 2455 2456 2457 2458 2459 2460 2461 2462 2463 2464 2465 2466 2467 2468 2469 2470 2471 2472 2473 2474 2475 2476 2477 2478 2479 2480 2481 2482 2483 2484 2485 2486 2487 2488 2489 2490 2491 2492 2493 2494 2495 2496 2497 2498 2499 2500 2501 2502 2503 2504 2505 2506 2507 2508 2509 2510 2511 2512 2513 2514 2515 2516 2517 2518 2519 2520 2521 2522 2523 2524 2525 2526 2527 2528 2529 2530 2531 2532 2533 2534 2535 2536 2537 2538 2539 2540 2541 2542 2543 2544 2545 2546 2547 2548 2549 2550 2551 2552 2553 2554 2555 2556 2557 2558 2559 2560 2561 2562 2563 2564 2565 2566 2567 2568 2569 2570 2571 2572 2573 2574 2575 2576 2577 2578 2579 2580 2581 2582 2583 2584 2585 2586 2587 2588 2589 2590 2591 2592 2593 2594 2595 2596 2597 2598 2599 2600 2601 2602 2603 2604 2605 2606 2607 2608 2609 2610 2611 2612 2613 2614 2615 2616 2617 2618 2619 2620 2621 2622 2623 2624 2625 2626 2627 2628 2629 2630 2631 2632 2633 2634 2635 2636 2637 2638 2639 2640 2641 2642 2643 2644 2645 2646 2647 2648 2649 2650 2651 2652 2653 2654 2655 2656 2657 2658 2659 2660 2661 2662 2663 2664 2665 2666 2667 2668 2669 2670 2671 2672 2673 2674 2675 2676 2677 2678 2679 2680 2681 2682 2683 2684 2685 2686 2687 2688 2689 2690 2691 2692 2693 2694 2695 2696 2697 2698 2699 2700 2701 2702 2703 2704 2705 2706 2707 2708 2709 2710 2711 2712 2713 2714 2715 2716 2717 2718 2719 2720 2721 2722 2723 2724 2725 2726 2727 2728 2729 2730 2731 2732 2733 2734 2735 2736 2737 2738 2739 2740 2741 2742 2743 2744 2745 2746 2747 2748 2749 2750 2751 2752 2753 2754 2755 2756 2757 2758 2759 2760 2761 2762 2763 2764 2765 2766 2767 2768 2769 2770 2771 2772 2773 2774 2775 2776 2777 2778 2779 2780 2781 2782 2783 2784 2785 2786 2787 2788 2789 2790 2791 2792 2793 2794 2795 2796 2797 2798 2799 2800 2801 2802 2803 2804 2805 2806 2807 2808 2809 2810 2811 2812 2813 2814 2815 2816 2817 2818 2819 2820 2821 2822 2823 2824 2825 2826 2827 2828 2829 2830 2831 2832 2833 2834 2835 2836 2837 2838 2839 2840 2841 2842 2843 2844 2845 2846 2847 2848 2849 2850 2851 2852 2853 2854 2855 2856 2857 2858 2859 2860 2861 2862 2863 2864 2865 2866 2867 2868 2869 2870 2871 2872 2873 2874 2875 2876 2877 2878 2879 2880 2881 2882 2883 2884 2885 2886 2887 2888 2889 2890 2891 2892 2893 2894 2895 2896 2897 2898 2899 2900 2901 2902 2903 2904 2905 2906 2907 2908 2909 2910 2911 2912 2913 2914 2915 2916 2917 2918 2919 2920 2921 2922 2923 2924 2925 2926 2927 2928 2929 2930 2931 2932 2933 2934 2935 2936 2937 2938 2939 2940 2941 2942 2943 2944 2945 2946 2947 2948 2949 2950 2951 2952 2953 2954 2955 2956 2957 2958 2959 2960 2961 2962 2963 2964 2965 2966 2967 2968 2969 2970 2971 2972 2973 2974 2975 2976 2977 2978 2979 2980 2981 2982 2983 2984 2985 2986 2987 2988 2989 2990 2991 2992 2993 2994 2995 2996 2997 2998 2999 3000 3001 3002 3003 3004 3005 3006 3007 3008 3009 3010 3011 3012 3013 3014 3015 3016 3017 3018 3019 3020 3021 3022 3023 3024 3025 3026 3027 3028 3029 3030 3031 3032 3033 3034 3035 3036 3037 3038 3039 3040 3041 3042 3043 3044 3045 3046 3047 3048 3049 3050 3051 3052 3053 3054 3055 3056 3057 3058 3059 3060 3061 3062 3063 3064 3065 3066 3067 3068 3069 3070 3071 3072 3073 3074 3075 3076 3077 3078 3079 3080 3081 3082 3083 3084 3085 3086 3087 3088 3089 3090 3091 3092 3093 3094 3095 3096 3097 3098 3099 3100 3101 3102 3103 3104 3105 3106 3107 3108 3109 3110 3111 3112 3113 3114 3115 3116 3117 3118 3119 3120 3121 3122 3123 3124 3125 3126 3127 3128 3129 3130 3131 3132 3133 3134 3135 3136 3137 3138 3139 3140 3141 3142 3143 3144 3145 3146 3147 3148 3149 3150 3151 3152 3153 3154 3155 3156 3157 3158 3159 3160 3161 3162 3163 3164 3165 3166 3167 3168 3169 3170 3171 3172 3173 3174 3175 3176 3177 3178 3179 3180 3181 3182 3183 3184 3185 3186 3187 3188 3189 3190 3191 3192 3193 3194 3195 3196 3197 3198 3199 3200 3201 3202 3203 3204 3205 3206 3207 3208 3209 3210 3211 3212 3213 3214 3215 3216 3217 3218 3219 3220 3221 3222 3223 3224 3225 3226 3227 3228 3229 3230 3231 3232 3233 3234 3235 3236 3237 3238 3239 3240 3241 3242 3243 3244 3245 3246 3247 3248 3249 3250 3251 3252 3253 3254 3255 3256 3257 3258 3259 3260 3261 3262 3263 3264 3265 3266 3267 3268 3269 3270 3271 3272 3273 3274 3275 3276 3277 3278 3279 3280 3281 3282 3283 3284 3285 3286 3287 3288 3289 3290 3291 3292 3293 3294 3295 3296 3297 3298 3299 3300 3301 3302 3303 3304 3305 3306 3307 3308 3309 3310 3311 3312 3313 3314 3315 3316 3317 3318 3319 3320 3321 3322 3323 3324 3325 3326 3327 3328 3329 3330 3331 3332 3333 3334 3335 3336 3337 3338 3339 3340 3341 3342 3343 3344 3345 3346 3347 3348 3349 3350 3351 3352 3353 3354 3355 3356 3357 3358 3359 3360 3361 3362 3363 3364 3365 3366 3367 3368 3369 3370 3371 3372 3373 3374 3375 3376 3377 3378 3379 3380 3381 3382 3383 3384 3385 3386 3387 3388 3389 3390 3391 3392 3393 3394 3395 3396 3397 3398 3399 3400 3401 3402 3403 3404 3405 3406 3407 3408 3409 3410 3411 3412 3413 3414 3415 3416 3417 3418 3419 3420 3421 3422 3423 3424 3425 3426 3427 3428 3429 3430 3431 3432 3433 3434 3435 3436 3437 3438 3439 3440 3441 3442 3443 3444 3445 3446 3447 3448 3449 3450 3451 3452 3453 3454 3455 3456 3457 3458 3459 3460 3461 3462 3463 3464 3465 3466 3467 3468 3469 3470 3471 3472 3473 3474 3475 3476 3477 3478 3479 3480 3481 3482 3483 3484 3485 3486 3487 3488 3489 3490 3491 3492 3493 3494 3495 3496 3497 3498 3499 3500 3501 3502 3503 3504 3505 3506 3507 3508 3509 3510 3511 3512 3513 3514 3515 3516 3517 3518 3519 3520 3521 3522 3523 3524 3525 3526 3527 3528 3529 3530 3531 3532 3533 3534 3535 3536 3537 3538 3539 3540 3541 3542 3543 3544 3545 3546 3547 3548 3549 3550 3551 3552 3553 3554 3555 3556 3557 3558 3559 3560 3561 3562 3563 3564 3565 3566 3567 3568 3569 3570 3571 3572 3573 3574 3575 3576 3577 3578 3579 3580 3581 3582 3583 3584 3585 3586 3587 3588 3589 3590 3591 3592 3593 3594 3595 3596 3597 3598 3599 3600 3601 3602 3603 3604 3605 3606 3607 3608 3609 3610 3611 3612 3613 3614 3615 3616 3617 3618 3619 3620 3621 3622 3623 3624 3625 3626 3627 3628 3629 3630 3631 3632 3633 3634 3635 3636 3637 3638 3639 3640 3641 3642 3643 3644 3645 3646 3647 3648 3649 3650 3651 3652 3653 3654 3655 3656 3657 3658 3659 3660 3661 3662 3663 3664 3665 3666 3667 3668 3669 3670 3671 3672 3673 3674 3675 3676 3677 3678 3679 3680 3681 3682 3683 3684 3685 3686 3687 3688 3689 3690 3691 3692 3693 3694 3695 3696 3697 3698 3699 3700 3701 3702 3703 3704 3705 3706 3707 3708 3709 3710 3711 3712 3713 3714 3715 3716 3717 3718 3719 3720 3721 3722 3723 3724 3725 3726 3727 3728 3729 3730 3731 3732 3733 3734 3735 3736 3737 3738 3739 3740 3741 3742 3743 3744 3745 3746 3747 3748 3749 3750 3751 3752 3753 3754 3755 3756 3757 3758 3759 3760 3761 3762 3763 3764 3765 3766 3767 3768 3769 3770 3771 3772 3773 3774 3775 3776 3777 3778 3779 3780 3781 3782 3783 3784 3785 3786 3787 3788 3789 3790 3791 3792 3793 3794 3795 3796 3797 3798 3799 3800 3801 3802 3803 3804 3805 3806 3807 3808 3809 3810 3811 3812 3813 3814 3815 3816 3817 3818 3819 3820 3821 3822 3823 3824 3825 3826 3827 3828 3829 3830 3831 3832 3833 3834 3835 3836 3837 3838 3839 3840 3841 3842 3843 3844 3845 3846 3847 3848 3849 3850 3851 3852 3853 3854 3855 3856 3857 3858 3859 3860 3861 3862 3863 3864 3865 3866 3867 3868 3869 3870 3871 3872 3873 3874 3875 3876 3877 3878 3879 3880 3881 3882 3883 3884 3885 3886 3887 3888 3889 3890 3891 3892 3893 3894 3895 3896 3897 3898 3899 3900 3901 3902 3903 3904 3905 3906 3907 3908 3909 3910 3911 3912 3913 3914 3915 3916 3917 3918 3919 3920 3921 3922 3923 3924 3925 3926 3927 3928 3929 3930 3931 3932 3933 3934 3935 3936 3937 3938 3939 3940 3941 3942 3943 3944 3945 3946 3947 3948 3949 3950 3951 3952 3953 3954 3955 3956 3957 3958 3959 3960 3961 3962 3963 3964 3965 3966 3967 3968 3969 3970 3971 3972 3973 3974 3975 3976 3977 3978 3979 3980 3981 3982 3983 3984 3985 3986 3987 3988 3989 3990 3991 3992 3993 3994 3995 3996 3997 3998 3999 4000 4001 4002 4003 4004 4005 4006 4007 4008 4009 4010 4011 4012 4013 4014 4015 4016 4017 4018 4019 4020 4021 4022 4023 4024 4025 4026 4027 4028 4029 4030 4031 4032 4033 4034 4035 4036 4037 4038 4039 4040 4041 4042 4043 4044 4045 4046 4047 4048 4049 4050 4051 4052 4053 4054 4055 4056 4057 4058 4059 4060 4061 4062 4063 4064 4065 4066 4067 4068 4069 4070 4071 4072 4073 4074 4075 4076 4077 4078 4079 4080 4081 4082 4083 4084 4085 4086 4087 4088 4089 4090 4091 4092 4093 4094 4095 4096 4097 4098 4099 4100 4101 4102 4103 4104 4105 4106 4107 4108 4109 4110 4111 4112 4113 4114 4115 4116 4117 4118 4119 4120 4121 4122 4123 4124 4125 4126 4127 4128 4129 4130 4131 4132 4133 4134 4135 4136 4137 4138 4139 4140 4141 4142 4143 4144 4145 4146 4147 4148 4149 4150 4151 4152 4153 4154 4155 4156 4157 4158 4159 4160 4161 4162 4163 4164 4165 4166 4167 4168 4169 4170 4171 4172 4173 4174 4175 4176 4177 4178 4179 4180 4181 4182 4183 4184 4185 4186 4187 4188 4189 4190 4191 4192 4193 4194 4195 4196 4197 4198 4199 4200 4201 4202 4203 4204 4205 4206 4207 4208 4209 4210 4211 4212 4213 4214 4215 4216 4217 4218 4219 4220 4221 4222 4223 4224 4225 4226 4227 4228 4229 4230 4231 4232 4233 4234 4235 4236 4237 4238 4239 4240 4241 4242 4243 4244 4245 4246 4247 4248 4249 4250 4251 4252 4253 4254 4255 4256 4257 4258 4259 4260 4261 4262 4263 4264 4265 4266 4267 4268 4269 4270 4271 4272 4273 4274 4275 4276 4277 4278 4279 4280 4281 4282 4283 4284 4285 4286 4287 4288 4289 4290 4291 4292 4293 4294 4295 4296 4297 4298 4299 4300 4301 4302 4303 4304 4305 4306 4307 4308 4309 4310 4311 4312 4313 4314 4315 4316 4317 4318 4319 4320 4321 4322 4323 4324 4325 4326 4327 4328 4329 4330 4331 4332 4333 4334 4335 4336 4337 4338 4339 4340 4341 4342 4343 4344 4345 4346 4347 4348 4349 4350 4351 4352 4353 4354 4355 4356 4357 4358 4359 4360 4361 4362 4363 4364 4365 4366 4367 4368 4369 4370 4371 4372 4373 4374 4375 4376 4377 4378 4379 4380 4381 4382 4383 4384 4385 4386 4387 4388 4389 4390 4391 4392 4393 4394 4395 4396 4397 4398 4399 4400 4401 4402 4403 4404 4405 4406 4407 4408 4409 4410 4411 4412 4413 4414 4415 4416 4417 4418 4419 4420 4421 4422 4423 4424 4425 4426 4427 4428 4429 4430 4431 4432 4433 4434 4435 4436 4437 4438 4439 4440 4441 4442 4443 4444 4445 4446 4447 4448 4449 4450 4451 4452 4453 4454 4455 4456 4457 4458 4459 4460 4461 4462 4463 4464 4465 4466 4467 4468 4469 4470 4471 4472 4473 4474 4475 4476 4477 4478 4479 4480 4481 4482 4483 4484 4485 4486 4487 4488 4489 4490 4491 4492 4493 4494 4495 4496 4497 4498 4499 4500 4501 4502 4503 4504 4505 4506 4507 4508 4509 4510 4511 4512 4513 4514 4515 4516 4517 4518 4519 4520 4521 4522 4523 4524 4525 4526 4527 4528 4529 4530 4531 4532 4533 4534 4535 4536 4537 4538 4539 4540 4541 4542 4543 4544 4545 4546 4547 4548 4549 4550 4551 4552 4553 4554 4555 4556 4557 4558 4559 4560 4561 4562 4563 4564 4565 4566 4567 4568 4569 4570 4571 4572 4573 4574 4575 4576 4577 4578 4579 4580 4581 4582 4583 4584 4585 4586 4587 4588 4589 4590 4591 4592 4593 4594 4595 4596 4597 4598 4599 4600 4601 4602 4603 4604 4605 4606 4607 4608 4609 4610 4611 4612 4613 4614 4615 4616 4617 4618 4619 4620 4621 4622 4623 4624 4625 4626 4627 4628 4629 4630 4631 4632 4633 4634 4635 4636 4637 4638 4639 4640 4641 4642 4643 4644 4645 4646 4647 4648 4649 4650 4651 4652 4653 4654 4655 4656 4657 4658 4659 4660 4661 4662 4663 4664 4665 4666 4667 4668 4669 4670 4671 4672 4673 4674 4675 4676 4677 4678 4679 4680 4681 4682 4683 4684 4685 4686 4687 4688 4689 4690 4691 4692 4693 4694 4695 4696 4697 4698 4699 4700 4701 4702 4703 4704 4705 4706 4707 4708 4709 4710 4711 4712 4713 4714 4715 4716 4717 4718 4719 4720 4721 4722 4723 4724 4725 4726 4727 4728 4729 4730 4731 4732 4733 4734 4735 4736 4737 4738 4739 4740 4741 4742 4743 4744 4745 4746 4747 4748 4749 4750 4751 4752 4753 4754 4755 4756 4757 4758 4759 4760 4761 4762 4763 4764 4765 4766 4767 4768 4769 4770 4771 4772 4773 4774 4775 4776 4777 4778 4779 4780 4781 4782 4783 4784 4785 4786 4787 4788 4789 4790 4791 4792 4793 4794 4795 4796 4797 4798 4799 4800 4801 4802 4803 4804 4805 4806 4807 4808 4809 4810 4811 4812 4813 4814 4815 4816 4817 4818 4819 4820 4821 4822 4823 4824 4825 4826 4827 4828 4829 4830 4831 4832 4833 4834 4835 4836 4837 4838 4839 4840 4841 4842 4843 4844 4845 4846 4847 4848 4849 4850 4851 4852 4853 4854 4855 4856 4857 4858 4859 4860 4861 4862 4863 4864 4865 4866 4867 4868 4869 4870 4871 4872 4873 4874 4875 4876 4877 4878 4879 4880 4881 4882 4883 4884 4885 4886 4887 4888 4889 4890 4891 4892 4893 4894 4895 4896 4897 4898 4899 4900 4901 4902 4903 4904 4905 4906 4907 4908 4909 4910 4911 4912 4913 4914 4915 4916 4917 4918 4919 4920 4921 4922 4923 4924 4925 4926 4927 4928 4929 4930 4931 4932 4933 4934 4935 4936 4937 4938 4939 4940 4941 4942 4943 4944 4945 4946 4947 4948 4949 4950 4951 4952 4953 4954 4955 4956 4957 4958 4959 4960 4961 4962 4963 4964 4965 4966 4967 4968 4969 4970 4971 4972 4973 4974 4975 4976 4977 4978 4979 4980 4981 4982 4983 4984 4985 4986 4987 4988 4989 4990 4991 4992 4993 4994 4995 4996 4997 4998 4999 5000 5001 5002 5003 5004 5005 5006 5007 5008 5009 5010 5011 5012 5013 5014 5015 5016 5017 5018 5019 5020 5021 5022 5023 5024 5025 5026 5027 5028 5029 5030 5031 5032 5033 5034 5035 5036 5037 5038 5039 5040 5041 5042 5043 5044 5045 5046 5047 5048 5049 5050 5051 5052 5053 5054 5055 5056 5057 5058 5059 5060 5061 5062 5063 5064 5065 5066 5067 5068 5069 5070 5071 5072 5073 5074 5075 5076 5077 5078 5079 5080 5081 5082 5083 5084 5085 5086 5087 5088 5089 5090 5091 5092 5093 5094 5095 5096 5097 5098 5099 5100 5101 5102 5103 5104 5105 5106 5107 5108 5109 5110 5111 5112 5113 5114 5115 5116 5117 5118 5119 5120 5121 5122 5123 5124 5125 5126 5127 5128 5129 5130 5131 5132 5133 5134 5135 5136 5137 5138 5139 5140 5141 5142 5143 5144 5145 5146 5147 5148 5149 5150 5151 5152 5153 5154 5155 5156 5157 5158 5159 5160 5161 5162 5163 5164 5165 5166 5167 5168 5169 5170 5171 5172 5173 5174 5175 5176 5177 5178 5179 5180 5181 5182 5183 5184 5185 5186 5187 5188 5189 5190 5191 5192 5193 5194 5195 5196 5197 5198 5199 5200 5201 5202 5203 5204 5205 5206 5207 5208 5209 5210 5211 5212 5213 5214 5215 5216 5217 5218 5219 5220 5221 5222 5223 5224 5225 5226 5227 5228 5229 5230 5231 5232 5233 5234 5235 5236 5237 5238 5239 5240 5241 5242 5243 5244 5245 5246 5247 5248 5249 5250 5251 5252 5253 5254 5255 5256 5257 5258 5259 5260 5261 5262 5263 5264 5265 5266 5267 5268 5269 5270 5271 5272 5273 5274 5275 5276 5277 5278 5279 5280 5281 5282 5283 5284 5285 5286 5287 5288 5289 5290 5291 5292 5293 5294 5295 5296 5297 5298 5299 5300 5301 5302 5303 5304 5305 5306 5307 5308 5309 5310 5311 5312 5313 5314 5315 5316 5317 5318 5319 5320 5321 5322 5323 5324 5325 5326 5327 5328 5329 5330 5331 5332 5333 5334 5335 5336 5337 5338 5339 5340 5341 5342 5343 5344 5345 5346 5347 5348 5349 5350 5351 5352 5353 5354 5355 5356 5357 5358 5359 5360 5361 5362 5363 5364 5365 5366 5367 5368 5369 5370 5371 5372 5373 5374 5375 5376 5377 5378 5379 5380 5381 5382 5383 5384 5385 5386 5387 5388 5389 5390 5391 5392 5393 5394 5395 5396 5397 5398 5399 5400 5401 5402 5403 5404 5405 5406 5407 5408 5409 5410 5411 5412 5413 5414 5415 5416 5417 5418 5419 5420 5421 5422 5423 5424 5425 5426 5427 5428 5429 5430 5431 5432 5433 5434 5435 5436 5437 5438 5439 5440 5441 5442 5443 5444 5445 5446 5447 5448 5449 5450 5451 5452 5453 5454 5455 5456 5457 5458 5459 5460 5461 5462 5463 5464 5465 5466 5467 5468 5469 5470 5471 5472 5473 5474 5475 5476 5477 5478 5479 5480 5481 5482 5483 5484 5485 5486 5487 5488 5489 5490 5491 5492 5493 5494 5495 5496 5497 5498 5499 5500 5501 5502 5503 5504 5505 5506 5507 5508 5509 5510 5511 5512 5513 5514 5515 5516 5517 5518 5519 5520 5521 5522 5523 5524 5525 5526 5527 5528 5529 5530 5531 5532 5533 5534 5535 5536 5537 5538 5539 5540 5541 5542 5543 5544 5545 5546 5547 5548 5549 5550 5551 5552 5553 5554 5555 5556 5557 5558 5559 5560 5561 5562 5563 5564 5565 5566 5567 5568 5569 5570 5571 5572 5573 5574 5575 5576 5577 5578 5579 5580 5581 5582 5583 5584 5585 5586 5587 5588 5589 5590 5591 5592 5593 5594 5595 5596 5597 5598 5599 5600 5601 5602 5603 5604 5605 5606 5607 5608 5609 5610 5611 5612 5613 5614 5615 5616 5617 5618 5619 5620 5621 5622 5623 5624 5625 5626 5627 5628 5629 5630 5631 5632 5633 5634 5635 5636 5637 5638 5639 5640 5641 5642 5643 5644 5645 5646 5647 5648 5649 5650 5651 5652 5653 5654 5655 5656 5657 5658 5659 5660 5661 5662 5663 5664 5665 5666 5667 5668 5669 5670 5671 5672 5673 5674 5675 5676 5677 5678 5679 5680 5681 5682 5683 5684 5685 5686 5687 5688 5689 5690 5691 5692 5693 5694 5695 5696 5697 5698 5699 5700 5701 5702 5703 5704 5705 5706 5707 5708 5709 5710 5711 5712 5713 5714 5715 5716 5717 5718 5719 5720 5721 5722 5723 5724 5725 5726 5727 5728 5729 5730 5731 5732 5733 5734 5735 5736 5737 5738 5739 5740 5741 5742 5743 5744 5745 5746 5747 5748 5749 5750 5751 5752 5753 5754 5755 5756 5757 5758 5759 5760 5761 5762 5763 5764 5765 5766 5767 5768 5769 5770 5771 5772 5773 5774 5775 5776 5777 5778 5779 5780 5781 5782 5783 5784 5785 5786 5787 5788 5789 5790 5791 5792 5793 5794 5795 5796 5797 5798 5799 5800 5801 5802 5803 5804 5805 5806 5807 5808 5809 5810 5811 5812 5813 5814 5815 5816 5817 5818 5819 5820 5821 5822 5823 5824 5825 5826 5827 5828 5829 5830 5831 5832 5833 5834 5835 5836 5837 5838 5839 5840 5841 5842 5843 5844 5845 5846 5847 5848 5849 5850 5851 5852 5853 5854 5855 5856 5857 5858 5859 5860 5861 5862 5863 5864 5865 5866 5867 5868 5869 5870 5871 5872 5873 5874 5875 5876 5877 5878 5879 5880 5881 5882 5883 5884 5885 5886 5887 5888 5889 5890 5891 5892 5893 5894 5895 5896 5897 5898 5899 5900 5901 5902 5903 5904 5905 5906 5907 5908 5909 5910 5911 5912 5913 5914 5915 5916 5917 5918 5919 5920 5921 5922 5923 5924 5925 5926 5927 5928 5929 5930 5931 5932 5933 5934 5935 5936 5937 5938 5939 5940 5941 5942 5943 5944 5945 5946 5947 5948 5949 5950 5951 5952 5953 5954 5955 5956 5957 5958 5959 5960 5961 5962 5963 5964 5965 5966 5967 5968 5969 5970 5971 5972 5973 5974 5975 5976 5977 5978 5979 5980 5981 5982 5983 5984 5985 5986 5987 5988 5989 5990 5991 5992 5993 5994 5995 5996 5997 5998 5999 6000 6001 6002 6003 6004 6005 6006 6007 6008 6009 6010 6011 6012 6013 6014 6015 6016 6017 6018 6019 6020 6021 6022 6023 6024 6025 6026 6027 6028 6029 6030 6031 6032 6033 6034 6035 6036 6037 6038 6039 6040 6041 6042 6043 6044 6045 6046 6047 6048 6049 6050 6051 6052 6053 6054 6055 6056 6057 6058 6059 6060 6061 6062 6063 6064 6065 6066 6067 6068 6069 6070 6071 6072 6073 6074 6075 6076 6077 6078 6079 6080 6081 6082 6083 6084 6085 6086 6087 6088 6089 6090 6091 6092 6093 6094 6095 6096 6097 6098 6099 6100 6101 6102 6103 6104 6105 6106 6107 6108 6109 6110 6111 6112 6113 6114 6115 6116 6117 6118 6119 6120 6121 6122 6123 6124 6125 6126 6127 6128 6129 6130 6131 6132 6133 6134 6135 6136 6137 6138 6139 6140 6141 6142 6143 6144 6145 6146 6147 6148 6149 6150 6151 6152 6153 6154 6155 6156 6157 6158 6159 6160 6161 6162 6163 6164 6165 6166 6167 6168 6169 6170 6171 6172 6173 6174 6175 6176 6177 6178 6179 6180 6181 6182 6183 6184 6185 6186 6187 6188 6189 6190 6191 6192 6193 6194 6195 6196 6197 6198 6199 6200 6201 6202 6203 6204 6205 6206 6207 6208 6209 6210 6211 6212 6213 6214 6215 6216 6217 6218 6219 6220 6221 6222 6223 6224 6225 6226 6227 6228 6229 6230 6231 6232 6233 6234 6235 6236 6237 6238 6239 6240 6241 6242 6243 6244 6245 6246 6247 6248 6249 6250 6251 6252 6253 6254 6255 6256 6257 6258 6259 6260 6261 6262 6263 6264 6265 6266 6267 6268 6269 6270 6271 6272 6273 6274 6275 6276 6277 6278 6279 6280 6281 6282 6283 6284 6285 6286 6287 6288 6289 6290 6291 6292 6293 6294 6295 6296 6297 6298 6299 6300 6301 6302 6303 6304 6305 6306 6307 6308 6309 6310 6311 6312 6313 6314 6315 6316 6317 6318 6319 6320 6321 6322 6323 6324 6325 6326 6327 6328 6329 6330 6331 6332 6333 6334 6335 6336 6337 6338 6339 6340 6341 6342 6343 6344 6345 6346 6347 6348 6349 6350 6351 6352 6353 6354 6355 6356 6357 6358 6359 6360 6361 6362 6363 6364 6365 6366 6367 6368 6369 6370 6371 6372 6373 6374 6375 6376 6377 6378 6379 6380 6381 6382 6383 6384 6385 6386 6387 6388 6389 6390 6391 6392 6393 6394 6395 6396 6397 6398 6399 6400 6401 6402 6403 6404 6405 6406 6407 6408 6409 6410 6411 6412 6413 6414 6415 6416 6417 6418 6419 6420 6421 6422 6423 6424 6425 6426 6427 6428 6429 6430 6431 6432 6433 6434 6435 6436 6437 6438 6439 6440 6441 6442 6443 6444 6445 6446 6447 6448 6449 6450 6451 6452 6453 6454 6455 6456 6457 6458 6459 6460 6461 6462 6463 6464 6465 6466 6467 6468 6469 6470 6471 6472 6473 6474 6475 6476 6477 6478 6479 6480 6481 6482 6483 6484 6485 6486 6487 6488 6489 6490 6491 6492 6493 6494 6495 6496 6497 6498 6499 6500 6501 6502 6503 6504 6505 6506 6507 6508 6509 6510 6511 6512 6513 6514 6515 6516 6517 6518 6519 6520 6521 6522 6523 6524 6525 6526 6527 6528 6529 6530 6531 6532 6533 6534 6535 6536 6537 6538 6539 6540 6541 6542 6543 6544 6545 6546 6547 6548 6549 6550 6551 6552 6553 6554 6555 6556 6557 6558 6559 6560 6561 6562 6563 6564 6565 6566 6567 6568 6569 6570 6571 6572 6573 6574 6575 6576 6577 6578 6579 6580 6581 6582 6583 6584 6585 6586 6587 6588 6589 6590 6591 6592 6593 6594 6595 6596 6597 6598 6599 6600 6601 6602 6603 6604 6605 6606 6607 6608 6609 6610 6611 6612 6613 6614 6615 6616 6617 6618 6619 6620 6621 6622 6623 6624 6625 6626 6627 6628 6629 6630 6631 6632 6633 6634 6635 6636 6637 6638 6639 6640 6641 6642 6643 6644 6645 6646 6647 6648 6649 6650 6651 6652 6653 6654 6655 6656 6657 6658 6659 6660 6661 6662 6663 6664 6665 6666 6667 6668 6669 6670 6671 6672 6673 6674 6675 6676 6677 6678 6679 6680 6681 6682 6683 6684 6685 6686 6687 6688 6689 6690 6691 6692 6693 6694 6695 6696 6697 6698 6699 6700 6701 6702 6703 6704 6705 6706 6707 6708 6709 6710 6711 6712 6713 6714 6715 6716 6717 6718 6719 6720 6721 6722 6723 6724 6725 6726 6727 6728 6729 6730 6731 6732 6733 6734 6735 6736 6737 6738 6739 6740 6741 6742 6743 6744 6745 6746 6747 6748 6749 6750 6751 6752 6753 6754 6755 6756 6757 6758 6759 6760 6761 6762 6763 6764 6765 6766 6767 6768 6769 6770 6771 6772 6773 6774 6775 6776 6777 6778 6779 6780 6781 6782 6783 6784 6785 6786 6787 6788 6789 6790 6791 6792 6793 6794 6795 6796 6797 6798 6799 6800 6801 6802 6803 6804 6805 6806 6807 6808 6809 6810 6811 6812 6813 6814 6815 6816 6817 6818 6819 6820 6821 6822 6823 6824 6825 6826 6827 6828 6829 6830 6831 6832 6833 6834 6835 6836 6837 6838 6839 6840 6841 6842 6843 6844 6845 6846 6847 6848 6849 6850 6851 6852 6853 6854 6855 6856 6857 6858 6859 6860 6861 6862 6863 6864 6865 6866 6867 6868 6869 6870 6871 6872 6873 6874 6875 6876 6877 6878 6879 6880 6881 6882 6883 6884 6885 6886 6887 6888 6889 6890 6891 6892 6893 6894 6895 6896 6897 6898 6899 6900 6901 6902 6903 6904 6905 6906 6907 6908 6909 6910 6911 6912 6913 6914 6915 6916 6917 6918 6919 6920 6921 6922 6923 6924 6925 6926 6927 6928 6929 6930 6931 6932 6933 6934 6935 6936 6937 6938 6939 6940 6941 6942 6943 6944 6945 6946 6947 6948 6949 6950 6951 6952 6953 6954 6955 6956 6957 6958 6959 6960 6961 6962 6963 6964 6965 6966 6967 6968 6969 6970 6971 6972 6973 6974 6975 6976 6977 6978 6979 6980 6981 6982 6983 6984 6985 6986 6987 6988 6989 6990 6991 6992 6993 6994 6995 6996 6997 6998 6999 7000 7001 7002 7003 7004 7005 7006 7007 7008 7009 7010 7011 7012 7013 7014 7015 7016 7017 7018 7019 7020 7021 7022 7023 7024 7025 7026 7027 7028 7029 7030 7031 7032 7033 7034 7035 7036 7037 7038 7039 7040 7041 7042 7043 7044 7045 7046 7047 7048 7049 7050 7051 7052 7053 7054 7055 7056 7057 7058 7059 7060 7061 7062 7063 7064 7065 7066 7067 7068 7069 7070 7071 7072 7073 7074 7075 7076 7077 7078 7079 7080 7081 7082 7083 7084 7085 7086 7087 7088 7089 7090 7091 7092 7093 7094 7095 7096 7097 7098 7099 7100 7101 7102 7103 7104 7105 7106 7107 7108 7109 7110 7111 7112 7113 7114 7115 7116 7117 7118 7119 7120 7121 7122 7123 7124 7125 7126 7127 7128 7129 7130 7131 7132 7133 7134 7135 7136 7137 7138 7139 7140 7141 7142 7143 7144 7145 7146 7147 7148 7149 7150 7151 7152 7153 7154 7155 7156 7157 7158 7159 7160 7161 7162 7163 7164 7165 7166 7167 7168 7169 7170 7171 7172 7173 7174 7175 7176 7177 7178 7179 7180 7181 7182 7183 7184 7185 7186 7187 7188 7189 7190 7191 7192 7193 7194 7195 7196 7197 7198 7199 7200 7201 7202 7203 7204 7205 7206 7207 7208 7209 7210 7211 7212 7213 7214 7215 7216 7217 7218 7219 7220 7221 7222 7223 7224 7225 7226 7227 7228 7229 7230 7231 7232 7233 7234 7235 7236 7237 7238 7239 7240 7241 7242 7243 7244 7245 7246 7247 7248 7249 7250 7251 7252 7253 7254 7255 7256 7257 7258 7259 7260 7261 7262 7263 7264 7265 7266 7267 7268 7269 7270 7271 7272 7273 7274 7275 7276 7277 7278 7279 7280 7281 7282 7283 7284 7285 7286 7287 7288 7289 7290 7291 7292 7293 7294 7295 7296 7297 7298 7299 7300 7301 7302 7303 7304 7305 7306 7307 7308 7309 7310 7311 7312 7313 7314 7315 7316 7317 7318 7319 7320 7321 7322 7323 7324 7325 7326 7327 7328 7329 7330 7331 7332 7333 7334 7335 7336 7337 7338 7339 7340 7341 7342 7343 7344 7345 7346 7347 7348 7349 7350 7351 7352 7353 7354 7355 7356 7357 7358 7359 7360 7361 7362 7363 7364 7365 7366 7367 7368 7369 7370 7371 7372 7373 7374 7375 7376 7377 7378 7379 7380 7381 7382 7383 7384 7385 7386 7387 7388 7389 7390 7391 7392 7393 7394 7395 7396 7397 7398 7399 7400 7401 7402 7403 7404 7405 7406 7407 7408 7409 7410 7411 7412 7413 7414 7415 7416 7417 7418 7419 7420 7421 7422 7423 7424 7425 7426 7427 7428 7429 7430 7431 7432 7433 7434 7435 7436 7437 7438 7439 7440 7441 7442 7443 7444 7445 7446 7447 7448 7449 7450 7451 7452 7453 7454 7455 7456 7457 7458 7459 7460 7461 7462 7463 7464 7465 7466 7467 7468 7469 7470 7471 7472 7473 7474 7475 7476 7477 7478 7479 7480 7481 7482 7483 7484 7485 7486 7487 7488 7489 7490 7491 7492 7493 7494 7495 7496 7497 7498 7499 7500 7501 7502 7503 7504 7505 7506 7507 7508 7509 7510 7511 7512 7513 7514 7515 7516 7517 7518 7519 7520 7521 7522 7523 7524 7525 7526 7527 7528 7529 7530 7531 7532 7533 7534 7535 7536 7537 7538 7539 7540 7541 7542 7543 7544 7545 7546 7547 7548 7549 7550 7551 7552 7553 7554 7555 7556 7557 7558 7559 7560 7561 7562 7563 7564 7565 7566 7567 7568 7569 7570 7571 7572 7573 7574 7575 7576 7577 7578 7579 7580 7581 7582 7583 7584 7585 7586 7587 7588 7589 7590 7591 7592 7593 7594 7595 7596 7597 7598 7599 7600 7601 7602 7603 7604 7605 7606 7607 7608 7609 7610 7611 7612 7613 7614 7615 7616 7617 7618 7619 7620 7621 7622 7623 7624 7625 7626 7627 7628 7629 7630 7631 7632 7633 7634 7635 7636 7637 7638 7639 7640 7641 7642 7643 7644 7645 7646 7647 7648 7649 7650 7651 7652 7653 7654 7655 7656 7657 7658 7659 7660 7661 7662 7663 7664 7665 7666 7667 7668 7669 7670 7671 7672 7673 7674 7675 7676 7677 7678 7679 7680 7681 7682 7683 7684 7685 7686 7687 7688 7689 7690 7691 7692 7693 7694 7695 7696 7697 7698 7699 7700 7701 7702 7703 7704 7705 7706 7707 7708 7709 7710 7711 7712 7713 7714 7715 7716 7717 7718 7719 7720 7721 7722 7723 7724 7725 7726 7727 7728 7729 7730 7731 7732 7733 7734 7735 7736 7737 7738 7739 7740 7741 7742 7743 7744 7745 7746 7747 7748 7749 7750 7751 7752 7753 7754 7755 7756 7757 7758 7759 7760 7761 7762 7763 7764 7765 7766 7767 7768 7769 7770 7771 7772 7773 7774 7775 7776 7777 7778 7779 7780 7781 7782 7783 7784 7785 7786 7787 7788 7789 7790 7791 7792 7793 7794 7795 7796 7797 7798 7799 7800 7801 7802 7803 7804 7805 7806 7807 7808 7809 7810 7811 7812 7813 7814 7815 7816 7817 7818 7819 7820 7821 7822 7823 7824 7825 7826 7827 7828 7829 7830 7831 7832 7833 7834 7835 7836 7837 7838 7839 7840 7841 7842 7843 7844 7845 7846 7847 7848 7849 7850 7851 7852 7853 7854 7855 7856 7857 7858 7859 7860 7861 7862 7863 7864 7865 7866 7867 7868 7869 7870 7871 7872 7873 7874 7875 7876 7877 7878 7879 7880 7881 7882 7883 7884 7885 7886 7887 7888 7889 7890 7891 7892 7893 7894 7895 7896 7897 7898 7899 7900 7901 7902 7903 7904 7905 7906 7907 7908 7909 7910 7911 7912 7913 7914 7915 7916 7917 7918 7919 7920 7921 7922 7923 7924 7925 7926 7927 7928 7929 7930 7931 7932 7933 7934 7935 7936 7937 7938 7939 7940 7941 7942 7943 7944 7945 7946 7947 7948 7949 7950 7951 7952 7953 7954 7955 7956 7957 7958 7959 7960 7961 7962 7963 7964 7965 7966 7967 7968 7969 7970 7971 7972 7973 7974 7975 7976 7977 7978 7979 7980 7981 7982 7983 7984 7985 7986 7987 7988 7989 7990 7991 7992 7993 7994 7995 7996 7997 7998 7999 8000 8001 8002 8003 8004 8005 8006 8007 8008 8009 8010 8011 8012 8013 8014 8015 8016 8017 8018 8019 8020 8021 8022 8023 8024 8025 8026 8027 8028 8029 8030 8031 8032 8033 8034 8035 8036 8037 8038 8039 8040 8041 8042 8043 8044 8045 8046 8047 8048 8049 8050 8051 8052 8053 8054 8055 8056 8057 8058 8059 8060 8061 8062 8063 8064 8065 8066 8067 8068 8069 8070 8071 8072 8073 8074 8075 8076 8077 8078 8079 8080 8081 8082 8083 8084 8085 8086 8087 8088 8089 8090 8091 8092 8093 8094 8095 8096 8097 8098 8099 8100 8101 8102 8103 8104 8105 8106 8107 8108 8109 8110 8111 8112 8113 8114 8115 8116 8117 8118 8119 8120 8121 8122 8123 8124 8125 8126 8127 8128 8129 8130 8131 8132 8133 8134 8135 8136 8137 8138 8139 8140 8141 8142 8143 8144 8145 8146 8147 8148 8149 8150 8151 8152 8153 8154 8155 8156 8157 8158 8159 8160 8161 8162 8163 8164 8165 8166 8167 8168 8169 8170 8171 8172 8173 8174 8175 8176 8177 8178 8179 8180 8181 8182 8183 8184 8185 8186 8187 8188 8189 8190 8191 8192 8193 8194 8195 8196 8197 8198 8199 8200 8201 8202 8203 8204 8205 8206 8207 8208 8209 8210 8211 8212 8213 8214 8215 8216 8217 8218 8219 8220 8221 8222 8223 8224 8225 8226 8227 8228 8229 8230 8231 8232 8233 8234 8235 8236 8237 8238 8239 8240 8241 8242 8243 8244 8245 8246 8247 8248 8249 8250 8251 8252 8253 8254 8255 8256 8257 8258 8259 8260 8261 8262 8263 8264 8265 8266 8267 8268 8269 8270 8271 8272 8273 8274 8275 8276 8277 8278 8279 8280 8281 8282 8283 8284 8285 8286 8287 8288 8289 8290 8291 8292 8293 8294 8295 8296 8297 8298 8299 8300 8301 8302 8303 8304 8305 8306 8307 8308 8309 8310 8311 8312 8313 8314 8315 8316 8317 8318 8319 8320 8321 8322 8323 8324 8325 8326 8327 8328 8329 8330 8331 8332 8333 8334 8335 8336 8337 8338 8339 8340 8341 8342 8343 8344 8345 8346 8347 8348 8349 8350 8351 8352 8353 8354 8355 8356 8357 8358 8359 8360 8361 8362 8363 8364 8365 8366 8367 8368 8369 8370 8371 8372 8373 8374 8375 8376 8377 8378 8379 8380 8381 8382 8383 8384 8385 8386 8387 8388 8389 8390 8391 8392 8393 8394 8395 8396 8397 8398 8399 8400 8401 8402 8403 8404 8405 8406 8407 8408 8409 8410 8411 8412 8413 8414 8415 8416 8417 8418 8419 8420 8421 8422 8423 8424 8425 8426 8427 8428 8429 8430 8431 8432 8433 8434 8435 8436 8437 8438 8439 8440 8441 8442 8443 8444 8445 8446 8447 8448 8449 8450 8451 8452 8453 8454 8455 8456 8457 8458 8459 8460 8461 8462 8463 8464 8465 8466 8467 8468 8469 8470 8471 8472 8473 8474 8475 8476 8477 8478 8479 8480 8481 8482 8483 8484 8485 8486 8487 8488 8489 8490 8491 8492 8493 8494 8495 8496 8497 8498 8499 8500 8501 8502 8503 8504 8505 8506 8507 8508 8509 8510 8511 8512 8513 8514 8515 8516 8517 8518 8519 8520 8521 8522 8523 8524 8525 8526 8527 8528 8529 8530 8531 8532 8533 8534 8535 8536 8537 8538 8539 8540 8541 8542 8543 8544 8545 8546 8547 8548 8549 8550 8551 8552 8553 8554 8555 8556 8557 8558 8559 8560 8561 8562 8563 8564 8565 8566 8567 8568 8569 8570 8571 8572 8573 8574 8575 8576 8577 8578 8579 8580 8581 8582 8583 8584 8585 8586 8587 8588 8589 8590 8591 8592 8593 8594 8595 8596 8597 8598 8599 8600 8601 8602 8603 8604 8605 8606 8607 8608 8609 8610 8611 8612 8613 8614 8615 8616 8617 8618 8619 8620 8621 8622 8623 8624 8625 8626 8627 8628 8629 8630 8631 8632 8633 8634 8635 8636 8637 8638 8639 8640 8641 8642 8643 8644 8645 8646 8647 8648 8649 8650 8651 8652 8653 8654 8655 8656 8657 8658 8659 8660 8661 8662 8663 8664 8665 8666 8667 8668 8669 8670 8671 8672 8673 8674 8675 8676 8677 8678 8679 8680 8681 8682 8683 8684 8685 8686 8687 8688 8689 8690 8691 8692 8693 8694 8695 8696 8697 8698 8699 8700 8701 8702 8703 8704 8705 8706 8707 8708 8709 8710 8711 8712 8713 8714 8715 8716 8717 8718 8719 8720 8721 8722 8723 8724 8725 8726 8727 8728 8729 8730 8731 8732 8733 8734 8735 8736 8737 8738 8739 8740 8741 8742 8743 8744 8745 8746 8747 8748 8749 8750 8751 8752 8753 8754 8755 8756 8757 8758 8759 8760 8761 8762 8763 8764 8765 8766 8767 8768 8769 8770 8771 8772 8773 8774 8775 8776 8777 8778 8779 8780 8781 8782 8783 8784 8785 8786 8787 8788 8789 8790 8791 8792 8793 8794 8795 8796 8797 8798 8799 8800 8801 8802 8803 8804 8805 8806 8807 8808 8809 8810 8811 8812 8813 8814 8815 8816 8817 8818 8819 8820 8821 8822 8823 8824 8825 8826 8827 8828 8829 8830 8831 8832 8833 8834 8835 8836 8837 8838 8839 8840 8841 8842 8843 8844 8845 8846 8847 8848 8849 8850 8851 8852 8853 8854 8855 8856 8857 8858 8859 8860 8861 8862 8863 8864 8865 8866 8867 8868 8869 8870 8871 8872 8873 8874 8875 8876 8877 8878 8879 8880 8881 8882 8883 8884 8885 8886 8887 8888 8889 8890 8891 8892 8893 8894 8895 8896 8897 8898 8899 8900 8901 8902 8903 8904 8905 8906 8907 8908 8909 8910 8911 8912 8913 8914 8915 8916 8917 8918 8919 8920 8921 8922 8923 8924 8925 8926 8927 8928 8929 8930 8931 8932 8933 8934 8935 8936 8937 8938 8939 8940 8941 8942 8943 8944 8945 8946 8947 8948 8949 8950 8951 8952 8953 8954 8955 8956 8957 8958 8959 8960 8961 8962 8963 8964 8965 8966 8967 8968 8969 8970 8971 8972 8973 8974 8975 8976 8977 8978 8979 8980 8981 8982 8983 8984 8985 8986 8987 8988 8989 8990 8991 8992 8993 8994 8995 8996 8997 8998 8999 9000 9001 9002 9003 9004 9005 9006 9007 9008 9009 9010 9011 9012 9013 9014 9015 9016 9017 9018 9019 9020 9021 9022 9023 9024 9025 9026 9027 9028 9029 9030 9031 9032 9033 9034 9035 9036 9037 9038 9039 9040 9041 9042 9043 9044 9045 9046 9047 9048 9049 9050 9051 9052 9053 9054 9055 9056 9057 9058 9059 9060 9061 9062 9063 9064 9065 9066 9067 9068 9069 9070 9071 9072 9073 9074 9075 9076 9077 9078 9079 9080 9081 9082 9083 9084 9085 9086 9087 9088 9089 9090 9091 9092 9093 9094 9095 9096 9097 9098 9099 9100 9101 9102 9103 9104 9105 9106 9107 9108 9109 9110 9111 9112 9113 9114 9115 9116 9117 9118 9119 9120 9121 9122 9123 9124 9125 9126 9127 9128 9129 9130 9131 9132 9133 9134 9135 9136 9137 9138 9139 9140 9141 9142 9143 9144 9145 9146 9147 9148 9149 9150 9151 9152 9153 9154 9155 9156 9157 9158 9159 9160 9161 9162 9163 9164 9165 9166 9167 9168 9169 9170 9171 9172 9173 9174 9175 9176 9177 9178 9179 9180 9181 9182 9183 9184 9185 9186 9187 9188 9189 9190 9191 9192 9193 9194 9195 9196 9197 9198 9199 9200 9201 9202 9203 9204 9205 9206 9207 9208 9209 9210 9211 9212 9213 9214 9215 9216 9217 9218 9219 9220 9221 9222 9223 9224 9225 9226 9227 9228 9229 9230 9231 9232 9233 9234 9235 9236 9237 9238 9239 9240 9241 9242 9243 9244 9245 9246 9247 9248 9249 9250 9251 9252 9253 9254 9255 9256 9257 9258 9259 9260 9261 9262 9263 9264 9265 9266 9267 9268 9269 9270 9271 9272 9273 9274 9275 9276 9277 9278 9279 9280 9281 9282 9283 9284 9285 9286 9287 9288 9289 9290 9291 9292 9293 9294 9295 9296 9297 9298 9299 9300 9301 9302 9303 9304 9305 9306 9307 9308 9309 9310 9311 9312 9313 9314 9315 9316 9317 9318 9319 9320 9321 9322 9323 9324 9325 9326 9327 9328 9329 9330 9331 9332 9333 9334 9335 9336 9337 9338 9339 9340 9341 9342 9343 9344 9345 9346 9347 9348 9349 9350 9351 9352 9353 9354 9355 9356 9357 9358 9359 9360 9361 9362 9363 9364 9365 9366 9367 9368 9369 9370 9371 9372 9373 9374 9375 9376 9377 9378 9379 9380 9381 9382 9383 9384 9385 9386 9387 9388 9389 9390 9391 9392 9393 9394 9395 9396 9397 9398 9399 9400 9401 9402 9403 9404 9405 9406 9407 9408 9409 9410 9411 9412 9413 9414 9415 9416 9417 9418 9419 9420 9421 9422 9423 9424 9425 9426 9427 9428 9429 9430 9431 9432 9433 9434 9435 9436 9437 9438 9439 9440 9441 9442 9443 9444 9445 9446 9447 9448 9449 9450 9451 9452 9453 9454 9455 9456 9457 9458 9459 9460 9461 9462 9463 9464 9465 9466 9467 9468 9469 9470 9471 9472 9473 9474 9475 9476 9477 9478 9479 9480 9481 9482 9483 9484 9485 9486 9487 9488 9489 9490 9491 9492 9493 9494 9495 9496 9497 9498 9499 9500 9501 9502 9503 9504 9505 9506 9507 9508 9509 9510 9511 9512 9513 9514 9515 9516 9517 9518 9519 9520 9521 9522 9523 9524 9525 9526 9527 9528 9529 9530 9531 9532 9533 9534 9535 9536 9537 9538 9539 9540 9541 9542 9543 9544 9545 9546 9547 9548 9549 9550 9551 9552 9553 9554 9555 9556 9557 9558 9559 9560 9561 9562 9563 9564 9565 9566 9567 9568 9569 9570 9571 9572 9573 9574 9575 9576 9577 9578 9579 9580 9581 9582 9583 9584 9585 9586 9587 9588 9589 9590 9591 9592 9593 9594 9595 9596 9597 9598 9599 9600 9601 9602 9603 9604 9605 9606 9607 9608 9609 9610 9611 9612 9613 9614 9615 9616 9617 9618 9619 9620 9621 9622 9623 9624 9625 9626 9627 9628 9629 9630 9631 9632 9633 9634 9635 9636 9637 9638 9639 9640 9641 9642 9643 9644 9645 9646 9647 9648 9649 9650 9651 9652 9653 9654 9655 9656 9657 9658 9659 9660 9661 9662 9663 9664 9665 9666 9667 9668 9669 9670 9671 9672 9673 9674 9675 9676 9677 9678 9679 9680 9681 9682 9683 9684 9685 9686 9687 9688 9689 9690 9691 9692 9693 9694 9695 9696 9697 9698 9699 9700 9701 9702 9703 9704 9705 9706 9707 9708 9709 9710 9711 9712 9713 9714 9715 9716 9717 9718 9719 9720 9721 9722 9723 9724 9725 9726 9727 9728 9729 9730 9731 9732 9733 9734 9735 9736 9737 9738 9739 9740 9741 9742 9743 9744 9745 9746 9747 9748 9749 9750 9751 9752 9753 9754 9755 9756 9757 9758 9759 9760 9761 9762 9763 9764 9765 9766 9767 9768 9769 9770 9771 9772 9773 9774 9775 9776 9777 9778 9779 9780 9781 9782 9783 9784 9785 9786 9787 9788 9789 9790 9791 9792 9793 9794 9795 9796 9797 9798 9799 9800 9801 9802 9803 9804 9805 9806 9807 9808 9809 9810 9811 9812 9813 9814 9815 9816 9817 9818 9819 9820 9821 9822 9823 9824 9825 9826 9827 9828 9829 9830 9831 9832 9833 9834 9835 9836 9837 9838 9839 9840 9841 9842 9843 9844 9845 9846 9847 9848 9849 9850 9851 9852 9853 9854 9855 9856 9857 9858 9859 9860 9861 9862 9863 9864 9865 9866 9867 9868 9869 9870 9871 9872 9873 9874 9875 9876 9877 9878 9879 9880 9881 9882 9883 9884 9885 9886 9887 9888 9889 9890 9891 9892 9893 9894 9895 9896 9897 9898 9899 9900 9901 9902 9903 9904 9905 9906 9907 9908 9909 9910 9911 9912 9913 9914 9915 9916 9917 9918 9919 9920 9921 9922 9923 9924 9925 9926 9927 9928 9929 9930 9931 9932 9933 9934 9935 9936 9937 9938 9939 9940 9941 9942 9943 9944 9945 9946 9947 9948 9949 9950 9951 9952 9953 9954 9955 9956 9957 9958 9959 9960 9961 9962 9963 9964 9965 9966 9967 9968 9969 9970 9971 9972 9973 9974 9975 9976 9977 9978 9979 9980 9981 9982 9983 9984 9985 9986 9987 9988 9989 9990 9991 9992 9993 9994 9995 9996 9997 9998 9999 10000 10001 10002 10003 10004 10005 10006 10007 10008 10009 10010 10011 10012 10013 10014 10015 10016 10017 10018 10019 10020 10021 10022 10023 10024 10025 10026 10027 10028 10029 10030 10031 10032 10033 10034 10035 10036 10037 10038 10039 10040 10041 10042 10043 10044 10045 10046 10047 10048 10049 10050 10051 10052 10053 10054 10055 10056 10057 10058 10059 10060 10061 10062 10063 10064 10065 10066 10067 10068 10069 10070 10071 10072 10073 10074 10075 10076 10077 10078 10079 10080 10081 10082 10083 10084 10085 10086 10087 10088 10089 10090 10091 10092 10093 10094 10095 10096 10097 10098 10099 10100 10101 10102 10103 10104 10105 10106 10107 10108 10109 10110 10111 10112 10113 10114 10115 10116 10117 10118 10119 10120 10121 10122 10123 10124 10125 10126 10127 10128 10129 10130 10131 10132 10133 10134 10135 10136 10137 10138 10139 10140 10141 10142 10143 10144 10145 10146 10147 10148 10149 10150 10151 10152 10153 10154 10155 10156 10157 10158 10159 10160 10161 10162 10163 10164 10165 10166 10167 10168 10169 10170 10171 10172 10173 10174 10175 10176 10177 10178 10179 10180 10181 10182 10183 10184 10185 10186 10187 10188 10189 10190 10191 10192 10193 10194 10195 10196 10197 10198 10199 10200 10201 10202 10203 10204 10205 10206 10207 10208 10209 10210 10211 10212 10213 10214 10215 10216 10217 10218 10219 10220 10221 10222 10223 10224 10225 10226 10227 10228 10229 10230 10231 10232 10233 10234 10235 10236 10237 10238 10239 10240 10241 10242 10243 10244 10245 10246 10247 10248 10249 10250 10251 10252 10253 10254 10255 10256 10257 10258 10259 10260 10261 10262 10263 10264 10265 10266 10267 10268 10269 10270 10271 10272 10273 10274 10275 10276 10277 10278 10279 10280 10281 10282 10283 10284 10285 10286 10287 10288 10289 10290 10291 10292 10293 10294 10295 10296 10297 10298 10299 10300 10301 10302 10303 10304 10305 10306 10307 10308 10309 10310 10311 10312 10313 10314 10315 10316 10317 10318 10319 10320 10321 10322 10323 10324 10325 10326 10327 10328 10329 10330 10331 10332 10333 10334 10335 10336 10337 10338 10339 10340 10341 10342 10343 10344 10345 10346 10347 10348 10349 10350 10351 10352 10353 10354 10355 10356 10357 10358 10359 10360 10361 10362 10363 10364 10365 10366 10367 10368 10369 10370 10371 10372 10373 10374 10375 10376 10377 10378 10379 10380 10381 10382 10383 10384 10385 10386 10387 10388 10389 10390 10391 10392 10393 10394 10395 10396 10397 10398 10399 10400 10401 10402 10403 10404 10405 10406 10407 10408 10409 10410 10411 10412 10413 10414 10415 10416 10417 10418 10419 10420 10421 10422 10423 10424 10425 10426 10427 10428 10429 10430 10431 10432 10433 10434 10435 10436 10437 10438 10439 10440 10441 10442 10443 10444 10445 10446 10447 10448 10449 10450 10451 10452 10453 10454 10455 10456 10457 10458 10459 10460 10461 10462 10463 10464 10465 10466 10467 10468 10469 10470 10471 10472 10473 10474 10475 10476 10477 10478 10479 10480 10481 10482 10483 10484 10485 10486 10487 10488 10489 10490 10491 10492 10493 10494 10495 10496 10497 10498 10499 10500 10501 10502 10503 10504 10505 10506 10507 10508 10509 10510 10511 10512 10513 10514 10515 10516 10517 10518 10519 10520 10521 10522 10523 10524 10525 10526 10527 10528 10529 10530 10531 10532 10533 10534 10535 10536 10537 10538 10539 10540 10541 10542 10543 10544 10545 10546 10547 10548 10549 10550 10551 10552 10553 10554 10555 10556 10557 10558 10559 10560 10561 10562 10563 10564 10565 10566 10567 10568 10569 10570 10571 10572 10573 10574 10575 10576 10577 10578 10579 10580 10581 10582 10583 10584 10585 10586 10587 10588 10589 10590 10591 10592 10593 10594 10595 10596 10597 10598 10599 10600 10601 10602 10603 10604 10605 10606 10607 10608 10609 10610 10611 10612 10613 10614 10615 10616 10617 10618 10619 10620 10621 10622 10623 10624 10625 10626 10627 10628 10629 10630 10631 10632 10633 10634 10635 10636 10637 10638 10639 10640 10641 10642 10643 10644 10645 10646 10647 10648 10649 10650 10651 10652 10653 10654 10655 10656 10657 10658 10659 10660 10661 10662 10663 10664 10665 10666 10667 10668 10669 10670 10671 10672 10673 10674 10675 10676 10677 10678 10679 10680 10681 10682 10683 10684 10685 10686 10687 10688 10689 10690 10691 10692 10693 10694 10695 10696 10697 10698 10699 10700 10701 10702 10703 10704 10705 10706 10707 10708 10709 10710 10711 10712 10713 10714 10715 10716 10717 10718 10719 10720 10721 10722 10723 10724 10725 10726 10727 10728 10729 10730 10731 10732 10733 10734 10735 10736 10737 10738 10739 10740 10741 10742 10743 10744 10745 10746 10747 10748 10749 10750 10751 10752 10753 10754 10755 10756 10757 10758 10759 10760 10761 10762 10763 10764 10765 10766 10767 10768 10769 10770 10771 10772 10773 10774 10775 10776 10777 10778 10779 10780 10781 10782 10783 10784 10785 10786 10787 10788 10789 10790 10791 10792 10793 10794 10795 10796 10797 10798 10799 10800 10801 10802 10803 10804 10805 10806 10807 10808 10809 10810 10811 10812 10813 10814 10815 10816 10817 10818 10819 10820 10821 10822 10823 10824 10825 10826 10827 10828 10829 10830 10831 10832 10833 10834 10835 10836 10837 10838 10839 10840 10841 10842 10843 10844 10845 10846 10847 10848 10849 10850 10851 10852 10853 10854 10855 10856 10857 10858 10859 10860 10861 10862 10863 10864 10865 10866 10867 10868 10869 10870 10871 10872 10873 10874 10875 10876 10877 10878 10879 10880 10881 10882 10883 10884 10885 10886 10887 10888 10889 10890 10891 10892 10893 10894 10895 10896 10897 10898 10899 10900 10901 10902 10903 10904 10905 10906 10907 10908 10909 10910 10911 10912 10913 10914 10915 10916 10917 10918 10919 10920 10921 10922 10923 10924 10925 10926 10927 10928 10929 10930 10931 10932 10933 10934 10935 10936 10937 10938 10939 10940 10941 10942 10943 10944 10945 10946 10947 10948 10949 10950 10951 10952 10953 10954 10955 10956 10957 10958 10959 10960 10961 10962 10963 10964 10965 10966 10967 10968 10969 10970 10971 10972 10973 10974 10975 10976 10977 10978 10979 10980 10981 10982 10983 10984 10985 10986 10987 10988 10989 10990 10991 10992 10993 10994 10995 10996 10997 10998 10999 11000 11001 11002 11003 11004 11005 11006 11007 11008 11009 11010 11011 11012 11013 11014 11015 11016 11017 11018 11019 11020 11021 11022 11023 11024 11025 11026 11027 11028 11029 11030 11031 11032 11033 11034 11035 11036 11037 11038 11039 11040 11041 11042 11043 11044 11045 11046 11047 11048 11049 11050 11051 11052 11053 11054 11055 11056 11057 11058 11059 11060 11061 11062 11063 11064 11065 11066 11067 11068 11069 11070 11071 11072 11073 11074 11075 11076 11077 11078 11079 11080 11081 11082 11083 11084 11085 11086 11087 11088 11089 11090 11091 11092 11093 11094 11095 11096 11097 11098 11099 11100 11101 11102 11103 11104 11105 11106 11107 11108 11109 11110 11111 11112 11113 11114 11115 11116 11117 11118 11119 11120 11121 11122 11123 11124 11125 11126 11127 11128 11129 11130 11131 11132 11133 11134 11135 11136 11137 11138 11139 11140 11141 11142 11143 11144 11145 11146 11147 11148 11149 11150 11151 11152 11153 11154 11155 11156 11157 11158 11159 11160 11161 11162 11163 11164 11165 11166 11167 11168 11169 11170 11171 11172 11173 11174 11175 11176 11177 11178 11179 11180 11181 11182 11183 11184 11185 11186 11187 11188 11189 11190 11191 11192 11193 11194 11195 11196 11197 11198 11199 11200 11201 11202 11203 11204 11205 11206 11207 11208 11209 11210 11211 11212 11213 11214 11215 11216 11217 11218 11219 11220 11221 11222 11223 11224 11225 11226 11227 11228 11229 11230 11231 11232 11233 11234 11235 11236 11237 11238 11239 11240 11241 11242 11243 11244 11245 11246 11247 11248 11249 11250 11251 11252 11253 11254 11255 11256 11257 11258 11259 11260 11261 11262 11263 11264 11265 11266 11267 11268 11269 11270 11271 11272 11273 11274 11275 11276 11277 11278 11279 11280 11281 11282 11283 11284 11285 11286 11287 11288 11289 11290 11291 11292 11293 11294 11295 11296 11297 11298 11299 11300 11301 11302 11303 11304 11305 11306 11307 11308 11309 11310 11311 11312 11313 11314 11315 11316 11317 11318 11319 11320 11321 11322 11323 11324 11325 11326 11327 11328 11329 11330 11331 11332 11333 11334 11335 11336 11337 11338 11339 11340 11341 11342 11343 11344 11345 11346 11347 11348 11349 11350 11351 11352 11353 11354 11355 11356 11357 11358 11359 11360 11361 11362 11363 11364 11365 11366 11367 11368 11369 11370 11371 11372 11373 11374 11375 11376 11377 11378 11379 11380 11381 11382 11383 11384 11385 11386 11387 11388 11389 11390 11391 11392 11393 11394 11395 11396 11397 11398 11399 11400 11401 11402 11403 11404 11405 11406 11407 11408 11409 11410 11411 11412 11413 11414 11415 11416 11417 11418 11419 11420 11421 11422 11423 11424 11425 11426 11427 11428 11429 11430 11431 11432 11433 11434 11435 11436 11437 11438 11439 11440 11441 11442 11443 11444 11445 11446 11447 11448 11449 11450 11451 11452 11453 11454 11455 11456 11457 11458 11459 11460 11461 11462 11463 11464 11465 11466 11467 11468 11469 11470 11471 11472 11473 11474 11475 11476 11477 11478 11479 11480 11481 11482 11483 11484 11485 11486 11487 11488 11489 11490 11491 11492 11493 11494 11495 11496 11497 11498 11499 11500 11501 11502 11503 11504 11505 11506 11507 11508 11509 11510 11511 11512 11513 11514 11515 11516 11517 11518 11519 11520 11521 11522 11523 11524 11525 11526 11527 11528 11529 11530 11531 11532 11533 11534 11535 11536 11537 11538 11539 11540 11541 11542 11543 11544 11545 11546 11547 11548 11549 11550 11551 11552 11553 11554 11555 11556 11557 11558 11559 11560 11561 11562 11563 11564 11565 11566 11567 11568 11569 11570 11571 11572 11573 11574 11575 11576 11577 11578 11579 11580 11581 11582 11583 11584 11585 11586 11587 11588 11589 11590 11591 11592 11593 11594 11595 11596 11597 11598 11599 11600 11601 11602 11603 11604 11605 11606 11607 11608 11609 11610 11611 11612 11613 11614 11615 11616 11617 11618 11619 11620 11621 11622 11623 11624 11625 11626 11627 11628 11629 11630 11631 11632 11633 11634 11635 11636 11637 11638 11639 11640 11641 11642 11643 11644 11645 11646 11647 11648 11649 11650 11651 11652 11653 11654 11655 11656 11657 11658 11659 11660 11661 11662 11663 11664 11665 11666 11667 11668 11669 11670 11671 11672 11673 11674 11675 11676 11677 11678 11679 11680 11681 11682 11683 11684 11685 11686 11687 11688 11689 11690 11691 11692 11693 11694 11695 11696 11697 11698 11699 11700 11701 11702 11703 11704 11705 11706 11707 11708 11709 11710 11711 11712 11713 11714 11715 11716 11717 11718 11719 11720 11721 11722 11723 11724 11725 11726 11727 11728 11729 11730 11731 11732 11733 11734 11735 11736 11737 11738 11739 11740 11741 11742 11743 11744 11745 11746 11747 11748 11749 11750 11751 11752 11753 11754 11755 11756 11757 11758 11759 11760 11761 11762 11763 11764 11765 11766 11767 11768 11769 11770 11771 11772 11773 11774 11775 11776 11777 11778 11779 11780 11781 11782 11783 11784 11785 11786 11787 11788 11789 11790 11791 11792 11793 11794 11795 11796 11797 11798 11799 11800 11801 11802 11803 11804 11805 11806 11807 11808 11809 11810 11811 11812 11813 11814 11815 11816 11817 11818 11819 11820 11821 11822 11823 11824 11825 11826 11827 11828 11829 11830 11831 11832 11833 11834 11835 11836 11837 11838 11839 11840 11841 11842 11843 11844 11845 11846 11847 11848 11849 11850 11851 11852 11853 11854 11855 11856 11857 11858 11859 11860 11861 11862 11863 11864 11865 11866 11867 11868 11869 11870 11871 11872 11873 11874 11875 11876 11877 11878 11879 11880 11881 11882 11883 11884 11885 11886 11887 11888 11889 11890 11891 11892 11893 11894 11895 11896 11897 11898 11899 11900 11901 11902 11903 11904 11905 11906 11907 11908 11909 11910 11911 11912 11913 11914 11915 11916 11917 11918 11919 11920 11921 11922 11923 11924 11925 11926 11927 11928 11929 11930 11931 11932 11933 11934 11935 11936 11937 11938 11939 11940 11941 11942 11943 11944 11945 11946 11947 11948 11949 11950 11951 11952 11953 11954 11955 11956 11957 11958 11959 11960 11961 11962 11963 11964 11965 11966 11967 11968 11969 11970 11971 11972 11973 11974 11975 11976 11977 11978 11979 11980 11981 11982 11983 11984 11985 11986 11987 11988 11989 11990 11991 11992 11993 11994 11995 11996 11997 11998 11999 12000 12001 12002 12003 12004 12005 12006 12007 12008 12009 12010 12011 12012 12013 12014 12015 12016 12017 12018 12019 12020 12021 12022 12023 12024 12025 12026 12027 12028 12029 12030 12031 12032 12033 12034 12035 12036 12037 12038 12039 12040 12041 12042 12043 12044 12045 12046 12047 12048 12049 12050 12051 12052 12053 12054 12055 12056 12057 12058 12059 12060 12061 12062 12063 12064 12065 12066 12067 12068 12069 12070 12071 12072 12073 12074 12075 12076 12077 12078 12079 12080 12081 12082 12083 12084 12085 12086 12087 12088 12089 12090 12091 12092 12093 12094 12095 12096 12097 12098 12099 12100 12101 12102 12103 12104 12105 12106 12107 12108 12109 12110 12111 12112 12113 12114 12115 12116 12117 12118 12119 12120 12121 12122 12123 12124 12125 12126 12127 12128 12129 12130 12131 12132 12133 12134 12135 12136 12137 12138 12139 12140 12141 12142 12143 12144 12145 12146 12147 12148 12149 12150 12151 12152 12153 12154 12155 12156 12157 12158 12159 12160 12161 12162 12163 12164 12165 12166 12167 12168 12169 12170 12171 12172 12173 12174 12175 12176 12177 12178 12179 12180 12181 12182 12183 12184 12185 12186 12187 12188 12189 12190 12191 12192 12193 12194 12195 12196 12197 12198 12199 12200 12201 12202 12203 12204 12205 12206 12207 12208 12209 12210 12211 12212 12213 12214 12215 12216 12217 12218 12219 12220 12221 12222 12223 12224 12225 12226 12227 12228 12229 12230 12231 12232 12233 12234 12235 12236 12237 12238 12239 12240 12241 12242 12243 12244 12245 12246 12247 12248 12249 12250 12251 12252 12253 12254 12255 12256 12257 12258 12259 12260 12261 12262 12263 12264 12265 12266 12267 12268 12269 12270 12271 12272 12273 12274 12275 12276 12277 12278 12279 12280 12281 12282 12283 12284 12285 12286 12287 12288 12289 12290 12291 12292 12293 12294 12295 12296 12297 12298 12299 12300 12301 12302 12303 12304 12305 12306 12307 12308 12309 12310 12311 12312 12313 12314 12315 12316 12317 12318 12319 12320 12321 12322 12323 12324 12325 12326 12327 12328 12329 12330 12331 12332 12333 12334 12335 12336 12337 12338 12339 12340 12341 12342 12343 12344 12345 12346 12347 12348 12349 12350 12351 12352 12353 12354 12355 12356 12357 12358 12359 12360 12361 12362 12363 12364 12365 12366 12367 12368 12369 12370 12371 12372 12373 12374 12375 12376 12377 12378 12379 12380 12381 12382 12383 12384 12385 12386 12387 12388 12389 12390 12391 12392 12393 12394 12395 12396 12397 12398 12399 12400 12401 12402 12403 12404 12405 12406 12407 12408 12409 12410 12411 12412 12413 12414 12415 12416 12417 12418 12419 12420 12421 12422 12423 12424 12425 12426 12427 12428 12429 12430 12431 12432 12433 12434 12435 12436 12437 12438 12439 12440 12441 12442 12443 12444 12445 12446 12447 12448 12449 12450 12451 12452 12453 12454 12455 12456 12457 12458 12459 12460 12461 12462 12463 12464 12465 12466 12467 12468 12469 12470 12471 12472 12473 12474 12475 12476 12477 12478 12479 12480 12481 12482 12483 12484 12485 12486 12487 12488 12489 12490 12491 12492 12493 12494 12495 12496 12497 12498 12499 12500 12501 12502 12503 12504 12505 12506 12507 12508 12509 12510 12511 12512 12513 12514 12515 12516 12517 12518 12519 12520 12521 12522 12523 12524 12525 12526 12527 12528 12529 12530 12531 12532 12533 12534 12535 12536 12537 12538 12539 12540 12541 12542 12543 12544 12545 12546 12547 12548 12549 12550 12551 12552 12553 12554 12555 12556 12557 12558 12559 12560 12561 12562 12563 12564 12565 12566 12567 12568 12569 12570 12571 12572 12573 12574 12575 12576 12577 12578 12579 12580 12581 12582 12583 12584 12585 12586 12587 12588 12589 12590 12591 12592 12593 12594 12595 12596 12597 12598 12599 12600 12601 12602 12603 12604 12605 12606 12607 12608 12609 12610 12611 12612 12613 12614 12615 12616 12617 12618 12619 12620 12621 12622 12623 12624 12625 12626 12627 12628 12629 12630 12631 12632 12633 12634 12635 12636 12637 12638 12639 12640 12641 12642 12643 12644 12645 12646 12647 12648 12649 12650 12651 12652 12653 12654 12655 12656 12657 12658 12659 12660 12661 12662 12663 12664 12665 12666 12667 12668 12669 12670 12671 12672 12673 12674 12675 12676 12677 12678 12679 12680 12681 12682 12683 12684 12685 12686 12687 12688 12689 12690 12691 12692 12693 12694 12695 12696 12697 12698 12699 12700 12701 12702 12703 12704 12705 12706 12707 12708 12709 12710 12711 12712 12713 12714 12715 12716 12717 12718 12719 12720 12721 12722 12723 12724 12725 12726 12727 12728 12729 12730 12731 12732 12733 12734 12735 12736 12737 12738 12739 12740 12741 12742 12743 12744 12745 12746 12747 12748 12749 12750 12751 12752 12753 12754 12755 12756 12757 12758 12759 12760 12761 12762 12763 12764 12765 12766 12767 12768 12769 12770 12771 12772 12773 12774 12775 12776 12777 12778 12779 12780 12781 12782 12783 12784 12785 12786 12787 12788 12789 12790 12791 12792 12793 12794 12795 12796 12797 12798 12799 12800 12801 12802 12803 12804 12805 12806 12807 12808 12809 12810 12811 12812 12813 12814 12815 12816 12817 12818 12819 12820 12821 12822 12823 12824 12825 12826 12827 12828 12829 12830 12831 12832 12833 12834 12835 12836 12837 12838 12839 12840 12841 12842 12843 12844 12845 12846 12847 12848 12849 12850 12851 12852 12853 12854 12855 12856 12857 12858 12859 12860 12861 12862 12863 12864 12865 12866 12867 12868 12869 12870 12871 12872 12873 12874 12875 12876 12877 12878 12879 12880 12881 12882 12883 12884 12885 12886 12887 12888 12889 12890 12891 12892 12893 12894 12895 12896 12897 12898 12899 12900 12901 12902 12903 12904 12905 12906 12907 12908 12909 12910 12911 12912 12913 12914 12915 12916 12917 12918 12919 12920 12921 12922 12923 12924 12925 12926 12927 12928 12929 12930 12931 12932 12933 12934 12935 12936 12937 12938 12939 12940 12941 12942 12943 12944 12945 12946 12947 12948 12949 12950 12951 12952 12953 12954 12955 12956 12957 12958 12959 12960 12961 12962 12963 12964 12965 12966 12967 12968 12969 12970 12971 12972 12973 12974 12975 12976 12977 12978 12979 12980 12981 12982 12983 12984 12985 12986 12987 12988 12989 12990 12991 12992 12993 12994 12995 12996 12997 12998 12999 13000 13001 13002 13003 13004 13005 13006 13007 13008 13009 13010 13011 13012 13013 13014 13015 13016 13017 13018 13019 13020 13021 13022 13023 13024 13025 13026 13027 13028 13029 13030 13031 13032 13033 13034 13035 13036 13037 13038 13039 13040 13041 13042 13043 13044 13045 13046 13047 13048 13049 13050 13051 13052 13053 13054 13055 13056 13057 13058 13059 13060 13061 13062 13063 13064 13065 13066 13067 13068 13069 13070 13071 13072 13073 13074 13075 13076 13077 13078 13079 13080 13081 13082 13083 13084 13085 13086 13087 13088 13089 13090 13091 13092 13093 13094 13095 13096 13097 13098 13099 13100 13101 13102 13103 13104 13105 13106 13107 13108 13109 13110 13111 13112 13113 13114 13115 13116 13117 13118 13119 13120 13121 13122 13123 13124 13125 13126 13127 13128 13129 13130 13131 13132 13133 13134 13135 13136 13137 13138 13139 13140 13141 13142 13143 13144 13145 13146 13147 13148 13149 13150 13151 13152 13153 13154 13155 13156 13157 13158 13159 13160 13161 13162 13163 13164 13165 13166 13167 13168 13169 13170 13171 13172 13173 13174 13175 13176 13177 13178 13179 13180 13181 13182 13183 13184 13185 13186 13187 13188 13189 13190 13191 13192 13193 13194 13195 13196 13197 13198 13199 13200 13201 13202 13203 13204 13205 13206 13207 13208 13209 13210 13211 13212 13213 13214 13215 13216 13217 13218 13219 13220 13221 13222 13223 13224 13225 13226 13227 13228 13229 13230 13231 13232 13233 13234 13235 13236 13237 13238 13239 13240 13241 13242 13243 13244 13245 13246 13247 13248 13249 13250 13251 13252 13253 13254 13255 13256 13257 13258 13259 13260 13261 13262 13263 13264 13265 13266 13267 13268 13269 13270 13271 13272 13273 13274 13275 13276 13277 13278 13279 13280 13281 13282 13283 13284 13285 13286 13287 13288 13289 13290 13291 13292 13293 13294 13295 13296 13297 13298 13299 13300 13301 13302 13303 13304 13305 13306 13307 13308 13309 13310 13311 13312 13313 13314 13315 13316 13317 13318 13319 13320 13321 13322 13323 13324 13325 13326 13327 13328 13329 13330 13331 13332 13333 13334 13335 13336 13337 13338 13339 13340 13341 13342 13343 13344 13345 13346 13347 13348 13349 13350 13351 13352 13353 13354 13355 13356 13357 13358 13359 13360 13361 13362 13363 13364 13365 13366 13367 13368 13369 13370 13371 13372 13373 13374 13375 13376 13377 13378 13379 13380 13381 13382 13383 13384 13385 13386 13387 13388 13389 13390 13391 13392 13393 13394 13395 13396 13397 13398 13399 13400 13401 13402 13403 13404 13405 13406 13407 13408 13409 13410 13411 13412 13413 13414 13415 13416 13417 13418 13419 13420 13421 13422 13423 13424 13425 13426 13427 13428 13429 13430 13431 13432 13433 13434 13435 13436 13437 13438 13439 13440 13441 13442 13443 13444 13445 13446 13447 13448 13449 13450 13451 13452 13453 13454 13455 13456 13457 13458 13459 13460 13461 13462 13463 13464 13465 13466 13467 13468 13469 13470 13471 13472 13473 13474 13475 13476 13477 13478 13479 13480 13481 13482 13483 13484 13485 13486 13487 13488 13489 13490 13491 13492 13493 13494 13495 13496 13497 13498 13499 13500 13501 13502 13503 13504 13505 13506 13507 13508 13509 13510 13511 13512 13513 13514 13515 13516 13517 13518 13519 13520 13521 13522 13523 13524 13525 13526 13527 13528 13529 13530 13531 13532 13533 13534 13535 13536 13537 13538 13539 13540 13541 13542 13543 13544 13545 13546 13547 13548 13549 13550 13551 13552 13553 13554 13555 13556 13557 13558 13559 13560 13561 13562 13563 13564 13565 13566 13567 13568 13569 13570 13571 13572 13573 13574 13575 13576 13577 13578 13579 13580 13581 13582 13583 13584 13585 13586 13587 13588 13589 13590 13591 13592 13593 13594 13595 13596 13597 13598 13599 13600 13601 13602 13603 13604 13605 13606 13607 13608 13609 13610 13611 13612 13613 13614 13615 13616 13617 13618 13619 13620 13621 13622 13623 13624 13625 13626 13627 13628 13629 13630 13631 13632 13633 13634 13635 13636 13637 13638 13639 13640 13641 13642 13643 13644 13645 13646 13647 13648 13649 13650 13651 13652 13653 13654 13655 13656 13657 13658 13659 13660 13661 13662 13663 13664 13665 13666 13667 13668 13669 13670 13671 13672 13673 13674 13675 13676 13677 13678 13679 13680 13681 13682 13683 13684 13685 13686 13687 13688 13689 13690 13691 13692 13693 13694 13695 13696 13697 13698 13699 13700 13701 13702 13703 13704 13705 13706 13707 13708 13709 13710 13711 13712 13713 13714 13715 13716 13717 13718 13719 13720 13721 13722 13723 13724 13725 13726 13727 13728 13729 13730 13731 13732 13733 13734 13735 13736 13737 13738 13739 13740 13741 13742 13743 13744 13745 13746 13747 13748 13749 13750 13751 13752 13753 13754 13755 13756 13757 13758 13759 13760 13761 13762 13763 13764 13765 13766 13767 13768 13769 13770 13771 13772 13773 13774 13775 13776 13777 13778 13779 13780 13781 13782 13783 13784 13785 13786 13787 13788 13789 13790 13791 13792 13793 13794 13795 13796 13797 13798 13799 13800 13801 13802 13803 13804 13805 13806 13807 13808 13809 13810 13811 13812 13813 13814 13815 13816 13817 13818 13819 13820 13821 13822 13823 13824 13825 13826 13827 13828 13829 13830 13831 13832 13833 13834 13835 13836 13837 13838 13839 13840 13841 13842 13843 13844 13845 13846 13847 13848 13849 13850 13851 13852 13853 13854 13855 13856 13857 13858 13859 13860 13861 13862 13863 13864 13865 13866 13867 13868 13869 13870 13871 13872 13873 13874 13875 13876 13877 13878 13879 13880 13881 13882 13883 13884 13885 13886 13887 13888 13889 13890 13891 13892 13893 13894 13895 13896 13897 13898 13899 13900 13901 13902 13903 13904 13905 13906 13907 13908 13909 13910 13911 13912 13913 13914 13915 13916 13917 13918 13919 13920 13921 13922 13923 13924 13925 13926 13927 13928 13929 13930 13931 13932 13933 13934 13935 13936 13937 13938 13939 13940 13941 13942 13943 13944 13945 13946 13947 13948 13949 13950 13951 13952 13953 13954 13955 13956 13957 13958 13959 13960 13961 13962 13963 13964 13965 13966 13967 13968 13969 13970 13971 13972 13973 13974 13975 13976 13977 13978 13979 13980 13981 13982 13983 13984 13985 13986 13987 13988 13989 13990 13991 13992 13993 13994 13995 13996 13997 13998 13999 14000 14001 14002 14003 14004 14005 14006 14007 14008 14009 14010 14011 14012 14013 14014 14015 14016 14017 14018 14019 14020 14021 14022 14023 14024 14025 14026 14027 14028 14029 14030 14031 14032 14033 14034 14035 14036 14037 14038 14039 14040 14041 14042 14043 14044 14045 14046 14047 14048 14049 14050 14051 14052 14053 14054 14055 14056 14057 14058 14059 14060 14061 14062 14063 14064 14065 14066 14067 14068 14069 14070 14071 14072 14073 14074 14075 14076 14077 14078 14079 14080 14081 14082 14083 14084 14085 14086 14087 14088 14089 14090 14091 14092 14093 14094 14095 14096 14097 14098 14099 14100 14101 14102 14103 14104 14105 14106 14107 14108 14109 14110 14111 14112 14113 14114 14115 14116 14117 14118 14119 14120 14121 14122 14123 14124 14125 14126 14127 14128 14129 14130 14131 14132 14133 14134 14135 14136 14137 14138 14139 14140 14141 14142 14143 14144 14145 14146 14147 14148 14149 14150 14151 14152 14153 14154 14155 14156 14157 14158 14159 14160 14161 14162 14163 14164 14165 14166 14167 14168 14169 14170 14171 14172 14173 14174 14175 14176 14177 14178 14179 14180 14181 14182 14183 14184 14185 14186 14187 14188 14189 14190 14191 14192 14193 14194 14195 14196 14197 14198 14199 14200 14201 14202 14203 14204 14205 14206 14207 14208 14209 14210 14211 14212 14213 14214 14215 14216 14217 14218 14219 14220 14221 14222 14223 14224 14225 14226 14227 14228 14229 14230 14231 14232 14233 14234 14235 14236 14237 14238 14239 14240 14241 14242 14243 14244 14245 14246 14247 14248 14249 14250 14251 14252 14253 14254 14255 14256 14257 14258 14259 14260 14261 14262 14263 14264 14265 14266 14267 14268 14269 14270 14271 14272 14273 14274 14275 14276 14277 14278 14279 14280 14281 14282 14283 14284 14285 14286 14287 14288 14289 14290 14291 14292 14293 14294 14295 14296 14297 14298 14299 14300 14301 14302 14303 14304 14305 14306 14307 14308 14309 14310 14311 14312 14313 14314 14315 14316 14317 14318 14319 14320 14321 14322 14323 14324 14325 14326 14327 14328 14329 14330 14331 14332 14333 14334 14335 14336 14337 14338 14339 14340 14341 14342 14343 14344 14345 14346 14347 14348 14349 14350 14351 14352 14353 14354 14355 14356 14357 14358 14359 14360 14361 14362 14363 14364 14365 14366 14367 14368 14369 14370 14371 14372 14373 14374 14375 14376 14377 14378 14379 14380 14381 14382 14383 14384 14385 14386 14387 14388 14389 14390 14391 14392 14393 14394 14395 14396 14397 14398 14399 14400 14401 14402 14403 14404 14405 14406 14407 14408 14409 14410 14411 14412 14413 14414 14415 14416 14417 14418 14419 14420 14421 14422 14423 14424 14425 14426 14427 14428 14429 14430 14431 14432 14433 14434 14435 14436 14437 14438 14439 14440 14441 14442 14443 14444 14445 14446 14447 14448 14449 14450 14451 14452 14453 14454 14455 14456 14457 14458 14459 14460 14461 14462 14463 14464 14465 14466 14467 14468 14469 14470 14471 14472 14473 14474 14475 14476 14477 14478 14479 14480 14481 14482 14483 14484 14485 14486 14487 14488 14489 14490 14491 14492 14493 14494 14495 14496 14497 14498 14499 14500 14501 14502 14503 14504 14505 14506 14507 14508 14509 14510 14511 14512 14513 14514 14515 14516 14517 14518 14519 14520 14521 14522 14523 14524 14525 14526 14527 14528 14529 14530 14531 14532 14533 14534 14535 14536 14537 14538 14539 14540 14541 14542 14543 14544 14545 14546 14547 14548 14549 14550 14551 14552 14553 14554 14555 14556 14557 14558 14559 14560 14561 14562 14563 14564 14565 14566 14567 14568 14569 14570 14571 14572 14573 14574 14575 14576 14577 14578 14579 14580 14581 14582 14583 14584 14585 14586 14587 14588 14589 14590 14591 14592 14593 14594 14595 14596 14597 14598 14599 14600 14601 14602 14603 14604 14605 14606 14607 14608 14609 14610 14611 14612 14613 14614 14615 14616 14617 14618 14619 14620 14621 14622 14623 14624 14625 14626 14627 14628 14629 14630 14631 14632 14633 14634 14635 14636 14637 14638 14639 14640 14641 14642 14643 14644 14645 14646 14647 14648 14649 14650 14651 14652 14653 14654 14655 14656 14657 14658 14659 14660 14661 14662 14663 14664 14665 14666 14667 14668 14669 14670 14671 14672 14673 14674 14675 14676 14677 14678 14679 14680 14681 14682 14683 14684 14685 14686 14687 14688 14689 14690 14691 14692 14693 14694 14695 14696 14697 14698 14699 14700 14701 14702 14703 14704 14705 14706 14707 14708 14709 14710 14711 14712 14713 14714 14715 14716 14717 14718 14719 14720 14721 14722 14723 14724 14725 14726 14727 14728 14729 14730 14731 14732 14733 14734 14735 14736 14737 14738 14739 14740 14741 14742 14743 14744 14745 14746 14747 14748 14749 14750 14751 14752 14753 14754 14755 14756 14757 14758 14759 14760 14761 14762 14763 14764 14765 14766 14767 14768 14769 14770 14771 14772 14773 14774 14775 14776 14777 14778 14779 14780 14781 14782 14783 14784 14785 14786 14787 14788 14789 14790 14791 14792 14793 14794 14795 14796 14797 14798 14799 14800 14801 14802 14803 14804 14805 14806 14807 14808 14809 14810 14811 14812 14813 14814 14815 14816 14817 14818 14819 14820 14821 14822 14823 14824 14825 14826 14827 14828 14829 14830 14831 14832 14833 14834 14835 14836 14837 14838 14839 14840 14841 14842 14843 14844 14845 14846 14847 14848 14849 14850 14851 14852 14853 14854 14855 14856 14857 14858 14859 14860 14861 14862 14863 14864 14865 14866 14867 14868 14869 14870 14871 14872 14873 14874 14875 14876 14877 14878 14879 14880 14881 14882 14883 14884 14885 14886 14887 14888 14889 14890 14891 14892 14893 14894 14895 14896 14897 14898 14899 14900 14901 14902 14903 14904 14905 14906 14907 14908 14909 14910 14911 14912 14913 14914 14915 14916 14917 14918 14919 14920 14921 14922 14923 14924 14925 14926 14927 14928 14929 14930 14931 14932 14933 14934 14935 14936 14937 14938 14939 14940 14941 14942 14943 14944 14945 14946 14947 14948 14949 14950 14951 14952 14953 14954 14955 14956 14957 14958 14959 14960 14961 14962 14963 14964 14965 14966 14967 14968 14969 14970 14971 14972 14973 14974 14975 14976 14977 14978 14979 14980 14981 14982 14983 14984 14985 14986 14987 14988 14989 14990 14991 14992 14993 14994 14995 14996 14997 14998 14999 15000 15001 15002 15003 15004 15005 15006 15007 15008 15009 15010 15011 15012 15013 15014 15015 15016 15017 15018 15019 15020 15021 15022 15023 15024 15025 15026 15027 15028 15029 15030 15031 15032 15033 15034 15035 15036 15037 15038 15039 15040 15041 15042 15043 15044 15045 15046 15047 15048 15049 15050 15051 15052 15053 15054 15055 15056 15057 15058 15059 15060 15061 15062 15063 15064 15065 15066 15067 15068 15069 15070 15071 15072 15073 15074 15075 15076 15077 15078 15079 15080 15081 15082 15083 15084 15085 15086 15087 15088 15089 15090 15091 15092 15093 15094 15095 15096 15097 15098 15099 15100 15101 15102 15103 15104 15105 15106 15107 15108 15109 15110 15111 15112 15113 15114 15115 15116 15117 15118 15119 15120 15121 15122 15123 15124 15125 15126 15127 15128 15129 15130 15131 15132 15133 15134 15135 15136 15137 15138 15139 15140 15141 15142 15143 15144 15145 15146 15147 15148 15149 15150 15151 15152 15153 15154 15155 15156 15157 15158 15159 15160 15161 15162 15163 15164 15165 15166 15167 15168 15169 15170 15171 15172 15173 15174 15175 15176 15177 15178 15179 15180 15181 15182 15183 15184 15185 15186 15187 15188 15189 15190 15191 15192 15193 15194 15195 15196 15197 15198 15199 15200 15201 15202 15203 15204 15205 15206 15207 15208 15209 15210 15211 15212 15213 15214 15215 15216 15217 15218 15219 15220 15221 15222 15223 15224 15225 15226 15227 15228 15229 15230 15231 15232 15233 15234 15235 15236 15237 15238 15239 15240 15241 15242 15243 15244 15245 15246 15247 15248 15249 15250 15251 15252 15253 15254 15255 15256 15257 15258 15259 15260 15261 15262 15263 15264 15265 15266 15267 15268 15269 15270 15271 15272 15273 15274 15275 15276 15277 15278 15279 15280 15281 15282 15283 15284 15285 15286 15287 15288 15289 15290 15291 15292 15293 15294 15295 15296 15297 15298 15299 15300 15301 15302 15303 15304 15305 15306 15307 15308 15309 15310 15311 15312 15313 15314 15315 15316 15317 15318 15319 15320 15321 15322 15323 15324 15325 15326 15327 15328 15329 15330 15331 15332 15333 15334 15335 15336 15337 15338 15339 15340 15341 15342 15343 15344 15345 15346 15347 15348 15349 15350 15351 15352 15353 15354 15355 15356 15357 15358 15359 15360 15361 15362 15363 15364 15365 15366 15367 15368 15369 15370 15371 15372 15373 15374 15375 15376 15377 15378 15379 15380 15381 15382 15383 15384 15385 15386 15387 15388 15389 15390 15391 15392 15393 15394 15395 15396 15397 15398 15399 15400 15401 15402 15403 15404 15405 15406 15407 15408 15409 15410 15411 15412 15413 15414 15415 15416 15417 15418 15419 15420 15421 15422 15423 15424 15425 15426 15427 15428 15429 15430 15431 15432 15433 15434 15435 15436 15437 15438 15439 15440 15441 15442 15443 15444 15445 15446 15447 15448 15449 15450 15451 15452 15453 15454 15455 15456 15457 15458 15459 15460 15461 15462 15463 15464 15465 15466 15467 15468 15469 15470 15471 15472 15473 15474 15475 15476 15477 15478 15479 15480 15481 15482 15483 15484 15485 15486 15487 15488 15489 15490 15491 15492 15493 15494 15495 15496 15497 15498 15499 15500 15501 15502 15503 15504 15505 15506 15507 15508 15509 15510 15511 15512 15513 15514 15515 15516 15517 15518 15519 15520 15521 15522 15523 15524 15525 15526 15527 15528 15529 15530 15531 15532 15533 15534 15535 15536 15537 15538 15539 15540 15541 15542 15543 15544 15545 15546 15547 15548 15549 15550 15551 15552 15553 15554 15555 15556 15557 15558 15559 15560 15561 15562 15563 15564 15565 15566 15567 15568 15569 15570 15571 15572 15573 15574 15575 15576 15577 15578 15579 15580 15581 15582 15583 15584 15585 15586 15587 15588 15589 15590 15591 15592 15593 15594 15595 15596 15597 15598 15599 15600 15601 15602 15603 15604 15605 15606 15607 15608 15609 15610 15611 15612 15613 15614 15615 15616 15617 15618 15619 15620 15621 15622 15623 15624 15625 15626 15627 15628 15629 15630 15631 15632 15633 15634 15635 15636 15637 15638 15639 15640 15641 15642 15643 15644 15645 15646 15647 15648 15649 15650 15651 15652 15653 15654 15655 15656 15657 15658 15659 15660 15661 15662 15663 15664 15665 15666 15667 15668 15669 15670 15671 15672 15673 15674 15675 15676 15677 15678 15679 15680 15681 15682 15683 15684 15685 15686 15687 15688 15689 15690 15691 15692 15693 15694 15695 15696 15697 15698 15699 15700 15701 15702 15703 15704 15705 15706 15707 15708 15709 15710 15711 15712 15713 15714 15715 15716 15717 15718 15719 15720 15721 15722 15723 15724 15725 15726 15727 15728 15729 15730 15731 15732 15733 15734 15735 15736 15737 15738 15739 15740 15741 15742 15743 15744 15745 15746 15747 15748 15749 15750 15751 15752 15753 15754 15755 15756 15757 15758 15759 15760 15761 15762 15763 15764 15765 15766 15767 15768 15769 15770 15771 15772 15773 15774 15775 15776 15777 15778 15779 15780 15781 15782 15783 15784 15785 15786 15787 15788 15789 15790 15791 15792 15793 15794 15795 15796 15797 15798 15799 15800 15801 15802 15803 15804 15805 15806 15807 15808 15809 15810 15811 15812 15813 15814 15815 15816 15817 15818 15819 15820 15821 15822 15823 15824 15825 15826 15827 15828 15829 15830 15831 15832 15833 15834 15835 15836 15837 15838 15839 15840 15841 15842 15843 15844 15845 15846 15847 15848 15849 15850 15851 15852 15853 15854 15855 15856 15857 15858 15859 15860 15861 15862 15863 15864 15865 15866 15867 15868 15869 15870 15871 15872 15873 15874 15875 15876 15877 15878 15879 15880 15881 15882 15883 15884 15885 15886 15887 15888 15889 15890 15891 15892 15893 15894 15895 15896 15897 15898 15899 15900 15901 15902 15903 15904 15905 15906 15907 15908 15909 15910 15911 15912 15913 15914 15915 15916 15917 15918 15919 15920 15921 15922 15923 15924 15925 15926 15927 15928 15929 15930 15931 15932 15933 15934 15935 15936 15937 15938 15939 15940 15941 15942 15943 15944 15945 15946 15947 15948 15949 15950 15951 15952 15953 15954 15955 15956 15957 15958 15959 15960 15961 15962 15963 15964 15965 15966 15967 15968 15969 15970 15971 15972 15973 15974 15975 15976 15977 15978 15979 15980 15981 15982 15983 15984 15985 15986 15987 15988 15989 15990 15991 15992 15993 15994 15995 15996 15997 15998 15999 16000 16001 16002 16003 16004 16005 16006 16007 16008 16009 16010 16011 16012 16013 16014 16015 16016 16017 16018 16019 16020 16021 16022 16023 16024 16025 16026 16027 16028 16029 16030 16031 16032 16033 16034 16035 16036 16037 16038 16039 16040 16041 16042 16043 16044 16045 16046 16047 16048 16049 16050 16051 16052 16053 16054 16055 16056 16057 16058 16059 16060 16061 16062 16063 16064 16065 16066 16067 16068 16069 16070 16071 16072 16073 16074 16075 16076 16077 16078 16079 16080 16081 16082 16083 16084 16085 16086 16087 16088 16089 16090 16091 16092 16093 16094 16095 16096 16097 16098 16099 16100 16101 16102 16103 16104 16105 16106 16107 16108 16109 16110 16111 16112 16113 16114 16115 16116 16117 16118 16119 16120 16121 16122 16123 16124 16125 16126 16127 16128 16129 16130 16131 16132 16133 16134 16135 16136 16137 16138 16139 16140 16141 16142 16143 16144 16145 16146 16147 16148 16149 16150 16151 16152 16153 16154 16155 16156 16157 16158 16159 16160 16161 16162 16163 16164 16165 16166 16167 16168 16169 16170 16171 16172 16173 16174 16175 16176 16177 16178 16179 16180 16181 16182 16183 16184 16185 16186 16187 16188 16189 16190 16191 16192 16193 16194 16195 16196 16197 16198 16199 16200 16201 16202 16203 16204 16205 16206 16207 16208 16209 16210 16211 16212 16213 16214 16215 16216 16217 16218 16219 16220 16221 16222 16223 16224 16225 16226 16227 16228 16229 16230 16231 16232 16233 16234 16235 16236 16237 16238 16239 16240 16241 16242 16243 16244 16245 16246 16247 16248 16249 16250 16251 16252 16253 16254 16255 16256 16257 16258 16259 16260 16261 16262 16263 16264 16265 16266 16267 16268 16269 16270 16271 16272 16273 16274 16275 16276 16277 16278 16279 16280 16281 16282 16283 16284 16285 16286 16287 16288 16289 16290 16291 16292 16293 16294 16295 16296 16297 16298 16299 16300 16301 16302 16303 16304 16305 16306 16307 16308 16309 16310 16311 16312 16313 16314 16315 16316 16317 16318 16319 16320 16321 16322 16323 16324 16325 16326 16327 16328 16329 16330 16331 16332 16333 16334 16335 16336 16337 16338 16339 16340 16341 16342 16343 16344 16345 16346 16347 16348 16349 16350 16351 16352 16353 16354 16355 16356 16357 16358 16359 16360 16361 16362 16363 16364 16365 16366 16367 16368 16369 16370 16371 16372 16373 16374 16375 16376 16377 16378 16379 16380 16381 16382 16383 16384 16385 16386 16387 16388 16389 16390 16391 16392 16393 16394 16395 16396 16397 16398 16399 16400 16401 16402 16403 16404 16405 16406 16407 16408 16409 16410 16411 16412 16413 16414 16415 16416 16417 16418 16419 16420 16421 16422 16423 16424 16425 16426 16427 16428 16429 16430 16431 16432 16433 16434 16435 16436 16437 16438 16439 16440 16441 16442 16443 16444 16445 16446 16447 16448 16449 16450 16451 16452 16453 16454 16455 16456 16457 16458 16459 16460 16461 16462 16463 16464 16465 16466 16467 16468 16469 16470 16471 16472 16473 16474 16475 16476 16477 16478 16479 16480 16481 16482 16483 16484 16485 16486 16487 16488 16489 16490 16491 16492 16493 16494 16495 16496 16497 16498 16499 16500 16501 16502 16503 16504 16505 16506 16507 16508 16509 16510 16511 16512 16513 16514 16515 16516 16517 16518 16519 16520 16521 16522 16523 16524 16525 16526 16527 16528 16529 16530 16531 16532 16533 16534 16535 16536 16537 16538 16539 16540 16541 16542 16543 16544 16545 16546 16547 16548 16549 16550 16551 16552 16553 16554 16555 16556 16557 16558 16559 16560 16561 16562 16563 16564 16565 16566 16567 16568 16569 16570 16571 16572 16573 16574 16575 16576 16577 16578 16579 16580 16581 16582 16583 16584 16585 16586 16587 16588 16589 16590 16591 16592 16593 16594 16595 16596 16597 16598 16599 16600 16601 16602 16603 16604 16605 16606 16607 16608 16609 16610 16611 16612 16613 16614 16615 16616 16617 16618 16619 16620 16621 16622 16623 16624 16625 16626 16627 16628 16629 16630 16631 16632 16633 16634 16635 16636 16637 16638 16639 16640 16641 16642 16643 16644 16645 16646 16647 16648 16649 16650 16651 16652 16653 16654 16655 16656 16657 16658 16659 16660 16661 16662 16663 16664 16665 16666 16667 16668 16669 16670 16671 16672 16673 16674 16675 16676 16677 16678 16679 16680 16681 16682 16683 16684 16685 16686 16687 16688 16689 16690 16691 16692 16693 16694 16695 16696 16697 16698 16699 16700 16701 16702 16703 16704 16705 16706 16707 16708 16709 16710 16711 16712 16713 16714 16715 16716 16717 16718 16719 16720 16721 16722 16723 16724 16725 16726 16727 16728 16729 16730 16731 16732 16733 16734 16735 16736 16737 16738 16739 16740 16741 16742 16743 16744 16745 16746 16747 16748 16749 16750 16751 16752 16753 16754 16755 16756 16757 16758 16759 16760 16761 16762 16763 16764 16765 16766 16767 16768 16769 16770 16771 16772 16773 16774 16775 16776 16777 16778 16779 16780 16781 16782 16783 16784 16785 16786 16787 16788 16789 16790 16791 16792 16793 16794 16795 16796 16797 16798 16799 16800 16801 16802 16803 16804 16805 16806 16807 16808 16809 16810 16811 16812 16813 16814 16815 16816 16817 16818 16819 16820 16821 16822 16823 16824 16825 16826 16827 16828 16829 16830 16831 16832 16833 16834 16835 16836 16837 16838 16839 16840 16841 16842 16843 16844 16845 16846 16847 16848 16849 16850 16851 16852 16853 16854 16855 16856 16857 16858 16859 16860 16861 16862 16863 16864 16865 16866 16867 16868 16869 16870 16871 16872 16873 16874 16875 16876 16877 16878 16879 16880 16881 16882 16883 16884 16885 16886 16887 16888 16889 16890 16891 16892 16893 16894 16895 16896 16897 16898 16899 16900 16901 16902 16903 16904 16905 16906 16907 16908 16909 16910 16911 16912 16913 16914 16915 16916 16917 16918 16919 16920 16921 16922 16923 16924 16925 16926 16927 16928 16929 16930 16931 16932 16933 16934 16935 16936 16937 16938 16939 16940 16941 16942 16943 16944 16945 16946 16947 16948 16949 16950 16951 16952 16953 16954 16955 16956 16957 16958 16959 16960 16961 16962 16963 16964 16965 16966 16967 16968 16969 16970 16971 16972 16973 16974 16975 16976 16977 16978 16979 16980 16981 16982 16983 16984 16985 16986 16987 16988 16989 16990 16991 16992 16993 16994 16995 16996 16997 16998 16999 17000 17001 17002 17003 17004 17005 17006 17007 17008 17009 17010 17011 17012 17013 17014 17015 17016 17017 17018 17019 17020 17021 17022 17023 17024 17025 17026 17027 17028 17029 17030 17031 17032 17033 17034 17035 17036 17037 17038 17039 17040 17041 17042 17043 17044 17045 17046 17047 17048 17049 17050 17051 17052 17053 17054 17055 17056 17057 17058 17059 17060 17061 17062 17063 17064 17065 17066 17067 17068 17069 17070 17071 17072 17073 17074 17075 17076 17077 17078 17079 17080 17081 17082 17083 17084 17085 17086 17087 17088 17089 17090 17091 17092 17093 17094 17095 17096 17097 17098 17099 17100 17101 17102 17103 17104 17105 17106 17107 17108 17109 17110 17111 17112 17113 17114 17115 17116 17117 17118 17119 17120 17121 17122 17123 17124 17125 17126 17127 17128 17129 17130 17131 17132 17133 17134 17135 17136 17137 17138 17139 17140 17141 17142 17143 17144 17145 17146 17147 17148 17149 17150 17151 17152 17153 17154 17155 17156 17157 17158 17159 17160 17161 17162 17163 17164 17165 17166 17167 17168 17169 17170 17171 17172 17173 17174 17175 17176 17177 17178 17179 17180 17181 17182 17183 17184 17185 17186 17187 17188 17189 17190 17191 17192 17193 17194 17195 17196 17197 17198 17199 17200 17201 17202 17203 17204 17205 17206 17207 17208 17209 17210 17211 17212 17213 17214 17215 17216 17217 17218 17219 17220 17221 17222 17223 17224 17225 17226 17227 17228 17229 17230 17231 17232 17233 17234 17235 17236 17237 17238 17239 17240 17241 17242 17243 17244 17245 17246 17247 17248 17249 17250 17251 17252 17253 17254 17255 17256 17257 17258 17259 17260 17261 17262 17263 17264 17265 17266 17267 17268 17269 17270 17271 17272 17273 17274 17275 17276 17277 17278 17279 17280 17281 17282 17283 17284 17285 17286 17287 17288 17289 17290 17291 17292 17293 17294 17295 17296 17297 17298 17299 17300 17301 17302 17303 17304 17305 17306 17307 17308 17309 17310 17311 17312 17313 17314 17315 17316 17317 17318 17319 17320 17321 17322 17323 17324 17325 17326 17327 17328 17329 17330 17331 17332 17333 17334 17335 17336 17337 17338 17339 17340 17341 17342 17343 17344 17345 17346 17347 17348 17349 17350 17351 17352 17353 17354 17355 17356 17357 17358 17359 17360 17361 17362 17363 17364 17365 17366 17367 17368 17369 17370 17371 17372 17373 17374 17375 17376 17377 17378 17379 17380 17381 17382 17383 17384 17385 17386 17387 17388 17389 17390 17391 17392 17393 17394 17395 17396 17397 17398 17399 17400 17401 17402 17403 17404 17405 17406 17407 17408 17409 17410 17411 17412 17413 17414 17415 17416 17417 17418 17419 17420 17421 17422 17423 17424 17425 17426 17427 17428 17429 17430 17431 17432 17433 17434 17435 17436 17437 17438 17439 17440 17441 17442 17443 17444 17445 17446 17447 17448 17449 17450 17451 17452 17453 17454 17455 17456 17457 17458 17459 17460 17461 17462 17463 17464 17465 17466 17467 17468 17469 17470 17471 17472 17473 17474 17475 17476 17477 17478 17479 17480 17481 17482 17483 17484 17485 17486 17487 17488 17489 17490 17491 17492 17493 17494 17495 17496 17497 17498 17499 17500 17501 17502 17503 17504 17505 17506 17507 17508 17509 17510 17511 17512 17513 17514 17515 17516 17517 17518 17519 17520 17521 17522 17523 17524 17525 17526 17527 17528 17529 17530 17531 17532 17533 17534 17535 17536 17537 17538 17539 17540 17541 17542 17543 17544 17545 17546 17547 17548 17549 17550 17551 17552 17553 17554 17555 17556 17557 17558 17559 17560 17561 17562 17563 17564 17565 17566 17567 17568 17569 17570 17571 17572 17573 17574 17575 17576 17577 17578 17579 17580 17581 17582 17583 17584 17585 17586 17587 17588 17589 17590 17591 17592 17593 17594 17595 17596 17597 17598 17599 17600 17601 17602 17603 17604 17605 17606 17607 17608 17609 17610 17611 17612 17613 17614 17615 17616 17617 17618 17619 17620 17621 17622 17623 17624 17625 17626 17627 17628 17629 17630 17631 17632 17633 17634 17635 17636 17637 17638 17639 17640 17641 17642 17643 17644 17645 17646 17647 17648 17649 17650 17651 17652 17653 17654 17655 17656 17657 17658 17659 17660 17661 17662 17663 17664 17665 17666 17667 17668 17669 17670 17671 17672 17673 17674 17675 17676 17677 17678 17679 17680 17681 17682 17683 17684 17685 17686 17687 17688 17689 17690 17691 17692 17693 17694 17695 17696 17697 17698 17699 17700 17701 17702 17703 17704 17705 17706 17707 17708 17709 17710 17711 17712 17713 17714 17715 17716 17717 17718 17719 17720 17721 17722 17723 17724 17725 17726 17727 17728 17729 17730 17731 17732 17733 17734 17735 17736 17737 17738 17739 17740 17741 17742 17743 17744 17745 17746 17747 17748 17749 17750 17751 17752 17753 17754 17755 17756 17757 17758 17759 17760 17761 17762 17763 17764 17765 17766 17767 17768 17769 17770 17771 17772 17773 17774 17775 17776 17777 17778 17779 17780 17781 17782 17783 17784 17785 17786 17787 17788 17789 17790 17791 17792 17793 17794 17795 17796 17797 17798 17799 17800 17801 17802 17803 17804 17805 17806 17807 17808 17809 17810 17811 17812 17813 17814 17815 17816 17817 17818 17819 17820 17821 17822 17823 17824 17825 17826 17827 17828 17829 17830 17831 17832 17833 17834 17835 17836 17837 17838 17839 17840 17841 17842 17843 17844 17845 17846 17847 17848 17849 17850 17851 17852 17853 17854 17855 17856 17857 17858 17859 17860 17861 17862 17863 17864 17865 17866 17867 17868 17869 17870 17871 17872 17873 17874 17875 17876 17877 17878 17879 17880 17881 17882 17883 17884 17885 17886 17887 17888 17889 17890 17891 17892 17893 17894 17895 17896 17897 17898 17899 17900 17901 17902 17903 17904 17905 17906 17907 17908 17909 17910 17911 17912 17913 17914 17915 17916 17917 17918 17919 17920 17921 17922 17923 17924 17925 17926 17927 17928 17929 17930 17931 17932 17933 17934 17935 17936 17937 17938 17939 17940 17941 17942 17943 17944 17945 17946 17947 17948 17949 17950 17951 17952 17953 17954 17955 17956 17957 17958 17959 17960 17961 17962 17963 17964 17965 17966 17967 17968 17969 17970 17971 17972 17973 17974 17975 17976 17977 17978 17979 17980 17981 17982 17983 17984 17985 17986 17987 17988 17989 17990 17991 17992 17993 17994 17995 17996 17997 17998 17999 18000 18001 18002 18003 18004 18005 18006 18007 18008 18009 18010 18011 18012 18013 18014 18015 18016 18017 18018 18019 18020 18021 18022 18023 18024 18025 18026 18027 18028 18029 18030 18031 18032 18033 18034 18035 18036 18037 18038 18039 18040 18041 18042 18043 18044 18045 18046 18047 18048 18049 18050 18051 18052 18053 18054 18055 18056 18057 18058 18059 18060 18061 18062 18063 18064 18065 18066 18067 18068 18069 18070 18071 18072 18073 18074 18075 18076 18077 18078 18079 18080 18081 18082 18083 18084 18085 18086 18087 18088 18089 18090 18091 18092 18093 18094 18095 18096 18097 18098 18099 18100 18101 18102 18103 18104 18105 18106 18107 18108 18109 18110 18111 18112 18113 18114 18115 18116 18117 18118 18119 18120 18121 18122 18123 18124 18125 18126 18127 18128 18129 18130 18131 18132 18133 18134 18135 18136 18137 18138 18139 18140 18141 18142 18143 18144 18145 18146 18147 18148 18149 18150 18151 18152 18153 18154 18155 18156 18157 18158 18159 18160 18161 18162 18163 18164 18165 18166 18167 18168 18169 18170 18171 18172 18173 18174 18175 18176 18177 18178 18179 18180 18181 18182 18183 18184 18185 18186 18187 18188 18189 18190 18191 18192 18193 18194 18195 18196 18197 18198 18199 18200 18201 18202 18203 18204 18205 18206 18207 18208 18209 18210 18211 18212 18213 18214 18215 18216 18217 18218 18219 18220 18221 18222 18223 18224 18225 18226 18227 18228 18229 18230 18231 18232 18233 18234 18235 18236 18237 18238 18239 18240 18241 18242 18243 18244 18245 18246 18247 18248 18249 18250 18251 18252 18253 18254 18255 18256 18257 18258 18259 18260 18261 18262 18263 18264 18265 18266 18267 18268 18269 18270 18271 18272 18273 18274 18275 18276 18277 18278 18279 18280 18281 18282 18283 18284 18285 18286 18287 18288 18289 18290 18291 18292 18293 18294 18295 18296 18297 18298 18299 18300 18301 18302 18303 18304 18305 18306 18307 18308 18309 18310 18311 18312 18313 18314 18315 18316 18317 18318 18319 18320 18321 18322 18323 18324 18325 18326 18327 18328 18329 18330 18331 18332 18333 18334 18335 18336 18337 18338 18339 18340 18341 18342 18343 18344 18345 18346 18347 18348 18349 18350 18351 18352 18353 18354 18355 18356 18357 18358 18359 18360 18361 18362 18363 18364 18365 18366 18367 18368 18369 18370 18371 18372 18373 18374 18375 18376 18377 18378 18379 18380 18381 18382 18383 18384 18385 18386 18387 18388 18389 18390 18391 18392 18393 18394 18395 18396 18397 18398 18399 18400 18401 18402 18403 18404 18405 18406 18407 18408 18409 18410 18411 18412 18413 18414 18415 18416 18417 18418 18419 18420 18421 18422 18423 18424 18425 18426 18427 18428 18429 18430 18431 18432 18433 18434 18435 18436 18437 18438 18439 18440 18441 18442 18443 18444 18445 18446 18447 18448 18449 18450 18451 18452 18453 18454 18455 18456 18457 18458 18459 18460 18461 18462 18463 18464 18465 18466 18467 18468 18469 18470 18471 18472 18473 18474 18475 18476 18477 18478 18479 18480 18481 18482 18483 18484 18485 18486 18487 18488 18489 18490 18491 18492 18493 18494 18495 18496 18497 18498 18499 18500 18501 18502 18503 18504 18505 18506 18507 18508 18509 18510 18511 18512 18513 18514 18515 18516 18517 18518 18519 18520 18521 18522 18523 18524 18525 18526 18527 18528 18529 18530 18531 18532 18533 18534 18535 18536 18537 18538 18539 18540 18541 18542 18543 18544 18545 18546 18547 18548 18549 18550 18551 18552 18553 18554 18555 18556 18557 18558 18559 18560 18561 18562 18563 18564 18565 18566 18567 18568 18569 18570 18571 18572 18573 18574 18575 18576 18577 18578 18579 18580 18581 18582 18583 18584 18585 18586 18587 18588 18589 18590 18591 18592 18593 18594 18595 18596 18597 18598 18599 18600 18601 18602 18603 18604 18605 18606 18607 18608 18609 18610 18611 18612 18613 18614 18615 18616 18617 18618 18619 18620 18621 18622 18623 18624 18625 18626 18627 18628 18629 18630 18631 18632 18633 18634 18635 18636 18637 18638 18639 18640 18641 18642 18643 18644 18645 18646 18647 18648 18649 18650 18651 18652 18653 18654 18655 18656 18657 18658 18659 18660 18661 18662 18663 18664 18665 18666 18667 18668 18669 18670 18671 18672 18673 18674 18675 18676 18677 18678 18679 18680 18681 18682 18683 18684 18685 18686 18687 18688 18689 18690 18691 18692 18693 18694 18695 18696 18697 18698 18699 18700 18701 18702 18703 18704 18705 18706 18707 18708 18709 18710 18711 18712 18713 18714 18715 18716 18717 18718 18719 18720 18721 18722 18723 18724 18725 18726 18727 18728 18729 18730 18731 18732 18733 18734 18735 18736 18737 18738 18739 18740 18741 18742 18743 18744 18745 18746 18747 18748 18749 18750 18751 18752 18753 18754 18755 18756 18757 18758 18759 18760 18761 18762 18763 18764 18765 18766 18767 18768 18769 18770 18771 18772 18773 18774 18775 18776 18777 18778 18779 18780 18781 18782 18783 18784 18785 18786 18787 18788 18789 18790 18791 18792 18793 18794 18795 18796 18797 18798 18799 18800 18801 18802 18803 18804 18805 18806 18807 18808 18809 18810 18811 18812 18813 18814 18815 18816 18817 18818 18819 18820 18821 18822 18823 18824 18825 18826 18827 18828 18829 18830 18831 18832 18833 18834 18835 18836 18837 18838 18839 18840 18841 18842 18843 18844 18845 18846 18847 18848 18849 18850 18851 18852 18853 18854 18855 18856 18857 18858 18859 18860 18861 18862 18863 18864 18865 18866 18867 18868 18869 18870 18871 18872 18873 18874 18875 18876 18877 18878 18879 18880 18881 18882 18883 18884 18885 18886 18887 18888 18889 18890 18891 18892 18893 18894 18895 18896 18897 18898 18899 18900 18901 18902 18903 18904 18905 18906 18907 18908 18909 18910 18911 18912 18913 18914 18915 18916 18917 18918 18919 18920 18921 18922 18923 18924 18925 18926 18927 18928 18929 18930 18931 18932 18933 18934 18935 18936 18937 18938 18939 18940 18941 18942 18943 18944 18945 18946 18947 18948 18949 18950 18951 18952 18953 18954 18955 18956 18957 18958 18959 18960 18961 18962 18963 18964 18965 18966 18967 18968 18969 18970 18971 18972 18973 18974 18975 18976 18977 18978 18979 18980 18981 18982 18983 18984 18985 18986 18987 18988 18989 18990 18991 18992 18993 18994 18995 18996 18997 18998 18999 19000 19001 19002 19003 19004 19005 19006 19007 19008 19009 19010 19011 19012 19013 19014 19015 19016 19017 19018 19019 19020 19021 19022 19023 19024 19025 19026 19027 19028 19029 19030 19031 19032 19033 19034 19035 19036 19037 19038 19039 19040 19041 19042 19043 19044 19045 19046 19047 19048 19049 19050 19051 19052 19053 19054 19055 19056 19057 19058 19059 19060 19061 19062 19063 19064 19065 19066 19067 19068 19069 19070 19071 19072 19073 19074 19075 19076 19077 19078 19079 19080 19081 19082 19083 19084 19085 19086 19087 19088 19089 19090 19091 19092 19093 19094 19095 19096 19097 19098 19099 19100 19101 19102 19103 19104 19105 19106 19107 19108 19109 19110 19111 19112 19113 19114 19115 19116 19117 19118 19119 19120 19121 19122 19123 19124 19125 19126 19127 19128 19129 19130 19131 19132 19133 19134 19135 19136 19137 19138 19139 19140 19141 19142 19143 19144 19145 19146 19147 19148 19149 19150 19151 19152 19153 19154 19155 19156 19157 19158 19159 19160 19161 19162 19163 19164 19165 19166 19167 19168 19169 19170 19171 19172 19173 19174 19175 19176 19177 19178 19179 19180 19181 19182 19183 19184 19185 19186 19187 19188 19189 19190 19191 19192 19193 19194 19195 19196 19197 19198 19199 19200 19201 19202 19203 19204 19205 19206 19207 19208 19209 19210 19211 19212 19213 19214 19215 19216 19217 19218 19219 19220 19221 19222 19223 19224 19225 19226 19227 19228 19229 19230 19231 19232 19233 19234 19235 19236 19237 19238 19239 19240 19241 19242 19243 19244 19245 19246 19247 19248 19249 19250 19251 19252 19253 19254 19255 19256 19257 19258 19259 19260 19261 19262 19263 19264 19265 19266 19267 19268 19269 19270 19271 19272 19273 19274 19275 19276 19277 19278 19279 19280 19281 19282 19283 19284 19285 19286 19287 19288 19289 19290 19291 19292 19293 19294 19295 19296 19297 19298 19299 19300 19301 19302 19303 19304 19305 19306 19307 19308 19309 19310 19311 19312 19313 19314 19315 19316 19317 19318 19319 19320 19321 19322 19323 19324 19325 19326 19327 19328 19329 19330 19331 19332 19333 19334 19335 19336 19337 19338 19339 19340 19341 19342 19343 19344 19345 19346 19347 19348 19349 19350 19351 19352 19353 19354 19355 19356 19357 19358 19359 19360 19361 19362 19363 19364 19365 19366 19367 19368 19369 19370 19371 19372 19373 19374 19375 19376 19377 19378 19379 19380 19381 19382 19383 19384 19385 19386 19387 19388 19389 19390 19391 19392 19393 19394 19395 19396 19397 19398 19399 19400 19401 19402 19403 19404 19405 19406 19407 19408 19409 19410 19411 19412 19413 19414 19415 19416 19417 19418 19419 19420 19421 19422 19423 19424 19425 19426 19427 19428 19429 19430 19431 19432 19433 19434 19435 19436 19437 19438 19439 19440 19441 19442 19443 19444 19445 19446 19447 19448 19449 19450 19451 19452 19453 19454 19455 19456 19457 19458 19459 19460 19461 19462 19463 19464 19465 19466 19467 19468 19469 19470 19471 19472 19473 19474 19475 19476 19477 19478 19479 19480 19481 19482 19483 19484 19485 19486 19487 19488 19489 19490 19491 19492 19493 19494 19495 19496 19497 19498 19499 19500 19501 19502 19503 19504 19505 19506 19507 19508 19509 19510 19511 19512 19513 19514 19515 19516 19517 19518 19519 19520 19521 19522 19523 19524 19525 19526 19527 19528 19529 19530 19531 19532 19533 19534 19535 19536 19537 19538 19539 19540 19541 19542 19543 19544 19545 19546 19547 19548 19549 19550 19551 19552 19553 19554 19555 19556 19557 19558 19559 19560 19561 19562 19563 19564 19565 19566 19567 19568 19569 19570 19571 19572 19573 19574 19575 19576 19577 19578 19579 19580 19581 19582 19583 19584 19585 19586 19587 19588 19589 19590 19591 19592 19593 19594 19595 19596 19597 19598 19599 19600 19601 19602 19603 19604 19605 19606 19607 19608 19609 19610 19611 19612 19613 19614 19615 19616 19617 19618 19619 19620 19621 19622 19623 19624 19625 19626 19627 19628 19629 19630 19631 19632 19633 19634 19635 19636 19637 19638 19639 19640 19641 19642 19643 19644 19645 19646 19647 19648 19649 19650 19651 19652 19653 19654 19655 19656 19657 19658 19659 19660 19661 19662 19663 19664 19665 19666 19667 19668 19669 19670 19671 19672 19673 19674 19675 19676 19677 19678 19679 19680 19681 19682 19683 19684 19685 19686 19687 19688 19689 19690 19691 19692 19693 19694 19695 19696 19697 19698 19699 19700 19701 19702 19703 19704 19705 19706 19707 19708 19709 19710 19711 19712 19713 19714 19715 19716 19717 19718 19719 19720 19721 19722 19723 19724 19725 19726 19727 19728 19729 19730 19731 19732 19733 19734 19735 19736 19737 19738 19739 19740 19741 19742 19743 19744 19745 19746 19747 19748 19749 19750 19751 19752 19753 19754 19755 19756 19757 19758 19759 19760 19761 19762 19763 19764 19765 19766 19767 19768 19769 19770 19771 19772 19773 19774 19775 19776 19777 19778 19779 19780 19781 19782 19783 19784 19785 19786 19787 19788 19789 19790 19791 19792 19793 19794 19795 19796 19797 19798 19799 19800 19801 19802 19803 19804 19805 19806 19807 19808 19809 19810 19811 19812 19813 19814 19815 19816 19817 19818 19819 19820 19821 19822 19823 19824 19825 19826 19827 19828 19829 19830 19831 19832 19833 19834 19835 19836 19837 19838 19839 19840 19841 19842 19843 19844 19845 19846 19847 19848 19849 19850 19851 19852 19853 19854 19855 19856 19857 19858 19859 19860 19861 19862 19863 19864 19865 19866 19867 19868 19869 19870 19871 19872 19873 19874 19875 19876 19877 19878 19879 19880 19881 19882 19883 19884 19885 19886 19887 19888 19889 19890 19891 19892 19893 19894 19895 19896 19897 19898 19899 19900 19901 19902 19903 19904 19905 19906 19907 19908 19909 19910 19911 19912 19913 19914 19915 19916 19917 19918 19919 19920 19921 19922 19923 19924 19925 19926 19927 19928 19929 19930 19931 19932 19933 19934 19935 19936 19937 19938 19939 19940 19941 19942 19943 19944 19945 19946 19947 19948 19949 19950 19951 19952 19953 19954 19955 19956 19957 19958 19959 19960 19961 19962 19963 19964 19965 19966 19967 19968 19969 19970 19971 19972 19973 19974 19975 19976 19977 19978 19979 19980 19981 19982 19983 19984 19985 19986 19987 19988 19989 19990 19991 19992 19993 19994 19995 19996 19997 19998 19999 20000 20001 20002 20003 20004 20005 20006 20007 20008 20009 20010 20011 20012 20013 20014 20015 20016 20017 20018 20019 20020 20021 20022 20023 20024 20025 20026 20027 20028 20029 20030 20031 20032 20033 20034 20035 20036 20037 20038 20039 20040 20041 20042 20043 20044 20045 20046 20047 20048 20049 20050 20051 20052 20053 20054 20055 20056 20057 20058 20059 20060 20061 20062 20063 20064 20065 20066 20067 20068 20069 20070 20071 20072 20073 20074 20075 20076 20077 20078 20079 20080 20081 20082 20083 20084 20085 20086 20087 20088 20089 20090 20091 20092 20093 20094 20095 20096 20097 20098 20099 20100 20101 20102 20103 20104 20105 20106 20107 20108 20109 20110 20111 20112 20113 20114 20115 20116 20117 20118 20119 20120 20121 20122 20123 20124 20125 20126 20127 20128 20129 20130 20131 20132 20133 20134 20135 20136 20137 20138 20139 20140 20141 20142 20143 20144 20145 20146 20147 20148 20149 20150 20151 20152 20153 20154 20155 20156 20157 20158 20159 20160 20161 20162 20163 20164 20165 20166 20167 20168 20169 20170 20171 20172 20173 20174 20175 20176 20177 20178 20179 20180 20181 20182 20183 20184 20185 20186 20187 20188 20189 20190 20191 20192 20193 20194 20195 20196 20197 20198 20199 20200 20201 20202 20203 20204 20205 20206 20207 20208 20209 20210 20211 20212 20213 20214 20215 20216 20217 20218 20219 20220 20221 20222 20223 20224 20225 20226 20227 20228 20229 20230 20231 20232 20233 20234 20235 20236 20237 20238 20239 20240 20241 20242 20243 20244 20245 20246 20247 20248 20249 20250 20251 20252 20253 20254 20255 20256 20257 20258 20259 20260 20261 20262 20263 20264 20265 20266 20267 20268 20269 20270 20271 20272 20273 20274 20275 20276 20277 20278 20279 20280 20281 20282 20283 20284 20285 20286 20287 20288 20289 20290 20291 20292 20293 20294 20295 20296 20297 20298 20299 20300 20301 20302 20303 20304 20305 20306 20307 20308 20309 20310 20311 20312 20313 20314 20315 20316 20317 20318 20319 20320 20321 20322 20323 20324 20325 20326 20327 20328 20329 20330 20331 20332 20333 20334 20335 20336 20337 20338 20339 20340 20341 20342 20343 20344 20345 20346 20347 20348 20349 20350 20351 20352 20353 20354 20355 20356 20357 20358 20359 20360 20361 20362 20363 20364 20365 20366 20367 20368 20369 20370 20371 20372 20373 20374 20375 20376 20377 20378 20379 20380 20381 20382 20383 20384 20385 20386 20387 20388 20389 20390 20391 20392 20393 20394 20395 20396 20397 20398 20399 20400 20401 20402 20403 20404 20405 20406 20407 20408 20409 20410 20411 20412 20413 20414 20415 20416 20417 20418 20419 20420 20421 20422 20423 20424 20425 20426 20427 20428 20429 20430 20431 20432 20433 20434 20435 20436 20437 20438 20439 20440 20441 20442 20443 20444 20445 20446 20447 20448 20449 20450 20451 20452 20453 20454 20455 20456 20457 20458 20459 20460 20461 20462 20463 20464 20465 20466 20467 20468 20469 20470 20471 20472 20473 20474 20475 20476 20477 20478 20479 20480 20481 20482 20483 20484 20485 20486 20487 20488 20489 20490 20491 20492 20493 20494 20495 20496 20497 20498 20499 20500 20501 20502 20503 20504 20505 20506 20507 20508 20509 20510 20511 20512 20513 20514 20515 20516 20517 20518 20519 20520 20521 20522 20523 20524 20525 20526 20527 20528 20529 20530 20531 20532 20533 20534 20535 20536 20537 20538 20539 20540 20541 20542 20543 20544 20545 20546 20547 20548 20549 20550 20551 20552 20553 20554 20555 20556 20557 20558 20559 20560 20561 20562 20563 20564 20565 20566 20567 20568 20569 20570 20571 20572 20573 20574 20575 20576 20577 20578 20579 20580 20581 20582 20583 20584 20585 20586 20587 20588 20589 20590 20591 20592 20593 20594 20595 20596 20597 20598 20599 20600 20601 20602 20603 20604 20605 20606 20607 20608 20609 20610 20611 20612 20613 20614 20615 20616 20617 20618 20619 20620 20621 20622 20623 20624 20625 20626 20627 20628 20629 20630 20631 20632 20633 20634 20635 20636 20637 20638 20639 20640 20641 20642 20643 20644 20645 20646 20647 20648 20649 20650 20651 20652 20653 20654 20655 20656 20657 20658 20659 20660 20661 20662 20663 20664 20665 20666 20667 20668 20669 20670 20671 20672 20673 20674 20675 20676 20677 20678 20679 20680 20681 20682 20683 20684 20685 20686 20687 20688 20689 20690 20691 20692 20693 20694 20695 20696 20697 20698 20699 20700 20701 20702 20703 20704 20705 20706 20707 20708 20709 20710 20711 20712 20713 20714 20715 20716 20717 20718 20719 20720 20721 20722 20723 20724 20725 20726 20727 20728 20729 20730 20731 20732 20733 20734 20735 20736 20737 20738 20739 20740 20741 20742 20743 20744 20745 20746 20747 20748 20749 20750 20751 20752 20753 20754 20755 20756 20757 20758 20759 20760 20761 20762 20763 20764 20765 20766 20767 20768 20769 20770 20771 20772 20773 20774 20775 20776 20777 20778 20779 20780 20781 20782 20783 20784 20785 20786 20787 20788 20789 20790 20791 20792 20793 20794 20795 20796 20797 20798 20799 20800 20801 20802 20803 20804 20805 20806 20807 20808 20809 20810 20811 20812 20813 20814 20815 20816 20817 20818 20819 20820 20821 20822 20823 20824 20825 20826 20827 20828 20829 20830 20831 20832 20833 20834 20835 20836 20837 20838 20839 20840 20841 20842 20843 20844 20845 20846 20847 20848 20849 20850 20851 20852 20853 20854 20855 20856 20857 20858 20859 20860 20861 20862 20863 20864 20865 20866 20867 20868 20869 20870 20871 20872 20873 20874 20875 20876 20877 20878 20879 20880 20881 20882 20883 20884 20885 20886 20887 20888 20889 20890 20891 20892 20893 20894 20895 20896 20897 20898 20899 20900 20901 20902 20903 20904 20905 20906 20907 20908 20909 20910 20911 20912 20913 20914 20915 20916 20917 20918 20919 20920 20921 20922 20923 20924 20925 20926 20927 20928 20929 20930 20931 20932 20933 20934 20935 20936 20937 20938 20939 20940 20941 20942 20943 20944 20945 20946 20947 20948 20949 20950 20951 20952 20953 20954 20955 20956 20957 20958 20959 20960 20961 20962 20963 20964 20965 20966 20967 20968 20969 20970 20971 20972 20973 20974 20975 20976 20977 20978 20979 20980 20981 20982 20983 20984 20985 20986 20987 20988 20989 20990 20991 20992 20993 20994 20995 20996 20997 20998 20999 21000 21001 21002 21003 21004 21005 21006 21007 21008 21009 21010 21011 21012 21013 21014 21015 21016 21017 21018 21019 21020 21021 21022 21023 21024 21025 21026 21027 21028 21029 21030 21031 21032 21033 21034 21035 21036 21037 21038 21039 21040 21041 21042 21043 21044 21045 21046 21047 21048 21049 21050 21051 21052 21053 21054 21055 21056 21057 21058 21059 21060 21061 21062 21063 21064 21065 21066 21067 21068 21069 21070 21071 21072 21073 21074 21075 21076 21077 21078 21079 21080 21081 21082 21083 21084 21085 21086 21087 21088 21089 21090 21091 21092 21093 21094 21095 21096 21097 21098 21099 21100 21101 21102 21103 21104 21105 21106 21107 21108 21109 21110 21111 21112 21113 21114 21115 21116 21117 21118 21119 21120 21121 21122 21123 21124 21125 21126 21127 21128 21129 21130 21131 21132 21133 21134 21135 21136 21137 21138 21139 21140 21141 21142 21143 21144 21145 21146 21147 21148 21149 21150 21151 21152 21153 21154 21155 21156 21157 21158 21159 21160 21161 21162 21163 21164 21165 21166 21167 21168 21169 21170 21171 21172 21173 21174 21175 21176 21177 21178 21179 21180 21181 21182 21183 21184 21185 21186 21187 21188 21189 21190 21191 21192 21193 21194 21195 21196 21197 21198 21199 21200 21201 21202 21203 21204 21205 21206 21207 21208 21209 21210 21211 21212 21213 21214 21215 21216 21217 21218 21219 21220 21221 21222 21223 21224 21225 21226 21227 21228 21229 21230 21231 21232 21233 21234 21235 21236 21237 21238 21239 21240 21241 21242 21243 21244 21245 21246 21247 21248 21249 21250 21251 21252 21253 21254 21255 21256 21257 21258 21259 21260 21261 21262 21263 21264 21265 21266 21267 21268 21269 21270 21271 21272 21273 21274 21275 21276 21277 21278 21279 21280 21281 21282 21283 21284 21285 21286 21287 21288 21289 21290 21291 21292 21293 21294 21295 21296 21297 21298 21299 21300 21301 21302 21303 21304 21305 21306 21307 21308 21309 21310 21311 21312 21313 21314 21315 21316 21317 21318 21319 21320 21321 21322 21323 21324 21325 21326 21327 21328 21329 21330 21331 21332 21333 21334 21335 21336 21337 21338 21339 21340 21341 21342 21343 21344 21345 21346 21347 21348 21349 21350 21351 21352 21353 21354 21355 21356 21357 21358 21359 21360 21361 21362 21363 21364 21365 21366 21367 21368 21369 21370 21371 21372 21373 21374 21375 21376 21377 21378 21379 21380 21381 21382 21383 21384 21385 21386 21387 21388 21389 21390 21391 21392 21393 21394 21395 21396 21397 21398 21399 21400 21401 21402 21403 21404 21405 21406 21407 21408 21409 21410 21411 21412 21413 21414 21415 21416 21417 21418 21419 21420 21421 21422 21423 21424 21425 21426 21427 21428 21429 21430 21431 21432 21433 21434 21435 21436 21437 21438 21439 21440 21441 21442 21443 21444 21445 21446 21447 21448 21449 21450 21451 21452 21453 21454 21455 21456 21457 21458 21459 21460 21461 21462 21463 21464 21465 21466 21467 21468 21469 21470 21471 21472 21473 21474 21475 21476 21477 21478 21479 21480 21481 21482 21483 21484 21485 21486 21487 21488 21489 21490 21491 21492 21493 21494 21495 21496 21497 21498 21499 21500 21501 21502 21503 21504 21505 21506 21507 21508 21509 21510 21511 21512 21513 21514 21515 21516 21517 21518 21519 21520 21521 21522 21523 21524 21525 21526 21527 21528 21529 21530 21531 21532 21533 21534 21535 21536 21537 21538 21539 21540 21541 21542 21543 21544 21545 21546 21547 21548 21549 21550 21551 21552 21553 21554 21555 21556 21557 21558 21559 21560 21561 21562 21563 21564 21565 21566 21567 21568 21569 21570 21571 21572 21573 21574 21575 21576 21577 21578 21579 21580 21581 21582 21583 21584 21585 21586 21587 21588 21589 21590 21591 21592 21593 21594 21595 21596 21597 21598 21599 21600 21601 21602 21603 21604 21605 21606 21607 21608 21609 21610 21611 21612 21613 21614 21615 21616 21617 21618 21619 21620 21621 21622 21623 21624 21625 21626 21627 21628 21629 21630 21631 21632 21633 21634 21635 21636 21637 21638 21639 21640 21641 21642 21643 21644 21645 21646 21647 21648 21649 21650 21651 21652 21653 21654 21655 21656 21657 21658 21659 21660 21661 21662 21663 21664 21665 21666 21667 21668 21669 21670 21671 21672 21673 21674 21675 21676 21677 21678 21679 21680 21681 21682 21683 21684 21685 21686 21687 21688 21689 21690 21691 21692 21693 21694 21695 21696 21697 21698 21699 21700 21701 21702 21703 21704 21705 21706 21707 21708 21709 21710 21711 21712 21713 21714 21715 21716 21717 21718 21719 21720 21721 21722 21723 21724 21725 21726 21727 21728 21729 21730 21731 21732 21733 21734 21735 21736 21737 21738 21739 21740 21741 21742 21743 21744 21745 21746 21747 21748 21749 21750 21751 21752 21753 21754 21755 21756 21757 21758 21759 21760 21761 21762 21763 21764 21765 21766 21767 21768 21769 21770 21771 21772 21773 21774 21775 21776 21777 21778 21779 21780 21781 21782 21783 21784 21785 21786 21787 21788 21789 21790 21791 21792 21793 21794 21795 21796 21797 21798 21799 21800 21801 21802 21803 21804 21805 21806 21807 21808 21809 21810 21811 21812 21813 21814 21815 21816 21817 21818 21819 21820 21821 21822 21823 21824 21825 21826 21827 21828 21829 21830 21831 21832 21833 21834 21835 21836 21837 21838 21839 21840 21841 21842 21843 21844 21845 21846 21847 21848 21849 21850 21851 21852 21853 21854 21855 21856 21857 21858 21859 21860 21861 21862 21863 21864 21865 21866 21867 21868 21869 21870 21871 21872 21873 21874 21875 21876 21877 21878 21879 21880 21881 21882 21883 21884 21885 21886 21887 21888 21889 21890 21891 21892 21893 21894 21895 21896 21897 21898 21899 21900 21901 21902 21903 21904 21905 21906 21907 21908 21909 21910 21911 21912 21913 21914 21915 21916 21917 21918 21919 21920 21921 21922 21923 21924 21925 21926 21927 21928 21929 21930 21931 21932 21933 21934 21935 21936 21937 21938 21939 21940 21941 21942 21943 21944 21945 21946 21947 21948 21949 21950 21951 21952 21953 21954 21955 21956 21957 21958 21959 21960 21961 21962 21963 21964 21965 21966 21967 21968 21969 21970 21971 21972 21973 21974 21975 21976 21977 21978 21979 21980 21981 21982 21983 21984 21985 21986 21987 21988 21989 21990 21991 21992 21993 21994 21995 21996 21997 21998 21999 22000 22001 22002 22003 22004 22005 22006 22007 22008 22009 22010 22011 22012 22013 22014 22015 22016 22017 22018 22019 22020 22021 22022 22023 22024 22025 22026 22027 22028 22029 22030 22031 22032 22033 22034 22035 22036 22037 22038 22039 22040 22041 22042 22043 22044 22045 22046 22047 22048 22049 22050 22051 22052 22053 22054 22055 22056 22057 22058 22059 22060 22061 22062 22063 22064 22065 22066 22067 22068 22069 22070 22071 22072 22073 22074 22075 22076 22077 22078 22079 22080 22081 22082 22083 22084 22085 22086 22087 22088 22089 22090 22091 22092 22093 22094 22095 22096 22097 22098 22099 22100 22101 22102 22103 22104 22105 22106 22107 22108 22109 22110 22111 22112 22113 22114 22115 22116 22117 22118 22119 22120 22121 22122 22123 22124 22125 22126 22127 22128 22129 22130 22131 22132 22133 22134 22135 22136 22137 22138 22139 22140 22141 22142 22143 22144 22145 22146 22147 22148 22149 22150 22151 22152 22153 22154 22155 22156 22157 22158 22159 22160 22161 22162 22163 22164 22165 22166 22167 22168 22169 22170 22171 22172 22173 22174 22175 22176 22177 22178 22179 22180 22181 22182 22183 22184 22185 22186 22187 22188 22189 22190 22191 22192 22193 22194 22195 22196 22197 22198 22199 22200 22201 22202 22203 22204 22205 22206 22207 22208 22209 22210 22211 22212 22213 22214 22215 22216 22217 22218 22219 22220 22221 22222 22223 22224 22225 22226 22227 22228 22229 22230 22231 22232 22233 22234 22235 22236 22237 22238 22239 22240 22241 22242 22243 22244 22245 22246 22247 22248 22249 22250 22251 22252 22253 22254 22255 22256 22257 22258 22259 22260 22261 22262 22263 22264 22265 22266 22267 22268 22269 22270 22271 22272 22273 22274 22275 22276 22277 22278 22279 22280 22281 22282 22283 22284 22285 22286 22287 22288 22289 22290 22291 22292 22293 22294 22295 22296 22297 22298 22299 22300 22301 22302 22303 22304 22305 22306 22307 22308 22309 22310 22311 22312 22313 22314 22315 22316 22317 22318 22319 22320 22321 22322 22323 22324 22325 22326 22327 22328 22329 22330 22331 22332 22333 22334 22335 22336 22337 22338 22339 22340 22341 22342 22343 22344 22345 22346 22347 22348 22349 22350 22351 22352 22353 22354 22355 22356 22357 22358 22359 22360 22361 22362 22363 22364 22365 22366 22367 22368 22369 22370 22371 22372 22373 22374 22375 22376 22377 22378 22379 22380 22381 22382 22383 22384 22385 22386 22387 22388 22389 22390 22391 22392 22393 22394 22395 22396 22397 22398 22399 22400 22401 22402 22403 22404 22405 22406 22407 22408 22409 22410 22411 22412 22413 22414 22415 22416 22417 22418 22419 22420 22421 22422 22423 22424 22425 22426 22427 22428 22429 22430 22431 22432 22433 22434 22435 22436 22437 22438 22439 22440 22441 22442 22443 22444 22445 22446 22447 22448 22449 22450 22451 22452 22453 22454 22455 22456 22457 22458 22459 22460 22461 22462 22463 22464 22465 22466 22467 22468 22469 22470 22471 22472 22473 22474 22475 22476 22477 22478 22479 22480 22481 22482 22483 22484 22485 22486 22487 22488 22489 22490 22491 22492 22493 22494 22495 22496 22497 22498 22499 22500 22501 22502 22503 22504 22505 22506 22507 22508 22509 22510 22511 22512 22513 22514 22515 22516 22517 22518 22519 22520 22521 22522 22523 22524 22525 22526 22527 22528 22529 22530 22531 22532 22533 22534 22535 22536 22537 22538 22539 22540 22541 22542 22543 22544 22545 22546 22547 22548 22549 22550 22551 22552 22553 22554 22555 22556 22557 22558 22559 22560 22561 22562 22563 22564 22565 22566 22567 22568 22569 22570 22571 22572 22573 22574 22575 22576 22577 22578 22579 22580 22581 22582 22583 22584 22585 22586 22587 22588 22589 22590 22591 22592 22593 22594 22595 22596 22597 22598 22599 22600 22601 22602 22603 22604 22605 22606 22607 22608 22609 22610 22611 22612 22613 22614 22615 22616 22617 22618 22619 22620 22621 22622 22623 22624 22625 22626 22627 22628 22629 22630 22631 22632 22633 22634 22635 22636 22637 22638 22639 22640 22641 22642 22643 22644 22645 22646 22647 22648 22649 22650 22651 22652 22653 22654 22655 22656 22657 22658 22659 22660 22661 22662 22663 22664 22665 22666 22667 22668 22669 22670 22671 22672 22673 22674 22675 22676 22677 22678 22679 22680 22681 22682 22683 22684 22685 22686 22687 22688 22689 22690 22691 22692 22693 22694 22695 22696 22697 22698 22699 22700 22701 22702 22703 22704 22705 22706 22707 22708 22709 22710 22711 22712 22713 22714 22715 22716 22717 22718 22719 22720 22721 22722 22723 22724 22725 22726 22727 22728 22729 22730 22731 22732 22733 22734 22735 22736 22737 22738 22739 22740 22741 22742 22743 22744 22745 22746 22747 22748 22749 22750 22751 22752 22753 22754 22755 22756 22757 22758 22759 22760 22761 22762 22763 22764 22765 22766 22767 22768 22769 22770 22771 22772 22773 22774 22775 22776 22777 22778 22779 22780 22781 22782 22783 22784 22785 22786 22787 22788 22789 22790 22791 22792 22793 22794 22795 22796 22797 22798 22799 22800 22801 22802 22803 22804 22805 22806 22807 22808 22809 22810 22811 22812 22813 22814 22815 22816 22817 22818 22819 22820 22821 22822 22823 22824 22825 22826 22827 22828 22829 22830 22831 22832 22833 22834 22835 22836 22837 22838 22839 22840 22841 22842 22843 22844 22845 22846 22847 22848 22849 22850 22851 22852 22853 22854 22855 22856 22857 22858 22859 22860 22861 22862 22863 22864 22865 22866 22867 22868 22869 22870 22871 22872 22873 22874 22875 22876 22877 22878 22879 22880 22881 22882 22883 22884 22885 22886 22887 22888 22889 22890 22891 22892 22893 22894 22895 22896 22897 22898 22899 22900 22901 22902 22903 22904 22905 22906 22907 22908 22909 22910 22911 22912 22913 22914 22915 22916 22917 22918 22919 22920 22921 22922 22923 22924 22925 22926 22927 22928 22929 22930 22931 22932 22933 22934 22935 22936 22937 22938 22939 22940 22941 22942 22943 22944 22945 22946 22947 22948 22949 22950 22951 22952 22953 22954 22955 22956 22957 22958 22959 22960 22961 22962 22963 22964 22965 22966 22967 22968 22969 22970 22971 22972 22973 22974 22975 22976 22977 22978 22979 22980 22981 22982 22983 22984 22985 22986 22987 22988 22989 22990 22991 22992 22993 22994 22995 22996 22997 22998 22999 23000 23001 23002 23003 23004 23005 23006 23007 23008 23009 23010 23011 23012 23013 23014 23015 23016 23017 23018 23019 23020 23021 23022 23023 23024 23025 23026 23027 23028 23029 23030 23031 23032 23033 23034 23035 23036 23037 23038 23039 23040 23041 23042 23043 23044 23045 23046 23047 23048 23049 23050 23051 23052 23053 23054 23055 23056 23057 23058 23059 23060 23061 23062 23063 23064 23065 23066 23067 23068 23069 23070 23071 23072 23073 23074 23075 23076 23077 23078 23079 23080 23081 23082 23083 23084 23085 23086 23087 23088 23089 23090 23091 23092 23093 23094 23095 23096 23097 23098 23099 23100 23101 23102 23103 23104 23105 23106 23107 23108 23109 23110 23111 23112 23113 23114 23115 23116 23117 23118 23119 23120 23121 23122 23123 23124 23125 23126 23127 23128 23129 23130 23131 23132 23133 23134 23135 23136 23137 23138 23139 23140 23141 23142 23143 23144 23145 23146 23147 23148 23149 23150 23151 23152 23153 23154 23155 23156 23157 23158 23159 23160 23161 23162 23163 23164 23165 23166 23167 23168 23169 23170 23171 23172 23173 23174 23175 23176 23177 23178 23179 23180 23181 23182 23183 23184 23185 23186 23187 23188 23189 23190 23191 23192 23193 23194 23195 23196 23197 23198 23199 23200 23201 23202 23203 23204 23205 23206 23207 23208 23209 23210 23211 23212 23213 23214 23215 23216 23217 23218 23219 23220 23221 23222 23223 23224 23225 23226 23227 23228 23229 23230 23231 23232 23233 23234 23235 23236 23237 23238 23239 23240 23241 23242 23243 23244 23245 23246 23247 23248 23249 23250 23251 23252 23253 23254 23255 23256 23257 23258 23259 23260 23261 23262 23263 23264 23265 23266 23267 23268 23269 23270 23271 23272 23273 23274 23275 23276 23277 23278 23279 23280 23281 23282 23283 23284 23285 23286 23287 23288 23289 23290 23291 23292 23293 23294 23295 23296 23297 23298 23299 23300 23301 23302 23303 23304 23305 23306 23307 23308 23309 23310 23311 23312 23313 23314 23315 23316 23317 23318 23319 23320 23321 23322 23323 23324 23325 23326 23327 23328 23329 23330 23331 23332 23333 23334 23335 23336 23337 23338 23339 23340 23341 23342 23343 23344 23345 23346 23347 23348 23349 23350 23351 23352 23353 23354 23355 23356 23357 23358 23359 23360 23361 23362 23363 23364 23365 23366 23367 23368 23369 23370 23371 23372 23373 23374 23375 23376 23377 23378 23379 23380 23381 23382 23383 23384 23385 23386 23387 23388 23389 23390 23391 23392 23393 23394 23395 23396 23397 23398 23399 23400 23401 23402 23403 23404 23405 23406 23407 23408 23409 23410 23411 23412 23413 23414 23415 23416 23417 23418 23419 23420 23421 23422 23423 23424 23425 23426 23427 23428 23429 23430 23431 23432 23433 23434 23435 23436 23437 23438 23439 23440 23441 23442 23443 23444 23445 23446 23447 23448 23449 23450 23451 23452 23453 23454 23455 23456 23457 23458 23459 23460 23461 23462 23463 23464 23465 23466 23467 23468 23469 23470 23471 23472 23473 23474 23475 23476 23477 23478 23479 23480 23481 23482 23483 23484 23485 23486 23487 23488 23489 23490 23491 23492 23493 23494 23495 23496 23497 23498 23499 23500 23501 23502 23503 23504 23505 23506 23507 23508 23509 23510 23511 23512 23513 23514 23515 23516 23517 23518 23519 23520 23521 23522 23523 23524 23525 23526 23527 23528 23529 23530 23531 23532 23533 23534 23535 23536 23537 23538 23539 23540 23541 23542 23543 23544 23545 23546 23547 23548 23549 23550 23551 23552 23553 23554 23555 23556 23557 23558 23559 23560 23561 23562 23563 23564 23565 23566 23567 23568 23569 23570 23571 23572 23573 23574 23575 23576 23577 23578 23579 23580 23581 23582 23583 23584 23585 23586 23587 23588 23589 23590 23591 23592 23593 23594 23595 23596 23597 23598 23599 23600 23601 23602 23603 23604 23605 23606 23607 23608 23609 23610 23611 23612 23613 23614 23615 23616 23617 23618 23619 23620 23621 23622 23623 23624 23625 23626 23627 23628 23629 23630 23631 23632 23633 23634 23635 23636 23637 23638 23639 23640 23641 23642 23643 23644 23645 23646 23647 23648 23649 23650 23651 23652 23653 23654 23655 23656 23657 23658 23659 23660 23661 23662 23663 23664 23665 23666 23667 23668 23669 23670 23671 23672 23673 23674 23675 23676 23677 23678 23679 23680 23681 23682 23683 23684 23685 23686 23687 23688 23689 23690 23691 23692 23693 23694 23695 23696 23697 23698 23699 23700 23701 23702 23703 23704 23705 23706 23707 23708 23709 23710 23711 23712 23713 23714 23715 23716 23717 23718 23719 23720 23721 23722 23723 23724 23725 23726 23727 23728 23729 23730 23731 23732 23733 23734 23735 23736 23737 23738 23739 23740 23741 23742 23743 23744 23745 23746 23747 23748 23749 23750 23751 23752 23753 23754 23755 23756 23757 23758 23759 23760 23761 23762 23763 23764 23765 23766 23767 23768 23769 23770 23771 23772 23773 23774 23775 23776 23777 23778 23779 23780 23781 23782 23783 23784 23785 23786 23787 23788 23789 23790 23791 23792 23793 23794 23795 23796 23797 23798 23799 23800 23801 23802 23803 23804 23805 23806 23807 23808 23809 23810 23811 23812 23813 23814 23815 23816 23817 23818 23819 23820 23821 23822 23823 23824 23825 23826 23827 23828 23829 23830 23831 23832 23833 23834 23835 23836 23837 23838 23839 23840 23841 23842 23843 23844 23845 23846 23847 23848 23849 23850 23851 23852 23853 23854 23855 23856 23857 23858 23859 23860 23861 23862 23863 23864 23865 23866 23867 23868 23869 23870 23871 23872 23873 23874 23875 23876 23877 23878 23879 23880 23881 23882 23883 23884 23885 23886 23887 23888 23889 23890 23891 23892 23893 23894 23895 23896 23897 23898 23899 23900 23901 23902 23903 23904 23905 23906 23907 23908 23909 23910 23911 23912 23913 23914 23915 23916 23917 23918 23919 23920 23921 23922 23923 23924 23925 23926 23927 23928 23929 23930 23931 23932 23933 23934 23935 23936 23937 23938 23939 23940 23941 23942 23943 23944 23945 23946 23947 23948 23949 23950 23951 23952 23953 23954 23955 23956 23957 23958 23959 23960 23961 23962 23963 23964 23965 23966 23967 23968 23969 23970 23971 23972 23973 23974 23975 23976 23977 23978 23979 23980 23981 23982 23983 23984 23985 23986 23987 23988 23989 23990 23991 23992 23993 23994 23995 23996 23997 23998 23999 24000 24001 24002 24003 24004 24005 24006 24007 24008 24009 24010 24011 24012 24013 24014 24015 24016 24017 24018 24019 24020 24021 24022 24023 24024 24025 24026 24027 24028 24029 24030 24031 24032 24033 24034 24035 24036 24037 24038 24039 24040 24041 24042 24043 24044 24045 24046 24047 24048 24049 24050 24051 24052 24053 24054 24055 24056 24057 24058 24059 24060 24061 24062 24063 24064 24065 24066 24067 24068 24069 24070 24071 24072 24073 24074 24075 24076 24077 24078 24079 24080 24081 24082 24083 24084 24085 24086 24087 24088 24089 24090 24091 24092 24093 24094 24095 24096 24097 24098 24099 24100 24101 24102 24103 24104 24105 24106 24107 24108 24109 24110 24111 24112 24113 24114 24115 24116 24117 24118 24119 24120 24121 24122 24123 24124 24125 24126 24127 24128 24129 24130 24131 24132 24133 24134 24135 24136 24137 24138 24139 24140 24141 24142 24143 24144 24145 24146 24147 24148 24149 24150 24151 24152 24153 24154 24155 24156 24157 24158 24159 24160 24161 24162 24163 24164 24165 24166 24167 24168 24169 24170 24171 24172 24173 24174 24175 24176 24177 24178 24179 24180 24181 24182 24183 24184 24185 24186 24187 24188 24189 24190 24191 24192 24193 24194 24195 24196 24197 24198 24199 24200 24201 24202 24203 24204 24205 24206 24207 24208 24209 24210 24211 24212 24213 24214 24215 24216 24217 24218 24219 24220 24221 24222 24223 24224 24225 24226 24227 24228 24229 24230 24231 24232 24233 24234 24235 24236 24237 24238 24239 24240 24241 24242 24243 24244 24245 24246 24247 24248 24249 24250 24251 24252 24253 24254 24255 24256 24257 24258 24259 24260 24261 24262 24263 24264 24265 24266 24267 24268 24269 24270 24271 24272 24273 24274 24275 24276 24277 24278 24279 24280 24281 24282 24283 24284 24285 24286 24287 24288 24289 24290 24291 24292 24293 24294 24295 24296 24297 24298 24299 24300 24301 24302 24303 24304 24305 24306 24307 24308 24309 24310 24311 24312 24313 24314 24315 24316 24317 24318 24319 24320 24321 24322 24323 24324 24325 24326 24327 24328 24329 24330 24331 24332 24333 24334 24335 24336 24337 24338 24339 24340 24341 24342 24343 24344 24345 24346 24347 24348 24349 24350 24351 24352 24353 24354 24355 24356 24357 24358 24359 24360 24361 24362 24363 24364 24365 24366 24367 24368 24369 24370 24371 24372 24373 24374 24375 24376 24377 24378 24379 24380 24381 24382 24383 24384 24385 24386 24387 24388 24389 24390 24391 24392 24393 24394 24395 24396 24397 24398 24399 24400 24401 24402 24403 24404 24405 24406 24407 24408 24409 24410 24411 24412 24413 24414 24415 24416 24417 24418 24419 24420 24421 24422 24423 24424 24425 24426 24427 24428 24429 24430 24431 24432 24433 24434 24435 24436 24437 24438 24439 24440 24441 24442 24443 24444 24445 24446 24447 24448 24449 24450 24451 24452 24453 24454 24455 24456 24457 24458 24459 24460 24461 24462 24463 24464 24465 24466 24467 24468 24469 24470 24471 24472 24473 24474 24475 24476 24477 24478 24479 24480 24481 24482 24483 24484 24485 24486 24487 24488 24489 24490 24491 24492 24493 24494 24495 24496 24497 24498 24499 24500 24501 24502 24503 24504 24505 24506 24507 24508 24509 24510 24511 24512 24513 24514 24515 24516 24517 24518 24519 24520 24521 24522 24523 24524 24525 24526 24527 24528 24529 24530 24531 24532 24533 24534 24535 24536 24537 24538 24539 24540 24541 24542 24543 24544 24545 24546 24547 24548 24549 24550 24551 24552 24553 24554 24555 24556 24557 24558 24559 24560 24561 24562 24563 24564 24565 24566 24567 24568 24569 24570 24571 24572 24573 24574 24575 24576 24577 24578 24579 24580 24581 24582 24583 24584 24585 24586 24587 24588 24589 24590 24591 24592 24593 24594 24595 24596 24597 24598 24599 24600 24601 24602 24603 24604 24605 24606 24607 24608 24609 24610 24611 24612 24613 24614 24615 24616 24617 24618 24619 24620 24621 24622 24623 24624 24625 24626 24627 24628 24629 24630 24631 24632 24633 24634 24635 24636 24637 24638 24639 24640 24641 24642 24643 24644 24645 24646 24647 24648 24649 24650 24651 24652 24653 24654 24655 24656 24657 24658 24659 24660 24661 24662 24663 24664 24665 24666 24667 24668 24669 24670 24671 24672 24673 24674 24675 24676 24677 24678 24679 24680 24681 24682 24683 24684 24685 24686 24687 24688 24689 24690 24691 24692 24693 24694 24695 24696 24697 24698 24699 24700 24701 24702 24703 24704 24705 24706 24707 24708 24709 24710 24711 24712 24713 24714 24715 24716 24717 24718 24719 24720 24721 24722 24723 24724 24725 24726 24727 24728 24729 24730 24731 24732 24733 24734 24735 24736 24737 24738 24739 24740 24741 24742 24743 24744 24745 24746 24747 24748 24749 24750 24751 24752 24753 24754 24755 24756 24757 24758 24759 24760 24761 24762 24763 24764 24765 24766 24767 24768 24769 24770 24771 24772 24773 24774 24775 24776 24777 24778 24779 24780 24781 24782 24783 24784 24785 24786 24787 24788 24789 24790 24791 24792 24793 24794 24795 24796 24797 24798 24799 24800 24801 24802 24803 24804 24805 24806 24807 24808 24809 24810 24811 24812 24813 24814 24815 24816 24817 24818 24819 24820 24821 24822 24823 24824 24825 24826 24827 24828 24829 24830 24831 24832 24833 24834 24835 24836 24837 24838 24839 24840 24841 24842 24843 24844 24845 24846 24847 24848 24849 24850 24851 24852 24853 24854 24855 24856 24857 24858 24859 24860 24861 24862 24863 24864 24865 24866 24867 24868 24869 24870 24871 24872 24873 24874 24875 24876 24877 24878 24879 24880 24881 24882 24883 24884 24885 24886 24887 24888 24889 24890 24891 24892 24893 24894 24895 24896 24897 24898 24899 24900 24901 24902 24903 24904 24905 24906 24907 24908 24909 24910 24911 24912 24913 24914 24915 24916 24917 24918 24919 24920 24921 24922 24923 24924 24925 24926 24927 24928 24929 24930 24931 24932 24933 24934 24935 24936 24937 24938 24939 24940 24941 24942 24943 24944 24945 24946 24947 24948 24949 24950 24951 24952 24953 24954 24955 24956 24957 24958 24959 24960 24961 24962 24963 24964 24965 24966 24967 24968 24969 24970 24971 24972 24973 24974 24975 24976 24977 24978 24979 24980 24981 24982 24983 24984 24985 24986 24987 24988 24989 24990 24991 24992 24993 24994 24995 24996 24997 24998 24999 25000 25001 25002 25003 25004 25005 25006 25007 25008 25009 25010 25011 25012 25013 25014 25015 25016 25017 25018 25019 25020 25021 25022 25023 25024 25025 25026 25027 25028 25029 25030 25031 25032 25033 25034 25035 25036 25037 25038 25039 25040 25041 25042 25043 25044 25045 25046 25047 25048 25049 25050 25051 25052 25053 25054 25055 25056 25057 25058 25059 25060 25061 25062 25063 25064 25065 25066 25067 25068 25069 25070 25071 25072 25073 25074 25075 25076 25077 25078 25079 25080 25081 25082 25083 25084 25085 25086 25087 25088 25089 25090 25091 25092 25093 25094 25095 25096 25097 25098 25099 25100 25101 25102 25103 25104 25105 25106 25107 25108 25109 25110 25111 25112 25113 25114 25115 25116 25117 25118 25119 25120 25121 25122 25123 25124 25125 25126 25127 25128 25129 25130 25131 25132 25133 25134 25135 25136 25137 25138 25139 25140 25141 25142 25143 25144 25145 25146 25147 25148 25149 25150 25151 25152 25153 25154 25155 25156 25157 25158 25159 25160 25161 25162 25163 25164 25165 25166 25167 25168 25169 25170 25171 25172 25173 25174 25175 25176 25177 25178 25179 25180 25181 25182 25183 25184 25185 25186 25187 25188 25189 25190 25191 25192 25193 25194 25195 25196 25197 25198 25199 25200 25201 25202 25203 25204 25205 25206 25207 25208 25209 25210 25211 25212 25213 25214 25215 25216 25217 25218 25219 25220 25221 25222 25223 25224 25225 25226 25227 25228 25229 25230 25231 25232 25233 25234 25235 25236 25237 25238 25239 25240 25241 25242 25243 25244 25245 25246 25247 25248 25249 25250 25251 25252 25253 25254 25255 25256 25257 25258 25259 25260 25261 25262 25263 25264 25265 25266 25267 25268 25269 25270 25271 25272 25273 25274 25275 25276 25277 25278 25279 25280 25281 25282 25283 25284 25285 25286 25287 25288 25289 25290 25291 25292 25293 25294 25295 25296 25297 25298 25299 25300 25301 25302 25303 25304 25305 25306 25307 25308 25309 25310 25311 25312 25313 25314 25315 25316 25317 25318 25319 25320 25321 25322 25323 25324 25325 25326 25327 25328 25329 25330 25331 25332 25333 25334 25335 25336 25337 25338 25339 25340 25341 25342 25343 25344 25345 25346 25347 25348 25349 25350 25351 25352 25353 25354 25355 25356 25357 25358 25359 25360 25361 25362 25363 25364 25365 25366 25367 25368 25369 25370 25371 25372 25373 25374 25375 25376 25377 25378 25379 25380 25381 25382 25383 25384 25385 25386 25387 25388 25389 25390 25391 25392 25393 25394 25395 25396 25397 25398 25399 25400 25401 25402 25403 25404 25405 25406 25407 25408 25409 25410 25411 25412 25413 25414 25415 25416 25417 25418 25419 25420 25421 25422 25423 25424 25425 25426 25427 25428 25429 25430 25431 25432 25433 25434 25435 25436 25437 25438 25439 25440 25441 25442 25443 25444 25445 25446 25447 25448 25449 25450 25451 25452 25453 25454 25455 25456 25457 25458 25459 25460 25461 25462 25463 25464 25465 25466 25467 25468 25469 25470 25471 25472 25473 25474 25475 25476 25477 25478 25479 25480 25481 25482 25483 25484 25485 25486 25487 25488 25489 25490 25491 25492 25493 25494 25495 25496 25497 25498 25499 25500 25501 25502 25503 25504 25505 25506 25507 25508 25509 25510 25511 25512 25513 25514 25515 25516 25517 25518 25519 25520 25521 25522 25523 25524 25525 25526 25527 25528 25529 25530 25531 25532 25533 25534 25535 25536 25537 25538 25539 25540 25541 25542 25543 25544 25545 25546 25547 25548 25549 25550 25551 25552 25553 25554 25555 25556 25557 25558 25559 25560 25561 25562 25563 25564 25565 25566 25567 25568 25569 25570 25571 25572 25573 25574 25575 25576 25577 25578 25579 25580 25581 25582 25583 25584 25585 25586 25587 25588 25589 25590 25591 25592 25593 25594 25595 25596 25597 25598 25599 25600 25601 25602 25603 25604 25605 25606 25607 25608 25609 25610 25611 25612 25613 25614 25615 25616 25617 25618 25619 25620 25621 25622 25623 25624 25625 25626 25627 25628 25629 25630 25631 25632 25633 25634 25635 25636 25637 25638 25639 25640 25641 25642 25643 25644 25645 25646 25647 25648 25649 25650 25651 25652 25653 25654 25655 25656 25657 25658 25659 25660 25661 25662 25663 25664 25665 25666 25667 25668 25669 25670 25671 25672 25673 25674 25675 25676 25677 25678 25679 25680 25681 25682 25683 25684 25685 25686 25687 25688 25689 25690 25691 25692 25693 25694 25695 25696 25697 25698 25699 25700 25701 25702 25703 25704 25705 25706 25707 25708 25709 25710 25711 25712 25713 25714 25715 25716 25717 25718 25719 25720 25721 25722 25723 25724 25725 25726 25727 25728 25729 25730 25731 25732 25733 25734 25735 25736 25737 25738 25739 25740 25741 25742 25743 25744 25745 25746 25747 25748 25749 25750 25751 25752 25753 25754 25755 25756 25757 25758 25759 25760 25761 25762 25763 25764 25765 25766 25767 25768 25769 25770 25771 25772 25773 25774 25775 25776 25777 25778 25779 25780 25781 25782 25783 25784 25785 25786 25787 25788 25789 25790 25791 25792 25793 25794 25795 25796 25797 25798 25799 25800 25801 25802 25803 25804 25805 25806 25807 25808 25809 25810 25811 25812 25813 25814 25815 25816 25817 25818 25819 25820 25821 25822 25823 25824 25825 25826 25827 25828 25829 25830 25831 25832 25833 25834 25835 25836 25837 25838 25839 25840 25841 25842 25843 25844 25845 25846 25847 25848 25849 25850 25851 25852 25853 25854 25855 25856 25857 25858 25859 25860 25861 25862 25863 25864 25865 25866 25867 25868 25869 25870 25871 25872 25873 25874 25875 25876 25877 25878 25879 25880 25881 25882 25883 25884 25885 25886 25887 25888 25889 25890 25891 25892 25893 25894 25895 25896 25897 25898 25899 25900 25901 25902 25903 25904 25905 25906 25907 25908 25909 25910 25911 25912 25913 25914 25915 25916 25917 25918 25919 25920 25921 25922 25923 25924 25925 25926 25927 25928 25929 25930 25931 25932 25933 25934 25935 25936 25937 25938 25939 25940 25941 25942 25943 25944 25945 25946 25947 25948 25949 25950 25951 25952 25953 25954 25955 25956 25957 25958 25959 25960 25961 25962 25963 25964 25965 25966 25967 25968 25969 25970 25971 25972 25973 25974 25975 25976 25977 25978 25979 25980 25981 25982 25983 25984 25985 25986 25987 25988 25989 25990 25991 25992 25993 25994 25995 25996 25997 25998 25999 26000 26001 26002 26003 26004 26005 26006 26007 26008 26009 26010 26011 26012 26013 26014 26015 26016 26017 26018 26019 26020 26021 26022 26023 26024 26025 26026 26027 26028 26029 26030 26031 26032 26033 26034 26035 26036 26037 26038 26039 26040 26041 26042 26043 26044 26045 26046 26047 26048 26049 26050 26051 26052 26053 26054 26055 26056 26057 26058 26059 26060 26061 26062 26063 26064 26065 26066 26067 26068 26069 26070 26071 26072 26073 26074 26075 26076 26077 26078 26079 26080 26081 26082 26083 26084 26085 26086 26087 26088 26089 26090 26091 26092 26093 26094 26095 26096 26097 26098 26099 26100 26101 26102 26103 26104 26105 26106 26107 26108 26109 26110 26111 26112 26113 26114 26115 26116 26117 26118 26119 26120 26121 26122 26123 26124 26125 26126 26127 26128 26129 26130 26131 26132 26133 26134 26135 26136 26137 26138 26139 26140 26141 26142 26143 26144 26145 26146 26147 26148 26149 26150 26151 26152 26153 26154 26155 26156 26157 26158 26159 26160 26161 26162 26163 26164 26165 26166 26167 26168 26169 26170 26171 26172 26173 26174 26175 26176 26177 26178 26179 26180 26181 26182 26183 26184 26185 26186 26187 26188 26189 26190 26191 26192 26193 26194 26195 26196 26197 26198 26199 26200 26201 26202 26203 26204 26205 26206 26207 26208 26209 26210 26211 26212 26213 26214 26215 26216 26217 26218 26219 26220 26221 26222 26223 26224 26225 26226 26227 26228 26229 26230 26231 26232 26233 26234 26235 26236 26237 26238 26239 26240 26241 26242 26243 26244 26245 26246 26247 26248 26249 26250 26251 26252 26253 26254 26255 26256 26257 26258 26259 26260 26261 26262 26263 26264 26265 26266 26267 26268 26269 26270 26271 26272 26273 26274 26275 26276 26277 26278 26279 26280 26281 26282 26283 26284 26285 26286 26287 26288 26289 26290 26291 26292 26293 26294 26295 26296 26297 26298 26299 26300 26301 26302 26303 26304 26305 26306 26307 26308 26309 26310 26311 26312 26313 26314 26315 26316 26317 26318 26319 26320 26321 26322 26323 26324 26325 26326 26327 26328 26329 26330 26331 26332 26333 26334 26335 26336 26337 26338 26339 26340 26341 26342 26343 26344 26345 26346 26347 26348 26349 26350 26351 26352 26353 26354 26355 26356 26357 26358 26359 26360 26361 26362 26363 26364 26365 26366 26367 26368 26369 26370 26371 26372 26373 26374 26375 26376 26377 26378 26379 26380 26381 26382 26383 26384 26385 26386 26387 26388 26389 26390 26391 26392 26393 26394 26395 26396 26397 26398 26399 26400 26401 26402 26403 26404 26405 26406 26407 26408 26409 26410 26411 26412 26413 26414 26415 26416 26417 26418 26419 26420 26421 26422 26423 26424 26425 26426 26427 26428 26429 26430 26431 26432 26433 26434 26435 26436 26437 26438 26439 26440 26441 26442 26443 26444 26445 26446 26447 26448 26449 26450 26451 26452 26453 26454 26455 26456 26457 26458 26459 26460 26461 26462 26463 26464 26465 26466 26467 26468 26469 26470 26471 26472 26473 26474 26475 26476 26477 26478 26479 26480 26481 26482 26483 26484 26485 26486 26487 26488 26489 26490 26491 26492 26493 26494 26495 26496 26497 26498 26499 26500 26501 26502 26503 26504 26505 26506 26507 26508 26509 26510 26511 26512 26513 26514 26515 26516 26517 26518 26519 26520 26521 26522 26523 26524 26525 26526 26527 26528 26529 26530 26531 26532 26533 26534 26535 26536 26537 26538 26539 26540 26541 26542 26543 26544 26545 26546 26547 26548 26549 26550 26551 26552 26553 26554 26555 26556 26557 26558 26559 26560 26561 26562 26563 26564 26565 26566 26567 26568 26569 26570 26571 26572 26573 26574 26575 26576 26577 26578 26579 26580 26581 26582 26583 26584 26585 26586 26587 26588 26589 26590 26591 26592 26593 26594 26595 26596 26597 26598 26599 26600 26601 26602 26603 26604 26605 26606 26607 26608 26609 26610 26611 26612 26613 26614 26615 26616 26617 26618 26619 26620 26621 26622 26623 26624 26625 26626 26627 26628 26629 26630 26631 26632 26633 26634 26635 26636 26637 26638 26639 26640 26641 26642 26643 26644 26645 26646 26647 26648 26649 26650 26651 26652 26653 26654 26655 26656 26657 26658 26659 26660 26661 26662 26663 26664 26665 26666 26667 26668 26669 26670 26671 26672 26673 26674 26675 26676 26677 26678 26679 26680 26681 26682 26683 26684 26685 26686 26687 26688 26689 26690 26691 26692 26693 26694 26695 26696 26697 26698 26699 26700 26701 26702 26703 26704 26705 26706 26707 26708 26709 26710 26711 26712 26713 26714 26715 26716 26717 26718 26719 26720 26721 26722 26723 26724 26725 26726 26727 26728 26729 26730 26731 26732 26733 26734 26735 26736 26737 26738 26739 26740 26741 26742 26743 26744 26745 26746 26747 26748 26749 26750 26751 26752 26753 26754 26755 26756 26757 26758 26759 26760 26761 26762 26763 26764 26765 26766 26767 26768 26769 26770 26771 26772 26773 26774 26775 26776 26777 26778 26779 26780 26781 26782 26783 26784 26785 26786 26787 26788 26789 26790 26791 26792 26793 26794 26795 26796 26797 26798 26799 26800 26801 26802 26803 26804 26805 26806 26807 26808 26809 26810 26811 26812 26813 26814 26815 26816 26817 26818 26819 26820 26821 26822 26823 26824 26825 26826 26827 26828 26829 26830 26831 26832 26833 26834 26835 26836 26837 26838 26839 26840 26841 26842 26843 26844 26845 26846 26847 26848 26849 26850 26851 26852 26853 26854 26855 26856 26857 26858 26859 26860 26861 26862 26863 26864 26865 26866 26867 26868 26869 26870 26871 26872 26873 26874 26875 26876 26877 26878 26879 26880 26881 26882 26883 26884 26885 26886 26887 26888 26889 26890 26891 26892 26893 26894 26895 26896 26897 26898 26899 26900 26901 26902 26903 26904 26905 26906 26907 26908 26909 26910 26911 26912 26913 26914 26915 26916 26917 26918 26919 26920 26921 26922 26923 26924 26925 26926 26927 26928 26929 26930 26931 26932 26933 26934 26935 26936 26937 26938 26939 26940 26941 26942 26943 26944 26945 26946 26947 26948 26949 26950 26951 26952 26953 26954 26955 26956 26957 26958 26959 26960 26961 26962 26963 26964 26965 26966 26967 26968 26969 26970 26971 26972 26973 26974 26975 26976 26977 26978 26979 26980 26981 26982 26983 26984 26985 26986 26987 26988 26989 26990 26991 26992 26993 26994 26995 26996 26997 26998 26999 27000 27001 27002 27003 27004 27005 27006 27007 27008 27009 27010 27011 27012 27013 27014 27015 27016 27017 27018 27019 27020 27021 27022 27023 27024 27025 27026 27027 27028 27029 27030 27031 27032 27033 27034 27035 27036 27037 27038 27039 27040 27041 27042 27043 27044 27045 27046 27047 27048 27049 27050 27051 27052 27053 27054 27055 27056 27057 27058 27059 27060 27061 27062 27063 27064 27065 27066 27067 27068 27069 27070 27071 27072 27073 27074 27075 27076 27077 27078 27079 27080 27081 27082 27083 27084 27085 27086 27087 27088 27089 27090 27091 27092 27093 27094 27095 27096 27097 27098 27099 27100 27101 27102 27103 27104 27105 27106 27107 27108 27109 27110 27111 27112 27113 27114 27115 27116 27117 27118 27119 27120 27121 27122 27123 27124 27125 27126 27127 27128 27129 27130 27131 27132 27133 27134 27135 27136 27137 27138 27139 27140 27141 27142 27143 27144 27145 27146 27147 27148 27149 27150 27151 27152 27153 27154 27155 27156 27157 27158 27159 27160 27161 27162 27163 27164 27165 27166 27167 27168 27169 27170 27171 27172 27173 27174 27175 27176 27177 27178 27179 27180 27181 27182 27183 27184 27185 27186 27187 27188 27189 27190 27191 27192 27193 27194 27195 27196 27197 27198 27199 27200 27201 27202 27203 27204 27205 27206 27207 27208 27209 27210 27211 27212 27213 27214 27215 27216 27217 27218 27219 27220 27221 27222 27223 27224 27225 27226 27227 27228 27229 27230 27231 27232 27233 27234 27235 27236 27237 27238 27239 27240 27241 27242 27243 27244 27245 27246 27247 27248 27249 27250 27251 27252 27253 27254 27255 27256 27257 27258 27259 27260 27261 27262 27263 27264 27265 27266 27267 27268 27269 27270 27271 27272 27273 27274 27275 27276 27277 27278 27279 27280 27281 27282 27283 27284 27285 27286 27287 27288 27289 27290 27291 27292 27293 27294 27295 27296 27297 27298 27299 27300 27301 27302 27303 27304 27305 27306 27307 27308 27309 27310 27311 27312 27313 27314 27315 27316 27317 27318 27319 27320 27321 27322 27323 27324 27325 27326 27327 27328 27329 27330 27331 27332 27333 27334 27335 27336 27337 27338 27339 27340 27341 27342 27343 27344 27345 27346 27347 27348 27349 27350 27351 27352 27353 27354 27355 27356 27357 27358 27359 27360 27361 27362 27363 27364 27365 27366 27367 27368 27369 27370 27371 27372 27373 27374 27375 27376 27377 27378 27379 27380 27381 27382 27383 27384 27385 27386 27387 27388 27389 27390 27391 27392 27393 27394 27395 27396 27397 27398 27399 27400 27401 27402 27403 27404 27405 27406 27407 27408 27409 27410 27411 27412 27413 27414 27415 27416 27417 27418 27419 27420 27421 27422 27423 27424 27425 27426 27427 27428 27429 27430 27431 27432 27433 27434 27435 27436 27437 27438 27439 27440 27441 27442 27443 27444 27445 27446 27447 27448 27449 27450 27451 27452 27453 27454 27455 27456 27457 27458 27459 27460 27461 27462 27463 27464 27465 27466 27467 27468 27469 27470 27471 27472 27473 27474 27475 27476 27477 27478 27479 27480 27481 27482 27483 27484 27485 27486 27487 27488 27489 27490 27491 27492 27493 27494 27495 27496 27497 27498 27499 27500 27501 27502 27503 27504 27505 27506 27507 27508 27509 27510 27511 27512 27513 27514 27515 27516 27517 27518 27519 27520 27521 27522 27523 27524 27525 27526 27527 27528 27529 27530 27531 27532 27533 27534 27535 27536 27537 27538 27539 27540 27541 27542 27543 27544 27545 27546 27547 27548 27549 27550 27551 27552 27553 27554 27555 27556 27557 27558 27559 27560 27561 27562 27563 27564 27565 27566 27567 27568 27569 27570 27571 27572 27573 27574 27575 27576 27577 27578 27579 27580 27581 27582 27583 27584 27585 27586 27587 27588 27589 27590 27591 27592 27593 27594 27595 27596 27597 27598 27599 27600 27601 27602 27603 27604 27605 27606 27607 27608 27609 27610 27611 27612 27613 27614 27615 27616 27617 27618 27619 27620 27621 27622 27623 27624 27625 27626 27627 27628 27629 27630 27631 27632 27633 27634 27635 27636 27637 27638 27639 27640 27641 27642 27643 27644 27645 27646 27647 27648 27649 27650 27651 27652 27653 27654 27655 27656 27657 27658 27659 27660 27661 27662 27663 27664 27665 27666 27667 27668 27669 27670 27671 27672 27673 27674 27675 27676 27677 27678 27679 27680 27681 27682 27683 27684 27685 27686 27687 27688 27689 27690 27691 27692 27693 27694 27695 27696 27697 27698 27699 27700 27701 27702 27703 27704 27705 27706 27707 27708 27709 27710 27711 27712 27713 27714 27715 27716 27717 27718 27719 27720 27721 27722 27723 27724 27725 27726 27727 27728 27729 27730 27731 27732 27733 27734 27735 27736 27737 27738 27739 27740 27741 27742 27743 27744 27745 27746 27747 27748 27749 27750 27751 27752 27753 27754 27755 27756 27757 27758 27759 27760 27761 27762 27763 27764 27765 27766 27767 27768 27769 27770 27771 27772 27773 27774 27775 27776 27777 27778 27779 27780 27781 27782 27783 27784 27785 27786 27787 27788 27789 27790 27791 27792 27793 27794 27795 27796 27797 27798 27799 27800 27801 27802 27803 27804 27805 27806 27807 27808 27809 27810 27811 27812 27813 27814 27815 27816 27817 27818 27819 27820 27821 27822 27823 27824 27825 27826 27827 27828 27829 27830 27831 27832 27833 27834 27835 27836 27837 27838 27839 27840 27841 27842 27843 27844 27845 27846 27847 27848 27849 27850 27851 27852 27853 27854 27855 27856 27857 27858 27859 27860 27861 27862 27863 27864 27865 27866 27867 27868 27869 27870 27871 27872 27873 27874 27875 27876 27877 27878 27879 27880 27881 27882 27883 27884 27885 27886 27887 27888 27889 27890 27891 27892 27893 27894 27895 27896 27897 27898 27899 27900 27901 27902 27903 27904 27905 27906 27907 27908 27909 27910 27911 27912 27913 27914 27915 27916 27917 27918 27919 27920 27921 27922 27923 27924 27925 27926 27927 27928 27929 27930 27931 27932 27933 27934 27935 27936 27937 27938 27939 27940 27941 27942 27943 27944 27945 27946 27947 27948 27949 27950 27951 27952 27953 27954 27955 27956 27957 27958 27959 27960 27961 27962 27963 27964 27965 27966 27967 27968 27969 27970 27971 27972 27973 27974 27975 27976 27977 27978 27979 27980 27981 27982 27983 27984 27985 27986 27987 27988 27989 27990 27991 27992 27993 27994 27995 27996 27997 27998 27999 28000 28001 28002 28003 28004 28005 28006 28007 28008 28009 28010 28011 28012 28013 28014 28015 28016 28017 28018 28019 28020 28021 28022 28023 28024 28025 28026 28027 28028 28029 28030 28031 28032 28033 28034 28035 28036 28037 28038 28039 28040 28041 28042 28043 28044 28045 28046 28047 28048 28049 28050 28051 28052 28053 28054 28055 28056 28057 28058 28059 28060 28061 28062 28063 28064 28065 28066 28067 28068 28069 28070 28071 28072 28073 28074 28075 28076 28077 28078 28079 28080 28081 28082 28083 28084 28085 28086 28087 28088 28089 28090 28091 28092 28093 28094 28095 28096 28097 28098 28099 28100 28101 28102 28103 28104 28105 28106 28107 28108 28109 28110 28111 28112 28113 28114 28115 28116 28117 28118 28119 28120 28121 28122 28123 28124 28125 28126 28127 28128 28129 28130 28131 28132 28133 28134 28135 28136 28137 28138 28139 28140 28141 28142 28143 28144 28145 28146 28147 28148 28149 28150 28151 28152 28153 28154 28155 28156 28157 28158 28159 28160 28161 28162 28163 28164 28165 28166 28167 28168 28169 28170 28171 28172 28173 28174 28175 28176 28177 28178 28179 28180 28181 28182 28183 28184 28185 28186 28187 28188 28189 28190 28191 28192 28193 28194 28195 28196 28197 28198 28199 28200 28201 28202 28203 28204 28205 28206 28207 28208 28209 28210 28211 28212 28213 28214 28215 28216 28217 28218 28219 28220 28221 28222 28223 28224 28225 28226 28227 28228 28229 28230 28231 28232 28233 28234 28235 28236 28237 28238 28239 28240 28241 28242 28243 28244 28245 28246 28247 28248 28249 28250 28251 28252 28253 28254 28255 28256 28257 28258 28259 28260 28261 28262 28263 28264 28265 28266 28267 28268 28269 28270 28271 28272 28273 28274 28275 28276 28277 28278 28279 28280 28281 28282 28283 28284 28285 28286 28287 28288 28289 28290 28291 28292 28293 28294 28295 28296 28297 28298 28299 28300 28301 28302 28303 28304 28305 28306 28307 28308 28309 28310 28311 28312 28313 28314 28315 28316 28317 28318 28319 28320 28321 28322 28323 28324 28325 28326 28327 28328 28329 28330 28331 28332 28333 28334 28335 28336 28337 28338 28339 28340 28341 28342 28343 28344 28345 28346 28347 28348 28349 28350 28351 28352 28353 28354 28355 28356 28357 28358 28359 28360 28361 28362 28363 28364 28365 28366 28367 28368 28369 28370 28371 28372 28373 28374 28375 28376 28377 28378 28379 28380 28381 28382 28383 28384 28385 28386 28387 28388 28389 28390 28391 28392 28393 28394 28395 28396 28397 28398 28399 28400 28401 28402 28403 28404 28405 28406 28407 28408 28409 28410 28411 28412 28413 28414 28415 28416 28417 28418 28419 28420 28421 28422 28423 28424 28425 28426 28427 28428 28429 28430 28431 28432 28433 28434 28435 28436 28437 28438 28439 28440 28441 28442 28443 28444 28445 28446 28447 28448 28449 28450 28451 28452 28453 28454 28455 28456 28457 28458 28459 28460 28461 28462 28463 28464 28465 28466 28467 28468 28469 28470 28471 28472 28473 28474 28475 28476 28477 28478 28479 28480 28481 28482 28483 28484 28485 28486 28487 28488 28489 28490 28491 28492 28493 28494 28495 28496 28497 28498 28499 28500 28501 28502 28503 28504 28505 28506 28507 28508 28509 28510 28511 28512 28513 28514 28515 28516 28517 28518 28519 28520 28521 28522 28523 28524 28525 28526 28527 28528 28529 28530 28531 28532 28533 28534 28535 28536 28537 28538 28539 28540 28541 28542 28543 28544 28545 28546 28547 28548 28549 28550 28551 28552 28553 28554 28555 28556 28557 28558 28559 28560 28561 28562 28563 28564 28565 28566 28567 28568 28569 28570 28571 28572 28573 28574 28575 28576 28577 28578 28579 28580 28581 28582 28583 28584 28585 28586 28587 28588 28589 28590 28591 28592 28593 28594 28595 28596 28597 28598 28599 28600 28601 28602 28603 28604 28605 28606 28607 28608 28609 28610 28611 28612 28613 28614 28615 28616 28617 28618 28619 28620 28621 28622 28623 28624 28625 28626 28627 28628 28629 28630 28631 28632 28633 28634 28635 28636 28637 28638 28639 28640 28641 28642 28643 28644 28645 28646 28647 28648 28649 28650 28651 28652 28653 28654 28655 28656 28657 28658 28659 28660 28661 28662 28663 28664 28665 28666 28667 28668 28669 28670 28671 28672 28673 28674 28675 28676 28677 28678 28679 28680 28681 28682 28683 28684 28685 28686 28687 28688 28689 28690 28691 28692 28693 28694 28695 28696 28697 28698 28699 28700 28701 28702 28703 28704 28705 28706 28707 28708 28709 28710 28711 28712 28713 28714 28715 28716 28717 28718 28719 28720 28721 28722 28723 28724 28725 28726 28727 28728 28729 28730 28731 28732 28733 28734 28735 28736 28737 28738 28739 28740 28741 28742 28743 28744 28745 28746 28747 28748 28749 28750 28751 28752 28753 28754 28755 28756 28757 28758 28759 28760 28761 28762 28763 28764 28765 28766 28767 28768 28769 28770 28771 28772 28773 28774 28775 28776 28777 28778 28779 28780 28781 28782 28783 28784 28785 28786 28787 28788 28789 28790 28791 28792 28793 28794 28795 28796 28797 28798 28799 28800 28801 28802 28803 28804 28805 28806 28807 28808 28809 28810 28811 28812 28813 28814 28815 28816 28817 28818 28819 28820 28821 28822 28823 28824 28825 28826 28827 28828 28829 28830 28831 28832 28833 28834 28835 28836 28837 28838 28839 28840 28841 28842 28843 28844 28845 28846 28847 28848 28849 28850 28851 28852 28853 28854 28855 28856 28857 28858 28859 28860 28861 28862 28863 28864 28865 28866 28867 28868 28869 28870 28871 28872 28873 28874 28875 28876 28877 28878 28879 28880 28881 28882 28883 28884 28885 28886 28887 28888 28889 28890 28891 28892 28893 28894 28895 28896 28897 28898 28899 28900 28901 28902 28903 28904 28905 28906 28907 28908 28909 28910 28911 28912 28913 28914 28915 28916 28917 28918 28919 28920 28921 28922 28923 28924 28925 28926 28927 28928 28929 28930 28931 28932 28933 28934 28935 28936 28937 28938 28939 28940 28941 28942 28943 28944 28945 28946 28947 28948 28949 28950 28951 28952 28953 28954 28955 28956 28957 28958 28959 28960 28961 28962 28963 28964 28965 28966 28967 28968 28969 28970 28971 28972 28973 28974 28975 28976 28977 28978 28979 28980 28981 28982 28983 28984 28985 28986 28987 28988 28989 28990 28991 28992 28993 28994 28995 28996 28997 28998 28999 29000 29001 29002 29003 29004 29005 29006 29007 29008 29009 29010 29011 29012 29013 29014 29015 29016 29017 29018 29019 29020 29021 29022 29023 29024 29025 29026 29027 29028 29029 29030 29031 29032 29033 29034 29035 29036 29037 29038 29039 29040 29041 29042 29043 29044 29045 29046 29047 29048 29049 29050 29051 29052 29053 29054 29055 29056 29057 29058 29059 29060 29061 29062 29063 29064 29065 29066 29067 29068 29069 29070 29071 29072 29073 29074 29075 29076 29077 29078 29079 29080 29081 29082 29083 29084 29085 29086 29087 29088 29089 29090 29091 29092 29093 29094 29095 29096 29097 29098 29099 29100 29101 29102 29103 29104 29105 29106 29107 29108 29109 29110 29111 29112 29113 29114 29115 29116 29117 29118 29119 29120 29121 29122 29123 29124 29125 29126 29127 29128 29129 29130 29131 29132 29133 29134 29135 29136 29137 29138 29139 29140 29141 29142 29143 29144 29145 29146 29147 29148 29149 29150 29151 29152 29153 29154 29155 29156 29157 29158 29159 29160 29161 29162 29163 29164 29165 29166 29167 29168 29169 29170 29171 29172 29173 29174 29175 29176 29177 29178 29179 29180 29181 29182 29183 29184 29185 29186 29187 29188 29189 29190 29191 29192 29193 29194 29195 29196 29197 29198 29199 29200 29201 29202 29203 29204 29205 29206 29207 29208 29209 29210 29211 29212 29213 29214 29215 29216 29217 29218 29219 29220 29221 29222 29223 29224 29225 29226 29227 29228 29229 29230 29231 29232 29233 29234 29235 29236 29237 29238 29239 29240 29241 29242 29243 29244 29245 29246 29247 29248 29249 29250 29251 29252 29253 29254 29255 29256 29257 29258 29259 29260 29261 29262 29263 29264 29265 29266 29267 29268 29269 29270 29271 29272 29273 29274 29275 29276 29277 29278 29279 29280 29281 29282 29283 29284 29285 29286 29287 29288 29289 29290 29291 29292 29293 29294 29295 29296 29297 29298 29299 29300 29301 29302 29303 29304 29305 29306 29307 29308 29309 29310 29311 29312 29313 29314 29315 29316 29317 29318 29319 29320 29321 29322 29323 29324 29325 29326 29327 29328 29329 29330 29331 29332 29333 29334 29335 29336 29337 29338 29339 29340 29341 29342 29343 29344 29345 29346 29347 29348 29349 29350 29351 29352 29353 29354 29355 29356 29357 29358 29359 29360 29361 29362 29363 29364 29365 29366 29367 29368 29369 29370 29371 29372 29373 29374 29375 29376 29377 29378 29379 29380 29381 29382 29383 29384 29385 29386 29387 29388 29389 29390 29391 29392 29393 29394 29395 29396 29397 29398 29399 29400 29401 29402 29403 29404 29405 29406 29407 29408 29409 29410 29411 29412 29413 29414 29415 29416 29417 29418 29419 29420 29421 29422 29423 29424 29425 29426 29427 29428 29429 29430 29431 29432 29433 29434 29435 29436 29437 29438 29439 29440 29441 29442 29443 29444 29445 29446 29447 29448 29449 29450 29451 29452 29453 29454 29455 29456 29457 29458 29459 29460 29461 29462 29463 29464 29465 29466 29467 29468 29469 29470 29471 29472 29473 29474 29475 29476 29477 29478 29479 29480 29481 29482 29483 29484 29485 29486 29487 29488 29489 29490 29491 29492 29493 29494 29495 29496 29497 29498 29499 29500 29501 29502 29503 29504 29505 29506 29507 29508 29509 29510 29511 29512 29513 29514 29515 29516 29517 29518 29519 29520 29521 29522 29523 29524 29525 29526 29527 29528 29529 29530 29531 29532 29533 29534 29535 29536 29537 29538 29539 29540 29541 29542 29543 29544 29545 29546 29547 29548 29549 29550 29551 29552 29553 29554 29555 29556 29557 29558 29559 29560 29561 29562 29563 29564 29565 29566 29567 29568 29569 29570 29571 29572 29573 29574 29575 29576 29577 29578 29579 29580 29581 29582 29583 29584 29585 29586 29587 29588 29589 29590 29591 29592 29593 29594 29595 29596 29597 29598 29599 29600 29601 29602 29603 29604 29605 29606 29607 29608 29609 29610 29611 29612 29613 29614 29615 29616 29617 29618 29619 29620 29621 29622 29623 29624 29625 29626 29627 29628 29629 29630 29631 29632 29633 29634 29635 29636 29637 29638 29639 29640 29641 29642 29643 29644 29645 29646 29647 29648 29649 29650 29651 29652 29653 29654 29655 29656 29657 29658 29659 29660 29661 29662 29663 29664 29665 29666 29667 29668 29669 29670 29671 29672 29673 29674 29675 29676 29677 29678 29679 29680 29681 29682 29683 29684 29685 29686 29687 29688 29689 29690 29691 29692 29693 29694 29695 29696 29697 29698 29699 29700 29701 29702 29703 29704 29705 29706 29707 29708 29709 29710 29711 29712 29713 29714 29715 29716 29717 29718 29719 29720 29721 29722 29723 29724 29725 29726 29727 29728 29729 29730 29731 29732 29733 29734 29735 29736 29737 29738 29739 29740 29741 29742 29743 29744 29745 29746 29747 29748 29749 29750 29751 29752 29753 29754 29755 29756 29757 29758 29759 29760 29761 29762 29763 29764 29765 29766 29767 29768 29769 29770 29771 29772 29773 29774 29775 29776 29777 29778 29779 29780 29781 29782 29783 29784 29785 29786 29787 29788 29789 29790 29791 29792 29793 29794 29795 29796 29797 29798 29799 29800 29801 29802 29803 29804 29805 29806 29807 29808 29809 29810 29811 29812 29813 29814 29815 29816 29817 29818 29819 29820 29821 29822 29823 29824 29825 29826 29827 29828 29829 29830 29831 29832 29833 29834 29835 29836 29837 29838 29839 29840 29841 29842 29843 29844 29845 29846 29847 29848 29849 29850 29851 29852 29853 29854 29855 29856 29857 29858 29859 29860 29861 29862 29863 29864 29865 29866 29867 29868 29869 29870 29871 29872 29873 29874 29875 29876 29877 29878 29879 29880 29881 29882 29883 29884 29885 29886 29887 29888 29889 29890 29891 29892 29893 29894 29895 29896 29897 29898 29899 29900 29901 29902 29903 29904 29905 29906 29907 29908 29909 29910 29911 29912 29913 29914 29915 29916 29917 29918 29919 29920 29921 29922 29923 29924 29925 29926 29927 29928 29929 29930 29931 29932 29933 29934 29935 29936 29937 29938 29939 29940 29941 29942 29943 29944 29945 29946 29947 29948 29949 29950 29951 29952 29953 29954 29955 29956 29957 29958 29959 29960 29961 29962 29963 29964 29965 29966 29967 29968 29969 29970 29971 29972 29973 29974 29975 29976 29977 29978 29979 29980 29981 29982 29983 29984 29985 29986 29987 29988 29989 29990 29991 29992 29993 29994 29995 29996 29997 29998 29999 30000 30001 30002 30003 30004 30005 30006 30007 30008 30009 30010 30011 30012 30013 30014 30015 30016 30017 30018 30019 30020 30021 30022 30023 30024 30025 30026 30027 30028 30029 30030 30031 30032 30033 30034 30035 30036 30037 30038 30039 30040 30041 30042 30043 30044 30045 30046 30047 30048 30049 30050 30051 30052 30053 30054 30055 30056 30057 30058 30059 30060 30061 30062 30063 30064 30065 30066 30067 30068 30069 30070 30071 30072 30073 30074 30075 30076 30077 30078 30079 30080 30081 30082 30083 30084 30085 30086 30087 30088 30089 30090 30091 30092 30093 30094 30095 30096 30097 30098 30099 30100 30101 30102 30103 30104 30105 30106 30107 30108 30109 30110 30111 30112 30113 30114 30115 30116 30117 30118 30119 30120 30121 30122 30123 30124 30125 30126 30127 30128 30129 30130 30131 30132 30133 30134 30135 30136 30137 30138 30139 30140 30141 30142 30143 30144 30145 30146 30147 30148 30149 30150 30151 30152 30153 30154 30155 30156 30157 30158 30159 30160 30161 30162 30163 30164 30165 30166 30167 30168 30169 30170 30171 30172 30173 30174 30175 30176 30177 30178 30179 30180 30181 30182 30183 30184 30185 30186 30187 30188 30189 30190 30191 30192 30193 30194 30195 30196 30197 30198 30199 30200 30201 30202 30203 30204 30205 30206 30207 30208 30209 30210 30211 30212 30213 30214 30215 30216 30217 30218 30219 30220 30221 30222 30223 30224 30225 30226 30227 30228 30229 30230 30231 30232 30233 30234 30235 30236 30237 30238 30239 30240 30241 30242 30243 30244 30245 30246 30247 30248 30249 30250 30251 30252 30253 30254 30255 30256 30257 30258 30259 30260 30261 30262 30263 30264 30265 30266 30267 30268 30269 30270 30271 30272 30273 30274 30275 30276 30277 30278 30279 30280 30281 30282 30283 30284 30285 30286 30287 30288 30289 30290 30291 30292 30293 30294 30295 30296 30297 30298 30299 30300 30301 30302 30303 30304 30305 30306 30307 30308 30309 30310 30311 30312 30313 30314 30315 30316 30317 30318 30319 30320 30321 30322 30323 30324 30325 30326 30327 30328 30329 30330 30331 30332 30333 30334 30335 30336 30337 30338 30339 30340 30341 30342 30343 30344 30345 30346 30347 30348 30349 30350 30351 30352 30353 30354 30355 30356 30357 30358 30359 30360 30361 30362 30363 30364 30365 30366 30367 30368 30369 30370 30371 30372 30373 30374 30375 30376 30377 30378 30379 30380 30381 30382 30383 30384 30385 30386 30387 30388 30389 30390 30391 30392 30393 30394 30395 30396 30397 30398 30399 30400 30401 30402 30403 30404 30405 30406 30407 30408 30409 30410 30411 30412 30413 30414 30415 30416 30417 30418 30419 30420 30421 30422 30423 30424 30425 30426 30427 30428 30429 30430 30431 30432 30433 30434 30435 30436 30437 30438 30439 30440 30441 30442 30443 30444 30445 30446 30447 30448 30449 30450 30451 30452 30453 30454 30455 30456 30457 30458 30459 30460 30461 30462 30463 30464 30465 30466 30467 30468 30469 30470 30471 30472 30473 30474 30475 30476 30477 30478 30479 30480 30481 30482 30483 30484 30485 30486 30487 30488 30489 30490 30491 30492 30493 30494 30495 30496 30497 30498 30499 30500 30501 30502 30503 30504 30505 30506 30507 30508 30509 30510 30511 30512 30513 30514 30515 30516 30517 30518 30519 30520 30521 30522 30523 30524 30525 30526 30527 30528 30529 30530 30531 30532 30533 30534 30535 30536 30537 30538 30539 30540 30541 30542 30543 30544 30545 30546 30547 30548 30549 30550 30551 30552 30553 30554 30555 30556 30557 30558 30559 30560 30561 30562 30563 30564 30565 30566 30567 30568 30569 30570 30571 30572 30573 30574 30575 30576 30577 30578 30579 30580 30581 30582 30583 30584 30585 30586 30587 30588 30589 30590 30591 30592 30593 30594 30595 30596 30597 30598 30599 30600 30601 30602 30603 30604 30605 30606 30607 30608 30609 30610 30611 30612 30613 30614 30615 30616 30617 30618 30619 30620 30621 30622 30623 30624 30625 30626 30627 30628 30629 30630 30631 30632 30633 30634 30635 30636 30637 30638 30639 30640 30641 30642 30643 30644 30645 30646 30647 30648 30649 30650 30651 30652 30653 30654 30655 30656 30657 30658 30659 30660 30661 30662 30663 30664 30665 30666 30667 30668 30669 30670 30671 30672 30673 30674 30675 30676 30677 30678 30679 30680 30681 30682 30683 30684 30685 30686 30687 30688 30689 30690 30691 30692 30693 30694 30695 30696 30697 30698 30699 30700 30701 30702 30703 30704 30705 30706 30707 30708 30709 30710 30711 30712 30713 30714 30715 30716 30717 30718 30719 30720 30721 30722 30723 30724 30725 30726 30727 30728 30729 30730 30731 30732 30733 30734 30735 30736 30737 30738 30739 30740 30741 30742 30743 30744 30745 30746 30747 30748 30749 30750 30751 30752 30753 30754 30755 30756 30757 30758 30759 30760 30761 30762 30763 30764 30765 30766 30767 30768 30769 30770 30771 30772 30773 30774 30775 30776 30777 30778 30779 30780 30781 30782 30783 30784 30785 30786 30787 30788 30789 30790 30791 30792 30793 30794 30795 30796 30797 30798 30799 30800 30801 30802 30803 30804 30805 30806 30807 30808 30809 30810 30811 30812 30813 30814 30815 30816 30817 30818 30819 30820 30821 30822 30823 30824 30825 30826 30827 30828 30829 30830 30831 30832 30833 30834 30835 30836 30837 30838 30839 30840 30841 30842 30843 30844 30845 30846 30847 30848 30849 30850 30851 30852 30853 30854 30855 30856 30857 30858 30859 30860 30861 30862 30863 30864 30865 30866 30867 30868 30869 30870 30871 30872 30873 30874 30875 30876 30877 30878 30879 30880 30881 30882 30883 30884 30885 30886 30887 30888 30889 30890 30891 30892 30893 30894 30895 30896 30897 30898 30899 30900 30901 30902 30903 30904 30905 30906 30907 30908 30909 30910 30911 30912 30913 30914 30915 30916 30917 30918 30919 30920 30921 30922 30923 30924 30925 30926 30927 30928 30929 30930 30931 30932 30933 30934 30935 30936 30937 30938 30939 30940 30941 30942 30943 30944 30945 30946 30947 30948 30949 30950 30951 30952 30953 30954 30955 30956 30957 30958 30959 30960 30961 30962 30963 30964 30965 30966 30967 30968 30969 30970 30971 30972 30973 30974 30975 30976 30977 30978 30979 30980 30981 30982 30983 30984 30985 30986 30987 30988 30989 30990 30991 30992 30993 30994 30995 30996 30997 30998 30999 31000 31001 31002 31003 31004 31005 31006 31007 31008 31009 31010 31011 31012 31013 31014 31015 31016 31017 31018 31019 31020 31021 31022 31023 31024 31025 31026 31027 31028 31029 31030 31031 31032 31033 31034 31035 31036 31037 31038 31039 31040 31041 31042 31043 31044 31045 31046 31047 31048 31049 31050 31051 31052 31053 31054 31055 31056 31057 31058 31059 31060 31061 31062 31063 31064 31065 31066 31067 31068 31069 31070 31071 31072 31073 31074 31075 31076 31077 31078 31079 31080 31081 31082 31083 31084 31085 31086 31087 31088 31089 31090 31091 31092 31093 31094 31095 31096 31097 31098 31099 31100 31101 31102 31103 31104 31105 31106 31107 31108 31109 31110 31111 31112 31113 31114 31115 31116 31117 31118 31119 31120 31121 31122 31123 31124 31125 31126 31127 31128 31129 31130 31131 31132 31133 31134 31135 31136 31137 31138 31139 31140 31141 31142 31143 31144 31145 31146 31147 31148 31149 31150 31151 31152 31153 31154 31155 31156 31157 31158 31159 31160 31161 31162 31163 31164 31165 31166 31167 31168 31169 31170 31171 31172 31173 31174 31175 31176 31177 31178 31179 31180 31181 31182 31183 31184 31185 31186 31187 31188 31189 31190 31191 31192 31193 31194 31195 31196 31197 31198 31199 31200 31201 31202 31203 31204 31205 31206 31207 31208 31209 31210 31211 31212 31213 31214 31215 31216 31217 31218 31219 31220 31221 31222 31223 31224 31225 31226 31227 31228 31229 31230 31231 31232 31233 31234 31235 31236 31237 31238 31239 31240 31241 31242 31243 31244 31245 31246 31247 31248 31249 31250 31251 31252 31253 31254 31255 31256 31257 31258 31259 31260 31261 31262 31263 31264 31265 31266 31267 31268 31269 31270 31271 31272 31273 31274 31275 31276 31277 31278 31279 31280 31281 31282 31283 31284 31285 31286 31287 31288 31289 31290 31291 31292 31293 31294 31295 31296 31297 31298 31299 31300 31301 31302 31303 31304 31305 31306 31307 31308 31309 31310 31311 31312 31313 31314 31315 31316 31317 31318 31319 31320 31321 31322 31323 31324 31325 31326 31327 31328 31329 31330 31331 31332 31333 31334 31335 31336 31337 31338 31339 31340 31341 31342 31343 31344 31345 31346 31347 31348 31349 31350 31351 31352 31353 31354 31355 31356 31357 31358 31359 31360 31361 31362 31363 31364 31365 31366 31367 31368 31369 31370 31371 31372 31373 31374 31375 31376 31377 31378 31379 31380 31381 31382 31383 31384 31385 31386 31387 31388 31389 31390 31391 31392 31393 31394 31395 31396 31397 31398 31399 31400 31401 31402 31403 31404 31405 31406 31407 31408 31409 31410 31411 31412 31413 31414 31415 31416 31417 31418 31419 31420 31421 31422 31423 31424 31425 31426 31427 31428 31429 31430 31431 31432 31433 31434 31435 31436 31437 31438 31439 31440 31441 31442 31443 31444 31445 31446 31447 31448 31449 31450 31451 31452 31453 31454 31455 31456 31457 31458 31459 31460 31461 31462 31463 31464 31465 31466 31467 31468 31469 31470 31471 31472 31473 31474 31475 31476 31477 31478 31479 31480 31481 31482 31483 31484 31485 31486 31487 31488 31489 31490 31491 31492 31493 31494 31495 31496 31497 31498 31499 31500 31501 31502 31503 31504 31505 31506 31507 31508 31509 31510 31511 31512 31513 31514 31515 31516 31517 31518 31519 31520 31521 31522 31523 31524 31525 31526 31527 31528 31529 31530 31531 31532 31533 31534 31535 31536 31537 31538 31539 31540 31541 31542 31543 31544 31545 31546 31547 31548 31549 31550 31551 31552 31553 31554 31555 31556 31557 31558 31559 31560 31561 31562 31563 31564 31565 31566 31567 31568 31569 31570 31571 31572 31573 31574 31575 31576 31577 31578 31579 31580 31581 31582 31583 31584 31585 31586 31587 31588 31589 31590 31591 31592 31593 31594 31595 31596 31597 31598 31599 31600 31601 31602 31603 31604 31605 31606 31607 31608 31609 31610 31611 31612 31613 31614 31615 31616 31617 31618 31619 31620 31621 31622 31623 31624 31625 31626 31627 31628 31629 31630 31631 31632 31633 31634 31635 31636 31637 31638 31639 31640 31641 31642 31643 31644 31645 31646 31647 31648 31649 31650 31651 31652 31653 31654 31655 31656 31657 31658 31659 31660 31661 31662 31663 31664 31665 31666 31667 31668 31669 31670 31671 31672 31673 31674 31675 31676 31677 31678 31679 31680 31681 31682 31683 31684 31685 31686 31687 31688 31689 31690 31691 31692 31693 31694 31695 31696 31697 31698 31699 31700 31701 31702 31703 31704 31705 31706 31707 31708 31709 31710 31711 31712 31713 31714 31715 31716 31717 31718 31719 31720 31721 31722 31723 31724 31725 31726 31727 31728 31729 31730 31731 31732 31733 31734 31735 31736 31737 31738 31739 31740 31741 31742 31743 31744 31745 31746 31747 31748 31749 31750 31751 31752 31753 31754 31755 31756 31757 31758 31759 31760 31761 31762 31763 31764 31765 31766 31767 31768 31769 31770 31771 31772 31773 31774 31775 31776 31777 31778 31779 31780 31781 31782 31783 31784 31785 31786 31787 31788 31789 31790 31791 31792 31793 31794 31795 31796 31797 31798 31799 31800 31801 31802 31803 31804 31805 31806 31807 31808 31809 31810 31811 31812 31813 31814 31815 31816 31817 31818 31819 31820 31821 31822 31823 31824 31825 31826 31827 31828 31829 31830 31831 31832 31833 31834 31835 31836 31837 31838 31839 31840 31841 31842 31843 31844 31845 31846 31847 31848 31849 31850 31851 31852 31853 31854 31855 31856 31857 31858 31859 31860 31861 31862 31863 31864 31865 31866 31867 31868 31869 31870 31871 31872 31873 31874 31875 31876 31877 31878 31879 31880 31881 31882 31883 31884 31885 31886 31887 31888 31889 31890 31891 31892 31893 31894 31895 31896 31897 31898 31899 31900 31901 31902 31903 31904 31905 31906 31907 31908 31909 31910 31911 31912 31913 31914 31915 31916 31917 31918 31919 31920 31921 31922 31923 31924 31925 31926 31927 31928 31929 31930 31931 31932 31933 31934 31935 31936 31937 
</DataArray>
<DataArray type="UInt32" Name="offsets" format="ascii">
3 6 9 11 14 17 20 23 25 28 31 33 36 39 42 45 48 51 54 57 60 63 66 69 72 75 78 81 84 87 90 93 96 99 102 104 107 110 113 116 119 122 125 128 131 134 137 140 143 146 149 152 155 158 161 164 167 170 172 175 178 181 184 187 190 193 196 199 201 204 207 210 212 214 217 220 222 225 228 230 233 236 239 241 244 246 248 251 254 257 260 262 265 268 271 274 277 280 283 286 288 291 294 297 300 303 306 309 311 314 317 320 322 325 328 330 333 336 338 341 344 347 350 353 356 359 362 365 367 370 373 376 379 382 385 388 391 394 397 400 403 406 409 411 414 417 420 423 426 429 432 435 438 441 444 447 450 453 456 459 462 465 468 471 474 477 480 482 485 488 490 493 496 499 502 505 508 511 514 517 520 523 526 529 532 535 538 541 544 547 550 553 556 559 562 565 568 571 574 577 580 583 586 589 592 595 598 601 604 607 610 613 616 619 622 625 627 630 633 636 639 642 645 648 651 654 657 659 662 665 667 670 673 675 678 681 683 686 689 692 694 696 699 702 704 707 709 712 715 718 721 723 726 728 731 734 736 739 741 744 747 750 753 756 759 762 764 767 770 773 776 778 780 783 786 789 791 794 797 800 803 806 808 810 813 816 818 821 824 827 830 832 835 838 841 844 846 849 852 855 858 861 863 866 869 871 874 877 880 882 885 888 891 894 897 900 903 906 909 912 915 918 921 924 927 930 933 936 939 942 945 948 951 954 957 960 963 966 969 972 975 978 981 984 987 990 993 996 999 1002 1005 1008 1011 1014 1017 1020 1023 1026 1029 1032 1035 1038 1041 1044 1047 1050 1053 1056 1059 1062 1065 1068 1071 1073 1076 1079 1082 1084 1087 1090 1093 1096 1099 1102 1105 1108 1111 1114 1116 1119 1122 1125 1128 1131 1134 1137 1140 1143 1146 1149 1152 1155 1158 1161 1164 1167 1169 1172 1175 1178 1181 1184 1187 1190 1193 1196 1199 1202 1205 1208 1211 1213 1216 1219 1222 1224 1227 1230 1233 1236 1239 1242 1245 1248 1251 1254 1257 1260 1263 1266 1269 1272 1274 1277 1280 1283 1285 1288 1291 1293 1296 1299 1302 1305 1308 1311 1314 1317 1320 1323 1326 1328 1331 1334 1337 1340 1342 1345 1348 1351 1354 1357 1359 1362 1365 1368 1371 1373 1376 1379 1382 1385 1388 1391 1394 1397 1400 1403 1406 1409 1412 1415 1418 1421 1424 1427 1430 1433 1436 1439 1442 1445 1448 1451 1454 1457 1460 1463 1466 1469 1472 1475 1478 1481 1484 1487 1489 1492 1494 1497 1500 1503 1506 1509 1512 1515 1518 1521 1524 1527 1530 1533 1536 1538 1541 1544 1547 1550 1553 1556 1558 1561 1564 1567 1570 1573 1576 1579 1581 1584 1587 1590 1593 1596 1599 1602 1605 1608 1611 1614 1617 1620 1623 1626 1629 1631 1634 1637 1640 1643 1646 1649 1651 1654 1657 1660 1663 1666 1669 1672 1675 1678 1681 1684 1687 1690 1693 1696 1699 1702 1704 1707 1710 1713 1715 1718 1721 1724 1727 1730 1733 1736 1739 1742 1745 1748 1751 1754 1757 1760 1763 1766 1769 1772 1775 1778 1781 1784 1787 1790 1793 1796 1799 1802 1805 1808 1811 1814 1817 1820 1823 1826 1829 1832 1835 1838 1841 1844 1847 1850 1853 1856 1859 1862 1865 1868 1871 1874 1877 1880 1883 1886 1888 1891 1893 1896 1898 1900 1903 1906 1909 1912 1915 1918 1921 1924 1927 1930 1932 1935 1938 1940 1942 1945 1948 1951 1954 1956 1959 1962 1964 1967 1970 1973 1976 1979 1982 1985 1988 1991 1994 1996 1998 2001 2003 2006 2008 2011 2014 2017 2020 2023 2026 2029 2032 2034 2036 2038 2041 2044 2047 2050 2053 2056 2059 2062 2065 2068 2071 2074 2077 2080 2083 2086 2089 2092 2095 2098 2101 2104 2107 2110 2113 2116 2119 2122 2125 2128 2131 2134 2137 2140 2143 2146 2149 2152 2155 2158 2160 2163 2166 2169 2172 2175 2178 2181 2184 2187 2189 2192 2195 2198 2200 2203 2205 2208 2211 2214 2217 2219 2222 2225 2228 2231 2233 2236 2239 2242 2245 2248 2251 2254 2256 2258 2261 2264 2267 2269 2272 2275 2278 2281 2283 2286 2289 2292 2295 2298 2301 2303 2306 2309 2312 2315 2318 2320 2323 2326 2329 2332 2335 2338 2341 2344 2347 2350 2353 2356 2358 2361 2364 2367 2370 2372 2375 2378 2381 2384 2387 2390 2393 2396 2399 2402 2404 2407 2410 2413 2416 2419 2422 2425 2428 2431 2434 2437 2440 2443 2446 2449 2452 2455 2458 2461 2463 2466 2469 2472 2474 2477 2480 2483 2486 2489 2492 2494 2497 2500 2502 2505 2508 2511 2514 2517 2520 2523 2526 2529 2532 2535 2538 2540 2542 2545 2548 2551 2554 2557 2560 2562 2565 2568 2571 2574 2577 2580 2583 2586 2589 2592 2595 2598 2601 2604 2607 2610 2612 2615 2618 2621 2624 2627 2630 2633 2636 2639 2642 2645 2648 2651 2653 2656 2659 2661 2664 2667 2670 2672 2675 2678 2681 2684 2687 2690 2692 2695 2698 2701 2704 2707 2710 2713 2716 2718 2721 2724 2727 2730 2733 2736 2738 2741 2744 2747 2750 2753 2756 2759 2762 2765 2768 2771 2774 2777 2780 2783 2785 2788 2791 2794 2797 2800 2803 2806 2809 2812 2815 2818 2821 2824 2827 2830 2833 2836 2839 2842 2845 2848 2851 2854 2857 2860 2863 2866 2868 2871 2873 2876 2878 2880 2883 2886 2889 2892 2895 2898 2901 2904 2907 2910 2913 2916 2918 2921 2923 2926 2928 2930 2933 2935 2937 2940 2943 2946 2949 2951 2953 2956 2958 2960 2963 2966 2968 2971 2974 2976 2979 2982 2985 2988 2991 2994 2997 3000 3002 3005 3008 3010 3013 3016 3019 3022 3024 3027 3030 3033 3036 3038 3041 3043 3046 3049 3052 3055 3058 3060 3063 3066 3069 3072 3075 3078 3080 3083 3086 3088 3091 3094 3097 3100 3103 3106 3109 3112 3115 3117 3120 3123 3125 3128 3131 3134 3137 3139 3142 3145 3147 3150 3153 3156 3159 3162 3165 3168 3171 3174 3177 3180 3183 3186 3189 3192 3195 3198 3200 3203 3206 3209 3211 3214 3217 3220 3223 3226 3229 3231 3234 3237 3240 3242 3245 3248 3251 3254 3257 3260 3263 3266 3269 3272 3275 3278 3281 3284 3287 3290 3293 3295 3298 3301 3304 3307 3309 3312 3315 3317 3320 3323 3326 3329 3332 3334 3337 3340 3343 3346 3349 3351 3354 3357 3359 3361 3364 3367 3370 3373 3376 3379 3382 3384 3387 3390 3393 3396 3399 3402 3405 3407 3410 3413 3416 3419 3422 3425 3428 3431 3434 3437 3440 3443 3446 3449 3452 3455 3458 3461 3464 3467 3470 3473 3475 3477 3480 3483 3486 3489 3491 3494 3497 3500 3503 3506 3509 3512 3515 3518 3521 3524 3527 3529 3532 3534 3537 3540 3543 3546 3549 3552 3555 3558 3560 3563 3566 3569 3572 3574 3577 3580 3583 3586 3589 3592 3594 3597 3600 3603 3606 3608 3611 3613 3616 3619 3622 3625 3627 3630 3633 3636 3638 3641 3644 3647 3650 3653 3656 3659 3662 3665 3667 3670 3673 3676 3679 3681 3684 3687 3690 3692 3695 3698 3701 3703 3706 3708 3711 3714 3717 3720 3723 3726 3729 3732 3735 3738 3741 3743 3745 3748 3751 3754 3757 3760 3762 3765 3768 3771 3774 3777 3780 3783 3786 3789 3792 3795 3798 3801 3804 3807 3810 3812 3815 3818 3821 3824 3826 3829 3832 3835 3838 3841 3844 3847 3850 3853 3855 3858 3861 3864 3867 3870 3873 3876 3878 3881 3884 3887 3890 3893 3896 3899 3902 3904 3907 3909 3911 3914 3917 3920 3923 3926 3929 3932 3935 3938 3941 3944 3947 3950 3953 3956 3959 3962 3965 3968 3971 3974 3976 3979 3982 3985 3988 3991 3994 3997 4000 4003 4006 4008 4011 4014 4016 4019 4022 4025 4027 4030 4033 4036 4039 4042 4044 4046 4049 4052 4054 4057 4060 4063 4066 4069 4071 4074 4077 4080 4082 4084 4087 4090 4093 4095 4098 4101 4103 4105 4108 4111 4114 4117 4120 4123 4126 4129 4132 4135 4138 4141 4144 4147 4150 4152 4155 4158 4161 4164 4167 4169 4172 4175 4178 4181 4183 4186 4189 4192 4195 4198 4201 4203 4206 4209 4212 4214 4217 4220 4222 4224 4227 4230 4233 4236 4239 4242 4245 4248 4250 4253 4256 4259 4262 4265 4268 4270 4273 4276 4279 4282 4285 4288 4291 4294 4297 4300 4303 4306 4309 4312 4315 4318 4321 4324 4327 4330 4333 4336 4339 4342 4345 4348 4351 4354 4357 4360 4363 4366 4369 4372 4374 4377 4380 4382 4385 4388 4391 4394 4397 4400 4403 4406 4409 4412 4415 4418 4421 4424 4427 4430 4432 4435 4438 4441 4444 4447 4450 4453 4456 4459 4462 4464 4467 4470 4473 4476 4479 4481 4484 4487 4490 4493 4496 4498 4501 4504 4506 4509 4512 4514 4517 4520 4522 4525 4528 4530 4533 4536 4539 4542 4545 4548 4551 4554 4557 4560 4563 4566 4569 4572 4575 4578 4581 4584 4586 4589 4592 4595 4598 4601 4604 4607 4610 4613 4615 4618 4621 4624 4627 4630 4632 4634 4637 4640 4643 4646 4649 4652 4655 4658 4661 4664 4667 4670 4673 4676 4679 4681 4684 4687 4690 4693 4696 4699 4702 4705 4708 4711 4714 4717 4720 4722 4725 4728 4731 4734 4737 4740 4742 4745 4748 4751 4754 4756 4759 4762 4765 4767 4770 4773 4776 4779 4782 4784 4787 4790 4793 4796 4799 4802 4805 4808 4811 4814 4817 4820 4823 4826 4829 4832 4835 4838 4841 4844 4847 4850 4852 4855 4858 4861 4864 4866 4869 4872 4875 4878 4881 4884 4887 4890 4893 4895 4898 4901 4904 4907 4910 4913 4916 4919 4922 4925 4927 4930 4933 4936 4939 4942 4944 4947 4950 4953 4956 4959 4962 4965 4968 4970 4973 4976 4978 4981 4984 4987 4990 4993 4996 4998 5001 5004 5007 5010 5013 5016 5019 5022 5025 5028 5030 5032 5035 5038 5041 5043 5046 5048 5051 5054 5056 5059 5062 5065 5068 5071 5073 5076 5078 5081 5084 5086 5088 5090 5093 5095 5098 5101 5104 5106 5109 5112 5114 5117 5119 5122 5125 5128 5130 5133 5135 5138 5141 5144 5147 5149 5152 5155 5158 5160 5163 5166 5168 5170 5172 5175 5177 5180 5182 5184 5187 5190 5193 5196 5198 5201 5204 5207 5210 5213 5216 5219 5222 5224 5227 5229 5232 5235 5238 5241 5244 5247 5250 5253 5256 5259 5262 5265 5268 5271 5273 5276 5278 5281 5284 5287 5290 5293 5296 5299 5302 5305 5307 5310 5313 5315 5318 5321 5324 5327 5330 5333 5336 5338 5341 5344 5346 5349 5351 5354 5356 5359 5361 5364 5367 5370 5373 5375 5378 5380 5383 5386 5389 5392 5395 5398 5401 5404 5407 5410 5413 5416 5419 5422 5425 5428 5431 5434 5437 5440 5443 5446 5449 5452 5455 5458 5461 5464 5467 5469 5472 5475 5478 5481 5484 5487 5490 5493 5496 5499 5502 5504 5507 5510 5512 5515 5518 5521 5523 5526 5529 5532 5535 5537 5539 5542 5545 5547 5550 5553 5556 5559 5562 5565 5567 5570 5573 5576 5579 5582 5585 5588 5590 5593 5596 5599 5602 5605 5608 5611 5613 5616 5619 5622 5624 5627 5630 5633 5636 5639 5642 5644 5647 5650 5653 5656 5658 5661 5664 5667 5669 5672 5675 5678 5681 5684 5687 5690 5693 5696 5699 5702 5705 5708 5711 5714 5717 5720 5723 5726 5729 5732 5735 5738 5740 5743 5746 5749 5752 5755 5757 5760 5763 5766 5769 5772 5775 5778 5781 5784 5787 5790 5793 5796 5799 5802 5805 5808 5811 5814 5817 5820 5823 5826 5829 5832 5835 5838 5841 5844 5847 5850 5853 5856 5859 5862 5865 5868 5871 5874 5877 5880 5883 5886 5889 5892 5895 5898 5901 5903 5906 5909 5912 5914 5917 5920 5923 5926 5928 5931 5934 5937 5940 5942 5945 5948 5951 5954 5957 5960 5963 5966 5969 5972 5974 5977 5980 5983 5985 5988 5990 5993 5996 5999 6002 6005 6008 6011 6014 6017 6020 6023 6026 6029 6032 6035 6037 6040 6043 6045 6047 6050 6053 6056 6059 6062 6064 6067 6070 6072 6075 6078 6081 6084 6087 6090 6093 6096 6099 6102 6105 6108 6111 6114 6117 6120 6123 6126 6129 6132 6135 6138 6141 6144 6147 6150 6153 6156 6159 6162 6165 6168 6171 6174 6177 6180 6183 6186 6189 6192 6195 6197 6200 6203 6206 6209 6212 6215 6218 6221 6224 6227 6230 6233 6236 6239 6242 6245 6248 6251 6254 6257 6260 6263 6266 6269 6272 6275 6278 6281 6284 6287 6290 6293 6296 6299 6302 6304 6307 6310 6313 6316 6319 6322 6325 6328 6331 6334 6337 6339 6342 6345 6348 6350 6353 6355 6357 6359 6361 6364 6367 6370 6373 6376 6379 6382 6385 6388 6391 6393 6396 6399 6402 6404 6407 6410 6413 6416 6419 6422 6425 6428 6431 6434 6437 6440 6443 6446 6449 6451 6454 6456 6459 6462 6464 6467 6470 6472 6475 6477 6479 6482 6485 6487 6490 6493 6496 6499 6502 6505 6508 6511 6514 6517 6520 6523 6526 6529 6532 6534 6537 6540 6543 6546 6549 6552 6555 6557 6560 6563 6566 6569 6572 6575 6578 6580 6583 6586 6589 6592 6594 6596 6599 6602 6605 6608 6611 6614 6617 6620 6623 6626 6629 6632 6635 6638 6641 6644 6647 6650 6653 6655 6658 6661 6664 6667 6670 6673 6676 6679 6682 6684 6687 6690 6693 6696 6699 6702 6704 6707 6710 6713 6716 6719 6722 6725 6728 6731 6734 6737 6740 6743 6746 6749 6752 6755 6758 6761 6764 6767 6770 6773 6776 6779 6782 6785 6788 6791 6794 6797 6800 6802 6805 6808 6811 6814 6816 6819 6822 6825 6828 6831 6834 6837 6840 6843 6846 6849 6852 6855 6858 6861 6864 6867 6870 6873 6876 6879 6882 6885 6888 6891 6894 6897 6900 6903 6906 6909 6912 6915 6918 6921 6923 6926 6929 6932 6935 6937 6940 6943 6946 6949 6952 6955 6958 6960 6963 6966 6969 6972 6975 6978 6981 6984 6987 6990 6993 6996 6999 7002 7005 7008 7011 7013 7016 7019 7022 7025 7028 7031 7034 7037 7040 7043 7046 7049 7052 7055 7058 7061 7064 7067 7070 7073 7076 7079 7082 7084 7087 7089 7092 7095 7098 7101 7104 7107 7110 7113 7115 7118 7120 7123 7126 7129 7131 7134 7137 7140 7143 7146 7149 7152 7154 7157 7160 7162 7165 7168 7171 7173 7176 7179 7182 7185 7188 7191 7194 7197 7200 7203 7206 7209 7212 7215 7218 7221 7224 7227 7229 7232 7235 7238 7241 7244 7247 7250 7253 7256 7259 7262 7265 7268 7270 7273 7276 7279 7282 7285 7288 7291 7294 7297 7300 7303 7306 7309 7312 7315 7318 7321 7324 7327 7330 7333 7335 7338 7341 7343 7346 7349 7352 7355 7358 7361 7364 7367 7369 7372 7374 7376 7379 7382 7385 7388 7391 7394 7397 7400 7402 7405 7408 7411 7414 7417 7420 7423 7426 7429 7432 7434 7437 7440 7442 7445 7447 7450 7452 7455 7457 7459 7462 7465 7467 7469 7472 7475 7478 7481 7484 7487 7490 7493 7496 7498 7501 7504 7507 7510 7512 7515 7518 7521 7524 7527 7530 7532 7535 7538 7540 7543 7545 7548 7551 7553 7556 7558 7561 7563 7566 7569 7571 7574 7576 7579 7582 7585 7588 7591 7593 7595 7598 7600 7603 7606 7609 7612 7614 7617 7620 7623 7626 7629 7632 7635 7637 7640 7643 7646 7648 7651 7654 7657 7659 7662 7665 7668 7671 7674 7677 7680 7683 7686 7688 7691 7694 7696 7698 7701 7704 7707 7710 7713 7716 7719 7721 7724 7727 7730 7733 7736 7739 7742 7745 7748 7751 7754 7757 7760 7763 7766 7769 7772 7775 7778 7781 7784 7787 7790 7793 7796 7799 7802 7805 7808 7811 7814 7817 7820 7823 7826 7829 7832 7835 7838 7841 7844 7847 7850 7853 7856 7859 7862 7865 7868 7871 7874 7877 7880 7883 7886 7889 7892 7895 7898 7901 7904 7907 7910 7913 7916 7919 7922 7925 7928 7931 7933 7936 7939 7941 7944 7947 7950 7953 7956 7958 7961 7964 7967 7970 7973 7976 7979 7982 7985 7988 7991 7994 7997 8000 8003 8006 8009 8012 8015 8018 8021 8024 8027 8030 8033 8036 8039 8042 8045 8048 8051 8054 8057 8060 8063 8066 8069 8072 8075 8078 8081 8083 8086 8088 8091 8094 8097 8099 8102 8105 8108 8111 8114 8117 8119 8122 8124 8127 8130 8133 8136 8139 8142 8145 8148 8151 8154 8157 8159 8162 8165 8168 8171 8174 8177 8180 8183 8186 8189 8192 8195 8198 8201 8204 8207 8210 8212 8215 8218 8221 8224 8227 8230 8233 8236 8239 8242 8244 8247 8249 8252 8255 8258 8261 8264 8267 8270 8273 8276 8279 8282 8285 8288 8291 8294 8297 8299 8302 8305 8308 8311 8314 8317 8320 8323 8326 8329 8332 8335 8338 8341 8344 8347 8350 8353 8356 8359 8362 8364 8367 8370 8373 8376 8379 8381 8384 8387 8390 8392 8395 8398 8400 8403 8406 8409 8412 8415 8417 8420 8423 8426 8429 8432 8435 8437 8440 8443 8446 8449 8452 8455 8458 8460 8462 8465 8468 8471 8474 8477 8480 8483 8486 8488 8491 8494 8497 8500 8503 8506 8509 8512 8515 8518 8521 8523 8526 8529 8532 8535 8538 8540 8543 8545 8548 8551 8554 8556 8559 8562 8565 8567 8569 8572 8575 8578 8581 8583 8586 8588 8591 8594 8597 8600 8602 8605 8608 8611 8614 8617 8620 8623 8625 8628 8631 8634 8636 8639 8642 8645 8648 8651 8654 8657 8660 8663 8666 8669 8672 8675 8678 8681 8684 8687 8690 8693 8696 8699 8702 8704 8707 8710 8713 8715 8718 8721 8723 8726 8729 8732 8735 8738 8741 8744 8747 8750 8753 8756 8759 8762 8765 8768 8771 8774 8777 8780 8783 8785 8788 8791 8794 8796 8799 8802 8805 8808 8811 8814 8817 8820 8823 8826 8829 8832 8835 8838 8841 8844 8847 8850 8853 8856 8859 8862 8865 8867 8870 8872 8875 8878 8881 8884 8887 8890 8892 8895 8898 8901 8904 8907 8910 8913 8916 8919 8922 8925 8928 8931 8934 8937 8940 8943 8946 8949 8952 8955 8958 8961 8964 8967 8970 8973 8976 8979 8981 8984 8987 8990 8993 8996 8999 9002 9005 9008 9011 9014 9016 9019 9022 9025 9028 9030 9033 9035 9038 9040 9042 9045 9048 9051 9054 9057 9060 9063 9066 9069 9072 9075 9078 9081 9084 9087 9090 9093 9096 9099 9102 9105 9108 9111 9114 9117 9120 9123 9126 9129 9132 9135 9138 9141 9143 9146 9149 9151 9154 9157 9159 9162 9165 9167 9169 9171 9174 9177 9179 9182 9185 9187 9190 9192 9195 9198 9201 9204 9206 9209 9212 9215 9218 9220 9223 9226 9229 9232 9235 9237 9240 9243 9246 9249 9252 9255 9258 9260 9262 9265 9268 9271 9274 9277 9280 9283 9286 9289 9292 9295 9297 9300 9303 9306 9309 9312 9314 9317 9320 9323 9326 9329 9332 9334 9337 9340 9343 9346 9349 9352 9354 9357 9360 9363 9366 9369 9372 9375 9378 9381 9384 9387 9390 9392 9395 9398 9401 9404 9407 9410 9412 9415 9418 9420 9423 9425 9428 9431 9434 9436 9439 9442 9444 9447 9450 9453 9456 9459 9461 9464 9467 9470 9473 9476 9479 9482 9485 9488 9491 9493 9496 9499 9502 9505 9508 9511 9513 9516 9519 9522 9525 9528 9531 9534 9537 9540 9543 9546 9549 9552 9555 9558 9561 9564 9567 9569 9572 9575 9578 9581 9584 9587 9590 9593 9595 9598 9601 9604 9607 9610 9613 9616 9619 9621 9624 9627 9630 9633 9635 9637 9640 9643 9646 9649 9652 9655 9658 9660 9663 9665 9668 9671 9674 9677 9680 9682 9685 9687 9689 9692 9695 9698 9700 9703 9705 9707 9710 9713 9716 9718 9721 9723 9726 9729 9732 9735 9738 9741 9744 9747 9749 9752 9755 9757 9760 9763 9765 9767 9770 9773 9775 9778 9780 9782 9785 9787 9790 9792 9795 9798 9800 9802 9804 9807 9810 9813 9815 9818 9821 9823 9826 9829 9832 9835 9838 9841 9844 9846 9849 9852 9855 9857 9859 9862 9864 9867 9870 9873 9876 9879 9882 9885 9888 9891 9894 9896 9899 9902 9904 9907 9910 9912 9915 9918 9921 9923 9925 9927 9930 9933 9935 9938 9940 9943 9946 9949 9952 9955 9958 9961 9964 9966 9969 9972 9975 9978 9981 9984 9987 9990 9993 9996 9999 10002 10005 10008 10011 10014 10016 10019 10022 10025 10028 10031 10034 10037 10039 10042 10045 10048 10051 10053 10056 10059 10061 10064 10067 10069 10071 10074 10077 10080 10083 10086 10089 10092 10095 10098 10100 10103 10105 10108 10110 10113 10115 10117 10120 10122 10125 10128 10131 10133 10136 10139 10142 10145 10148 10151 10153 10156 10159 10162 10165 10168 10171 10174 10177 10180 10183 10185 10187 10190 10193 10196 10199 10202 10205 10208 10211 10214 10217 10219 10222 10225 10228 10231 10234 10237 10240 10243 10246 10249 10252 10255 10258 10261 10264 10267 10270 10273 10276 10279 10281 10284 10287 10290 10293 10296 10298 10301 10304 10307 10310 10313 10316 10319 10322 10325 10328 10331 10334 10337 10340 10343 10346 10349 10352 10355 10358 10360 10363 10366 10369 10372 10374 10377 10380 10382 10385 10388 10390 10392 10395 10397 10400 10403 10405 10408 10411 10414 10417 10420 10423 10426 10429 10432 10435 10438 10441 10444 10447 10450 10453 10456 10459 10462 10465 10468 10471 10474 10477 10480 10483 10486 10489 10492 10495 10498 10501 10504 10507 10510 10512 10515 10518 10521 10524 10526 10529 10532 10535 10538 10541 10544 10546 10548 10551 10554 10557 10559 10562 10564 10567 10569 10572 10575 10578 10581 10584 10587 10590 10593 10596 10599 10602 10605 10608 10611 10613 10616 10619 10622 10625 10627 10630 10633 10635 10637 10640 10643 10646 10648 10651 10654 10657 10660 10663 10665 10668 10671 10673 10676 10679 10681 10684 10687 10690 10692 10695 10698 10700 10703 10706 10709 10712 10715 10718 10721 10724 10726 10729 10732 10734 10736 10739 10742 10744 10747 10750 10753 10756 10758 10761 10764 10767 10770 10773 10776 10779 10782 10785 10788 10791 10794 10797 10800 10803 10806 10808 10811 10814 10817 10820 10822 10825 10828 10831 10834 10837 10839 10841 10844 10846 10849 10851 10854 10857 10859 10862 10865 10868 10871 10874 10876 10879 10882 10884 10887 10890 10893 10896 10899 10902 10905 10908 10911 10914 10916 10919 10922 10925 10927 10930 10933 10936 10939 10941 10944 10946 10949 10952 10955 10958 10961 10964 10967 10969 10972 10975 10978 10981 10984 10987 10990 10993 10996 10999 11002 11005 11007 11010 11013 11016 11019 11022 11025 11028 11031 11034 11037 11039 11042 11044 11047 11050 11052 11055 11058 11061 11064 11066 11069 11071 11074 11076 11079 11082 11085 11087 11090 11092 11095 11098 11100 11102 11105 11108 11111 11113 11115 11118 11120 11123 11126 11129 11132 11135 11137 11140 11143 11146 11149 11152 11155 11157 11160 11163 11166 11169 11171 11174 11177 11179 11182 11184 11187 11190 11193 11196 11199 11202 11205 11208 11211 11214 11217 11220 11223 11226 11229 11232 11235 11238 11241 11244 11247 11250 11253 11256 11259 11262 11265 11268 11271 11274 11277 11280 11283 11286 11289 11292 11295 11298 11301 11303 11306 11309 11312 11315 11318 11321 11324 11327 11330 11332 11335 11338 11341 11343 11346 11349 11352 11355 11358 11361 11364 11367 11370 11373 11376 11379 11382 11385 11388 11391 11394 11397 11400 11403 11406 11409 11412 11415 11418 11421 11424 11427 11430 11433 11436 11438 11441 11443 11446 11449 11452 11455 11458 11461 11464 11467 11470 11473 11476 11479 11482 11485 11488 11491 11494 11497 11500 11503 11506 11509 11512 11515 11518 11521 11524 11527 11530 11533 11536 11539 11542 11545 11547 11550 11553 11555 11558 11561 11563 11566 11568 11571 11574 11576 11579 11582 11584 11586 11589 11592 11595 11598 11601 11603 11606 11609 11612 11615 11618 11620 11623 11626 11629 11632 11635 11638 11641 11644 11647 11650 11653 11656 11659 11662 11665 11668 11671 11674 11677 11680 11683 11686 11689 11692 11695 11698 11701 11704 11707 11710 11712 11715 11718 11721 11724 11727 11729 11732 11735 11738 11741 11744 11747 11750 11752 11755 11758 11760 11763 11766 11769 11771 11773 11775 11778 11781 11784 11787 11789 11791 11794 11797 11799 11801 11804 11807 11809 11812 11815 11818 11820 11823 11826 11828 11831 11833 11836 11839 11842 11845 11848 11851 11854 11857 11859 11861 11864 11866 11869 11872 11875 11878 11881 11883 11886 11888 11891 11893 11896 11899 11902 11904 11906 11909 11911 11913 11916 11919 11922 11925 11927 11929 11932 11934 11937 11939 11942 11945 11948 11951 11954 11957 11960 11963 11966 11968 11970 11973 11976 11979 11982 11985 11988 11991 11993 11996 11999 12002 12005 12007 12010 12013 12016 12019 12022 12025 12028 12031 12034 12037 12040 12043 12046 12049 12051 12054 12056 12058 12061 12064 12067 12070 12072 12075 12078 12081 12083 12086 12089 12092 12095 12097 12099 12102 12105 12107 12110 12113 12115 12118 12121 12124 12127 12130 12132 12135 12138 12141 12144 12147 12150 12152 12155 12157 12160 12163 12166 12168 12171 12174 12177 12180 12183 12186 12189 12192 12195 12198 12201 12204 12207 12210 12213 12216 12219 12222 12225 12228 12231 12234 12237 12240 12243 12246 12249 12252 12255 12258 12261 12264 12267 12270 12273 12276 12278 12280 12283 12286 12289 12292 12295 12298 12301 12304 12307 12310 12313 12316 12319 12321 12324 12327 12329 12332 12335 12337 12340 12343 12345 12348 12351 12354 12357 12360 12362 12365 12367 12370 12373 12376 12379 12382 12385 12388 12391 12394 12397 12400 12403 12406 12409 12411 12414 12417 12420 12422 12425 12427 12430 12433 12436 12439 12442 12445 12448 12451 12454 12457 12460 12463 12466 12469 12472 12475 12478 12481 12484 12487 12490 12493 12496 12498 12501 12504 12507 12510 12513 12516 12519 12522 12525 12528 12531 12534 12537 12540 12543 12546 12549 12552 12555 12558 12561 12564 12566 12568 12571 12574 12577 12580 12583 12586 12589 12592 12595 12598 12601 12604 12606 12609 12612 12615 12618 12621 12624 12627 12630 12633 12635 12638 12641 12644 12647 12649 12652 12655 12657 12660 12663 12666 12669 12672 12675 12678 12681 12683 12686 12688 12691 12694 12697 12700 12703 12706 12709 12712 12715 12718 12721 12724 12727 12729 12732 12735 12738 12741 12744 12747 12750 12753 12756 12759 12762 12765 12768 12771 12774 12777 12780 12783 12786 12789 12791 12794 12797 12800 12803 12806 12809 12811 12814 12817 12820 12823 12826 12829 12832 12835 12838 12841 12844 12847 12850 12853 12856 12859 12862 12865 12868 12871 12874 12877 12880 12883 12886 12889 12892 12895 12897 12900 12902 12905 12908 12911 12914 12917 12920 12923 12925 12928 12931 12934 12937 12939 12941 12944 12946 12949 12952 12955 12958 12960 12963 12966 12969 12972 12975 12978 12981 12984 12987 12989 12992 12994 12996 12999 13002 13005 13008 13011 13014 13017 13020 13023 13026 13028 13031 13034 13037 13040 13043 13046 13049 13052 13055 13058 13061 13063 13066 13068 13071 13074 13077 13080 13083 13086 13088 13091 13093 13096 13099 13102 13105 13108 13111 13114 13117 13120 13123 13126 13128 13131 13134 13136 13138 13141 13144 13147 13150 13152 13155 13157 13159 13162 13165 13168 13171 13173 13176 13178 13181 13184 13187 13190 13193 13196 13199 13202 13205 13208 13211 13214 13217 13220 13223 13226 13229 13232 13235 13238 13241 13243 13246 13248 13251 13253 13256 13258 13261 13264 13267 13270 13273 13276 13279 13282 13285 13288 13291 13294 13297 13300 13303 13306 13309 13312 13315 13318 13321 13324 13327 13330 13333 13336 13339 13342 13345 13348 13351 13354 13357 13360 13363 13366 13369 13372 13375 13378 13381 13384 13387 13390 13393 13396 13399 13402 13405 13408 13411 13414 13417 13420 13423 13426 13429 13432 13434 13437 13440 13443 13446 13449 13452 13455 13458 13460 13463 13466 13469 13472 13475 13478 13480 13483 13486 13489 13492 13495 13498 13501 13504 13507 13510 13513 13515 13518 13521 13524 13527 13530 13533 13536 13538 13540 13543 13546 13548 13551 13554 13557 13559 13561 13563 13565 13568 13571 13574 13577 13580 13583 13585 13588 13591 13594 13597 13599 13602 13605 13608 13610 13613 13616 13618 13620 13623 13626 13629 13632 13635 13638 13641 13643 13646 13649 13652 13655 13658 13661 13664 13667 13670 13673 13676 13679 13682 13684 13687 13690 13693 13696 13699 13702 13704 13707 13710 13713 13716 13719 13722 13725 13727 13730 13733 13736 13739 13742 13745 13748 13751 13753 13756 13759 13762 13764 13767 13770 13772 13775 13777 13780 13783 13786 13789 13792 13795 13798 13801 13804 13807 13809 13812 13814 13817 13819 13822 13825 13828 13831 13834 13837 13839 13842 13845 13848 13851 13854 13857 13859 13862 13865 13868 13871 13874 13877 13880 13883 13886 13889 13892 13895 13898 13900 13902 13905 13908 13911 13914 13916 13919 13922 13925 13927 13930 13933 13935 13938 13941 13943 13946 13949 13952 13955 13958 13960 13963 13966 13969 13972 13975 13977 13980 13983 13986 13989 13992 13994 13997 13999 14002 14004 14007 14010 14013 14016 14019 14022 14025 14028 14031 14034 14036 14039 14042 14045 14048 14051 14054 14057 14060 14063 14066 14069 14072 14075 14078 14080 14083 14086 14089 14092 14095 14097 14100 14103 14105 14108 14111 14114 14116 14119 14122 14125 14127 14130 14133 14136 14139 14142 14145 14148 14151 14154 14157 14160 14163 14166 14169 14171 14174 14177 14180 14183 14186 14189 14192 14195 14198 14201 14204 14207 14210 14213 14216 14219 14222 14225 14228 14231 14234 14237 14240 14242 14244 14246 14249 14252 14255 14258 14260 14263 14266 14269 14272 14275 14278 14281 14284 14287 14290 14293 14296 14299 14302 14305 14308 14311 14314 14317 14320 14323 14326 14329 14332 14335 14338 14341 14344 14347 14350 14353 14356 14359 14362 14365 14368 14371 14374 14376 14378 14381 14384 14386 14389 14392 14395 14398 14401 14403 14406 14409 14412 14415 14417 14420 14423 14426 14429 14432 14434 14437 14439 14442 14445 14448 14450 14453 14455 14458 14461 14463 14465 14468 14471 14474 14477 14480 14483 14486 14488 14491 14494 14497 14500 14502 14505 14508 14511 14514 14517 14520 14522 14525 14528 14531 14534 14537 14540 14543 14546 14549 14551 14554 14557 14560 14563 14566 14569 14572 14575 14578 14581 14584 14587 14590 14593 14596 14599 14602 14604 14607 14610 14613 14616 14619 14622 14624 14627 14630 14633 14636 14639 14642 14645 14647 14650 14653 14656 14659 14661 14664 14667 14670 14673 14676 14678 14681 14684 14687 14690 14693 14696 14698 14701 14704 14706 14709 14712 14715 14718 14720 14723 14726 14729 14732 14734 14737 14740 14743 14746 14749 14752 14755 14758 14761 14764 14767 14770 14773 14776 14779 14782 14785 14788 14791 14794 14797 14800 14803 14806 14809 14812 14814 14817 14820 14823 14826 14828 14831 14834 14837 14840 14843 14846 14848 14850 14853 14856 14859 14862 14865 14868 14871 14874 14877 14879 14881 14884 14887 14890 14893 14896 14898 14901 14904 14907 14910 14913 14916 14918 14921 14924 14927 14929 14932 14935 14937 14940 14943 14945 14947 14950 14953 14956 14958 14960 14963 14966 14969 14971 14974 14977 14980 14983 14986 14989 14992 14995 14998 15001 15004 15007 15010 15013 15016 15019 15022 15025 15028 15031 15034 15036 15039 15042 15045 15048 15051 15053 15055 15058 15060 15063 15066 15069 15071 15074 15077 15080 15083 15086 15089 15092 15095 15098 15101 15104 15107 15110 15113 15116 15119 15122 15125 15128 15131 15134 15137 15140 15143 15146 15149 15152 15155 15158 15161 15164 15166 15169 15172 15174 15177 15180 15183 15186 15189 15192 15195 15198 15201 15204 15207 15210 15213 15216 15219 15222 15225 15228 15231 15233 15235 15238 15240 15243 15246 15249 15252 15255 15258 15261 15264 15267 15270 15273 15276 15279 15282 15285 15287 15290 15292 15294 15297 15300 15302 15305 15307 15310 15312 15315 15318 15321 15323 15326 15329 15332 15334 15336 15338 15341 15344 15347 15349 15352 15355 15357 15360 15363 15366 15368 15371 15374 15377 15380 15382 15385 15388 15391 15394 15396 15399 15402 15405 15407 15409 15411 15414 15417 15420 15423 15426 15429 15432 15435 15438 15440 15443 15446 15449 15452 15455 15458 15461 15464 15467 15470 15473 15476 15479 15482 15485 15488 15491 15494 15496 15499 15502 15505 15508 15510 15513 15516 15519 15522 15525 15528 15531 15534 15537 15539 15542 15545 15548 15551 15554 15557 15560 15563 15566 15569 15572 15575 15578 15581 15584 15587 15590 15593 15596 15599 15601 15604 15607 15610 15613 15615 15618 15620 15623 15626 15629 15632 15635 15638 15641 15644 15646 15649 15652 15655 15658 15661 15664 15667 15670 15673 15676 15679 15682 15685 15688 15691 15694 15697 15700 15703 15706 15709 15711 15714 15717 15719 15722 15725 15728 15731 15734 15737 15740 15743 15746 15749 15752 15755 15758 15761 15764 15767 15770 15773 15776 15779 15781 15784 15787 15790 15793 15795 15797 15800 15803 15806 15809 15812 15815 15818 15821 15823 15826 15829 15831 15834 15836 15839 15842 15845 15847 15849 15852 15855 15857 15859 15862 15865 15868 15871 15873 15876 15878 15881 15884 15887 15890 15893 15896 15899 15902 15905 15908 15911 15914 15917 15920 15923 15926 15929 15931 15934 15937 15940 15942 15945 15948 15951 15954 15957 15959 15962 15965 15968 15971 15974 15977 15980 15983 15985 15988 15991 15994 15996 15999 16002 16005 16008 16011 16013 16016 16018 16020 16022 16025 16028 16031 16034 16036 16039 16042 16045 16047 16050 16053 16056 16059 16061 16063 16066 16069 16071 16074 16076 16079 16081 16084 16087 16090 16093 16096 16099 16102 16105 16108 16111 16114 16116 16119 16122 16124 16127 16129 16131 16134 16136 16138 16141 16144 16146 16149 16152 16155 16157 16160 16162 16165 16168 16171 16173 16176 16179 16181 16184 16186 16189 16192 16195 16198 16201 16204 16207 16210 16213 16216 16219 16222 16225 16228 16231 16234 16237 16240 16243 16246 16249 16252 16255 16258 16261 16264 16267 16270 16273 16275 16278 16281 16284 16287 16290 16292 16294 16296 16299 16302 16305 16308 16310 16313 16316 16319 16322 16325 16328 16331 16334 16337 16340 16343 16346 16349 16352 16355 16358 16361 16364 16367 16370 16373 16376 16379 16382 16385 16388 16391 16394 16397 16400 16403 16406 16409 16412 16415 16418 16421 16424 16427 16430 16432 16435 16438 16441 16444 16446 16449 16452 16455 16458 16461 16464 16467 16470 16473 16476 16479 16481 16483 16486 16489 16492 16495 16498 16501 16503 16506 16508 16511 16514 16517 16520 16523 16526 16529 16532 16535 16538 16541 16544 16547 16550 16553 16556 16559 16562 16565 16568 16570 16573 16576 16579 16582 16584 16586 16589 16591 16594 16597 16600 16603 16606 16609 16612 16615 16618 16621 16624 16627 16630 16633 16636 16639 16642 16645 16648 16651 16654 16657 16660 16663 16665 16668 16671 16674 16677 16680 16683 16686 16689 16692 16695 16698 16701 16704 16707 16710 16713 16716 16719 16722 16725 16728 16731 16734 16737 16740 16743 16746 16749 16751 16754 16757 16760 16763 16766 16769 16772 16775 16778 16781 16784 16787 16789 16792 16795 16798 16801 16804 16807 16809 16812 16815 16818 16821 16823 16825 16827 16830 16833 16836 16839 16842 16845 16848 16851 16854 16857 16859 16862 16865 16868 16871 16874 16877 16880 16883 16886 16889 16892 16895 16898 16901 16904 16906 16909 16912 16915 16918 16920 16923 16926 16929 16931 16934 16937 16940 16943 16946 16949 16952 16954 16957 16960 16963 16965 16968 16971 16974 16977 16980 16982 16984 16987 16990 16993 16995 16997 17000 17003 17006 17009 17011 17014 17016 17019 17021 17024 17026 17029 17032 17034 17036 17039 17041 17044 17047 17049 17052 17055 17057 17060 17063 17065 17068 17070 17073 17075 17078 17081 17083 17086 17089 17091 17094 17096 17098 17101 17103 17106 17109 17112 17114 17117 17120 17123 17126 17129 17132 17135 17138 17141 17144 17147 17149 17152 17155 17158 17161 17164 17167 17170 17173 17176 17179 17182 17185 17188 17191 17194 17197 17200 17203 17205 17208 17211 17214 17216 17219 17222 17224 17227 17229 17232 17235 17238 17240 17243 17245 17248 17250 17253 17256 17258 17261 17264 17267 17270 17273 17275 17278 17280 17283 17286 17289 17292 17295 17298 17301 17304 17307 17310 17312 17315 17317 17320 17323 17326 17329 17331 17334 17337 17339 17342 17344 17346 17349 17352 17355 17358 17361 17364 17366 17369 17372 17374 17377 17380 17383 17386 17388 17391 17394 17397 17399 17401 17404 17407 17410 17412 17415 17417 17420 17423 17426 17429 17432 17435 17438 17441 17444 17446 17449 17452 17454 17457 17460 17463 17466 17469 17472 17475 17478 17481 17484 17487 17490 17493 17496 17499 17502 17505 17508 17511 17514 17517 17520 17523 17526 17529 17532 17535 17538 17541 17544 17547 17550 17553 17556 17559 17562 17565 17568 17571 17574 17577 17580 17583 17586 17589 17592 17595 17598 17601 17604 17607 17610 17613 17616 17619 17622 17625 17628 17631 17634 17637 17640 17643 17646 17649 17652 17655 17658 17661 17664 17667 17670 17673 17676 17679 17682 17685 17688 17691 17694 17697 17700 17703 17706 17709 17712 17715 17717 17720 17723 17726 17729 17732 17735 17738 17741 17744 17746 17749 17751 17754 17757 17760 17763 17766 17769 17772 17775 17778 17781 17784 17787 17790 17793 17796 17799 17802 17805 17808 17811 17814 17817 17820 17823 17826 17829 17832 17835 17838 17841 17844 17847 17850 17853 17856 17859 17862 17865 17868 17871 17874 17877 17880 17883 17886 17889 17892 17895 17897 17900 17903 17906 17908 17911 17913 17916 17918 17921 17924 17927 17930 17933 17936 17939 17942 17945 17948 17951 17954 17957 17960 17962 17964 17966 17969 17972 17974 17977 17980 17983 17986 17989 17992 17995 17998 18000 18003 18005 18008 18010 18013 18016 18019 18021 18024 18027 18030 18033 18035 18038 18041 18044 18047 18050 18053 18056 18059 18062 18065 18068 18071 18074 18077 18080 18083 18086 18089 18092 18095 18097 18100 18103 18105 18108 18111 18114 18117 18120 18123 18126 18129 18132 18135 18137 18139 18142 18145 18148 18151 18154 18157 18160 18163 18166 18169 18172 18175 18178 18181 18183 18186 18189 18192 18195 18197 18200 18203 18206 18209 18212 18215 18218 18221 18224 18227 18230 18232 18235 18238 18241 18244 18247 18250 18253 18256 18259 18262 18265 18268 18271 18274 18277 18280 18283 18286 18289 18292 18294 18297 18300 18303 18306 18309 18311 18313 18316 18319 18322 18325 18328 18331 18334 18337 18340 18343 18346 18349 18352 18355 18358 18361 18364 18366 18368 18371 18373 18376 18379 18382 18385 18388 18391 18394 18397 18400 18402 18405 18407 18410 18412 18415 18418 18420 18422 18424 18427 18430 18432 18435 18438 18440 18443 18445 18448 18451 18454 18457 18460 18463 18465 18468 18471 18474 18477 18479 18482 18485 18488 18491 18494 18497 18500 18503 18506 18509 18512 18515 18518 18521 18524 18527 18530 18533 18536 18539 18542 18545 18548 18551 18554 18557 18560 18563 18566 18569 18572 18575 18578 18581 18584 18587 18590 18593 18596 18599 18602 18605 18608 18611 18613 18616 18619 18622 18624 18627 18630 18633 18636 18639 18642 18645 18648 18651 18654 18657 18660 18663 18666 18669 18672 18675 18678 18681 18683 18686 18689 18692 18695 18697 18700 18703 18706 18709 18712 18715 18718 18721 18724 18727 18729 18732 18735 18738 18741 18743 18745 18747 18750 18753 18755 18758 18761 18763 18766 18769 18772 18775 18778 18781 18784 18787 18790 18792 18795 18798 18801 18804 18807 18809 18812 18815 18818 18821 18824 18826 18829 18832 18835 18838 18841 18844 18846 18848 18851 18854 18856 18859 18862 18864 18867 18870 18873 18875 18878 18881 18884 18887 18890 18893 18895 18898 18900 18902 18905 18908 18911 18914 18917 18920 18923 18925 18927 18930 18933 18936 18939 18942 18945 18947 18950 18953 18955 18958 18961 18964 18967 18970 18973 18976 18979 18982 18985 18987 18990 18992 18995 18998 19001 19004 19006 19009 19012 19015 19018 19021 19024 19027 19030 19033 19036 19039 19042 19044 19047 19050 19053 19056 19059 19061 19064 19067 19070 19073 19075 19078 19081 19084 19086 19089 19091 19094 19097 19099 19102 19104 19107 19110 19113 19115 19117 19119 19122 19124 19127 19129 19131 19134 19136 19139 19141 19144 19146 19149 19151 19154 19157 19160 19162 19165 19168 19170 19172 19175 19178 19181 19183 19185 19187 19189 19192 19195 19198 19200 19203 19205 19207 19210 19212 19215 19218 19221 19223 19226 19229 19232 19235 19237 19240 19243 19246 19248 19250 19253 19256 19259 19262 19265 19268 19270 19273 19276 19279 19282 19285 19288 19291 19294 19297 19300 19303 19306 19309 19312 19315 19318 19321 19324 19327 19330 19333 19336 19339 19342 19344 19346 19349 19352 19355 19358 19361 19364 19367 19369 19371 19374 19376 19379 19382 19385 19387 19390 19393 19396 19399 19402 19405 19408 19411 19414 19416 19418 19421 19424 19426 19429 19432 19435 19437 19440 19443 19446 19449 19451 19454 19457 19460 19463 19466 19468 19470 19473 19476 19478 19481 19484 19486 19489 19492 19494 19497 19500 19503 19506 19509 19512 19514 19517 19519 19522 19525 19527 19530 19532 19535 19537 19540 19543 19546 19548 19551 19553 19556 19558 19561 19564 19566 19569 19572 19574 19577 19579 19581 19584 19587 19589 19591 19594 19596 19599 19602 19605 19608 19611 19614 19616 19618 19621 19624 19627 19630 19633 19635 19638 19641 19644 19647 19649 19652 19655 19657 19660 19663 19666 19669 19672 19674 19677 19680 19683 19686 19689 19692 19695 19698 19701 19704 19707 19710 19713 19716 19719 19721 19724 19727 19730 19733 19736 19739 19742 19745 19747 19750 19752 19755 19758 19761 19764 19767 19769 19772 19774 19777 19780 19782 19785 19788 19790 19793 19796 19798 19801 19804 19807 19810 19813 19816 19819 19822 19824 19827 19830 19833 19836 19839 19842 19845 19848 19851 19854 19857 19860 19863 19866 19869 19871 19874 19877 19880 19883 19886 19889 19892 19894 19897 19900 19902 19905 19908 19911 19914 19916 19919 19922 19925 19928 19931 19934 19937 19940 19943 19946 19949 19952 19955 19957 19960 19963 19966 19969 19971 19974 19977 19980 19983 19986 19989 19991 19993 19996 19999 20002 20005 20008 20010 20013 20015 20018 20021 20024 20027 20030 20033 20035 20038 20041 20043 20046 20049 20052 20055 20058 20061 20064 20067 20070 20072 20075 20078 20081 20084 20086 20089 20092 20095 20098 20101 20104 20107 20110 20112 20115 20117 20120 20123 20125 20128 20131 20133 20136 20139 20142 20145 20148 20151 20154 20157 20160 20163 20165 20168 20171 20174 20177 20180 20183 20186 20189 20192 20195 20198 20201 20204 20207 20210 20213 20216 20219 20222 20225 20228 20231 20234 20237 20240 20243 20246 20249 20252 20255 20258 20261 20264 20267 20270 20273 20276 20279 20282 20285 20288 20291 20294 20297 20300 20303 20306 20309 20312 20315 20317 20320 20323 20325 20327 20330 20332 20335 20338 20341 20343 20346 20349 20352 20355 20358 20361 20364 20367 20370 20373 20376 20379 20381 20384 20386 20389 20392 20395 20398 20401 20404 20407 20410 20413 20416 20419 20422 20425 20428 20431 20434 20437 20440 20443 20446 20449 20452 20455 20458 20461 20464 20467 20470 20473 20476 20478 20481 20484 20487 20490 20493 20496 20498 20501 20504 20506 20509 20512 20515 20517 20520 20523 20525 20528 20531 20534 20536 20538 20540 20543 20546 20548 20551 20553 20555 20558 20561 20563 20566 20569 20571 20574 20577 20579 20582 20584 20587 20589 20591 20594 20597 20599 20601 20603 20606 20609 20612 20615 20618 20621 20624 20627 20630 20632 20635 20638 20641 20644 20647 20650 20653 20656 20659 20662 20665 20668 20670 20672 20674 20677 20679 20682 20684 20686 20689 20692 20695 20697 20699 20701 20704 20707 20710 20713 20715 20717 20719 20722 20725 20728 20731 20734 20737 20740 20742 20745 20747 20750 20753 20755 20758 20760 20763 20766 20769 20772 20775 20778 20781 20784 20787 20789 20792 20795 20798 20801 20804 20807 20810 20813 20816 20819 20822 20825 20828 20831 20834 20837 20840 20843 20846 20849 20852 20855 20858 20861 20864 20867 20869 20872 20875 20878 20881 20884 20887 20890 20893 20896 20899 20902 20905 20908 20911 20914 20917 20920 20923 20926 20929 20932 20934 20937 20940 20943 20946 20949 20952 20954 20957 20960 20962 20965 20968 20970 20973 20976 20979 20982 20985 20988 20990 20993 20996 20999 21002 21005 21008 21011 21014 21016 21019 21022 21025 21028 21030 21033 21036 21039 21042 21045 21048 21051 21054 21057 21060 21063 21066 21069 21072 21075 21078 21081 21084 21087 21090 21093 21096 21099 21102 21105 21108 21111 21114 21117 21120 21123 21126 21129 21132 21135 21138 21141 21144 21147 21150 21153 21156 21159 21162 21165 21168 21171 21174 21177 21180 21183 21186 21189 21192 21194 21197 21200 21203 21205 21208 21211 21214 21217 21220 21223 21226 21229 21232 21235 21238 21240 21243 21246 21249 21251 21254 21257 21260 21263 21266 21269 21272 21275 21278 21281 21284 21286 21289 21292 21295 21298 21301 21303 21305 21308 21311 21314 21317 21320 21322 21325 21328 21331 21334 21337 21340 21343 21346 21349 21352 21355 21358 21361 21364 21367 21370 21373 21376 21379 21381 21384 21387 21390 21393 21395 21397 21400 21403 21406 21409 21412 21415 21417 21420 21423 21426 21429 21432 21435 21438 21440 21443 21446 21449 21452 21455 21458 21460 21462 21465 21468 21471 21473 21476 21478 21481 21484 21487 21490 21493 21496 21499 21502 21505 21507 21510 21513 21516 21519 21522 21525 21528 21531 21534 21537 21539 21542 21545 21548 21551 21554 21557 21560 21563 21566 21569 21572 21575 21578 21581 21584 21586 21588 21591 21594 21597 21600 21602 21605 21608 21610 21613 21616 21619 21622 21625 21628 21631 21634 21637 21640 21643 21646 21649 21652 21654 21657 21660 21663 21666 21669 21672 21674 21677 21680 21683 21686 21689 21692 21695 21698 21701 21704 21707 21710 21713 21716 21719 21722 21725 21727 21730 21733 21736 21739 21742 21745 21748 21751 21753 21756 21759 21762 21765 21768 21771 21774 21777 21780 21783 21786 21788 21791 21794 21797 21800 21802 21805 21808 21811 21814 21817 21820 21823 21826 21828 21831 21834 21837 21840 21842 21845 21847 21849 21852 21854 21857 21860 21862 21865 21868 21871 21874 21877 21880 21883 21886 21889 21892 21895 21898 21901 21904 21907 21910 21912 21914 21917 21920 21923 21926 21929 21932 21935 21937 21940 21943 21945 21947 21950 21953 21956 21959 21961 21963 21966 21969 21971 21974 21977 21979 21982 21985 21988 21991 21994 21997 21999 22001 22004 22007 22010 22013 22016 22019 22021 22024 22027 22029 22032 22035 22038 22041 22044 22047 22049 22052 22055 22058 22060 22062 22064 22066 22068 22071 22074 22077 22079 22082 22085 22088 22091 22093 22096 22099 22102 22105 22108 22111 22114 22117 22120 22123 22126 22129 22132 22135 22138 22141 22144 22147 22150 22153 22156 22159 22161 22164 22167 22170 22173 22176 22179 22182 22185 22188 22190 22193 22196 22199 22201 22204 22207 22209 22212 22215 22218 22221 22224 22227 22230 22233 22236 22239 22242 22245 22248 22251 22254 22256 22259 22261 22264 22267 22270 22273 22276 22278 22281 22284 22287 22290 22292 22295 22297 22300 22303 22306 22309 22312 22315 22318 22321 22324 22327 22330 22333 22336 22338 22341 22344 22347 22350 22353 22356 22359 22362 22365 22368 22371 22374 22377 22380 22383 22386 22389 22392 22395 22398 22401 22404 22407 22410 22412 22415 22417 22420 22422 22425 22428 22431 22434 22437 22440 22443 22446 22449 22452 22454 22457 22459 22462 22465 22468 22471 22473 22476 22479 22482 22485 22487 22490 22493 22496 22499 22502 22504 22507 22510 22512 22515 22518 22521 22524 22527 22530 22533 22536 22539 22542 22544 22547 22549 22552 22555 22558 22561 22564 22567 22570 22573 22576 22579 22582 22585 22588 22591 22594 22597 22600 22603 22606 22609 22612 22615 22618 22621 22624 22627 22630 22633 22636 22639 22642 22645 22648 22651 22653 22656 22658 22661 22664 22666 22669 22672 22675 22678 22680 22683 22686 22689 22692 22695 22698 22701 22704 22707 22710 22713 22716 22719 22722 22725 22728 22731 22734 22737 22740 22742 22745 22748 22751 22754 22757 22760 22763 22766 22769 22772 22775 22778 22781 22784 22787 22790 22793 22796 22798 22800 22803 22805 22808 22811 22814 22817 22820 22823 22826 22829 22832 22835 22838 22841 22844 22847 22850 22853 22856 22859 22862 22865 22868 22871 22874 22877 22880 22883 22886 22889 22891 22894 22897 22900 22903 22906 22909 22911 22914 22917 22919 22922 22924 22927 22930 22932 22935 22938 22941 22944 22947 22950 22953 22956 22958 22961 22964 22967 22970 22972 22975 22978 22981 22984 22986 22989 22991 22994 22997 23000 23003 23006 23008 23011 23014 23017 23020 23023 23026 23028 23030 23033 23036 23039 23042 23045 23047 23050 23052 23055 23058 23061 23064 23067 23070 23073 23076 23079 23082 23085 23088 23091 23094 23097 23100 23103 23106 23109 23112 23114 23117 23120 23123 23126 23129 23132 23134 23137 23140 23143 23145 23147 23150 23153 23156 23159 23162 23165 23168 23171 23174 23177 23180 23183 23186 23189 23192 23195 23198 23201 23204 23207 23210 23213 23216 23219 23222 23225 23227 23230 23233 23236 23239 23241 23244 23247 23249 23252 23255 23258 23261 23264 23267 23270 23273 23276 23279 23282 23284 23287 23290 23293 23296 23299 23302 23305 23308 23311 23314 23317 23320 23323 23326 23329 23332 23335 23338 23341 23343 23346 23348 23351 23354 23357 23359 23362 23365 23368 23370 23373 23376 23379 23381 23383 23386 23389 23392 23394 23397 23400 23403 23405 23408 23411 23413 23416 23418 23421 23424 23427 23429 23432 23434 23437 23440 23442 23444 23446 23448 23451 23454 23457 23459 23461 23463 23465 23468 23471 23474 23477 23480 23482 23485 23488 23490 23493 23496 23499 23502 23504 23507 23510 23512 23515 23518 23520 23523 23526 23529 23532 23535 23537 23540 23543 23546 23549 23551 23554 23557 23560 23563 23566 23569 23572 23575 23578 23581 23584 23587 23590 23592 23595 23598 23601 23604 23607 23610 23612 23615 23617 23620 23622 23625 23628 23631 23634 23637 23640 23643 23646 23649 23652 23655 23658 23661 23663 23666 23669 23672 23675 23678 23681 23684 23687 23690 23693 23696 23699 23702 23705 23708 23711 23714 23717 23720 23723 23726 23729 23732 23734 23737 23740 23743 23746 23749 23752 23755 23758 23761 23764 23767 23769 23772 23775 23778 23781 23784 23787 23790 23793 23795 23798 23801 23804 23807 23810 23813 23816 23819 23822 23825 23828 23831 23834 23837 23840 23842 23845 23848 23851 23854 23857 23859 23862 23864 23867 23870 23873 23875 23877 23880 23882 23885 23888 23890 23893 23896 23899 23902 23905 23908 23910 23913 23916 23919 23921 23924 23927 23930 23933 23936 23939 23942 23944 23946 23949 23952 23954 23957 23959 23962 23965 23968 23970 23973 23976 23978 23981 23984 23986 23988 23990 23993 23996 23998 24001 24004 24007 24010 24013 24016 24019 24021 24024 24027 24030 24033 24035 24038 24041 24044 24047 24050 24053 24056 24058 24061 24064 24067 24070 24073 24075 24078 24081 24084 24086 24089 24092 24095 24098 24100 24102 24104 24107 24110 24112 24114 24117 24119 24122 24125 24128 24131 24133 24136 24139 24142 24145 24148 24151 24153 24155 24158 24161 24164 24167 24170 24173 24175 24178 24181 24184 24187 24190 24193 24195 24198 24200 24203 24206 24209 24211 24214 24217 24220 24222 24225 24228 24231 24234 24236 24239 24241 24244 24247 24250 24253 24255 24258 24261 24263 24266 24269 24271 24274 24277 24280 24283 24285 24288 24291 24294 24297 24300 24303 24306 24309 24311 24314 24317 24320 24323 24326 24329 24332 24335 24338 24341 24344 24347 24350 24353 24356 24359 24362 24365 24368 24371 24373 24376 24379 24382 24385 24388 24391 24394 24396 24399 24401 24404 24407 24410 24413 24416 24419 24422 24425 24428 24430 24433 24435 24438 24440 24443 24446 24449 24451 24454 24457 24460 24463 24466 24469 24472 24475 24477 24480 24483 24486 24489 24492 24495 24497 24500 24503 24506 24509 24511 24514 24517 24520 24523 24526 24529 24532 24535 24538 24541 24543 24545 24548 24551 24554 24557 24560 24563 24566 24569 24572 24575 24578 24581 24584 24587 24590 24593 24596 24599 24602 24605 24608 24611 24614 24617 24620 24623 24626 24628 24631 24634 24637 24640 24643 24646 24649 24652 24655 24658 24661 24663 24666 24669 24672 24675 24678 24680 24682 24685 24688 24691 24694 24697 24700 24703 24706 24709 24712 24715 24718 24721 24723 24726 24729 24732 24735 24738 24741 24744 24747 24750 24752 24755 24758 24760 24763 24765 24768 24771 24774 24777 24780 24783 24785 24788 24790 24793 24795 24798 24801 24803 24806 24809 24812 24815 24817 24820 24823 24826 24829 24832 24835 24838 24841 24844 24847 24850 24853 24855 24858 24861 24864 24866 24869 24872 24875 24878 24881 24884 24887 24890 24893 24895 24898 24901 24904 24907 24909 24912 24915 24918 24921 24924 24927 24929 24932 24935 24938 24941 24944 24947 24950 24953 24956 24959 24962 24965 24968 24971 24974 24977 24980 24983 24986 24989 24992 24995 24997 25000 25003 25006 25009 25012 25014 25017 25020 25022 25025 25028 25031 25034 25037 25039 25041 25044 25047 25050 25053 25056 25059 25062 25064 25067 25070 25073 25076 25078 25081 25084 25087 25090 25093 25096 25099 25101 25104 25107 25110 25112 25115 25117 25120 25123 25125 25128 25131 25133 25135 25138 25140 25143 25146 25149 25151 25154 25156 25159 25161 25164 25167 25170 25173 25176 25179 25181 25183 25186 25189 25192 25195 25198 25201 25204 25207 25210 25213 25215 25217 25220 25223 25226 25229 25232 25235 25238 25241 25243 25245 25248 25251 25253 25256 25258 25261 25264 25267 25270 25273 25276 25279 25281 25284 25286 25289 25292 25295 25298 25301 25304 25306 25309 25312 25315 25317 25320 25323 25326 25329 25332 25334 25337 25340 25343 25346 25349 25352 25355 25358 25361 25364 25366 25368 25371 25374 25376 25379 25382 25385 25387 25390 25393 25395 25398 25401 25404 25407 25410 25413 25416 25419 25421 25424 25427 25430 25433 25436 25439 25442 25445 25448 25451 25454 25457 25460 25463 25466 25469 25472 25475 25478 25481 25483 25486 25488 25490 25493 25496 25499 25501 25504 25506 25509 25512 25515 25518 25521 25524 25527 25529 25532 25535 25538 25541 25543 25546 25549 25552 25555 25558 25560 25563 25566 25569 25572 25574 25577 25579 25582 25585 25588 25591 25593 25596 25599 25602 25605 25607 25610 25613 25616 25619 25622 25625 25628 25631 25634 25637 25639 25642 25645 25648 25651 25654 25657 25660 25663 25666 25669 25672 25675 25678 25681 25684 25687 25690 25693 25696 25699 25702 25705 25708 25711 25714 25717 25720 25723 25726 25729 25732 25735 25738 25740 25743 25746 25748 25751 25754 25757 25759 25761 25763 25766 25768 25770 25772 25775 25778 25781 25783 25785 25788 25791 25794 25797 25800 25803 25805 25808 25811 25813 25816 25818 25821 25824 25827 25830 25833 25835 25838 25841 25844 25847 25850 25853 25856 25859 25862 25865 25868 25871 25874 25877 25880 25883 25886 25889 25892 25895 25898 25901 25903 25906 25909 25911 25914 25917 25919 25922 25925 25928 25931 25933 25936 25938 25941 25944 25946 25949 25952 25955 25958 25961 25963 25966 25969 25972 25975 25978 25981 25984 25986 25989 25992 25995 25998 26001 26003 26006 26009 26011 26014 26016 26019 26022 26025 26028 26031 26034 26037 26040 26043 26045 26047 26049 26052 26055 26057 26060 26063 26066 26069 26072 26075 26078 26081 26084 26087 26089 26092 26095 26098 26101 26104 26107 26110 26113 26116 26118 26121 26124 26127 26130 26133 26135 26138 26140 26143 26146 26149 26152 26155 26158 26160 26162 26165 26168 26171 26174 26177 26180 26182 26185 26188 26191 26194 26197 26200 26203 26206 26208 26211 26214 26216 26218 26221 26224 26227 26230 26233 26236 26239 26242 26245 26248 26251 26253 26256 26259 26262 26265 26268 26271 26274 26277 26280 26283 26286 26289 26292 26295 26298 26301 26304 26307 26309 26312 26315 26318 26321 26324 26327 26330 26333 26336 26338 26341 26344 26347 26349 26351 26354 26357 26359 26362 26365 26368 26371 26374 26377 26380 26383 26386 26389 26392 26395 26398 26401 26404 26407 26410 26413 26416 26418 26421 26424 26427 26429 26432 26435 26438 26441 26444 26447 26449 26452 26455 26458 26461 26463 26466 26469 26472 26475 26477 26480 26483 26486 26489 26492 26495 26498 26501 26504 26507 26510 26513 26516 26518 26521 26524 26527 26530 26533 26536 26539 26541 26543 26546 26549 26552 26554 26556 26559 26562 26564 26566 26568 26571 26574 26577 26579 26582 26585 26588 26591 26594 26597 26599 26602 26605 26607 26610 26613 26615 26618 26621 26623 26626 26628 26630 26633 26636 26639 26642 26645 26647 26650 26652 26655 26658 26660 26663 26666 26669 26671 26674 26677 26680 26683 26686 26689 26692 26695 26698 26701 26704 26707 26709 26712 26714 26717 26720 26723 26726 26728 26730 26733 26735 26738 26741 26744 26746 26749 26752 26755 26757 26760 26763 26766 26768 26771 26773 26776 26779 26781 26783 26786 26789 26791 26794 26797 26800 26803 26805 26808 26811 26814 26817 26820 26822 26825 26827 26829 26832 26835 26838 26841 26844 26846 26849 26852 26854 26856 26858 26861 26863 26866 26868 26871 26874 26877 26879 26882 26885 26888 26891 26893 26896 26899 26902 26904 26907 26910 26913 26916 26919 26922 26925 26927 26930 26933 26935 26938 26941 26944 26946 26949 26952 26955 26957 26960 26962 26965 26968 26971 26974 26976 26979 26982 26985 26988 26991 26994 26997 27000 27003 27006 27009 27012 27015 27018 27021 27024 27026 27029 27032 27035 27038 27041 27043 27046 27049 27051 27054 27057 27060 27062 27064 27066 27069 27072 27075 27078 27080 27083 27086 27089 27092 27094 27097 27100 27103 27105 27108 27111 27114 27116 27119 27122 27125 27128 27130 27133 27136 27139 27142 27145 27148 27150 27153 27156 27159 27162 27165 27167 27170 27173 27176 27179 27182 27185 27188 27191 27193 27196 27199 27201 27204 27207 27210 27213 27216 27218 27221 27224 27227 27230 27233 27236 27239 27242 27245 27247 27250 27253 27256 27258 27261 27264 27267 27270 27273 27276 27279 27281 27283 27286 27289 27292 27295 27298 27300 27303 27306 27309 27312 27315 27318 27320 27323 27326 27329 27331 27334 27337 27340 27343 27345 27348 27351 27354 27357 27360 27363 27366 27369 27372 27375 27378 27381 27384 27387 27390 27393 27396 27399 27402 27405 27408 27411 27414 27417 27420 27423 27425 27427 27430 27433 27435 27438 27441 27443 27446 27449 27452 27455 27458 27461 27464 27467 27470 27473 27476 27478 27481 27484 27487 27489 27492 27495 27498 27501 27503 27505 27508 27511 27513 27516 27519 27522 27525 27528 27531 27534 27537 27539 27542 27545 27548 27551 27554 27556 27558 27561 27564 27567 27570 27573 27576 27579 27581 27584 27587 27590 27593 27596 27599 27602 27605 27608 27611 27614 27617 27620 27622 27625 27628 27631 27634 27636 27639 27641 27644 27647 27650 27653 27656 27659 27662 27665 27668 27671 27674 27676 27679 27682 27685 27688 27691 27694 27697 27700 27703 27706 27708 27711 27714 27717 27720 27722 27725 27728 27731 27734 27737 27740 27743 27746 27749 27752 27755 27758 27761 27764 27767 27770 27773 27776 27779 27782 27785 27787 27790 27793 27796 27799 27802 27804 27807 27810 27812 27815 27818 27821 27824 27827 27830 27833 27836 27839 27842 27845 27848 27851 27854 27857 27859 27862 27865 27868 27871 27874 27877 27880 27882 27885 27888 27891 27894 27897 27900 27903 27906 27909 27911 27914 27917 27920 27923 27926 27929 27932 27935 27938 27940 27943 27946 27949 27952 27955 27958 27960 27963 27966 27969 27972 27974 27977 27980 27983 27986 27989 27992 27995 27998 28001 28004 28007 28010 28013 28016 28019 28021 28024 28027 28029 28032 28034 28037 28040 28043 28046 28049 28052 28055 28058 28061 28064 28067 28070 28073 28076 28079 28081 28084 28087 28090 28093 28096 28099 28101 28104 28107 28110 28113 28116 28119 28122 28125 28128 28131 28134 28137 28140 28143 28146 28149 28152 28155 28158 28160 28163 28166 28168 28171 28174 28177 28180 28183 28186 28188 28191 28193 28196 28199 28201 28204 28207 28210 28213 28216 28218 28221 28224 28227 28230 28233 28235 28238 28241 28244 28247 28250 28253 28255 28258 28261 28264 28267 28270 28273 28275 28278 28281 28283 28286 28289 28292 28295 28297 28300 28303 28306 28309 28312 28314 28317 28320 28323 28326 28329 28332 28335 28337 28340 28343 28346 28349 28352 28355 28358 28360 28363 28366 28369 28372 28375 28378 28380 28383 28386 28389 28392 28395 28398 28401 28404 28407 28410 28413 28415 28418 28421 28424 28427 28429 28431 28434 28437 28439 28442 28445 28448 28451 28454 28457 28459 28462 28465 28468 28471 28474 28477 28480 28483 28486 28489 28492 28495 28498 28501 28504 28507 28510 28513 28515 28518 28521 28524 28527 28529 28532 28535 28537 28540 28543 28546 28549 28552 28555 28558 28561 28564 28567 28570 28573 28576 28579 28582 28585 28588 28591 28594 28596 28598 28601 28604 28607 28610 28613 28616 28618 28621 28623 28626 28629 28632 28635 28638 28641 28644 28647 28650 28653 28656 28659 28662 28665 28668 28671 28674 28677 28680 28683 28686 28689 28692 28695 28698 28701 28704 28707 28710 28713 28716 28718 28721 28724 28727 28729 28732 28735 28738 28741 28743 28746 28749 28752 28755 28758 28760 28763 28766 28769 28772 28775 28778 28781 28784 28787 28790 28793 28796 28799 28802 28805 28808 28811 28814 28817 28820 28823 28826 28829 28832 28835 28838 28841 28844 28846 28849 28851 28854 28857 28860 28863 28866 28869 28872 28875 28877 28880 28883 28886 28889 28891 28894 28897 28900 28903 28906 28909 28912 28915 28918 28921 28924 28926 28929 28932 28935 28938 28941 28944 28947 28950 28953 28956 28959 28962 28965 28968 28971 28974 28977 28980 28982 28985 28988 28991 28994 28997 29000 29003 29006 29009 29012 29015 29018 29021 29024 29027 29030 29033 29036 29039 29042 29045 29048 29051 29054 29056 29059 29062 29065 29068 29071 29074 29077 29080 29083 29086 29089 29092 29095 29098 29101 29104 29107 29110 29113 29116 29119 29122 29125 29128 29131 29134 29137 29140 29143 29145 29148 29151 29154 29157 29160 29163 29165 29168 29170 29173 29175 29178 29181 29183 29186 29189 29191 29193 29196 29199 29201 29204 29206 29209 29212 29214 29217 29220 29222 29225 29228 29231 29234 29237 29240 29243 29246 29249 29252 29255 29258 29261 29263 29265 29267 29270 29273 29276 29278 29281 29284 29287 29290 29293 29296 29299 29302 29305 29308 29311 29314 29317 29320 29322 29325 29328 29331 29334 29337 29340 29343 29346 29349 29352 29355 29358 29361 29363 29365 29368 29371 29374 29377 29380 29383 29386 29389 29392 29395 29398 29401 29404 29407 29409 29412 29415 29417 29420 29423 29425 29427 29430 29432 29435 29438 29441 29443 29446 29449 29452 29455 29458 29461 29464 29466 29469 29472 29475 29478 29481 29483 29485 29488 29491 29493 29496 29499 29502 29505 29508 29511 29514 29517 29520 29523 29526 29529 29532 29535 29538 29541 29544 29547 29549 29551 29554 29556 29559 29562 29564 29567 29570 29573 29576 29579 29582 29585 29587 29590 29593 29596 29599 29602 29605 29608 29611 29614 29617 29619 29622 29625 29627 29630 29632 29635 29638 29641 29644 29647 29650 29653 29656 29659 29662 29665 29668 29671 29674 29677 29680 29683 29686 29689 29692 29695 29697 29700 29703 29706 29709 29712 29715 29718 29721 29724 29727 29730 29733 29736 29739 29742 29745 29748 29751 29754 29757 29760 29763 29766 29769 29772 29775 29778 29781 29784 29787 29790 29793 29796 29799 29802 29805 29808 29811 29814 29817 29820 29823 29826 29829 29832 29835 29838 29841 29844 29847 29850 29853 29856 29859 29862 29865 29868 29871 29874 29877 29880 29882 29885 29888 29890 29893 29896 29899 29901 29904 29907 29910 29913 29916 29919 29922 29924 29927 29930 29933 29936 29939 29942 29945 29948 29951 29954 29956 29959 29962 29965 29968 29971 29973 29975 29978 29980 29983 29986 29988 29991 29993 29996 29999 30002 30005 30008 30011 30013 30016 30019 30022 30025 30028 30030 30032 30035 30038 30041 30044 30047 30049 30051 30054 30057 30060 30063 30066 30069 30072 30075 30078 30081 30084 30087 30090 30093 30096 30099 30102 30105 30108 30111 30114 30117 30120 30123 30126 30129 30132 30135 30138 30141 30144 30147 30150 30153 30156 30159 30162 30165 30168 30171 30174 30177 30180 30183 30185 30188 30191 30194 30197 30200 30203 30206 30209 30212 30215 30218 30221 30224 30227 30230 30233 30235 30238 30241 30243 30246 30249 30252 30255 30257 30260 30262 30265 30267 30270 30273 30275 30278 30281 30284 30287 30290 30292 30295 30298 30301 30304 30307 30309 30312 30315 30318 30321 30324 30326 30328 30331 30333 30336 30339 30341 30344 30347 30350 30353 30355 30357 30360 30363 30366 30369 30372 30375 30378 30381 30383 30386 30389 30392 30394 30397 30400 30403 30406 30409 30412 30415 30418 30420 30423 30426 30429 30432 30435 30437 30440 30443 30445 30448 30451 30454 30457 30460 30463 30466 30469 30472 30475 30478 30481 30484 30487 30489 30492 30495 30497 30500 30503 30505 30508 30511 30514 30517 30519 30522 30525 30528 30531 30533 30536 30539 30542 30545 30548 30551 30554 30557 30560 30563 30566 30568 30571 30573 30576 30579 30581 30584 30587 30590 30593 30595 30598 30601 30604 30607 30610 30613 30616 30619 30621 30623 30626 30629 30631 30633 30636 30639 30642 30645 30648 30651 30653 30656 30659 30662 30665 30668 30671 30674 30677 30680 30683 30686 30689 30692 30695 30698 30701 30704 30707 30710 30712 30715 30718 30721 30724 30727 30730 30733 30736 30738 30741 30744 30747 30750 30752 30755 30758 30761 30764 30767 30770 30773 30776 30778 30781 30784 30787 30789 30792 30794 30796 30799 30802 30805 30807 30809 30812 30814 30817 30820 30823 30826 30829 30832 30835 30838 30841 30844 30847 30849 30852 30855 30858 30861 30864 30867 30870 30872 30875 30878 30881 30884 30887 30890 30892 30895 30898 30900 30903 30905 30908 30911 30914 30917 30920 30923 30926 30929 30932 30935 30938 30941 30944 30947 30950 30953 30956 30958 30961 30964 30967 30970 30973 30976 30979 30982 30985 30988 30991 30994 30997 31000 31003 31006 31009 31012 31015 31018 31021 31024 31027 31030 31033 31036 31039 31042 31045 31048 31051 31053 31056 31059 31062 31065 31068 31071 31074 31077 31080 31083 31086 31089 31092 31095 31097 31099 31102 31104 31107 31110 31113 31115 31117 31120 31123 31126 31129 31131 31134 31137 31140 31143 31146 31149 31152 31155 31158 31161 31164 31167 31170 31172 31175 31178 31181 31184 31186 31189 31191 31194 31197 31200 31203 31206 31209 31211 31214 31217 31220 31223 31226 31229 31231 31234 31237 31239 31241 31244 31247 31250 31253 31256 31259 31262 31265 31268 31271 31274 31277 31280 31283 31286 31289 31292 31295 31297 31299 31302 31305 31308 31311 31314 31317 31319 31322 31325 31328 31330 31333 31336 31339 31342 31345 31348 31350 31353 31356 31359 31362 31365 31368 31371 31374 31377 31380 31383 31385 31388 31391 31394 31397 31400 31403 31405 31408 31411 31414 31417 31420 31423 31426 31429 31432 31435 31437 31440 31443 31446 31449 31452 31455 31458 31461 31464 31467 31470 31473 31476 31479 31482 31485 31488 31491 31493 31495 31498 31501 31503 31506 31509 31512 31515 31518 31521 31524 31527 31530 31533 31536 31539 31542 31544 31547 31549 31552 31555 31558 31561 31564 31567 31570 31573 31576 31579 31582 31585 31588 31590 31593 31596 31599 31602 31605 31608 31611 31614 31617 31620 31623 31626 31629 31631 31634 31637 31640 31643 31645 31648 31651 31654 31657 31660 31663 31665 31668 31671 31674 31677 31680 31683 31686 31689 31692 31695 31698 31701 31704 31707 31710 31713 31716 31719 31722 31725 31728 31731 31734 31737 31740 31743 31746 31749 31752 31755 31758 31761 31764 31767 31770 31773 31775 31778 31781 31784 31787 31789 31792 31795 31798 31801 31804 31807 31810 31813 31816 31819 31822 31824 31827 31830 31833 31835 31838 31841 31844 31847 31850 31853 31856 31859 31862 31865 31868 31871 31874 31876 31879 31882 31884 31887 31890 31893 31896 31899 31902 31905 31908 31911 31914 31916 31919 31922 31924 31927 31930 31933 31935 31938 
</DataArray>
<DataArray type="UInt32" Name="types" format="ascii">
5 5 5 3 5 5 5 5 3 5 5 3 5 5 5 5 5 5 5 5 5 5 5 5 5 5 5 5 5 5 5 5 5 5 5 3 5 5 5 5 5 5 5 5 5 5 5 5 5 5 5 5 5 5 5 5 5 5 3 5 5 5 5 5 5 5 5 5 3 5 5 5 3 3 5 5 3 5 5 3 5 5 5 3 5 3 3 5 5 5 5 3 5 5 5 5 5 5 5 5 3 5 5 5 5 5 5 5 3 5 5 5 3 5 5 3 5 5 3 5 5 5 5 5 5 5 5 5 3 5 5 5 5 5 5 5 5 5 5 5 5 5 5 3 5 5 5 5 5 5 5 5 5 5 5 5 5 5 5 5 5 5 5 5 5 5 5 3 5 5 3 5 5 5 5 5 5 5 5 5 5 5 5 5 5 5 5 5 5 5 5 5 5 5 5 5 5 5 5 5 5 5 5 5 5 5 5 5 5 5 5 5 5 5 5 5 3 5 5 5 5 5 5 5 5 5 5 3 5 5 3 5 5 3 5 5 3 5 5 5 3 3 5 5 3 5 3 5 5 5 5 3 5 3 5 5 3 5 3 5 5 5 5 5 5 5 3 5 5 5 5 3 3 5 5 5 3 5 5 5 5 5 3 3 5 5 3 5 5 5 5 3 5 5 5 5 3 5 5 5 5 5 3 5 5 3 5 5 5 3 5 5 5 5 5 5 5 5 5 5 5 5 5 5 5 5 5 5 5 5 5 5 5 5 5 5 5 5 5 5 5 5 5 5 5 5 5 5 5 5 5 5 5 5 5 5 5 5 5 5 5 5 5 5 5 5 5 5 5 5 5 5 5 3 5 5 5 3 5 5 5 5 5 5 5 5 5 5 3 5 5 5 5 5 5 5 5 5 5 5 5 5 5 5 5 5 3 5 5 5 5 5 5 5 5 5 5 5 5 5 5 3 5 5 5 3 5 5 5 5 5 5 5 5 5 5 5 5 5 5 5 5 3 5 5 5 3 5 5 3 5 5 5 5 5 5 5 5 5 5 5 3 5 5 5 5 3 5 5 5 5 5 3 5 5 5 5 3 5 5 5 5 5 5 5 5 5 5 5 5 5 5 5 5 5 5 5 5 5 5 5 5 5 5 5 5 5 5 5 5 5 5 5 5 5 5 3 5 3 5 5 5 5 5 5 5 5 5 5 5 5 5 5 3 5 5 5 5 5 5 3 5 5 5 5 5 5 5 3 5 5 5 5 5 5 5 5 5 5 5 5 5 5 5 5 3 5 5 5 5 5 5 3 5 5 5 5 5 5 5 5 5 5 5 5 5 5 5 5 5 3 5 5 5 3 5 5 5 5 5 5 5 5 5 5 5 5 5 5 5 5 5 5 5 5 5 5 5 5 5 5 5 5 5 5 5 5 5 5 5 5 5 5 5 5 5 5 5 5 5 5 5 5 5 5 5 5 5 5 5 5 5 3 5 3 5 3 3 5 5 5 5 5 5 5 5 5 5 3 5 5 3 3 5 5 5 5 3 5 5 3 5 5 5 5 5 5 5 5 5 5 3 3 5 3 5 3 5 5 5 5 5 5 5 5 3 3 3 5 5 5 5 5 5 5 5 5 5 5 5 5 5 5 5 5 5 5 5 5 5 5 5 5 5 5 5 5 5 5 5 5 5 5 5 5 5 5 5 3 5 5 5 5 5 5 5 5 5 3 5 5 5 3 5 3 5 5 5 5 3 5 5 5 5 3 5 5 5 5 5 5 5 3 3 5 5 5 3 5 5 5 5 3 5 5 5 5 5 5 3 5 5 5 5 5 3 5 5 5 5 5 5 5 5 5 5 5 5 3 5 5 5 5 3 5 5 5 5 5 5 5 5 5 5 3 5 5 5 5 5 5 5 5 5 5 5 5 5 5 5 5 5 5 5 3 5 5 5 3 5 5 5 5 5 5 3 5 5 3 5 5 5 5 5 5 5 5 5 5 5 5 3 3 5 5 5 5 5 5 3 5 5 5 5 5 5 5 5 5 5 5 5 5 5 5 5 3 5 5 5 5 5 5 5 5 5 5 5 5 5 3 5 5 3 5 5 5 3 5 5 5 5 5 5 3 5 5 5 5 5 5 5 5 3 5 5 5 5 5 5 3 5 5 5 5 5 5 5 5 5 5 5 5 5 5 5 3 5 5 5 5 5 5 5 5 5 5 5 5 5 5 5 5 5 5 5 5 5 5 5 5 5 5 5 3 5 3 5 3 3 5 5 5 5 5 5 5 5 5 5 5 5 3 5 3 5 3 3 5 3 3 5 5 5 5 3 3 5 3 3 5 5 3 5 5 3 5 5 5 5 5 5 5 5 3 5 5 3 5 5 5 5 3 5 5 5 5 3 5 3 5 5 5 5 5 3 5 5 5 5 5 5 3 5 5 3 5 5 5 5 5 5 5 5 5 3 5 5 3 5 5 5 5 3 5 5 3 5 5 5 5 5 5 5 5 5 5 5 5 5 5 5 5 5 3 5 5 5 3 5 5 5 5 5 5 3 5 5 5 3 5 5 5 5 5 5 5 5 5 5 5 5 5 5 5 5 5 3 5 5 5 5 3 5 5 3 5 5 5 5 5 3 5 5 5 5 5 3 5 5 3 3 5 5 5 5 5 5 5 3 5 5 5 5 5 5 5 3 5 5 5 5 5 5 5 5 5 5 5 5 5 5 5 5 5 5 5 5 5 5 3 3 5 5 5 5 3 5 5 5 5 5 5 5 5 5 5 5 5 3 5 3 5 5 5 5 5 5 5 5 3 5 5 5 5 3 5 5 5 5 5 5 3 5 5 5 5 3 5 3 5 5 5 5 3 5 5 5 3 5 5 5 5 5 5 5 5 5 3 5 5 5 5 3 5 5 5 3 5 5 5 3 5 3 5 5 5 5 5 5 5 5 5 5 5 3 3 5 5 5 5 5 3 5 5 5 5 5 5 5 5 5 5 5 5 5 5 5 5 3 5 5 5 5 3 5 5 5 5 5 5 5 5 5 3 5 5 5 5 5 5 5 3 5 5 5 5 5 5 5 5 3 5 3 3 5 5 5 5 5 5 5 5 5 5 5 5 5 5 5 5 5 5 5 5 5 3 5 5 5 5 5 5 5 5 5 5 3 5 5 3 5 5 5 3 5 5 5 5 5 3 3 5 5 3 5 5 5 5 5 3 5 5 5 3 3 5 5 5 3 5 5 3 3 5 5 5 5 5 5 5 5 5 5 5 5 5 5 5 3 5 5 5 5 5 3 5 5 5 5 3 5 5 5 5 5 5 3 5 5 5 3 5 5 3 3 5 5 5 5 5 5 5 5 3 5 5 5 5 5 5 3 5 5 5 5 5 5 5 5 5 5 5 5 5 5 5 5 5 5 5 5 5 5 5 5 5 5 5 5 5 5 5 5 5 5 3 5 5 3 5 5 5 5 5 5 5 5 5 5 5 5 5 5 5 5 3 5 5 5 5 5 5 5 5 5 5 3 5 5 5 5 5 3 5 5 5 5 5 3 5 5 3 5 5 3 5 5 3 5 5 3 5 5 5 5 5 5 5 5 5 5 5 5 5 5 5 5 5 5 3 5 5 5 5 5 5 5 5 5 3 5 5 5 5 5 3 3 5 5 5 5 5 5 5 5 5 5 5 5 5 5 5 3 5 5 5 5 5 5 5 5 5 5 5 5 5 3 5 5 5 5 5 5 3 5 5 5 5 3 5 5 5 3 5 5 5 5 5 3 5 5 5 5 5 5 5 5 5 5 5 5 5 5 5 5 5 5 5 5 5 5 3 5 5 5 5 3 5 5 5 5 5 5 5 5 5 3 5 5 5 5 5 5 5 5 5 5 3 5 5 5 5 5 3 5 5 5 5 5 5 5 5 3 5 5 3 5 5 5 5 5 5 3 5 5 5 5 5 5 5 5 5 5 3 3 5 5 5 3 5 3 5 5 3 5 5 5 5 5 3 5 3 5 5 3 3 3 5 3 5 5 5 3 5 5 3 5 3 5 5 5 3 5 3 5 5 5 5 3 5 5 5 3 5 5 3 3 3 5 3 5 3 3 5 5 5 5 3 5 5 5 5 5 5 5 5 3 5 3 5 5 5 5 5 5 5 5 5 5 5 5 5 5 3 5 3 5 5 5 5 5 5 5 5 5 3 5 5 3 5 5 5 5 5 5 5 3 5 5 3 5 3 5 3 5 3 5 5 5 5 3 5 3 5 5 5 5 5 5 5 5 5 5 5 5 5 5 5 5 5 5 5 5 5 5 5 5 5 5 5 5 5 3 5 5 5 5 5 5 5 5 5 5 5 3 5 5 3 5 5 5 3 5 5 5 5 3 3 5 5 3 5 5 5 5 5 5 3 5 5 5 5 5 5 5 3 5 5 5 5 5 5 5 3 5 5 5 3 5 5 5 5 5 5 3 5 5 5 5 3 5 5 5 3 5 5 5 5 5 5 5 5 5 5 5 5 5 5 5 5 5 5 5 5 5 5 5 3 5 5 5 5 5 3 5 5 5 5 5 5 5 5 5 5 5 5 5 5 5 5 5 5 5 5 5 5 5 5 5 5 5 5 5 5 5 5 5 5 5 5 5 5 5 5 5 5 5 5 5 5 5 5 3 5 5 5 3 5 5 5 5 3 5 5 5 5 3 5 5 5 5 5 5 5 5 5 5 3 5 5 5 3 5 3 5 5 5 5 5 5 5 5 5 5 5 5 5 5 5 3 5 5 3 3 5 5 5 5 5 3 5 5 3 5 5 5 5 5 5 5 5 5 5 5 5 5 5 5 5 5 5 5 5 5 5 5 5 5 5 5 5 5 5 5 5 5 5 5 5 5 5 5 5 5 3 5 5 5 5 5 5 5 5 5 5 5 5 5 5 5 5 5 5 5 5 5 5 5 5 5 5 5 5 5 5 5 5 5 5 5 3 5 5 5 5 5 5 5 5 5 5 5 3 5 5 5 3 5 3 3 3 3 5 5 5 5 5 5 5 5 5 5 3 5 5 5 3 5 5 5 5 5 5 5 5 5 5 5 5 5 5 5 3 5 3 5 5 3 5 5 3 5 3 3 5 5 3 5 5 5 5 5 5 5 5 5 5 5 5 5 5 5 3 5 5 5 5 5 5 5 3 5 5 5 5 5 5 5 3 5 5 5 5 3 3 5 5 5 5 5 5 5 5 5 5 5 5 5 5 5 5 5 5 5 3 5 5 5 5 5 5 5 5 5 3 5 5 5 5 5 5 3 5 5 5 5 5 5 5 5 5 5 5 5 5 5 5 5 5 5 5 5 5 5 5 5 5 5 5 5 5 5 5 5 3 5 5 5 5 3 5 5 5 5 5 5 5 5 5 5 5 5 5 5 5 5 5 5 5 5 5 5 5 5 5 5 5 5 5 5 5 5 5 5 5 3 5 5 5 5 3 5 5 5 5 5 5 5 3 5 5 5 5 5 5 5 5 5 5 5 5 5 5 5 5 5 3 5 5 5 5 5 5 5 5 5 5 5 5 5 5 5 5 5 5 5 5 5 5 5 3 5 3 5 5 5 5 5 5 5 5 3 5 3 5 5 5 3 5 5 5 5 5 5 5 3 5 5 3 5 5 5 3 5 5 5 5 5 5 5 5 5 5 5 5 5 5 5 5 5 5 3 5 5 5 5 5 5 5 5 5 5 5 5 5 3 5 5 5 5 5 5 5 5 5 5 5 5 5 5 5 5 5 5 5 5 5 3 5 5 3 5 5 5 5 5 5 5 5 3 5 3 3 5 5 5 5 5 5 5 5 3 5 5 5 5 5 5 5 5 5 5 3 5 5 3 5 3 5 3 5 3 3 5 5 3 3 5 5 5 5 5 5 5 5 5 3 5 5 5 5 3 5 5 5 5 5 5 3 5 5 3 5 3 5 5 3 5 3 5 3 5 5 3 5 3 5 5 5 5 5 3 3 5 3 5 5 5 5 3 5 5 5 5 5 5 5 3 5 5 5 3 5 5 5 3 5 5 5 5 5 5 5 5 5 3 5 5 3 3 5 5 5 5 5 5 5 3 5 5 5 5 5 5 5 5 5 5 5 5 5 5 5 5 5 5 5 5 5 5 5 5 5 5 5 5 5 5 5 5 5 5 5 5 5 5 5 5 5 5 5 5 5 5 5 5 5 5 5 5 5 5 5 5 5 5 5 5 5 5 5 5 5 5 5 5 5 5 3 5 5 3 5 5 5 5 5 3 5 5 5 5 5 5 5 5 5 5 5 5 5 5 5 5 5 5 5 5 5 5 5 5 5 5 5 5 5 5 5 5 5 5 5 5 5 5 5 5 5 3 5 3 5 5 5 3 5 5 5 5 5 5 3 5 3 5 5 5 5 5 5 5 5 5 5 5 3 5 5 5 5 5 5 5 5 5 5 5 5 5 5 5 5 5 3 5 5 5 5 5 5 5 5 5 5 3 5 3 5 5 5 5 5 5 5 5 5 5 5 5 5 5 5 5 3 5 5 5 5 5 5 5 5 5 5 5 5 5 5 5 5 5 5 5 5 5 3 5 5 5 5 5 3 5 5 5 3 5 5 3 5 5 5 5 5 3 5 5 5 5 5 5 3 5 5 5 5 5 5 5 3 3 5 5 5 5 5 5 5 5 3 5 5 5 5 5 5 5 5 5 5 5 3 5 5 5 5 5 3 5 3 5 5 5 3 5 5 5 3 3 5 5 5 5 3 5 3 5 5 5 5 3 5 5 5 5 5 5 5 3 5 5 5 3 5 5 5 5 5 5 5 5 5 5 5 5 5 5 5 5 5 5 5 5 5 5 3 5 5 5 3 5 5 3 5 5 5 5 5 5 5 5 5 5 5 5 5 5 5 5 5 5 5 5 3 5 5 5 3 5 5 5 5 5 5 5 5 5 5 5 5 5 5 5 5 5 5 5 5 5 5 5 3 5 3 5 5 5 5 5 5 3 5 5 5 5 5 5 5 5 5 5 5 5 5 5 5 5 5 5 5 5 5 5 5 5 5 5 5 5 5 3 5 5 5 5 5 5 5 5 5 5 5 3 5 5 5 5 3 5 3 5 3 3 5 5 5 5 5 5 5 5 5 5 5 5 5 5 5 5 5 5 5 5 5 5 5 5 5 5 5 5 5 5 5 5 5 3 5 5 3 5 5 3 5 5 3 3 3 5 5 3 5 5 3 5 3 5 5 5 5 3 5 5 5 5 3 5 5 5 5 5 3 5 5 5 5 5 5 5 3 3 5 5 5 5 5 5 5 5 5 5 5 3 5 5 5 5 5 3 5 5 5 5 5 5 3 5 5 5 5 5 5 3 5 5 5 5 5 5 5 5 5 5 5 5 3 5 5 5 5 5 5 3 5 5 3 5 3 5 5 5 3 5 5 3 5 5 5 5 5 3 5 5 5 5 5 5 5 5 5 5 3 5 5 5 5 5 5 3 5 5 5 5 5 5 5 5 5 5 5 5 5 5 5 5 5 5 3 5 5 5 5 5 5 5 5 3 5 5 5 5 5 5 5 5 3 5 5 5 5 3 3 5 5 5 5 5 5 5 3 5 3 5 5 5 5 5 3 5 3 3 5 5 5 3 5 3 3 5 5 5 3 5 3 5 5 5 5 5 5 5 5 3 5 5 3 5 5 3 3 5 5 3 5 3 3 5 3 5 3 5 5 3 3 3 5 5 5 3 5 5 3 5 5 5 5 5 5 5 3 5 5 5 3 3 5 3 5 5 5 5 5 5 5 5 5 5 3 5 5 3 5 5 3 5 5 5 3 3 3 5 5 3 5 3 5 5 5 5 5 5 5 5 3 5 5 5 5 5 5 5 5 5 5 5 5 5 5 5 5 3 5 5 5 5 5 5 5 3 5 5 5 5 3 5 5 3 5 5 3 3 5 5 5 5 5 5 5 5 5 3 5 3 5 3 5 3 3 5 3 5 5 5 3 5 5 5 5 5 5 3 5 5 5 5 5 5 5 5 5 5 3 3 5 5 5 5 5 5 5 5 5 5 3 5 5 5 5 5 5 5 5 5 5 5 5 5 5 5 5 5 5 5 5 3 5 5 5 5 5 3 5 5 5 5 5 5 5 5 5 5 5 5 5 5 5 5 5 5 5 5 3 5 5 5 5 3 5 5 3 5 5 3 3 5 3 5 5 3 5 5 5 5 5 5 5 5 5 5 5 5 5 5 5 5 5 5 5 5 5 5 5 5 5 5 5 5 5 5 5 5 5 5 5 3 5 5 5 5 3 5 5 5 5 5 5 3 3 5 5 5 3 5 3 5 3 5 5 5 5 5 5 5 5 5 5 5 5 5 5 3 5 5 5 5 3 5 5 3 3 5 5 5 3 5 5 5 5 5 3 5 5 3 5 5 3 5 5 5 3 5 5 3 5 5 5 5 5 5 5 5 3 5 5 3 3 5 5 3 5 5 5 5 3 5 5 5 5 5 5 5 5 5 5 5 5 5 5 5 5 3 5 5 5 5 3 5 5 5 5 5 3 3 5 3 5 3 5 5 3 5 5 5 5 5 3 5 5 3 5 5 5 5 5 5 5 5 5 5 3 5 5 5 3 5 5 5 5 3 5 3 5 5 5 5 5 5 5 3 5 5 5 5 5 5 5 5 5 5 5 5 3 5 5 5 5 5 5 5 5 5 5 3 5 3 5 5 3 5 5 5 5 3 5 3 5 3 5 5 5 3 5 3 5 5 3 3 5 5 5 3 3 5 3 5 5 5 5 5 3 5 5 5 5 5 5 3 5 5 5 5 3 5 5 3 5 3 5 5 5 5 5 5 5 5 5 5 5 5 5 5 5 5 5 5 5 5 5 5 5 5 5 5 5 5 5 5 5 5 5 5 5 5 5 5 5 3 5 5 5 5 5 5 5 5 5 3 5 5 5 3 5 5 5 5 5 5 5 5 5 5 5 5 5 5 5 5 5 5 5 5 5 5 5 5 5 5 5 5 5 5 5 3 5 3 5 5 5 5 5 5 5 5 5 5 5 5 5 5 5 5 5 5 5 5 5 5 5 5 5 5 5 5 5 5 5 5 5 5 3 5 5 3 5 5 3 5 3 5 5 3 5 5 3 3 5 5 5 5 5 3 5 5 5 5 5 3 5 5 5 5 5 5 5 5 5 5 5 5 5 5 5 5 5 5 5 5 5 5 5 5 5 5 5 5 5 5 3 5 5 5 5 5 3 5 5 5 5 5 5 5 3 5 5 3 5 5 5 3 3 3 5 5 5 5 3 3 5 5 3 3 5 5 3 5 5 5 3 5 5 3 5 3 5 5 5 5 5 5 5 5 3 3 5 3 5 5 5 5 5 3 5 3 5 3 5 5 5 3 3 5 3 3 5 5 5 5 3 3 5 3 5 3 5 5 5 5 5 5 5 5 5 3 3 5 5 5 5 5 5 5 3 5 5 5 5 3 5 5 5 5 5 5 5 5 5 5 5 5 5 5 3 5 3 3 5 5 5 5 3 5 5 5 3 5 5 5 5 3 3 5 5 3 5 5 3 5 5 5 5 5 3 5 5 5 5 5 5 3 5 3 5 5 5 3 5 5 5 5 5 5 5 5 5 5 5 5 5 5 5 5 5 5 5 5 5 5 5 5 5 5 5 5 5 5 5 5 5 5 5 5 3 3 5 5 5 5 5 5 5 5 5 5 5 5 5 3 5 5 3 5 5 3 5 5 3 5 5 5 5 5 3 5 3 5 5 5 5 5 5 5 5 5 5 5 5 5 5 3 5 5 5 3 5 3 5 5 5 5 5 5 5 5 5 5 5 5 5 5 5 5 5 5 5 5 5 5 5 3 5 5 5 5 5 5 5 5 5 5 5 5 5 5 5 5 5 5 5 5 5 5 3 3 5 5 5 5 5 5 5 5 5 5 5 5 3 5 5 5 5 5 5 5 5 5 3 5 5 5 5 3 5 5 3 5 5 5 5 5 5 5 5 3 5 3 5 5 5 5 5 5 5 5 5 5 5 5 5 3 5 5 5 5 5 5 5 5 5 5 5 5 5 5 5 5 5 5 5 5 3 5 5 5 5 5 5 3 5 5 5 5 5 5 5 5 5 5 5 5 5 5 5 5 5 5 5 5 5 5 5 5 5 5 5 5 3 5 3 5 5 5 5 5 5 5 3 5 5 5 5 3 3 5 3 5 5 5 5 3 5 5 5 5 5 5 5 5 5 3 5 3 3 5 5 5 5 5 5 5 5 5 5 3 5 5 5 5 5 5 5 5 5 5 5 3 5 3 5 5 5 5 5 5 3 5 3 5 5 5 5 5 5 5 5 5 5 5 3 5 5 3 3 5 5 5 5 3 5 3 3 5 5 5 5 3 5 3 5 5 5 5 5 5 5 5 5 5 5 5 5 5 5 5 5 5 5 5 5 3 5 3 5 3 5 3 5 5 5 5 5 5 5 5 5 5 5 5 5 5 5 5 5 5 5 5 5 5 5 5 5 5 5 5 5 5 5 5 5 5 5 5 5 5 5 5 5 5 5 5 5 5 5 5 5 5 5 5 5 5 5 5 5 5 3 5 5 5 5 5 5 5 5 3 5 5 5 5 5 5 3 5 5 5 5 5 5 5 5 5 5 5 3 5 5 5 5 5 5 5 3 3 5 5 3 5 5 5 3 3 3 3 5 5 5 5 5 5 3 5 5 5 5 3 5 5 5 3 5 5 3 3 5 5 5 5 5 5 5 3 5 5 5 5 5 5 5 5 5 5 5 5 5 3 5 5 5 5 5 5 3 5 5 5 5 5 5 5 3 5 5 5 5 5 5 5 5 3 5 5 5 3 5 5 3 5 3 5 5 5 5 5 5 5 5 5 5 3 5 3 5 3 5 5 5 5 5 5 3 5 5 5 5 5 5 3 5 5 5 5 5 5 5 5 5 5 5 5 5 3 3 5 5 5 5 3 5 5 5 3 5 5 3 5 5 3 5 5 5 5 5 3 5 5 5 5 5 3 5 5 5 5 5 3 5 3 5 3 5 5 5 5 5 5 5 5 5 5 3 5 5 5 5 5 5 5 5 5 5 5 5 5 5 3 5 5 5 5 5 3 5 5 3 5 5 5 3 5 5 5 3 5 5 5 5 5 5 5 5 5 5 5 5 5 5 3 5 5 5 5 5 5 5 5 5 5 5 5 5 5 5 5 5 5 5 5 5 5 5 3 3 3 5 5 5 5 3 5 5 5 5 5 5 5 5 5 5 5 5 5 5 5 5 5 5 5 5 5 5 5 5 5 5 5 5 5 5 5 5 5 5 5 5 5 5 3 3 5 5 3 5 5 5 5 5 3 5 5 5 5 3 5 5 5 5 5 3 5 3 5 5 5 3 5 3 5 5 3 3 5 5 5 5 5 5 5 3 5 5 5 5 3 5 5 5 5 5 5 3 5 5 5 5 5 5 5 5 5 3 5 5 5 5 5 5 5 5 5 5 5 5 5 5 5 5 5 3 5 5 5 5 5 5 3 5 5 5 5 5 5 5 3 5 5 5 5 3 5 5 5 5 5 3 5 5 5 5 5 5 3 5 5 3 5 5 5 5 3 5 5 5 5 3 5 5 5 5 5 5 5 5 5 5 5 5 5 5 5 5 5 5 5 5 5 5 5 5 5 5 3 5 5 5 5 3 5 5 5 5 5 5 3 3 5 5 5 5 5 5 5 5 5 3 3 5 5 5 5 5 3 5 5 5 5 5 5 3 5 5 5 3 5 5 3 5 5 3 3 5 5 5 3 3 5 5 5 3 5 5 5 5 5 5 5 5 5 5 5 5 5 5 5 5 5 5 5 5 5 3 5 5 5 5 5 3 3 5 3 5 5 5 3 5 5 5 5 5 5 5 5 5 5 5 5 5 5 5 5 5 5 5 5 5 5 5 5 5 5 5 5 5 5 5 3 5 5 3 5 5 5 5 5 5 5 5 5 5 5 5 5 5 5 5 5 5 5 3 3 5 3 5 5 5 5 5 5 5 5 5 5 5 5 5 5 5 3 5 3 3 5 5 3 5 3 5 3 5 5 5 3 5 5 5 3 3 3 5 5 5 3 5 5 3 5 5 5 3 5 5 5 5 3 5 5 5 5 3 5 5 5 3 3 3 5 5 5 5 5 5 5 5 5 3 5 5 5 5 5 5 5 5 5 5 5 5 5 5 5 5 5 5 3 5 5 5 5 3 5 5 5 5 5 5 5 5 5 3 5 5 5 5 5 5 5 5 5 5 5 5 5 5 5 5 5 5 5 5 3 5 5 5 5 3 5 3 5 5 5 5 5 5 5 5 3 5 5 5 5 5 5 5 5 5 5 5 5 5 5 5 5 5 5 5 5 5 3 5 5 3 5 5 5 5 5 5 5 5 5 5 5 5 5 5 5 5 5 5 5 5 3 5 5 5 5 3 3 5 5 5 5 5 5 5 5 3 5 5 3 5 3 5 5 5 3 3 5 5 3 3 5 5 5 5 3 5 3 5 5 5 5 5 5 5 5 5 5 5 5 5 5 5 5 5 3 5 5 5 3 5 5 5 5 5 3 5 5 5 5 5 5 5 5 3 5 5 5 3 5 5 5 5 5 3 5 3 3 3 5 5 5 5 3 5 5 5 3 5 5 5 5 3 3 5 5 3 5 3 5 3 5 5 5 5 5 5 5 5 5 5 5 3 5 5 3 5 3 3 5 3 3 5 5 3 5 5 5 3 5 3 5 5 5 3 5 5 3 5 3 5 5 5 5 5 5 5 5 5 5 5 5 5 5 5 5 5 5 5 5 5 5 5 5 5 5 5 5 5 3 5 5 5 5 5 3 3 3 5 5 5 5 3 5 5 5 5 5 5 5 5 5 5 5 5 5 5 5 5 5 5 5 5 5 5 5 5 5 5 5 5 5 5 5 5 5 5 5 5 5 5 5 5 3 5 5 5 5 3 5 5 5 5 5 5 5 5 5 5 5 3 3 5 5 5 5 5 5 3 5 3 5 5 5 5 5 5 5 5 5 5 5 5 5 5 5 5 5 5 5 5 3 5 5 5 5 3 3 5 3 5 5 5 5 5 5 5 5 5 5 5 5 5 5 5 5 5 5 5 5 5 5 5 5 3 5 5 5 5 5 5 5 5 5 5 5 5 5 5 5 5 5 5 5 5 5 5 5 5 5 5 5 5 3 5 5 5 5 5 5 5 5 5 5 5 5 3 5 5 5 5 5 5 3 5 5 5 5 3 3 3 5 5 5 5 5 5 5 5 5 5 3 5 5 5 5 5 5 5 5 5 5 5 5 5 5 5 3 5 5 5 5 3 5 5 5 3 5 5 5 5 5 5 5 3 5 5 5 3 5 5 5 5 5 3 3 5 5 5 3 3 5 5 5 5 3 5 3 5 3 5 3 5 5 3 3 5 3 5 5 3 5 5 3 5 5 3 5 3 5 3 5 5 3 5 5 3 5 3 3 5 3 5 5 5 3 5 5 5 5 5 5 5 5 5 5 5 3 5 5 5 5 5 5 5 5 5 5 5 5 5 5 5 5 5 5 3 5 5 5 3 5 5 3 5 3 5 5 5 3 5 3 5 3 5 5 3 5 5 5 5 5 3 5 3 5 5 5 5 5 5 5 5 5 5 3 5 3 5 5 5 5 3 5 5 3 5 3 3 5 5 5 5 5 5 3 5 5 3 5 5 5 5 3 5 5 5 3 3 5 5 5 3 5 3 5 5 5 5 5 5 5 5 5 3 5 5 3 5 5 5 5 5 5 5 5 5 5 5 5 5 5 5 5 5 5 5 5 5 5 5 5 5 5 5 5 5 5 5 5 5 5 5 5 5 5 5 5 5 5 5 5 5 5 5 5 5 5 5 5 5 5 5 5 5 5 5 5 5 5 5 5 5 5 5 5 5 5 5 5 5 5 5 5 5 5 5 5 5 5 5 5 5 5 5 3 5 5 5 5 5 5 5 5 5 3 5 3 5 5 5 5 5 5 5 5 5 5 5 5 5 5 5 5 5 5 5 5 5 5 5 5 5 5 5 5 5 5 5 5 5 5 5 5 5 5 5 5 5 5 5 5 5 5 5 5 3 5 5 5 3 5 3 5 3 5 5 5 5 5 5 5 5 5 5 5 5 5 5 3 3 3 5 5 3 5 5 5 5 5 5 5 5 3 5 3 5 3 5 5 5 3 5 5 5 5 3 5 5 5 5 5 5 5 5 5 5 5 5 5 5 5 5 5 5 5 5 3 5 5 3 5 5 5 5 5 5 5 5 5 5 3 3 5 5 5 5 5 5 5 5 5 5 5 5 5 5 3 5 5 5 5 3 5 5 5 5 5 5 5 5 5 5 5 3 5 5 5 5 5 5 5 5 5 5 5 5 5 5 5 5 5 5 5 5 3 5 5 5 5 5 3 3 5 5 5 5 5 5 5 5 5 5 5 5 5 5 5 5 5 3 3 5 3 5 5 5 5 5 5 5 5 5 3 5 3 5 3 5 5 3 3 3 5 5 3 5 5 3 5 3 5 5 5 5 5 5 3 5 5 5 5 3 5 5 5 5 5 5 5 5 5 5 5 5 5 5 5 5 5 5 5 5 5 5 5 5 5 5 5 5 5 5 5 5 5 5 5 5 5 5 5 5 5 5 5 5 3 5 5 5 3 5 5 5 5 5 5 5 5 5 5 5 5 5 5 5 5 5 5 5 3 5 5 5 5 3 5 5 5 5 5 5 5 5 5 5 3 5 5 5 5 3 3 3 5 5 3 5 5 3 5 5 5 5 5 5 5 5 5 3 5 5 5 5 5 3 5 5 5 5 5 3 5 5 5 5 5 5 3 3 5 5 3 5 5 3 5 5 5 3 5 5 5 5 5 5 3 5 3 3 5 5 5 5 5 5 5 3 3 5 5 5 5 5 5 3 5 5 3 5 5 5 5 5 5 5 5 5 5 3 5 3 5 5 5 5 3 5 5 5 5 5 5 5 5 5 5 5 5 3 5 5 5 5 5 3 5 5 5 5 3 5 5 5 3 5 3 5 5 3 5 3 5 5 5 3 3 3 5 3 5 3 3 5 3 5 3 5 3 5 3 5 5 5 3 5 5 3 3 5 5 5 3 3 3 3 5 5 5 3 5 3 3 5 3 5 5 5 3 5 5 5 5 3 5 5 5 3 3 5 5 5 5 5 5 3 5 5 5 5 5 5 5 5 5 5 5 5 5 5 5 5 5 5 5 5 5 5 5 5 3 3 5 5 5 5 5 5 5 3 3 5 3 5 5 5 3 5 5 5 5 5 5 5 5 5 3 3 5 5 3 5 5 5 3 5 5 5 5 3 5 5 5 5 5 3 3 5 5 3 5 5 3 5 5 3 5 5 5 5 5 5 3 5 3 5 5 3 5 3 5 3 5 5 5 3 5 3 5 3 5 5 3 5 5 3 5 3 3 5 5 3 3 5 3 5 5 5 5 5 5 3 3 5 5 5 5 5 3 5 5 5 5 3 5 5 3 5 5 5 5 5 3 5 5 5 5 5 5 5 5 5 5 5 5 5 5 5 3 5 5 5 5 5 5 5 5 3 5 3 5 5 5 5 5 3 5 3 5 5 3 5 5 3 5 5 3 5 5 5 5 5 5 5 5 3 5 5 5 5 5 5 5 5 5 5 5 5 5 5 5 3 5 5 5 5 5 5 5 3 5 5 3 5 5 5 5 3 5 5 5 5 5 5 5 5 5 5 5 5 5 3 5 5 5 5 3 5 5 5 5 5 5 3 3 5 5 5 5 5 3 5 3 5 5 5 5 5 5 3 5 5 3 5 5 5 5 5 5 5 5 5 3 5 5 5 5 3 5 5 5 5 5 5 5 5 3 5 3 5 5 3 5 5 3 5 5 5 5 5 5 5 5 5 5 3 5 5 5 5 5 5 5 5 5 5 5 5 5 5 5 5 5 5 5 5 5 5 5 5 5 5 5 5 5 5 5 5 5 5 5 5 5 5 5 5 5 5 5 5 5 5 5 5 5 5 3 5 5 3 3 5 3 5 5 5 3 5 5 5 5 5 5 5 5 5 5 5 5 3 5 3 5 5 5 5 5 5 5 5 5 5 5 5 5 5 5 5 5 5 5 5 5 5 5 5 5 5 5 5 5 5 3 5 5 5 5 5 5 3 5 5 3 5 5 5 3 5 5 3 5 5 5 3 3 3 5 5 3 5 3 3 5 5 3 5 5 3 5 5 3 5 3 5 3 3 5 5 3 3 3 5 5 5 5 5 5 5 5 5 3 5 5 5 5 5 5 5 5 5 5 5 5 3 3 3 5 3 5 3 3 5 5 5 3 3 3 5 5 5 5 3 3 3 5 5 5 5 5 5 5 3 5 3 5 5 3 5 3 5 5 5 5 5 5 5 5 5 3 5 5 5 5 5 5 5 5 5 5 5 5 5 5 5 5 5 5 5 5 5 5 5 5 5 5 3 5 5 5 5 5 5 5 5 5 5 5 5 5 5 5 5 5 5 5 5 5 3 5 5 5 5 5 5 3 5 5 3 5 5 3 5 5 5 5 5 5 3 5 5 5 5 5 5 5 5 3 5 5 5 5 3 5 5 5 5 5 5 5 5 5 5 5 5 5 5 5 5 5 5 5 5 5 5 5 5 5 5 5 5 5 5 5 5 5 5 5 5 5 5 5 5 5 5 5 5 5 5 5 5 5 5 5 5 5 5 3 5 5 5 3 5 5 5 5 5 5 5 5 5 5 5 3 5 5 5 3 5 5 5 5 5 5 5 5 5 5 5 3 5 5 5 5 5 3 3 5 5 5 5 5 3 5 5 5 5 5 5 5 5 5 5 5 5 5 5 5 5 5 5 5 3 5 5 5 5 3 3 5 5 5 5 5 5 3 5 5 5 5 5 5 5 3 5 5 5 5 5 5 3 3 5 5 5 3 5 3 5 5 5 5 5 5 5 5 5 3 5 5 5 5 5 5 5 5 5 5 3 5 5 5 5 5 5 5 5 5 5 5 5 5 5 5 3 3 5 5 5 5 3 5 5 3 5 5 5 5 5 5 5 5 5 5 5 5 5 5 3 5 5 5 5 5 5 3 5 5 5 5 5 5 5 5 5 5 5 5 5 5 5 5 5 3 5 5 5 5 5 5 5 5 3 5 5 5 5 5 5 5 5 5 5 5 3 5 5 5 5 3 5 5 5 5 5 5 5 5 3 5 5 5 5 3 5 3 3 5 3 5 5 3 5 5 5 5 5 5 5 5 5 5 5 5 5 5 5 5 3 3 5 5 5 5 5 5 5 3 5 5 3 3 5 5 5 5 3 3 5 5 3 5 5 3 5 5 5 5 5 5 3 3 5 5 5 5 5 5 3 5 5 3 5 5 5 5 5 5 3 5 5 5 3 3 3 3 3 5 5 5 3 5 5 5 5 3 5 5 5 5 5 5 5 5 5 5 5 5 5 5 5 5 5 5 5 5 5 5 3 5 5 5 5 5 5 5 5 5 3 5 5 5 3 5 5 3 5 5 5 5 5 5 5 5 5 5 5 5 5 5 5 3 5 3 5 5 5 5 5 3 5 5 5 5 3 5 3 5 5 5 5 5 5 5 5 5 5 5 5 5 3 5 5 5 5 5 5 5 5 5 5 5 5 5 5 5 5 5 5 5 5 5 5 5 5 3 5 3 5 3 5 5 5 5 5 5 5 5 5 5 3 5 3 5 5 5 5 3 5 5 5 5 3 5 5 5 5 5 3 5 5 3 5 5 5 5 5 5 5 5 5 5 3 5 3 5 5 5 5 5 5 5 5 5 5 5 5 5 5 5 5 5 5 5 5 5 5 5 5 5 5 5 5 5 5 5 5 5 5 3 5 3 5 5 3 5 5 5 5 3 5 5 5 5 5 5 5 5 5 5 5 5 5 5 5 5 5 5 5 5 3 5 5 5 5 5 5 5 5 5 5 5 5 5 5 5 5 5 5 3 3 5 3 5 5 5 5 5 5 5 5 5 5 5 5 5 5 5 5 5 5 5 5 5 5 5 5 5 5 5 5 3 5 5 5 5 5 5 3 5 5 3 5 3 5 5 3 5 5 5 5 5 5 5 5 3 5 5 5 5 3 5 5 5 5 3 5 3 5 5 5 5 5 3 5 5 5 5 5 5 3 3 5 5 5 5 5 3 5 3 5 5 5 5 5 5 5 5 5 5 5 5 5 5 5 5 5 5 5 5 3 5 5 5 5 5 5 3 5 5 5 3 3 5 5 5 5 5 5 5 5 5 5 5 5 5 5 5 5 5 5 5 5 5 5 5 5 5 5 3 5 5 5 5 3 5 5 3 5 5 5 5 5 5 5 5 5 5 5 3 5 5 5 5 5 5 5 5 5 5 5 5 5 5 5 5 5 5 5 3 5 3 5 5 5 3 5 5 5 3 5 5 5 3 3 5 5 5 3 5 5 5 3 5 5 3 5 3 5 5 5 3 5 3 5 5 3 3 3 3 5 5 5 3 3 3 3 5 5 5 5 5 3 5 5 3 5 5 5 5 3 5 5 3 5 5 3 5 5 5 5 5 3 5 5 5 5 3 5 5 5 5 5 5 5 5 5 5 5 5 5 3 5 5 5 5 5 5 3 5 3 5 3 5 5 5 5 5 5 5 5 5 5 5 5 5 3 5 5 5 5 5 5 5 5 5 5 5 5 5 5 5 5 5 5 5 5 5 5 5 3 5 5 5 5 5 5 5 5 5 5 5 3 5 5 5 5 5 5 5 5 3 5 5 5 5 5 5 5 5 5 5 5 5 5 5 5 3 5 5 5 5 5 3 5 3 5 5 5 3 3 5 3 5 5 3 5 5 5 5 5 5 3 5 5 5 3 5 5 5 5 5 5 5 3 3 5 5 3 5 3 5 5 5 3 5 5 3 5 5 3 3 3 5 5 3 5 5 5 5 5 5 5 3 5 5 5 5 3 5 5 5 5 5 5 5 3 5 5 5 5 5 3 5 5 5 3 5 5 5 5 3 3 3 5 5 3 3 5 3 5 5 5 5 3 5 5 5 5 5 5 3 3 5 5 5 5 5 5 3 5 5 5 5 5 5 3 5 3 5 5 5 3 5 5 5 3 5 5 5 5 3 5 3 5 5 5 5 3 5 5 3 5 5 3 5 5 5 5 3 5 5 5 5 5 5 5 5 3 5 5 5 5 5 5 5 5 5 5 5 5 5 5 5 5 5 5 5 5 3 5 5 5 5 5 5 5 3 5 3 5 5 5 5 5 5 5 5 5 3 5 3 5 3 5 5 5 3 5 5 5 5 5 5 5 5 3 5 5 5 5 5 5 3 5 5 5 5 3 5 5 5 5 5 5 5 5 5 5 3 3 5 5 5 5 5 5 5 5 5 5 5 5 5 5 5 5 5 5 5 5 5 5 5 5 5 5 5 3 5 5 5 5 5 5 5 5 5 5 5 3 5 5 5 5 5 3 3 5 5 5 5 5 5 5 5 5 5 5 5 5 3 5 5 5 5 5 5 5 5 5 3 5 5 3 5 3 5 5 5 5 5 5 3 5 3 5 3 5 5 3 5 5 5 5 3 5 5 5 5 5 5 5 5 5 5 5 5 3 5 5 5 3 5 5 5 5 5 5 5 5 5 3 5 5 5 5 3 5 5 5 5 5 5 3 5 5 5 5 5 5 5 5 5 5 5 5 5 5 5 5 5 5 5 5 5 5 3 5 5 5 5 5 3 5 5 3 5 5 5 5 5 3 3 5 5 5 5 5 5 5 3 5 5 5 5 3 5 5 5 5 5 5 5 3 5 5 5 3 5 3 5 5 3 5 5 3 3 5 3 5 5 5 3 5 3 5 3 5 5 5 5 5 5 3 3 5 5 5 5 5 5 5 5 5 5 3 3 5 5 5 5 5 5 5 5 3 3 5 5 3 5 3 5 5 5 5 5 5 5 3 5 3 5 5 5 5 5 5 3 5 5 5 3 5 5 5 5 5 3 5 5 5 5 5 5 5 5 5 5 3 3 5 5 3 5 5 5 3 5 5 3 5 5 5 5 5 5 5 5 3 5 5 5 5 5 5 5 5 5 5 5 5 5 5 5 5 5 5 5 5 3 5 3 3 5 5 5 3 5 3 5 5 5 5 5 5 5 3 5 5 5 5 3 5 5 5 5 5 3 5 5 5 5 3 5 3 5 5 5 5 3 5 5 5 5 3 5 5 5 5 5 5 5 5 5 5 3 5 5 5 5 5 5 5 5 5 5 5 5 5 5 5 5 5 5 5 5 5 5 5 5 5 5 5 5 5 5 5 5 5 3 5 5 3 5 5 5 3 3 3 5 3 3 3 5 5 5 3 3 5 5 5 5 5 5 3 5 5 3 5 3 5 5 5 5 5 3 5 5 5 5 5 5 5 5 5 5 5 5 5 5 5 5 5 5 5 5 5 5 3 5 5 3 5 5 3 5 5 5 5 3 5 3 5 5 3 5 5 5 5 5 3 5 5 5 5 5 5 5 3 5 5 5 5 5 3 5 5 3 5 3 5 5 5 5 5 5 5 5 5 3 3 3 5 5 3 5 5 5 5 5 5 5 5 5 5 3 5 5 5 5 5 5 5 5 5 3 5 5 5 5 5 3 5 3 5 5 5 5 5 5 3 3 5 5 5 5 5 5 3 5 5 5 5 5 5 5 5 3 5 5 3 3 5 5 5 5 5 5 5 5 5 5 5 3 5 5 5 5 5 5 5 5 5 5 5 5 5 5 5 5 5 5 3 5 5 5 5 5 5 5 5 5 3 5 5 5 3 3 5 5 3 5 5 5 5 5 5 5 5 5 5 5 5 5 5 5 5 5 5 5 3 5 5 5 3 5 5 5 5 5 5 3 5 5 5 5 3 5 5 5 5 3 5 5 5 5 5 5 5 5 5 5 5 5 5 3 5 5 5 5 5 5 5 3 3 5 5 5 3 3 5 5 3 3 3 5 5 5 3 5 5 5 5 5 5 3 5 5 3 5 5 3 5 5 3 5 3 3 5 5 5 5 5 3 5 3 5 5 3 5 5 5 3 5 5 5 5 5 5 5 5 5 5 5 5 3 5 3 5 5 5 5 3 3 5 3 5 5 5 3 5 5 5 3 5 5 5 3 5 3 5 5 3 3 5 5 3 5 5 5 5 3 5 5 5 5 5 3 5 3 3 5 5 5 5 5 3 5 5 3 3 3 5 3 5 3 5 5 5 3 5 5 5 5 3 5 5 5 3 5 5 5 5 5 5 5 3 5 5 3 5 5 5 3 5 5 5 3 5 3 5 5 5 5 3 5 5 5 5 5 5 5 5 5 5 5 5 5 5 5 5 3 5 5 5 5 5 3 5 5 3 5 5 5 3 3 3 5 5 5 5 3 5 5 5 5 3 5 5 5 3 5 5 5 3 5 5 5 5 3 5 5 5 5 5 5 3 5 5 5 5 5 3 5 5 5 5 5 5 5 5 3 5 5 3 5 5 5 5 5 3 5 5 5 5 5 5 5 5 5 3 5 5 5 3 5 5 5 5 5 5 5 3 3 5 5 5 5 5 3 5 5 5 5 5 5 3 5 5 5 3 5 5 5 5 3 5 5 5 5 5 5 5 5 5 5 5 5 5 5 5 5 5 5 5 5 5 5 5 5 5 5 3 3 5 5 3 5 5 3 5 5 5 5 5 5 5 5 5 5 5 3 5 5 5 3 5 5 5 5 3 3 5 5 3 5 5 5 5 5 5 5 5 3 5 5 5 5 5 3 3 5 5 5 5 5 5 5 3 5 5 5 5 5 5 5 5 5 5 5 5 5 3 5 5 5 5 3 5 3 5 5 5 5 5 5 5 5 5 5 5 3 5 5 5 5 5 5 5 5 5 5 3 5 5 5 5 3 5 5 5 5 5 5 5 5 5 5 5 5 5 5 5 5 5 5 5 5 5 3 5 5 5 5 5 3 5 5 3 5 5 5 5 5 5 5 5 5 5 5 5 5 5 5 3 5 5 5 5 5 5 5 3 5 5 5 5 5 5 5 5 5 3 5 5 5 5 5 5 5 5 5 3 5 5 5 5 5 5 3 5 5 5 5 3 5 5 5 5 5 5 5 5 5 5 5 5 5 5 5 3 5 5 3 5 3 5 5 5 5 5 5 5 5 5 5 5 5 5 5 5 3 5 5 5 5 5 5 3 5 5 5 5 5 5 5 5 5 5 5 5 5 5 5 5 5 5 5 3 5 5 3 5 5 5 5 5 5 3 5 3 5 5 3 5 5 5 5 5 3 5 5 5 5 5 3 5 5 5 5 5 5 3 5 5 5 5 5 5 3 5 5 3 5 5 5 5 3 5 5 5 5 5 3 5 5 5 5 5 5 5 3 5 5 5 5 5 5 5 3 5 5 5 5 5 5 3 5 5 5 5 5 5 5 5 5 5 5 3 5 5 5 5 3 3 5 5 3 5 5 5 5 5 5 3 5 5 5 5 5 5 5 5 5 5 5 5 5 5 5 5 5 5 3 5 5 5 5 3 5 5 3 5 5 5 5 5 5 5 5 5 5 5 5 5 5 5 5 5 5 5 3 3 5 5 5 5 5 5 3 5 3 5 5 5 5 5 5 5 5 5 5 5 5 5 5 5 5 5 5 5 5 5 5 5 5 5 5 5 5 5 5 5 3 5 5 5 3 5 5 5 5 3 5 5 5 5 5 3 5 5 5 5 5 5 5 5 5 5 5 5 5 5 5 5 5 5 5 5 5 5 5 5 5 5 5 5 3 5 3 5 5 5 5 5 5 5 5 3 5 5 5 5 3 5 5 5 5 5 5 5 5 5 5 5 3 5 5 5 5 5 5 5 5 5 5 5 5 5 5 5 5 5 5 3 5 5 5 5 5 5 5 5 5 5 5 5 5 5 5 5 5 5 5 5 5 5 5 5 3 5 5 5 5 5 5 5 5 5 5 5 5 5 5 5 5 5 5 5 5 5 5 5 5 5 5 5 5 5 3 5 5 5 5 5 5 3 5 3 5 3 5 5 3 5 5 3 3 5 5 3 5 3 5 5 3 5 5 3 5 5 5 5 5 5 5 5 5 5 5 5 5 3 3 3 5 5 5 3 5 5 5 5 5 5 5 5 5 5 5 5 5 5 3 5 5 5 5 5 5 5 5 5 5 5 5 5 3 3 5 5 5 5 5 5 5 5 5 5 5 5 5 5 3 5 5 3 5 5 3 3 5 3 5 5 5 3 5 5 5 5 5 5 5 3 5 5 5 5 5 3 3 5 5 3 5 5 5 5 5 5 5 5 5 5 5 5 5 5 5 5 5 5 3 3 5 3 5 5 3 5 5 5 5 5 5 5 3 5 5 5 5 5 5 5 5 5 5 3 5 5 3 5 3 5 5 5 5 5 5 5 5 5 5 5 5 5 5 5 5 5 5 5 5 5 3 5 5 5 5 5 5 5 5 5 5 5 5 5 5 5 5 5 5 5 5 5 5 5 5 5 5 5 5 5 5 5 5 5 5 5 5 5 5 5 5 5 5 5 5 5 5 5 5 5 5 5 5 5 5 5 5 5 5 5 5 5 3 5 5 3 5 5 5 3 5 5 5 5 5 5 5 3 5 5 5 5 5 5 5 5 5 5 3 5 5 5 5 5 3 3 5 3 5 5 3 5 3 5 5 5 5 5 5 3 5 5 5 5 5 3 3 5 5 5 5 5 3 3 5 5 5 5 5 5 5 5 5 5 5 5 5 5 5 5 5 5 5 5 5 5 5 5 5 5 5 5 5 5 5 5 5 5 5 5 5 5 5 5 5 5 5 5 3 5 5 5 5 5 5 5 5 5 5 5 5 5 5 5 5 3 5 5 3 5 5 5 5 3 5 3 5 3 5 5 3 5 5 5 5 5 3 5 5 5 5 5 3 5 5 5 5 5 3 3 5 3 5 5 3 5 5 5 5 3 3 5 5 5 5 5 5 5 5 3 5 5 5 3 5 5 5 5 5 5 5 5 3 5 5 5 5 5 3 5 5 3 5 5 5 5 5 5 5 5 5 5 5 5 5 5 3 5 5 3 5 5 3 5 5 5 5 3 5 5 5 5 3 5 5 5 5 5 5 5 5 5 5 5 3 5 3 5 5 3 5 5 5 5 3 5 5 5 5 5 5 5 5 3 3 5 5 3 3 5 5 5 5 5 5 3 5 5 5 5 5 5 5 5 5 5 5 5 5 5 5 5 5 5 5 3 5 5 5 5 5 5 5 5 3 5 5 5 5 3 5 5 5 5 5 5 5 5 3 5 5 5 3 5 3 3 5 5 5 3 3 5 3 5 5 5 5 5 5 5 5 5 5 5 3 5 5 5 5 5 5 5 3 5 5 5 5 5 5 3 5 5 3 5 3 5 5 5 5 5 5 5 5 5 5 5 5 5 5 5 5 5 3 5 5 5 5 5 5 5 5 5 5 5 5 5 5 5 5 5 5 5 5 5 5 5 5 5 5 5 5 5 5 5 3 5 5 5 5 5 5 5 5 5 5 5 5 5 5 3 3 5 3 5 5 5 3 3 5 5 5 5 3 5 5 5 5 5 5 5 5 5 5 5 5 5 3 5 5 5 5 3 5 3 5 5 5 5 5 5 3 5 5 5 5 5 5 3 5 5 3 3 5 5 5 5 5 5 5 5 5 5 5 5 5 5 5 5 5 5 3 3 5 5 5 5 5 5 3 5 5 5 3 5 5 5 5 5 5 3 5 5 5 5 5 5 5 5 5 5 5 3 5 5 5 5 5 5 3 5 5 5 5 5 5 5 5 5 5 3 5 5 5 5 5 5 5 5 5 5 5 5 5 5 5 5 5 5 3 3 5 5 3 5 5 5 5 5 5 5 5 5 5 5 5 5 3 5 3 5 5 5 5 5 5 5 5 5 5 5 5 5 3 5 5 5 5 5 5 5 5 5 5 5 5 5 3 5 5 5 5 3 5 5 5 5 5 5 3 5 5 5 5 5 5 5 5 5 5 5 5 5 5 5 5 5 5 5 5 5 5 5 5 5 5 5 5 5 5 5 5 5 5 5 5 3 5 5 5 5 3 5 5 5 5 5 5 5 5 5 5 5 3 5 5 5 3 5 5 5 5 5 5 5 5 5 5 5 5 5 3 5 5 3 5 5 5 5 5 5 5 5 5 5 3 5 5 3 5 5 5 3 5 
</DataArray>
</Cells>
<PointData Scalars="" Vectors="displacement," Tensors="">
<DataArray type="Float64" Name="displacement" NumberOfComponents="3" format="ascii">
-0.034995108756843148 -0.034999840127537755 0 -0.035269687420556202 -0.031578654122517168 0 -0.034998349075199421 -0.028792031133231113 0 -0.034995108756843148 -0.034999840127537755 0 -0.035112199616425574 -0.033504305646908671 0 -0.035269687420556202 -0.031578654122517168 0 -0.034995108756843148 -0.034999840127537755 0 -0.033663830179830413 -0.034997311633030576 0 -0.035112199616425574 -0.033504305646908671 0 -0.03365555153416902 -0.034999571128438205 0 -0.033728585443833413 -0.034367006784030596 0 -0.035112199616425574 -0.033504305646908671 0 -0.035269687420556202 -0.031578654122517168 0 -0.035236273409727403 -0.031844572188156492 0 -0.033012106285082762 -0.033968649896275988 0 -0.032134147358095798 -0.034768933886732863 0 -0.032774580885849537 -0.034496366578139398 0 -0.033012106285082762 -0.033968649896275988 0 -0.031913504889264178 -0.034836712382877326 0 -0.032134147358095798 -0.034768933886732863 0 -0.033012106285082762 -0.033968649896275988 0 -0.031913504889264178 -0.034836712382877326 0 -0.033946769718191362 -0.032168485335997823 0 -0.033611418523030769 -0.033396224910919169 0 -0.033876441485690988 -0.032359623604059209 0 -0.035269687420556202 -0.031578654122517168 0 -0.035236273409727403 -0.031844572188156492 0 -0.033946769718191362 -0.032168485335997823 0 -0.032369980655869081 -0.03544541807243913 0 -0.031913504889264178 -0.034836712382877326 0 -0.031806343940776506 -0.035248411820749691 0 -0.033728585443833413 -0.034367006784030596 0 -0.033611418523030769 -0.033396224910919169 0 -0.031913504889264178 -0.034836712382877326 0 -0.032134147358095798 -0.034768933886732863 0 -0.031806343940776506 -0.035248411820749691 0 -0.032134147358095798 -0.034768933886732863 0 -0.031066325481060426 -0.035127144764809701 0 -0.031806343940776506 -0.035248411820749691 0 -0.032369980655869081 -0.03544541807243913 0 -0.031806343940776506 -0.035248411820749691 0 -0.031577607964634845 -0.034999491680357687 0 -0.033653373204855723 -0.034999443439275364 0 -0.032369980655869081 -0.03544541807243913 0 -0.031577607964634845 -0.034999491680357687 0 -0.031066325481060426 -0.035127144764809701 0 -0.031806343940776506 -0.035248411820749691 0 -0.031577607964634845 -0.034999491680357687 0 -0.031066325481060426 -0.035127144764809701 0 -0.029499631827803498 -0.034998899453766191 0 -0.030117880280602815 -0.035045735336632182 0 -0.029499631827803498 -0.034998899453766191 0 -0.028080853986614758 -0.03512411651374879 0 -0.030117880280602815 -0.035045735336632182 0 -0.031066325481060426 -0.035127144764809701 0 -0.031577607964634845 -0.034999491680357687 0 -0.029499631827803498 -0.034998899453766191 0 -0.026634108474987338 -0.035139288140900747 0 -0.027421027933174552 -0.034999061178455991 0 -0.028080853986614758 -0.03512411651374879 0 -0.026634108474987338 -0.035139288140900747 0 -0.027421027933174552 -0.034999061178455991 0 -0.025342653183709266 -0.034999196957080515 0 -0.029499631827803498 -0.034998899453766191 0 -0.027421027933174552 -0.034999061178455991 0 -0.028080853986614758 -0.03512411651374879 0 -0.026634108474987338 -0.035139288140900747 0 -0.028080853986614758 -0.03512411651374879 0 -0.025782294210307956 -0.035526632897661711 0 -0.027385841128569663 -0.035578980498917785 0 -0.025782294210307956 -0.035526632897661711 0 -0.026266481066370344 -0.03618424335175064 0 -0.028080853986614758 -0.03512411651374879 0 -0.027385841128569663 -0.035578980498917785 0 -0.025782294210307956 -0.035526632897661711 0 -0.028080853986614758 -0.03512411651374879 0 -0.027385841128569663 -0.035578980498917785 0 -0.028880340167193836 -0.035279053242541374 0 -0.028080853986614758 -0.03512411651374879 0 -0.028880340167193836 -0.035279053242541374 0 -0.030117880280602815 -0.035045735336632182 0 -0.028880340167193836 -0.035279053242541374 0 -0.030345334500682299 -0.035145328555295938 0 -0.028022049963415927 -0.036073332438690688 0 -0.027385841128569663 -0.035578980498917785 0 -0.028880340167193836 -0.035279053242541374 0 -0.028022049963415927 -0.036073332438690688 0 -0.027385841128569663 -0.035578980498917785 0 -0.028022049963415927 -0.036073332438690688 0 -0.026266481066370344 -0.03618424335175064 0 -0.032134147358095798 -0.034768933886732863 0 -0.030117880280602815 -0.035045735336632182 0 -0.030345334500682299 -0.035145328555295938 0 -0.032134147358095798 -0.034768933886732863 0 -0.031066325481060426 -0.035127144764809701 0 -0.030117880280602815 -0.035045735336632182 0 -0.028880340167193836 -0.035279053242541374 0 -0.030117880280602815 -0.035045735336632182 0 -0.030345334500682299 -0.035145328555295938 0 -0.032134147358095798 -0.034768933886732863 0 -0.030345334500682299 -0.035145328555295938 0 -0.032774580885849537 -0.034496366578139398 0 -0.033044183513035348 -0.034165512642040541 0 -0.033769777292802207 -0.034589278399443042 0 -0.030345334500682299 -0.035145328555295938 0 -0.032774580885849537 -0.034496366578139398 0 -0.030801638022107627 -0.035619288355158762 0 -0.032774580885849537 -0.034496366578139398 0 -0.031047106057547409 -0.037022899407587941 0 -0.033389447615509604 -0.037015790103400878 0 -0.032774580885849537 -0.034496366578139398 0 -0.030801638022107627 -0.035619288355158762 0 -0.031047106057547409 -0.037022899407587941 0 -0.030345334500682299 -0.035145328555295938 0 -0.030801638022107627 -0.035619288355158762 0 -0.029342533499751591 -0.036411189826258239 0 -0.030345334500682299 -0.035145328555295938 0 -0.029342533499751591 -0.036411189826258239 0 -0.028022049963415927 -0.036073332438690688 0 -0.030801638022107627 -0.035619288355158762 0 -0.029342533499751591 -0.036411189826258239 0 -0.031047106057547409 -0.037022899407587941 0 -0.029331562359273318 -0.037652983114549662 0 -0.031047106057547409 -0.037022899407587941 0 -0.030711627772903389 -0.038987399078649398 0 -0.029331562359273318 -0.037652983114549662 0 -0.027947214945624306 -0.038525747124825135 0 -0.030711627772903389 -0.038987399078649398 0 -0.029342533499751591 -0.036411189826258239 0 -0.029331562359273318 -0.037652983114549662 0 -0.031047106057547409 -0.037022899407587941 0 -0.032270753839203643 -0.038048284045312027 0 -0.031047106057547409 -0.037022899407587941 0 -0.033389447615509604 -0.037015790103400878 0 -0.032270753839203643 -0.038048284045312027 0 -0.031047106057547409 -0.037022899407587941 0 -0.030711627772903389 -0.038987399078649398 0 -0.026977609088540484 -0.036757215331556271 0 -0.028022049963415927 -0.036073332438690688 0 -0.026266481066370344 -0.03618424335175064 0 -0.026977609088540484 -0.036757215331556271 0 -0.026266481066370344 -0.03618424335175064 0 -0.025962605766603909 -0.036968084008655498 0 -0.029342533499751591 -0.036411189826258239 0 -0.028022049963415927 -0.036073332438690688 0 -0.028010413141691112 -0.037058661117075509 0 -0.026977609088540484 -0.036757215331556271 0 -0.028022049963415927 -0.036073332438690688 0 -0.028010413141691112 -0.037058661117075509 0 -0.028010413141691112 -0.037058661117075509 0 -0.026832934105972425 -0.037370502639500994 0 -0.027947214945624306 -0.038525747124825135 0 -0.029331562359273318 -0.037652983114549662 0 -0.028010413141691112 -0.037058661117075509 0 -0.027947214945624306 -0.038525747124825135 0 -0.029342533499751591 -0.036411189826258239 0 -0.029331562359273318 -0.037652983114549662 0 -0.028010413141691112 -0.037058661117075509 0 -0.026832934105972425 -0.037370502639500994 0 -0.027947214945624306 -0.038525747124825135 0 -0.025830994140138022 -0.037423067968805679 0 -0.026977609088540484 -0.036757215331556271 0 -0.028010413141691112 -0.037058661117075509 0 -0.026832934105972425 -0.037370502639500994 0 -0.026832934105972425 -0.037370502639500994 0 -0.025962605766603909 -0.036968084008655498 0 -0.025830994140138022 -0.037423067968805679 0 -0.026977609088540484 -0.036757215331556271 0 -0.026832934105972425 -0.037370502639500994 0 -0.025962605766603909 -0.036968084008655498 0 -0.027399211883284327 -0.037674875680533564 0 -0.025983551897642274 -0.037497285283604589 0 -0.026156496422472423 -0.037344582055665876 0 -0.026613517373848792 -0.036943094409769589 0 -0.025830994140138022 -0.037423067968805679 0 -0.026156496422472423 -0.037344582055665876 0 -0.025918740632463962 -0.037527308919931807 0 -0.025854621298283861 -0.037397928298455466 0 -0.026156496422472423 -0.037344582055665876 0 -0.025830994140138022 -0.037423067968805679 0 -0.025854621298283861 -0.037397928298455466 0 -0.026613517373848792 -0.036943094409769589 0 -0.026828637483050814 -0.037781405339428011 0 -0.028173334720504605 -0.036763391612418435 0 -0.026156496422472423 -0.037344582055665876 0 -0.026613517373848792 -0.036943094409769589 0 -0.026828637483050814 -0.037781405339428011 0 -0.027292116645181306 -0.036985465620095546 0 -0.028001470489083274 -0.037528326822268011 0 -0.027213093743635546 -0.037748907702904726 0 -0.027292116645181306 -0.036985465620095546 0 -0.026654181707883341 -0.037608112010205232 0 -0.027213093743635546 -0.037748907702904726 0 -0.026156496422472423 -0.037344582055665876 0 -0.026828637483050814 -0.037781405339428011 0 -0.025918740632463962 -0.037527308919931807 0 -0.027292116645181306 -0.036985465620095546 0 -0.026654181707883341 -0.037608112010205232 0 -0.025918740632463962 -0.037527308919931807 0 -0.027238155196952017 -0.037338154697822791 0 -0.025968028215716945 -0.037514731833251797 0 -0.026654181707883341 -0.037608112010205232 0 -0.025918740632463962 -0.037527308919931807 0 -0.02617888259244041 -0.03812937811573635 0 -0.032270753839203643 -0.038048284045312027 0 -0.030711627772903389 -0.038987399078649398 0 -0.033990543172149182 -0.039127182810086279 0 -0.028173334720504605 -0.036763391612418435 0 -0.028491111258718935 -0.037765734991660527 0 -0.030006636925505595 -0.036674484745849154 0 -0.029205210834678547 -0.038236765433328317 0 -0.033258729291609113 -0.034122613244645113 0 -0.027399211883284327 -0.037674875680533564 0 -0.029205210834678547 -0.038236765433328317 0 -0.026828637483050814 -0.037781405339428011 0 -0.028173334720504605 -0.036763391612418435 0 -0.028491111258718935 -0.037765734991660527 0 -0.028001470489083274 -0.037528326822268011 0 -0.028825105925584189 -0.036748446523604074 0 -0.028769692299324714 -0.037732446541647709 0 -0.027238155196952017 -0.037338154697822791 0 -0.02799660520108847 -0.037708117156489342 0 -0.027292116645181306 -0.036985465620095546 0 -0.028001470489083274 -0.037528326822268011 0 -0.028825105925584189 -0.036748446523604074 0 -0.028825105925584189 -0.036748446523604074 0 -0.0302675478287356 -0.036620689265304478 0 -0.029597414658952284 -0.037514422514122514 0 -0.02799660520108847 -0.037708117156489342 0 -0.033291560052036089 -0.032806108905018373 0 -0.028825105925584189 -0.036748446523604074 0 -0.029597414658952284 -0.037514422514122514 0 -0.028769692299324714 -0.037732446541647709 0 -0.0302675478287356 -0.036620689265304478 0 -0.030627372067146882 -0.03773637172709509 0 -0.029597414658952284 -0.037514422514122514 0 -0.034998349075199421 -0.028792031133231113 0 -0.034998892713509172 -0.024294251359344751 0 -0.035678307865671853 -0.02634277084312061 0 -0.033291560052036089 -0.032806108905018373 0 -0.03423891058972918 -0.032658495372032165 0 -0.028491111258718935 -0.037765734991660527 0 -0.030351358626083513 -0.03764405101847447 0 -0.030006636925505595 -0.036674484745849154 0 -0.033291560052036089 -0.032806108905018373 0 -0.033258729291609113 -0.034122613244645113 0 -0.033258729291609113 -0.034122613244645113 0 -0.035804430319254378 -0.030859241980794403 0 -0.035795205884047596 -0.029397967587772546 0 -0.036007485774537495 -0.030087798738737265 0 -0.035314751666401849 -0.030057568204533317 0 -0.035795205884047596 -0.029397967587772546 0 -0.035314751666401849 -0.030057568204533317 0 -0.035683835953474775 -0.028575097352190024 0 -0.035314751666401849 -0.030057568204533317 0 -0.035683835953474775 -0.028575097352190024 0 -0.035061911925676058 -0.030401036590427123 0 -0.038175002751711984 -0.028476323932501824 0 -0.036967119447227713 -0.027656704143416509 0 -0.035683835953474775 -0.028575097352190024 0 -0.033291560052036089 -0.032806108905018373 0 -0.037203973033580015 -0.028098153959092643 0 -0.038175002751711984 -0.028476323932501824 0 -0.036967119447227713 -0.027656704143416509 0 -0.037482722395029783 -0.026422845840878971 0 -0.036967119447227713 -0.027656704143416509 0 -0.035683835953474775 -0.028575097352190024 0 -0.035678307865671853 -0.02634277084312061 0 -0.035683835953474775 -0.028575097352190024 0 -0.034998349075199421 -0.028792031133231113 0 -0.035678307865671853 -0.02634277084312061 0 -0.035683835953474775 -0.028575097352190024 0 -0.035061911925676058 -0.030401036590427123 0 -0.034998349075199421 -0.028792031133231113 0 -0.035269687420556202 -0.031578654122517168 0 -0.035061911925676058 -0.030401036590427123 0 -0.034998349075199421 -0.028792031133231113 0 -0.035269687420556202 -0.031578654122517168 0 -0.035061911925676058 -0.030401036590427123 0 -0.033946769718191362 -0.032168485335997823 0 -0.032774580885849537 -0.034496366578139398 0 -0.033946769718191362 -0.032168485335997823 0 -0.034325892197404825 -0.031974453973283454 0 -0.033012106285082762 -0.033968649896275988 0 -0.032774580885849537 -0.034496366578139398 0 -0.033946769718191362 -0.032168485335997823 0 -0.033258729291609113 -0.034122613244645113 0 -0.033769777292802207 -0.034589278399443042 0 -0.032270753839203643 -0.038048284045312027 0 -0.033990543172149182 -0.039127182810086279 0 -0.033389447615509604 -0.037015790103400878 0 -0.033946769718191362 -0.032168485335997823 0 -0.034644782664760447 -0.031168199862237827 0 -0.034325892197404825 -0.031974453973283454 0 -0.034957377018620436 -0.030776590653814228 0 -0.034644782664760447 -0.031168199862237827 0 -0.034325892197404825 -0.031974453973283454 0 -0.034957377018620436 -0.030776590653814228 0 -0.035314751666401849 -0.030057568204533317 0 -0.034644782664760447 -0.031168199862237827 0 -0.035061911925676058 -0.030401036590427123 0 -0.033946769718191362 -0.032168485335997823 0 -0.034644782664760447 -0.031168199862237827 0 -0.035314751666401849 -0.030057568204533317 0 -0.035061911925676058 -0.030401036590427123 0 -0.034644782664760447 -0.031168199862237827 0 -0.020353849730756813 -0.035939821816286334 0 -0.019982221278576004 -0.035604045977709213 0 -0.019977795120583956 -0.03604566023765015 0 -0.018599365632807979 -0.036694093582421664 0 -0.019099423947914328 -0.035474246595395942 0 -0.017373788669137108 -0.037133514212177705 0 -0.017101176463434609 -0.038173391952775935 0 -0.016747238753501436 -0.037825130337115202 0 -0.020353849730756813 -0.035939821816286334 0 -0.020424677224144854 -0.035520857803975722 0 -0.021005252283056525 -0.035680278283543143 0 -0.020353849730756813 -0.035939821816286334 0 -0.020424677224144854 -0.035520857803975722 0 -0.019982221278576004 -0.035604045977709213 0 -0.020636768580943824 -0.035565816441875078 0 -0.02082960377499855 -0.035644128835084325 0 -0.020424677224144854 -0.035520857803975722 0 -0.019982221278576004 -0.035604045977709213 0 -0.019626573554385695 -0.035347073072835092 0 -0.017373788669137108 -0.037133514212177705 0 -0.017838072510313847 -0.036123010284604302 0 -0.016964408025052568 -0.036676576586763751 0 -0.018599365632807979 -0.036694093582421664 0 -0.018721891695486301 -0.035571391360769138 0 -0.017838072510313847 -0.036123010284604302 0 -0.016722476266356583 -0.03612173132790495 0 -0.016964408025052568 -0.036676576586763751 0 -0.017838072510313847 -0.036123010284604302 0 -0.018479086655185935 -0.03499975181577606 0 -0.016881335952334389 -0.034999975295069222 0 -0.018721891695486301 -0.035571391360769138 0 -0.018479992245010787 -0.034999969832567042 0 -0.019626573554385695 -0.035347073072835092 0 -0.018482197518592449 -0.034999736176078537 0 -0.020050649663885946 -0.035317015564230336 0 -0.018482197518592449 -0.034999736176078537 0 -0.020050649663885946 -0.035317015564230336 0 -0.019833218156173543 -0.034999645308604194 0 -0.020424677224144854 -0.035520857803975722 0 -0.019626573554385695 -0.035347073072835092 0 -0.020050649663885946 -0.035317015564230336 0 -0.020424677224144854 -0.035520857803975722 0 -0.020050649663885946 -0.035317015564230336 0 -0.02084197005706058 -0.03539949918473187 0 -0.020050649663885946 -0.035317015564230336 0 -0.02084197005706058 -0.03539949918473187 0 -0.020999551371055584 -0.035216427261059002 0 -0.02084197005706058 -0.03539949918473187 0 -0.020999551371055584 -0.035216427261059002 0 -0.021378083347106145 -0.035345418341993513 0 -0.020050649663885946 -0.035317015564230336 0 -0.020999551371055584 -0.035216427261059002 0 -0.019833218156173543 -0.034999645308604194 0 -0.020999551371055584 -0.035216427261059002 0 -0.019833218156173543 -0.034999645308604194 0 -0.021185412792544291 -0.034998987774939941 0 -0.020999551371055584 -0.035216427261059002 0 -0.021185412792544291 -0.034998987774939941 0 -0.022256878538617068 -0.034966519298869715 0 -0.021186275588196645 -0.034999947260190331 0 -0.022651323446894897 -0.035391227770794231 0 -0.020999551371055584 -0.035216427261059002 0 -0.021378083347106145 -0.035345418341993513 0 -0.022256878538617068 -0.034966519298869715 0 -0.021816481592589577 -0.035586219732561493 0 -0.021378083347106145 -0.035345418341993513 0 -0.022256878538617068 -0.034966519298869715 0 -0.021816481592589577 -0.035586219732561493 0 -0.021378083347106145 -0.035345418341993513 0 -0.021068888785428466 -0.035548127659863253 0 -0.020424677224144854 -0.035520857803975722 0 -0.021068888785428466 -0.035548127659863253 0 -0.021005252283056525 -0.035680278283543143 0 -0.02084197005706058 -0.03539949918473187 0 -0.021378083347106145 -0.035345418341993513 0 -0.021068888785428466 -0.035548127659863253 0 -0.020424677224144854 -0.035520857803975722 0 -0.02084197005706058 -0.03539949918473187 0 -0.021068888785428466 -0.035548127659863253 0 -0.021068888785428466 -0.035548127659863253 0 -0.021005252283056525 -0.035680278283543143 0 -0.02168085252228364 -0.035774571655042331 0 -0.021816481592589577 -0.035586219732561493 0 -0.02168085252228364 -0.035774571655042331 0 -0.022685165824871473 -0.035891857141059184 0 -0.02168085252228364 -0.035774571655042331 0 -0.022685165824871473 -0.035891857141059184 0 -0.022465690327227856 -0.036041961114612033 0 -0.021816481592589577 -0.035586219732561493 0 -0.021068888785428466 -0.035548127659863253 0 -0.02168085252228364 -0.035774571655042331 0 -0.022685165824871473 -0.035891857141059184 0 -0.02403976417399243 -0.035803032222306588 0 -0.022256878538617068 -0.034966519298869715 0 -0.021816481592589577 -0.035586219732561493 0 -0.022685165824871473 -0.035891857141059184 0 -0.022256878538617068 -0.034966519298869715 0 -0.02403976417399243 -0.035803032222306588 0 -0.025007342527291608 -0.036093972301096303 0 -0.023861940343058018 -0.036345284200281852 0 -0.022685165824871473 -0.035891857141059184 0 -0.02403976417399243 -0.035803032222306588 0 -0.023861940343058018 -0.036345284200281852 0 -0.02390831695871392 -0.03584400878063447 0 -0.022651323446894897 -0.035391227770794231 0 -0.021186694944620568 -0.034999993796040865 0 -0.023009206680884721 -0.035818465498910886 0 -0.023264749350887959 -0.034999391424978835 0 -0.023009206680884721 -0.035818465498910886 0 -0.023264749350887959 -0.034999391424978835 0 -0.024259585596045224 -0.035490573515896906 0 -0.02403976417399243 -0.035803032222306588 0 -0.023009206680884721 -0.035818465498910886 0 -0.024259585596045224 -0.035490573515896906 0 -0.026634108474987338 -0.035139288140900747 0 -0.025342653183709266 -0.034999196957080515 0 -0.025782294210307956 -0.035526632897661711 0 -0.024259585596045224 -0.035490573515896906 0 -0.025342653183709266 -0.034999196957080515 0 -0.025782294210307956 -0.035526632897661711 0 -0.023264749350887959 -0.034999391424978835 0 -0.024259585596045224 -0.035490573515896906 0 -0.025342653183709266 -0.034999196957080515 0 -0.02403976417399243 -0.035803032222306588 0 -0.025782294210307956 -0.035526632897661711 0 -0.025007342527291608 -0.036093972301096303 0 -0.02403976417399243 -0.035803032222306588 0 -0.024259585596045224 -0.035490573515896906 0 -0.025782294210307956 -0.035526632897661711 0 -0.025782294210307956 -0.035526632897661711 0 -0.025007342527291608 -0.036093972301096303 0 -0.026266481066370344 -0.03618424335175064 0 -0.025007342527291608 -0.036093972301096303 0 -0.026266481066370344 -0.03618424335175064 0 -0.025218672028360249 -0.036618417303349977 0 -0.026266481066370344 -0.03618424335175064 0 -0.025218672028360249 -0.036618417303349977 0 -0.025962605766603909 -0.036968084008655498 0 -0.025007342527291608 -0.036093972301096303 0 -0.025218672028360249 -0.036618417303349977 0 -0.023861940343058018 -0.036345284200281852 0 -0.025218672028360249 -0.036618417303349977 0 -0.024576262684734902 -0.036795514830057718 0 -0.023861940343058018 -0.036345284200281852 0 -0.024576262684734902 -0.036795514830057718 0 -0.025140605117000371 -0.037131302670799213 0 -0.024534220730600003 -0.037063133783153374 0 -0.025218672028360249 -0.036618417303349977 0 -0.024576262684734902 -0.036795514830057718 0 -0.025140605117000371 -0.037131302670799213 0 -0.025218672028360249 -0.036618417303349977 0 -0.025962605766603909 -0.036968084008655498 0 -0.025140605117000371 -0.037131302670799213 0 -0.025962605766603909 -0.036968084008655498 0 -0.025830994140138022 -0.037423067968805679 0 -0.025140605117000371 -0.037131302670799213 0 -0.025830994140138022 -0.037423067968805679 0 -0.025484938318651805 -0.037375044149966084 0 -0.025140605117000371 -0.037131302670799213 0 -0.025918740632463962 -0.037527308919931807 0 -0.025484938318651805 -0.037375044149966084 0 -0.025854621298283861 -0.037397928298455466 0 -0.025830994140138022 -0.037423067968805679 0 -0.025484938318651805 -0.037375044149966084 0 -0.025854621298283861 -0.037397928298455466 0 -0.025484938318651805 -0.037375044149966084 0 -0.025637459482716986 -0.037718218592948244 0 -0.02517777738874253 -0.037891082274711198 0 -0.025918740632463962 -0.037527308919931807 0 -0.025484938318651805 -0.037375044149966084 0 -0.025637459482716986 -0.037718218592948244 0 -0.025918740632463962 -0.037527308919931807 0 -0.025637459482716986 -0.037718218592948244 0 -0.02617888259244041 -0.03812937811573635 0 -0.024782992891414245 -0.038481562878008663 0 -0.026571063667804685 -0.034598997609838665 0 -0.025484938318651805 -0.037375044149966084 0 -0.024917723195952497 -0.037246707096188041 0 -0.024890118853923802 -0.037343760285532934 0 -0.024917723195952497 -0.037246707096188041 0 -0.024534220730600003 -0.037063133783153374 0 -0.024687290364299262 -0.037031627292777342 0 -0.024818972699861205 -0.0366297942002662 0 -0.026571063667804685 -0.034598997609838665 0 -0.024917723195952497 -0.037246707096188041 0 -0.024687290364299262 -0.037031627292777342 0 -0.024890118853923802 -0.037343760285532934 0 -0.025484938318651805 -0.037375044149966084 0 -0.024917723195952497 -0.037246707096188041 0 -0.025140605117000371 -0.037131302670799213 0 -0.024917723195952497 -0.037246707096188041 0 -0.025140605117000371 -0.037131302670799213 0 -0.024534220730600003 -0.037063133783153374 0 -0.024534220730600003 -0.037063133783153374 0 -0.023901461223157408 -0.036937012938197886 0 -0.023971979243528958 -0.036718485463607772 0 -0.024534220730600003 -0.037063133783153374 0 -0.024687290364299262 -0.037031627292777342 0 -0.023901461223157408 -0.036937012938197886 0 -0.024687290364299262 -0.037031627292777342 0 -0.023953763307674628 -0.037137839381580114 0 -0.023901461223157408 -0.036937012938197886 0 -0.023953763307674628 -0.037137839381580114 0 -0.023901461223157408 -0.036937012938197886 0 -0.023082725300209946 -0.036878573737438178 0 -0.023953763307674628 -0.037137839381580114 0 -0.023082725300209946 -0.036878573737438178 0 -0.02329211505601566 -0.037274508363231415 0 -0.023901461223157408 -0.036937012938197886 0 -0.023076361352802569 -0.036464187302373538 0 -0.023082725300209946 -0.036878573737438178 0 -0.023901461223157408 -0.036937012938197886 0 -0.023076361352802569 -0.036464187302373538 0 -0.023971979243528958 -0.036718485463607772 0 -0.023076361352802569 -0.036464187302373538 0 -0.023971979243528958 -0.036718485463607772 0 -0.023861940343058018 -0.036345284200281852 0 -0.024576262684734902 -0.036795514830057718 0 -0.023971979243528958 -0.036718485463607772 0 -0.023861940343058018 -0.036345284200281852 0 -0.024576262684734902 -0.036795514830057718 0 -0.024534220730600003 -0.037063133783153374 0 -0.023971979243528958 -0.036718485463607772 0 -0.022685165824871473 -0.035891857141059184 0 -0.023861940343058018 -0.036345284200281852 0 -0.022465690327227856 -0.036041961114612033 0 -0.023076361352802569 -0.036464187302373538 0 -0.023861940343058018 -0.036345284200281852 0 -0.022465690327227856 -0.036041961114612033 0 -0.02168085252228364 -0.035774571655042331 0 -0.022465690327227856 -0.036041961114612033 0 -0.021588835367998591 -0.035803981406032498 0 -0.022465690327227856 -0.036041961114612033 0 -0.021588835367998591 -0.035803981406032498 0 -0.022303263902894388 -0.03616179727186776 0 -0.021005252283056525 -0.035680278283543143 0 -0.02168085252228364 -0.035774571655042331 0 -0.021588835367998591 -0.035803981406032498 0 -0.021005252283056525 -0.035680278283543143 0 -0.021588835367998591 -0.035803981406032498 0 -0.020965807669455456 -0.035501668442203399 0 -0.021588835367998591 -0.035803981406032498 0 -0.021080996812978658 -0.035733062121563651 0 -0.020965807669455456 -0.035501668442203399 0 -0.021588835367998591 -0.035803981406032498 0 -0.021793440938431191 -0.036070065401807704 0 -0.022303263902894388 -0.03616179727186776 0 -0.021588835367998591 -0.035803981406032498 0 -0.021793440938431191 -0.036070065401807704 0 -0.021080996812978658 -0.035733062121563651 0 -0.021793440938431191 -0.036070065401807704 0 -0.021565097631978225 -0.036300110504334474 0 -0.021080996812978658 -0.035733062121563651 0 -0.023076361352802569 -0.036464187302373538 0 -0.022303263902894388 -0.03616179727186776 0 -0.022372633574207865 -0.036450564880341249 0 -0.021793440938431191 -0.036070065401807704 0 -0.022303263902894388 -0.03616179727186776 0 -0.022372633574207865 -0.036450564880341249 0 -0.023076361352802569 -0.036464187302373538 0 -0.022465690327227856 -0.036041961114612033 0 -0.022303263902894388 -0.03616179727186776 0 -0.023076361352802569 -0.036464187302373538 0 -0.022372633574207865 -0.036450564880341249 0 -0.023082725300209946 -0.036878573737438178 0 -0.022372633574207865 -0.036450564880341249 0 -0.023082725300209946 -0.036878573737438178 0 -0.022234919643133837 -0.03697910931350893 0 -0.02329211505601566 -0.037274508363231415 0 -0.022234919643133837 -0.03697910931350893 0 -0.02253769291887046 -0.03778571969426972 0 -0.023082725300209946 -0.036878573737438178 0 -0.02329211505601566 -0.037274508363231415 0 -0.022234919643133837 -0.03697910931350893 0 -0.022234919643133837 -0.03697910931350893 0 -0.021151453181445585 -0.036710485623584206 0 -0.021328248901409698 -0.037407420499868081 0 -0.022234919643133837 -0.03697910931350893 0 -0.021328248901409698 -0.037407420499868081 0 -0.02253769291887046 -0.03778571969426972 0 -0.022234919643133837 -0.03697910931350893 0 -0.021565097631978225 -0.036300110504334474 0 -0.021151453181445585 -0.036710485623584206 0 -0.022372633574207865 -0.036450564880341249 0 -0.022234919643133837 -0.03697910931350893 0 -0.021565097631978225 -0.036300110504334474 0 -0.021793440938431191 -0.036070065401807704 0 -0.022372633574207865 -0.036450564880341249 0 -0.021565097631978225 -0.036300110504334474 0 -0.021565097631978225 -0.036300110504334474 0 -0.020786344156440768 -0.036075783931001436 0 -0.021080996812978658 -0.035733062121563651 0 -0.020786344156440768 -0.036075783931001436 0 -0.020554808611882771 -0.036465266592015842 0 -0.021151453181445585 -0.036710485623584206 0 -0.020786344156440768 -0.036075783931001436 0 -0.020554808611882771 -0.036465266592015842 0 -0.019902001579800481 -0.036108395119025909 0 -0.021565097631978225 -0.036300110504334474 0 -0.020786344156440768 -0.036075783931001436 0 -0.021151453181445585 -0.036710485623584206 0 -0.021328248901409698 -0.037407420499868081 0 -0.020337450806079658 -0.037031963918327561 0 -0.0196648983473523 -0.037788558194226295 0 -0.020554808611882771 -0.036465266592015842 0 -0.021151453181445585 -0.036710485623584206 0 -0.020337450806079658 -0.037031963918327561 0 -0.021151453181445585 -0.036710485623584206 0 -0.021328248901409698 -0.037407420499868081 0 -0.020337450806079658 -0.037031963918327561 0 -0.019096009494458544 -0.036996067931761883 0 -0.019902001579800481 -0.036108395119025909 0 -0.018246515574807994 -0.036263321705706134 0 -0.019096009494458544 -0.036996067931761883 0 -0.019176247932905614 -0.037502845685871165 0 -0.018941950525803799 -0.037397496507203545 0 -0.019096009494458544 -0.036996067931761883 0 -0.020337450806079658 -0.037031963918327561 0 -0.0196648983473523 -0.037788558194226295 0 -0.020462254365389662 -0.036570807013518725 0 -0.022340750729905979 -0.034991038469967983 0 -0.020554808611882771 -0.036465266592015842 0 -0.020337450806079658 -0.037031963918327561 0 -0.019902001579800481 -0.036108395119025909 0 -0.019096009494458544 -0.036996067931761883 0 -0.020337450806079658 -0.037031963918327561 0 -0.019902001579800481 -0.036108395119025909 0 -0.019902001579800481 -0.036108395119025909 0 -0.020387732081879082 -0.035573076512749269 0 -0.019369742853516801 -0.03504703477930407 0 -0.020786344156440768 -0.036075783931001436 0 -0.019902001579800481 -0.036108395119025909 0 -0.020387732081879082 -0.035573076512749269 0 -0.020387732081879082 -0.035573076512749269 0 -0.020422387267248283 -0.035302272106914237 0 -0.019369742853516801 -0.03504703477930407 0 -0.020786344156440768 -0.036075783931001436 0 -0.020387732081879082 -0.035573076512749269 0 -0.021080996812978658 -0.035733062121563651 0 -0.020387732081879082 -0.035573076512749269 0 -0.021080996812978658 -0.035733062121563651 0 -0.020422387267248283 -0.035302272106914237 0 -0.021080996812978658 -0.035733062121563651 0 -0.020965807669455456 -0.035501668442203399 0 -0.020422387267248283 -0.035302272106914237 0 -0.02067557153707647 -0.03525684662194685 0 -0.021005252283056525 -0.035680278283543143 0 -0.020965807669455456 -0.035501668442203399 0 -0.02067557153707647 -0.03525684662194685 0 -0.020965807669455456 -0.035501668442203399 0 -0.020422387267248283 -0.035302272106914237 0 -0.020636768580943824 -0.035565816441875078 0 -0.019099423947914328 -0.035474246595395942 0 -0.02067557153707647 -0.03525684662194685 0 -0.020261998555595948 -0.035133002293836042 0 -0.020422387267248283 -0.035302272106914237 0 -0.020261998555595948 -0.035133002293836042 0 -0.020422387267248283 -0.035302272106914237 0 -0.019369742853516801 -0.03504703477930407 0 -0.019099423947914328 -0.035474246595395942 0 -0.019729125457109885 -0.034233874574342855 0 -0.010912777840500787 -0.034011663792674382 0 -0.010942692950559635 -0.033972862103875498 0 -0.010894959666496319 -0.034182119130599792 0 -0.023662974124903279 -0.011380921979296483 0 -0.026061889645211986 -0.013247403338452821 0 -0.021878123274366057 -0.012865989898377991 0 -0.014528976194233521 -0.030856845988307541 0 -0.017390202315046961 -0.033410505398936474 0 -0.0184900267842295 -0.027454855899575848 0 -0.018408966275006804 -0.027889063443703347 0 -0.020623859983880593 -0.027468433663422127 0 -0.023662974124903279 -0.011380921979296483 0 -0.029462328965153634 -0.010582733192449902 0 -0.026061889645211986 -0.013247403338452821 0 -0.021320881448812105 -0.01866001613942549 0 -0.025410985809123057 -0.026115842685650925 0 -0.018408966275006804 -0.027889063443703347 0 -0.022080104009241975 -0.027512537952984709 0 -0.020623859983880593 -0.027468433663422127 0 -0.029462328965153634 -0.010582733192449902 0 -0.029804613876997815 -0.013153897731215352 0 -0.026061889645211986 -0.013247403338452821 0 -0.029462328965153634 -0.010582733192449902 0 -0.030090874167612518 -0.010598050936620586 0 -0.029804613876997815 -0.013153897731215352 0 -0.025410985809123057 -0.026115842685650925 0 -0.017390202315046961 -0.033410505398936474 0 -0.025410985809123057 -0.026115842685650925 0 -0.029248790000291444 -0.02642058679136839 0 -0.020489426629123356 -0.040388166688593165 0 -0.019902424625396903 -0.040444266858205402 0 -0.0199211526210912 -0.039116171240718006 0 -0.020489426629123356 -0.040388166688593165 0 -0.0199211526210912 -0.039116171240718006 0 -0.020651990278993854 -0.040374931789922672 0 -0.023670933923636051 -0.037210082782286318 0 -0.029248790000291444 -0.02642058679136839 0 -0.027901197810466596 -0.03187066663252823 0 -0.028193306937487065 -0.031879625841115609 0 -0.028135036029386679 -0.032027009694760862 0 -0.017390202315046961 -0.033410505398936474 0 -0.014335472562501681 -0.037558186886821304 0 -0.019902424625396903 -0.040444266858205402 0 -0.0199211526210912 -0.039116171240718006 0 -0.01833119301406155 -0.039776365486913115 0 -0.018724715324090011 -0.038961107020360097 0 -0.0199211526210912 -0.039116171240718006 0 -0.01833119301406155 -0.039776365486913115 0 -0.018724715324090011 -0.038961107020360097 0 -0.0199211526210912 -0.039116171240718006 0 -0.018726473044880773 -0.0381289009425455 0 -0.019194478512646343 -0.037532073921261407 0 -0.0199211526210912 -0.039116171240718006 0 -0.018726473044880773 -0.0381289009425455 0 -0.022340750729905979 -0.034991038469967983 0 -0.023670933923636051 -0.037210082782286318 0 -0.019194478512646343 -0.037532073921261407 0 -0.018941950525803799 -0.037397496507203545 0 -0.018726473044880773 -0.0381289009425455 0 -0.022340750729905979 -0.034991038469967983 0 -0.020801088671434723 -0.035222508414545245 0 -0.027641841049934432 -0.031623481139221039 0 -0.027901197810466596 -0.03187066663252823 0 -0.028039271093754217 -0.031703363024829838 0 -0.021328248901409698 -0.037407420499868081 0 -0.0196648983473523 -0.037788558194226295 0 -0.021574749875339829 -0.038261070192044187 0 -0.022340750729905979 -0.034991038469967983 0 -0.025018948489667972 -0.034916177047422829 0 -0.027901197810466596 -0.03187066663252823 0 -0.028039271093754217 -0.031703363024829838 0 -0.028193306937487065 -0.031879625841115609 0 -0.025018948489667972 -0.034916177047422829 0 -0.02577885874062423 -0.03544779717889962 0 -0.028039271093754217 -0.031703363024829838 0 -0.02834673674008558 -0.031785968433249628 0 -0.028193306937487065 -0.031879625841115609 0 -0.021328248901409698 -0.037407420499868081 0 -0.021574749875339829 -0.038261070192044187 0 -0.02253769291887046 -0.03778571969426972 0 -0.021574749875339829 -0.038261070192044187 0 -0.02253769291887046 -0.03778571969426972 0 -0.023131282614701352 -0.038381480760782537 0 -0.02329211505601566 -0.037274508363231415 0 -0.02253769291887046 -0.03778571969426972 0 -0.023131282614701352 -0.038381480760782537 0 -0.028193306937487065 -0.031879625841115609 0 -0.028356003752114299 -0.031980777664815482 0 -0.028419381131558973 -0.03188927450379804 0 -0.02834673674008558 -0.031785968433249628 0 -0.028193306937487065 -0.031879625841115609 0 -0.028419381131558973 -0.03188927450379804 0 -0.028193306937487065 -0.031879625841115609 0 -0.028135036029386679 -0.032027009694760862 0 -0.028356003752114299 -0.031980777664815482 0 -0.029248790000291444 -0.02642058679136839 0 -0.034098819656607639 -0.015914240767630979 0 -0.036492125859941917 -0.020499963901449567 0 -0.03672981385222103 -0.020542343481996381 0 -0.036753168983643038 -0.020466390385360418 0 -0.036492125859941917 -0.020499963901449567 0 -0.03672981385222103 -0.020542343481996381 0 -0.036665006830338645 -0.020592985278744511 0 -0.036492125859941917 -0.020499963901449567 0 -0.036416884923415695 -0.020498603951286581 0 -0.036753168983643038 -0.020466390385360418 0 -0.036492125859941917 -0.020499963901449567 0 -0.036430735343656317 -0.020509761809782489 0 -0.036665006830338645 -0.020592985278744511 0 -0.029248790000291444 -0.02642058679136839 0 -0.033415174733543523 -0.026132601505982324 0 -0.033042356287901128 -0.025368032576738208 0 -0.029248790000291444 -0.02642058679136839 0 -0.03672981385222103 -0.020542343481996381 0 -0.036866200703018742 -0.020529265136956316 0 -0.036946131937853642 -0.020569041182971218 0 -0.03672981385222103 -0.020542343481996381 0 -0.036753168983643038 -0.020466390385360418 0 -0.036866200703018742 -0.020529265136956316 0 -0.036753168983643038 -0.020466390385360418 0 -0.036866200703018742 -0.020529265136956316 0 -0.036867706365608807 -0.020531929566203335 0 -0.033415174733543523 -0.026132601505982324 0 -0.031323063300985131 -0.02663825950630859 0 -0.036866200703018742 -0.020529265136956316 0 -0.037000037630431845 -0.020579596140532022 0 -0.036867706365608807 -0.020531929566203335 0 -0.036866200703018742 -0.020529265136956316 0 -0.037000037630431845 -0.020579596140532022 0 -0.036946131937853642 -0.020569041182971218 0 -0.037043833856883514 -0.020613562772802279 0 -0.036867706365608807 -0.020531929566203335 0 -0.0371565173673424 -0.020697486420141867 0 -0.037000037630431845 -0.020579596140532022 0 -0.037149609131280265 -0.020645461400323698 0 -0.037043833856883514 -0.020613562772802279 0 -0.037000037630431845 -0.020579596140532022 0 -0.037043833856883514 -0.020613562772802279 0 -0.036867706365608807 -0.020531929566203335 0 -0.031323063300985131 -0.02663825950630859 0 -0.032993744443417523 -0.024296653211026198 0 -0.026470098220129874 -0.032469458768220556 0 -0.031323063300985131 -0.02663825950630859 0 -0.027778400235233612 -0.028266390937818325 0 -0.027665300902522262 -0.028393999739147337 0 -0.028332924672137046 -0.02850528401797716 0 -0.027778400235233612 -0.028266390937818325 0 -0.027722134645113701 -0.028251736443254388 0 -0.027665300902522262 -0.028393999739147337 0 -0.02662347004794945 -0.031170969031057545 0 -0.026470098220129874 -0.032469458768220556 0 -0.028356003752114299 -0.031980777664815482 0 -0.028419381131558973 -0.03188927450379804 0 -0.028531819781570333 -0.031939245205054888 0 -0.028576062876134595 -0.031858208321049672 0 -0.028419381131558973 -0.03188927450379804 0 -0.028531819781570333 -0.031939245205054888 0 -0.02834673674008558 -0.031785968433249628 0 -0.028576062876134595 -0.031858208321049672 0 -0.028419381131558973 -0.03188927450379804 0 -0.023131282614701352 -0.038381480760782537 0 -0.024616997111755582 -0.038442510153312341 0 -0.024168876533956669 -0.037545778480642777 0 -0.02577885874062423 -0.03544779717889962 0 -0.026470098220129874 -0.032469458768220556 0 -0.02329211505601566 -0.037274508363231415 0 -0.023131282614701352 -0.038381480760782537 0 -0.024168876533956669 -0.037545778480642777 0 -0.023953763307674628 -0.037137839381580114 0 -0.02329211505601566 -0.037274508363231415 0 -0.024168876533956669 -0.037545778480642777 0 -0.024687290364299262 -0.037031627292777342 0 -0.024168876533956669 -0.037545778480642777 0 -0.025201237970456685 -0.037450382645513002 0 -0.024687290364299262 -0.037031627292777342 0 -0.023953763307674628 -0.037137839381580114 0 -0.024168876533956669 -0.037545778480642777 0 -0.026470098220129874 -0.032469458768220556 0 -0.026522485770964072 -0.031984322769439799 0 -0.027778400235233612 -0.028266390937818325 0 -0.027462828095880958 -0.027343490680083092 0 -0.028082442207028262 -0.027778679311730135 0 -0.027778400235233612 -0.028266390937818325 0 -0.027454574773888383 -0.028253377374062753 0 -0.027462828095880958 -0.027343490680083092 0 -0.024616997111755582 -0.038442510153312341 0 -0.024168876533956669 -0.037545778480642777 0 -0.025201237970456685 -0.037450382645513002 0 -0.027462828095880958 -0.027343490680083092 0 -0.028082442207028262 -0.027778679311730135 0 -0.029150395340325288 -0.026957781776436759 0 -0.024687290364299262 -0.037031627292777342 0 -0.025201237970456685 -0.037450382645513002 0 -0.025868915012695837 -0.036484083414921799 0 -0.026522485770964072 -0.031984322769439799 0 -0.026571063667804685 -0.034598997609838665 0 -0.027462828095880958 -0.027343490680083092 0 -0.028022659312077185 -0.025880499261156258 0 -0.029150395340325288 -0.026957781776436759 0 -0.025637459482716986 -0.037718218592948244 0 -0.02517777738874253 -0.037891082274711198 0 -0.02617888259244041 -0.03812937811573635 0 -0.026571063667804685 -0.034598997609838665 0 -0.028459284056484235 -0.031252096709512504 0 -0.028022659312077185 -0.025880499261156258 0 -0.029150395340325288 -0.026957781776436759 0 -0.030675241375769113 -0.025076708035206893 0 -0.0371565173673424 -0.020697486420141867 0 -0.037399921879058884 -0.020862370840837481 0 -0.03748124113514404 -0.021163131769811695 0 -0.029150395340325288 -0.026957781776436759 0 -0.028332924672137046 -0.02850528401797716 0 -0.030703947925949784 -0.027972961354683162 0 -0.032993744443417523 -0.024296653211026198 0 -0.03398710890007281 -0.024607145983764858 0 -0.028082442207028262 -0.027778679311730135 0 -0.029150395340325288 -0.026957781776436759 0 -0.028332924672137046 -0.02850528401797716 0 -0.027778400235233612 -0.028266390937818325 0 -0.028082442207028262 -0.027778679311730135 0 -0.028332924672137046 -0.02850528401797716 0 -0.037149609131280265 -0.020645461400323698 0 -0.0371565173673424 -0.020697486420141867 0 -0.037292396355212677 -0.020721513950817755 0 -0.037149609131280265 -0.020645461400323698 0 -0.037043833856883514 -0.020613562772802279 0 -0.0371565173673424 -0.020697486420141867 0 -0.0371565173673424 -0.020697486420141867 0 -0.037292396355212677 -0.020721513950817755 0 -0.037399921879058884 -0.020862370840837481 0 -0.037292396355212677 -0.020721513950817755 0 -0.037399921879058884 -0.020862370840837481 0 -0.037385506916310561 -0.020644009948601886 0 -0.037399921879058884 -0.020862370840837481 0 -0.037385506916310561 -0.020644009948601886 0 -0.037425113225091039 -0.020845502841387115 0 -0.037292396355212677 -0.020721513950817755 0 -0.037385506916310561 -0.020644009948601886 0 -0.037283537258904376 -0.020617211527851138 0 -0.037149609131280265 -0.020645461400323698 0 -0.037292396355212677 -0.020721513950817755 0 -0.037283537258904376 -0.020617211527851138 0 -0.037385506916310561 -0.020644009948601886 0 -0.037283537258904376 -0.020617211527851138 0 -0.037359176799916821 -0.020386341052773697 0 -0.037283537258904376 -0.020617211527851138 0 -0.037359176799916821 -0.020386341052773697 0 -0.037233839628102325 -0.020566710742773563 0 -0.037385506916310561 -0.020644009948601886 0 -0.037359176799916821 -0.020386341052773697 0 -0.03738030927260394 -0.020384639081377751 0 -0.037359176799916821 -0.020386341052773697 0 -0.037322437366450904 -0.019957382829541327 0 -0.03738030927260394 -0.020384639081377751 0 -0.037359176799916821 -0.020386341052773697 0 -0.037322437366450904 -0.019957382829541327 0 -0.037326097559278244 -0.020091726317024043 0 -0.037322437366450904 -0.019957382829541327 0 -0.037265502138494402 -0.019670566939428005 0 -0.037326097559278244 -0.020091726317024043 0 -0.037322437366450904 -0.019957382829541327 0 -0.037265502138494402 -0.019670566939428005 0 -0.037135653472065981 -0.019126463600388319 0 -0.037265502138494402 -0.019670566939428005 0 -0.037317923989508138 -0.019997490482549413 0 -0.037326097559278244 -0.020091726317024043 0 -0.037317923989508138 -0.019997490482549413 0 -0.037326097559278244 -0.020091726317024043 0 -0.037328125699945279 -0.020339227806135323 0 -0.037359176799916821 -0.020386341052773697 0 -0.037326097559278244 -0.020091726317024043 0 -0.037328125699945279 -0.020339227806135323 0 -0.037359176799916821 -0.020386341052773697 0 -0.037292704081441815 -0.020491163275206253 0 -0.037328125699945279 -0.020339227806135323 0 -0.037292704081441815 -0.020491163275206253 0 -0.037269016615407706 -0.020581132806666829 0 -0.037192949876589283 -0.020591077872175099 0 -0.037292704081441815 -0.020491163275206253 0 -0.037269016615407706 -0.020581132806666829 0 -0.037328125699945279 -0.020339227806135323 0 -0.037317923989508138 -0.019997490482549413 0 -0.037328125699945279 -0.020339227806135323 0 -0.037314987648163316 -0.020413359093437049 0 -0.037269016615407706 -0.020581132806666829 0 -0.037328125699945279 -0.020339227806135323 0 -0.037314987648163316 -0.020413359093437049 0 -0.037269016615407706 -0.020581132806666829 0 -0.037314987648163316 -0.020413359093437049 0 -0.037251475057902265 -0.020693043969035586 0 -0.037314987648163316 -0.020413359093437049 0 -0.037311973156360534 -0.020467246392187499 0 -0.037347288424432967 -0.020153611001282469 0 -0.037317923989508138 -0.019997490482549413 0 -0.037314987648163316 -0.020413359093437049 0 -0.037347288424432967 -0.020153611001282469 0 -0.037245277864672348 -0.020728346821833082 0 -0.037233192038277185 -0.020750206745742888 0 -0.037382801719461116 -0.020366929505360662 0 -0.037233192038277185 -0.020750206745742888 0 -0.037028013534114904 -0.021046693306416508 0 -0.037409304661057352 -0.020524395062966494 0 -0.037245277864672348 -0.020728346821833082 0 -0.037233192038277185 -0.020750206745742888 0 -0.037028013534114904 -0.021046693306416508 0 -0.037245277864672348 -0.020728346821833082 0 -0.037311973156360534 -0.020467246392187499 0 -0.037251475057902265 -0.020693043969035586 0 -0.037245277864672348 -0.020728346821833082 0 -0.037311973156360534 -0.020467246392187499 0 -0.037382801719461116 -0.020366929505360662 0 -0.037314987648163316 -0.020413359093437049 0 -0.037311973156360534 -0.020467246392187499 0 -0.037251475057902265 -0.020693043969035586 0 -0.037245277864672348 -0.020728346821833082 0 -0.037251475057902265 -0.020693043969035586 0 -0.037098520753578466 -0.020966021360396079 0 -0.037098520753578466 -0.020966021360396079 0 -0.036880321666776739 -0.021255976381408456 0 -0.037028013534114904 -0.021046693306416508 0 -0.037245277864672348 -0.020728346821833082 0 -0.037098520753578466 -0.020966021360396079 0 -0.037028013534114904 -0.021046693306416508 0 -0.037098520753578466 -0.020966021360396079 0 -0.03689554326454645 -0.020950819859963696 0 -0.036880321666776739 -0.021255976381408456 0 -0.03714075342770639 -0.020724311971490942 0 -0.036964834142568723 -0.02073294756517104 0 -0.03689554326454645 -0.020950819859963696 0 -0.037251475057902265 -0.020693043969035586 0 -0.037098520753578466 -0.020966021360396079 0 -0.03714075342770639 -0.020724311971490942 0 -0.037098520753578466 -0.020966021360396079 0 -0.03714075342770639 -0.020724311971490942 0 -0.03689554326454645 -0.020950819859963696 0 -0.037269016615407706 -0.020581132806666829 0 -0.037251475057902265 -0.020693043969035586 0 -0.03714075342770639 -0.020724311971490942 0 -0.037269016615407706 -0.020581132806666829 0 -0.03714075342770639 -0.020724311971490942 0 -0.037192949876589283 -0.020591077872175099 0 -0.03714075342770639 -0.020724311971490942 0 -0.037016029342553616 -0.020638759629899816 0 -0.037192949876589283 -0.020591077872175099 0 -0.03714075342770639 -0.020724311971490942 0 -0.037016029342553616 -0.020638759629899816 0 -0.036964834142568723 -0.02073294756517104 0 -0.037016029342553616 -0.020638759629899816 0 -0.037070580038778785 -0.020587890011320279 0 -0.036842254923117164 -0.02059012995212528 0 -0.037016029342553616 -0.020638759629899816 0 -0.037070580038778785 -0.020587890011320279 0 -0.037192949876589283 -0.020591077872175099 0 -0.037292704081441815 -0.020491163275206253 0 -0.037192949876589283 -0.020591077872175099 0 -0.037233839628102325 -0.020566710742773563 0 -0.037359176799916821 -0.020386341052773697 0 -0.037292704081441815 -0.020491163275206253 0 -0.037233839628102325 -0.020566710742773563 0 -0.037070580038778785 -0.020587890011320279 0 -0.037192949876589283 -0.020591077872175099 0 -0.037233839628102325 -0.020566710742773563 0 -0.037283537258904376 -0.020617211527851138 0 -0.037233839628102325 -0.020566710742773563 0 -0.037128088428172223 -0.02059493605764736 0 -0.037149609131280265 -0.020645461400323698 0 -0.037283537258904376 -0.020617211527851138 0 -0.037128088428172223 -0.02059493605764736 0 -0.037070580038778785 -0.020587890011320279 0 -0.037233839628102325 -0.020566710742773563 0 -0.037128088428172223 -0.02059493605764736 0 -0.037000037630431845 -0.020579596140532022 0 -0.037149609131280265 -0.020645461400323698 0 -0.037128088428172223 -0.02059493605764736 0 -0.037070580038778785 -0.020587890011320279 0 -0.037128088428172223 -0.02059493605764736 0 -0.036946131937853642 -0.020569041182971218 0 -0.037000037630431845 -0.020579596140532022 0 -0.037128088428172223 -0.02059493605764736 0 -0.036946131937853642 -0.020569041182971218 0 -0.037070580038778785 -0.020587890011320279 0 -0.036946131937853642 -0.020569041182971218 0 -0.036842254923117164 -0.02059012995212528 0 -0.03672981385222103 -0.020542343481996381 0 -0.036946131937853642 -0.020569041182971218 0 -0.036842254923117164 -0.02059012995212528 0 -0.03672981385222103 -0.020542343481996381 0 -0.036842254923117164 -0.02059012995212528 0 -0.036665006830338645 -0.020592985278744511 0 -0.030090874167612518 -0.010598050936620586 0 -0.032193295506055694 -0.014296334986290106 0 -0.029804613876997815 -0.013153897731215352 0 -0.032193295506055694 -0.014296334986290106 0 -0.030290901115353673 -0.016634303844631163 0 -0.029804613876997815 -0.013153897731215352 0 -0.030290901115353673 -0.016634303844631163 0 -0.031996057880046495 -0.019276689591318258 0 -0.028818332386495719 -0.020167025502008332 0 -0.030290901115353673 -0.016634303844631163 0 -0.034457738872976582 -0.017803673459793494 0 -0.031996057880046495 -0.019276689591318258 0 -0.032193295506055694 -0.014296334986290106 0 -0.030290901115353673 -0.016634303844631163 0 -0.034457738872976582 -0.017803673459793494 0 -0.034098819656607639 -0.015914240767630979 0 -0.035803733531397625 -0.019549365878886095 0 -0.036842254923117164 -0.02059012995212528 0 -0.036665006830338645 -0.020592985278744511 0 -0.036817286415161764 -0.020630370267216466 0 -0.037016029342553616 -0.020638759629899816 0 -0.036842254923117164 -0.02059012995212528 0 -0.036817286415161764 -0.020630370267216466 0 -0.037016029342553616 -0.020638759629899816 0 -0.036817286415161764 -0.020630370267216466 0 -0.036964834142568723 -0.02073294756517104 0 -0.035803733531397625 -0.019549365878886095 0 -0.036705514737779013 -0.020765654757635515 0 -0.036817286415161764 -0.020630370267216466 0 -0.036964834142568723 -0.02073294756517104 0 -0.03689554326454645 -0.020950819859963696 0 -0.034457738872976582 -0.017803673459793494 0 -0.034541281050730628 -0.020208816140972634 0 -0.03689554326454645 -0.020950819859963696 0 -0.034457738872976582 -0.017803673459793494 0 -0.034541281050730628 -0.020208816140972634 0 -0.031996057880046495 -0.019276689591318258 0 -0.034541281050730628 -0.020208816140972634 0 -0.035699768720010003 -0.021169126734909619 0 -0.034700725725746472 -0.021906551367542736 0 -0.034541281050730628 -0.020208816140972634 0 -0.034700725725746472 -0.021906551367542736 0 -0.032237350016208352 -0.021731081400792829 0 -0.034541281050730628 -0.020208816140972634 0 -0.035699768720010003 -0.021169126734909619 0 -0.03689554326454645 -0.020950819859963696 0 -0.035699768720010003 -0.021169126734909619 0 -0.03689554326454645 -0.020950819859963696 0 -0.036464466332488725 -0.021711443172821386 0 -0.03689554326454645 -0.020950819859963696 0 -0.036880321666776739 -0.021255976381408456 0 -0.036464466332488725 -0.021711443172821386 0 -0.036464466332488725 -0.021711443172821386 0 -0.037028013534114904 -0.021046693306416508 0 -0.037933458686354872 -0.019944219877889545 0 -0.036464466332488725 -0.021711443172821386 0 -0.035524184577964905 -0.024169781050881248 0 -0.038041124913841602 -0.028965193148554138 0 -0.037090224628791815 -0.022409150207592047 0 -0.036312212531257847 -0.022886661072296151 0 -0.036880321666776739 -0.021255976381408456 0 -0.036464466332488725 -0.021711443172821386 0 -0.037028013534114904 -0.021046693306416508 0 -0.035699768720010003 -0.021169126734909619 0 -0.036464466332488725 -0.021711443172821386 0 -0.034700725725746472 -0.021906551367542736 0 -0.036464466332488725 -0.021711443172821386 0 -0.034700725725746472 -0.021906551367542736 0 -0.035524184577964905 -0.024169781050881248 0 -0.034700725725746472 -0.021906551367542736 0 -0.035524184577964905 -0.024169781050881248 0 -0.03375896282815339 -0.023425605845703648 0 -0.034778584418345367 -0.025748128407860151 0 -0.035524184577964905 -0.024169781050881248 0 -0.03375896282815339 -0.023425605845703648 0 -0.03174820476345095 -0.024764939395612352 0 -0.032237350016208352 -0.021731081400792829 0 -0.02820570452194629 -0.023765198244158139 0 -0.034778584418345367 -0.025748128407860151 0 -0.03174820476345095 -0.024764939395612352 0 -0.03375896282815339 -0.023425605845703648 0 -0.03174820476345095 -0.024764939395612352 0 -0.03375896282815339 -0.023425605845703648 0 -0.032237350016208352 -0.021731081400792829 0 -0.034700725725746472 -0.021906551367542736 0 -0.03375896282815339 -0.023425605845703648 0 -0.032237350016208352 -0.021731081400792829 0 -0.034541281050730628 -0.020208816140972634 0 -0.032237350016208352 -0.021731081400792829 0 -0.031996057880046495 -0.019276689591318258 0 -0.032237350016208352 -0.021731081400792829 0 -0.031996057880046495 -0.019276689591318258 0 -0.028818332386495719 -0.020167025502008332 0 -0.028818332386495719 -0.020167025502008332 0 -0.02820570452194629 -0.023765198244158139 0 -0.024916517881853832 -0.022351237666383601 0 -0.032237350016208352 -0.021731081400792829 0 -0.028818332386495719 -0.020167025502008332 0 -0.02820570452194629 -0.023765198244158139 0 -0.028818332386495719 -0.020167025502008332 0 -0.024916517881853832 -0.022351237666383601 0 -0.025895882847068192 -0.019613174794304057 0 -0.02820570452194629 -0.023765198244158139 0 -0.025417076151367658 -0.027430189822069163 0 -0.029289369624489005 -0.026894962295043998 0 -0.03174820476345095 -0.024764939395612352 0 -0.02820570452194629 -0.023765198244158139 0 -0.029289369624489005 -0.026894962295043998 0 -0.024916517881853832 -0.022351237666383601 0 -0.025417076151367658 -0.027430189822069163 0 -0.021049166929574065 -0.024515210481652984 0 -0.022423668218897522 -0.027217230082658913 0 -0.019273036075345133 -0.024163513659804611 0 -0.02820570452194629 -0.023765198244158139 0 -0.024916517881853832 -0.022351237666383601 0 -0.025417076151367658 -0.027430189822069163 0 -0.024916517881853832 -0.022351237666383601 0 -0.022501027781872351 -0.021222329729784585 0 -0.021049166929574065 -0.024515210481652984 0 -0.025895882847068192 -0.019613174794304057 0 -0.023108272639342248 -0.018701381226752339 0 -0.022501027781872351 -0.021222329729784585 0 -0.024916517881853832 -0.022351237666383601 0 -0.025895882847068192 -0.019613174794304057 0 -0.022501027781872351 -0.021222329729784585 0 -0.023108272639342248 -0.018701381226752339 0 -0.023582728108168371 -0.015573283619004561 0 -0.021645969284506381 -0.017120316620010942 0 -0.023108272639342248 -0.018701381226752339 0 -0.026590174600997645 -0.017054129893616737 0 -0.023582728108168371 -0.015573283619004561 0 -0.025895882847068192 -0.019613174794304057 0 -0.023108272639342248 -0.018701381226752339 0 -0.026590174600997645 -0.017054129893616737 0 -0.028818332386495719 -0.020167025502008332 0 -0.025895882847068192 -0.019613174794304057 0 -0.026590174600997645 -0.017054129893616737 0 -0.030290901115353673 -0.016634303844631163 0 -0.026590174600997645 -0.017054129893616737 0 -0.02808314659667753 -0.014892394960151184 0 -0.030290901115353673 -0.016634303844631163 0 -0.028818332386495719 -0.020167025502008332 0 -0.026590174600997645 -0.017054129893616737 0 -0.026590174600997645 -0.017054129893616737 0 -0.02808314659667753 -0.014892394960151184 0 -0.026061889645211986 -0.013247403338452821 0 -0.030290901115353673 -0.016634303844631163 0 -0.02808314659667753 -0.014892394960151184 0 -0.029804613876997815 -0.013153897731215352 0 -0.02808314659667753 -0.014892394960151184 0 -0.029804613876997815 -0.013153897731215352 0 -0.026061889645211986 -0.013247403338452821 0 -0.026061889645211986 -0.013247403338452821 0 -0.023582728108168371 -0.015573283619004561 0 -0.021852952293727908 -0.012912408697472835 0 -0.025586048838913449 -0.013260665818521668 0 -0.022022092226701866 -0.012765853949286005 0 -0.026590174600997645 -0.017054129893616737 0 -0.026061889645211986 -0.013247403338452821 0 -0.023582728108168371 -0.015573283619004561 0 -0.036084629520501399 -0.022891186014539353 0 -0.036235291192782577 -0.022420438864129182 0 -0.036112920672635294 -0.02265197197485087 0 -0.036084629520501399 -0.022891186014539353 0 -0.036112920672635294 -0.02265197197485087 0 -0.035940568285705542 -0.023304905774356746 0 -0.036235687144025655 -0.021275292164641479 0 -0.034336087680922403 -0.028315704030253994 0 -0.036084629520501399 -0.022891186014539353 0 -0.036210942665570491 -0.023273310911358012 0 -0.035940568285705542 -0.023304905774356746 0 -0.036235291192782577 -0.022420438864129182 0 -0.036445320959646699 -0.02360955212972347 0 -0.036714989750515271 -0.022049657428743066 0 -0.036210942665570491 -0.023273310911358012 0 -0.036235291192782577 -0.022420438864129182 0 -0.036445320959646699 -0.02360955212972347 0 -0.036084629520501399 -0.022891186014539353 0 -0.036210942665570491 -0.023273310911358012 0 -0.036235291192782577 -0.022420438864129182 0 -0.036521141797597086 -0.021630407186465764 0 -0.036235291192782577 -0.022420438864129182 0 -0.036714989750515271 -0.022049657428743066 0 -0.036521141797597086 -0.021630407186465764 0 -0.036235291192782577 -0.022420438864129182 0 -0.036117910410036244 -0.021648460384236751 0 -0.036235291192782577 -0.022420438864129182 0 -0.036112920672635294 -0.02265197197485087 0 -0.036117910410036244 -0.021648460384236751 0 -0.035570705862962362 -0.022769046648071192 0 -0.034998892713509172 -0.024294251359344751 0 -0.034999651027960377 -0.021044946838552243 0 -0.035570705862962362 -0.022769046648071192 0 -0.036112920672635294 -0.02265197197485087 0 -0.035803812223112727 -0.021752243362372713 0 -0.036112920672635294 -0.02265197197485087 0 -0.036117910410036244 -0.021648460384236751 0 -0.035803812223112727 -0.021752243362372713 0 -0.035570705862962362 -0.022769046648071192 0 -0.034999651027960377 -0.021044946838552243 0 -0.035803812223112727 -0.021752243362372713 0 -0.035570705862962362 -0.022769046648071192 0 -0.035912280645563323 -0.024223412912719098 0 -0.034998892713509172 -0.024294251359344751 0 -0.035570705862962362 -0.022769046648071192 0 -0.036112920672635294 -0.02265197197485087 0 -0.035912280645563323 -0.024223412912719098 0 -0.036112920672635294 -0.02265197197485087 0 -0.035912280645563323 -0.024223412912719098 0 -0.037009268428233516 -0.024483702132676869 0 -0.036402642262536491 -0.025377199308918554 0 -0.035912280645563323 -0.024223412912719098 0 -0.037068129643353029 -0.024681727357624896 0 -0.036402642262536491 -0.025377199308918554 0 -0.035912280645563323 -0.024223412912719098 0 -0.035678307865671853 -0.02634277084312061 0 -0.036524722952852799 -0.024623922101145609 0 -0.034336087680922403 -0.028315704030253994 0 -0.035912280645563323 -0.024223412912719098 0 -0.034998892713509172 -0.024294251359344751 0 -0.035678307865671853 -0.02634277084312061 0 -0.036967119447227713 -0.027656704143416509 0 -0.035678307865671853 -0.02634277084312061 0 -0.037482722395029783 -0.026422845840878971 0 -0.030627372067146882 -0.03773637172709509 0 -0.031006402233297644 -0.038710737614917598 0 -0.030189811082899143 -0.038136023036801685 0 -0.03423891058972918 -0.032658495372032165 0 -0.034336087680922403 -0.028315704030253994 0 -0.036402642262536491 -0.025377199308918554 0 -0.035678307865671853 -0.02634277084312061 0 -0.037482722395029783 -0.026422845840878971 0 -0.036402642262536491 -0.025377199308918554 0 -0.037482722395029783 -0.026422845840878971 0 -0.037068129643353029 -0.024681727357624896 0 -0.034336087680922403 -0.028315704030253994 0 -0.032756347222163078 -0.031537552349582117 0 -0.036210942665570491 -0.023273310911358012 0 -0.035940568285705542 -0.023304905774356746 0 -0.036324205411219147 -0.02379547087157519 0 -0.031006402233297644 -0.038710737614917598 0 -0.030189811082899143 -0.038136023036801685 0 -0.029500344611498485 -0.038544758353917317 0 -0.036210942665570491 -0.023273310911358012 0 -0.036324205411219147 -0.02379547087157519 0 -0.036445320959646699 -0.02360955212972347 0 -0.030627372067146882 -0.03773637172709509 0 -0.030189811082899143 -0.038136023036801685 0 -0.029597414658952284 -0.037514422514122514 0 -0.030189811082899143 -0.038136023036801685 0 -0.029597414658952284 -0.037514422514122514 0 -0.029500344611498485 -0.038544758353917317 0 -0.029597414658952284 -0.037514422514122514 0 -0.028769692299324714 -0.037732446541647709 0 -0.029500344611498485 -0.038544758353917317 0 -0.028769692299324714 -0.037732446541647709 0 -0.027813349625460445 -0.038368985900377468 0 -0.029500344611498485 -0.038544758353917317 0 -0.028001470489083274 -0.037528326822268011 0 -0.028769692299324714 -0.037732446541647709 0 -0.027813349625460445 -0.038368985900377468 0 -0.033754229203727087 -0.024340248502817671 0 -0.035192557414361884 -0.024661459161933352 0 -0.03384482635908858 -0.026585458313600763 0 -0.033754229203727087 -0.024340248502817671 0 -0.035192557414361884 -0.024661459161933352 0 -0.036324205411219147 -0.02379547087157519 0 -0.035192557414361884 -0.024661459161933352 0 -0.036445320959646699 -0.02360955212972347 0 -0.03384482635908858 -0.026585458313600763 0 -0.030870833085244312 -0.031378307329476676 0 -0.032756347222163078 -0.031537552349582117 0 -0.035192557414361884 -0.024661459161933352 0 -0.036324205411219147 -0.02379547087157519 0 -0.036445320959646699 -0.02360955212972347 0 -0.026654181707883341 -0.037608112010205232 0 -0.02617888259244041 -0.03812937811573635 0 -0.027213093743635546 -0.037748907702904726 0 -0.033754229203727087 -0.024340248502817671 0 -0.030675241375769113 -0.025076708035206893 0 -0.031857211065267663 -0.026026610958229699 0 -0.027813349625460445 -0.038368985900377468 0 -0.02617888259244041 -0.03812937811573635 0 -0.027213093743635546 -0.037748907702904726 0 -0.030870833085244312 -0.031378307329476676 0 -0.028459284056484235 -0.031252096709512504 0 -0.028001470489083274 -0.037528326822268011 0 -0.027813349625460445 -0.038368985900377468 0 -0.027213093743635546 -0.037748907702904726 0 -0.033754229203727087 -0.024340248502817671 0 -0.031857211065267663 -0.026026610958229699 0 -0.03384482635908858 -0.026585458313600763 0 -0.029150395340325288 -0.026957781776436759 0 -0.031857211065267663 -0.026026610958229699 0 -0.030703947925949784 -0.027972961354683162 0 -0.029150395340325288 -0.026957781776436759 0 -0.030675241375769113 -0.025076708035206893 0 -0.031857211065267663 -0.026026610958229699 0 -0.03748124113514404 -0.021163131769811695 0 -0.037374797609588908 -0.021234152626710551 0 -0.037398284486775728 -0.02199663593185143 0 -0.03398710890007281 -0.024607145983764858 0 -0.035490806012863502 -0.024251556742043337 0 -0.031857211065267663 -0.026026610958229699 0 -0.030703947925949784 -0.027972961354683162 0 -0.03384482635908858 -0.026585458313600763 0 -0.03748124113514404 -0.021163131769811695 0 -0.037374797609588908 -0.021234152626710551 0 -0.037425113225091039 -0.020845502841387115 0 -0.037399921879058884 -0.020862370840837481 0 -0.03748124113514404 -0.021163131769811695 0 -0.037425113225091039 -0.020845502841387115 0 -0.036445320959646699 -0.02360955212972347 0 -0.037182313138852847 -0.02178095512750982 0 -0.036714989750515271 -0.022049657428743066 0 -0.036213407286901159 -0.023747534027801956 0 -0.035490806012863502 -0.024251556742043337 0 -0.036445320959646699 -0.02360955212972347 0 -0.037398284486775728 -0.02199663593185143 0 -0.037182313138852847 -0.02178095512750982 0 -0.037374797609588908 -0.021234152626710551 0 -0.037182313138852847 -0.02178095512750982 0 -0.036992399310315095 -0.021054507603175034 0 -0.037374797609588908 -0.021234152626710551 0 -0.037398284486775728 -0.02199663593185143 0 -0.037182313138852847 -0.02178095512750982 0 -0.036521141797597086 -0.021630407186465764 0 -0.036714989750515271 -0.022049657428743066 0 -0.036992399310315095 -0.021054507603175034 0 -0.037182313138852847 -0.02178095512750982 0 -0.036714989750515271 -0.022049657428743066 0 -0.036992399310315095 -0.021054507603175034 0 -0.036521141797597086 -0.021630407186465764 0 -0.036992399310315095 -0.021054507603175034 0 -0.03651306576800406 -0.020873220137625641 0 -0.036992399310315095 -0.021054507603175034 0 -0.036717754898096297 -0.020056261640652266 0 -0.03651306576800406 -0.020873220137625641 0 -0.036992399310315095 -0.021054507603175034 0 -0.037030934286457561 -0.020135287589737982 0 -0.037293793931242991 -0.020567550432625981 0 -0.037374797609588908 -0.021234152626710551 0 -0.036992399310315095 -0.021054507603175034 0 -0.037293793931242991 -0.020567550432625981 0 -0.037030934286457561 -0.020135287589737982 0 -0.037293793931242991 -0.020567550432625981 0 -0.037222337289525592 -0.019906417078911557 0 -0.036992399310315095 -0.021054507603175034 0 -0.037030934286457561 -0.020135287589737982 0 -0.036717754898096297 -0.020056261640652266 0 -0.037425113225091039 -0.020845502841387115 0 -0.037293793931242991 -0.020567550432625981 0 -0.03738030927260394 -0.020384639081377751 0 -0.037385506916310561 -0.020644009948601886 0 -0.037425113225091039 -0.020845502841387115 0 -0.03738030927260394 -0.020384639081377751 0 -0.037374797609588908 -0.021234152626710551 0 -0.037425113225091039 -0.020845502841387115 0 -0.037293793931242991 -0.020567550432625981 0 -0.037293793931242991 -0.020567550432625981 0 -0.03738030927260394 -0.020384639081377751 0 -0.037222337289525592 -0.019906417078911557 0 -0.037322437366450904 -0.019957382829541327 0 -0.03738030927260394 -0.020384639081377751 0 -0.037222337289525592 -0.019906417078911557 0 -0.037322437366450904 -0.019957382829541327 0 -0.037222337289525592 -0.019906417078911557 0 -0.037122005578952899 -0.019153702880686508 0 -0.037322437366450904 -0.019957382829541327 0 -0.037122005578952899 -0.019153702880686508 0 -0.037135653472065981 -0.019126463600388319 0 -0.037030934286457561 -0.020135287589737982 0 -0.036717754898096297 -0.020056261640652266 0 -0.036852452377991049 -0.019152959130753589 0 -0.036717754898096297 -0.020056261640652266 0 -0.036852452377991049 -0.019152959130753589 0 -0.03643001817184225 -0.018988639119887879 0 -0.037222337289525592 -0.019906417078911557 0 -0.037122005578952899 -0.019153702880686508 0 -0.036852452377991049 -0.019152959130753589 0 -0.037030934286457561 -0.020135287589737982 0 -0.037222337289525592 -0.019906417078911557 0 -0.036852452377991049 -0.019152959130753589 0 -0.037122005578952899 -0.019153702880686508 0 -0.036852452377991049 -0.019152959130753589 0 -0.036928610608682418 -0.018350411190813327 0 -0.036852452377991049 -0.019152959130753589 0 -0.036654692889693585 -0.018234222116045147 0 -0.036928610608682418 -0.018350411190813327 0 -0.036852452377991049 -0.019152959130753589 0 -0.03643001817184225 -0.018988639119887879 0 -0.036654692889693585 -0.018234222116045147 0 -0.03643001817184225 -0.018988639119887879 0 -0.036654692889693585 -0.018234222116045147 0 -0.03609823125989 -0.017495799081038568 0 -0.03643001817184225 -0.018988639119887879 0 -0.035780554189979892 -0.018861443577780187 0 -0.03609823125989 -0.017495799081038568 0 -0.03643001817184225 -0.018988639119887879 0 -0.03631668345930765 -0.019877224785990702 0 -0.035780554189979892 -0.018861443577780187 0 -0.036717754898096297 -0.020056261640652266 0 -0.03643001817184225 -0.018988639119887879 0 -0.03631668345930765 -0.019877224785990702 0 -0.036717754898096297 -0.020056261640652266 0 -0.03631668345930765 -0.019877224785990702 0 -0.03651306576800406 -0.020873220137625641 0 -0.03631668345930765 -0.019877224785990702 0 -0.035958604181118466 -0.020344859763759483 0 -0.035780554189979892 -0.018861443577780187 0 -0.03631668345930765 -0.019877224785990702 0 -0.035958604181118466 -0.020344859763759483 0 -0.03651306576800406 -0.020873220137625641 0 -0.035958604181118466 -0.020344859763759483 0 -0.036117910410036244 -0.021648460384236751 0 -0.03651306576800406 -0.020873220137625641 0 -0.035958604181118466 -0.020344859763759483 0 -0.036117910410036244 -0.021648460384236751 0 -0.03522717311779363 -0.019922864418593696 0 -0.036521141797597086 -0.021630407186465764 0 -0.036117910410036244 -0.021648460384236751 0 -0.03651306576800406 -0.020873220137625641 0 -0.034999651027960377 -0.021044946838552243 0 -0.035993603194555857 -0.02049462556332992 0 -0.035000011008584651 -0.018693904762839293 0 -0.034999651027960377 -0.021044946838552243 0 -0.035803812223112727 -0.021752243362372713 0 -0.035993603194555857 -0.02049462556332992 0 -0.036117910410036244 -0.021648460384236751 0 -0.035803812223112727 -0.021752243362372713 0 -0.035993603194555857 -0.02049462556332992 0 -0.036132622198046485 -0.021533609445731541 0 -0.035608944793669606 -0.020228724213843953 0 -0.035958604181118466 -0.020344859763759483 0 -0.03522717311779363 -0.019922864418593696 0 -0.035780554189979892 -0.018861443577780187 0 -0.035608944793669606 -0.020228724213843953 0 -0.035000056375827308 -0.018693862157482633 0 -0.03522717311779363 -0.019922864418593696 0 -0.034998905889019168 -0.018692892058339787 0 -0.035780554189979892 -0.018861443577780187 0 -0.034998905889019168 -0.018692892058339787 0 -0.035780554189979892 -0.018861443577780187 0 -0.035574556625154748 -0.017545205528106012 0 -0.035780554189979892 -0.018861443577780187 0 -0.035574556625154748 -0.017545205528106012 0 -0.03609823125989 -0.017495799081038568 0 -0.034998905889019168 -0.018692892058339787 0 -0.034999661968073158 -0.016764123121828959 0 -0.035574556625154748 -0.017545205528106012 0 -0.034999661968073158 -0.016764123121828959 0 -0.035574556625154748 -0.017545205528106012 0 -0.035489139063756101 -0.016184533183813 0 -0.035574556625154748 -0.017545205528106012 0 -0.035489139063756101 -0.016184533183813 0 -0.03609823125989 -0.017495799081038568 0 -0.035489139063756101 -0.016184533183813 0 -0.03609823125989 -0.017495799081038568 0 -0.035960611795527744 -0.016043229002629993 0 -0.034999661968073158 -0.016764123121828959 0 -0.035489139063756101 -0.016184533183813 0 -0.03499950888989127 -0.014833096680179224 0 -0.036654692889693585 -0.018234222116045147 0 -0.03609823125989 -0.017495799081038568 0 -0.036631696099729993 -0.017089701490062278 0 -0.036654692889693585 -0.018234222116045147 0 -0.036631696099729993 -0.017089701490062278 0 -0.036765434761666327 -0.017783794906386895 0 -0.03609823125989 -0.017495799081038568 0 -0.036631696099729993 -0.017089701490062278 0 -0.035960611795527744 -0.016043229002629993 0 -0.036631696099729993 -0.017089701490062278 0 -0.035960611795527744 -0.016043229002629993 0 -0.036632635888080203 -0.01593254178832796 0 -0.035960611795527744 -0.016043229002629993 0 -0.035860886687715678 -0.015053684595438998 0 -0.036632635888080203 -0.01593254178832796 0 -0.035860886687715678 -0.015053684595438998 0 -0.036632635888080203 -0.01593254178832796 0 -0.036385528428907667 -0.013413834989486915 0 -0.036578724628699613 -0.015993456548804134 0 -0.037002337417580355 -0.015395054527380408 0 -0.035489139063756101 -0.016184533183813 0 -0.03499950888989127 -0.014833096680179224 0 -0.035447009044290927 -0.014753743471803825 0 -0.035489139063756101 -0.016184533183813 0 -0.035960611795527744 -0.016043229002629993 0 -0.035447009044290927 -0.014753743471803825 0 -0.035960611795527744 -0.016043229002629993 0 -0.035860886687715678 -0.015053684595438998 0 -0.035447009044290927 -0.014753743471803825 0 -0.035860886687715678 -0.015053684595438998 0 -0.035447009044290927 -0.014753743471803825 0 -0.035550041806669458 -0.014346189475327169 0 -0.03499950888989127 -0.014833096680179224 0 -0.035447009044290927 -0.014753743471803825 0 -0.034999719694510281 -0.013428011574017693 0 -0.035447009044290927 -0.014753743471803825 0 -0.034999719694510281 -0.013428011574017693 0 -0.035550041806669458 -0.014346189475327169 0 -0.034958343055020526 -0.013476117855377603 0 -0.03578299187212898 -0.013233405362556853 0 -0.034999763528337072 -0.012902224036880626 0 -0.035797552129804337 -0.011558916268880906 0 -0.036164525753019698 -0.012202982595533811 0 -0.035000130614371135 -0.013425178441086372 0 -0.034999763528337072 -0.012902224036880626 0 -0.036164525753019698 -0.012202982595533811 0 -0.034999763528337072 -0.012902224036880626 0 -0.034999815679377336 -0.010972013934499076 0 -0.035797552129804337 -0.011558916268880906 0 -0.035797552129804337 -0.011558916268880906 0 -0.036164525753019698 -0.012202982595533811 0 -0.036438868010843284 -0.011117101362793773 0 -0.034999815679377336 -0.010972013934499076 0 -0.035797552129804337 -0.011558916268880906 0 -0.03620064089972494 -0.010510171687100611 0 -0.035797552129804337 -0.011558916268880906 0 -0.036438868010843284 -0.011117101362793773 0 -0.03620064089972494 -0.010510171687100611 0 -0.035860886687715678 -0.015053684595438998 0 -0.035550041806669458 -0.014346189475327169 0 -0.036385528428907667 -0.013413834989486915 0 -0.03578299187212898 -0.013233405362556853 0 -0.036592834043055911 -0.012377186796638373 0 -0.036164525753019698 -0.012202982595533811 0 -0.036696141610096523 -0.01141106443995518 0 -0.036438868010843284 -0.011117101362793773 0 -0.036632635888080203 -0.01593254178832796 0 -0.036385528428907667 -0.013413834989486915 0 -0.037329409168785563 -0.013412574171722326 0 -0.036696141610096523 -0.01141106443995518 0 -0.036715523230937686 -0.010887619692086707 0 -0.036438868010843284 -0.011117101362793773 0 -0.036696141610096523 -0.01141106443995518 0 -0.036715523230937686 -0.010887619692086707 0 -0.036874549506436149 -0.010919558214089842 0 -0.036438868010843284 -0.011117101362793773 0 -0.036615914552161316 -0.010341547224054013 0 -0.03620064089972494 -0.010510171687100611 0 -0.036715523230937686 -0.010887619692086707 0 -0.036438868010843284 -0.011117101362793773 0 -0.036615914552161316 -0.010341547224054013 0 -0.036715523230937686 -0.010887619692086707 0 -0.036615914552161316 -0.010341547224054013 0 -0.036792219320807985 -0.01048153663711909 0 -0.036615914552161316 -0.010341547224054013 0 -0.036730063059831959 -0.010137372027806461 0 -0.036792219320807985 -0.01048153663711909 0 -0.036615914552161316 -0.010341547224054013 0 -0.036730063059831959 -0.010137372027806461 0 -0.036633480778116047 -0.0098196927210594045 0 -0.036615914552161316 -0.010341547224054013 0 -0.036633480778116047 -0.0098196927210594045 0 -0.036434437328576971 -0.0095509115169134951 0 -0.036730063059831959 -0.010137372027806461 0 -0.036633480778116047 -0.0098196927210594045 0 -0.036691857727905459 -0.0097403648886436687 0 -0.036615914552161316 -0.010341547224054013 0 -0.036434437328576971 -0.0095509115169134951 0 -0.03620064089972494 -0.010510171687100611 0 -0.036434437328576971 -0.0095509115169134951 0 -0.035870398637168177 -0.0094766506059157686 0 -0.03620064089972494 -0.010510171687100611 0 -0.034999815679377336 -0.010972013934499076 0 -0.035870398637168177 -0.0094766506059157686 0 -0.034999673659083665 -0.0090424002179819926 0 -0.035870398637168177 -0.0094766506059157686 0 -0.034999673659083665 -0.0090424002179819926 0 -0.035575248553461891 -0.0084549880031348969 0 -0.034999815679377336 -0.010972013934499076 0 -0.035870398637168177 -0.0094766506059157686 0 -0.03620064089972494 -0.010510171687100611 0 -0.036493203494691782 -0.014298975871923972 0 -0.03696313406426744 -0.014432550841383892 0 -0.035899775749284851 -0.010209821773954632 0 -0.036767709175210404 -0.01045939133184413 0 -0.037265687842638902 -0.010746511997332266 0 -0.0366499095927336 -0.018355609634734635 0 -0.036889618052620067 -0.017882146858266976 0 -0.036660057533482684 -0.018041681687064406 0 -0.035899775749284851 -0.010209821773954632 0 -0.036430245718903576 -0.010343982743320547 0 -0.036767709175210404 -0.01045939133184413 0 -0.036439930192176499 -0.018295409141770851 0 -0.0366499095927336 -0.018355609634734635 0 -0.036660057533482684 -0.018041681687064406 0 -0.036439930192176499 -0.018295409141770851 0 -0.0366499095927336 -0.018355609634734635 0 -0.036329955994516772 -0.018648933244909793 0 -0.035899775749284851 -0.010209821773954632 0 -0.034837441184958094 -0.010713633336018392 0 -0.035339341648902838 -0.010782585704858166 0 -0.036493203494691782 -0.014298975871923972 0 -0.034234646158827348 -0.014491365985822601 0 -0.035899775749284851 -0.010209821773954632 0 -0.036430245718903576 -0.010343982743320547 0 -0.035339341648902838 -0.010782585704858166 0 -0.036430245718903576 -0.010343982743320547 0 -0.036804401691696104 -0.01024566349542675 0 -0.036883956868788571 -0.010458243457692157 0 -0.036691737050617679 -0.010149631828547464 0 -0.036430245718903576 -0.010343982743320547 0 -0.035684194258669401 -0.010814739234683438 0 -0.036691737050617679 -0.010149631828547464 0 -0.036430245718903576 -0.010343982743320547 0 -0.036804401691696104 -0.01024566349542675 0 -0.036691737050617679 -0.010149631828547464 0 -0.036804401691696104 -0.01024566349542675 0 -0.036691857727905459 -0.0097403648886436687 0 -0.036730063059831959 -0.010137372027806461 0 -0.036804401691696104 -0.01024566349542675 0 -0.036691857727905459 -0.0097403648886436687 0 -0.036730063059831959 -0.010137372027806461 0 -0.036804401691696104 -0.01024566349542675 0 -0.036792219320807985 -0.01048153663711909 0 -0.036804401691696104 -0.01024566349542675 0 -0.036792219320807985 -0.01048153663711909 0 -0.036883956868788571 -0.010458243457692157 0 -0.036883956868788571 -0.010458243457692157 0 -0.037053980369481689 -0.010735715008798543 0 -0.036874549506436149 -0.010919558214089842 0 -0.036792219320807985 -0.01048153663711909 0 -0.036883956868788571 -0.010458243457692157 0 -0.036874549506436149 -0.010919558214089842 0 -0.036715523230937686 -0.010887619692086707 0 -0.036792219320807985 -0.01048153663711909 0 -0.036874549506436149 -0.010919558214089842 0 -0.036430245718903576 -0.010343982743320547 0 -0.036883956868788571 -0.010458243457692157 0 -0.036767709175210404 -0.01045939133184413 0 -0.036883956868788571 -0.010458243457692157 0 -0.036767709175210404 -0.01045939133184413 0 -0.037053980369481689 -0.010735715008798543 0 -0.037265687842638902 -0.010746511997332266 0 -0.037132725034763989 -0.011456964242578931 0 -0.037329409168785563 -0.013412574171722326 0 -0.036767709175210404 -0.01045939133184413 0 -0.037265687842638902 -0.010746511997332266 0 -0.037053980369481689 -0.010735715008798543 0 -0.037265687842638902 -0.010746511997332266 0 -0.037053980369481689 -0.010735715008798543 0 -0.037132725034763989 -0.011456964242578931 0 -0.036696141610096523 -0.01141106443995518 0 -0.037132725034763989 -0.011456964242578931 0 -0.036874549506436149 -0.010919558214089842 0 -0.036592834043055911 -0.012377186796638373 0 -0.037220044949091521 -0.011560547027965372 0 -0.037053980369481689 -0.010735715008798543 0 -0.037132725034763989 -0.011456964242578931 0 -0.036874549506436149 -0.010919558214089842 0 -0.036385528428907667 -0.013413834989486915 0 -0.037132725034763989 -0.011456964242578931 0 -0.037329409168785563 -0.013412574171722326 0 -0.036889618052620067 -0.017882146858266976 0 -0.036913183116311081 -0.017315273952123043 0 -0.036821940327974652 -0.017545738052944394 0 -0.03696313406426744 -0.014432550841383892 0 -0.037002337417580355 -0.015395054527380408 0 -0.036913183116311081 -0.017315273952123043 0 -0.036821940327974652 -0.017545738052944394 0 -0.03683210862907102 -0.01728648253868189 0 -0.036735874736755249 -0.017748393774416674 0 -0.036671830944651075 -0.017737176440975271 0 -0.036774932302674354 -0.017587503886432727 0 -0.036889618052620067 -0.017882146858266976 0 -0.036821940327974652 -0.017545738052944394 0 -0.036735874736755249 -0.017748393774416674 0 -0.036821940327974652 -0.017545738052944394 0 -0.036735874736755249 -0.017748393774416674 0 -0.036774932302674354 -0.017587503886432727 0 -0.036889618052620067 -0.017882146858266976 0 -0.036735874736755249 -0.017748393774416674 0 -0.036660057533482684 -0.018041681687064406 0 -0.036735874736755249 -0.017748393774416674 0 -0.036660057533482684 -0.018041681687064406 0 -0.036563873206126536 -0.017962398395541066 0 -0.036439930192176499 -0.018295409141770851 0 -0.036660057533482684 -0.018041681687064406 0 -0.036563873206126536 -0.017962398395541066 0 -0.036439930192176499 -0.018295409141770851 0 -0.036563873206126536 -0.017962398395541066 0 -0.036311844128059351 -0.018184865686247689 0 -0.036735874736755249 -0.017748393774416674 0 -0.036563873206126536 -0.017962398395541066 0 -0.036671830944651075 -0.017737176440975271 0 -0.036563873206126536 -0.017962398395541066 0 -0.036671830944651075 -0.017737176440975271 0 -0.036365668058624442 -0.017885549818873879 0 -0.036671830944651075 -0.017737176440975271 0 -0.036788152982730936 -0.017973589826391394 0 -0.036623253029985356 -0.01770947980816073 0 -0.036671830944651075 -0.017737176440975271 0 -0.036774932302674354 -0.017587503886432727 0 -0.036788152982730936 -0.017973589826391394 0 -0.036774932302674354 -0.017587503886432727 0 -0.036837892333096596 -0.01779066449499947 0 -0.036788152982730936 -0.017973589826391394 0 -0.036837892333096596 -0.01779066449499947 0 -0.036939839434818877 -0.018347666093654996 0 -0.036918059355512525 -0.018035540945996811 0 -0.036837892333096596 -0.01779066449499947 0 -0.036788152982730936 -0.017973589826391394 0 -0.036939839434818877 -0.018347666093654996 0 -0.036788152982730936 -0.017973589826391394 0 -0.036939839434818877 -0.018347666093654996 0 -0.03703320211669802 -0.018709865041171819 0 -0.036632635888080203 -0.01593254178832796 0 -0.03683210862907102 -0.01728648253868189 0 -0.036859143366388986 -0.017247120189939149 0 -0.036632635888080203 -0.01593254178832796 0 -0.036913183116311081 -0.017315273952123043 0 -0.03683210862907102 -0.01728648253868189 0 -0.036774932302674354 -0.017587503886432727 0 -0.03683210862907102 -0.01728648253868189 0 -0.036859143366388986 -0.017247120189939149 0 -0.036774932302674354 -0.017587503886432727 0 -0.036837892333096596 -0.01779066449499947 0 -0.036859143366388986 -0.017247120189939149 0 -0.036821940327974652 -0.017545738052944394 0 -0.036774932302674354 -0.017587503886432727 0 -0.03683210862907102 -0.01728648253868189 0 -0.036837892333096596 -0.01779066449499947 0 -0.036859143366388986 -0.017247120189939149 0 -0.036918059355512525 -0.018035540945996811 0 -0.036859143366388986 -0.017247120189939149 0 -0.036852626909777295 -0.017680829229769018 0 -0.036918059355512525 -0.018035540945996811 0 -0.036631696099729993 -0.017089701490062278 0 -0.036859143366388986 -0.017247120189939149 0 -0.036852626909777295 -0.017680829229769018 0 -0.036631696099729993 -0.017089701490062278 0 -0.036632635888080203 -0.01593254178832796 0 -0.036859143366388986 -0.017247120189939149 0 -0.036631696099729993 -0.017089701490062278 0 -0.036765434761666327 -0.017783794906386895 0 -0.036852626909777295 -0.017680829229769018 0 -0.036765434761666327 -0.017783794906386895 0 -0.036852626909777295 -0.017680829229769018 0 -0.036928610608682418 -0.018350411190813327 0 -0.036852626909777295 -0.017680829229769018 0 -0.036928610608682418 -0.018350411190813327 0 -0.036918059355512525 -0.018035540945996811 0 -0.036654692889693585 -0.018234222116045147 0 -0.036765434761666327 -0.017783794906386895 0 -0.036928610608682418 -0.018350411190813327 0 -0.036939839434818877 -0.018347666093654996 0 -0.037135653472065981 -0.019126463600388319 0 -0.03703320211669802 -0.018709865041171819 0 -0.036939839434818877 -0.018347666093654996 0 -0.036918059355512525 -0.018035540945996811 0 -0.037025787730435099 -0.018630336198472323 0 -0.036928610608682418 -0.018350411190813327 0 -0.036918059355512525 -0.018035540945996811 0 -0.037025787730435099 -0.018630336198472323 0 -0.037122005578952899 -0.019153702880686508 0 -0.036928610608682418 -0.018350411190813327 0 -0.037025787730435099 -0.018630336198472323 0 -0.037122005578952899 -0.019153702880686508 0 -0.037025787730435099 -0.018630336198472323 0 -0.037135653472065981 -0.019126463600388319 0 -0.036939839434818877 -0.018347666093654996 0 -0.037025787730435099 -0.018630336198472323 0 -0.037135653472065981 -0.019126463600388319 0 -0.037135653472065981 -0.019126463600388319 0 -0.03703320211669802 -0.018709865041171819 0 -0.037222796771727025 -0.019347382449271835 0 -0.037265502138494402 -0.019670566939428005 0 -0.037135653472065981 -0.019126463600388319 0 -0.037222796771727025 -0.019347382449271835 0 -0.03703320211669802 -0.018709865041171819 0 -0.037281007826874921 -0.018997130160885049 0 -0.03697226210116171 -0.018366327472797955 0 -0.03703320211669802 -0.018709865041171819 0 -0.037281007826874921 -0.018997130160885049 0 -0.037222796771727025 -0.019347382449271835 0 -0.037281007826874921 -0.018997130160885049 0 -0.037222796771727025 -0.019347382449271835 0 -0.037338008332098854 -0.019620009088760479 0 -0.037265502138494402 -0.019670566939428005 0 -0.037317923989508138 -0.019997490482549413 0 -0.037222796771727025 -0.019347382449271835 0 -0.037317923989508138 -0.019997490482549413 0 -0.037222796771727025 -0.019347382449271835 0 -0.037338008332098854 -0.019620009088760479 0 -0.037317923989508138 -0.019997490482549413 0 -0.037347288424432967 -0.020153611001282469 0 -0.037338008332098854 -0.019620009088760479 0 -0.037444489418417166 -0.019832044802587625 0 -0.037338008332098854 -0.019620009088760479 0 -0.037439934721620105 -0.019406598778432534 0 -0.037347288424432967 -0.020153611001282469 0 -0.037444489418417166 -0.019832044802587625 0 -0.037338008332098854 -0.019620009088760479 0 -0.037028013534114904 -0.021046693306416508 0 -0.037409304661057352 -0.020524395062966494 0 -0.037933458686354872 -0.019944219877889545 0 -0.037409304661057352 -0.020524395062966494 0 -0.037539583777430496 -0.020233727119048115 0 -0.037933458686354872 -0.019944219877889545 0 -0.037233192038277185 -0.020750206745742888 0 -0.037409304661057352 -0.020524395062966494 0 -0.037382801719461116 -0.020366929505360662 0 -0.037409304661057352 -0.020524395062966494 0 -0.037539583777430496 -0.020233727119048115 0 -0.037382801719461116 -0.020366929505360662 0 -0.037539583777430496 -0.020233727119048115 0 -0.037382801719461116 -0.020366929505360662 0 -0.037555385452060094 -0.020005880616606273 0 -0.037347288424432967 -0.020153611001282469 0 -0.037444489418417166 -0.019832044802587625 0 -0.037382801719461116 -0.020366929505360662 0 -0.037311973156360534 -0.020467246392187499 0 -0.037347288424432967 -0.020153611001282469 0 -0.037382801719461116 -0.020366929505360662 0 -0.037444489418417166 -0.019832044802587625 0 -0.03757940341642535 -0.019764726145035775 0 -0.037570206410196802 -0.019506270271881097 0 -0.037444489418417166 -0.019832044802587625 0 -0.03757940341642535 -0.019764726145035775 0 -0.037555385452060094 -0.020005880616606273 0 -0.037444489418417166 -0.019832044802587625 0 -0.037382801719461116 -0.020366929505360662 0 -0.037555385452060094 -0.020005880616606273 0 -0.037539583777430496 -0.020233727119048115 0 -0.037555385452060094 -0.020005880616606273 0 -0.037933458686354872 -0.019944219877889545 0 -0.03757940341642535 -0.019764726145035775 0 -0.037555385452060094 -0.020005880616606273 0 -0.037796645672359325 -0.019689553410651678 0 -0.036312212531257847 -0.022886661072296151 0 -0.034728120090023351 -0.019361467295131898 0 -0.037555385452060094 -0.020005880616606273 0 -0.03785086920447607 -0.019938125344237931 0 -0.037796645672359325 -0.019689553410651678 0 -0.037720611927440487 -0.02162567318743502 0 -0.036312212531257847 -0.022886661072296151 0 -0.035068881423658563 -0.016715637873875078 0 -0.035417555335056049 -0.016922298432298692 0 -0.035150546823779209 -0.017008575248054186 0 -0.034728120090023351 -0.019361467295131898 0 -0.032934470057037986 -0.01750846763877183 0 -0.034728120090023351 -0.019361467295131898 0 -0.036669670971543986 -0.017936110509512399 0 -0.030914717741905802 -0.018630423475730101 0 -0.030796406342870109 -0.018214878860490311 0 -0.031120817758213872 -0.01847320317212774 0 -0.037796645672359325 -0.019689553410651678 0 -0.037570206410196802 -0.019506270271881097 0 -0.037557178970388037 -0.019067088736217975 0 -0.03757940341642535 -0.019764726145035775 0 -0.037796645672359325 -0.019689553410651678 0 -0.037570206410196802 -0.019506270271881097 0 -0.037281007826874921 -0.018997130160885049 0 -0.037439934721620105 -0.019406598778432534 0 -0.037557178970388037 -0.019067088736217975 0 -0.037281007826874921 -0.018997130160885049 0 -0.037338008332098854 -0.019620009088760479 0 -0.037439934721620105 -0.019406598778432534 0 -0.037444489418417166 -0.019832044802587625 0 -0.037570206410196802 -0.019506270271881097 0 -0.037439934721620105 -0.019406598778432534 0 -0.037570206410196802 -0.019506270271881097 0 -0.037439934721620105 -0.019406598778432534 0 -0.037557178970388037 -0.019067088736217975 0 -0.035417555335056049 -0.016922298432298692 0 -0.035330584100012878 -0.017152135543984447 0 -0.035549017077564304 -0.01730435783715473 0 -0.035417555335056049 -0.016922298432298692 0 -0.035549017077564304 -0.01730435783715473 0 -0.035877401428172417 -0.017171468522380037 0 -0.037281007826874921 -0.018997130160885049 0 -0.037557178970388037 -0.019067088736217975 0 -0.03733276633833623 -0.018343037711847542 0 -0.036669670971543986 -0.017936110509512399 0 -0.036553688849070835 -0.017762799035152523 0 -0.030796406342870109 -0.018214878860490311 0 -0.030701908930023315 -0.017769930288271819 0 -0.031168859268636249 -0.018191070090498668 0 -0.035150546823779209 -0.017008575248054186 0 -0.035330584100012878 -0.017152135543984447 0 -0.035213422395958177 -0.017388675649136372 0 -0.032137899156517394 -0.016328718563950094 0 -0.030079937516047803 -0.013720441557831867 0 -0.032934470057037986 -0.01750846763877183 0 -0.032137899156517394 -0.016328718563950094 0 -0.035417555335056049 -0.016922298432298692 0 -0.035150546823779209 -0.017008575248054186 0 -0.035330584100012878 -0.017152135543984447 0 -0.031336708284029589 -0.01312896268304996 0 -0.029814835756534094 -0.013430128689331472 0 -0.030674251725533837 -0.014316446018532167 0 -0.035330584100012878 -0.017152135543984447 0 -0.035213422395958177 -0.017388675649136372 0 -0.035549017077564304 -0.01730435783715473 0 -0.035213422395958177 -0.017388675649136372 0 -0.035549017077564304 -0.01730435783715473 0 -0.0355752506736551 -0.017680387369953813 0 -0.032137899156517394 -0.016328718563950094 0 -0.03488486202060203 -0.017669704212443023 0 -0.032379772976033235 -0.016679152419163987 0 -0.033236798808931496 -0.01728600627388752 0 -0.033485607924673227 -0.017279744611119779 0 -0.035549017077564304 -0.01730435783715473 0 -0.035922008827563252 -0.017637595171609673 0 -0.0355752506736551 -0.017680387369953813 0 -0.036630366013168762 -0.017722530847172957 0 -0.036553688849070835 -0.017762799035152523 0 -0.035922008827563252 -0.017637595171609673 0 -0.036623253029985356 -0.01770947980816073 0 -0.035877401428172417 -0.017171468522380037 0 -0.035549017077564304 -0.01730435783715473 0 -0.035922008827563252 -0.017637595171609673 0 -0.035877401428172417 -0.017171468522380037 0 -0.036788152982730936 -0.017973589826391394 0 -0.036623253029985356 -0.01770947980816073 0 -0.03697226210116171 -0.018366327472797955 0 -0.036623253029985356 -0.01770947980816073 0 -0.03697226210116171 -0.018366327472797955 0 -0.03733276633833623 -0.018343037711847542 0 -0.036788152982730936 -0.017973589826391394 0 -0.03703320211669802 -0.018709865041171819 0 -0.03697226210116171 -0.018366327472797955 0 -0.037281007826874921 -0.018997130160885049 0 -0.03697226210116171 -0.018366327472797955 0 -0.03733276633833623 -0.018343037711847542 0 -0.018550742892860142 -0.026987945714955067 0 -0.019252487407738193 -0.025193330605534268 0 -0.021334634642598507 -0.026387026423099837 0 -0.019252487407738193 -0.025193330605534268 0 -0.018003966789419408 -0.025269741634503129 0 -0.017761050273451991 -0.024340732538040973 0 -0.018550742892860142 -0.026987945714955067 0 -0.019252487407738193 -0.025193330605534268 0 -0.018003966789419408 -0.025269741634503129 0 -0.025417076151367658 -0.027430189822069163 0 -0.029289369624489005 -0.026894962295043998 0 -0.029869438901047929 -0.030792894610565433 0 -0.022423668218897522 -0.027217230082658913 0 -0.027526681163203819 -0.021670955846233894 0 -0.021016537138406472 -0.018496887695790391 0 -0.027526681163203819 -0.021670955846233894 0 -0.024749363805049024 -0.010837049129673071 0 -0.027334588679029149 -0.010218356583222595 0 -0.02608955758963321 -0.012154975219102538 0 -0.027526681163203819 -0.021670955846233894 0 -0.035111511528026468 -0.023663559649072585 0 -0.031571702404249044 -0.018584778046967711 0 -0.031120817758213872 -0.01847320317212774 0 -0.031168859268636249 -0.018191070090498668 0 -0.027526681163203819 -0.021670955846233894 0 -0.030079937516047803 -0.013720441557831867 0 -0.029869438901047929 -0.030792894610565433 0 -0.033127230584360387 -0.028054555177685535 0 -0.036863930520120144 -0.029166942946491217 0 -0.029289369624489005 -0.026894962295043998 0 -0.029869438901047929 -0.030792894610565433 0 -0.033127230584360387 -0.028054555177685535 0 -0.03174820476345095 -0.024764939395612352 0 -0.029289369624489005 -0.026894962295043998 0 -0.033127230584360387 -0.028054555177685535 0 -0.034778584418345367 -0.025748128407860151 0 -0.03174820476345095 -0.024764939395612352 0 -0.033127230584360387 -0.028054555177685535 0 -0.033127230584360387 -0.028054555177685535 0 -0.036231012790591655 -0.028665343983056247 0 -0.036863930520120144 -0.029166942946491217 0 -0.034778584418345367 -0.025748128407860151 0 -0.035524184577964905 -0.024169781050881248 0 -0.038041124913841602 -0.028965193148554138 0 -0.034778584418345367 -0.025748128407860151 0 -0.033127230584360387 -0.028054555177685535 0 -0.036231012790591655 -0.028665343983056247 0 -0.034778584418345367 -0.025748128407860151 0 -0.038041124913841602 -0.028965193148554138 0 -0.036231012790591655 -0.028665343983056247 0 -0.036006010438527823 -0.024764715478896845 0 -0.035111511528026468 -0.023663559649072585 0 -0.034728120090023351 -0.019361467295131898 0 -0.035111511528026468 -0.023663559649072585 0 -0.036312212531257847 -0.022886661072296151 0 -0.035111511528026468 -0.023663559649072585 0 -0.035369998624283631 -0.022634976505204213 0 -0.035081583602475236 -0.021511009089043111 0 -0.036222228756976844 -0.022413764103041935 0 -0.038041124913841602 -0.028965193148554138 0 -0.036231012790591655 -0.028665343983056247 0 -0.036910491059532084 -0.029221196418546504 0 -0.031571702404249044 -0.018584778046967711 0 -0.03104077138647824 -0.018726459455862054 0 -0.031120817758213872 -0.01847320317212774 0 -0.030914717741905802 -0.018630423475730101 0 -0.03104077138647824 -0.018726459455862054 0 -0.031120817758213872 -0.01847320317212774 0 -0.027334588679029149 -0.010218356583222595 0 -0.029447481793309527 -0.011667326993927165 0 -0.028011932119332155 -0.01305247247983948 0 -0.030796406342870109 -0.018214878860490311 0 -0.031120817758213872 -0.01847320317212774 0 -0.031168859268636249 -0.018191070090498668 0 -0.031336708284029589 -0.01312896268304996 0 -0.029447481793309527 -0.011667326993927165 0 -0.029814835756534094 -0.013430128689331472 0 -0.029447481793309527 -0.011667326993927165 0 -0.029814835756534094 -0.013430128689331472 0 -0.028011932119332155 -0.01305247247983948 0 -0.029814835756534094 -0.013430128689331472 0 -0.028011932119332155 -0.01305247247983948 0 -0.029548221621954609 -0.014909574830498021 0 -0.027334588679029149 -0.010218356583222595 0 -0.028011932119332155 -0.01305247247983948 0 -0.02608955758963321 -0.012154975219102538 0 -0.028011932119332155 -0.01305247247983948 0 -0.02608955758963321 -0.012154975219102538 0 -0.025903219971331982 -0.013876430739560552 0 -0.02608955758963321 -0.012154975219102538 0 -0.025903219971331982 -0.013876430739560552 0 -0.024421146366802475 -0.012781846817362403 0 -0.025903219971331982 -0.013876430739560552 0 -0.023837335945280334 -0.014518271411578019 0 -0.024421146366802475 -0.012781846817362403 0 -0.024749363805049024 -0.010837049129673071 0 -0.02608955758963321 -0.012154975219102538 0 -0.024421146366802475 -0.012781846817362403 0 -0.025903219971331982 -0.013876430739560552 0 -0.027593952365183347 -0.015283662489368979 0 -0.024399562980767252 -0.017082836041796251 0 -0.025903219971331982 -0.013876430739560552 0 -0.024399562980767252 -0.017082836041796251 0 -0.023837335945280334 -0.014518271411578019 0 -0.028011932119332155 -0.01305247247983948 0 -0.025903219971331982 -0.013876430739560552 0 -0.027593952365183347 -0.015283662489368979 0 -0.027593952365183347 -0.015283662489368979 0 -0.026899441330380146 -0.017045851231671971 0 -0.024399562980767252 -0.017082836041796251 0 -0.027593952365183347 -0.015283662489368979 0 -0.028933454332031597 -0.016701490987013418 0 -0.026899441330380146 -0.017045851231671971 0 -0.027593952365183347 -0.015283662489368979 0 -0.029548221621954609 -0.014909574830498021 0 -0.028933454332031597 -0.016701490987013418 0 -0.028011932119332155 -0.01305247247983948 0 -0.027593952365183347 -0.015283662489368979 0 -0.029548221621954609 -0.014909574830498021 0 -0.029814835756534094 -0.013430128689331472 0 -0.029548221621954609 -0.014909574830498021 0 -0.030674251725533837 -0.014316446018532167 0 -0.029548221621954609 -0.014909574830498021 0 -0.030674251725533837 -0.014316446018532167 0 -0.030742528056343314 -0.015183357746907397 0 -0.029548221621954609 -0.014909574830498021 0 -0.030742528056343314 -0.015183357746907397 0 -0.030819388716089864 -0.016280805682545921 0 -0.029548221621954609 -0.014909574830498021 0 -0.028933454332031597 -0.016701490987013418 0 -0.030819388716089864 -0.016280805682545921 0 -0.030497720665704834 -0.017560578609858973 0 -0.028984095201077118 -0.017971476982490391 0 -0.028933454332031597 -0.016701490987013418 0 -0.030497720665704834 -0.017560578609858973 0 -0.028933454332031597 -0.016701490987013418 0 -0.030819388716089864 -0.016280805682545921 0 -0.030497720665704834 -0.017560578609858973 0 -0.028984095201077118 -0.017971476982490391 0 -0.029140812916136009 -0.01891721093534092 0 -0.028984095201077118 -0.017971476982490391 0 -0.027508570995582869 -0.018122888290020435 0 -0.027843915041344515 -0.019062190640714377 0 -0.028984095201077118 -0.017971476982490391 0 -0.027843915041344515 -0.019062190640714377 0 -0.029140812916136009 -0.01891721093534092 0 -0.028984095201077118 -0.017971476982490391 0 -0.028933454332031597 -0.016701490987013418 0 -0.027508570995582869 -0.018122888290020435 0 -0.028933454332031597 -0.016701490987013418 0 -0.026899441330380146 -0.017045851231671971 0 -0.027508570995582869 -0.018122888290020435 0 -0.026899441330380146 -0.017045851231671971 0 -0.027508570995582869 -0.018122888290020435 0 -0.025936323288659347 -0.018052555353371601 0 -0.027508570995582869 -0.018122888290020435 0 -0.02626310428079168 -0.019105710387371064 0 -0.027843915041344515 -0.019062190640714377 0 -0.027508570995582869 -0.018122888290020435 0 -0.02626310428079168 -0.019105710387371064 0 -0.025936323288659347 -0.018052555353371601 0 -0.02626310428079168 -0.019105710387371064 0 -0.025936323288659347 -0.018052555353371601 0 -0.024429181992081474 -0.018880129007506075 0 -0.02626310428079168 -0.019105710387371064 0 -0.02480139648490233 -0.020046688064752238 0 -0.024429181992081474 -0.018880129007506075 0 -0.024399562980767252 -0.017082836041796251 0 -0.025936323288659347 -0.018052555353371601 0 -0.024429181992081474 -0.018880129007506075 0 -0.026899441330380146 -0.017045851231671971 0 -0.024399562980767252 -0.017082836041796251 0 -0.025936323288659347 -0.018052555353371601 0 -0.036065612841601841 -0.018248254213391615 0 -0.035629270755468248 -0.018428186829992716 0 -0.036158890611349914 -0.018446625995087822 0 -0.033896225665615377 -0.018020164013991636 0 -0.033938795264225399 -0.018713757472005075 0 -0.036065612841601841 -0.018248254213391615 0 -0.035629270755468248 -0.018428186829992716 0 -0.035792040255916459 -0.017855190182604185 0 -0.036065612841601841 -0.018248254213391615 0 -0.036311844128059351 -0.018184865686247689 0 -0.036158890611349914 -0.018446625995087822 0 -0.036563873206126536 -0.017962398395541066 0 -0.036311844128059351 -0.018184865686247689 0 -0.036365668058624442 -0.017885549818873879 0 -0.036065612841601841 -0.018248254213391615 0 -0.036311844128059351 -0.018184865686247689 0 -0.036365668058624442 -0.017885549818873879 0 -0.036671830944651075 -0.017737176440975271 0 -0.036623253029985356 -0.01770947980816073 0 -0.036365668058624442 -0.017885549818873879 0 -0.035922008827563252 -0.017637595171609673 0 -0.036623253029985356 -0.01770947980816073 0 -0.036365668058624442 -0.017885549818873879 0 -0.035922008827563252 -0.017637595171609673 0 -0.036365668058624442 -0.017885549818873879 0 -0.035792040255916459 -0.017855190182604185 0 -0.035629270755468248 -0.018428186829992716 0 -0.035792040255916459 -0.017855190182604185 0 -0.033485607924673227 -0.017279744611119779 0 -0.036065612841601841 -0.018248254213391615 0 -0.036365668058624442 -0.017885549818873879 0 -0.035792040255916459 -0.017855190182604185 0 -0.035556546620349808 -0.017870113624401981 0 -0.03488486202060203 -0.017669704212443023 0 -0.035922008827563252 -0.017637595171609673 0 -0.035792040255916459 -0.017855190182604185 0 -0.0355752506736551 -0.017680387369953813 0 -0.032379772976033235 -0.016679152419163987 0 -0.033236798808931496 -0.01728600627388752 0 -0.032741496160729223 -0.017900525463299132 0 -0.033236798808931496 -0.01728600627388752 0 -0.035629270755468248 -0.018428186829992716 0 -0.033485607924673227 -0.017279744611119779 0 -0.033280750800077009 -0.017266204139571282 0 -0.033896225665615377 -0.018020164013991636 0 -0.033236798808931496 -0.01728600627388752 0 -0.032474162119279032 -0.018088812664727987 0 -0.032741496160729223 -0.017900525463299132 0 -0.032137899156517394 -0.016328718563950094 0 -0.032146785647871295 -0.016151712552377646 0 -0.031336708284029589 -0.01312896268304996 0 -0.031734878098465286 -0.015035858576550105 0 -0.030674251725533837 -0.014316446018532167 0 -0.031734878098465286 -0.015035858576550105 0 -0.030674251725533837 -0.014316446018532167 0 -0.030742528056343314 -0.015183357746907397 0 -0.031734878098465286 -0.015035858576550105 0 -0.030742528056343314 -0.015183357746907397 0 -0.030819388716089864 -0.016280805682545921 0 -0.031734878098465286 -0.015035858576550105 0 -0.030819388716089864 -0.016280805682545921 0 -0.032047093956421614 -0.016633166133334838 0 -0.032146785647871295 -0.016151712552377646 0 -0.0322557093113486 -0.017340166930314649 0 -0.032474162119279032 -0.018088812664727987 0 -0.032741496160729223 -0.017900525463299132 0 -0.032450221031811104 -0.017932186061761529 0 -0.030819388716089864 -0.016280805682545921 0 -0.032047093956421614 -0.016633166133334838 0 -0.031654611714290265 -0.017279404322542626 0 -0.030497720665704834 -0.017560578609858973 0 -0.030819388716089864 -0.016280805682545921 0 -0.031654611714290265 -0.017279404322542626 0 -0.030497720665704834 -0.017560578609858973 0 -0.031654611714290265 -0.017279404322542626 0 -0.032147196847864809 -0.01781446900296792 0 -0.0322557093113486 -0.017340166930314649 0 -0.032081209713587432 -0.017351049876905302 0 -0.032047093956421614 -0.016633166133334838 0 -0.031654611714290265 -0.017279404322542626 0 -0.032038331933101405 -0.017383983264994646 0 -0.031654611714290265 -0.017279404322542626 0 -0.032038331933101405 -0.017383983264994646 0 -0.032147196847864809 -0.01781446900296792 0 -0.032038331933101405 -0.017383983264994646 0 -0.031590483256225044 -0.017855426296558639 0 -0.030719121326708142 -0.01706243036468285 0 -0.032474162119279032 -0.018088812664727987 0 -0.032450221031811104 -0.017932186061761529 0 -0.031590483256225044 -0.017855426296558639 0 -0.032450221031811104 -0.017932186061761529 0 -0.032038331933101405 -0.017383983264994646 0 -0.031590483256225044 -0.017855426296558639 0 -0.036439930192176499 -0.018295409141770851 0 -0.036158890611349914 -0.018446625995087822 0 -0.036329955994516772 -0.018648933244909793 0 -0.036439930192176499 -0.018295409141770851 0 -0.036311844128059351 -0.018184865686247689 0 -0.036158890611349914 -0.018446625995087822 0 -0.033938795264225399 -0.018713757472005075 0 -0.034234646158827348 -0.014491365985822601 0 -0.034234646158827348 -0.014491365985822601 0 -0.031992209667617851 -0.014028476710461323 0 -0.033704759474542559 -0.011402291976092998 0 -0.033394911575945804 -0.011751096369931 0 -0.03390078201911885 -0.011626271637758772 0 -0.033394911575945804 -0.011751096369931 0 -0.033725044358193339 -0.011850014246568273 0 -0.03390078201911885 -0.011626271637758772 0 -0.033394911575945804 -0.011751096369931 0 -0.033725044358193339 -0.011850014246568273 0 -0.033375243690126954 -0.01234850396006254 0 -0.031992209667617851 -0.014028476710461323 0 -0.032936402175279135 -0.013257313538587697 0 -0.033394911575945804 -0.011751096369931 0 -0.032818589552208309 -0.013325238510009848 0 -0.033375243690126954 -0.01234850396006254 0 -0.032038331933101405 -0.017383983264994646 0 -0.031041628493250355 -0.016235795245015342 0 -0.032257356514802889 -0.016026991782853262 0 -0.032038331933101405 -0.017383983264994646 0 -0.030719121326708142 -0.01706243036468285 0 -0.031041628493250355 -0.016235795245015342 0 -0.032038331933101405 -0.017383983264994646 0 -0.032147196847864809 -0.01781446900296792 0 -0.032257356514802889 -0.016026991782853262 0 -0.032537396865091439 -0.018621377949343133 0 -0.032379068847057171 -0.014348204809394732 0 -0.032147196847864809 -0.01781446900296792 0 -0.030382075831176084 -0.018839005065042852 0 -0.030619510812363502 -0.020183358911211761 0 -0.032147196847864809 -0.01781446900296792 0 -0.032399457298042451 -0.020668579747073427 0 -0.030619510812363502 -0.020183358911211761 0 -0.031041628493250355 -0.016235795245015342 0 -0.032257356514802889 -0.016026991782853262 0 -0.032818589552208309 -0.013325238510009848 0 -0.032257356514802889 -0.016026991782853262 0 -0.032818589552208309 -0.013325238510009848 0 -0.033643715030612663 -0.01304437766754483 0 -0.032147196847864809 -0.01781446900296792 0 -0.032257356514802889 -0.016026991782853262 0 -0.033643715030612663 -0.01304437766754483 0 -0.032818589552208309 -0.013325238510009848 0 -0.033643715030612663 -0.01304437766754483 0 -0.033333061247041468 -0.012363195692720317 0 -0.032379068847057171 -0.014348204809394732 0 -0.031562019703259017 -0.014861393847896351 0 -0.032399457298042451 -0.020668579747073427 0 -0.030619510812363502 -0.020183358911211761 0 -0.030555422398165406 -0.021592358251183618 0 -0.032972960384253382 -0.0079073900656975813 0 -0.032776535187104577 -0.0085890077232662621 0 -0.032256428585195673 -0.0084480451840559193 0 -0.032776535187104577 -0.0085890077232662621 0 -0.032256428585195673 -0.0084480451840559193 0 -0.032500800428899204 -0.0091599976965343888 0 -0.033643715030612663 -0.01304437766754483 0 -0.033333061247041468 -0.012363195692720317 0 -0.033940868902722438 -0.011475813639971017 0 -0.032972960384253382 -0.0079073900656975813 0 -0.032776535187104577 -0.0085890077232662621 0 -0.033377089302438087 -0.0088485380462880615 0 -0.032379068847057171 -0.014348204809394732 0 -0.033652626791921963 -0.0092941522914368434 0 -0.033547487311300465 -0.011888794437753199 0 -0.033333061247041468 -0.012363195692720317 0 -0.033592472669692439 -0.011435017114478729 0 -0.033333061247041468 -0.012363195692720317 0 -0.033592472669692439 -0.011435017114478729 0 -0.033940868902722438 -0.011475813639971017 0 -0.033656580797486506 -0.011540681125356627 0 -0.033547487311300465 -0.011888794437753199 0 -0.033592472669692439 -0.011435017114478729 0 -0.033656580797486506 -0.011540681125356627 0 -0.033592472669692439 -0.011435017114478729 0 -0.033660080171778059 -0.011233629393502928 0 -0.033656580797486506 -0.011540681125356627 0 -0.033547487311300465 -0.011888794437753199 0 -0.033796243009176163 -0.011661452438360923 0 -0.033547487311300465 -0.011888794437753199 0 -0.033725044358193339 -0.011850014246568273 0 -0.033375243690126954 -0.01234850396006254 0 -0.033547487311300465 -0.011888794437753199 0 -0.033725044358193339 -0.011850014246568273 0 -0.033796243009176163 -0.011661452438360923 0 -0.033547487311300465 -0.011888794437753199 0 -0.033375243690126954 -0.01234850396006254 0 -0.033333061247041468 -0.012363195692720317 0 -0.032818589552208309 -0.013325238510009848 0 -0.033375243690126954 -0.01234850396006254 0 -0.033333061247041468 -0.012363195692720317 0 -0.027722393241893489 -0.020198574108434061 0 -0.028065046309302327 -0.020479944551195707 0 -0.027813973622067931 -0.020744206243563972 0 -0.025712167892380546 -0.021687075149861564 0 -0.02480139648490233 -0.020046688064752238 0 -0.026818736625639682 -0.020220704254537879 0 -0.02626310428079168 -0.019105710387371064 0 -0.02480139648490233 -0.020046688064752238 0 -0.026818736625639682 -0.020220704254537879 0 -0.025349520507501288 -0.016486347116800196 0 -0.025541487702365012 -0.02011420421233533 0 -0.02626310428079168 -0.019105710387371064 0 -0.026818736625639682 -0.020220704254537879 0 -0.027843915041344515 -0.019062190640714377 0 -0.026818736625639682 -0.020220704254537879 0 -0.027843915041344515 -0.019062190640714377 0 -0.028121821507363788 -0.019884387705241657 0 -0.02668210117295922 -0.020479608659077629 0 -0.026818736625639682 -0.020220704254537879 0 -0.028065046309302327 -0.020479944551195707 0 -0.026818736625639682 -0.020220704254537879 0 -0.028121821507363788 -0.019884387705241657 0 -0.028065046309302327 -0.020479944551195707 0 -0.025349520507501288 -0.016486347116800196 0 -0.028916874394623555 -0.021154747759418696 0 -0.028121821507363788 -0.019884387705241657 0 -0.028065046309302327 -0.020479944551195707 0 -0.02911684337879657 -0.020133746980165575 0 -0.028121821507363788 -0.019884387705241657 0 -0.02911684337879657 -0.020133746980165575 0 -0.029140812916136009 -0.01891721093534092 0 -0.027843915041344515 -0.019062190640714377 0 -0.028121821507363788 -0.019884387705241657 0 -0.029140812916136009 -0.01891721093534092 0 -0.02911684337879657 -0.020133746980165575 0 -0.029140812916136009 -0.01891721093534092 0 -0.030382075831176084 -0.018839005065042852 0 -0.030497720665704834 -0.017560578609858973 0 -0.032147196847864809 -0.01781446900296792 0 -0.030382075831176084 -0.018839005065042852 0 -0.030497720665704834 -0.017560578609858973 0 -0.029140812916136009 -0.01891721093534092 0 -0.030382075831176084 -0.018839005065042852 0 -0.02911684337879657 -0.020133746980165575 0 -0.030382075831176084 -0.018839005065042852 0 -0.030619510812363502 -0.020183358911211761 0 -0.02911684337879657 -0.020133746980165575 0 -0.030619510812363502 -0.020183358911211761 0 -0.029738741737686196 -0.020933028395684995 0 -0.030619510812363502 -0.020183358911211761 0 -0.029738741737686196 -0.020933028395684995 0 -0.030555422398165406 -0.021592358251183618 0 -0.029738741737686196 -0.020933028395684995 0 -0.030555422398165406 -0.021592358251183618 0 -0.029155137985328324 -0.021396866720114104 0 -0.031562019703259017 -0.014861393847896351 0 -0.030124697422834763 -0.01592688429234557 0 -0.030555422398165406 -0.021592358251183618 0 -0.029155137985328324 -0.021396866720114104 0 -0.02936197345934315 -0.021898644997898901 0 -0.029155137985328324 -0.021396866720114104 0 -0.02877357107946717 -0.020918797704900689 0 -0.028317307747609721 -0.021151837890408715 0 -0.028065046309302327 -0.020479944551195707 0 -0.02911684337879657 -0.020133746980165575 0 -0.02877357107946717 -0.020918797704900689 0 -0.02911684337879657 -0.020133746980165575 0 -0.029738741737686196 -0.020933028395684995 0 -0.02877357107946717 -0.020918797704900689 0 -0.029738741737686196 -0.020933028395684995 0 -0.029155137985328324 -0.021396866720114104 0 -0.02877357107946717 -0.020918797704900689 0 -0.028065046309302327 -0.020479944551195707 0 -0.028317307747609721 -0.021151837890408715 0 -0.027813973622067931 -0.020744206243563972 0 -0.028065046309302327 -0.020479944551195707 0 -0.02877357107946717 -0.020918797704900689 0 -0.028317307747609721 -0.021151837890408715 0 -0.029155137985328324 -0.021396866720114104 0 -0.028317307747609721 -0.021151837890408715 0 -0.028587923987023822 -0.021729147413416521 0 -0.028317307747609721 -0.021151837890408715 0 -0.027832332082649548 -0.021543494897698762 0 -0.028587923987023822 -0.021729147413416521 0 -0.028317307747609721 -0.021151837890408715 0 -0.027832332082649548 -0.021543494897698762 0 -0.027813973622067931 -0.020744206243563972 0 -0.027832332082649548 -0.021543494897698762 0 -0.027813973622067931 -0.020744206243563972 0 -0.02719799721645615 -0.02070638353756938 0 -0.027722393241893489 -0.020198574108434061 0 -0.027813973622067931 -0.020744206243563972 0 -0.02719799721645615 -0.02070638353756938 0 -0.028912740733847336 -0.0079725250247386897 0 -0.030647669491498122 -0.0072658628273346735 0 -0.02837247124526774 -0.0094551353503658803 0 -0.028912740733847336 -0.0079725250247386897 0 -0.028442937645231994 -0.0070319261713020177 0 -0.030647669491498122 -0.0072658628273346735 0 -0.028199269237471319 -0.0081801092367420648 0 -0.028442937645231994 -0.0070319261713020177 0 -0.0264811932148281 -0.0073668261407510852 0 -0.028199269237471319 -0.0081801092367420648 0 -0.028912740733847336 -0.0079725250247386897 0 -0.028442937645231994 -0.0070319261713020177 0 -0.028199269237471319 -0.0081801092367420648 0 -0.028912740733847336 -0.0079725250247386897 0 -0.02837247124526774 -0.0094551353503658803 0 -0.02835907460006834 -0.0044945099461281834 0 -0.028442937645231994 -0.0070319261713020177 0 -0.030647669491498122 -0.0072658628273346735 0 -0.02835907460006834 -0.0044945099461281834 0 -0.028442937645231994 -0.0070319261713020177 0 -0.027228111595815431 -0.0061274703526370917 0 -0.028580033700966036 -0.013725501356629751 0 -0.029923044929774677 -0.012070737006089608 0 -0.027832332082649548 -0.021543494897698762 0 -0.028587923987023822 -0.021729147413416521 0 -0.028645493975569345 -0.022261359152965 0 -0.028587923987023822 -0.021729147413416521 0 -0.028645493975569345 -0.022261359152965 0 -0.02936197345934315 -0.021898644997898901 0 -0.030252668664120096 -0.0090078315284689847 0 -0.02961055841784941 -0.0095204890400137909 0 -0.02837247124526774 -0.0094551353503658803 0 -0.029923044929774677 -0.012070737006089608 0 -0.029071895760256129 -0.0083086295708663296 0 -0.030252668664120096 -0.0090078315284689847 0 -0.03062073179023625 -0.0092734200917216018 0 -0.031030326349133535 -0.0090641479800393811 0 -0.030252668664120096 -0.0090078315284689847 0 -0.030219133239671524 -0.0093099850016032416 0 -0.02961055841784941 -0.0095204890400137909 0 -0.030219133239671524 -0.0093099850016032416 0 -0.03062073179023625 -0.0092734200917216018 0 -0.030466526744140795 -0.0096371583331538568 0 -0.030252668664120096 -0.0090078315284689847 0 -0.030219133239671524 -0.0093099850016032416 0 -0.03062073179023625 -0.0092734200917216018 0 -0.03062073179023625 -0.0092734200917216018 0 -0.031342617382630507 -0.0096443711462445673 0 -0.030466526744140795 -0.0096371583331538568 0 -0.03062073179023625 -0.0092734200917216018 0 -0.031030326349133535 -0.0090641479800393811 0 -0.031342617382630507 -0.0096443711462445673 0 -0.031104002227966457 -0.0090552029904643321 0 -0.031580144041407493 -0.0097221852187343045 0 -0.031030326349133535 -0.0090641479800393811 0 -0.031941126337166552 -0.0093204205529042201 0 -0.03172338571395622 -0.0096357050582739946 0 -0.031030326349133535 -0.0090641479800393811 0 -0.031638448499759227 -0.0090448091768660088 0 -0.031941126337166552 -0.0093204205529042201 0 -0.029923044929774677 -0.012070737006089608 0 -0.030124697422834763 -0.01592688429234557 0 -0.030252668664120096 -0.0090078315284689847 0 -0.031030326349133535 -0.0090641479800393811 0 -0.031491727428584027 -0.0088116111061564591 0 -0.029155137985328324 -0.021396866720114104 0 -0.028587923987023822 -0.021729147413416521 0 -0.02936197345934315 -0.021898644997898901 0 -0.031030326349133535 -0.0090641479800393811 0 -0.031491727428584027 -0.0088116111061564591 0 -0.031638448499759227 -0.0090448091768660088 0 -0.031491727428584027 -0.0088116111061564591 0 -0.031638448499759227 -0.0090448091768660088 0 -0.032015260542805929 -0.0090461595334152441 0 -0.032256428585195673 -0.0084480451840559193 0 -0.031491727428584027 -0.0088116111061564591 0 -0.032015260542805929 -0.0090461595334152441 0 -0.032015260542805929 -0.0090461595334152441 0 -0.031941126337166552 -0.0093204205529042201 0 -0.032500800428899204 -0.0091599976965343888 0 -0.032256428585195673 -0.0084480451840559193 0 -0.032015260542805929 -0.0090461595334152441 0 -0.032500800428899204 -0.0091599976965343888 0 -0.031941126337166552 -0.0093204205529042201 0 -0.032477893126630207 -0.0095843844249292164 0 -0.03349473458085174 -0.009217905204342635 0 -0.031638448499759227 -0.0090448091768660088 0 -0.032015260542805929 -0.0090461595334152441 0 -0.031941126337166552 -0.0093204205529042201 0 -0.031941126337166552 -0.0093204205529042201 0 -0.032477893126630207 -0.0095843844249292164 0 -0.03172338571395622 -0.0096357050582739946 0 -0.032477893126630207 -0.0095843844249292164 0 -0.032233575953809435 -0.010131221292242972 0 -0.033209343147373088 -0.0095709246685262064 0 -0.032477893126630207 -0.0095843844249292164 0 -0.032233575953809435 -0.010131221292242972 0 -0.03172338571395622 -0.0096357050582739946 0 -0.032706518588485285 -0.0091572781453666853 0 -0.031580144041407493 -0.0097221852187343045 0 -0.032706518588485285 -0.0091572781453666853 0 -0.034030346853824223 -0.0084168724988820543 0 -0.032920041218222791 -0.0066039064882277773 0 -0.032168564011765287 -0.0078072399898763151 0 -0.033607574653058192 -0.0082201601491599871 0 -0.032920041218222791 -0.0066039064882277773 0 -0.030689574000203265 -0.0074121946591466994 0 -0.029682372005980437 -0.0060086108694746478 0 -0.032920041218222791 -0.0066039064882277773 0 -0.032168564011765287 -0.0078072399898763151 0 -0.030689574000203265 -0.0074121946591466994 0 -0.032168564011765287 -0.0078072399898763151 0 -0.030689574000203265 -0.0074121946591466994 0 -0.030710667867697876 -0.0084976321698912501 0 -0.030689574000203265 -0.0074121946591466994 0 -0.029521492169734851 -0.0084087473550345411 0 -0.030710667867697876 -0.0084976321698912501 0 -0.031342617382630507 -0.0096443711462445673 0 -0.030466526744140795 -0.0096371583331538568 0 -0.030325030372595173 -0.010397429900723088 0 -0.032706518588485285 -0.0091572781453666853 0 -0.029904614011785909 -0.0081410479815494895 0 -0.031797898852061905 -0.010550620497728402 0 -0.031342617382630507 -0.0096443711462445673 0 -0.030325030372595173 -0.010397429900723088 0 -0.02961055841784941 -0.0095204890400137909 0 -0.030325030372595173 -0.010397429900723088 0 -0.02837247124526774 -0.0094551353503658803 0 -0.030219133239671524 -0.0093099850016032416 0 -0.030466526744140795 -0.0096371583331538568 0 -0.02961055841784941 -0.0095204890400137909 0 -0.030466526744140795 -0.0096371583331538568 0 -0.02961055841784941 -0.0095204890400137909 0 -0.030325030372595173 -0.010397429900723088 0 -0.029682372005980437 -0.0060086108694746478 0 -0.027913172481107185 -0.0072885099249349865 0 -0.02677851415681259 -0.006869482910146895 0 -0.030689574000203265 -0.0074121946591466994 0 -0.029682372005980437 -0.0060086108694746478 0 -0.029179294430608075 -0.0075010225939862694 0 -0.030689574000203265 -0.0074121946591466994 0 -0.029521492169734851 -0.0084087473550345411 0 -0.029179294430608075 -0.0075010225939862694 0 -0.029521492169734851 -0.0084087473550345411 0 -0.029179294430608075 -0.0075010225939862694 0 -0.028101461314322042 -0.0083716153729607445 0 -0.029179294430608075 -0.0075010225939862694 0 -0.028101461314322042 -0.0083716153729607445 0 -0.027913172481107185 -0.0072885099249349865 0 -0.029682372005980437 -0.0060086108694746478 0 -0.029179294430608075 -0.0075010225939862694 0 -0.027913172481107185 -0.0072885099249349865 0 -0.027913172481107185 -0.0072885099249349865 0 -0.026801102088394809 -0.0079227104983403164 0 -0.02677851415681259 -0.006869482910146895 0 -0.028101461314322042 -0.0083716153729607445 0 -0.027913172481107185 -0.0072885099249349865 0 -0.026801102088394809 -0.0079227104983403164 0 -0.028101461314322042 -0.0083716153729607445 0 -0.026801102088394809 -0.0079227104983403164 0 -0.025918085001578998 -0.0094224918796079402 0 -0.026801102088394809 -0.0079227104983403164 0 -0.025339038755525709 -0.0076546207476365586 0 -0.025918085001578998 -0.0094224918796079402 0 -0.02677851415681259 -0.006869482910146895 0 -0.025609975730255283 -0.0067921558968994499 0 -0.025339038755525709 -0.0076546207476365586 0 -0.026801102088394809 -0.0079227104983403164 0 -0.02677851415681259 -0.006869482910146895 0 -0.025339038755525709 -0.0076546207476365586 0 -0.029904614011785909 -0.0081410479815494895 0 -0.027040794690940995 -0.0078273345785661013 0 -0.029682372005980437 -0.0060086108694746478 0 -0.02677851415681259 -0.006869482910146895 0 -0.026061300132747198 -0.005791033471809013 0 -0.02677851415681259 -0.006869482910146895 0 -0.026061300132747198 -0.005791033471809013 0 -0.025609975730255283 -0.0067921558968994499 0 -0.030325030372595173 -0.010397429900723088 0 -0.02790823304639729 -0.0098118556601979219 0 -0.02837247124526774 -0.0094551353503658803 0 -0.028199269237471319 -0.0081801092367420648 0 -0.02837247124526774 -0.0094551353503658803 0 -0.027297162281137818 -0.0085977720774450313 0 -0.02790823304639729 -0.0098118556601979219 0 -0.02837247124526774 -0.0094551353503658803 0 -0.027297162281137818 -0.0085977720774450313 0 -0.033838202733672842 -0.01030690186207186 0 -0.033845719792205305 -0.010518861675597738 0 -0.033999176913011929 -0.010515640804127186 0 -0.033718752604449585 -0.01080082511611395 0 -0.033838202733672842 -0.01030690186207186 0 -0.033845719792205305 -0.010518861675597738 0 -0.033718752604449585 -0.01080082511611395 0 -0.033845719792205305 -0.010518861675597738 0 -0.033692097454906013 -0.010509129235129477 0 -0.033718752604449585 -0.01080082511611395 0 -0.033692097454906013 -0.010509129235129477 0 -0.033633391155584509 -0.010893062678447743 0 -0.033718752604449585 -0.01080082511611395 0 -0.033633391155584509 -0.010893062678447743 0 -0.033592472669692439 -0.011435017114478729 0 -0.033633391155584509 -0.010893062678447743 0 -0.033592472669692439 -0.011435017114478729 0 -0.033660080171778059 -0.011233629393502928 0 -0.033718752604449585 -0.01080082511611395 0 -0.033592472669692439 -0.011435017114478729 0 -0.033940868902722438 -0.011475813639971017 0 -0.033718752604449585 -0.01080082511611395 0 -0.033838202733672842 -0.01030690186207186 0 -0.033940868902722438 -0.011475813639971017 0 -0.033855740029733378 -0.010651441770568326 0 -0.033652626791921963 -0.0092941522914368434 0 -0.032776535187104577 -0.0085890077232662621 0 -0.033377089302438087 -0.0088485380462880615 0 -0.032500800428899204 -0.0091599976965343888 0 -0.033377089302438087 -0.0088485380462880615 0 -0.032500800428899204 -0.0091599976965343888 0 -0.032971301845398808 -0.010173358893217129 0 -0.032067753723322122 -0.0093587406687588703 0 -0.033228503300351882 -0.0097035587849220954 0 -0.031941126337166552 -0.0093204205529042201 0 -0.032500800428899204 -0.0091599976965343888 0 -0.032971301845398808 -0.010173358893217129 0 -0.033838202733672842 -0.01030690186207186 0 -0.033377089302438087 -0.0088485380462880615 0 -0.032971301845398808 -0.010173358893217129 0 -0.033838202733672842 -0.01030690186207186 0 -0.032971301845398808 -0.010173358893217129 0 -0.033999176913011929 -0.010515640804127186 0 -0.033228503300351882 -0.0097035587849220954 0 -0.033814193935989854 -0.010001270398929948 0 -0.03349473458085174 -0.009217905204342635 0 -0.033694197969603122 -0.0094590950543657799 0 -0.033209343147373088 -0.0095709246685262064 0 -0.033694197969603122 -0.0094590950543657799 0 -0.033209343147373088 -0.0095709246685262064 0 -0.03372803732467957 -0.0095176692968460107 0 -0.03349473458085174 -0.009217905204342635 0 -0.033694197969603122 -0.0094590950543657799 0 -0.033735353267819922 -0.0095256970552160744 0 -0.032477893126630207 -0.0095843844249292164 0 -0.03349473458085174 -0.009217905204342635 0 -0.033209343147373088 -0.0095709246685262064 0 -0.032233575953809435 -0.010131221292242972 0 -0.033209343147373088 -0.0095709246685262064 0 -0.03372803732467957 -0.0095176692968460107 0 -0.034671988582140927 -0.0096100565101785215 0 -0.03372803732467957 -0.0095176692968460107 0 -0.03435246071283491 -0.0089223354771861985 0 -0.032706518588485285 -0.0091572781453666853 0 -0.033993869677084676 -0.0097779078605176577 0 -0.03372803732467957 -0.0095176692968460107 0 -0.033739528911945003 -0.0093214133585583364 0 -0.0338956848659933 -0.0087997737259899629 0 -0.033694197969603122 -0.0094590950543657799 0 -0.03372803732467957 -0.0095176692968460107 0 -0.033739528911945003 -0.0093214133585583364 0 -0.033739528911945003 -0.0093214133585583364 0 -0.033452229356475384 -0.0094092507847458977 0 -0.033831269343354356 -0.0085495310008049854 0 -0.033694197969603122 -0.0094590950543657799 0 -0.033739528911945003 -0.0093214133585583364 0 -0.033735353267819922 -0.0095256970552160744 0 -0.033739528911945003 -0.0093214133585583364 0 -0.033735353267819922 -0.0095256970552160744 0 -0.033633080549113119 -0.0095225796608667049 0 -0.033735353267819922 -0.0095256970552160744 0 -0.033579433472862921 -0.0096454767314248235 0 -0.033449333945035298 -0.01000433925378948 0 -0.033692097454906013 -0.010509129235129477 0 -0.033999176913011929 -0.010515640804127186 0 -0.033449333945035298 -0.01000433925378948 0 -0.033845719792205305 -0.010518861675597738 0 -0.033692097454906013 -0.010509129235129477 0 -0.033999176913011929 -0.010515640804127186 0 -0.033814193935989854 -0.010001270398929948 0 -0.033437878693278675 -0.0099889627271337825 0 -0.033735353267819922 -0.0095256970552160744 0 -0.033579433472862921 -0.0096454767314248235 0 -0.033633080549113119 -0.0095225796608667049 0 -0.033579433472862921 -0.0096454767314248235 0 -0.033452229356475384 -0.0094092507847458977 0 -0.033449333945035298 -0.01000433925378948 0 -0.033739528911945003 -0.0093214133585583364 0 -0.033633080549113119 -0.0095225796608667049 0 -0.033452229356475384 -0.0094092507847458977 0 -0.033579433472862921 -0.0096454767314248235 0 -0.033633080549113119 -0.0095225796608667049 0 -0.033452229356475384 -0.0094092507847458977 0 -0.034091812405766204 -0.0084580827276596552 0 -0.033904739477119111 -0.0086569270746644552 0 -0.033931593199721076 -0.0083632447785999126 0 -0.034091812405766204 -0.0084580827276596552 0 -0.033904739477119111 -0.0086569270746644552 0 -0.03396826926526765 -0.0091723357161819664 0 -0.033795201547420391 -0.0089440218454522255 0 -0.033656340271674239 -0.0097254094306201237 0 -0.033904739477119111 -0.0086569270746644552 0 -0.033734317268507945 -0.0084888100449479354 0 -0.033931593199721076 -0.0083632447785999126 0 -0.033734317268507945 -0.0084888100449479354 0 -0.033568313450452962 -0.0088653405658584098 0 -0.03342060990137883 -0.0083469435012096249 0 -0.033904739477119111 -0.0086569270746644552 0 -0.033734317268507945 -0.0084888100449479354 0 -0.033568313450452962 -0.0088653405658584098 0 -0.033568313450452962 -0.0088653405658584098 0 -0.03396826926526765 -0.0091723357161819664 0 -0.033339581768833941 -0.0093220410016837708 0 -0.03396826926526765 -0.0091723357161819664 0 -0.033418811843952685 -0.010327391917324513 0 -0.033339581768833941 -0.0093220410016837708 0 -0.033904739477119111 -0.0086569270746644552 0 -0.033568313450452962 -0.0088653405658584098 0 -0.03396826926526765 -0.0091723357161819664 0 -0.033452229356475384 -0.0094092507847458977 0 -0.033449333945035298 -0.01000433925378948 0 -0.033390493338027329 -0.010292578338534151 0 -0.033390493338027329 -0.010292578338534151 0 -0.033497605937894838 -0.010368315902107754 0 -0.033533561316916788 -0.010581008300971662 0 -0.033449333945035298 -0.01000433925378948 0 -0.033390493338027329 -0.010292578338534151 0 -0.033497605937894838 -0.010368315902107754 0 -0.033692097454906013 -0.010509129235129477 0 -0.033449333945035298 -0.01000433925378948 0 -0.033497605937894838 -0.010368315902107754 0 -0.033692097454906013 -0.010509129235129477 0 -0.033497605937894838 -0.010368315902107754 0 -0.033533561316916788 -0.010581008300971662 0 -0.033692097454906013 -0.010509129235129477 0 -0.033633391155584509 -0.010893062678447743 0 -0.033533561316916788 -0.010581008300971662 0 -0.033633391155584509 -0.010893062678447743 0 -0.033533561316916788 -0.010581008300971662 0 -0.033647272141836007 -0.010942120546946607 0 -0.033390493338027329 -0.010292578338534151 0 -0.033533561316916788 -0.010581008300971662 0 -0.033418811843952685 -0.010327391917324513 0 -0.033533561316916788 -0.010581008300971662 0 -0.033647272141836007 -0.010942120546946607 0 -0.033418811843952685 -0.010327391917324513 0 -0.033656340271674239 -0.0097254094306201237 0 -0.033393402457202119 -0.010292534599530757 0 -0.033647272141836007 -0.010942120546946607 0 -0.033418811843952685 -0.010327391917324513 0 -0.033781743293583619 -0.011172131010648984 0 -0.033660080171778059 -0.011233629393502928 0 -0.033647272141836007 -0.010942120546946607 0 -0.033761020126655959 -0.011394759539730358 0 -0.033647272141836007 -0.010942120546946607 0 -0.033761020126655959 -0.011394759539730358 0 -0.033781743293583619 -0.011172131010648984 0 -0.033633391155584509 -0.010893062678447743 0 -0.033660080171778059 -0.011233629393502928 0 -0.033647272141836007 -0.010942120546946607 0 -0.03290818694373681 -0.010640488661734868 0 -0.033418811843952685 -0.010327391917324513 0 -0.033584890452386981 -0.011051493790696211 0 -0.033418811843952685 -0.010327391917324513 0 -0.033781743293583619 -0.011172131010648984 0 -0.033584890452386981 -0.011051493790696211 0 -0.033418811843952685 -0.010327391917324513 0 -0.032643240141220449 -0.0094985402776596468 0 -0.033339581768833941 -0.0093220410016837708 0 -0.03290818694373681 -0.010640488661734868 0 -0.032643240141220449 -0.0094985402776596468 0 -0.032024452724352975 -0.0099907255800760399 0 -0.03290818694373681 -0.010640488661734868 0 -0.033418811843952685 -0.010327391917324513 0 -0.032643240141220449 -0.0094985402776596468 0 -0.032643240141220449 -0.0094985402776596468 0 -0.033339581768833941 -0.0093220410016837708 0 -0.033027781953782108 -0.0087958237185045852 0 -0.033568313450452962 -0.0088653405658584098 0 -0.033339581768833941 -0.0093220410016837708 0 -0.033027781953782108 -0.0087958237185045852 0 -0.033027781953782108 -0.0087958237185045852 0 -0.03342060990137883 -0.0083469435012096249 0 -0.032802948005582533 -0.0079112418280645747 0 -0.033568313450452962 -0.0088653405658584098 0 -0.033027781953782108 -0.0087958237185045852 0 -0.03342060990137883 -0.0083469435012096249 0 -0.033027781953782108 -0.0087958237185045852 0 -0.032353994964129031 -0.008447497766781227 0 -0.032802948005582533 -0.0079112418280645747 0 -0.032643240141220449 -0.0094985402776596468 0 -0.033027781953782108 -0.0087958237185045852 0 -0.032353994964129031 -0.008447497766781227 0 -0.032353994964129031 -0.008447497766781227 0 -0.031921060925547452 -0.0089658424538999002 0 -0.03160854368468146 -0.0080618937590799522 0 -0.031103379126871052 -0.0086398209687096328 0 -0.031921060925547452 -0.0089658424538999002 0 -0.03160854368468146 -0.0080618937590799522 0 -0.031103379126871052 -0.0086398209687096328 0 -0.031042570673076871 -0.0080822744853932156 0 -0.03160854368468146 -0.0080618937590799522 0 -0.031103379126871052 -0.0086398209687096328 0 -0.031393284525427216 -0.0091088531005191192 0 -0.031921060925547452 -0.0089658424538999002 0 -0.031393284525427216 -0.0091088531005191192 0 -0.031921060925547452 -0.0089658424538999002 0 -0.031456485635262217 -0.0096035536108566664 0 -0.031103379126871052 -0.0086398209687096328 0 -0.031393284525427216 -0.0091088531005191192 0 -0.030937262340982968 -0.0093317302491537166 0 -0.031393284525427216 -0.0091088531005191192 0 -0.030937262340982968 -0.0093317302491537166 0 -0.031456485635262217 -0.0096035536108566664 0 -0.031921060925547452 -0.0089658424538999002 0 -0.032024452724352975 -0.0099907255800760399 0 -0.031456485635262217 -0.0096035536108566664 0 -0.032643240141220449 -0.0094985402776596468 0 -0.031921060925547452 -0.0089658424538999002 0 -0.032024452724352975 -0.0099907255800760399 0 -0.032643240141220449 -0.0094985402776596468 0 -0.032353994964129031 -0.008447497766781227 0 -0.031921060925547452 -0.0089658424538999002 0 -0.035156493467457424 -0.00043410211569359735 0 -0.034997694066290545 -0.0011244807244962874 0 -0.034999989646370598 8.0343549639676491e-05 0 -0.030642845959539772 -0.0062209621952599714 0 -0.030618328583308142 -0.0062113782894913745 0 -0.030456505146211548 -0.006143980798704052 0 -0.033409276734852347 -0.0031754785060752987 0 -0.034182584182581598 -0.0030512913504549591 0 -0.033440647946330872 -0.0042106366207267107 0 -0.033528621239077995 -0.004501563689651527 0 -0.03372575566350626 -0.0036866009940529978 0 -0.032284418662213571 -0.0060649619893964144 0 -0.033970439098060252 -0.0032689762190132995 0 -0.033440647946330872 -0.0042106366207267107 0 -0.03372575566350626 -0.0036866009940529978 0 -0.033596431630906642 -0.0035683506532370709 0 -0.032284418662213571 -0.0060649619893964144 0 -0.033409276734852347 -0.0031754785060752987 0 -0.033409276734852347 -0.0031754785060752987 0 -0.034997704671385396 7.8961056117836173e-05 0 -0.030164093076866221 -0.008454678268186978 0 -0.030566485725456279 -0.0082208908937902309 0 -0.030100335163647102 -0.0080785133372143353 0 -0.029792263361464996 -0.0085761389150332025 0 -0.030164093076866221 -0.008454678268186978 0 -0.030100335163647102 -0.0080785133372143353 0 -0.029792263361464996 -0.0085761389150332025 0 -0.030164093076866221 -0.008454678268186978 0 -0.030074291405402784 -0.0087808958105953083 0 -0.030164093076866221 -0.008454678268186978 0 -0.030074291405402784 -0.0087808958105953083 0 -0.030402836536247462 -0.0086045687127355736 0 -0.030164093076866221 -0.008454678268186978 0 -0.030402836536247462 -0.0086045687127355736 0 -0.030566485725456279 -0.0082208908937902309 0 -0.031103379126871052 -0.0086398209687096328 0 -0.030566485725456279 -0.0082208908937902309 0 -0.031042570673076871 -0.0080822744853932156 0 -0.031103379126871052 -0.0086398209687096328 0 -0.030402836536247462 -0.0086045687127355736 0 -0.030566485725456279 -0.0082208908937902309 0 -0.031103379126871052 -0.0086398209687096328 0 -0.030402836536247462 -0.0086045687127355736 0 -0.030634810561037264 -0.0089767234153430853 0 -0.030402836536247462 -0.0086045687127355736 0 -0.030634810561037264 -0.0089767234153430853 0 -0.030087959874981651 -0.009336610800010036 0 -0.030937262340982968 -0.0093317302491537166 0 -0.030634810561037264 -0.0089767234153430853 0 -0.030087959874981651 -0.009336610800010036 0 -0.031103379126871052 -0.0086398209687096328 0 -0.030937262340982968 -0.0093317302491537166 0 -0.030634810561037264 -0.0089767234153430853 0 -0.030074291405402784 -0.0087808958105953083 0 -0.030402836536247462 -0.0086045687127355736 0 -0.030105862750992966 -0.0091890790060890782 0 -0.030025730842365116 -0.0094070067377838382 0 -0.031842119496725184 -0.0074135666168298657 0 -0.030074291405402784 -0.0087808958105953083 0 -0.030105862750992966 -0.0091890790060890782 0 -0.029980557818803918 -0.0090740491602437773 0 -0.033834759782830161 -0.0045151946162084863 0 -0.031842119496725184 -0.0074135666168298657 0 -0.033455479508615285 -0.0064522961472251207 0 -0.033652467257600654 -0.0060190356888667569 0 -0.033179159249570628 -0.0055922225011677141 0 -0.033834759782830161 -0.0045151946162084863 0 -0.032793548967346535 -0.0056503467754366217 0 -0.031842119496725184 -0.0074135666168298657 0 -0.032793548967346535 -0.0056503467754366217 0 -0.035647001499470116 -0.0020441068304694662 0 -0.034999970988991366 -0.0017184150743740452 0 -0.035505263437556306 -0.0016196545477135877 0 -0.034999239714973346 -0.0017182776409299305 0 -0.033970439098060252 -0.0032689762190132995 0 -0.032284418662213571 -0.0060649619893964144 0 -0.032793548967346535 -0.0056503467754366217 0 -0.029792263361464996 -0.0085761389150332025 0 -0.030074291405402784 -0.0087808958105953083 0 -0.029980557818803918 -0.0090740491602437773 0 -0.034999999477185476 -0.0017183157120218714 0 -0.03499769851044833 -0.0011244718287758801 0 -0.03510924057241014 -0.0012262468915317116 0 -0.034999970988991366 -0.0017184150743740452 0 -0.035505263437556306 -0.0016196545477135877 0 -0.035105580690194892 -0.0012671714751417407 0 -0.032688320200444584 -0.0051768864757275983 0 -0.032657942390129827 -0.0050532884103655258 0 -0.032709273529637956 -0.0051020049737911747 0 -0.032793548967346535 -0.0056503467754366217 0 -0.033970439098060252 -0.0032689762190132995 0 -0.034182584182581598 -0.0030512913504549591 0 -0.033970439098060252 -0.0032689762190132995 0 -0.035564788638095972 -0.0022996039414820242 0 -0.036025974736645115 -0.0036286150992378193 0 -0.035000023088540611 -0.0034836334023541572 0 -0.033834759782830161 -0.0045151946162084863 0 -0.035001856342146413 -0.0034796545886809672 0 -0.033834759782830161 -0.0045151946162084863 0 -0.034046555504596093 -0.0066636970360942132 0 -0.035647001499470116 -0.0020441068304694662 0 -0.034999970988991366 -0.0017184150743740452 0 -0.035000003717956092 -0.0034831725914070228 0 -0.030937262340982968 -0.0093317302491537166 0 -0.030087959874981651 -0.009336610800010036 0 -0.031017453791128774 -0.010160834638700222 0 -0.031842119496725184 -0.0074135666168298657 0 -0.031850064122434102 -0.0096373503119546421 0 -0.031817702259378529 -0.0080069554417431087 0 -0.032877592125660077 -0.0088133859361592022 0 -0.03217692757526705 -0.0091563846796684518 0 -0.031817702259378529 -0.0080069554417431087 0 -0.03189117226063351 -0.0078449115809610306 0 -0.032877592125660077 -0.0088133859361592022 0 -0.034046555504596093 -0.0066636970360942132 0 -0.03545179214334674 -0.0066746541555871572 0 -0.03217692757526705 -0.0091563846796684518 0 -0.032929897122245727 -0.0096401100750865085 0 -0.032542700002310819 -0.010202866505344896 0 -0.032877592125660077 -0.0088133859361592022 0 -0.03217692757526705 -0.0091563846796684518 0 -0.032929897122245727 -0.0096401100750865085 0 -0.036025974736645115 -0.0036286150992378193 0 -0.034999931410261607 -0.0041902043627363378 0 -0.036466473763370776 -0.0050764576571487993 0 -0.036025974736645115 -0.0036286150992378193 0 -0.034999931410261607 -0.0041902043627363378 0 -0.035000023088540611 -0.0034836334023541572 0 -0.030937262340982968 -0.0093317302491537166 0 -0.031017453791128774 -0.010160834638700222 0 -0.031456485635262217 -0.0096035536108566664 0 -0.031017453791128774 -0.010160834638700222 0 -0.032024452724352975 -0.0099907255800760399 0 -0.031456485635262217 -0.0096035536108566664 0 -0.031017453791128774 -0.010160834638700222 0 -0.032024452724352975 -0.0099907255800760399 0 -0.032035548139972045 -0.010944051108483887 0 -0.032877592125660077 -0.0088133859361592022 0 -0.032929897122245727 -0.0096401100750865085 0 -0.033736350419740241 -0.0097489297908264806 0 -0.031850064122434102 -0.0096373503119546421 0 -0.032886212431125932 -0.010309963732450207 0 -0.03290818694373681 -0.010640488661734868 0 -0.032024452724352975 -0.0099907255800760399 0 -0.032035548139972045 -0.010944051108483887 0 -0.033736350419740241 -0.0097489297908264806 0 -0.03364333908916297 -0.010837984268170477 0 -0.034443245151008245 -0.010599340120585067 0 -0.032886212431125932 -0.010309963732450207 0 -0.033821431454990232 -0.010990584940737886 0 -0.032929897122245727 -0.0096401100750865085 0 -0.033736350419740241 -0.0097489297908264806 0 -0.033217441684177271 -0.010109723554685309 0 -0.033736350419740241 -0.0097489297908264806 0 -0.033217441684177271 -0.010109723554685309 0 -0.03364333908916297 -0.010837984268170477 0 -0.033217441684177271 -0.010109723554685309 0 -0.03364333908916297 -0.010837984268170477 0 -0.032542700002310819 -0.010202866505344896 0 -0.032929897122245727 -0.0096401100750865085 0 -0.033217441684177271 -0.010109723554685309 0 -0.032542700002310819 -0.010202866505344896 0 -0.035193646087315969 -0.0091905104477895717 0 -0.03545179214334674 -0.0066746541555871572 0 -0.037228234057862152 -0.0072380636068017602 0 -0.036341368534274679 -0.005610798561526526 0 -0.036356317047737709 -0.0057920794159636441 0 -0.036650887913267871 -0.0069614127244570284 0 -0.037228234057862152 -0.0072380636068017602 0 -0.036356317047737709 -0.0057920794159636441 0 -0.035000011593560872 -0.0041906861222163931 0 -0.035703792782975766 -0.0055462992493156543 0 -0.036333223332427021 -0.0055612636571451554 0 -0.035000011593560872 -0.0041906861222163931 0 -0.035703792782975766 -0.0055462992493156543 0 -0.034999796141537982 -0.0056515961598147205 0 -0.035000758892308456 -0.0041900591375094703 0 -0.03545179214334674 -0.0066746541555871572 0 -0.035703792782975766 -0.0055462992493156543 0 -0.036333223332427021 -0.0055612636571451554 0 -0.036356317047737709 -0.0057920794159636441 0 -0.03545179214334674 -0.0066746541555871572 0 -0.035477248040427317 -0.0065167041257550113 0 -0.036650887913267871 -0.0069614127244570284 0 -0.036356317047737709 -0.0057920794159636441 0 -0.035830217828741365 -0.006518162253471539 0 -0.035703792782975766 -0.0055462992493156543 0 -0.036356317047737709 -0.0057920794159636441 0 -0.035830217828741365 -0.006518162253471539 0 -0.035830217828741365 -0.006518162253471539 0 -0.034999796141537982 -0.0056515961598147205 0 -0.034999998495588158 -0.0071115252006165837 0 -0.035703792782975766 -0.0055462992493156543 0 -0.035830217828741365 -0.006518162253471539 0 -0.034999796141537982 -0.0056515961598147205 0 -0.035830217828741365 -0.006518162253471539 0 -0.034999998495588158 -0.0071115252006165837 0 -0.036363748230798007 -0.0074230058571855568 0 -0.035000087406041165 -0.0071118837367354169 0 -0.036178144552716805 -0.0078684516284827834 0 -0.034999879440827483 -0.0071131845654151355 0 -0.036105831787218066 -0.0083284964469280878 0 -0.035575248553461891 -0.0084549880031348969 0 -0.036650887913267871 -0.0069614127244570284 0 -0.035830217828741365 -0.006518162253471539 0 -0.036363748230798007 -0.0074230058571855568 0 -0.035870398637168177 -0.0094766506059157686 0 -0.036105831787218066 -0.0083284964469280878 0 -0.035575248553461891 -0.0084549880031348969 0 -0.036434437328576971 -0.0095509115169134951 0 -0.035870398637168177 -0.0094766506059157686 0 -0.036105831787218066 -0.0083284964469280878 0 -0.034999673659083665 -0.0090424002179819926 0 -0.034999879440827483 -0.0071131845654151355 0 -0.035575248553461891 -0.0084549880031348969 0 -0.037228234057862152 -0.0072380636068017602 0 -0.037191240586315351 -0.0080515234173815682 0 -0.036986290173299505 -0.0092501758414253801 0 -0.035193646087315969 -0.0091905104477895717 0 -0.035681707222467364 -0.0101741740468242 0 -0.036650887913267871 -0.0069614127244570284 0 -0.036363748230798007 -0.0074230058571855568 0 -0.037191240586315351 -0.0080515234173815682 0 -0.036650887913267871 -0.0069614127244570284 0 -0.037228234057862152 -0.0072380636068017602 0 -0.037191240586315351 -0.0080515234173815682 0 -0.036178144552716805 -0.0078684516284827834 0 -0.036902599115521621 -0.0086627084831416255 0 -0.036434437328576971 -0.0095509115169134951 0 -0.036105831787218066 -0.0083284964469280878 0 -0.036607105669145712 -0.009182417077505816 0 -0.036633480778116047 -0.0098196927210594045 0 -0.036434437328576971 -0.0095509115169134951 0 -0.036601201958941725 -0.009570981835132315 0 -0.036434437328576971 -0.0095509115169134951 0 -0.036607105669145712 -0.009182417077505816 0 -0.036601201958941725 -0.009570981835132315 0 -0.036607105669145712 -0.009182417077505816 0 -0.036601201958941725 -0.009570981835132315 0 -0.036691857727905459 -0.0097403648886436687 0 -0.036633480778116047 -0.0098196927210594045 0 -0.036601201958941725 -0.009570981835132315 0 -0.036691857727905459 -0.0097403648886436687 0 -0.036691737050617679 -0.010149631828547464 0 -0.036691857727905459 -0.0097403648886436687 0 -0.03664050388551314 -0.01002344709114549 0 -0.036691857727905459 -0.0097403648886436687 0 -0.036788536675370659 -0.0095687533514719411 0 -0.03664050388551314 -0.01002344709114549 0 -0.036607105669145712 -0.009182417077505816 0 -0.036691857727905459 -0.0097403648886436687 0 -0.036788536675370659 -0.0095687533514719411 0 -0.037191240586315351 -0.0080515234173815682 0 -0.036986290173299505 -0.0092501758414253801 0 -0.036788536675370659 -0.0095687533514719411 0 -0.036902599115521621 -0.0086627084831416255 0 -0.0368812395066253 -0.0093869395460396115 0 -0.036986290173299505 -0.0092501758414253801 0 -0.036788536675370659 -0.0095687533514719411 0 -0.035684194258669401 -0.010814739234683438 0 -0.034501338854419458 -0.011306100328330113 0 -0.034759150846122563 -0.011269234374683426 0 -0.035684194258669401 -0.010814739234683438 0 -0.035681707222467364 -0.0101741740468242 0 -0.035582846726561104 -0.01068620250351889 0 -0.036691737050617679 -0.010149631828547464 0 -0.03664050388551314 -0.01002344709114549 0 -0.035684194258669401 -0.010814739234683438 0 -0.036788536675370659 -0.0095687533514719411 0 -0.03664050388551314 -0.01002344709114549 0 -0.035684194258669401 -0.010814739234683438 0 -0.035684194258669401 -0.010814739234683438 0 -0.035339341648902838 -0.010782585704858166 0 -0.034904974523203736 -0.011201683104001001 0 -0.036430245718903576 -0.010343982743320547 0 -0.035684194258669401 -0.010814739234683438 0 -0.035339341648902838 -0.010782585704858166 0 -0.034234646158827348 -0.014491365985822601 0 -0.03419073992987938 -0.010839548583095012 0 -0.035339341648902838 -0.010782585704858166 0 -0.034930221628369958 -0.011142539736349825 0 -0.034904974523203736 -0.011201683104001001 0 -0.034837441184958094 -0.010713633336018392 0 -0.035339341648902838 -0.010782585704858166 0 -0.034930221628369958 -0.011142539736349825 0 -0.03419073992987938 -0.010839548583095012 0 -0.034426372200662143 -0.011748808955730071 0 -0.033725044358193339 -0.011850014246568273 0 -0.03390078201911885 -0.011626271637758772 0 -0.034227926014132215 -0.011498186471671858 0 -0.034930221628369958 -0.011142539736349825 0 -0.034904974523203736 -0.011201683104001001 0 -0.034227926014132215 -0.011498186471671858 0 -0.034759150846122563 -0.011269234374683426 0 -0.034904974523203736 -0.011201683104001001 0 -0.034227926014132215 -0.011498186471671858 0 -0.034759150846122563 -0.011269234374683426 0 -0.035684194258669401 -0.010814739234683438 0 -0.034904974523203736 -0.011201683104001001 0 -0.034227926014132215 -0.011498186471671858 0 -0.033781743293583619 -0.011172131010648984 0 -0.034083536981593561 -0.011365963110365928 0 -0.034759150846122563 -0.011269234374683426 0 -0.034227926014132215 -0.011498186471671858 0 -0.034083536981593561 -0.011365963110365928 0 -0.034227926014132215 -0.011498186471671858 0 -0.033796243009176163 -0.011661452438360923 0 -0.033761020126655959 -0.011394759539730358 0 -0.033725044358193339 -0.011850014246568273 0 -0.034227926014132215 -0.011498186471671858 0 -0.033796243009176163 -0.011661452438360923 0 -0.033656580797486506 -0.011540681125356627 0 -0.033796243009176163 -0.011661452438360923 0 -0.033761020126655959 -0.011394759539730358 0 -0.033656580797486506 -0.011540681125356627 0 -0.033660080171778059 -0.011233629393502928 0 -0.033761020126655959 -0.011394759539730358 0 -0.034227926014132215 -0.011498186471671858 0 -0.033761020126655959 -0.011394759539730358 0 -0.033781743293583619 -0.011172131010648984 0 -0.033584890452386981 -0.011051493790696211 0 -0.033215429095138582 -0.01149680022409863 0 -0.034083536981593561 -0.011365963110365928 0 -0.033781743293583619 -0.011172131010648984 0 -0.033584890452386981 -0.011051493790696211 0 -0.034083536981593561 -0.011365963110365928 0 -0.03290818694373681 -0.010640488661734868 0 -0.033584890452386981 -0.011051493790696211 0 -0.033215429095138582 -0.01149680022409863 0 -0.03290818694373681 -0.010640488661734868 0 -0.032035548139972045 -0.010944051108483887 0 -0.033215429095138582 -0.01149680022409863 0 -0.03364333908916297 -0.010837984268170477 0 -0.034501338854419458 -0.011306100328330113 0 -0.034443245151008245 -0.010599340120585067 0 -0.034501338854419458 -0.011306100328330113 0 -0.034759150846122563 -0.011269234374683426 0 -0.034443245151008245 -0.010599340120585067 0 -0.034609905594576065 -0.011253144060617115 0 -0.033821431454990232 -0.010990584940737886 0 -0.034759150846122563 -0.011269234374683426 0 -0.033215429095138582 -0.01149680022409863 0 -0.034083536981593561 -0.011365963110365928 0 -0.013232423728749112 -0.0074452904279721233 0 -0.012419783825500455 -0.0069369611574827605 0 -0.012469144266652181 -0.0067858913297706661 0 -0.013541655116878677 -0.0063689270628651011 0 -0.012419783825500455 -0.0069369611574827605 0 -0.013064678038397889 -0.0072355155423964104 0 -0.013434061525566953 -0.0069065950809449163 0 -0.012542368207638602 -0.0069427558767295736 0 -0.012419783825500455 -0.0069369611574827605 0 -0.013064678038397889 -0.0072355155423964104 0 -0.012570158116443434 -0.0078805933125198416 0 -0.013064678038397889 -0.0072355155423964104 0 -0.014004134287053088 -0.007292830848274626 0 -0.013961123233052361 -0.008334265477820171 0 -0.013541655116878677 -0.0063689270628651011 0 -0.013064678038397889 -0.0072355155423964104 0 -0.014004134287053088 -0.007292830848274626 0 -0.014004134287053088 -0.007292830848274626 0 -0.015274339261933848 -0.0073803579128529093 0 -0.014360973431540885 -0.0066561122641683387 0 -0.014953037928349228 -0.0058999303410126377 0 -0.015782948312668365 -0.006289294927594927 0 -0.016217349999871004 -0.0059804665844491517 0 -0.014953037928349228 -0.0058999303410126377 0 -0.016217349999871004 -0.0059804665844491517 0 -0.016537685858287993 -0.0057418414754495549 0 -0.014772699047612184 -0.0067780558034000278 0 -0.0162470964328446 -0.007538638130710716 0 -0.015274339261933848 -0.0073803579128529093 0 -0.014953037928349228 -0.0058999303410126377 0 -0.015782948312668365 -0.006289294927594927 0 -0.013232423728749112 -0.0074452904279721233 0 -0.014515784816078996 -0.0077972037599544942 0 -0.013762269111507011 -0.0072001973791173662 0 -0.013541655116878677 -0.0063689270628651011 0 -0.014953037928349228 -0.0058999303410126377 0 -0.014360973431540885 -0.0066561122641683387 0 -0.013434061525566953 -0.0069065950809449163 0 -0.014772699047612184 -0.0067780558034000278 0 -0.013541655116878677 -0.0063689270628651011 0 -0.014004134287053088 -0.007292830848274626 0 -0.014360973431540885 -0.0066561122641683387 0 -0.015274339261933848 -0.0073803579128529093 0 -0.014953037928349228 -0.0058999303410126377 0 -0.014360973431540885 -0.0066561122641683387 0 -0.013762269111507011 -0.0072001973791173662 0 -0.014329766616996727 -0.0068395588249935083 0 -0.013432890856690591 -0.0067170912748615195 0 -0.014515784816078996 -0.0077972037599544942 0 -0.013762269111507011 -0.0072001973791173662 0 -0.014329766616996727 -0.0068395588249935083 0 -0.014515784816078996 -0.0077972037599544942 0 -0.015275014648888908 -0.0074551082713927644 0 -0.015902409726149602 -0.007829817553350233 0 -0.014515784816078996 -0.0077972037599544942 0 -0.014329766616996727 -0.0068395588249935083 0 -0.015275014648888908 -0.0074551082713927644 0 -0.014329766616996727 -0.0068395588249935083 0 -0.015275014648888908 -0.0074551082713927644 0 -0.014956611303076879 -0.0066370971505046979 0 -0.015275014648888908 -0.0074551082713927644 0 -0.014956611303076879 -0.0066370971505046979 0 -0.015518613025970646 -0.0069704893798062731 0 -0.014956611303076879 -0.0066370971505046979 0 -0.015393153681965449 -0.0060571282511026345 0 -0.015518613025970646 -0.0069704893798062731 0 -0.014329766616996727 -0.0068395588249935083 0 -0.014956611303076879 -0.0066370971505046979 0 -0.01471099871728496 -0.0059675631103300137 0 -0.014956611303076879 -0.0066370971505046979 0 -0.01471099871728496 -0.0059675631103300137 0 -0.015393153681965449 -0.0060571282511026345 0 -0.014051388551723137 -0.006164306033993803 0 -0.013230506937574665 -0.0058590204399478294 0 -0.013432890856690591 -0.0067170912748615195 0 -0.014329766616996727 -0.0068395588249935083 0 -0.014051388551723137 -0.006164306033993803 0 -0.013432890856690591 -0.0067170912748615195 0 -0.014329766616996727 -0.0068395588249935083 0 -0.01471099871728496 -0.0059675631103300137 0 -0.014051388551723137 -0.006164306033993803 0 -0.013230506937574665 -0.0058590204399478294 0 -0.013432890856690591 -0.0067170912748615195 0 -0.012602322462514332 -0.0064137733069248295 0 -0.013232423728749112 -0.0074452904279721233 0 -0.013762269111507011 -0.0072001973791173662 0 -0.012896277020485621 -0.0068489173078900307 0 -0.013432890856690591 -0.0067170912748615195 0 -0.012896277020485621 -0.0068489173078900307 0 -0.012406912738031441 -0.0064103114731829036 0 -0.01326594845526363 -0.0067376229371795965 0 -0.012310102094590577 -0.0064561218162747531 0 -0.013762269111507011 -0.0072001973791173662 0 -0.013432890856690591 -0.0067170912748615195 0 -0.012896277020485621 -0.0068489173078900307 0 -0.013232423728749112 -0.0074452904279721233 0 -0.012896277020485621 -0.0068489173078900307 0 -0.012469144266652181 -0.0067858913297706661 0 -0.012896277020485621 -0.0068489173078900307 0 -0.012469144266652181 -0.0067858913297706661 0 -0.012406912738031441 -0.0064103114731829036 0 -0.013230506937574665 -0.0058590204399478294 0 -0.011773811588276754 -0.0063215151593537357 0 -0.012602322462514332 -0.0064137733069248295 0 -0.011771432221145723 -0.0090174966289480844 0 -0.010139376890725974 -0.0098287401811169347 0 -0.013432890856690591 -0.0067170912748615195 0 -0.011878826477210499 -0.0068332034954663888 0 -0.012602322462514332 -0.0064137733069248295 0 -0.011878826477210499 -0.0068332034954663888 0 -0.011773811588276754 -0.0063215151593537357 0 -0.012602322462514332 -0.0064137733069248295 0 -0.010139376890725974 -0.0098287401811169347 0 -0.010184708442724774 -0.0080841883573094572 0 -0.011878826477210499 -0.0068332034954663888 0 -0.011773811588276754 -0.0063215151593537357 0 -0.010189614529683392 -0.0068787635639105003 0 -0.0090848761710929475 -0.0127712581207385 0 -0.008088437993389876 -0.013078318599628483 0 -0.0085100329937004178 -0.012082926200926434 0 -0.008088437993389876 -0.013078318599628483 0 -0.007641967542253038 -0.012326102345215778 0 -0.0085100329937004178 -0.012082926200926434 0 -0.011604767153063467 -0.0063155540056802533 0 -0.011985603436014252 -0.0067280530859528337 0 -0.011174227962949541 -0.007012445329790261 0 -0.012406912738031441 -0.0064103114731829036 0 -0.011604767153063467 -0.0063155540056802533 0 -0.011985603436014252 -0.0067280530859528337 0 -0.012310102094590577 -0.0064561218162747531 0 -0.010184708442724774 -0.0080841883573094572 0 -0.012469144266652181 -0.0067858913297706661 0 -0.012406912738031441 -0.0064103114731829036 0 -0.011985603436014252 -0.0067280530859528337 0 -0.0066580171790257808 -0.01266874998914473 0 -0.0070533872731339924 -0.013062396735201244 0 -0.007051169438552024 -0.012413432056115092 0 -0.0066580171790257808 -0.01266874998914473 0 -0.0070533872731339924 -0.013062396735201244 0 -0.0060577553515710888 -0.013026745292886523 0 -0.008088437993389876 -0.013078318599628483 0 -0.0070533872731339924 -0.013062396735201244 0 -0.007641967542253038 -0.012326102345215778 0 -0.0070533872731339924 -0.013062396735201244 0 -0.007051169438552024 -0.012413432056115092 0 -0.007641967542253038 -0.012326102345215778 0 -0.010184708442724774 -0.0080841883573094572 0 -0.0088280676983962698 -0.010089221384322111 0 -0.011604767153063467 -0.0063155540056802533 0 -0.010786798036067772 -0.006576772753657506 0 -0.011174227962949541 -0.007012445329790261 0 -0.011111711490528801 -0.0064910486122842295 0 -0.010767433221957128 -0.0064272292774679059 0 -0.010786798036067772 -0.006576772753657506 0 -0.010184708442724774 -0.0080841883573094572 0 -0.011387381793741299 -0.0060717270012560984 0 -0.0088280676983962698 -0.010089221384322111 0 -0.007865395526493929 -0.0083029545800627994 0 -0.010767433221957128 -0.0064272292774679059 0 -0.010588465964609649 -0.0066879492295632099 0 -0.010097240538058307 -0.0064246642190919833 0 -0.010767433221957128 -0.0064272292774679059 0 -0.010786798036067772 -0.006576772753657506 0 -0.010588465964609649 -0.0066879492295632099 0 -0.010786798036067772 -0.006576772753657506 0 -0.010588465964609649 -0.0066879492295632099 0 -0.011174227962949541 -0.007012445329790261 0 -0.0096045542779120158 -0.0056946597777104806 0 -0.0097988882359364808 -0.0063433690717769669 0 -0.010623782465534958 -0.0063738354590890025 0 -0.0093915064468309186 -0.0066577061011564333 0 -0.0097988882359364808 -0.0063433690717769669 0 -0.0091805799088233112 -0.0061228591318734042 0 -0.0096045542779120158 -0.0056946597777104806 0 -0.0097988882359364808 -0.0063433690717769669 0 -0.0091805799088233112 -0.0061228591318734042 0 -0.0093915064468309186 -0.0066577061011564333 0 -0.0097988882359364808 -0.0063433690717769669 0 -0.010020179033199706 -0.0069465160904655524 0 -0.01018683219960013 -0.0059853320471245555 0 -0.01089756921077841 -0.0067186212146715125 0 -0.0097988882359364808 -0.0063433690717769669 0 -0.010623782465534958 -0.0063738354590890025 0 -0.010020179033199706 -0.0069465160904655524 0 -0.010623782465534958 -0.0063738354590890025 0 -0.010020179033199706 -0.0069465160904655524 0 -0.010843296347278777 -0.0075533641859551323 0 -0.010020179033199706 -0.0069465160904655524 0 -0.0099910328110700952 -0.0075489498941542898 0 -0.010843296347278777 -0.0075533641859551323 0 -0.010020179033199706 -0.0069465160904655524 0 -0.0095191740003936313 -0.0071967827434179206 0 -0.0099910328110700952 -0.0075489498941542898 0 -0.0093915064468309186 -0.0066577061011564333 0 -0.010020179033199706 -0.0069465160904655524 0 -0.0095191740003936313 -0.0071967827434179206 0 -0.012419783825500455 -0.0069369611574827605 0 -0.011985603436014252 -0.0067280530859528337 0 -0.011661961234299441 -0.0072181197577785659 0 -0.012419783825500455 -0.0069369611574827605 0 -0.012469144266652181 -0.0067858913297706661 0 -0.011985603436014252 -0.0067280530859528337 0 -0.01089756921077841 -0.0067186212146715125 0 -0.011592351524392122 -0.0071629180475861571 0 -0.011985603436014252 -0.0067280530859528337 0 -0.011174227962949541 -0.007012445329790261 0 -0.011661961234299441 -0.0072181197577785659 0 -0.010623782465534958 -0.0063738354590890025 0 -0.011661961234299441 -0.0072181197577785659 0 -0.010843296347278777 -0.0075533641859551323 0 -0.011661961234299441 -0.0072181197577785659 0 -0.011705425162850192 -0.0079290433808199313 0 -0.010843296347278777 -0.0075533641859551323 0 -0.012419783825500455 -0.0069369611574827605 0 -0.011661961234299441 -0.0072181197577785659 0 -0.012570158116443434 -0.0078805933125198416 0 -0.011661961234299441 -0.0072181197577785659 0 -0.011705425162850192 -0.0079290433808199313 0 -0.012570158116443434 -0.0078805933125198416 0 -0.011705425162850192 -0.0079290433808199313 0 -0.012088052626790413 -0.0085151968178713688 0 -0.012570158116443434 -0.0078805933125198416 0 -0.011705425162850192 -0.0079290433808199313 0 -0.011243702372646125 -0.0085228085545211458 0 -0.010843296347278777 -0.0075533641859551323 0 -0.011705425162850192 -0.0079290433808199313 0 -0.011243702372646125 -0.0085228085545211458 0 -0.012088052626790413 -0.0085151968178713688 0 -0.011243702372646125 -0.0085228085545211458 0 -0.010576805802620867 -0.0088813134612719009 0 -0.011252534032839788 -0.0094255197717972288 0 -0.011243702372646125 -0.0085228085545211458 0 -0.012088052626790413 -0.0085151968178713688 0 -0.011921869704164836 -0.0091957286690279357 0 -0.012088052626790413 -0.0085151968178713688 0 -0.011921869704164836 -0.0091957286690279357 0 -0.012990012055739662 -0.0091342249999512223 0 -0.0093135884664991338 -0.0078020393720558004 0 -0.0098300546681222636 -0.0080002277397936191 0 -0.0096322288449836747 -0.0084998290105939064 0 -0.0095191740003936313 -0.0071967827434179206 0 -0.0093135884664991338 -0.0078020393720558004 0 -0.0099910328110700952 -0.0075489498941542898 0 -0.0093135884664991338 -0.0078020393720558004 0 -0.0099910328110700952 -0.0075489498941542898 0 -0.0098300546681222636 -0.0080002277397936191 0 -0.0099910328110700952 -0.0075489498941542898 0 -0.0098300546681222636 -0.0080002277397936191 0 -0.01037590014704648 -0.0081701707157242568 0 -0.011243702372646125 -0.0085228085545211458 0 -0.01037590014704648 -0.0081701707157242568 0 -0.010843296347278777 -0.0075533641859551323 0 -0.0099910328110700952 -0.0075489498941542898 0 -0.01037590014704648 -0.0081701707157242568 0 -0.010843296347278777 -0.0075533641859551323 0 -0.011243702372646125 -0.0085228085545211458 0 -0.01037590014704648 -0.0081701707157242568 0 -0.010576805802620867 -0.0088813134612719009 0 -0.01037590014704648 -0.0081701707157242568 0 -0.010576805802620867 -0.0088813134612719009 0 -0.0096322288449836747 -0.0084998290105939064 0 -0.0093135884664991338 -0.0078020393720558004 0 -0.0096322288449836747 -0.0084998290105939064 0 -0.0093505528967901159 -0.0088446950650874299 0 -0.0098300546681222636 -0.0080002277397936191 0 -0.01037590014704648 -0.0081701707157242568 0 -0.0096322288449836747 -0.0084998290105939064 0 -0.0078291316046716353 -0.00666100824628044 0 -0.0079643127053002291 -0.0070668804712564941 0 -0.0080068085373875154 -0.0067819619576167554 0 -0.0096750594179515793 -0.0082868331234099198 0 -0.0099124300850344047 -0.010076714083718725 0 -0.0085530350894573084 -0.0082618567017351228 0 -0.0086779899583751801 -0.0078670253094654304 0 -0.0098223419562854155 -0.0091024597119195843 0 -0.0097435170014377008 -0.0091726436308126307 0 -0.0093505528967901159 -0.0088446950650874299 0 -0.0096322288449836747 -0.0084998290105939064 0 -0.0098223419562854155 -0.0091024597119195843 0 -0.0093505528967901159 -0.0088446950650874299 0 -0.010576805802620867 -0.0088813134612719009 0 -0.010449907644052439 -0.0097872894083709736 0 -0.011252534032839788 -0.0094255197717972288 0 -0.010576805802620867 -0.0088813134612719009 0 -0.0096322288449836747 -0.0084998290105939064 0 -0.010449907644052439 -0.0097872894083709736 0 -0.0099124300850344047 -0.010076714083718725 0 -0.012622998808097637 -0.0066588058643613042 0 -0.010449907644052439 -0.0097872894083709736 0 -0.011219990255122185 -0.010111432663126555 0 -0.011118773921880492 -0.010871732934876361 0 -0.0098223419562854155 -0.0091024597119195843 0 -0.0097435170014377008 -0.0091726436308126307 0 -0.0098775520371544301 -0.0091870531993024068 0 -0.0078291316046716353 -0.00666100824628044 0 -0.0080068085373875154 -0.0067819619576167554 0 -0.0080056392496644681 -0.0065618430328595184 0 -0.011921869704164836 -0.0091957286690279357 0 -0.011252534032839788 -0.0094255197717972288 0 -0.012044042968628071 -0.010003889799553118 0 -0.011921869704164836 -0.0091957286690279357 0 -0.012044042968628071 -0.010003889799553118 0 -0.012990012055739662 -0.0091342249999512223 0 -0.011243702372646125 -0.0085228085545211458 0 -0.011921869704164836 -0.0091957286690279357 0 -0.011252534032839788 -0.0094255197717972288 0 -0.011252534032839788 -0.0094255197717972288 0 -0.011219990255122185 -0.010111432663126555 0 -0.012044042968628071 -0.010003889799553118 0 -0.010449907644052439 -0.0097872894083709736 0 -0.011252534032839788 -0.0094255197717972288 0 -0.011219990255122185 -0.010111432663126555 0 -0.011219990255122185 -0.010111432663126555 0 -0.012044042968628071 -0.010003889799553118 0 -0.011118773921880492 -0.010871732934876361 0 -0.016622033608123699 -0.004079794113891937 0 -0.017310447071917506 -0.0041126698731916954 0 -0.016884352245645572 -0.0043313621223270453 0 -0.016622033608123699 -0.004079794113891937 0 -0.017310447071917506 -0.0041126698731916954 0 -0.017257273871142238 -0.0038524581809424412 0 -0.017310447071917506 -0.0041126698731916954 0 -0.017257273871142238 -0.0038524581809424412 0 -0.017621092280819133 -0.0039336374050810002 0 -0.014464396716617344 -0.0071933985694950259 0 -0.015097606797210819 -0.0064889481980136398 0 -0.012088052626790413 -0.0085151968178713688 0 -0.012990012055739662 -0.0091342249999512223 0 -0.012570158116443434 -0.0078805933125198416 0 -0.015097606797210819 -0.0064889481980136398 0 -0.015821649180259231 -0.0061976175972569972 0 -0.012990012055739662 -0.0091342249999512223 0 -0.012570158116443434 -0.0078805933125198416 0 -0.013961123233052361 -0.008334265477820171 0 -0.017257273871142238 -0.0038524581809424412 0 -0.017684933720316508 -0.0040150199242341587 0 -0.017621092280819133 -0.0039336374050810002 0 -0.013064678038397889 -0.0072355155423964104 0 -0.012570158116443434 -0.0078805933125198416 0 -0.013961123233052361 -0.008334265477820171 0 -0.017458939803103857 -0.0043260406181593576 0 -0.017684933720316508 -0.0040150199242341587 0 -0.017528430382112478 -0.0040098459204440705 0 -0.017549754971755455 -0.0048238240654090332 0 -0.017458939803103857 -0.0043260406181593576 0 -0.017684933720316508 -0.0040150199242341587 0 -0.017458939803103857 -0.0043260406181593576 0 -0.017528430382112478 -0.0040098459204440705 0 -0.017079797088407563 -0.0041933287554364752 0 -0.017549754971755455 -0.0048238240654090332 0 -0.017458939803103857 -0.0043260406181593576 0 -0.016998580183310862 -0.004670506019065419 0 -0.014004134287053088 -0.007292830848274626 0 -0.015274339261933848 -0.0073803579128529093 0 -0.013961123233052361 -0.008334265477820171 0 -0.016379272484420573 -0.0060823433655486682 0 -0.015821649180259231 -0.0061976175972569972 0 -0.017684933720316508 -0.0040150199242341587 0 -0.017528430382112478 -0.0040098459204440705 0 -0.017621092280819133 -0.0039336374050810002 0 -0.017310447071917506 -0.0041126698731916954 0 -0.017621092280819133 -0.0039336374050810002 0 -0.018023682752772718 -0.0040696404273839106 0 -0.017528430382112478 -0.0040098459204440705 0 -0.017737098818242276 -0.003991976972373701 0 -0.017621092280819133 -0.0039336374050810002 0 -0.017528430382112478 -0.0040098459204440705 0 -0.017737098818242276 -0.003991976972373701 0 -0.017652869854222427 -0.0040089892602718042 0 -0.018368370435685438 -0.0031098257319263994 0 -0.018005989888971254 -0.0041585627494181241 0 -0.017737098818242276 -0.003991976972373701 0 -0.017621092280819133 -0.0039336374050810002 0 -0.018023682752772718 -0.0040696404273839106 0 -0.017737098818242276 -0.003991976972373701 0 -0.017690736526365484 -0.0040033222729966584 0 -0.018023682752772718 -0.0040696404273839106 0 -0.019114857961155054 -0.0027867688240826921 0 -0.020090020247084447 -0.0035192085606616462 0 -0.019093910910223454 -0.0043484151263222474 0 -0.017652869854222427 -0.0040089892602718042 0 -0.017690736526365484 -0.0040033222729966584 0 -0.017682527859807808 -0.0039766457569057924 0 -0.017737098818242276 -0.003991976972373701 0 -0.017652869854222427 -0.0040089892602718042 0 -0.017690736526365484 -0.0040033222729966584 0 -0.019114857961155054 -0.0027867688240826921 0 -0.02010186757345889 -0.0026452366381065182 0 -0.020044632260861141 -0.0017286015109137551 0 -0.018368370435685438 -0.0031098257319263994 0 -0.019480802867940499 -0.004472125647615335 0 -0.019114857961155054 -0.0027867688240826921 0 -0.02010186757345889 -0.0026452366381065182 0 -0.020090020247084447 -0.0035192085606616462 0 -0.02010186757345889 -0.0026452366381065182 0 -0.020090020247084447 -0.0035192085606616462 0 -0.020840180072288925 -0.0032502361735925809 0 -0.020090020247084447 -0.0035192085606616462 0 -0.020840180072288925 -0.0032502361735925809 0 -0.020811495107986126 -0.0039977943206407317 0 -0.020840180072288925 -0.0032502361735925809 0 -0.02153234300634806 -0.0029117603026691113 0 -0.021669731857686534 -0.0040555353764017248 0 -0.021960874895135266 -0.0047369508819323676 0 -0.021995392071409697 -0.0052352448795194607 0 -0.02153234300634806 -0.0029117603026691113 0 -0.020756833275206298 -0.0023901004936405326 0 -0.02144836062098188 -0.0017722760167803177 0 -0.021960874895135266 -0.0047369508819323676 0 -0.021659593526055114 -0.0055921375246992464 0 -0.020840180072288925 -0.0032502361735925809 0 -0.02153234300634806 -0.0029117603026691113 0 -0.020756833275206298 -0.0023901004936405326 0 -0.022342266839375013 -0.0069826541067062814 0 -0.022318552670832086 -0.0075361487138011479 0 -0.022127889823926231 -0.0072415982461680409 0 -0.02010186757345889 -0.0026452366381065182 0 -0.020840180072288925 -0.0032502361735925809 0 -0.020756833275206298 -0.0023901004936405326 0 -0.02010186757345889 -0.0026452366381065182 0 -0.020756833275206298 -0.0023901004936405326 0 -0.020044632260861141 -0.0017286015109137551 0 -0.021659593526055114 -0.0055921375246992464 0 -0.019480802867940499 -0.004472125647615335 0 -0.020756833275206298 -0.0023901004936405326 0 -0.02144836062098188 -0.0017722760167803177 0 -0.020044632260861141 -0.0017286015109137551 0 -0.021626263597307373 -0.0076377012247554046 0 -0.021610841618625982 -0.0076327404492877058 0 -0.021568541112039524 -0.0076153080144688483 0 -0.021626263597307373 -0.0076377012247554046 0 -0.021627161258795286 -0.0076346945149690683 0 -0.021610841618625982 -0.0076327404492877058 0 -0.021659593526055114 -0.0055921375246992464 0 -0.021671911284597622 -0.0059210746330996961 0 -0.021629341264913698 -0.0076381212628577584 0 -0.021627161258795286 -0.0076346945149690683 0 -0.021631192146822208 -0.0076258677566695965 0 -0.021627161258795286 -0.0076346945149690683 0 -0.021629943286153992 -0.0076459681857578834 0 -0.021622443300930452 -0.0076401064049664699 0 -0.021627161258795286 -0.0076346945149690683 0 -0.021629943286153992 -0.0076459681857578834 0 -0.021631192146822208 -0.0076258677566695965 0 -0.021629943286153992 -0.0076459681857578834 0 -0.021622443300930452 -0.0076401064049664699 0 -0.021621389259022634 -0.0076487008660496795 0 -0.021627161258795286 -0.0076346945149690683 0 -0.021610841618625982 -0.0076327404492877058 0 -0.021622443300930452 -0.0076401064049664699 0 -0.021610841618625982 -0.0076327404492877058 0 -0.021622443300930452 -0.0076401064049664699 0 -0.021621389259022634 -0.0076487008660496795 0 -0.021621389259022634 -0.0076487008660496795 0 -0.021597678136216419 -0.0076274619575156192 0 -0.021612877196370138 -0.007641624071488288 0 -0.021629943286153992 -0.0076459681857578834 0 -0.021621389259022634 -0.0076487008660496795 0 -0.021629743955165429 -0.0077008799252894092 0 -0.021610841618625982 -0.0076327404492877058 0 -0.021597678136216419 -0.0076274619575156192 0 -0.021568541112039524 -0.0076153080144688483 0 -0.019132064393746748 -0.0061169911429701058 0 -0.019480802867940499 -0.004472125647615335 0 -0.021610841618625982 -0.0076327404492877058 0 -0.021621389259022634 -0.0076487008660496795 0 -0.021597678136216419 -0.0076274619575156192 0 -0.017013444978896137 -0.0041940745619512259 0 -0.017079797088407563 -0.0041933287554364752 0 -0.017015874719681034 -0.0042558111497688423 0 -0.016986289612774916 -0.0042450540879983836 0 -0.017013444978896137 -0.0041940745619512259 0 -0.017000413379005406 -0.0041659364359523882 0 -0.016986289612774916 -0.0042450540879983836 0 -0.017013444978896137 -0.0041940745619512259 0 -0.017015874719681034 -0.0042558111497688423 0 -0.017045578300738135 -0.0042378757284370879 0 -0.016567573885680073 -0.0043825134290711226 0 -0.016998580183310862 -0.004670506019065419 0 -0.017079797088407563 -0.0041933287554364752 0 -0.016284384730610769 -0.0047665805706802074 0 -0.017458939803103857 -0.0043260406181593576 0 -0.016998580183310862 -0.004670506019065419 0 -0.017079797088407563 -0.0041933287554364752 0 -0.017013444978896137 -0.0041940745619512259 0 -0.017079797088407563 -0.0041933287554364752 0 -0.017027744204831809 -0.0040898477912459791 0 -0.017631357613375954 -0.0040189502282550324 0 -0.017012802018164727 -0.0040368973112480935 0 -0.017528430382112478 -0.0040098459204440705 0 -0.017652869854222427 -0.0040089892602718042 0 -0.017682527859807808 -0.0039766457569057924 0 -0.017690736526365484 -0.0040033222729966584 0 -0.017682527859807808 -0.0039766457569057924 0 -0.01772647138441754 -0.0039776901928611323 0 -0.017528430382112478 -0.0040098459204440705 0 -0.017079797088407563 -0.0041933287554364752 0 -0.017027744204831809 -0.0040898477912459791 0 -0.017012802018164727 -0.0040368973112480935 0 -0.019480802867940499 -0.004472125647615335 0 -0.017013444978896137 -0.0041940745619512259 0 -0.017027744204831809 -0.0040898477912459791 0 -0.017000413379005406 -0.0041659364359523882 0 -0.027040794690940995 -0.0078273345785661013 0 -0.023858623291097142 -0.0075090802020777057 0 -0.02790823304639729 -0.0098118556601979219 0 -0.027297162281137818 -0.0085977720774450313 0 -0.024589035699129527 -0.0088068421213644641 0 -0.026061300132747198 -0.005791033471809013 0 -0.024313714377839527 -0.0068575878176074133 0 -0.022886193176575382 -0.0061837209151312401 0 -0.027297162281137818 -0.0085977720774450313 0 -0.024589035699129527 -0.0088068421213644641 0 -0.0264811932148281 -0.0073668261407510852 0 -0.026061300132747198 -0.005791033471809013 0 -0.025609975730255283 -0.0067921558968994499 0 -0.024313714377839527 -0.0068575878176074133 0 -0.025339038755525709 -0.0076546207476365586 0 -0.024313714377839527 -0.0068575878176074133 0 -0.023216709114596411 -0.0081514784860935632 0 -0.025339038755525709 -0.0076546207476365586 0 -0.023216709114596411 -0.0081514784860935632 0 -0.025918085001578998 -0.0094224918796079402 0 -0.025609975730255283 -0.0067921558968994499 0 -0.025339038755525709 -0.0076546207476365586 0 -0.024313714377839527 -0.0068575878176074133 0 -0.022844014871642067 -0.0076430125081837514 0 -0.022433385371043862 -0.0071995767974562417 0 -0.021959729737832827 -0.0070626007869571241 0 -0.0232436999152471 -0.0071348129667506144 0 -0.023216709114596411 -0.0081514784860935632 0 -0.022433385371043862 -0.0071995767974562417 0 -0.021213944591284558 -0.0066589531687278819 0 -0.021959729737832827 -0.0070626007869571241 0 -0.021528320517255391 -0.0064395563508210206 0 -0.024313714377839527 -0.0068575878176074133 0 -0.0232436999152471 -0.0071348129667506144 0 -0.023216709114596411 -0.0081514784860935632 0 -0.022546673426912477 -0.0070801448038451198 0 -0.021808140866416172 -0.0070465879455049391 0 -0.022546673426912477 -0.0070801448038451198 0 -0.022724404921020284 -0.0074369716300798578 0 -0.022433385371043862 -0.0071995767974562417 0 -0.022886193176575382 -0.0061837209151312401 0 -0.02203079379462735 -0.0070390426410137964 0 -0.0232436999152471 -0.0071348129667506144 0 -0.022433385371043862 -0.0071995767974562417 0 -0.022886193176575382 -0.0061837209151312401 0 -0.024313714377839527 -0.0068575878176074133 0 -0.0232436999152471 -0.0071348129667506144 0 -0.022886193176575382 -0.0061837209151312401 0 -0.022886193176575382 -0.0061837209151312401 0 -0.022014628386855088 -0.0073670805559880757 0 -0.02203079379462735 -0.0070390426410137964 0 -0.024589035699129527 -0.0088068421213644641 0 -0.022014628386855088 -0.0073670805559880757 0 -0.022672763048635108 -0.0069197798696553469 0 -0.023858623291097142 -0.0075090802020777057 0 -0.022237376666846782 -0.0073760124605175056 0 -0.022014628386855088 -0.0073670805559880757 0 -0.02203079379462735 -0.0070390426410137964 0 -0.02204244969256346 -0.0071997692230952098 0 -0.02203079379462735 -0.0070390426410137964 0 -0.021959729737832827 -0.0070626007869571241 0 -0.022047741151265673 -0.007005947435720754 0 -0.022433385371043862 -0.0071995767974562417 0 -0.02203079379462735 -0.0070390426410137964 0 -0.021959729737832827 -0.0070626007869571241 0 -0.02184080183791591 -0.0066438347365081465 0 -0.021959729737832827 -0.0070626007869571241 0 -0.021528320517255391 -0.0064395563508210206 0 -0.02184080183791591 -0.0066438347365081465 0 -0.021959729737832827 -0.0070626007869571241 0 -0.022036977868119478 -0.0066310917815846715 0 -0.022342266839375013 -0.0069826541067062814 0 -0.022036977868119478 -0.0066310917815846715 0 -0.022366479338822801 -0.0062862262097803379 0 -0.022342266839375013 -0.0069826541067062814 0 -0.022047741151265673 -0.007005947435720754 0 -0.022036977868119478 -0.0066310917815846715 0 -0.021959729737832827 -0.0070626007869571241 0 -0.022047741151265673 -0.007005947435720754 0 -0.022036977868119478 -0.0066310917815846715 0 -0.022342266839375013 -0.0069826541067062814 0 -0.022047741151265673 -0.007005947435720754 0 -0.02204244969256346 -0.0071997692230952098 0 -0.02203079379462735 -0.0070390426410137964 0 -0.022047741151265673 -0.007005947435720754 0 -0.02204244969256346 -0.0071997692230952098 0 -0.022014628386855088 -0.0073670805559880757 0 -0.02204244969256346 -0.0071997692230952098 0 -0.021832108879712788 -0.0072879982806184247 0 -0.02204244969256346 -0.0071997692230952098 0 -0.022127889823926231 -0.0072415982461680409 0 -0.021832108879712788 -0.0072879982806184247 0 -0.022342266839375013 -0.0069826541067062814 0 -0.02204244969256346 -0.0071997692230952098 0 -0.022127889823926231 -0.0072415982461680409 0 -0.021629341264913698 -0.0076381212628577584 0 -0.021644111364658471 -0.0075268518589212139 0 -0.021631192146822208 -0.0076258677566695965 0 -0.022318552670832086 -0.0075361487138011479 0 -0.021832108879712788 -0.0072879982806184247 0 -0.021644111364658471 -0.0075268518589212139 0 -0.022318552670832086 -0.0075361487138011479 0 -0.022127889823926231 -0.0072415982461680409 0 -0.021832108879712788 -0.0072879982806184247 0 -0.021659593526055114 -0.0055921375246992464 0 -0.021783268015025593 -0.0077242180730767267 0 -0.021644111364658471 -0.0075268518589212139 0 -0.021631192146822208 -0.0076258677566695965 0 -0.021608728285147906 -0.0076508596084946812 0 -0.021629943286153992 -0.0076459681857578834 0 -0.021631192146822208 -0.0076258677566695965 0 -0.021608728285147906 -0.0076508596084946812 0 -0.021629943286153992 -0.0076459681857578834 0 -0.021608728285147906 -0.0076508596084946812 0 -0.021629743955165429 -0.0077008799252894092 0 -0.021376105845581 -0.0077871752852064925 0 -0.021230046481228889 -0.0078003386639943799 0 -0.021074218189174702 -0.0078504111552428861 0 -0.02127548733222125 -0.0077313343277784297 0 -0.021542057991449735 -0.0078833048052599757 0 -0.021608728285147906 -0.0076508596084946812 0 -0.021376105845581 -0.0077871752852064925 0 -0.021629743955165429 -0.0077008799252894092 0 -0.021644111364658471 -0.0075268518589212139 0 -0.021608728285147906 -0.0076508596084946812 0 -0.021533995318285246 -0.0076625708847021246 0 -0.021608728285147906 -0.0076508596084946812 0 -0.021533995318285246 -0.0076625708847021246 0 -0.021376105845581 -0.0077871752852064925 0 -0.021644111364658471 -0.0075268518589212139 0 -0.021533995318285246 -0.0076625708847021246 0 -0.021265593315637751 -0.0077544878965004381 0 -0.021533995318285246 -0.0076625708847021246 0 -0.021376105845581 -0.0077871752852064925 0 -0.021265593315637751 -0.0077544878965004381 0 -0.021265593315637751 -0.0077544878965004381 0 -0.021343927676911206 -0.0078211849609258182 0 -0.021283628734030575 -0.0078107027842473668 0 -0.021376105845581 -0.0077871752852064925 0 -0.021265593315637751 -0.0077544878965004381 0 -0.021283628734030575 -0.0078107027842473668 0 -0.021376105845581 -0.0077871752852064925 0 -0.021283628734030575 -0.0078107027842473668 0 -0.021230046481228889 -0.0078003386639943799 0 -0.021832108879712788 -0.0072879982806184247 0 -0.021644111364658471 -0.0075268518589212139 0 -0.021265593315637751 -0.0077544878965004381 0 -0.021867683716839302 -0.0071917120120721266 0 -0.022014471867240686 -0.0069650724381296134 0 -0.021832108879712788 -0.0072879982806184247 0 -0.022893967538876493 -0.0058632876100214656 0 -0.022672763048635108 -0.0069197798696553469 0 -0.022893967538876493 -0.0058632876100214656 0 -0.022672763048635108 -0.0069197798696553469 0 -0.024241105703601482 -0.0068806954426765292 0 -0.022014628386855088 -0.0073670805559880757 0 -0.021832108879712788 -0.0072879982806184247 0 -0.022672763048635108 -0.0069197798696553469 0 -0.024589035699129527 -0.0088068421213644641 0 -0.022672763048635108 -0.0069197798696553469 0 -0.024241105703601482 -0.0068806954426765292 0 -0.024589035699129527 -0.0088068421213644641 0 -0.024241105703601482 -0.0068806954426765292 0 -0.0264811932148281 -0.0073668261407510852 0 -0.022893967538876493 -0.0058632876100214656 0 -0.024241105703601482 -0.0068806954426765292 0 -0.024335390588309917 -0.0055798392166586819 0 -0.022893967538876493 -0.0058632876100214656 0 -0.024335390588309917 -0.0055798392166586819 0 -0.024574724422303542 -0.0038997394130781023 0 -0.022014471867240686 -0.0069650724381296134 0 -0.023257569372358892 -0.0049950503684504412 0 -0.024335390588309917 -0.0055798392166586819 0 -0.025651361060380566 -0.0056273416829210453 0 -0.024574724422303542 -0.0038997394130781023 0 -0.024241105703601482 -0.0068806954426765292 0 -0.024335390588309917 -0.0055798392166586819 0 -0.025651361060380566 -0.0056273416829210453 0 -0.02835907460006834 -0.0044945099461281834 0 -0.025651361060380566 -0.0056273416829210453 0 -0.024574724422303542 -0.0038997394130781023 0 -0.02835907460006834 -0.0044945099461281834 0 -0.025651361060380566 -0.0056273416829210453 0 -0.027228111595815431 -0.0061274703526370917 0 -0.025651361060380566 -0.0056273416829210453 0 -0.027228111595815431 -0.0061274703526370917 0 -0.0264811932148281 -0.0073668261407510852 0 -0.024241105703601482 -0.0068806954426765292 0 -0.025651361060380566 -0.0056273416829210453 0 -0.0264811932148281 -0.0073668261407510852 0 -0.028442937645231994 -0.0070319261713020177 0 -0.027228111595815431 -0.0061274703526370917 0 -0.0264811932148281 -0.0073668261407510852 0 -0.028199269237471319 -0.0081801092367420648 0 -0.027297162281137818 -0.0085977720774450313 0 -0.0264811932148281 -0.0073668261407510852 0 -0.024395435614505297 -0.010639941380000191 0 -0.020626325317975189 -0.0066565781527060282 0 -0.02835907460006834 -0.0044945099461281834 0 -0.026301625101009564 -0.0019354173500383636 0 -0.024574724422303542 -0.0038997394130781023 0 -0.028580033700966036 -0.013725501356629751 0 -0.024395435614505297 -0.010639941380000191 0 -0.024395435614505297 -0.010639941380000191 0 -0.023257569372358892 -0.0049950503684504412 0 -0.021343927676911206 -0.0078211849609258182 0 -0.021355409272124072 -0.0077472310191179653 0 -0.021247675213001933 -0.00776309834414542 0 -0.021480124654305766 -0.0077588530393526206 0 -0.021343927676911206 -0.0078211849609258182 0 -0.021355409272124072 -0.0077472310191179653 0 -0.021480124654305766 -0.0077588530393526206 0 -0.021355409272124072 -0.0077472310191179653 0 -0.021473260035217143 -0.0076599096894492888 0 -0.021355409272124072 -0.0077472310191179653 0 -0.021155981626921637 -0.007667440164390759 0 -0.021174597514171865 -0.0075693506642941864 0 -0.021155981626921637 -0.007667440164390759 0 -0.021247675213001933 -0.00776309834414542 0 -0.021085152001724238 -0.0077076328071271592 0 -0.021355409272124072 -0.0077472310191179653 0 -0.021155981626921637 -0.007667440164390759 0 -0.021247675213001933 -0.00776309834414542 0 -0.021343927676911206 -0.0078211849609258182 0 -0.021247675213001933 -0.00776309834414542 0 -0.021283628734030575 -0.0078107027842473668 0 -0.021283628734030575 -0.0078107027842473668 0 -0.021204774006749617 -0.0077786669130022953 0 -0.021230046481228889 -0.0078003386639943799 0 -0.021247675213001933 -0.00776309834414542 0 -0.021283628734030575 -0.0078107027842473668 0 -0.021204774006749617 -0.0077786669130022953 0 -0.021247675213001933 -0.00776309834414542 0 -0.021204774006749617 -0.0077786669130022953 0 -0.021085152001724238 -0.0077076328071271592 0 -0.021204774006749617 -0.0077786669130022953 0 -0.021121833565447532 -0.0077723533676706006 0 -0.021085152001724238 -0.0077076328071271592 0 -0.021204774006749617 -0.0077786669130022953 0 -0.021121833565447532 -0.0077723533676706006 0 -0.021230046481228889 -0.0078003386639943799 0 -0.021121833565447532 -0.0077723533676706006 0 -0.021230046481228889 -0.0078003386639943799 0 -0.021074218189174702 -0.0078504111552428861 0 -0.021121833565447532 -0.0077723533676706006 0 -0.021074218189174702 -0.0078504111552428861 0 -0.021029394523820296 -0.0077507103618134352 0 -0.021121833565447532 -0.0077723533676706006 0 -0.021029394523820296 -0.0077507103618134352 0 -0.021085152001724238 -0.0077076328071271592 0 -0.021029394523820296 -0.0077507103618134352 0 -0.021085152001724238 -0.0077076328071271592 0 -0.020955970373633868 -0.0076733762910660003 0 -0.021155981626921637 -0.007667440164390759 0 -0.021085152001724238 -0.0077076328071271592 0 -0.021018943679264396 -0.0075961101144286086 0 -0.021018943679264396 -0.0075961101144286086 0 -0.020955970373633868 -0.0076733762910660003 0 -0.020936162663272435 -0.0075843249482136707 0 -0.021085152001724238 -0.0077076328071271592 0 -0.021018943679264396 -0.0075961101144286086 0 -0.020955970373633868 -0.0076733762910660003 0 -0.021018943679264396 -0.0075961101144286086 0 -0.020850266456365785 -0.0072459080413897784 0 -0.020936162663272435 -0.0075843249482136707 0 -0.019633630843399939 -0.0072978870652376611 0 -0.020850266456365785 -0.0072459080413897784 0 -0.019364445463284162 -0.008224878576240267 0 -0.020775657193515127 -0.0071928959644445038 0 -0.020400053079422845 -0.0081402262852594536 0 -0.019633630843399939 -0.0072978870652376611 0 -0.020850266456365785 -0.0072459080413897784 0 -0.019992289798380723 -0.0067306858927609929 0 -0.019633630843399939 -0.0072978870652376611 0 -0.019202232793386453 -0.0066245951545868568 0 -0.019992289798380723 -0.0067306858927609929 0 -0.020850266456365785 -0.0072459080413897784 0 -0.021235437353631714 -0.0073061535274338962 0 -0.020913015860564748 -0.0066103931732022251 0 -0.020850266456365785 -0.0072459080413897784 0 -0.020913015860564748 -0.0066103931732022251 0 -0.019992289798380723 -0.0067306858927609929 0 -0.020850266456365785 -0.0072459080413897784 0 -0.021174597514171865 -0.0075693506642941864 0 -0.021235437353631714 -0.0073061535274338962 0 -0.021018943679264396 -0.0075961101144286086 0 -0.020850266456365785 -0.0072459080413897784 0 -0.021174597514171865 -0.0075693506642941864 0 -0.021155981626921637 -0.007667440164390759 0 -0.021018943679264396 -0.0075961101144286086 0 -0.021174597514171865 -0.0075693506642941864 0 -0.021355409272124072 -0.0077472310191179653 0 -0.021174597514171865 -0.0075693506642941864 0 -0.021473260035217143 -0.0076599096894492888 0 -0.021174597514171865 -0.0075693506642941864 0 -0.021473260035217143 -0.0076599096894492888 0 -0.021235437353631714 -0.0073061535274338962 0 -0.021235437353631714 -0.0073061535274338962 0 -0.021744647699079599 -0.0071582976922491765 0 -0.020913015860564748 -0.0066103931732022251 0 -0.021822425039302769 -0.013737110265604863 0 -0.020399686027443464 -0.013543143097544523 0 -0.021473260035217143 -0.0076599096894492888 0 -0.021235437353631714 -0.0073061535274338962 0 -0.021744647699079599 -0.0071582976922491765 0 -0.02480139648490233 -0.020046688064752238 0 -0.02255624580622001 -0.020972485315998161 0 -0.023008120371182741 -0.019786559288743632 0 -0.025349520507501288 -0.016486347116800196 0 -0.021822425039302769 -0.013737110265604863 0 -0.025712167892380546 -0.021687075149861564 0 -0.02480139648490233 -0.020046688064752238 0 -0.02255624580622001 -0.020972485315998161 0 -0.021473260035217143 -0.0076599096894492888 0 -0.021744647699079599 -0.0071582976922491765 0 -0.022005075810863476 -0.0077139403672322696 0 -0.022051678138184112 -0.0085115054185335767 0 -0.021473260035217143 -0.0076599096894492888 0 -0.022005075810863476 -0.0077139403672322696 0 -0.025349520507501288 -0.016486347116800196 0 -0.024395435614505297 -0.010639941380000191 0 -0.022762497025205074 -0.0076370544199577265 0 -0.021744647699079599 -0.0071582976922491765 0 -0.022005075810863476 -0.0077139403672322696 0 -0.022762497025205074 -0.0076370544199577265 0 -0.022051678138184112 -0.0085115054185335767 0 -0.022005075810863476 -0.0077139403672322696 0 -0.016292116618359321 -0.0057828568416845904 0 -0.01653313679148705 -0.0052519143500034645 0 -0.015647274334734253 -0.0054074871664154811 0 -0.017264665706206321 -0.0087184440707313311 0 -0.017799962565634733 -0.0080267018852776123 0 -0.016399420765931608 -0.0082278393730047857 0 -0.016292116618359321 -0.0057828568416845904 0 -0.01658597070140274 -0.005846359614417037 0 -0.01653313679148705 -0.0052519143500034645 0 -0.016684872757422906 -0.0071814494586544672 0 -0.017791238446543244 -0.0066452027737528294 0 -0.016684872757422906 -0.0071814494586544672 0 -0.0162470964328446 -0.007538638130710716 0 -0.016292116618359321 -0.0057828568416845904 0 -0.01658597070140274 -0.005846359614417037 0 -0.016537685858287993 -0.0057418414754495549 0 -0.015274339261933848 -0.0073803579128529093 0 -0.015782948312668365 -0.006289294927594927 0 -0.01658597070140274 -0.005846359614417037 0 -0.016379272484420573 -0.0060823433655486682 0 -0.016582892789752404 -0.0058764173351077724 0 -0.01658597070140274 -0.005846359614417037 0 -0.016217349999871004 -0.0059804665844491517 0 -0.016537685858287993 -0.0057418414754495549 0 -0.015782948312668365 -0.006289294927594927 0 -0.01658597070140274 -0.005846359614417037 0 -0.016217349999871004 -0.0059804665844491517 0 -0.017549754971755455 -0.0048238240654090332 0 -0.01658597070140274 -0.005846359614417037 0 -0.01653313679148705 -0.0052519143500034645 0 -0.016998580183310862 -0.004670506019065419 0 -0.016284384730610769 -0.0047665805706802074 0 -0.01653313679148705 -0.0052519143500034645 0 -0.017549754971755455 -0.0048238240654090332 0 -0.016998580183310862 -0.004670506019065419 0 -0.01653313679148705 -0.0052519143500034645 0 -0.016567573885680073 -0.0043825134290711226 0 -0.017791238446543244 -0.0066452027737528294 0 -0.016284384730610769 -0.0047665805706802074 0 -0.01653313679148705 -0.0052519143500034645 0 -0.015647274334734253 -0.0054074871664154811 0 -0.016986289612774916 -0.0042450540879983836 0 -0.017015874719681034 -0.0042558111497688423 0 -0.017000045421900874 -0.0043175622057194385 0 -0.016986289612774916 -0.0042450540879983836 0 -0.017000045421900874 -0.0043175622057194385 0 -0.016982971556931854 -0.0043064981494428979 0 -0.019132064393746748 -0.0061169911429701058 0 -0.020335251081717361 -0.0066328046741430105 0 -0.017791238446543244 -0.0066452027737528294 0 -0.020335251081717361 -0.0066328046741430105 0 -0.020721409940620588 -0.0077205983402217548 0 -0.020838130442617689 -0.0077877369630079763 0 -0.020955970373633868 -0.0076733762910660003 0 -0.021074218189174702 -0.0078504111552428861 0 -0.021029394523820296 -0.0077507103618134352 0 -0.02090173501630074 -0.0077729856480473576 0 -0.021621389259022634 -0.0076487008660496795 0 -0.021629743955165429 -0.0077008799252894092 0 -0.021612877196370138 -0.007641624071488288 0 -0.021542057991449735 -0.0078833048052599757 0 -0.020335251081717361 -0.0066328046741430105 0 -0.021029394523820296 -0.0077507103618134352 0 -0.02090173501630074 -0.0077729856480473576 0 -0.020955970373633868 -0.0076733762910660003 0 -0.020721409940620588 -0.0077205983402217548 0 -0.020955970373633868 -0.0076733762910660003 0 -0.020936162663272435 -0.0075843249482136707 0 -0.017791238446543244 -0.0066452027737528294 0 -0.020400053079422845 -0.0081402262852594536 0 -0.020335251081717361 -0.0066328046741430105 0 -0.020826588296485336 -0.0078276458419753968 0 -0.017264665706206321 -0.0087184440707313311 0 -0.018226382288175916 -0.0083922538954665036 0 -0.017799962565634733 -0.0080267018852776123 0 -0.018118838787551782 -0.0091838363969948683 0 -0.018226382288175916 -0.0083922538954665036 0 -0.019364445463284162 -0.008224878576240267 0 -0.017264665706206321 -0.0087184440707313311 0 -0.018118838787551782 -0.0091838363969948683 0 -0.018226382288175916 -0.0083922538954665036 0 -0.018226382288175916 -0.0083922538954665036 0 -0.017799962565634733 -0.0080267018852776123 0 -0.018564529543968127 -0.0078270726228699215 0 -0.017799962565634733 -0.0080267018852776123 0 -0.018564529543968127 -0.0078270726228699215 0 -0.01793609450008421 -0.007281621896624838 0 -0.019633630843399939 -0.0072978870652376611 0 -0.019364445463284162 -0.008224878576240267 0 -0.019052282131392404 -0.0076106871201005368 0 -0.018226382288175916 -0.0083922538954665036 0 -0.018564529543968127 -0.0078270726228699215 0 -0.019364445463284162 -0.008224878576240267 0 -0.018564529543968127 -0.0078270726228699215 0 -0.019364445463284162 -0.008224878576240267 0 -0.019052282131392404 -0.0076106871201005368 0 -0.019633630843399939 -0.0072978870652376611 0 -0.018650635653209985 -0.0070756413411213054 0 -0.019202232793386453 -0.0066245951545868568 0 -0.019633630843399939 -0.0072978870652376611 0 -0.019052282131392404 -0.0076106871201005368 0 -0.018650635653209985 -0.0070756413411213054 0 -0.018564529543968127 -0.0078270726228699215 0 -0.019052282131392404 -0.0076106871201005368 0 -0.018650635653209985 -0.0070756413411213054 0 -0.018650635653209985 -0.0070756413411213054 0 -0.01793609450008421 -0.007281621896624838 0 -0.017551794369415629 -0.0064512815875619831 0 -0.018564529543968127 -0.0078270726228699215 0 -0.018650635653209985 -0.0070756413411213054 0 -0.01793609450008421 -0.007281621896624838 0 -0.01793609450008421 -0.007281621896624838 0 -0.017085128093385121 -0.0071071160120551764 0 -0.017551794369415629 -0.0064512815875619831 0 -0.017085128093385121 -0.0071071160120551764 0 -0.016627834990047635 -0.0063653496150270824 0 -0.017551794369415629 -0.0064512815875619831 0 -0.017729999251011281 -0.0081587869324850314 0 -0.0162470964328446 -0.007538638130710716 0 -0.017799962565634733 -0.0080267018852776123 0 -0.017085128093385121 -0.0071071160120551764 0 -0.016718488498854985 -0.007579201604429181 0 -0.017799962565634733 -0.0080267018852776123 0 -0.01793609450008421 -0.007281621896624838 0 -0.017085128093385121 -0.0071071160120551764 0 -0.017799962565634733 -0.0080267018852776123 0 -0.016718488498854985 -0.007579201604429181 0 -0.016229020358203197 -0.008132409727173372 0 -0.017085128093385121 -0.0071071160120551764 0 -0.016718488498854985 -0.007579201604429181 0 -0.016366626886099345 -0.0071340047454046401 0 -0.015275014648888908 -0.0074551082713927644 0 -0.016229020358203197 -0.008132409727173372 0 -0.016022715078307131 -0.0074687911621256044 0 -0.015485294708909705 -0.0074935974658455829 0 -0.0162470964328446 -0.007538638130710716 0 -0.016718488498854985 -0.007579201604429181 0 -0.016229020358203197 -0.008132409727173372 0 -0.016022715078307131 -0.0074687911621256044 0 -0.016718488498854985 -0.007579201604429181 0 -0.016022715078307131 -0.0074687911621256044 0 -0.016366626886099345 -0.0071340047454046401 0 -0.015275014648888908 -0.0074551082713927644 0 -0.016022715078307131 -0.0074687911621256044 0 -0.015518613025970646 -0.0069704893798062731 0 -0.016022715078307131 -0.0074687911621256044 0 -0.015518613025970646 -0.0069704893798062731 0 -0.016366626886099345 -0.0071340047454046401 0 -0.015446968212687109 -0.0063189398143359788 0 -0.016304157313300646 -0.0070762772027605121 0 -0.015884919364031434 -0.0066969733581758416 0 -0.016366626886099345 -0.0071340047454046401 0 -0.016342804857925986 -0.0067628743734798775 0 -0.015393153681965449 -0.0060571282511026345 0 -0.015518613025970646 -0.0069704893798062731 0 -0.016366626886099345 -0.0071340047454046401 0 -0.017085128093385121 -0.0071071160120551764 0 -0.016366626886099345 -0.0071340047454046401 0 -0.016342804857925986 -0.0067628743734798775 0 -0.017085128093385121 -0.0071071160120551764 0 -0.016342804857925986 -0.0067628743734798775 0 -0.016627834990047635 -0.0063653496150270824 0 -0.015884919364031434 -0.0066969733581758416 0 -0.016342804857925986 -0.0067628743734798775 0 -0.016627834990047635 -0.0063653496150270824 0 -0.015884919364031434 -0.0066969733581758416 0 -0.016627834990047635 -0.0063653496150270824 0 -0.016026627353058265 -0.0058487922213926249 0 -0.014812489006308119 -0.0083786226861377357 0 -0.016222574641344856 -0.0076837444494998932 0 -0.016627834990047635 -0.0063653496150270824 0 -0.016026627353058265 -0.0058487922213926249 0 -0.01680883551319156 -0.0055541850679747696 0 -0.01342070015104091 -0.010951584281953064 0 -0.013032480638227035 -0.012546355567029587 0 -0.014030027481424744 -0.011954742471699491 0 -0.01342070015104091 -0.010951584281953064 0 -0.013032480638227035 -0.012546355567029587 0 -0.012160003752744458 -0.011366753674815003 0 -0.015555205116724074 -0.0087979878381166908 0 -0.016222574641344856 -0.0076837444494998932 0 -0.018130889185450798 -0.0058596884332106185 0 -0.018217497567783281 -0.0059337042017749073 0 -0.018076320050237051 -0.0057878672250516626 0 -0.018130889185450798 -0.0058596884332106185 0 -0.01829077876744669 -0.0059910540437954317 0 -0.018044301918802696 -0.0059591045420214189 0 -0.016972611793058409 -0.0072206976954003414 0 -0.015555205116724074 -0.0087979878381166908 0 -0.016222574641344856 -0.0076837444494998932 0 -0.018512095744304066 -0.0054601294835141742 0 -0.017994076320681333 -0.0058109839479795486 0 -0.018044301918802696 -0.0059591045420214189 0 -0.017948431389366235 -0.0056393840282001721 0 -0.017994076320681333 -0.0058109839479795486 0 -0.018076320050237051 -0.0057878672250516626 0 -0.017916588495873326 -0.0057307932510027608 0 -0.017209284361730959 -0.0059239418166350238 0 -0.017835139285140546 -0.0060945280328457948 0 -0.017916588495873326 -0.0057307932510027608 0 -0.018130889185450798 -0.0058596884332106185 0 -0.018044301918802696 -0.0059591045420214189 0 -0.018059070315444525 -0.0058458430453786096 0 -0.017994076320681333 -0.0058109839479795486 0 -0.018044301918802696 -0.0059591045420214189 0 -0.018059070315444525 -0.0058458430453786096 0 -0.017994076320681333 -0.0058109839479795486 0 -0.018059070315444525 -0.0058458430453786096 0 -0.018076320050237051 -0.0057878672250516626 0 -0.018130889185450798 -0.0058596884332106185 0 -0.018059070315444525 -0.0058458430453786096 0 -0.018076320050237051 -0.0057878672250516626 0 -0.017209284361730959 -0.0059239418166350238 0 -0.017551794369415629 -0.0064512815875619831 0 -0.017835139285140546 -0.0060945280328457948 0 -0.016222574641344856 -0.0076837444494998932 0 -0.0173686959353705 -0.0060203511891353733 0 -0.016627834990047635 -0.0063653496150270824 0 -0.01680883551319156 -0.0055541850679747696 0 -0.017551794369415629 -0.0064512815875619831 0 -0.018650635653209985 -0.0070756413411213054 0 -0.017551794369415629 -0.0064512815875619831 0 -0.01832690663966895 -0.0061613252871015418 0 -0.017551794369415629 -0.0064512815875619831 0 -0.01832690663966895 -0.0061613252871015418 0 -0.017835139285140546 -0.0060945280328457948 0 -0.01832690663966895 -0.0061613252871015418 0 -0.019202232793386453 -0.0066245951545868568 0 -0.019326907091986627 -0.0058672622553383432 0 -0.018650635653209985 -0.0070756413411213054 0 -0.01832690663966895 -0.0061613252871015418 0 -0.019202232793386453 -0.0066245951545868568 0 -0.017645620756352908 -0.019988424174747003 0 -0.017385030494470672 -0.019374926878077056 0 -0.016311012006625866 -0.019768424171151894 0 -0.018470043180597771 -0.012921414302379034 0 -0.017135652043573649 -0.012737227933212173 0 -0.01832690663966895 -0.0061613252871015418 0 -0.019326907091986627 -0.0058672622553383432 0 -0.017948431389366235 -0.0056393840282001721 0 -0.01832690663966895 -0.0061613252871015418 0 -0.017948431389366235 -0.0056393840282001721 0 -0.017916588495873326 -0.0057307932510027608 0 -0.01832690663966895 -0.0061613252871015418 0 -0.017835139285140546 -0.0060945280328457948 0 -0.017916588495873326 -0.0057307932510027608 0 -0.017994076320681333 -0.0058109839479795486 0 -0.017948431389366235 -0.0056393840282001721 0 -0.017916588495873326 -0.0057307932510027608 0 -0.016311012006625866 -0.019768424171151894 0 -0.01641463399053085 -0.019444963631369792 0 -0.016023657093356132 -0.019576672223768448 0 -0.016311012006625866 -0.019768424171151894 0 -0.01641463399053085 -0.019444963631369792 0 -0.016819648699666814 -0.019367875264964803 0 -0.01641463399053085 -0.019444963631369792 0 -0.016669735139733063 -0.019192134320269789 0 -0.016300983440346955 -0.019340018299728735 0 -0.01641463399053085 -0.019444963631369792 0 -0.016669735139733063 -0.019192134320269789 0 -0.016819648699666814 -0.019367875264964803 0 -0.01641463399053085 -0.019444963631369792 0 -0.016300983440346955 -0.019340018299728735 0 -0.016023657093356132 -0.019576672223768448 0 -0.016300983440346955 -0.019340018299728735 0 -0.016018218876934949 -0.019397753877321799 0 -0.016023657093356132 -0.019576672223768448 0 -0.017385030494470672 -0.019374926878077056 0 -0.016311012006625866 -0.019768424171151894 0 -0.016819648699666814 -0.019367875264964803 0 -0.017385030494470672 -0.019374926878077056 0 -0.016819648699666814 -0.019367875264964803 0 -0.017358340647783545 -0.018934645470795344 0 -0.017385030494470672 -0.019374926878077056 0 -0.017358340647783545 -0.018934645470795344 0 -0.018121310552385368 -0.019081322608203603 0 -0.016669735139733063 -0.019192134320269789 0 -0.016819648699666814 -0.019367875264964803 0 -0.017358340647783545 -0.018934645470795344 0 -0.016669735139733063 -0.019192134320269789 0 -0.017358340647783545 -0.018934645470795344 0 -0.016832890473420733 -0.018957066318723625 0 -0.016832890473420733 -0.018957066318723625 0 -0.017063431198519684 -0.018722336219518861 0 -0.016278190898599571 -0.019261641556716842 0 -0.017358340647783545 -0.018934645470795344 0 -0.016832890473420733 -0.018957066318723625 0 -0.017680412851714893 -0.018482888584189464 0 -0.016669735139733063 -0.019192134320269789 0 -0.016832890473420733 -0.018957066318723625 0 -0.01644370326722925 -0.019168091495174677 0 -0.016832890473420733 -0.018957066318723625 0 -0.017063431198519684 -0.018722336219518861 0 -0.017680412851714893 -0.018482888584189464 0 -0.016155879368460177 -0.019261643549421368 0 -0.016278190898599571 -0.019261641556716842 0 -0.01580067395644337 -0.019267691750398133 0 -0.016300983440346955 -0.019340018299728735 0 -0.016155879368460177 -0.019261643549421368 0 -0.01644370326722925 -0.019168091495174677 0 -0.016300983440346955 -0.019340018299728735 0 -0.016155879368460177 -0.019261643549421368 0 -0.016018218876934949 -0.019397753877321799 0 -0.016669735139733063 -0.019192134320269789 0 -0.016300983440346955 -0.019340018299728735 0 -0.01644370326722925 -0.019168091495174677 0 -0.016832890473420733 -0.018957066318723625 0 -0.01644370326722925 -0.019168091495174677 0 -0.016278190898599571 -0.019261641556716842 0 -0.016155879368460177 -0.019261643549421368 0 -0.01644370326722925 -0.019168091495174677 0 -0.016278190898599571 -0.019261641556716842 0 -0.01580067395644337 -0.019267691750398133 0 -0.016018218876934949 -0.019397753877321799 0 -0.015750747144543577 -0.019555287079571423 0 -0.016155879368460177 -0.019261643549421368 0 -0.01580067395644337 -0.019267691750398133 0 -0.016018218876934949 -0.019397753877321799 0 -0.01580067395644337 -0.019267691750398133 0 -0.015407073600675298 -0.019482536197804514 0 -0.015750747144543577 -0.019555287079571423 0 -0.01580067395644337 -0.019267691750398133 0 -0.015407073600675298 -0.019482536197804514 0 -0.015262043663990608 -0.01919027595537318 0 -0.01481850068803487 -0.019470108586990699 0 -0.015312117263961939 -0.019899105199225799 0 -0.013852181149651045 -0.019872927625159076 0 -0.015407073600675298 -0.019482536197804514 0 -0.015262043663990608 -0.01919027595537318 0 -0.01481850068803487 -0.019470108586990699 0 -0.015407073600675298 -0.019482536197804514 0 -0.01481850068803487 -0.019470108586990699 0 -0.015312117263961939 -0.019899105199225799 0 -0.015262043663990608 -0.01919027595537318 0 -0.01481850068803487 -0.019470108586990699 0 -0.014810168491445298 -0.019120612737023913 0 -0.01481850068803487 -0.019470108586990699 0 -0.014810168491445298 -0.019120612737023913 0 -0.014180186475071611 -0.01930585615914375 0 -0.016792443541457095 -0.012972926888079845 0 -0.015596105984946066 -0.014159616890307862 0 -0.01829077876744669 -0.0059910540437954317 0 -0.018074981190207621 -0.0062559395138661825 0 -0.018788790867883334 -0.0068433252149849707 0 -0.01829077876744669 -0.0059910540437954317 0 -0.018044301918802696 -0.0059591045420214189 0 -0.018074981190207621 -0.0062559395138661825 0 -0.017135652043573649 -0.012737227933212173 0 -0.016792443541457095 -0.012972926888079845 0 -0.016311012006625866 -0.019768424171151894 0 -0.015312117263961939 -0.019899105199225799 0 -0.016023657093356132 -0.019576672223768448 0 -0.018044301918802696 -0.0059591045420214189 0 -0.017948431389366235 -0.0056393840282001721 0 -0.018074981190207621 -0.0062559395138661825 0 -0.015312117263961939 -0.019899105199225799 0 -0.015750747144543577 -0.019555287079571423 0 -0.016023657093356132 -0.019576672223768448 0 -0.016018218876934949 -0.019397753877321799 0 -0.015750747144543577 -0.019555287079571423 0 -0.016023657093356132 -0.019576672223768448 0 -0.015407073600675298 -0.019482536197804514 0 -0.015312117263961939 -0.019899105199225799 0 -0.015750747144543577 -0.019555287079571423 0 -0.024399562980767252 -0.017082836041796251 0 -0.024429181992081474 -0.018880129007506075 0 -0.021997073117323088 -0.018909198010039825 0 -0.024429181992081474 -0.018880129007506075 0 -0.023008120371182741 -0.019786559288743632 0 -0.021997073117323088 -0.018909198010039825 0 -0.02480139648490233 -0.020046688064752238 0 -0.024429181992081474 -0.018880129007506075 0 -0.023008120371182741 -0.019786559288743632 0 -0.023008120371182741 -0.019786559288743632 0 -0.021543380083281775 -0.019882728390944793 0 -0.021997073117323088 -0.018909198010039825 0 -0.02255624580622001 -0.020972485315998161 0 -0.021543380083281775 -0.019882728390944793 0 -0.019816748047656797 -0.02039637127531839 0 -0.02255624580622001 -0.020972485315998161 0 -0.023008120371182741 -0.019786559288743632 0 -0.021543380083281775 -0.019882728390944793 0 -0.021543380083281775 -0.019882728390944793 0 -0.021997073117323088 -0.018909198010039825 0 -0.020537501887382011 -0.019446351787916333 0 -0.021997073117323088 -0.018909198010039825 0 -0.019585232580851743 -0.018866917375493054 0 -0.020537501887382011 -0.019446351787916333 0 -0.021997073117323088 -0.018909198010039825 0 -0.019585232580851743 -0.018866917375493054 0 -0.020893431525055517 -0.017130418375107034 0 -0.019585232580851743 -0.018866917375493054 0 -0.020537501887382011 -0.019446351787916333 0 -0.019816748047656797 -0.02039637127531839 0 -0.021543380083281775 -0.019882728390944793 0 -0.020537501887382011 -0.019446351787916333 0 -0.019816748047656797 -0.02039637127531839 0 -0.018470043180597771 -0.012921414302379034 0 -0.020399686027443464 -0.013543143097544523 0 -0.019326907091986627 -0.0058672622553383432 0 -0.020913015860564748 -0.0066103931732022251 0 -0.019992289798380723 -0.0067306858927609929 0 -0.019202232793386453 -0.0066245951545868568 0 -0.019326907091986627 -0.0058672622553383432 0 -0.019992289798380723 -0.0067306858927609929 0 -0.017645620756352908 -0.019988424174747003 0 -0.019585232580851743 -0.018866917375493054 0 -0.019816748047656797 -0.02039637127531839 0 -0.017645620756352908 -0.019988424174747003 0 -0.019585232580851743 -0.018866917375493054 0 -0.018121310552385368 -0.019081322608203603 0 -0.017645620756352908 -0.019988424174747003 0 -0.017385030494470672 -0.019374926878077056 0 -0.018121310552385368 -0.019081322608203603 0 -0.017358340647783545 -0.018934645470795344 0 -0.018560008276804801 -0.018364195249373022 0 -0.018121310552385368 -0.019081322608203603 0 -0.017358340647783545 -0.018934645470795344 0 -0.018560008276804801 -0.018364195249373022 0 -0.017680412851714893 -0.018482888584189464 0 -0.019585232580851743 -0.018866917375493054 0 -0.018560008276804801 -0.018364195249373022 0 -0.018121310552385368 -0.019081322608203603 0 -0.018560008276804801 -0.018364195249373022 0 -0.018197428914213463 -0.017831203992516489 0 -0.017680412851714893 -0.018482888584189464 0 -0.017063431198519684 -0.018722336219518861 0 -0.018197428914213463 -0.017831203992516489 0 -0.017680412851714893 -0.018482888584189464 0 -0.019197671730909277 -0.015826589062604778 0 -0.021570139340719465 -0.016485663091459584 0 -0.018560008276804801 -0.018364195249373022 0 -0.018197428914213463 -0.017831203992516489 0 -0.020893431525055517 -0.017130418375107034 0 -0.019585232580851743 -0.018866917375493054 0 -0.018560008276804801 -0.018364195249373022 0 -0.020893431525055517 -0.017130418375107034 0 -0.022072778339050195 -0.015654825935496938 0 -0.023837335945280334 -0.014518271411578019 0 -0.022449891096616294 -0.013226181513195745 0 -0.01970427329577569 -0.014277934386328623 0 -0.022072778339050195 -0.015654825935496938 0 -0.022449891096616294 -0.013226181513195745 0 -0.024399562980767252 -0.017082836041796251 0 -0.021997073117323088 -0.018909198010039825 0 -0.020893431525055517 -0.017130418375107034 0 -0.02427469961619793 -0.017169831108405309 0 -0.021570139340719465 -0.016485663091459584 0 -0.024399562980767252 -0.017082836041796251 0 -0.022072778339050195 -0.015654825935496938 0 -0.023837335945280334 -0.014518271411578019 0 -0.024749363805049024 -0.010837049129673071 0 -0.023455589080242305 -0.012071886939536808 0 -0.022169047119128135 -0.011486546185386923 0 -0.024749363805049024 -0.010837049129673071 0 -0.023455589080242305 -0.012071886939536808 0 -0.024421146366802475 -0.012781846817362403 0 -0.023455589080242305 -0.012071886939536808 0 -0.024421146366802475 -0.012781846817362403 0 -0.022449891096616294 -0.013226181513195745 0 -0.023837335945280334 -0.014518271411578019 0 -0.024421146366802475 -0.012781846817362403 0 -0.022449891096616294 -0.013226181513195745 0 -0.022208411607514716 -0.013178925673566261 0 -0.021011813954616623 -0.012988268092215535 0 -0.023455589080242305 -0.012071886939536808 0 -0.022449891096616294 -0.013226181513195745 0 -0.022169047119128135 -0.011486546185386923 0 -0.022449891096616294 -0.013226181513195745 0 -0.022169047119128135 -0.011486546185386923 0 -0.020938558907131314 -0.012762553054598983 0 -0.019466757852005235 -0.019361472273337191 0 -0.01652437889709029 -0.018493367307897024 0 -0.016186220128236471 -0.026993542876348475 0 -0.014888339301685106 -0.026461605106191426 0 -0.015153818625050964 -0.026184421051997225 0 -0.022169047119128135 -0.011486546185386923 0 -0.020938558907131314 -0.012762553054598983 0 -0.019400322017832421 -0.012245519751965764 0 -0.021011813954616623 -0.012988268092215535 0 -0.01652437889709029 -0.018493367307897024 0 -0.01970427329577569 -0.014277934386328623 0 -0.022449891096616294 -0.013226181513195745 0 -0.021012177394584004 -0.012737360962152187 0 -0.01970427329577569 -0.014277934386328623 0 -0.021012177394584004 -0.012737360962152187 0 -0.019568089452953342 -0.012246239338059845 0 -0.019197671730909277 -0.015826589062604778 0 -0.015673536652534032 -0.018014658516655072 0 -0.017063431198519684 -0.018722336219518861 0 -0.018197428914213463 -0.017831203992516489 0 -0.016410401071836719 -0.019085006893508685 0 -0.01970427329577569 -0.014277934386328623 0 -0.019568089452953342 -0.012246239338059845 0 -0.017320404542202416 -0.012883097675940198 0 -0.01652437889709029 -0.018493367307897024 0 -0.015673536652534032 -0.018014658516655072 0 -0.014888339301685106 -0.026461605106191426 0 -0.014770113640787792 -0.025808033629348075 0 -0.014671588665795701 -0.025605064996748261 0 -0.014770113640787792 -0.025808033629348075 0 -0.014773121520964017 -0.025746414337737278 0 -0.015153818625050964 -0.026184421051997225 0 -0.014888339301685106 -0.026461605106191426 0 -0.014770113640787792 -0.025808033629348075 0 -0.015153818625050964 -0.026184421051997225 0 -0.014770113640787792 -0.025808033629348075 0 -0.014671588665795701 -0.025605064996748261 0 -0.014658430647743767 -0.025601810148856742 0 -0.014770113640787792 -0.025808033629348075 0 -0.014773121520964017 -0.025746414337737278 0 -0.014658430647743767 -0.025601810148856742 0 -0.014773121520964017 -0.025746414337737278 0 -0.014658430647743767 -0.025601810148856742 0 -0.014567913021456616 -0.025711035497695243 0 -0.014773121520964017 -0.025746414337737278 0 -0.015381120857833249 -0.025966706430071148 0 -0.015695426539260943 -0.02561506429159869 0 -0.014773121520964017 -0.025746414337737278 0 -0.015695426539260943 -0.02561506429159869 0 -0.014567913021456616 -0.025711035497695243 0 -0.014773121520964017 -0.025746414337737278 0 -0.015153818625050964 -0.026184421051997225 0 -0.015381120857833249 -0.025966706430071148 0 -0.015153818625050964 -0.026184421051997225 0 -0.015381120857833249 -0.025966706430071148 0 -0.016141798557186081 -0.02627280031553551 0 -0.016186220128236471 -0.026993542876348475 0 -0.015153818625050964 -0.026184421051997225 0 -0.016141798557186081 -0.02627280031553551 0 -0.015381120857833249 -0.025966706430071148 0 -0.016141798557186081 -0.02627280031553551 0 -0.015695426539260943 -0.02561506429159869 0 -0.015695426539260943 -0.02561506429159869 0 -0.016812627168473895 -0.025146962561685492 0 -0.016999192001169922 -0.025823949837504648 0 -0.016141798557186081 -0.02627280031553551 0 -0.015695426539260943 -0.02561506429159869 0 -0.016999192001169922 -0.025823949837504648 0 -0.018550742892860142 -0.026987945714955067 0 -0.016999192001169922 -0.025823949837504648 0 -0.018003966789419408 -0.025269741634503129 0 -0.016812627168473895 -0.025146962561685492 0 -0.016999192001169922 -0.025823949837504648 0 -0.018003966789419408 -0.025269741634503129 0 -0.018550742892860142 -0.026987945714955067 0 -0.016141798557186081 -0.02627280031553551 0 -0.016999192001169922 -0.025823949837504648 0 -0.018550742892860142 -0.026987945714955067 0 -0.016186220128236471 -0.026993542876348475 0 -0.016141798557186081 -0.02627280031553551 0 -0.021016537138406472 -0.018496887695790391 0 -0.019466757852005235 -0.019361472273337191 0 -0.015971451114246433 -0.022255612943175872 0 -0.016022003478721594 -0.022185715576211358 0 -0.016017375777718008 -0.022500552240067521 0 -0.016022003478721594 -0.022185715576211358 0 -0.015924423097590526 -0.022385754422500802 0 -0.015967344326927726 -0.022273310049140758 0 -0.015971451114246433 -0.022255612943175872 0 -0.016022003478721594 -0.022185715576211358 0 -0.016054132787941839 -0.021936295814793661 0 -0.015971451114246433 -0.022255612943175872 0 -0.016054132787941839 -0.021936295814793661 0 -0.016023423383549704 -0.021679561707191652 0 -0.016023423383549704 -0.021679561707191652 0 -0.015864098129476201 -0.022152918562127748 0 -0.015957227168690576 -0.02131102227791026 0 -0.015971451114246433 -0.022255612943175872 0 -0.016023423383549704 -0.021679561707191652 0 -0.015864098129476201 -0.022152918562127748 0 -0.015971451114246433 -0.022255612943175872 0 -0.015864098129476201 -0.022152918562127748 0 -0.015847050626149196 -0.022612585564178132 0 -0.015864098129476201 -0.022152918562127748 0 -0.015847050626149196 -0.022612585564178132 0 -0.015582869426870352 -0.023260763184558757 0 -0.015864098129476201 -0.022152918562127748 0 -0.015765768475037956 -0.021844108332157441 0 -0.015582869426870352 -0.023260763184558757 0 -0.015148391992590542 -0.022296798990129724 0 -0.015665835790549268 -0.023053878747007723 0 -0.015847050626149196 -0.022612585564178132 0 -0.015994670077922237 -0.022857225819259908 0 -0.015582869426870352 -0.023260763184558757 0 -0.015971451114246433 -0.022255612943175872 0 -0.015847050626149196 -0.022612585564178132 0 -0.015994670077922237 -0.022857225819259908 0 -0.015971451114246433 -0.022255612943175872 0 -0.015994670077922237 -0.022857225819259908 0 -0.016017375777718008 -0.022500552240067521 0 -0.015994670077922237 -0.022857225819259908 0 -0.016210526613390428 -0.022847369518747048 0 -0.016443274279835714 -0.023258180541355995 0 -0.016082597944093079 -0.022662984503071828 0 -0.015591229668800255 -0.022484725066497478 0 -0.016982975646108775 -0.023096769405847883 0 -0.015540183841914875 -0.020449059844944249 0 -0.012491730461898045 -0.021105933927417411 0 -0.015548718871018271 -0.02282684422313427 0 -0.014724200309115811 -0.023220888715935861 0 -0.015994670077922237 -0.022857225819259908 0 -0.016210526613390428 -0.022847369518747048 0 -0.016017375777718008 -0.022500552240067521 0 -0.016210526613390428 -0.022847369518747048 0 -0.016443274279835714 -0.023258180541355995 0 -0.016982975646108775 -0.023096769405847883 0 -0.016210526613390428 -0.022847369518747048 0 -0.016082597944093079 -0.022662984503071828 0 -0.016982975646108775 -0.023096769405847883 0 -0.016082597944093079 -0.022662984503071828 0 -0.015924423097590526 -0.022385754422500802 0 -0.015591229668800255 -0.022484725066497478 0 -0.016017375777718008 -0.022500552240067521 0 -0.016082597944093079 -0.022662984503071828 0 -0.015924423097590526 -0.022385754422500802 0 -0.016210526613390428 -0.022847369518747048 0 -0.016017375777718008 -0.022500552240067521 0 -0.016082597944093079 -0.022662984503071828 0 -0.016022003478721594 -0.022185715576211358 0 -0.016017375777718008 -0.022500552240067521 0 -0.015924423097590526 -0.022385754422500802 0 -0.015924423097590526 -0.022385754422500802 0 -0.015591229668800255 -0.022484725066497478 0 -0.015967344326927726 -0.022273310049140758 0 -0.015591229668800255 -0.022484725066497478 0 -0.016098378183879908 -0.022295881533754672 0 -0.011478103749646694 -0.02443596335824031 0 -0.014442809323846114 -0.018873782199953306 0 -0.015379953339133645 -0.018717239146107581 0 -0.01433350419941222 -0.018624657562029339 0 -0.014442809323846114 -0.018873782199953306 0 -0.014810168491445298 -0.019120612737023913 0 -0.015379953339133645 -0.018717239146107581 0 -0.015379953339133645 -0.018717239146107581 0 -0.013792399960286222 -0.018060641632011654 0 -0.01433350419941222 -0.018624657562029339 0 -0.015591229668800255 -0.022484725066497478 0 -0.016098378183879908 -0.022295881533754672 0 -0.015967344326927726 -0.022273310049140758 0 -0.014442809323846114 -0.018873782199953306 0 -0.014810168491445298 -0.019120612737023913 0 -0.014180186475071611 -0.01930585615914375 0 -0.015262043663990608 -0.01919027595537318 0 -0.014810168491445298 -0.019120612737023913 0 -0.015379953339133645 -0.018717239146107581 0 -0.016106190451190713 -0.01941150510232921 0 -0.015540183841914875 -0.020449059844944249 0 -0.016278190898599571 -0.019261641556716842 0 -0.016098378183879908 -0.022295881533754672 0 -0.016109228446561187 -0.021495634185238914 0 -0.016278190898599571 -0.019261641556716842 0 -0.01580067395644337 -0.019267691750398133 0 -0.015379953339133645 -0.018717239146107581 0 -0.01580067395644337 -0.019267691750398133 0 -0.015262043663990608 -0.01919027595537318 0 -0.015379953339133645 -0.018717239146107581 0 -0.016098378183879908 -0.022295881533754672 0 -0.01607685909157178 -0.022047368869619961 0 -0.016109228446561187 -0.021495634185238914 0 -0.016054132787941839 -0.021936295814793661 0 -0.01607685909157178 -0.022047368869619961 0 -0.016109228446561187 -0.021495634185238914 0 -0.016022003478721594 -0.022185715576211358 0 -0.016054132787941839 -0.021936295814793661 0 -0.01607685909157178 -0.022047368869619961 0 -0.016022003478721594 -0.022185715576211358 0 -0.015967344326927726 -0.022273310049140758 0 -0.01607685909157178 -0.022047368869619961 0 -0.016098378183879908 -0.022295881533754672 0 -0.015967344326927726 -0.022273310049140758 0 -0.01607685909157178 -0.022047368869619961 0 -0.016023423383549704 -0.021679561707191652 0 -0.016109228446561187 -0.021495634185238914 0 -0.016060461554537327 -0.020865773865041317 0 -0.016054132787941839 -0.021936295814793661 0 -0.016023423383549704 -0.021679561707191652 0 -0.016109228446561187 -0.021495634185238914 0 -0.016278190898599571 -0.019261641556716842 0 -0.016109228446561187 -0.021495634185238914 0 -0.016060461554537327 -0.020865773865041317 0 -0.016278190898599571 -0.019261641556716842 0 -0.01583496409330146 -0.020260615511446589 0 -0.016060461554537327 -0.020865773865041317 0 -0.016278190898599571 -0.019261641556716842 0 -0.01583496409330146 -0.020260615511446589 0 -0.016327823418039962 -0.019339577680082778 0 -0.015627590654847808 -0.01940345190105847 0 -0.015673536652534032 -0.018014658516655072 0 -0.01583496409330146 -0.020260615511446589 0 -0.016060461554537327 -0.020865773865041317 0 -0.015957227168690576 -0.02131102227791026 0 -0.016023423383549704 -0.021679561707191652 0 -0.016060461554537327 -0.020865773865041317 0 -0.015957227168690576 -0.02131102227791026 0 -0.017063431198519684 -0.018722336219518861 0 -0.016278190898599571 -0.019261641556716842 0 -0.016327823418039962 -0.019339577680082778 0 -0.017063431198519684 -0.018722336219518861 0 -0.016327823418039962 -0.019339577680082778 0 -0.016410401071836719 -0.019085006893508685 0 -0.01583496409330146 -0.020260615511446589 0 -0.016327823418039962 -0.019339577680082778 0 -0.016410401071836719 -0.019085006893508685 0 -0.014888339301685106 -0.026461605106191426 0 -0.014572435044795114 -0.025441552848409037 0 -0.014671588665795701 -0.025605064996748261 0 -0.01652437889709029 -0.018493367307897024 0 -0.013732771201326724 -0.024951710293981681 0 -0.012317477277800635 -0.022235919306038424 0 -0.013463111337215169 -0.021949170010630906 0 -0.013594237224049758 -0.022882395434011563 0 -0.013463111337215169 -0.021949170010630906 0 -0.013594237224049758 -0.022882395434011563 0 -0.01437478392686246 -0.02245446876692786 0 -0.01583496409330146 -0.020260615511446589 0 -0.015957227168690576 -0.02131102227791026 0 -0.015765768475037956 -0.021844108332157441 0 -0.015864098129476201 -0.022152918562127748 0 -0.015957227168690576 -0.02131102227791026 0 -0.015765768475037956 -0.021844108332157441 0 -0.015673536652534032 -0.018014658516655072 0 -0.015148391992590542 -0.022296798990129724 0 -0.01583496409330146 -0.020260615511446589 0 -0.014708794818515225 -0.02054105137782785 0 -0.015765768475037956 -0.021844108332157441 0 -0.014572435044795114 -0.025441552848409037 0 -0.014959268871973321 -0.02492854256817173 0 -0.015418046501113739 -0.024131304626850373 0 -0.014572435044795114 -0.025441552848409037 0 -0.014715786988525738 -0.025292692037973838 0 -0.014959268871973321 -0.02492854256817173 0 -0.013732771201326724 -0.024951710293981681 0 -0.015559668184231889 -0.024026857491094334 0 -0.013594237224049758 -0.022882395434011563 0 -0.01437478392686246 -0.02245446876692786 0 -0.015418046501113739 -0.024131304626850373 0 -0.014715786988525738 -0.025292692037973838 0 -0.014671588665795701 -0.025605064996748261 0 -0.014658430647743767 -0.025601810148856742 0 -0.014572435044795114 -0.025441552848409037 0 -0.014715786988525738 -0.025292692037973838 0 -0.014671588665795701 -0.025605064996748261 0 -0.014715786988525738 -0.025292692037973838 0 -0.014736971856866345 -0.025583658631882038 0 -0.014658430647743767 -0.025601810148856742 0 -0.014715786988525738 -0.025292692037973838 0 -0.014736971856866345 -0.025583658631882038 0 -0.014968357528729249 -0.025613228317631968 0 -0.014730981756341336 -0.025271567306644246 0 -0.014927061983218574 -0.025470089312011453 0 -0.014715786988525738 -0.025292692037973838 0 -0.014959268871973321 -0.02492854256817173 0 -0.014902117762334296 -0.025242948112346619 0 -0.014902117762334296 -0.025242948112346619 0 -0.015302555553193681 -0.024874639914418337 0 -0.015606963884434281 -0.025407668898828589 0 -0.015302555553193681 -0.024874639914418337 0 -0.01591418243700151 -0.024481333384956012 0 -0.015606963884434281 -0.025407668898828589 0 -0.015302555553193681 -0.024874639914418337 0 -0.015418046501113739 -0.024131304626850373 0 -0.01591418243700151 -0.024481333384956012 0 -0.014959268871973321 -0.02492854256817173 0 -0.015302555553193681 -0.024874639914418337 0 -0.015418046501113739 -0.024131304626850373 0 -0.014959268871973321 -0.02492854256817173 0 -0.014902117762334296 -0.025242948112346619 0 -0.015302555553193681 -0.024874639914418337 0 -0.01437478392686246 -0.02245446876692786 0 -0.015418046501113739 -0.024131304626850373 0 -0.015582869426870352 -0.023260763184558757 0 -0.015418046501113739 -0.024131304626850373 0 -0.01584543689250395 -0.023640141747911986 0 -0.01591418243700151 -0.024481333384956012 0 -0.015418046501113739 -0.024131304626850373 0 -0.01584543689250395 -0.023640141747911986 0 -0.015582869426870352 -0.023260763184558757 0 -0.015994670077922237 -0.022857225819259908 0 -0.01584543689250395 -0.023640141747911986 0 -0.015582869426870352 -0.023260763184558757 0 -0.016443274279835714 -0.023258180541355995 0 -0.016982975646108775 -0.023096769405847883 0 -0.016779855345760052 -0.024157354900128981 0 -0.016443274279835714 -0.023258180541355995 0 -0.016199823017461881 -0.023686215237266623 0 -0.016779855345760052 -0.024157354900128981 0 -0.015994670077922237 -0.022857225819259908 0 -0.01584543689250395 -0.023640141747911986 0 -0.016199823017461881 -0.023686215237266623 0 -0.015994670077922237 -0.022857225819259908 0 -0.016443274279835714 -0.023258180541355995 0 -0.016199823017461881 -0.023686215237266623 0 -0.01584543689250395 -0.023640141747911986 0 -0.016199823017461881 -0.023686215237266623 0 -0.01591418243700151 -0.024481333384956012 0 -0.016199823017461881 -0.023686215237266623 0 -0.01591418243700151 -0.024481333384956012 0 -0.016779855345760052 -0.024157354900128981 0 -0.01591418243700151 -0.024481333384956012 0 -0.016302801592006255 -0.025183107986879838 0 -0.016779855345760052 -0.024157354900128981 0 -0.01591418243700151 -0.024481333384956012 0 -0.016302801592006255 -0.025183107986879838 0 -0.015606963884434281 -0.025407668898828589 0 -0.016983184509413336 -0.025236100054130902 0 -0.01794158617975776 -0.024535727487317829 0 -0.01752902918913192 -0.02608739035839118 0 -0.016983184509413336 -0.025236100054130902 0 -0.01794158617975776 -0.024535727487317829 0 -0.016779855345760052 -0.024157354900128981 0 -0.016302801592006255 -0.025183107986879838 0 -0.016983184509413336 -0.025236100054130902 0 -0.016779855345760052 -0.024157354900128981 0 -0.0096384087525182849 -0.021842277108646075 0 -0.0074957573776322905 -0.022285402800796508 0 -0.0071603768187030077 -0.019585739832933081 0 -0.01385452616091656 -0.023311882292089959 0 -0.013156241664783679 -0.021928539980942359 0 -0.0098003185494204784 -0.023380101549849961 0 -0.0074957573776322905 -0.022285402800796508 0 -0.0071895666371465375 -0.024435496752000657 0 -0.0096384087525182849 -0.021842277108646075 0 -0.0098003185494204784 -0.023380101549849961 0 -0.0074957573776322905 -0.022285402800796508 0 -0.0096384087525182849 -0.021842277108646075 0 -0.0098003185494204784 -0.023380101549849961 0 -0.012236171891010858 -0.02335609756327435 0 -0.01794158617975776 -0.024535727487317829 0 -0.016982975646108775 -0.023096769405847883 0 -0.016779855345760052 -0.024157354900128981 0 -0.01385452616091656 -0.023311882292089959 0 -0.014724200309115811 -0.023220888715935861 0 -0.0030831335640810692 -0.022114645211079219 0 -0.0054399616336247682 -0.022888456893470834 0 -0.0028276396785145955 -0.023323104107639183 0 -0.0030831335640810692 -0.022114645211079219 0 -0.0055549699886032963 -0.021399336447327805 0 -0.0047202851441853566 -0.019596420980539261 0 -0.0030831335640810692 -0.022114645211079219 0 -0.0055549699886032963 -0.021399336447327805 0 -0.0054399616336247682 -0.022888456893470834 0 -0.0055549699886032963 -0.021399336447327805 0 -0.0074957573776322905 -0.022285402800796508 0 -0.0071603768187030077 -0.019585739832933081 0 -0.0055549699886032963 -0.021399336447327805 0 -0.0074957573776322905 -0.022285402800796508 0 -0.0054399616336247682 -0.022888456893470834 0 -0.0074957573776322905 -0.022285402800796508 0 -0.0071895666371465375 -0.024435496752000657 0 -0.0054399616336247682 -0.022888456893470834 0 -0.0088217900546698012 -0.016622378951424946 0 -0.0050351730284879971 -0.01750354599227362 0 -0.0028775742510826915 -0.01476566947652413 0 -0.0071895666371465375 -0.024435496752000657 0 -0.0054399616336247682 -0.022888456893470834 0 -0.0028276396785145955 -0.023323104107639183 0 -0.0050351730284879971 -0.01750354599227362 0 -0.0023166412031781162 -0.018702979686306662 0 -0.0028775742510826915 -0.01476566947652413 0 -0.0081257264332970872 -0.020693727707135741 0 -0.0024456824485669889 -0.017779811105133513 0 -0.0050351730284879971 -0.01750354599227362 0 -0.0062032932740974343 -0.019863768905276503 0 -0.0023166412031781162 -0.018702979686306662 0 -0.0088217900546698012 -0.016622378951424946 0 -0.0050351730284879971 -0.01750354599227362 0 -0.0062032932740974343 -0.019863768905276503 0 -0.0088217900546698012 -0.016622378951424946 0 -0.0062032932740974343 -0.019863768905276503 0 -0.0091007554416291069 -0.019378379954290002 0 -0.0088217900546698012 -0.016622378951424946 0 -0.0091007554416291069 -0.019378379954290002 0 -0.011449051733543639 -0.018141050661157211 0 -0.0086840496379718395 -0.021770636089212023 0 -0.010374969866835143 -0.020588045155229336 0 -0.010236503572746754 -0.021848215023189965 0 -0.0091007554416291069 -0.019378379954290002 0 -0.0086840496379718395 -0.021770636089212023 0 -0.010374969866835143 -0.020588045155229336 0 -0.0082453582331388376 -0.02188098730297644 0 -0.0090926915212600715 -0.023159438910985458 0 -0.0077229099222839758 -0.023530812354864546 0 -0.0082453582331388376 -0.02188098730297644 0 -0.010180530927128737 -0.023726014149161236 0 -0.0090926915212600715 -0.023159438910985458 0 -0.0082453582331388376 -0.02188098730297644 0 -0.0054391447652797848 -0.022884038710791275 0 -0.0077229099222839758 -0.023530812354864546 0 -0.0062032932740974343 -0.019863768905276503 0 -0.0082453582331388376 -0.02188098730297644 0 -0.0054391447652797848 -0.022884038710791275 0 -0.0064969083444816013 -0.020085114375849717 0 -0.0085563324621660709 -0.021782165788751133 0 -0.0062032932740974343 -0.019863768905276503 0 -0.0091007554416291069 -0.019378379954290002 0 -0.0086840496379718395 -0.021770636089212023 0 -0.0062032932740974343 -0.019863768905276503 0 -0.0054391447652797848 -0.022884038710791275 0 -0.0019224503858273154 -0.022516100853766378 0 -0.0062032932740974343 -0.019863768905276503 0 -0.0019224503858273154 -0.022516100853766378 0 -0.0023166412031781162 -0.018702979686306662 0 -0.015591229668800255 -0.022484725066497478 0 -0.012236171891010858 -0.02335609756327435 0 -0.011478103749646694 -0.02443596335824031 0 -0.0098003185494204784 -0.023380101549849961 0 -0.012236171891010858 -0.02335609756327435 0 -0.011478103749646694 -0.02443596335824031 0 -0.0081257264332970872 -0.020693727707135741 0 -0.012491730461898045 -0.021105933927417411 0 -0.0098003185494204784 -0.023380101549849961 0 -0.0071895666371465375 -0.024435496752000657 0 -0.011478103749646694 -0.02443596335824031 0 -0.0088217900546698012 -0.016622378951424946 0 -0.013792399960286222 -0.018060641632011654 0 -0.011449051733543639 -0.018141050661157211 0 -0.0091007554416291069 -0.019378379954290002 0 -0.011449051733543639 -0.018141050661157211 0 -0.010374969866835143 -0.020588045155229336 0 -0.013792399960286222 -0.018060641632011654 0 -0.011449051733543639 -0.018141050661157211 0 -0.012897950409406582 -0.018726633051420246 0 -0.011449051733543639 -0.018141050661157211 0 -0.012897950409406582 -0.018726633051420246 0 -0.012930951919799387 -0.019468049250213091 0 -0.011449051733543639 -0.018141050661157211 0 -0.011805701992093295 -0.022261059654719417 0 -0.01218337523537485 -0.022733616840757892 0 -0.011449051733543639 -0.018141050661157211 0 -0.010374969866835143 -0.020588045155229336 0 -0.011805701992093295 -0.022261059654719417 0 -0.012897950409406582 -0.018726633051420246 0 -0.012930951919799387 -0.019468049250213091 0 -0.013553954365948379 -0.018957140193991105 0 -0.011596036333231139 -0.018451741707770662 0 -0.013437206411243768 -0.020516698802423235 0 -0.010374969866835143 -0.020588045155229336 0 -0.010817552530587167 -0.021844008974494455 0 -0.011805701992093295 -0.022261059654719417 0 -0.010374969866835143 -0.020588045155229336 0 -0.010236503572746754 -0.021848215023189965 0 -0.010817552530587167 -0.021844008974494455 0 -0.0085563324621660709 -0.021782165788751133 0 -0.011665516311050637 -0.021528202771602251 0 -0.0086840496379718395 -0.021770636089212023 0 -0.010236503572746754 -0.021848215023189965 0 -0.010855909868709065 -0.022657179540886845 0 -0.0086840496379718395 -0.021770636089212023 0 -0.010855909868709065 -0.022657179540886845 0 -0.011164402637458111 -0.023952787573852184 0 -0.010236503572746754 -0.021848215023189965 0 -0.010817552530587167 -0.021844008974494455 0 -0.010855909868709065 -0.022657179540886845 0 -0.010817552530587167 -0.021844008974494455 0 -0.010855909868709065 -0.022657179540886845 0 -0.011805701992093295 -0.022261059654719417 0 -0.010855909868709065 -0.022657179540886845 0 -0.011805701992093295 -0.022261059654719417 0 -0.012137845344386449 -0.022682197214212385 0 -0.010855909868709065 -0.022657179540886845 0 -0.012137845344386449 -0.022682197214212385 0 -0.011164402637458111 -0.023952787573852184 0 -0.01339635811997744 -0.020706727581299326 0 -0.013437206411243768 -0.020516698802423235 0 -0.013629346350134486 -0.019413447333385219 0 -0.013553954365948379 -0.018957140193991105 0 -0.014180186475071611 -0.01930585615914375 0 -0.012930951919799387 -0.019468049250213091 0 -0.013629346350134486 -0.019413447333385219 0 -0.013553954365948379 -0.018957140193991105 0 -0.013792399960286222 -0.018060641632011654 0 -0.012897950409406582 -0.018726633051420246 0 -0.013553954365948379 -0.018957140193991105 0 -0.013792399960286222 -0.018060641632011654 0 -0.013553954365948379 -0.018957140193991105 0 -0.01433350419941222 -0.018624657562029339 0 -0.014442809323846114 -0.018873782199953306 0 -0.013553954365948379 -0.018957140193991105 0 -0.01433350419941222 -0.018624657562029339 0 -0.014442809323846114 -0.018873782199953306 0 -0.013553954365948379 -0.018957140193991105 0 -0.014180186475071611 -0.01930585615914375 0 -0.01481850068803487 -0.019470108586990699 0 -0.014180186475071611 -0.01930585615914375 0 -0.013852181149651045 -0.019872927625159076 0 -0.013629346350134486 -0.019413447333385219 0 -0.014180186475071611 -0.01930585615914375 0 -0.013852181149651045 -0.019872927625159076 0 -0.012930951919799387 -0.019468049250213091 0 -0.013629346350134486 -0.019413447333385219 0 -0.013852181149651045 -0.019872927625159076 0 -0.015188040924143954 -0.014546939670606787 0 -0.014677592115847574 -0.013177310760659018 0 -0.016384335342885713 -0.01482982025709801 0 -0.014404381412001496 -0.01339893472693692 0 -0.013263796180682075 -0.018266233340318901 0 -0.015596105984946066 -0.014159616890307862 0 -0.013504519755384602 -0.019083862646993913 0 -0.014161014064923249 -0.013651894435614499 0 -0.014030027481424744 -0.011954742471699491 0 -0.015023834047678864 -0.012613248304588459 0 -0.013032480638227035 -0.012546355567029587 0 -0.014161014064923249 -0.013651894435614499 0 -0.014030027481424744 -0.011954742471699491 0 -0.014161014064923249 -0.013651894435614499 0 -0.015336594454678141 -0.01477335818204621 0 -0.015023834047678864 -0.012613248304588459 0 -0.015555205116724074 -0.0087979878381166908 0 -0.015596105984946066 -0.014159616890307862 0 -0.012974304149200484 -0.011520851058542883 0 -0.015188040924143954 -0.014546939670606787 0 -0.014677592115847574 -0.013177310760659018 0 -0.015555205116724074 -0.0087979878381166908 0 -0.014404381412001496 -0.01339893472693692 0 -0.010046491694679737 -0.020517418814102368 0 -0.00894257395522975 -0.0230648392719697 0 -0.00820765154193372 -0.018571447474294265 0 -0.010046491694679737 -0.020517418814102368 0 -0.011569232508781769 -0.018383885725590195 0 -0.00820765154193372 -0.018571447474294265 0 -0.013263796180682075 -0.018266233340318901 0 -0.011440803558104208 -0.016218716998548738 0 -0.010046491694679737 -0.020517418814102368 0 -0.011579491914727945 -0.020160563488405555 0 -0.011569232508781769 -0.018383885725590195 0 -0.010046491694679737 -0.020517418814102368 0 -0.011117301359005505 -0.021920517229684997 0 -0.011579491914727945 -0.020160563488405555 0 -0.011117301359005505 -0.021920517229684997 0 -0.00894257395522975 -0.0230648392719697 0 -0.010109693936583081 -0.023790307996321654 0 -0.010046491694679737 -0.020517418814102368 0 -0.011117301359005505 -0.021920517229684997 0 -0.00894257395522975 -0.0230648392719697 0 -0.015188040924143954 -0.014546939670606787 0 -0.016384335342885713 -0.01482982025709801 0 -0.016436785633182436 -0.015211127133345182 0 -0.013437206411243768 -0.020516698802423235 0 -0.015596105984946066 -0.014159616890307862 0 -0.015152234992150397 -0.018962521612620607 0 -0.013439475862218083 -0.016730606268404471 0 -0.014943698793764337 -0.017500250782718638 0 -0.013437206411243768 -0.020516698802423235 0 -0.013504519755384602 -0.019083862646993913 0 -0.012137845344386449 -0.022682197214212385 0 -0.012407866891222905 -0.024549339161248573 0 -0.011164402637458111 -0.023952787573852184 0 -0.012462963191780026 -0.019827280193422999 0 -0.012480000628389276 -0.019956941582001796 0 -0.012742206522719441 -0.020100033286090533 0 -0.013504519755384602 -0.019083862646993913 0 -0.011665516311050637 -0.021528202771602251 0 -0.013263796180682075 -0.018266233340318901 0 -0.011665516311050637 -0.021528202771602251 0 -0.013263796180682075 -0.018266233340318901 0 -0.013504519755384602 -0.019083862646993913 0 -0.00894257395522975 -0.0230648392719697 0 -0.010109693936583081 -0.023790307996321654 0 -0.01010402384822719 -0.023797918558471933 0 -0.011665516311050637 -0.021528202771602251 0 -0.01032317794929986 -0.021948722333226818 0 -0.010109693936583081 -0.023790307996321654 0 -0.01010402384822719 -0.023797918558471933 0 -0.0090926915212600715 -0.023159438910985458 0 -0.010109693936583081 -0.023790307996321654 0 -0.0090926915212600715 -0.023159438910985458 0 -0.0077229099222839758 -0.023530812354864546 0 -0.010109693936583081 -0.023790307996321654 0 -0.0077229099222839758 -0.023530812354864546 0 -0.0055656286816981393 -0.025822181447381441 0 -0.01119654489513419 -0.023953557385605603 0 -0.0074011607796476359 -0.022874232725179366 0 -0.011117301359005505 -0.021920517229684997 0 -0.010109693936583081 -0.023790307996321654 0 -0.014933831544404695 -0.022067609562548846 0 -0.0054391447652797848 -0.022884038710791275 0 -0.0077229099222839758 -0.023530812354864546 0 -0.0055656286816981393 -0.025822181447381441 0 -0.0074011607796476359 -0.022874232725179366 0 -0.001470906042109587 -0.023683337465311458 0 -0.0054391447652797848 -0.022884038710791275 0 -0.0055656286816981393 -0.025822181447381441 0 -0.0019224503858273154 -0.022516100853766378 0 -0.0074011607796476359 -0.022874232725179366 0 -0.003486117549862782 -0.021723684338649657 0 -0.0073157195044017357 -0.018072784130016617 0 -0.0084557894297574484 -0.019212143397183482 0 -0.0067550687075875445 -0.01928567454942955 0 -0.0073157195044017357 -0.018072784130016617 0 -0.0067550687075875445 -0.01928567454942955 0 -0.0059896786374078947 -0.018517709867319355 0 -0.014933831544404695 -0.022067609562548846 0 -0.011579491914727945 -0.020160563488405555 0 -0.011569232508781769 -0.018383885725590195 0 -0.0074011607796476359 -0.022874232725179366 0 -0.0098575128422994686 -0.016952904716573548 0 -0.011117301359005505 -0.021920517229684997 0 -0.014933831544404695 -0.022067609562548846 0 -0.011579491914727945 -0.020160563488405555 0 -0.0098575128422994686 -0.016952904716573548 0 -0.0077376350342321862 -0.015134217117612821 0 -0.010239952988824675 -0.0112732596553066 0 -0.0091054788518664699 -0.011314584372834922 0 -0.0093980818872600787 -0.01201381115986999 0 -0.010098820127803708 -0.012450381589498811 0 -0.0090848761710929475 -0.0127712581207385 0 -0.0093980818872600787 -0.01201381115986999 0 -0.010098820127803708 -0.012450381589498811 0 -0.010239952988824675 -0.0112732596553066 0 -0.0093980818872600787 -0.01201381115986999 0 -0.014051388551723137 -0.006164306033993803 0 -0.013230506937574665 -0.0058590204399478294 0 -0.014606723876893454 -0.0054246050883836284 0 -0.011771432221145723 -0.0090174966289480844 0 -0.01274734578095074 -0.0095145283878066769 0 -0.010098820127803708 -0.012450381589498811 0 -0.010239952988824675 -0.0112732596553066 0 -0.011105200800360411 -0.012116402916099629 0 -0.01471099871728496 -0.0059675631103300137 0 -0.015393153681965449 -0.0060571282511026345 0 -0.014597861683889941 -0.0053463950625910559 0 -0.01471099871728496 -0.0059675631103300137 0 -0.014051388551723137 -0.006164306033993803 0 -0.014606723876893454 -0.0054246050883836284 0 -0.013654690740138101 -0.0056162455173017914 0 -0.01274734578095074 -0.0095145283878066769 0 -0.015884919364031434 -0.0066969733581758416 0 -0.016026627353058265 -0.0058487922213926249 0 -0.015269962714248143 -0.0061091085531423551 0 -0.01342070015104091 -0.010951584281953064 0 -0.014700833695097844 -0.010521147281808068 0 -0.014030027481424744 -0.011954742471699491 0 -0.015446968212687109 -0.0063189398143359788 0 -0.01274734578095074 -0.0095145283878066769 0 -0.014812489006308119 -0.0083786226861377357 0 -0.01274734578095074 -0.0095145283878066769 0 -0.01274734578095074 -0.0095145283878066769 0 -0.011440803558104208 -0.016218716998548738 0 -0.014700833695097844 -0.010521147281808068 0 -0.014030027481424744 -0.011954742471699491 0 -0.015023834047678864 -0.012613248304588459 0 -0.0098575128422994686 -0.016952904716573548 0 -0.01274734578095074 -0.0095145283878066769 0 -0.011569232508781769 -0.018383885725590195 0 -0.0075882172445475536 -0.013999064110899608 0 -0.00820765154193372 -0.018571447474294265 0 -0.0034348719507367588 -0.018332875951204447 0 -0.0023517987257608746 -0.022590112835226661 0 -0.0034348719507367588 -0.018332875951204447 0 -0.0069335609947468266 -0.015002771349180375 0 -0.0068657889757463226 -0.011439267760449645 0 -0.0071958644120661292 -0.011928158280703037 0 -0.0079772252384729646 -0.011369830503324171 0 -0.0033920796839173339 -0.019363631386687688 0 -0.0050565575484849377 -0.019336241835592093 0 -0.0046803029088006128 -0.018953156916020519 0 -0.0068657889757463226 -0.011439267760449645 0 -0.006714347160513225 -0.012085115682074677 0 -0.0071958644120661292 -0.011928158280703037 0 -0.0068657889757463226 -0.011439267760449645 0 -0.006714347160513225 -0.012085115682074677 0 -0.0061860128243807055 -0.011680557096165408 0 -0.0034348719507367588 -0.018332875951204447 0 -0.0025724527746040313 -0.014142149071081619 0 -0.006714347160513225 -0.012085115682074677 0 -0.007051169438552024 -0.012413432056115092 0 -0.0071958644120661292 -0.011928158280703037 0 -0.0066580171790257808 -0.01266874998914473 0 -0.006714347160513225 -0.012085115682074677 0 -0.0063368243508312039 -0.012278817718226923 0 -0.0066580171790257808 -0.01266874998914473 0 -0.006714347160513225 -0.012085115682074677 0 -0.007051169438552024 -0.012413432056115092 0 -0.007051169438552024 -0.012413432056115092 0 -0.0071958644120661292 -0.011928158280703037 0 -0.007641967542253038 -0.012326102345215778 0 -0.0071958644120661292 -0.011928158280703037 0 -0.007641967542253038 -0.012326102345215778 0 -0.0079772252384729646 -0.011369830503324171 0 -0.007641967542253038 -0.012326102345215778 0 -0.0085100329937004178 -0.012082926200926434 0 -0.0079772252384729646 -0.011369830503324171 0 -0.0090848761710929475 -0.0127712581207385 0 -0.0093980818872600787 -0.01201381115986999 0 -0.0085100329937004178 -0.012082926200926434 0 -0.0091054788518664699 -0.011314584372834922 0 -0.0085100329937004178 -0.012082926200926434 0 -0.0079772252384729646 -0.011369830503324171 0 -0.0077376350342321862 -0.015134217117612821 0 -0.0069335609947468266 -0.015002771349180375 0 -0.0091054788518664699 -0.011314584372834922 0 -0.0093980818872600787 -0.01201381115986999 0 -0.0085100329937004178 -0.012082926200926434 0 -0.003486117549862782 -0.021723684338649657 0 -0.0023517987257608746 -0.022590112835226661 0 -0.0016209233642649984 -0.025111150615394266 0 -0.00097938241498650609 -0.024478358214204219 0 -0.00084375243289226362 -0.025358545973651513 0 -0.0050565575484849377 -0.019336241835592093 0 -0.0059896786374078947 -0.018517709867319355 0 -0.0046803029088006128 -0.018953156916020519 0 -0.0067550687075875445 -0.01928567454942955 0 -0.0050565575484849377 -0.019336241835592093 0 -0.0059896786374078947 -0.018517709867319355 0 -0.0016209233642649984 -0.025111150615394266 0 -0.00097938241498650609 -0.024478358214204219 0 -0.0017353416430446074 -0.024187442142116915 0 -0.0024522740635936767 -0.02483373547139563 0 -0.0016209233642649984 -0.025111150615394266 0 -0.0017353416430446074 -0.024187442142116915 0 -0.00097938241498650609 -0.024478358214204219 0 -0.00084375243289226362 -0.025358545973651513 0 -0.00021888870962244315 -0.024525237833411442 0 -0.00084375243289226362 -0.025358545973651513 0 -3.9356050055567492e-06 -0.025103400534126567 0 -0.00021888870962244315 -0.024525237833411442 0 -0.00011100930513000234 -0.025589624886247369 0 -0.00084375243289226362 -0.025358545973651513 0 -3.9356050055567492e-06 -0.025103400534126567 0 -0.00011100930513000234 -0.025589624886247369 0 -3.9356050055567492e-06 -0.025103400534126567 0 0.00054842640275550546 -0.025297546004511642 0 -3.9356050055567492e-06 -0.025103400534126567 0 -0.00021888870962244315 -0.024525237833411442 0 0.00044643999857446603 -0.024709027247106073 0 -0.00021888870962244315 -0.024525237833411442 0 -0.00046866055221100194 -0.023877300481329054 0 0.0003057985184509654 -0.023719764254160759 0 -0.00021888870962244315 -0.024525237833411442 0 0.00044643999857446603 -0.024709027247106073 0 0.0003057985184509654 -0.023719764254160759 0 -0.00097938241498650609 -0.024478358214204219 0 -0.00021888870962244315 -0.024525237833411442 0 -0.00046866055221100194 -0.023877300481329054 0 -0.00046866055221100194 -0.023877300481329054 0 -0.001057448923738373 -0.023581747159852156 0 -0.00041858190441831575 -0.022988257162197111 0 0.0027951792314509388 -0.023558418297773658 0 0.0022086157415852469 -0.028040604798938183 0 -0.00046866055221100194 -0.023877300481329054 0 -0.00041858190441831575 -0.022988257162197111 0 0.0003057985184509654 -0.023719764254160759 0 -0.001470906042109587 -0.023683337465311458 0 0.00060781563937685218 -0.020629652927857355 0 -0.00097938241498650609 -0.024478358214204219 0 -0.00046866055221100194 -0.023877300481329054 0 -0.001057448923738373 -0.023581747159852156 0 -0.00097938241498650609 -0.024478358214204219 0 -0.0017353416430446074 -0.024187442142116915 0 -0.001057448923738373 -0.023581747159852156 0 0.0019003613258218297 -0.019109803764037581 0 -0.0023166412031781162 -0.018702979686306662 0 -0.00012548154131358674 -0.016487278368327807 0 -0.0019224503858273154 -0.022516100853766378 0 0.0019003613258218297 -0.019109803764037581 0 -0.0023166412031781162 -0.018702979686306662 0 -0.0023166412031781162 -0.018702979686306662 0 -0.0028775742510826915 -0.01476566947652413 0 -0.00012548154131358674 -0.016487278368327807 0 -0.0028775742510826915 -0.01476566947652413 0 -0.00012548154131358674 -0.016487278368327807 0 0.002922621660988084 -0.013046322024086088 0 -0.00012548154131358674 -0.016487278368327807 0 0.0025563932108409451 -0.016132218816491028 0 0.002922621660988084 -0.013046322024086088 0 0.0019003613258218297 -0.019109803764037581 0 0.0025563932108409451 -0.016132218816491028 0 0.005872129300015007 -0.015797240411804598 0 0.0019003613258218297 -0.019109803764037581 0 -0.00012548154131358674 -0.016487278368327807 0 0.0025563932108409451 -0.016132218816491028 0 0.00030786103475560452 -0.026415018584078315 0 -0.0019380776234694419 -0.031110231682189796 0 -0.0028276396785145955 -0.023323104107639183 0 -0.00075286182851312601 -0.023012550746776331 0 -0.001882048893969877 -0.022008592516621604 0 -0.0030831335640810692 -0.022114645211079219 0 -0.0028276396785145955 -0.023323104107639183 0 -0.001882048893969877 -0.022008592516621604 0 -0.0024456824485669889 -0.017779811105133513 0 0.00030786103475560452 -0.026415018584078315 0 0.0040942379500651547 -0.031438553276155426 0 0.0038007966975312215 -0.031592073281599908 0 0.0042758762501570432 -0.031134077220418867 0 0.0040942379500651547 -0.031438553276155426 0 0.0042758762501570432 -0.031134077220418867 0 0.0041002324830917165 -0.031595967888946717 0 0.00398858192542784 -0.031480402701629343 0 0.0040942379500651547 -0.031438553276155426 0 0.0038007966975312215 -0.031592073281599908 0 0.00398858192542784 -0.031480402701629343 0 0.0040942379500651547 -0.031438553276155426 0 0.0040875744524637072 -0.031487535648090682 0 0.00398858192542784 -0.031480402701629343 0 0.0037831613058292935 -0.031564175033405507 0 0.0039172064397432083 -0.031306912347390074 0 0.0040942379500651547 -0.031438553276155426 0 0.0040875744524637072 -0.031487535648090682 0 0.0041002324830917165 -0.031595967888946717 0 0.0025563932108409451 -0.016132218816491028 0 0.002922621660988084 -0.013046322024086088 0 0.005872129300015007 -0.015797240411804598 0 0.00060781563937685218 -0.020629652927857355 0 0.0027951792314509388 -0.023558418297773658 0 0.0037831613058292935 -0.031564175033405507 0 0.0035798267489451272 -0.031745487926144622 0 0.0033740062654998232 -0.030921842761230646 0 0.00398858192542784 -0.031480402701629343 0 0.0037831613058292935 -0.031564175033405507 0 0.0038007966975312215 -0.031592073281599908 0 0.0023665965116510734 -0.024472219882356944 0 0.0027951792314509388 -0.023558418297773658 0 0.0037831613058292935 -0.031564175033405507 0 0.0033740062654998232 -0.030921842761230646 0 0.0039172064397432083 -0.031306912347390074 0 0.00030786103475560452 -0.026415018584078315 0 0.0026120498033565505 -0.034012162385383377 0 0.0016535568320866748 -0.030390998727802356 0 0.0033740062654998232 -0.030921842761230646 0 0.0048148190179933418 -0.029236195749825597 0 0.00030786103475560452 -0.026415018584078315 0 0.0027951792314509388 -0.023558418297773658 0 0.0016535568320866748 -0.030390998727802356 0 0.0035798267489451272 -0.031745487926144622 0 0.0033740062654998232 -0.030921842761230646 0 0.004371726375531175 -0.03006107785648373 0 0.0026120498033565505 -0.034012162385383377 0 0.0033740062654998232 -0.030921842761230646 0 0.0039172064397432083 -0.031306912347390074 0 0.0041366243499749026 -0.031490420640154858 0 0.0040875744524637072 -0.031487535648090682 0 0.0041366243499749026 -0.031490420640154858 0 0.0041183500789481724 -0.031803448106165776 0 0.00398858192542784 -0.031480402701629343 0 0.0039172064397432083 -0.031306912347390074 0 0.0040875744524637072 -0.031487535648090682 0 0.0039172064397432083 -0.031306912347390074 0 0.0040875744524637072 -0.031487535648090682 0 0.0041366243499749026 -0.031490420640154858 0 0.0026120498033565505 -0.034012162385383377 0 0.0049712830830703769 -0.032505433750392325 0 -0.0014395765572485623 -0.038914529169054531 0 -0.0013741538029229177 -0.038602224907976365 0 -0.00063678660514880658 -0.03864951591208448 0 0.0026120498033565505 -0.034012162385383377 0 0.0021055119339219311 -0.036590031796747455 0 -0.0014395765572485623 -0.038914529169054531 0 -0.0019128550451299553 -0.038561740018579045 0 -0.0013741538029229177 -0.038602224907976365 0 -0.0023366912219229511 -0.038975677912519421 0 -0.0014395765572485623 -0.038914529169054531 0 -0.0019128550451299553 -0.038561740018579045 0 -0.0019128550451299553 -0.038561740018579045 0 -0.0016339315285358079 -0.038340838396358129 0 -0.0021278246606088809 -0.03821899517282569 0 -0.0019128550451299553 -0.038561740018579045 0 -0.0016339315285358079 -0.038340838396358129 0 -0.0013741538029229177 -0.038602224907976365 0 -0.0016339315285358079 -0.038340838396358129 0 -0.0017147679558522451 -0.038049741762532223 0 -0.0021278246606088809 -0.03821899517282569 0 -0.0013741538029229177 -0.038602224907976365 0 -0.0011296786903564936 -0.03847631675558548 0 -0.00063678660514880658 -0.03864951591208448 0 -0.0016339315285358079 -0.038340838396358129 0 -0.0013741538029229177 -0.038602224907976365 0 -0.0011296786903564936 -0.03847631675558548 0 -0.0016339315285358079 -0.038340838396358129 0 -0.0011296786903564936 -0.03847631675558548 0 -0.00098853411177405237 -0.038227861473634404 0 -0.0011296786903564936 -0.03847631675558548 0 -0.00098853411177405237 -0.038227861473634404 0 -0.00063678660514880658 -0.03864951591208448 0 -0.00098853411177405237 -0.038227861473634404 0 -0.00083492327464508413 -0.037911673970876032 0 -0.0003712024773994436 -0.038199306516399023 0 -0.00098853411177405237 -0.038227861473634404 0 -0.0017147679558522451 -0.038049741762532223 0 -0.0014806890330045547 -0.037811417654812982 0 -0.0017147679558522451 -0.038049741762532223 0 -0.0022292444416119632 -0.037915660005655757 0 -0.0021278246606088809 -0.03821899517282569 0 -0.0016339315285358079 -0.038340838396358129 0 -0.00098853411177405237 -0.038227861473634404 0 -0.0017147679558522451 -0.038049741762532223 0 -0.0017147679558522451 -0.038049741762532223 0 -0.0019723937047935749 -0.037668693563410759 0 -0.0022292444416119632 -0.037915660005655757 0 -0.0014806890330045547 -0.037811417654812982 0 -0.0019723937047935749 -0.037668693563410759 0 -0.0017101374197049876 -0.037395249217015314 0 -0.0017147679558522451 -0.038049741762532223 0 -0.0014806890330045547 -0.037811417654812982 0 -0.0019723937047935749 -0.037668693563410759 0 -0.0014806890330045547 -0.037811417654812982 0 -0.00083492327464508413 -0.037911673970876032 0 -0.0009712635931194059 -0.037499604039347913 0 -0.00083492327464508413 -0.037911673970876032 0 -0.0009712635931194059 -0.037499604039347913 0 -0.00019287206103581092 -0.037693117227958414 0 -0.00098853411177405237 -0.038227861473634404 0 -0.0014806890330045547 -0.037811417654812982 0 -0.00083492327464508413 -0.037911673970876032 0 -0.0024542097264724405 -0.037662186940014587 0 -0.0029500248318384526 -0.037488701425346771 0 -0.0022950631393318282 -0.037375663030064385 0 -0.0024542097264724405 -0.037662186940014587 0 -0.0027465566559991069 -0.037779820489579431 0 -0.0029500248318384526 -0.037488701425346771 0 -0.0019723937047935749 -0.037668693563410759 0 -0.0024542097264724405 -0.037662186940014587 0 -0.0022950631393318282 -0.037375663030064385 0 -0.0019723937047935749 -0.037668693563410759 0 -0.0024542097264724405 -0.037662186940014587 0 -0.0022292444416119632 -0.037915660005655757 0 -0.0022292444416119632 -0.037915660005655757 0 -0.0021278246606088809 -0.03821899517282569 0 -0.0026140841732717793 -0.038051310781179626 0 -0.0024542097264724405 -0.037662186940014587 0 -0.0022292444416119632 -0.037915660005655757 0 -0.0025846306778169255 -0.037861115529856916 0 -0.0022292444416119632 -0.037915660005655757 0 -0.0025846306778169255 -0.037861115529856916 0 -0.0026140841732717793 -0.038051310781179626 0 -0.0025846306778169255 -0.037861115529856916 0 -0.0028281672103764367 -0.037881661925468435 0 -0.0026140841732717793 -0.038051310781179626 0 -0.0024542097264724405 -0.037662186940014587 0 -0.0025846306778169255 -0.037861115529856916 0 -0.0027465566559991069 -0.037779820489579431 0 -0.0025846306778169255 -0.037861115529856916 0 -0.0027465566559991069 -0.037779820489579431 0 -0.0028281672103764367 -0.037881661925468435 0 -0.0030167192390292397 -0.037341249494495396 0 -0.0065671127274220019 -0.035857214567147674 0 -0.0028281672103764367 -0.037881661925468435 0 -0.0029519981215707452 -0.037957237912115853 0 -0.0030414477746790827 -0.037862089474500711 0 -0.0027465566559991069 -0.037779820489579431 0 -0.0028281672103764367 -0.037881661925468435 0 -0.0030414477746790827 -0.037862089474500711 0 -0.0029519981215707452 -0.037957237912115853 0 -0.0028777342297758826 -0.038123712207017053 0 -0.0026140841732717793 -0.038051310781179626 0 -0.0028281672103764367 -0.037881661925468435 0 -0.0029519981215707452 -0.037957237912115853 0 -0.0026140841732717793 -0.038051310781179626 0 -0.0029519981215707452 -0.037957237912115853 0 -0.0028777342297758826 -0.038123712207017053 0 -0.0032761673723009578 -0.037922296976443504 0 -0.0028777342297758826 -0.038123712207017053 0 -0.0026140841732717793 -0.038051310781179626 0 -0.002491223953335855 -0.038349454144326625 0 -0.0021278246606088809 -0.03821899517282569 0 -0.0026140841732717793 -0.038051310781179626 0 -0.002491223953335855 -0.038349454144326625 0 -0.0019128550451299553 -0.038561740018579045 0 -0.0021278246606088809 -0.03821899517282569 0 -0.002491223953335855 -0.038349454144326625 0 -0.0023366912219229511 -0.038975677912519421 0 -0.0019128550451299553 -0.038561740018579045 0 -0.002491223953335855 -0.038349454144326625 0 -0.0023366912219229511 -0.038975677912519421 0 -0.002491223953335855 -0.038349454144326625 0 -0.0029790275586503161 -0.038386907830278046 0 -0.0030831335640810692 -0.022114645211079219 0 -0.001882048893969877 -0.022008592516621604 0 -0.0018925364144630663 -0.022175483690896721 0 -0.0019380776234694419 -0.031110231682189796 0 -0.0038972198371208309 -0.026827441006799287 0 -0.0028777342297758826 -0.038123712207017053 0 -0.0029790275586503161 -0.038386907830278046 0 -0.0032761673723009578 -0.037922296976443504 0 -0.0028777342297758826 -0.038123712207017053 0 -0.002491223953335855 -0.038349454144326625 0 -0.0029790275586503161 -0.038386907830278046 0 -0.0027348084053159388 -0.019167561407293091 0 -0.0038972198371208309 -0.026827441006799287 0 -0.0030831335640810692 -0.022114645211079219 0 -0.0047202851441853566 -0.019596420980539261 0 -0.0033960260066395517 -0.017591658894630283 0 -0.0055549699886032963 -0.021399336447327805 0 -0.0047202851441853566 -0.019596420980539261 0 -0.0071603768187030077 -0.019585739832933081 0 -0.0047202851441853566 -0.019596420980539261 0 -0.0071603768187030077 -0.019585739832933081 0 -0.0045803841874071747 -0.016591770609176826 0 -0.013156241664783679 -0.021928539980942359 0 -0.010358402132888949 -0.027125465710965479 0 -0.019037247993284073 -0.025826856788583961 0 -0.019221324864707626 -0.027283062030406806 0 -0.018119202709088938 -0.027401130309548553 0 -0.019037247993284073 -0.025826856788583961 0 -0.019221324864707626 -0.027283062030406806 0 -0.020315151253193626 -0.027306607509766184 0 -0.019221324864707626 -0.027283062030406806 0 -0.020315151253193626 -0.027306607509766184 0 -0.019262717998721871 -0.02854381232751823 0 -0.0047202851441853566 -0.019596420980539261 0 -0.0045803841874071747 -0.016591770609176826 0 -0.0033960260066395517 -0.017591658894630283 0 -0.0038972198371208309 -0.026827441006799287 0 -0.0065671127274220019 -0.035857214567147674 0 -0.010358402132888949 -0.027125465710965479 0 -0.0065671127274220019 -0.035857214567147674 0 -0.0029519981215707452 -0.037957237912115853 0 -0.0032761673723009578 -0.037922296976443504 0 -0.0030414477746790827 -0.037862089474500711 0 -0.0046539072609559327 -0.029741706793471493 0 -0.0069897970980223626 -0.027561324235453193 0 -0.0069051014587293708 -0.032392781524560779 0 -0.010358402132888949 -0.027125465710965479 0 -0.0038972198371208309 -0.026827441006799287 0 -0.016983184509413336 -0.025236100054130902 0 -0.01752902918913192 -0.02608739035839118 0 -0.01636328233608144 -0.026195222445745032 0 -0.019037247993284073 -0.025826856788583961 0 -0.01752902918913192 -0.02608739035839118 0 -0.018119202709088938 -0.027401130309548553 0 -0.01794158617975776 -0.024535727487317829 0 -0.019037247993284073 -0.025826856788583961 0 -0.01752902918913192 -0.02608739035839118 0 -0.01752902918913192 -0.02608739035839118 0 -0.018119202709088938 -0.027401130309548553 0 -0.016985758205325427 -0.027096129774195694 0 -0.01752902918913192 -0.02608739035839118 0 -0.016985758205325427 -0.027096129774195694 0 -0.01636328233608144 -0.026195222445745032 0 -0.018119202709088938 -0.027401130309548553 0 -0.016985758205325427 -0.027096129774195694 0 -0.017080024407941194 -0.028332162382888347 0 -0.016972058244188248 -0.0282367223097632 0 -0.015319666941549816 -0.027386665943550641 0 -0.015961285763305414 -0.029087524602789638 0 -0.017080024407941194 -0.028332162382888347 0 -0.01451905349061574 -0.027315178595567511 0 -0.016985758205325427 -0.027096129774195694 0 -0.017080024407941194 -0.028332162382888347 0 -0.016073004608707295 -0.027523989134331212 0 -0.015961285763305414 -0.029087524602789638 0 -0.017080024407941194 -0.028332162382888347 0 -0.016908858267453489 -0.029633818356233885 0 -0.017820390276768475 -0.028944530739678741 0 -0.017936016943580876 -0.030404030614344942 0 -0.019262717998721871 -0.02854381232751823 0 -0.018119202709088938 -0.027401130309548553 0 -0.017820390276768475 -0.028944530739678741 0 -0.019262717998721871 -0.02854381232751823 0 -0.018119202709088938 -0.027401130309548553 0 -0.017080024407941194 -0.028332162382888347 0 -0.017820390276768475 -0.028944530739678741 0 -0.017080024407941194 -0.028332162382888347 0 -0.017820390276768475 -0.028944530739678741 0 -0.016908858267453489 -0.029633818356233885 0 -0.015578919672950295 -0.032177886180021015 0 -0.016868356007761435 -0.031265064192541242 0 -0.013515833602228895 -0.033926568771033574 0 -0.013224246449433886 -0.03389011694707763 0 -0.01325963679349302 -0.03380823502413325 0 -0.013515833602228895 -0.033926568771033574 0 -0.01325963679349302 -0.03380823502413325 0 -0.013341389890143926 -0.033626119303151417 0 -0.013515833602228895 -0.033926568771033574 0 -0.01373673006469885 -0.033375100054597068 0 -0.013341389890143926 -0.033626119303151417 0 -0.017936016943580876 -0.030404030614344942 0 -0.016877050388675343 -0.031014442809049449 0 -0.017303375926777092 -0.030079283608137115 0 -0.017820390276768475 -0.028944530739678741 0 -0.017303375926777092 -0.030079283608137115 0 -0.016908858267453489 -0.029633818356233885 0 -0.017820390276768475 -0.028944530739678741 0 -0.017936016943580876 -0.030404030614344942 0 -0.017303375926777092 -0.030079283608137115 0 -0.015519180342096064 -0.029677768131963655 0 -0.016877050388675343 -0.031014442809049449 0 -0.015213613439019379 -0.031054636793582009 0 -0.015773007833128475 -0.029439967955474603 0 -0.016807617956766226 -0.03084924598479535 0 -0.015961285763305414 -0.029087524602789638 0 -0.016877050388675343 -0.031014442809049449 0 -0.016908858267453489 -0.029633818356233885 0 -0.016877050388675343 -0.031014442809049449 0 -0.017303375926777092 -0.030079283608137115 0 -0.016908858267453489 -0.029633818356233885 0 -0.016877050388675343 -0.031014442809049449 0 -0.015618009487844227 -0.031604886501636349 0 -0.015213613439019379 -0.031054636793582009 0 -0.015578919672950295 -0.032177886180021015 0 -0.014885483488049018 -0.032826138923829191 0 -0.017936016943580876 -0.030404030614344942 0 -0.016877050388675343 -0.031014442809049449 0 -0.014727663771900715 -0.032912636462758549 0 -0.015618009487844227 -0.031604886501636349 0 -0.015213613439019379 -0.031054636793582009 0 -0.014978605714452255 -0.031892693406711303 0 -0.015213613439019379 -0.031054636793582009 0 -0.014978605714452255 -0.031892693406711303 0 -0.014630326152314818 -0.031927430763724444 0 -0.015519180342096064 -0.029677768131963655 0 -0.015213613439019379 -0.031054636793582009 0 -0.014848201785999984 -0.030461569194639656 0 -0.013044357624149622 -0.033990408708116017 0 -0.012980680789432677 -0.033936299679987521 0 -0.013125430017036805 -0.03383248752703677 0 -0.013044357624149622 -0.033990408708116017 0 -0.013224246449433886 -0.03389011694707763 0 -0.013125430017036805 -0.03383248752703677 0 -0.010358402132888949 -0.027125465710965479 0 -0.016868356007761435 -0.031265064192541242 0 -0.019221324864707626 -0.027283062030406806 0 -0.018119202709088938 -0.027401130309548553 0 -0.019262717998721871 -0.02854381232751823 0 -0.013224246449433886 -0.03389011694707763 0 -0.013125430017036805 -0.03383248752703677 0 -0.01325963679349302 -0.03380823502413325 0 -0.013125430017036805 -0.03383248752703677 0 -0.01325963679349302 -0.03380823502413325 0 -0.013177078481590641 -0.033651306109461307 0 -0.01325963679349302 -0.03380823502413325 0 -0.013177078481590641 -0.033651306109461307 0 -0.013341389890143926 -0.033626119303151417 0 -0.0065671127274220019 -0.035857214567147674 0 -0.0081853828522510576 -0.035610053733888938 0 -0.013125430017036805 -0.03383248752703677 0 -0.01305461207756534 -0.033678557234475069 0 -0.013177078481590641 -0.033651306109461307 0 -0.012980680789432677 -0.033936299679987521 0 -0.013125430017036805 -0.03383248752703677 0 -0.01305461207756534 -0.033678557234475069 0 -0.0027465566559991069 -0.037779820489579431 0 -0.0029537231994592981 -0.037971827773997477 0 -0.0029500248318384526 -0.037488701425346771 0 -0.0081853828522510576 -0.035610053733888938 0 -0.0080505340056570198 -0.035331053625063565 0 -0.01305461207756534 -0.033678557234475069 0 -0.013123097083368758 -0.033581888348224412 0 -0.01318509131677527 -0.033765143691989595 0 -0.01305461207756534 -0.033678557234475069 0 -0.013177078481590641 -0.033651306109461307 0 -0.013123097083368758 -0.033581888348224412 0 -0.013177078481590641 -0.033651306109461307 0 -0.013123097083368758 -0.033581888348224412 0 -0.013304469042288668 -0.033482967084335583 0 -0.013177078481590641 -0.033651306109461307 0 -0.013341389890143926 -0.033626119303151417 0 -0.013304469042288668 -0.033482967084335583 0 -0.013123097083368758 -0.033581888348224412 0 -0.012920685595531247 -0.033916882317871204 0 -0.012902869135265786 -0.034039803614443954 0 -0.013123097083368758 -0.033581888348224412 0 -0.01318509131677527 -0.033765143691989595 0 -0.012902869135265786 -0.034039803614443954 0 -0.014172454417444523 -0.032982523138196489 0 -0.014727663771900715 -0.032912636462758549 0 -0.014479104073166268 -0.032854555853354138 0 -0.014727663771900715 -0.032912636462758549 0 -0.014479104073166268 -0.032854555853354138 0 -0.014630326152314818 -0.031927430763724444 0 -0.014727663771900715 -0.032912636462758549 0 -0.014978605714452255 -0.031892693406711303 0 -0.014630326152314818 -0.031927430763724444 0 -0.015618009487844227 -0.031604886501636349 0 -0.014727663771900715 -0.032912636462758549 0 -0.014978605714452255 -0.031892693406711303 0 -0.016877050388675343 -0.031014442809049449 0 -0.015618009487844227 -0.031604886501636349 0 -0.014727663771900715 -0.032912636462758549 0 -0.014727663771900715 -0.032912636462758549 0 -0.013922087850909684 -0.03313763324458377 0 -0.01373673006469885 -0.033375100054597068 0 -0.013515833602228895 -0.033926568771033574 0 -0.014727663771900715 -0.032912636462758549 0 -0.01373673006469885 -0.033375100054597068 0 -0.014172454417444523 -0.032982523138196489 0 -0.013922087850909684 -0.03313763324458377 0 -0.013416475768989749 -0.033322648181458574 0 -0.014172454417444523 -0.032982523138196489 0 -0.014727663771900715 -0.032912636462758549 0 -0.013922087850909684 -0.03313763324458377 0 -0.013922087850909684 -0.03313763324458377 0 -0.013582500555975176 -0.033331235623487783 0 -0.013416475768989749 -0.033322648181458574 0 -0.013582500555975176 -0.033331235623487783 0 -0.013304469042288668 -0.033482967084335583 0 -0.013416475768989749 -0.033322648181458574 0 -0.01373673006469885 -0.033375100054597068 0 -0.013582500555975176 -0.033331235623487783 0 -0.013341389890143926 -0.033626119303151417 0 -0.013922087850909684 -0.03313763324458377 0 -0.01373673006469885 -0.033375100054597068 0 -0.013582500555975176 -0.033331235623487783 0 -0.013582500555975176 -0.033331235623487783 0 -0.013341389890143926 -0.033626119303151417 0 -0.013304469042288668 -0.033482967084335583 0 -0.013123097083368758 -0.033581888348224412 0 -0.013416475768989749 -0.033322648181458574 0 -0.012920685595531247 -0.033916882317871204 0 -0.013123097083368758 -0.033581888348224412 0 -0.013304469042288668 -0.033482967084335583 0 -0.013416475768989749 -0.033322648181458574 0 -0.014172454417444523 -0.032982523138196489 0 -0.013416475768989749 -0.033322648181458574 0 -0.012061059298317854 -0.034039169048574139 0 -0.014046806078081798 -0.033153071544018475 0 -0.013400498456128247 -0.034193041429398684 0 -0.013416475768989749 -0.033322648181458574 0 -0.012920685595531247 -0.033916882317871204 0 -0.012061059298317854 -0.034039169048574139 0 -0.012920685595531247 -0.033916882317871204 0 -0.012151319500224897 -0.034959838179303634 0 -0.012061059298317854 -0.034039169048574139 0 -0.012920685595531247 -0.033916882317871204 0 -0.012151319500224897 -0.034959838179303634 0 -0.012541635730914666 -0.034558738830766628 0 -0.012151319500224897 -0.034959838179303634 0 -0.012541635730914666 -0.034558738830766628 0 -0.012171863037777885 -0.035245157796082352 0 -0.012151319500224897 -0.034959838179303634 0 -0.012061059298317854 -0.034039169048574139 0 -0.011279338362670914 -0.035172683690651678 0 -0.0080505340056570198 -0.035331053625063565 0 -0.0079426331080695127 -0.035485355134831892 0 -0.01318509131677527 -0.033765143691989595 0 -0.012902869135265786 -0.034039803614443954 0 -0.012881612620274329 -0.034691592621081568 0 -0.012920685595531247 -0.033916882317871204 0 -0.012902869135265786 -0.034039803614443954 0 -0.012541635730914666 -0.034558738830766628 0 -0.012541635730914666 -0.034558738830766628 0 -0.012881612620274329 -0.034691592621081568 0 -0.012171863037777885 -0.035245157796082352 0 -0.012902869135265786 -0.034039803614443954 0 -0.012541635730914666 -0.034558738830766628 0 -0.012881612620274329 -0.034691592621081568 0 -0.0030477545425032933 -0.036329510753311957 0 -0.002643066800643423 -0.036314029888493651 0 -0.002916475575890377 -0.03618083289891337 0 -0.0030477545425032933 -0.036329510753311957 0 -0.0026448329872887019 -0.036608216824440772 0 -0.002643066800643423 -0.036314029888493651 0 -0.0029894260143396956 -0.036891240371851333 0 -0.0030477545425032933 -0.036329510753311957 0 -0.0026448329872887019 -0.036608216824440772 0 -0.0026448329872887019 -0.036608216824440772 0 -0.0022468816813002303 -0.036411377600504932 0 -0.0021056272984886363 -0.036917639157609997 0 -0.0026448329872887019 -0.036608216824440772 0 -0.0022468816813002303 -0.036411377600504932 0 -0.002643066800643423 -0.036314029888493651 0 -0.0022468816813002303 -0.036411377600504932 0 -0.002643066800643423 -0.036314029888493651 0 -0.0025129953235067176 -0.036121747769052276 0 -0.0022468816813002303 -0.036411377600504932 0 -0.001971592883761834 -0.036044182136248097 0 -0.0025129953235067176 -0.036121747769052276 0 -0.0022468816813002303 -0.036411377600504932 0 -0.0014842919297165876 -0.036534947504320965 0 -0.001971592883761834 -0.036044182136248097 0 -0.0011573978426388258 -0.036237879965719082 0 -0.0014842919297165876 -0.036534947504320965 0 -0.001971592883761834 -0.036044182136248097 0 -0.0011573978426388258 -0.036237879965719082 0 -0.0014842919297165876 -0.036534947504320965 0 -0.00049247724521064493 -0.036613776281393715 0 -0.0014842919297165876 -0.036534947504320965 0 -0.001196676264907984 -0.037004277268847696 0 -0.00049247724521064493 -0.036613776281393715 0 -0.0014842919297165876 -0.036534947504320965 0 -0.001196676264907984 -0.037004277268847696 0 -0.0021056272984886363 -0.036917639157609997 0 -0.0022468816813002303 -0.036411377600504932 0 -0.0014842919297165876 -0.036534947504320965 0 -0.0021056272984886363 -0.036917639157609997 0 -0.001196676264907984 -0.037004277268847696 0 -0.0017101374197049876 -0.037395249217015314 0 -0.0021056272984886363 -0.036917639157609997 0 -0.001196676264907984 -0.037004277268847696 0 -0.00025125281637944412 -0.037106458650271852 0 -0.00049247724521064493 -0.036613776281393715 0 -0.001196676264907984 -0.037004277268847696 0 -0.0009712635931194059 -0.037499604039347913 0 -0.00025125281637944412 -0.037106458650271852 0 -0.001196676264907984 -0.037004277268847696 0 -0.0009712635931194059 -0.037499604039347913 0 -0.0017101374197049876 -0.037395249217015314 0 -0.0014806890330045547 -0.037811417654812982 0 -0.0009712635931194059 -0.037499604039347913 0 -0.0017101374197049876 -0.037395249217015314 0 -0.0017101374197049876 -0.037395249217015314 0 -0.0022950631393318282 -0.037375663030064385 0 -0.0021056272984886363 -0.036917639157609997 0 -0.0019723937047935749 -0.037668693563410759 0 -0.0017101374197049876 -0.037395249217015314 0 -0.0022950631393318282 -0.037375663030064385 0 -0.0029500248318384526 -0.037488701425346771 0 -0.0022950631393318282 -0.037375663030064385 0 -0.0025849758705624461 -0.037064601365893436 0 -0.0029500248318384526 -0.037488701425346771 0 -0.0029894260143396956 -0.036891240371851333 0 -0.0025849758705624461 -0.037064601365893436 0 -0.0029894260143396956 -0.036891240371851333 0 -0.0026448329872887019 -0.036608216824440772 0 -0.0025849758705624461 -0.037064601365893436 0 -0.0022950631393318282 -0.037375663030064385 0 -0.0025849758705624461 -0.037064601365893436 0 -0.0021056272984886363 -0.036917639157609997 0 -0.0026448329872887019 -0.036608216824440772 0 -0.0025849758705624461 -0.037064601365893436 0 -0.0021056272984886363 -0.036917639157609997 0 -0.020312186521002848 -0.015130850272852344 0 -0.017785528470738388 -0.012846530815311273 0 -0.021852952293727908 -0.012912408697472835 0 -0.023582728108168371 -0.015573283619004561 0 -0.020312186521002848 -0.015130850272852344 0 -0.021645969284506381 -0.017120316620010942 0 -0.023582728108168371 -0.015573283619004561 0 -0.020312186521002848 -0.015130850272852344 0 -0.021852952293727908 -0.012912408697472835 0 -0.020312186521002848 -0.015130850272852344 0 -0.017442260841824007 -0.016023564088042026 0 -0.017785528470738388 -0.012846530815311273 0 -0.017442260841824007 -0.016023564088042026 0 -0.015323707902774432 -0.015221738802608933 0 -0.017785528470738388 -0.012846530815311273 0 -0.017442260841824007 -0.016023564088042026 0 -0.015395535918142455 -0.01698740600245599 0 -0.015323707902774432 -0.015221738802608933 0 -0.020312186521002848 -0.015130850272852344 0 -0.017442260841824007 -0.016023564088042026 0 -0.019477993119830617 -0.017218573291734436 0 -0.017442260841824007 -0.016023564088042026 0 -0.016585955377847572 -0.018792629563334301 0 -0.019477993119830617 -0.017218573291734436 0 -0.017442260841824007 -0.016023564088042026 0 -0.016585955377847572 -0.018792629563334301 0 -0.015395535918142455 -0.01698740600245599 0 -0.016585955377847572 -0.018792629563334301 0 -0.019477993119830617 -0.017218573291734436 0 -0.019618338989357505 -0.019769987411951791 0 -0.019477993119830617 -0.017218573291734436 0 -0.021645969284506381 -0.017120316620010942 0 -0.019618338989357505 -0.019769987411951791 0 -0.020312186521002848 -0.015130850272852344 0 -0.019477993119830617 -0.017218573291734436 0 -0.021645969284506381 -0.017120316620010942 0 -0.023108272639342248 -0.018701381226752339 0 -0.021645969284506381 -0.017120316620010942 0 -0.019618338989357505 -0.019769987411951791 0 -0.022501027781872351 -0.021222329729784585 0 -0.019618338989357505 -0.019769987411951791 0 -0.021049166929574065 -0.024515210481652984 0 -0.023108272639342248 -0.018701381226752339 0 -0.022501027781872351 -0.021222329729784585 0 -0.019618338989357505 -0.019769987411951791 0 -0.016812627168473895 -0.025146962561685492 0 -0.018003966789419408 -0.025269741634503129 0 -0.017761050273451991 -0.024340732538040973 0 -0.016812627168473895 -0.025146962561685492 0 -0.017761050273451991 -0.024340732538040973 0 -0.015822909625378762 -0.024706686896628267 0 -0.017761050273451991 -0.024340732538040973 0 -0.015822909625378762 -0.024706686896628267 0 -0.016248791260741271 -0.021658641969738136 0 -0.015695426539260943 -0.02561506429159869 0 -0.016812627168473895 -0.025146962561685492 0 -0.015822909625378762 -0.024706686896628267 0 -0.019273036075345133 -0.024163513659804611 0 -0.016376830556652521 -0.021865724980260362 0 -0.019618338989357505 -0.019769987411951791 0 -0.021049166929574065 -0.024515210481652984 0 -0.016248791260741271 -0.021658641969738136 0 -0.015822909625378762 -0.024706686896628267 0 -0.016248791260741271 -0.021658641969738136 0 -0.013782550748775735 -0.021215671517841279 0 -0.016585955377847572 -0.018792629563334301 0 -0.019618338989357505 -0.019769987411951791 0 -0.016248791260741271 -0.021658641969738136 0 -0.0156927546628946 -0.024771546676233817 0 -0.014159729524235035 -0.023868892237665883 0 -0.016585955377847572 -0.018792629563334301 0 -0.016248791260741271 -0.021658641969738136 0 -0.013782550748775735 -0.021215671517841279 0 -0.015695426539260943 -0.02561506429159869 0 -0.015822909625378762 -0.024706686896628267 0 -0.014567913021456616 -0.025711035497695243 0 -0.015822909625378762 -0.024706686896628267 0 -0.014059742098813456 -0.026018308641909616 0 -0.014567913021456616 -0.025711035497695243 0 -0.014567913021456616 -0.025711035497695243 0 -0.013549115566387581 -0.026624021200279957 0 -0.013335920655341549 -0.026896532530945098 0 -0.014409920317169754 -0.025812030581719238 0 -0.014006805011781195 -0.02627366933804574 0 -0.014658430647743767 -0.025601810148856742 0 -0.014567913021456616 -0.025711035497695243 0 -0.014672252650306025 -0.025766838964317897 0 -0.014059742098813456 -0.026018308641909616 0 -0.013549115566387581 -0.026624021200279957 0 -0.012911238509164546 -0.027420822087556092 0 -0.014059742098813456 -0.026018308641909616 0 -0.014567913021456616 -0.025711035497695243 0 -0.013549115566387581 -0.026624021200279957 0 -0.011396300793712549 -0.017868008920656604 0 -0.014024156901764742 -0.018260639118074663 0 -0.013281286868009319 -0.016495702368275359 0 -0.014159729524235035 -0.023868892237665883 0 -0.011837269150546751 -0.022082114851222769 0 -0.013549115566387581 -0.026624021200279957 0 -0.012911238509164546 -0.027420822087556092 0 -0.013161496689470318 -0.02737273130795654 0 -0.013782550748775735 -0.021215671517841279 0 -0.011396300793712549 -0.017868008920656604 0 -0.014024156901764742 -0.018260639118074663 0 -0.016585955377847572 -0.018792629563334301 0 -0.013782550748775735 -0.021215671517841279 0 -0.014024156901764742 -0.018260639118074663 0 -0.016585955377847572 -0.018792629563334301 0 -0.015395535918142455 -0.01698740600245599 0 -0.014024156901764742 -0.018260639118074663 0 -0.015395535918142455 -0.01698740600245599 0 -0.014024156901764742 -0.018260639118074663 0 -0.013281286868009319 -0.016495702368275359 0 -0.015323707902774432 -0.015221738802608933 0 -0.01288104019985872 -0.01439915570993624 0 -0.017785528470738388 -0.012846530815311273 0 -0.015395535918142455 -0.01698740600245599 0 -0.013281286868009319 -0.016495702368275359 0 -0.015323707902774432 -0.015221738802608933 0 -0.013281286868009319 -0.016495702368275359 0 -0.015323707902774432 -0.015221738802608933 0 -0.01288104019985872 -0.01439915570993624 0 -0.01288104019985872 -0.01439915570993624 0 -0.011668409932176608 -0.016064730821142188 0 -0.0092584009023753931 -0.015539486128788435 0 -0.011396300793712549 -0.017868008920656604 0 -0.011668409932176608 -0.016064730821142188 0 -0.0092584009023753931 -0.015539486128788435 0 -0.01260413568213953 -0.023328308153205468 0 -0.012057318320360775 -0.026105054108657384 0 -0.013281286868009319 -0.016495702368275359 0 -0.01288104019985872 -0.01439915570993624 0 -0.011668409932176608 -0.016064730821142188 0 -0.011396300793712549 -0.017868008920656604 0 -0.013281286868009319 -0.016495702368275359 0 -0.011668409932176608 -0.016064730821142188 0 -0.012911238509164546 -0.027420822087556092 0 -0.0125767117300858 -0.028933941137258157 0 -0.012873480362504399 -0.028387979387067795 0 -0.011837269150546751 -0.022082114851222769 0 -0.012057318320360775 -0.026105054108657384 0 -0.010601782700103722 -0.030101900065529655 0 -0.012726631563516737 -0.029748894080416352 0 -0.013152258697866834 -0.031235691007806616 0 -0.012057318320360775 -0.026105054108657384 0 -0.012312415592894503 -0.028969697899597524 0 -0.012726631563516737 -0.029748894080416352 0 -0.013468585667738961 -0.0301153254548049 0 -0.013152258697866834 -0.031235691007806616 0 -0.012726631563516737 -0.029748894080416352 0 -0.013206275899186872 -0.028973794093943499 0 -0.013468585667738961 -0.0301153254548049 0 -0.012726631563516737 -0.029748894080416352 0 -0.013206275899186872 -0.028973794093943499 0 -0.012873480362504399 -0.028387979387067795 0 -0.0125767117300858 -0.028933941137258157 0 -0.012726631563516737 -0.029748894080416352 0 -0.012873480362504399 -0.028387979387067795 0 -0.013206275899186872 -0.028973794093943499 0 -0.013199868330033535 -0.028106979658948802 0 -0.012873480362504399 -0.028387979387067795 0 -0.013206275899186872 -0.028973794093943499 0 -0.013199868330033535 -0.028106979658948802 0 -0.013536177574870989 -0.028515718356941892 0 -0.013199868330033535 -0.028106979658948802 0 -0.013491606233119883 -0.027665974852971661 0 -0.013536177574870989 -0.028515718356941892 0 -0.012911238509164546 -0.027420822087556092 0 -0.012873480362504399 -0.028387979387067795 0 -0.013161496689470318 -0.02737273130795654 0 -0.013199868330033535 -0.028106979658948802 0 -0.012873480362504399 -0.028387979387067795 0 -0.013161496689470318 -0.02737273130795654 0 -0.013549115566387581 -0.026624021200279957 0 -0.013161496689470318 -0.02737273130795654 0 -0.013335920655341549 -0.026896532530945098 0 -0.014736971856866345 -0.025583658631882038 0 -0.014658430647743767 -0.025601810148856742 0 -0.014672252650306025 -0.025766838964317897 0 -0.014736971856866345 -0.025583658631882038 0 -0.014968357528729249 -0.025613228317631968 0 -0.014672252650306025 -0.025766838964317897 0 -0.014968357528729249 -0.025613228317631968 0 -0.014672252650306025 -0.025766838964317897 0 -0.014994176301978659 -0.025936367656752071 0 -0.013161496689470318 -0.02737273130795654 0 -0.013335920655341549 -0.026896532530945098 0 -0.013491606233119883 -0.027665974852971661 0 -0.013199868330033535 -0.028106979658948802 0 -0.013161496689470318 -0.02737273130795654 0 -0.013491606233119883 -0.027665974852971661 0 -0.014006805011781195 -0.02627366933804574 0 -0.014187856460323738 -0.026773664394514434 0 -0.013491606233119883 -0.027665974852971661 0 -0.014820763554763234 -0.028534008840646045 0 -0.014024956062534281 -0.028693710324519863 0 -0.014994176301978659 -0.025936367656752071 0 -0.015161002577924288 -0.02584154330727791 0 -0.015367396469799179 -0.026115369378311343 0 -0.014187856460323738 -0.026773664394514434 0 -0.015319666941549816 -0.027386665943550641 0 -0.014927061983218574 -0.025470089312011453 0 -0.015310390185046562 -0.026041635158835192 0 -0.014902117762334296 -0.025242948112346619 0 -0.015407526418063826 -0.026322533856994734 0 -0.015606963884434281 -0.025407668898828589 0 -0.014968357528729249 -0.025613228317631968 0 -0.014994176301978659 -0.025936367656752071 0 -0.015161002577924288 -0.02584154330727791 0 -0.015407526418063826 -0.026322533856994734 0 -0.015606963884434281 -0.025407668898828589 0 -0.01636328233608144 -0.026195222445745032 0 -0.016302801592006255 -0.025183107986879838 0 -0.016983184509413336 -0.025236100054130902 0 -0.01636328233608144 -0.026195222445745032 0 -0.016302801592006255 -0.025183107986879838 0 -0.015606963884434281 -0.025407668898828589 0 -0.01636328233608144 -0.026195222445745032 0 -0.015310390185046562 -0.026041635158835192 0 -0.015319666941549816 -0.027386665943550641 0 -0.016985758205325427 -0.027096129774195694 0 -0.01636328233608144 -0.026195222445745032 0 -0.016073004608707295 -0.027523989134331212 0 -0.015407526418063826 -0.026322533856994734 0 -0.01636328233608144 -0.026195222445745032 0 -0.016073004608707295 -0.027523989134331212 0 -0.015773007833128475 -0.029439967955474603 0 -0.015319666941549816 -0.027386665943550641 0 -0.015519180342096064 -0.029677768131963655 0 -0.014820763554763234 -0.028534008840646045 0 -0.014574407875265104 -0.029614059134529618 0 -0.014820763554763234 -0.028534008840646045 0 -0.014574407875265104 -0.029614059134529618 0 -0.014024956062534281 -0.028693710324519863 0 -0.013491606233119883 -0.027665974852971661 0 -0.014024956062534281 -0.028693710324519863 0 -0.013536177574870989 -0.028515718356941892 0 -0.014024956062534281 -0.028693710324519863 0 -0.013536177574870989 -0.028515718356941892 0 -0.013805001911883335 -0.029337106486679022 0 -0.013206275899186872 -0.028973794093943499 0 -0.013536177574870989 -0.028515718356941892 0 -0.013805001911883335 -0.029337106486679022 0 -0.014574407875265104 -0.029614059134529618 0 -0.014024956062534281 -0.028693710324519863 0 -0.013805001911883335 -0.029337106486679022 0 -0.014574407875265104 -0.029614059134529618 0 -0.013805001911883335 -0.029337106486679022 0 -0.013973457847725756 -0.030427926176691183 0 -0.013805001911883335 -0.029337106486679022 0 -0.013468585667738961 -0.0301153254548049 0 -0.013973457847725756 -0.030427926176691183 0 -0.013206275899186872 -0.028973794093943499 0 -0.013805001911883335 -0.029337106486679022 0 -0.013468585667738961 -0.0301153254548049 0 -0.013468585667738961 -0.0301153254548049 0 -0.013973457847725756 -0.030427926176691183 0 -0.013736646142699252 -0.031364420199596621 0 -0.013468585667738961 -0.0301153254548049 0 -0.013736646142699252 -0.031364420199596621 0 -0.013152258697866834 -0.031235691007806616 0 -0.013973457847725756 -0.030427926176691183 0 -0.014201603568644043 -0.03180357795800412 0 -0.013736646142699252 -0.031364420199596621 0 -0.013973457847725756 -0.030427926176691183 0 -0.014416612959450657 -0.030959431189417925 0 -0.014201603568644043 -0.03180357795800412 0 -0.014416612959450657 -0.030959431189417925 0 -0.014848201785999984 -0.030461569194639656 0 -0.014630326152314818 -0.031927430763724444 0 -0.015213613439019379 -0.031054636793582009 0 -0.014848201785999984 -0.030461569194639656 0 -0.014630326152314818 -0.031927430763724444 0 -0.015519180342096064 -0.029677768131963655 0 -0.014574407875265104 -0.029614059134529618 0 -0.014848201785999984 -0.030461569194639656 0 -0.014574407875265104 -0.029614059134529618 0 -0.014416612959450657 -0.030959431189417925 0 -0.014848201785999984 -0.030461569194639656 0 -0.014574407875265104 -0.029614059134529618 0 -0.013973457847725756 -0.030427926176691183 0 -0.014416612959450657 -0.030959431189417925 0 -0.014136248059800641 -0.032776610665659928 0 -0.014389017453120462 -0.032717924916548131 0 -0.014201603568644043 -0.03180357795800412 0 -0.014389017453120462 -0.032717924916548131 0 -0.014479104073166268 -0.032854555853354138 0 -0.014397227139864154 -0.033336418437492396 0 -0.014389017453120462 -0.032717924916548131 0 -0.014479104073166268 -0.032854555853354138 0 -0.014630326152314818 -0.031927430763724444 0 -0.014389017453120462 -0.032717924916548131 0 -0.014630326152314818 -0.031927430763724444 0 -0.014201603568644043 -0.03180357795800412 0 -0.014416612959450657 -0.030959431189417925 0 -0.014630326152314818 -0.031927430763724444 0 -0.014201603568644043 -0.03180357795800412 0 -0.014201603568644043 -0.03180357795800412 0 -0.013736646142699252 -0.031364420199596621 0 -0.013953082486931254 -0.032158176326033433 0 -0.013736646142699252 -0.031364420199596621 0 -0.013645434308922356 -0.032647462422905241 0 -0.013953082486931254 -0.032158176326033433 0 -0.013736646142699252 -0.031364420199596621 0 -0.013645434308922356 -0.032647462422905241 0 -0.013152258697866834 -0.031235691007806616 0 -0.014136248059800641 -0.032776610665659928 0 -0.014201603568644043 -0.03180357795800412 0 -0.013953082486931254 -0.032158176326033433 0 -0.014136248059800641 -0.032776610665659928 0 -0.013645434308922356 -0.032647462422905241 0 -0.013953082486931254 -0.032158176326033433 0 -0.014136248059800641 -0.032776610665659928 0 -0.013645434308922356 -0.032647462422905241 0 -0.013898829044934651 -0.033315214960631737 0 -0.013645434308922356 -0.032647462422905241 0 -0.013898829044934651 -0.033315214960631737 0 -0.013527535851897176 -0.033551936785991408 0 -0.013645434308922356 -0.032647462422905241 0 -0.013527535851897176 -0.033551936785991408 0 -0.01318765453681468 -0.033190131831235231 0 -0.013527535851897176 -0.033551936785991408 0 -0.01377283926772194 -0.034074918440399914 0 -0.013260456837024377 -0.034125105117752699 0 -0.013898829044934651 -0.033315214960631737 0 -0.013527535851897176 -0.033551936785991408 0 -0.01377283926772194 -0.034074918440399914 0 -0.013898829044934651 -0.033315214960631737 0 -0.014397227139864154 -0.033336418437492396 0 -0.01377283926772194 -0.034074918440399914 0 -0.014172454417444523 -0.032982523138196489 0 -0.014397227139864154 -0.033336418437492396 0 -0.014734759187292447 -0.034222508731483976 0 -0.014136248059800641 -0.032776610665659928 0 -0.013898829044934651 -0.033315214960631737 0 -0.014397227139864154 -0.033336418437492396 0 -0.014136248059800641 -0.032776610665659928 0 -0.014389017453120462 -0.032717924916548131 0 -0.014397227139864154 -0.033336418437492396 0 -0.014172454417444523 -0.032982523138196489 0 -0.014479104073166268 -0.032854555853354138 0 -0.014397227139864154 -0.033336418437492396 0 -0.014397227139864154 -0.033336418437492396 0 -0.014734759187292447 -0.034222508731483976 0 -0.01377283926772194 -0.034074918440399914 0 -0.014734759187292447 -0.034222508731483976 0 -0.013782620419899668 -0.034895701340362427 0 -0.01377283926772194 -0.034074918440399914 0 -0.014734759187292447 -0.034222508731483976 0 -0.013782620419899668 -0.034895701340362427 0 -0.014122644593794696 -0.03585766365014896 0 -0.013400498456128247 -0.034193041429398684 0 -0.012696188284294217 -0.03549329955701843 0 -0.013782620419899668 -0.034895701340362427 0 -0.013268135697566697 -0.034726022819317581 0 -0.013259402943294106 -0.035510866161616597 0 -0.013782620419899668 -0.034895701340362427 0 -0.013259402943294106 -0.035510866161616597 0 -0.014122644593794696 -0.03585766365014896 0 -0.013782620419899668 -0.034895701340362427 0 -0.01377283926772194 -0.034074918440399914 0 -0.013268135697566697 -0.034726022819317581 0 -0.01377283926772194 -0.034074918440399914 0 -0.013260456837024377 -0.034125105117752699 0 -0.013268135697566697 -0.034726022819317581 0 -0.013260456837024377 -0.034125105117752699 0 -0.013001045503081883 -0.03427876022331644 0 -0.013268135697566697 -0.034726022819317581 0 -0.013001045503081883 -0.03427876022331644 0 -0.01296630713716999 -0.034748735053164413 0 -0.013268135697566697 -0.034726022819317581 0 -0.013001045503081883 -0.03427876022331644 0 -0.01296630713716999 -0.034748735053164413 0 -0.012690676701964112 -0.034219129880193377 0 -0.01296630713716999 -0.034748735053164413 0 -0.013268135697566697 -0.034726022819317581 0 -0.013056525467335102 -0.035206506686790061 0 -0.013268135697566697 -0.034726022819317581 0 -0.013056525467335102 -0.035206506686790061 0 -0.013259402943294106 -0.035510866161616597 0 -0.01296630713716999 -0.034748735053164413 0 -0.013056525467335102 -0.035206506686790061 0 -0.012892792981255844 -0.035348586429292422 0 -0.013056525467335102 -0.035206506686790061 0 -0.012943993728919729 -0.035702275863787637 0 -0.012892792981255844 -0.035348586429292422 0 -0.013056525467335102 -0.035206506686790061 0 -0.012943993728919729 -0.035702275863787637 0 -0.013259402943294106 -0.035510866161616597 0 -0.012943993728919729 -0.035702275863787637 0 -0.012771898632000811 -0.035854676715364277 0 -0.012892792981255844 -0.035348586429292422 0 -0.012771898632000811 -0.035854676715364277 0 -0.012892792981255844 -0.035348586429292422 0 -0.012709737691042205 -0.035179064749471224 0 -0.012771898632000811 -0.035854676715364277 0 -0.012709737691042205 -0.035179064749471224 0 -0.012791168857606611 -0.036377054551029527 0 -0.01296630713716999 -0.034748735053164413 0 -0.012892792981255844 -0.035348586429292422 0 -0.012709737691042205 -0.035179064749471224 0 -0.01296630713716999 -0.034748735053164413 0 -0.012709737691042205 -0.035179064749471224 0 -0.012690676701964112 -0.034219129880193377 0 -0.012709737691042205 -0.035179064749471224 0 -0.012690676701964112 -0.034219129880193377 0 -0.012291130397108291 -0.034392679564885377 0 -0.012690676701964112 -0.034219129880193377 0 -0.012253902512332448 -0.033795124224804907 0 -0.012291130397108291 -0.034392679564885377 0 -0.012593729986543458 -0.033614992727004737 0 -0.012546242025518361 -0.033232999366261548 0 -0.012253902512332448 -0.033795124224804907 0 -0.012593729986543458 -0.033614992727004737 0 -0.012690676701964112 -0.034219129880193377 0 -0.012253902512332448 -0.033795124224804907 0 -0.012712668959175473 -0.033314015812284589 0 -0.012593729986543458 -0.033614992727004737 0 -0.012768692402176797 -0.033648199062996681 0 -0.012593729986543458 -0.033614992727004737 0 -0.012768692402176797 -0.033648199062996681 0 -0.012690676701964112 -0.034219129880193377 0 -0.012768692402176797 -0.033648199062996681 0 -0.012690676701964112 -0.034219129880193377 0 -0.012947617386405369 -0.033884496494814662 0 -0.013260456837024377 -0.034125105117752699 0 -0.013001045503081883 -0.03427876022331644 0 -0.012947617386405369 -0.033884496494814662 0 -0.013001045503081883 -0.03427876022331644 0 -0.012690676701964112 -0.034219129880193377 0 -0.012947617386405369 -0.033884496494814662 0 -0.013527535851897176 -0.033551936785991408 0 -0.013260456837024377 -0.034125105117752699 0 -0.013162662396209803 -0.033589650832071105 0 -0.013260456837024377 -0.034125105117752699 0 -0.012947617386405369 -0.033884496494814662 0 -0.013162662396209803 -0.033589650832071105 0 -0.013162662396209803 -0.033589650832071105 0 -0.01318765453681468 -0.033190131831235231 0 -0.012886532355766067 -0.03329648191549664 0 -0.013527535851897176 -0.033551936785991408 0 -0.013162662396209803 -0.033589650832071105 0 -0.01318765453681468 -0.033190131831235231 0 -0.01318765453681468 -0.033190131831235231 0 -0.012886532355766067 -0.03329648191549664 0 -0.012877711358448798 -0.032758344888837464 0 -0.012947617386405369 -0.033884496494814662 0 -0.013162662396209803 -0.033589650832071105 0 -0.012886532355766067 -0.03329648191549664 0 -0.012768692402176797 -0.033648199062996681 0 -0.012947617386405369 -0.033884496494814662 0 -0.012886532355766067 -0.03329648191549664 0 -0.012712668959175473 -0.033314015812284589 0 -0.012768692402176797 -0.033648199062996681 0 -0.012886532355766067 -0.03329648191549664 0 -0.012712668959175473 -0.033314015812284589 0 -0.012886532355766067 -0.03329648191549664 0 -0.012803705487372087 -0.033017693133871234 0 -0.012057318320360775 -0.026105054108657384 0 -0.013366176443699765 -0.034077723388780505 0 -0.012712668959175473 -0.033314015812284589 0 -0.012803705487372087 -0.033017693133871234 0 -0.012756471833909745 -0.032922439737971113 0 -0.010601782700103722 -0.030101900065529655 0 -0.012877711358448798 -0.032758344888837464 0 -0.013152258697866834 -0.031235691007806616 0 -0.012803705487372087 -0.033017693133871234 0 -0.012756471833909745 -0.032922439737971113 0 -0.012877711358448798 -0.032758344888837464 0 -0.012722187746079004 -0.032737713159015004 0 -0.012756471833909745 -0.032922439737971113 0 -0.012877711358448798 -0.032758344888837464 0 -0.012886532355766067 -0.03329648191549664 0 -0.012803705487372087 -0.033017693133871234 0 -0.012877711358448798 -0.032758344888837464 0 -0.013645434308922356 -0.032647462422905241 0 -0.01318765453681468 -0.033190131831235231 0 -0.012877711358448798 -0.032758344888837464 0 -0.013645434308922356 -0.032647462422905241 0 -0.012877711358448798 -0.032758344888837464 0 -0.013152258697866834 -0.031235691007806616 0 -0.012854046116271519 -0.03255738210456554 0 -0.012722187746079004 -0.032737713159015004 0 -0.012721992694045375 -0.032779973658995334 0 -0.012722187746079004 -0.032737713159015004 0 -0.012756471833909745 -0.032922439737971113 0 -0.012721992694045375 -0.032779973658995334 0 -0.012712668959175473 -0.033314015812284589 0 -0.012593729986543458 -0.033614992727004737 0 -0.012546242025518361 -0.033232999366261548 0 -0.012712668959175473 -0.033314015812284589 0 -0.012756471833909745 -0.032922439737971113 0 -0.012546242025518361 -0.033232999366261548 0 -0.012882750840705061 -0.031893883790868709 0 -0.012159315178357643 -0.030949637232197878 0 -0.011722141594210908 -0.034183337998241241 0 -0.011196244251084071 -0.034790398126094864 0 -0.01110544137766132 -0.033816129868021398 0 -0.012546242025518361 -0.033232999366261548 0 -0.011808971588308436 -0.033625176609329635 0 -0.012253902512332448 -0.033795124224804907 0 -0.012854046116271519 -0.03255738210456554 0 -0.012721992694045375 -0.032779973658995334 0 -0.012876443370111318 -0.032465483855167808 0 -0.012159315178357643 -0.030949637232197878 0 -0.012431338101463777 -0.030665075771966352 0 -0.011106122677281661 -0.028014616870670452 0 -0.013141493670516481 -0.027789918702331416 0 -0.013086032283252913 -0.028104533570763122 0 -0.012159315178357643 -0.030949637232197878 0 -0.012720898006046371 -0.031072887038948806 0 -0.01260413568213953 -0.023328308153205468 0 -0.016153431504090304 -0.021859835000896024 0 -0.012720898006046371 -0.031072887038948806 0 -0.016153431504090304 -0.021859835000896024 0 -0.012431338101463777 -0.030665075771966352 0 -0.013441382388947768 -0.030695788249435144 0 -0.011808971588308436 -0.033625176609329635 0 -0.011722141594210908 -0.034183337998241241 0 -0.01110544137766132 -0.033816129868021398 0 -0.012854046116271519 -0.03255738210456554 0 -0.012876443370111318 -0.032465483855167808 0 -0.013398781973939435 -0.032208532009956159 0 -0.013141493670516481 -0.027789918702331416 0 -0.013086032283252913 -0.028104533570763122 0 -0.01547501342021554 -0.028321691905132243 0 -0.011808971588308436 -0.033625176609329635 0 -0.011722141594210908 -0.034183337998241241 0 -0.012253902512332448 -0.033795124224804907 0 -0.011722141594210908 -0.034183337998241241 0 -0.012253902512332448 -0.033795124224804907 0 -0.012291130397108291 -0.034392679564885377 0 -0.012709737691042205 -0.035179064749471224 0 -0.012291130397108291 -0.034392679564885377 0 -0.012159486915038197 -0.034918440148820423 0 -0.011722141594210908 -0.034183337998241241 0 -0.012291130397108291 -0.034392679564885377 0 -0.012159486915038197 -0.034918440148820423 0 -0.012709737691042205 -0.035179064749471224 0 -0.012159486915038197 -0.034918440148820423 0 -0.012791168857606611 -0.036377054551029527 0 -0.012771898632000811 -0.035854676715364277 0 -0.012791168857606611 -0.036377054551029527 0 -0.012739857621307461 -0.036050845719267359 0 -0.012791168857606611 -0.036377054551029527 0 -0.015727548022258765 -0.03730664064302544 0 -0.016053353818512955 -0.038969797805590241 0 -0.012861852462449681 -0.036459853893969378 0 -0.01367584121983521 -0.036764269595098355 0 -0.012791168857606611 -0.036377054551029527 0 -0.015727548022258765 -0.03730664064302544 0 -0.015025055782815048 -0.036359843003701542 0 -0.012159486915038197 -0.034918440148820423 0 -0.012791168857606611 -0.036377054551029527 0 -0.011196244251084071 -0.034790398126094864 0 -0.011722141594210908 -0.034183337998241241 0 -0.012159486915038197 -0.034918440148820423 0 -0.011196244251084071 -0.034790398126094864 0 -0.01367584121983521 -0.036764269595098355 0 -0.014335472562501681 -0.037558186886821304 0 -0.015727548022258765 -0.03730664064302544 0 -0.016053353818512955 -0.038969797805590241 0 -0.017110898075202528 -0.037676800039349985 0 -0.016053353818512955 -0.038969797805590241 0 -0.017110898075202528 -0.037676800039349985 0 -0.017946844691339021 -0.038504676730440439 0 -0.017110898075202528 -0.037676800039349985 0 -0.017653150174229564 -0.036982082162365038 0 -0.016437766969945661 -0.036722490661792999 0 -0.015727548022258765 -0.03730664064302544 0 -0.017110898075202528 -0.037676800039349985 0 -0.016437766969945661 -0.036722490661792999 0 -0.018941950525803799 -0.037397496507203545 0 -0.018159962961052399 -0.037637176730854739 0 -0.018726473044880773 -0.0381289009425455 0 -0.018941950525803799 -0.037397496507203545 0 -0.018159962961052399 -0.037637176730854739 0 -0.018426221469758218 -0.037135909110996873 0 -0.017110898075202528 -0.037676800039349985 0 -0.018159962961052399 -0.037637176730854739 0 -0.017653150174229564 -0.036982082162365038 0 -0.018159962961052399 -0.037637176730854739 0 -0.017653150174229564 -0.036982082162365038 0 -0.018426221469758218 -0.037135909110996873 0 -0.017110898075202528 -0.037676800039349985 0 -0.018159962961052399 -0.037637176730854739 0 -0.017946844691339021 -0.038504676730440439 0 -0.018159962961052399 -0.037637176730854739 0 -0.018726473044880773 -0.0381289009425455 0 -0.017946844691339021 -0.038504676730440439 0 -0.018724715324090011 -0.038961107020360097 0 -0.018726473044880773 -0.0381289009425455 0 -0.017946844691339021 -0.038504676730440439 0 -0.018724715324090011 -0.038961107020360097 0 -0.017946844691339021 -0.038504676730440439 0 -0.01833119301406155 -0.039776365486913115 0 -0.016053353818512955 -0.038969797805590241 0 -0.017946844691339021 -0.038504676730440439 0 -0.01833119301406155 -0.039776365486913115 0 -0.011196244251084071 -0.034790398126094864 0 -0.010894959666496319 -0.034182119130599792 0 -0.01110544137766132 -0.033816129868021398 0 -0.013141493670516481 -0.027789918702331416 0 -0.01561004384550861 -0.027584673795970644 0 -0.01547501342021554 -0.028321691905132243 0 -0.016153431504090304 -0.021859835000896024 0 -0.022022092226701866 -0.012765853949286005 0 -0.018408966275006804 -0.027889063443703347 0 -0.01561004384550861 -0.027584673795970644 0 -0.01547501342021554 -0.028321691905132243 0 -0.014528976194233521 -0.030856845988307541 0 -0.013441382388947768 -0.030695788249435144 0 -0.010912777840500787 -0.034011663792674382 0 -0.010894959666496319 -0.034182119130599792 0 -0.01110544137766132 -0.033816129868021398 0 -0.0184900267842295 -0.027454855899575848 0 -0.018408966275006804 -0.027889063443703347 0 -0.01561004384550861 -0.027584673795970644 0 -0.021320881448812105 -0.01866001613942549 0 -0.016153431504090304 -0.021859835000896024 0 -0.023662974124903279 -0.011380921979296483 0 -0.017600174131556047 -0.012423884968300141 0 -0.021878123274366057 -0.012865989898377991 0 -0.019839047337469645 -0.032071119591889269 0 -0.017702744324516285 -0.032592768998886731 0 -0.019369742853516801 -0.03504703477930407 0 -0.019099423947914328 -0.035474246595395942 0 -0.015786595760526958 -0.036295467149365622 0 -0.017101176463434609 -0.038173391952775935 0 -0.016232330824237626 -0.038362118756528923 0 -0.016747238753501436 -0.037825130337115202 0 -0.015786595760526958 -0.036295467149365622 0 -0.016337793449459369 -0.038157979585457739 0 -0.015786595760526958 -0.036295467149365622 0 -0.014416879816326222 -0.035013536066780981 0 -0.015987263062714654 -0.038468903711490782 0 -0.014518878623695919 -0.038583764592770964 0 -0.01507181647774645 -0.037803200998412799 0 -0.012784601600363729 -0.03639612049862008 0 -0.012670187018621252 -0.036434621453683355 0 -0.012677944807114318 -0.036437771791639255 0 -0.015786595760526958 -0.036295467149365622 0 -0.013306576509932919 -0.03763876393634083 0 -0.017702744324516285 -0.032592768998886731 0 -0.016139249034918441 -0.034100510054815097 0 -0.017510995716565322 -0.035001673065731452 0 -0.017702744324516285 -0.032592768998886731 0 -0.019369742853516801 -0.03504703477930407 0 -0.017510995716565322 -0.035001673065731452 0 -0.019902001579800481 -0.036108395119025909 0 -0.019369742853516801 -0.03504703477930407 0 -0.018246515574807994 -0.036263321705706134 0 -0.019369742853516801 -0.03504703477930407 0 -0.018246515574807994 -0.036263321705706134 0 -0.017510995716565322 -0.035001673065731452 0 -0.018246515574807994 -0.036263321705706134 0 -0.017653150174229564 -0.036982082162365038 0 -0.016910734966918948 -0.035963827115651908 0 -0.018246515574807994 -0.036263321705706134 0 -0.017653150174229564 -0.036982082162365038 0 -0.018426221469758218 -0.037135909110996873 0 -0.019096009494458544 -0.036996067931761883 0 -0.018246515574807994 -0.036263321705706134 0 -0.018426221469758218 -0.037135909110996873 0 -0.019096009494458544 -0.036996067931761883 0 -0.018941950525803799 -0.037397496507203545 0 -0.018426221469758218 -0.037135909110996873 0 -0.017653150174229564 -0.036982082162365038 0 -0.016437766969945661 -0.036722490661792999 0 -0.016910734966918948 -0.035963827115651908 0 -0.016437766969945661 -0.036722490661792999 0 -0.016910734966918948 -0.035963827115651908 0 -0.015784282135843215 -0.035855835023769586 0 -0.016910734966918948 -0.035963827115651908 0 -0.016171173064020501 -0.03523139188385449 0 -0.015784282135843215 -0.035855835023769586 0 -0.018246515574807994 -0.036263321705706134 0 -0.016910734966918948 -0.035963827115651908 0 -0.017510995716565322 -0.035001673065731452 0 -0.016910734966918948 -0.035963827115651908 0 -0.017510995716565322 -0.035001673065731452 0 -0.016171173064020501 -0.03523139188385449 0 -0.016139249034918441 -0.034100510054815097 0 -0.017510995716565322 -0.035001673065731452 0 -0.016171173064020501 -0.03523139188385449 0 -0.016139249034918441 -0.034100510054815097 0 -0.016171173064020501 -0.03523139188385449 0 -0.014467924202921867 -0.035087900794498084 0 -0.014416879816326222 -0.035013536066780981 0 -0.013496769680255897 -0.03578052708812194 0 -0.016171173064020501 -0.03523139188385449 0 -0.014467924202921867 -0.035087900794498084 0 -0.015784282135843215 -0.035855835023769586 0 -0.014467924202921867 -0.035087900794498084 0 -0.015025055782815048 -0.036359843003701542 0 -0.013787207706930092 -0.036074006634267117 0 -0.014467924202921867 -0.035087900794498084 0 -0.015784282135843215 -0.035855835023769586 0 -0.015025055782815048 -0.036359843003701542 0 -0.016437766969945661 -0.036722490661792999 0 -0.015784282135843215 -0.035855835023769586 0 -0.015025055782815048 -0.036359843003701542 0 -0.015727548022258765 -0.03730664064302544 0 -0.016437766969945661 -0.036722490661792999 0 -0.015025055782815048 -0.036359843003701542 0 -0.014467924202921867 -0.035087900794498084 0 -0.012739857621307461 -0.036050845719267359 0 -0.013787207706930092 -0.036074006634267117 0 -0.012791168857606611 -0.036377054551029527 0 -0.015025055782815048 -0.036359843003701542 0 -0.013787207706930092 -0.036074006634267117 0 -0.013496769680255897 -0.03578052708812194 0 -0.012832144919452376 -0.036071257535073349 0 -0.012791168857606611 -0.036377054551029527 0 -0.012739857621307461 -0.036050845719267359 0 -0.013787207706930092 -0.036074006634267117 0 -0.012634318669890222 -0.036350786285173166 0 -0.012739857621307461 -0.036050845719267359 0 -0.012784771291149914 -0.03634861493168029 0 -0.012634318669890222 -0.036350786285173166 0 -0.012701198765565754 -0.036497229907512758 0 -0.012784771291149914 -0.03634861493168029 0 -0.012670187018621252 -0.036434621453683355 0 -0.012701198765565754 -0.036497229907512758 0 -0.012677944807114318 -0.036437771791639255 0 -0.012670187018621252 -0.036434621453683355 0 -0.012634318669890222 -0.036350786285173166 0 -0.012701198765565754 -0.036497229907512758 0 -0.01309160159058376 -0.038373405417687897 0 -0.014518878623695919 -0.038583764592770964 0 -0.014215349991726866 -0.037906589942619855 0 -0.014518878623695919 -0.038583764592770964 0 -0.014215349991726866 -0.037906589942619855 0 -0.01507181647774645 -0.037803200998412799 0 -0.01300841074292531 -0.037389035624496809 0 -0.013306576509932919 -0.03763876393634083 0 -0.01309160159058376 -0.038373405417687897 0 -0.014215349991726866 -0.037906589942619855 0 -0.01344449113744834 -0.037545346959979721 0 -0.01309160159058376 -0.038373405417687897 0 -0.012452185053813172 -0.037625398165137172 0 -0.012145631658927583 -0.037782431779730806 0 -0.01309160159058376 -0.038373405417687897 0 -0.012452185053813172 -0.037625398165137172 0 -0.01344449113744834 -0.037545346959979721 0 -0.012452185053813172 -0.037625398165137172 0 -0.012145631658927583 -0.037782431779730806 0 -0.011602359469634352 -0.037407148830485772 0 -0.012590885330437146 -0.037183618850696168 0 -0.012953110591523379 -0.036957469679695452 0 -0.01300841074292531 -0.037389035624496809 0 -0.012590885330437146 -0.037183618850696168 0 -0.012701198765565754 -0.036497229907512758 0 -0.012886811619502923 -0.03657608869264381 0 -0.012784771291149914 -0.03634861493168029 0 -0.012886811619502923 -0.03657608869264381 0 -0.012784771291149914 -0.03634861493168029 0 -0.012914417514998019 -0.036382116872751148 0 -0.012784771291149914 -0.03634861493168029 0 -0.012821990527511878 -0.036087174151551389 0 -0.012914417514998019 -0.036382116872751148 0 -0.012739857621307461 -0.036050845719267359 0 -0.012784771291149914 -0.03634861493168029 0 -0.012821990527511878 -0.036087174151551389 0 -0.012943993728919729 -0.035702275863787637 0 -0.012771898632000811 -0.035854676715364277 0 -0.012821990527511878 -0.036087174151551389 0 -0.012771898632000811 -0.035854676715364277 0 -0.012739857621307461 -0.036050845719267359 0 -0.012821990527511878 -0.036087174151551389 0 -0.012943993728919729 -0.035702275863787637 0 -0.013259402943294106 -0.035510866161616597 0 -0.01303793940703633 -0.036071719291700943 0 -0.013259402943294106 -0.035510866161616597 0 -0.01303793940703633 -0.036071719291700943 0 -0.013390261621177948 -0.036129684076625847 0 -0.012943993728919729 -0.035702275863787637 0 -0.012821990527511878 -0.036087174151551389 0 -0.01303793940703633 -0.036071719291700943 0 -0.012821990527511878 -0.036087174151551389 0 -0.01303793940703633 -0.036071719291700943 0 -0.012914417514998019 -0.036382116872751148 0 -0.012886811619502923 -0.03657608869264381 0 -0.012914417514998019 -0.036382116872751148 0 -0.013044779653188796 -0.036537693103698428 0 -0.012886811619502923 -0.03657608869264381 0 -0.013044779653188796 -0.036537693103698428 0 -0.012931946412805449 -0.036937546473993943 0 -0.01303793940703633 -0.036071719291700943 0 -0.012914417514998019 -0.036382116872751148 0 -0.013044779653188796 -0.036537693103698428 0 -0.013084488523414831 -0.036904877473820978 0 -0.013044779653188796 -0.036537693103698428 0 -0.013390261621177948 -0.036129684076625847 0 -0.013084488523414831 -0.036904877473820978 0 -0.013044779653188796 -0.036537693103698428 0 -0.012931946412805449 -0.036937546473993943 0 -0.013259402943294106 -0.035510866161616597 0 -0.013390261621177948 -0.036129684076625847 0 -0.014122644593794696 -0.03585766365014896 0 -0.01303793940703633 -0.036071719291700943 0 -0.013044779653188796 -0.036537693103698428 0 -0.013390261621177948 -0.036129684076625847 0 -0.013084488523414831 -0.036904877473820978 0 -0.013390261621177948 -0.036129684076625847 0 -0.014122644593794696 -0.03585766365014896 0 -0.010975606536109647 -0.036189740566414628 0 -0.011307272927410116 -0.036177571685700183 0 -0.011579177331712993 -0.035681449680189561 0 -0.012061332165535794 -0.036494565547383853 0 -0.012696188284294217 -0.03549329955701843 0 -0.010975606536109647 -0.036189740566414628 0 -0.011279338362670914 -0.035172683690651678 0 -0.011579177331712993 -0.035681449680189561 0 -0.011493464916934268 -0.036091167273328451 0 -0.011307272927410116 -0.036177571685700183 0 -0.011579177331712993 -0.035681449680189561 0 -0.011493464916934268 -0.036091167273328451 0 -0.011394070038496205 -0.036352413858346963 0 -0.011307272927410116 -0.036177571685700183 0 -0.011394070038496205 -0.036352413858346963 0 -0.011381544534136406 -0.03657890129914438 0 -0.011537704592967487 -0.036246698132182335 0 -0.011394070038496205 -0.036352413858346963 0 -0.011249227322957711 -0.036558407617639468 0 -0.011381544534136406 -0.03657890129914438 0 -0.010975606536109647 -0.036189740566414628 0 -0.011249227322957711 -0.036558407617639468 0 -0.011307272927410116 -0.036177571685700183 0 -0.011394070038496205 -0.036352413858346963 0 -0.011249227322957711 -0.036558407617639468 0 -0.011307272927410116 -0.036177571685700183 0 -0.010975606536109647 -0.036189740566414628 0 -0.011249227322957711 -0.036558407617639468 0 -0.011602359469634352 -0.037407148830485772 0 -0.013084488523414831 -0.036904877473820978 0 -0.012931946412805449 -0.036937546473993943 0 -0.011602359469634352 -0.037407148830485772 0 -0.012061332165535794 -0.036494565547383853 0 -0.011669866498680929 -0.037261430518156169 0 -0.012145631658927583 -0.037782431779730806 0 -0.012931946412805449 -0.036937546473993943 0 -0.011602359469634352 -0.037407148830485772 0 -0.011602359469634352 -0.037407148830485772 0 -0.011279449734331475 -0.03690329125368523 0 -0.011109615007745323 -0.036997719697550557 0 -0.011249227322957711 -0.036558407617639468 0 -0.011602359469634352 -0.037407148830485772 0 -0.011279449734331475 -0.03690329125368523 0 -0.011381544534136406 -0.03657890129914438 0 -0.011109615007745323 -0.036997719697550557 0 -0.011482525189850157 -0.036621946886243796 0 -0.011249227322957711 -0.036558407617639468 0 -0.011381544534136406 -0.03657890129914438 0 -0.011279449734331475 -0.03690329125368523 0 -0.011381544534136406 -0.03657890129914438 0 -0.011279449734331475 -0.03690329125368523 0 -0.011109615007745323 -0.036997719697550557 0 -0.010651973867641849 -0.037058160999772646 0 -0.010433284483250285 -0.037322831920361198 0 -0.011109615007745323 -0.036997719697550557 0 -0.01061414210191413 -0.037023674789198248 0 -0.011339846212926382 -0.036986192537862929 0 -0.011109615007745323 -0.036997719697550557 0 -0.011285592236109981 -0.037106994789299137 0 -0.01061414210191413 -0.037023674789198248 0 -0.011602359469634352 -0.037407148830485772 0 -0.011109615007745323 -0.036997719697550557 0 -0.011285592236109981 -0.037106994789299137 0 -0.011285592236109981 -0.037106994789299137 0 -0.011366771500882888 -0.036781523320225606 0 -0.01061414210191413 -0.037023674789198248 0 -0.011366771500882888 -0.036781523320225606 0 -0.01061414210191413 -0.037023674789198248 0 -0.010732894134215956 -0.036123428040810847 0 -0.01061414210191413 -0.037023674789198248 0 -0.0097933973937724093 -0.036069576673715402 0 -0.010732894134215956 -0.036123428040810847 0 -0.0097933973937724093 -0.036069576673715402 0 -0.0099082016657444875 -0.035536370151567707 0 -0.010732894134215956 -0.036123428040810847 0 -0.01061414210191413 -0.037023674789198248 0 -0.0097933973937724093 -0.036069576673715402 0 -0.0091555866977419027 -0.036366496174626742 0 -0.0097933973937724093 -0.036069576673715402 0 -0.0099082016657444875 -0.035536370151567707 0 -0.0089579030957285481 -0.035213606298116651 0 -0.0099082016657444875 -0.035536370151567707 0 -0.0090667295415047394 -0.034999784868754005 0 -0.0089579030957285481 -0.035213606298116651 0 -0.0099082016657444875 -0.035536370151567707 0 -0.010732894134215956 -0.036123428040810847 0 -0.011138849619961276 -0.034999834149422891 0 -0.0099082016657444875 -0.035536370151567707 0 -0.0090667295415047394 -0.034999784868754005 0 -0.011138849619961276 -0.034999834149422891 0 -0.010732894134215956 -0.036123428040810847 0 -0.011138849619961276 -0.034999834149422891 0 -0.012479442453415771 -0.03626062582094168 0 -0.011366771500882888 -0.036781523320225606 0 -0.010732894134215956 -0.036123428040810847 0 -0.012479442453415771 -0.03626062582094168 0 -0.011138849619961276 -0.034999834149422891 0 -0.012479442453415771 -0.03626062582094168 0 -0.013210605030633175 -0.034999807945359396 0 -0.012479442453415771 -0.03626062582094168 0 -0.012938379621389764 -0.037042586323413354 0 -0.013835434231474973 -0.036710203264439328 0 -0.012479442453415771 -0.03626062582094168 0 -0.012938379621389764 -0.037042586323413354 0 -0.012064669498679861 -0.037164251215521513 0 -0.011285592236109981 -0.037106994789299137 0 -0.011366771500882888 -0.036781523320225606 0 -0.012064669498679861 -0.037164251215521513 0 -0.011366771500882888 -0.036781523320225606 0 -0.012479442453415771 -0.03626062582094168 0 -0.012064669498679861 -0.037164251215521513 0 -0.011602359469634352 -0.037407148830485772 0 -0.011285592236109981 -0.037106994789299137 0 -0.012064669498679861 -0.037164251215521513 0 -0.012452185053813172 -0.037625398165137172 0 -0.011602359469634352 -0.037407148830485772 0 -0.012064669498679861 -0.037164251215521513 0 -0.012452185053813172 -0.037625398165137172 0 -0.012938379621389764 -0.037042586323413354 0 -0.012064669498679861 -0.037164251215521513 0 -0.012452185053813172 -0.037625398165137172 0 -0.012938379621389764 -0.037042586323413354 0 -0.01344449113744834 -0.037545346959979721 0 -0.01344449113744834 -0.037545346959979721 0 -0.014368489793128389 -0.037381503267274949 0 -0.013835434231474973 -0.036710203264439328 0 -0.014215349991726866 -0.037906589942619855 0 -0.01344449113744834 -0.037545346959979721 0 -0.014368489793128389 -0.037381503267274949 0 -0.014368489793128389 -0.037381503267274949 0 -0.015081250445446852 -0.036900856846679916 0 -0.01507181647774645 -0.037803200998412799 0 -0.014215349991726866 -0.037906589942619855 0 -0.014368489793128389 -0.037381503267274949 0 -0.01507181647774645 -0.037803200998412799 0 -0.014368489793128389 -0.037381503267274949 0 -0.013835434231474973 -0.036710203264439328 0 -0.015081250445446852 -0.036900856846679916 0 -0.013835434231474973 -0.036710203264439328 0 -0.014634254711271128 -0.036059024370297392 0 -0.015081250445446852 -0.036900856846679916 0 -0.012938379621389764 -0.037042586323413354 0 -0.01344449113744834 -0.037545346959979721 0 -0.013835434231474973 -0.036710203264439328 0 -0.013835434231474973 -0.036710203264439328 0 -0.013877464507476005 -0.035470535132906961 0 -0.014634254711271128 -0.036059024370297392 0 -0.012479442453415771 -0.03626062582094168 0 -0.013835434231474973 -0.036710203264439328 0 -0.013877464507476005 -0.035470535132906961 0 -0.012594403426932622 -0.03622941957537365 0 -0.013820528911585367 -0.035628851100975266 0 -0.013795143438934915 -0.035756926951858309 0 -0.013210605030633175 -0.034999807945359396 0 -0.01528322924526017 -0.035000018755212428 0 -0.012479442453415771 -0.03626062582094168 0 -0.013795143438934915 -0.035756926951858309 0 -0.013210605030633175 -0.034999807945359396 0 -0.013877464507476005 -0.035470535132906961 0 -0.015283210970301775 -0.034999303985621254 0 -0.014634254711271128 -0.036059024370297392 0 -0.015283210970301775 -0.034999303985621254 0 -0.014634254711271128 -0.036059024370297392 0 -0.015654981590103572 -0.035999162861755543 0 -0.013820528911585367 -0.035628851100975266 0 -0.015282933847894893 -0.03500009174898544 0 -0.014634254711271128 -0.036059024370297392 0 -0.015654981590103572 -0.035999162861755543 0 -0.015081250445446852 -0.036900856846679916 0 -0.015283210970301775 -0.034999303985621254 0 -0.015654981590103572 -0.035999162861755543 0 -0.016881335952334389 -0.034999975295069222 0 -0.015654981590103572 -0.035999162861755543 0 -0.016881335952334389 -0.034999975295069222 0 -0.016722476266356583 -0.03612173132790495 0 -0.017838072510313847 -0.036123010284604302 0 -0.016881335952334389 -0.034999975295069222 0 -0.016722476266356583 -0.03612173132790495 0 -0.015654981590103572 -0.035999162861755543 0 -0.016722476266356583 -0.03612173132790495 0 -0.016203450545792034 -0.036791299189810653 0 -0.016722476266356583 -0.03612173132790495 0 -0.016964408025052568 -0.036676576586763751 0 -0.016203450545792034 -0.036791299189810653 0 -0.016964408025052568 -0.036676576586763751 0 -0.016668775984724438 -0.037178682502739507 0 -0.016203450545792034 -0.036791299189810653 0 -0.017373788669137108 -0.037133514212177705 0 -0.016964408025052568 -0.036676576586763751 0 -0.016668775984724438 -0.037178682502739507 0 -0.016668775984724438 -0.037178682502739507 0 -0.016203450545792034 -0.036791299189810653 0 -0.015959694135350515 -0.037505259320519083 0 -0.015654981590103572 -0.035999162861755543 0 -0.016203450545792034 -0.036791299189810653 0 -0.015081250445446852 -0.036900856846679916 0 -0.016203450545792034 -0.036791299189810653 0 -0.015081250445446852 -0.036900856846679916 0 -0.015959694135350515 -0.037505259320519083 0 -0.015987263062714654 -0.038468903711490782 0 -0.015959694135350515 -0.037505259320519083 0 -0.01507181647774645 -0.037803200998412799 0 -0.015081250445446852 -0.036900856846679916 0 -0.015959694135350515 -0.037505259320519083 0 -0.01507181647774645 -0.037803200998412799 0 -0.015987263062714654 -0.038468903711490782 0 -0.015959694135350515 -0.037505259320519083 0 -0.016747238753501436 -0.037825130337115202 0 -0.017373788669137108 -0.037133514212177705 0 -0.016668775984724438 -0.037178682502739507 0 -0.016747238753501436 -0.037825130337115202 0 -0.016668775984724438 -0.037178682502739507 0 -0.015959694135350515 -0.037505259320519083 0 -0.016747238753501436 -0.037825130337115202 0 -0.0032993776102716813 -0.036365653340171555 0 -0.0030835074057525627 -0.03627613617482478 0 -0.0029248105884026715 -0.036124456785162427 0 -0.0032993776102716813 -0.036365653340171555 0 -0.0029248105884026715 -0.036124456785162427 0 -0.0031893812042179067 -0.036239361094150407 0 -0.0031893812042179067 -0.036239361094150407 0 -0.0033946872137199796 -0.036364255749047496 0 -0.0032423011146477149 -0.036249229743173121 0 -0.0031893812042179067 -0.036239361094150407 0 -0.0033946872137199796 -0.036364255749047496 0 -0.0035107036642600727 -0.036449035391082907 0 -0.0033946872137199796 -0.036364255749047496 0 -0.0035107036642600727 -0.036449035391082907 0 -0.0036236509515004283 -0.036527874237878045 0 -0.0032993776102716813 -0.036365653340171555 0 -0.0031893812042179067 -0.036239361094150407 0 -0.0035107036642600727 -0.036449035391082907 0 -0.0032993776102716813 -0.036365653340171555 0 -0.0035107036642600727 -0.036449035391082907 0 -0.003779455087106131 -0.036628351048516423 0 -0.0035107036642600727 -0.036449035391082907 0 -0.003779455087106131 -0.036628351048516423 0 -0.0036236509515004283 -0.036527874237878045 0 -0.003779455087106131 -0.036628351048516423 0 -0.0033413049650589995 -0.036446636131378767 0 -0.0033108702459396485 -0.036382398436363921 0 -0.0032993776102716813 -0.036365653340171555 0 -0.003779455087106131 -0.036628351048516423 0 -0.0033413049650589995 -0.036446636131378767 0 -0.0032993776102716813 -0.036365653340171555 0 -0.0030835074057525627 -0.03627613617482478 0 -0.0033413049650589995 -0.036446636131378767 0 -0.0030835074057525627 -0.03627613617482478 0 -0.0033413049650589995 -0.036446636131378767 0 -0.0031109540973073323 -0.036353514786783454 0 -0.0033413049650589995 -0.036446636131378767 0 -0.0031109540973073323 -0.036353514786783454 0 -0.0033108702459396485 -0.036382398436363921 0 -0.0031063838583298342 -0.036346383665870959 0 -0.0031109540973073323 -0.036353514786783454 0 -0.0033108702459396485 -0.036382398436363921 0 -0.0029970978757301848 -0.036297654254040988 0 -0.0031109540973073323 -0.036353514786783454 0 -0.0027651717964493031 -0.036089703455381185 0 -0.0031063838583298342 -0.036346383665870959 0 -0.0029970978757301848 -0.036297654254040988 0 -0.003013152692198462 -0.036326184508427145 0 -0.0031063838583298342 -0.036346383665870959 0 -0.0029970978757301848 -0.036297654254040988 0 -0.0031109540973073323 -0.036353514786783454 0 -0.0029717727816378505 -0.036225299164649422 0 -0.003013152692198462 -0.036326184508427145 0 -0.0030407112004895401 -0.036236871429856383 0 -0.00083273667028539039 -0.038579104955826039 0 0.00010617165312929893 -0.03928324982819259 0 0.00019836871736821871 -0.040050101634677024 0 -0.0020022583362557379 -0.037703031967372236 0 -0.00058510189474434056 -0.036709623755903704 0 -0.0029970978757301848 -0.036297654254040988 0 -0.0029717727816378505 -0.036225299164649422 0 -0.003013152692198462 -0.036326184508427145 0 -0.0029717727816378505 -0.036225299164649422 0 -0.0029335870443410062 -0.036018203850913602 0 -0.0027651717964493031 -0.036089703455381185 0 -0.0029335870443410062 -0.036018203850913602 0 -0.0027651717964493031 -0.036089703455381185 0 -0.0022536014078907269 -0.035524556726385284 0 -0.0029717727816378505 -0.036225299164649422 0 -0.0029335870443410062 -0.036018203850913602 0 -0.0030407112004895401 -0.036236871429856383 0 -0.0020154133428652412 -0.034994819366863328 0 -0.00058510189474434056 -0.036709623755903704 0 -0.0030835074057525627 -0.03627613617482478 0 -0.0031109540973073323 -0.036353514786783454 0 -0.0027651717964493031 -0.036089703455381185 0 -0.0029970978757301848 -0.036297654254040988 0 -0.0029717727816378505 -0.036225299164649422 0 -0.0027651717964493031 -0.036089703455381185 0 -0.0030835074057525627 -0.03627613617482478 0 -0.0029248105884026715 -0.036124456785162427 0 -0.0027651717964493031 -0.036089703455381185 0 -0.0027651717964493031 -0.036089703455381185 0 -0.0025478624540275483 -0.035847544460707807 0 -0.0022536014078907269 -0.035524556726385284 0 -0.0029248105884026715 -0.036124456785162427 0 -0.0027651717964493031 -0.036089703455381185 0 -0.0025478624540275483 -0.035847544460707807 0 -0.0014473491673765672 -0.034094119009914998 0 -0.0022536014078907269 -0.035524556726385284 0 -0.00077020056968304625 -0.03492869903984417 0 -0.0022536014078907269 -0.035524556726385284 0 -0.00096822919414230599 -0.035503538901230418 0 -0.00077020056968304625 -0.03492869903984417 0 -0.0020154133428652412 -0.034994819366863328 0 -0.0023156928545208905 -0.035498557205290909 0 -0.0022536014078907269 -0.035524556726385284 0 -0.0013888214161656975 -0.035843587913743313 0 -0.001971592883761834 -0.036044182136248097 0 -0.0022536014078907269 -0.035524556726385284 0 -0.0013888214161656975 -0.035843587913743313 0 -0.00096822919414230599 -0.035503538901230418 0 -0.0011573978426388258 -0.036237879965719082 0 -0.0013888214161656975 -0.035843587913743313 0 -0.001971592883761834 -0.036044182136248097 0 -0.0011573978426388258 -0.036237879965719082 0 -0.0013888214161656975 -0.035843587913743313 0 -0.00047518924242177785 -0.036096569943149137 0 -0.0025478624540275483 -0.035847544460707807 0 -0.0022536014078907269 -0.035524556726385284 0 -0.001971592883761834 -0.036044182136248097 0 -0.0025478624540275483 -0.035847544460707807 0 -0.001971592883761834 -0.036044182136248097 0 -0.0025129953235067176 -0.036121747769052276 0 -0.002643066800643423 -0.036314029888493651 0 -0.0025129953235067176 -0.036121747769052276 0 -0.002916475575890377 -0.03618083289891337 0 -0.0025129953235067176 -0.036121747769052276 0 -0.0028112997798556186 -0.036039935687361357 0 -0.002916475575890377 -0.03618083289891337 0 -0.0025478624540275483 -0.035847544460707807 0 -0.0025129953235067176 -0.036121747769052276 0 -0.0028112997798556186 -0.036039935687361357 0 -0.0029248105884026715 -0.036124456785162427 0 -0.0025478624540275483 -0.035847544460707807 0 -0.0028112997798556186 -0.036039935687361357 0 -0.0029248105884026715 -0.036124456785162427 0 -0.0031893812042179067 -0.036239361094150407 0 -0.0028112997798556186 -0.036039935687361357 0 -0.0031893812042179067 -0.036239361094150407 0 -0.0032423011146477149 -0.036249229743173121 0 -0.0030614141820453082 -0.036143980651674179 0 -0.0031893812042179067 -0.036239361094150407 0 -0.0028112997798556186 -0.036039935687361357 0 -0.0030614141820453082 -0.036143980651674179 0 -0.0032423011146477149 -0.036249229743173121 0 -0.0030614141820453082 -0.036143980651674179 0 -0.0030969345959263542 -0.036132284786283476 0 -0.0030614141820453082 -0.036143980651674179 0 -0.002916475575890377 -0.03618083289891337 0 -0.0030969345959263542 -0.036132284786283476 0 -0.0028112997798556186 -0.036039935687361357 0 -0.0030614141820453082 -0.036143980651674179 0 -0.002916475575890377 -0.03618083289891337 0 -0.0030477545425032933 -0.036329510753311957 0 -0.002916475575890377 -0.03618083289891337 0 -0.0030969345959263542 -0.036132284786283476 0 -0.0079426331080695127 -0.035485355134831892 0 -0.0073645146145030647 -0.035757662551661192 0 -0.012881612620274329 -0.034691592621081568 0 -0.012171863037777885 -0.035245157796082352 0 -0.011750012089660269 -0.035577971049534675 0 -0.012171863037777885 -0.035245157796082352 0 -0.011790748434719315 -0.03577062304089431 0 -0.011920659192382568 -0.035577880245829696 0 -0.012171863037777885 -0.035245157796082352 0 -0.011790748434719315 -0.03577062304089431 0 -0.011413673129984285 -0.035870390576286749 0 -0.011790748434719315 -0.03577062304089431 0 -0.011812933589181895 -0.035939686801092378 0 -0.011530635084435407 -0.035918270873730056 0 -0.011413673129984285 -0.035870390576286749 0 -0.010040985248556915 -0.03595004690863466 0 -0.011530635084435407 -0.035918270873730056 0 -0.011790748434719315 -0.03577062304089431 0 -0.011413673129984285 -0.035870390576286749 0 -0.011530635084435407 -0.035918270873730056 0 -0.011413673129984285 -0.035870390576286749 0 -0.011750012089660269 -0.035577971049534675 0 -0.010040985248556915 -0.03595004690863466 0 -0.012171863037777885 -0.035245157796082352 0 -0.011413673129984285 -0.035870390576286749 0 -0.011750012089660269 -0.035577971049534675 0 -0.0032423011146477149 -0.036249229743173121 0 -0.0030969345959263542 -0.036132284786283476 0 -0.0036236509515004283 -0.036527874237878045 0 -0.012151319500224897 -0.034959838179303634 0 -0.011279338362670914 -0.035172683690651678 0 -0.011579177331712993 -0.035681449680189561 0 -0.012151319500224897 -0.034959838179303634 0 -0.011920659192382568 -0.035577880245829696 0 -0.011579177331712993 -0.035681449680189561 0 -0.012151319500224897 -0.034959838179303634 0 -0.012171863037777885 -0.035245157796082352 0 -0.011920659192382568 -0.035577880245829696 0 -0.011920659192382568 -0.035577880245829696 0 -0.011683452565684217 -0.035973719698819837 0 -0.011812933589181895 -0.035939686801092378 0 -0.011790748434719315 -0.03577062304089431 0 -0.011920659192382568 -0.035577880245829696 0 -0.011812933589181895 -0.035939686801092378 0 -0.011920659192382568 -0.035577880245829696 0 -0.011683452565684217 -0.035973719698819837 0 -0.011579177331712993 -0.035681449680189561 0 -0.011493464916934268 -0.036091167273328451 0 -0.011683452565684217 -0.035973719698819837 0 -0.011579177331712993 -0.035681449680189561 0 -0.011381544534136406 -0.03657890129914438 0 -0.011537704592967487 -0.036246698132182335 0 -0.011647898245637351 -0.036238617646953165 0 -0.011493464916934268 -0.036091167273328451 0 -0.011394070038496205 -0.036352413858346963 0 -0.011537704592967487 -0.036246698132182335 0 -0.011493464916934268 -0.036091167273328451 0 -0.011683452565684217 -0.035973719698819837 0 -0.011537704592967487 -0.036246698132182335 0 -0.011683452565684217 -0.035973719698819837 0 -0.011537704592967487 -0.036246698132182335 0 -0.011647898245637351 -0.036238617646953165 0 -0.011683452565684217 -0.035973719698819837 0 -0.011647898245637351 -0.036238617646953165 0 -0.011812933589181895 -0.035939686801092378 0 -0.011647898245637351 -0.036238617646953165 0 -0.011812933589181895 -0.035939686801092378 0 -0.011769160632358572 -0.036069895981069744 0 -0.011812933589181895 -0.035939686801092378 0 -0.011769160632358572 -0.036069895981069744 0 -0.011726315717383338 -0.035693233810014435 0 -0.0090271308626602813 -0.037165832055505936 0 -0.0074294509931957797 -0.037476211675942186 0 -0.0087736764233435731 -0.038218056173793674 0 -0.0081337708936921917 -0.038699013412396524 0 -0.0086272103483877333 -0.037664942222314778 0 -0.010356313531047113 -0.037290652060078519 0 -0.0090271308626602813 -0.037165832055505936 0 -0.011769160632358572 -0.036069895981069744 0 -0.011781521226569256 -0.036481778351088484 0 -0.011726315717383338 -0.035693233810014435 0 -0.011647898245637351 -0.036238617646953165 0 -0.011769160632358572 -0.036069895981069744 0 -0.011781521226569256 -0.036481778351088484 0 -0.011781521226569256 -0.036481778351088484 0 -0.011482525189850157 -0.036621946886243796 0 -0.011339846212926382 -0.036986192537862929 0 -0.011647898245637351 -0.036238617646953165 0 -0.011781521226569256 -0.036481778351088484 0 -0.011482525189850157 -0.036621946886243796 0 -0.011381544534136406 -0.03657890129914438 0 -0.011647898245637351 -0.036238617646953165 0 -0.011482525189850157 -0.036621946886243796 0 -0.0033946872137199796 -0.036364255749047496 0 -0.0032423011146477149 -0.036249229743173121 0 -0.0036236509515004283 -0.036527874237878045 0 -0.011750012089660269 -0.035577971049534675 0 -0.0086796481395763261 -0.036433090167277728 0 -0.010040985248556915 -0.03595004690863466 0 -0.0086796481395763261 -0.036433090167277728 0 -0.010040985248556915 -0.03595004690863466 0 -0.0070126357601419491 -0.036446927007711079 0 -0.0073645146145030647 -0.035757662551661192 0 -0.0061813493103414479 -0.036264440603408249 0 -0.010040985248556915 -0.03595004690863466 0 -0.011530635084435407 -0.035918270873730056 0 -0.011726315717383338 -0.035693233810014435 0 -0.010044053837444137 -0.03575797803556182 0 -0.0090271308626602813 -0.037165832055505936 0 -0.011812933589181895 -0.035939686801092378 0 -0.011530635084435407 -0.035918270873730056 0 -0.011726315717383338 -0.035693233810014435 0 -0.0086796481395763261 -0.036433090167277728 0 -0.0070126357601419491 -0.036446927007711079 0 -0.0066631336756294793 -0.036947001115247541 0 -0.0070126357601419491 -0.036446927007711079 0 -0.0066631336756294793 -0.036947001115247541 0 -0.0066548893720668025 -0.037038547455285314 0 -0.0061813493103414479 -0.036264440603408249 0 -0.0054404252703738791 -0.036499951297187 0 -0.003779455087106131 -0.036628351048516423 0 -0.0036236509515004283 -0.036527874237878045 0 -0.0053001933178484202 -0.036748067455883479 0 -0.0086796481395763261 -0.036433090167277728 0 -0.0053001933178484202 -0.036748067455883479 0 -0.0066631336756294793 -0.036947001115247541 0 -0.0053001933178484202 -0.036748067455883479 0 -0.0066631336756294793 -0.036947001115247541 0 -0.0063162147411456801 -0.036782105739911072 0 -0.0066631336756294793 -0.036947001115247541 0 -0.0063162147411456801 -0.036782105739911072 0 -0.0066548893720668025 -0.037038547455285314 0 -0.0063162147411456801 -0.036782105739911072 0 -0.0066548893720668025 -0.037038547455285314 0 -0.0062241379178644314 -0.036299874110416852 0 -0.0053001933178484202 -0.036748067455883479 0 -0.0063162147411456801 -0.036782105739911072 0 -0.0062241379178644314 -0.036299874110416852 0 -0.0053001933178484202 -0.036748067455883479 0 -0.0047655378595633695 -0.036077312584234869 0 -0.0062241379178644314 -0.036299874110416852 0 -0.010356313531047113 -0.037290652060078519 0 -0.010433284483250285 -0.037322831920361198 0 -0.011109615007745323 -0.036997719697550557 0 -0.011482525189850157 -0.036621946886243796 0 -0.011339846212926382 -0.036986192537862929 0 -0.0087736764233435731 -0.038218056173793674 0 -0.0095670770763051274 -0.037730689977204024 0 -0.0086272103483877333 -0.037664942222314778 0 -0.0074294509931957797 -0.037476211675942186 0 -0.0084113386961391888 -0.036267133079107609 0 -0.0066548893720668025 -0.037038547455285314 0 -0.0075530877386604609 -0.036369389813293476 0 -0.0062241379178644314 -0.036299874110416852 0 -0.01061414210191413 -0.037023674789198248 0 -0.0095670770763051274 -0.037730689977204024 0 -0.0091555866977419027 -0.036366496174626742 0 -0.0095670770763051274 -0.037730689977204024 0 -0.0086272103483877333 -0.037664942222314778 0 -0.0091555866977419027 -0.036366496174626742 0 -0.0089493437837330804 -0.035230324066480793 0 -0.0084113386961391888 -0.036267133079107609 0 -0.0097933973937724093 -0.036069576673715402 0 -0.0089579030957285481 -0.035213606298116651 0 -0.0091555866977419027 -0.036366496174626742 0 -0.0075530877386604609 -0.036369389813293476 0 -0.0068053768648296082 -0.035832236796742585 0 -0.0076652897722209474 -0.035599364855852439 0 -0.0075530877386604609 -0.036369389813293476 0 -0.0068053768648296082 -0.035832236796742585 0 -0.0062241379178644314 -0.036299874110416852 0 -0.0068053768648296082 -0.035832236796742585 0 -0.0069930219660511144 -0.034999729934372635 0 -0.0076652897722209474 -0.035599364855852439 0 -0.0089579030957285481 -0.035213606298116651 0 -0.0069930219660511144 -0.034999729934372635 0 -0.0076652897722209474 -0.035599364855852439 0 -0.0089579030957285481 -0.035213606298116651 0 -0.0075530877386604609 -0.036369389813293476 0 -0.0076652897722209474 -0.035599364855852439 0 -0.0090667295415047394 -0.034999784868754005 0 -0.0089579030957285481 -0.035213606298116651 0 -0.0069930219660511144 -0.034999729934372635 0 -0.0054811670888417806 -0.03571046091111621 0 -0.0047655378595633695 -0.036077312584234869 0 -0.0062241379178644314 -0.036299874110416852 0 -0.0054811670888417806 -0.03571046091111621 0 -0.0047655378595633695 -0.036077312584234869 0 -0.004243380911769009 -0.03547283075773594 0 -0.0068053768648296082 -0.035832236796742585 0 -0.0054811670888417806 -0.03571046091111621 0 -0.0062241379178644314 -0.036299874110416852 0 -0.0069930219660511144 -0.034999729934372635 0 -0.0054811670888417806 -0.03571046091111621 0 -0.0049213917472682167 -0.034999586401830443 0 -0.0068053768648296082 -0.035832236796742585 0 -0.0069930219660511144 -0.034999729934372635 0 -0.0054811670888417806 -0.03571046091111621 0 -0.0054811670888417806 -0.03571046091111621 0 -0.0049213917472682167 -0.034999586401830443 0 -0.004243380911769009 -0.03547283075773594 0 -0.0049213917472682167 -0.034999586401830443 0 -0.004243380911769009 -0.03547283075773594 0 -0.0028494093341997853 -0.034999817237029877 0 -0.004243380911769009 -0.03547283075773594 0 -0.0031996489757481154 -0.035343006163749385 0 -0.0037956865737901963 -0.035879950954119798 0 -0.004243380911769009 -0.03547283075773594 0 -0.0028494093341997853 -0.034999817237029877 0 -0.0031996489757481154 -0.035343006163749385 0 -0.0028494093341997853 -0.034999817237029877 0 -0.0031996489757481154 -0.035343006163749385 0 -0.0018921645247081745 -0.035757227257631259 0 -0.0031996489757481154 -0.035343006163749385 0 -0.0019458266077865289 -0.037046579937295369 0 -0.0018921645247081745 -0.035757227257631259 0 -0.0032001131897023876 -0.035409929807417216 0 -0.002603786604744186 -0.036437763055635654 0 -0.0031996489757481154 -0.035343006163749385 0 -0.0037956865737901963 -0.035879950954119798 0 -0.003266064657816065 -0.03599848471150445 0 -0.0047655378595633695 -0.036077312584234869 0 -0.004243380911769009 -0.03547283075773594 0 -0.0037956865737901963 -0.035879950954119798 0 -0.0047655378595633695 -0.036077312584234869 0 -0.0037956865737901963 -0.035879950954119798 0 -0.0038707129654510812 -0.036287609721710266 0 -0.0053001933178484202 -0.036748067455883479 0 -0.0047655378595633695 -0.036077312584234869 0 -0.0038707129654510812 -0.036287609721710266 0 -0.0037956865737901963 -0.035879950954119798 0 -0.0038707129654510812 -0.036287609721710266 0 -0.003266064657816065 -0.03599848471150445 0 -0.0038707129654510812 -0.036287609721710266 0 -0.0033108702459396485 -0.036382398436363921 0 -0.003266064657816065 -0.03599848471150445 0 -0.003779455087106131 -0.036628351048516423 0 -0.0038707129654510812 -0.036287609721710266 0 -0.0033108702459396485 -0.036382398436363921 0 -0.003779455087106131 -0.036628351048516423 0 -0.0053001933178484202 -0.036748067455883479 0 -0.0038707129654510812 -0.036287609721710266 0 -0.00083273667028539039 -0.038579104955826039 0 0.00023301883423246862 -0.038216356879641637 0 -1.0616616264179102e-05 -0.038738707731631829 0 -0.00083273667028539039 -0.038579104955826039 0 -1.0616616264179102e-05 -0.038738707731631829 0 0.00010617165312929893 -0.03928324982819259 0 -0.0031063838583298342 -0.036346383665870959 0 -0.0033108702459396485 -0.036382398436363921 0 -0.003013152692198462 -0.036326184508427145 0 -0.0033108702459396485 -0.036382398436363921 0 -0.003013152692198462 -0.036326184508427145 0 -0.003266064657816065 -0.03599848471150445 0 -0.00083273667028539039 -0.038579104955826039 0 -0.0005948854287362432 -0.037517025003730928 0 -0.0019458266077865289 -0.037046579937295369 0 -0.0020022583362557379 -0.037703031967372236 0 -0.002603786604744186 -0.036437763055635654 0 -0.00083273667028539039 -0.038579104955826039 0 -0.0005948854287362432 -0.037517025003730928 0 0.00023301883423246862 -0.038216356879641637 0 -0.0005948854287362432 -0.037517025003730928 0 0.00026829546237450895 -0.03723242737886627 0 0.00023301883423246862 -0.038216356879641637 0 -0.0005948854287362432 -0.037517025003730928 0 -0.00071895266622369321 -0.036485278510124723 0 0.00026829546237450895 -0.03723242737886627 0 -0.0005948854287362432 -0.037517025003730928 0 -0.00071895266622369321 -0.036485278510124723 0 -0.0019458266077865289 -0.037046579937295369 0 -0.00071895266622369321 -0.036485278510124723 0 -0.0019458266077865289 -0.037046579937295369 0 -0.0018921645247081745 -0.035757227257631259 0 -0.00071895266622369321 -0.036485278510124723 0 -0.0018921645247081745 -0.035757227257631259 0 -0.00077605060893062925 -0.034999980627985802 0 -0.0028494093341997853 -0.034999817237029877 0 -0.0018921645247081745 -0.035757227257631259 0 -0.00077605060893062925 -0.034999980627985802 0 -0.00071895266622369321 -0.036485278510124723 0 -0.00077605060893062925 -0.034999980627985802 0 0.00050152611774464983 -0.036067487756403879 0 0.0012960736352946505 -0.03499998829036069 0 0.0013121520786154679 -0.035794608604549222 0 0.00050152611774464983 -0.036067487756403879 0 -0.00077605060893062925 -0.034999980627985802 0 0.0012960736352946505 -0.03499998829036069 0 0.00050152611774464983 -0.036067487756403879 0 0.0012960736352946505 -0.03499998829036069 0 0.0020837167027812483 -0.035554626179601055 0 0.0013121520786154679 -0.035794608604549222 0 0.0020837167027812483 -0.035554626179601055 0 0.0013121520786154679 -0.035794608604549222 0 0.0015748112486456537 -0.036409352104286516 0 0.0013121520786154679 -0.035794608604549222 0 0.0015748112486456537 -0.036409352104286516 0 0.00050152611774464983 -0.036067487756403879 0 0.0015748112486456537 -0.036409352104286516 0 0.00050152611774464983 -0.036067487756403879 0 0.001346040149026074 -0.037149693329259159 0 0.0020837167027812483 -0.035554626179601055 0 0.0015748112486456537 -0.036409352104286516 0 0.0021042677867871727 -0.036574129171264499 0 0.0015748112486456537 -0.036409352104286516 0 0.0022055977540764711 -0.037095307165298748 0 0.001346040149026074 -0.037149693329259159 0 0.0015748112486456537 -0.036409352104286516 0 0.0021042677867871727 -0.036574129171264499 0 0.0022055977540764711 -0.037095307165298748 0 -0.00071895266622369321 -0.036485278510124723 0 0.00050152611774464983 -0.036067487756403879 0 0.00026829546237450895 -0.03723242737886627 0 0.00050152611774464983 -0.036067487756403879 0 0.00026829546237450895 -0.03723242737886627 0 0.001346040149026074 -0.037149693329259159 0 0.0033699805124794494 -0.034999810422822443 0 0.0040105227909739503 -0.036031082941627865 0 0.0045203948023434474 -0.035752424095504658 0 0.0033699805124794494 -0.034999810422822443 0 0.0045203948023434474 -0.035752424095504658 0 0.0052555242874793668 -0.034999771640920191 0 0.0033686613988190449 -0.035000185235579163 0 0.0034249903144623196 -0.036636341455080886 0 0.0020837167027812483 -0.035554626179601055 0 0.0033686250989096579 -0.034999987530798381 0 0.0027547623492360828 -0.036755425362845227 0 0.0012960736352946505 -0.03499998829036069 0 0.0020837167027812483 -0.035554626179601055 0 0.0033686250989096579 -0.034999987530798381 0 0.0020950068836446049 -0.035654443837524939 0 0.0030553443923301612 -0.036587688055143584 0 0.0033699805124794494 -0.034999810422822443 0 0.0038069791320039402 -0.036277440896246432 0 0.0040105227909739503 -0.036031082941627865 0 0.0033686250989096579 -0.034999987530798381 0 0.0027547623492360828 -0.036755425362845227 0 0.0029209509488259226 -0.037056607979599747 0 0.0020837167027812483 -0.035554626179601055 0 0.0021042677867871727 -0.036574129171264499 0 0.0026355154845129759 -0.036700765859002643 0 0.0022055977540764711 -0.037095307165298748 0 0.0024072614105742941 -0.036903971875141349 0 0.0027035625981294133 -0.037213471739311603 0 0.0021042677867871727 -0.036574129171264499 0 0.0022055977540764711 -0.037095307165298748 0 0.0024072614105742941 -0.036903971875141349 0 0.0024072614105742941 -0.036903971875141349 0 0.0026355154845129759 -0.036700765859002643 0 0.0027035625981294133 -0.037213471739311603 0 0.0021042677867871727 -0.036574129171264499 0 0.0024072614105742941 -0.036903971875141349 0 0.0026355154845129759 -0.036700765859002643 0 0.0032233174526990244 -0.036592952449923104 0 0.003299753235635027 -0.036730995550320784 0 0.0032742419420889288 -0.036851737754543819 0 0.0030553443923301612 -0.036587688055143584 0 0.003431842316700916 -0.036952744999493553 0 0.0038069791320039402 -0.036277440896246432 0 0.0039729349699182152 -0.03624605474199076 0 0.0040105227909739503 -0.036031082941627865 0 0.0030553443923301612 -0.036587688055143584 0 0.0034249903144623196 -0.036636341455080886 0 0.0034249903144623196 -0.036636341455080886 0 0.0038549312231869028 -0.036715991814146524 0 0.0038069791320039402 -0.036277440896246432 0 0.0039729349699182152 -0.03624605474199076 0 0.003883330153718834 -0.036371632311095685 0 0.0039729349699182152 -0.03624605474199076 0 0.0040385118366531398 -0.036332150061539878 0 0.003883330153718834 -0.036371632311095685 0 0.0040105227909739503 -0.036031082941627865 0 0.0041190023182949374 -0.036251870906361172 0 0.004453955738701154 -0.036246752644473391 0 0.0039729349699182152 -0.03624605474199076 0 0.0040105227909739503 -0.036031082941627865 0 0.0041190023182949374 -0.036251870906361172 0 0.0039729349699182152 -0.03624605474199076 0 0.0041190023182949374 -0.036251870906361172 0 0.0040385118366531398 -0.036332150061539878 0 0.0040105227909739503 -0.036031082941627865 0 0.004453955738701154 -0.036246752644473391 0 0.0045203948023434474 -0.035752424095504658 0 0.0045245166185371982 -0.036753663457239294 0 0.003883330153718834 -0.036371632311095685 0 0.0046269248065977714 -0.036948420661100413 0 0.0044406503758909243 -0.036577550576856924 0 0.0044194782048051816 -0.036614996765522025 0 0.0046022812740112258 -0.036836362427397754 0 0.0038549312231869028 -0.036715991814146524 0 0.0046217189481745731 -0.036850581130434046 0 0.0045245166185371982 -0.036753663457239294 0 0.0045826147642133953 -0.036546970332389746 0 0.0042691710081149328 -0.036425615104379611 0 0.0045245166185371982 -0.036753663457239294 0 0.0045826147642133953 -0.036546970332389746 0 0.0048203835174252391 -0.036762722015259833 0 0.004453955738701154 -0.036246752644473391 0 0.0045826147642133953 -0.036546970332389746 0 0.0042691710081149328 -0.036425615104379611 0 0.004453955738701154 -0.036246752644473391 0 0.0045826147642133953 -0.036546970332389746 0 0.0049085370231881469 -0.036511992563790306 0 0.0045245166185371982 -0.036753663457239294 0 0.0041127432042812363 -0.036444688381826275 0 0.003883330153718834 -0.036371632311095685 0 0.0045245166185371982 -0.036753663457239294 0 0.0042691710081149328 -0.036425615104379611 0 0.0041127432042812363 -0.036444688381826275 0 0.0041190023182949374 -0.036251870906361172 0 0.004453955738701154 -0.036246752644473391 0 0.0042691710081149328 -0.036425615104379611 0 0.0041190023182949374 -0.036251870906361172 0 0.0042691710081149328 -0.036425615104379611 0 0.0040385118366531398 -0.036332150061539878 0 0.0042691710081149328 -0.036425615104379611 0 0.0040385118366531398 -0.036332150061539878 0 0.0041127432042812363 -0.036444688381826275 0 0.0026074162063858845 -0.037552642896104993 0 0.0018940681006738493 -0.037530129852137502 0 0.0019449912925209086 -0.038551658365144584 0 0.0037326503656163281 -0.037039410970937284 0 0.0045694409051948368 -0.037269318645085224 0 0.004527209582933016 -0.037671387970082071 0 0.0045368653521436018 -0.037657955269437091 0 0.0045107759573414386 -0.037573074769000604 0 0.0040385118366531398 -0.036332150061539878 0 0.0041127432042812363 -0.036444688381826275 0 0.003883330153718834 -0.036371632311095685 0 0.0034249903144623196 -0.036636341455080886 0 0.003431842316700916 -0.036952744999493553 0 0.003583888793262211 -0.036824166334032495 0 0.0035799004444567162 -0.03681684199401121 0 0.0035861281909120532 -0.036815184265184153 0 0.0038549312231869028 -0.036715991814146524 0 0.0037326503656163281 -0.037039410970937284 0 0.0035799004444567162 -0.03681684199401121 0 0.0035861281909120532 -0.036815184265184153 0 0.0035845965889751696 -0.03680938929395397 0 0.003431842316700916 -0.036952744999493553 0 0.0037326503656163281 -0.037039410970937284 0 0.0033885091100033619 -0.03701778039032981 0 0.0034120624718227198 -0.037106732252946251 0 0.0033440382373130673 -0.037221423472479413 0 0.003431842316700916 -0.036952744999493553 0 0.003282525949590684 -0.037413168433148451 0 0.0037326503656163281 -0.037039410970937284 0 0.003282525949590684 -0.037413168433148451 0 0.0022055977540764711 -0.037095307165298748 0 0.0027035625981294133 -0.037213471739311603 0 0.0026074162063858845 -0.037552642896104993 0 0.0022055977540764711 -0.037095307165298748 0 0.0026074162063858845 -0.037552642896104993 0 0.0018940681006738493 -0.037530129852137502 0 0.003282525949590684 -0.037413168433148451 0 0.0037222250390966075 -0.037661307680493618 0 0.003282525949590684 -0.037413168433148451 0 0.0022417773893392474 -0.038196108888608617 0 0.0026730140962987771 -0.037456058807880187 0 0.0026368029606521348 -0.037530614383197332 0 0.0026174499202039851 -0.037517392160008212 0 0.0045368653521436018 -0.037657955269437091 0 0.0045838758798377056 -0.037546478020105023 0 0.0045107759573414386 -0.037573074769000604 0 0.0044194782048051816 -0.036614996765522025 0 0.004498715906213961 -0.036874486597068351 0 0.0046022812740112258 -0.036836362427397754 0 0.004498715906213961 -0.036874486597068351 0 0.0046022812740112258 -0.036836362427397754 0 0.0046011121849417408 -0.037002920572872355 0 0.0045245166185371982 -0.036753663457239294 0 0.0046269248065977714 -0.036948420661100413 0 0.0048203835174252391 -0.036762722015259833 0 0.00098387332708698393 -0.037744437121522909 0 0.00026829546237450895 -0.03723242737886627 0 0.001346040149026074 -0.037149693329259159 0 0.00098387332708698393 -0.037744437121522909 0 0.00026829546237450895 -0.03723242737886627 0 0.00023301883423246862 -0.038216356879641637 0 0.00098387332708698393 -0.037744437121522909 0 0.001346040149026074 -0.037149693329259159 0 0.0018940681006738493 -0.037530129852137502 0 0.0022055977540764711 -0.037095307165298748 0 0.001346040149026074 -0.037149693329259159 0 0.0018940681006738493 -0.037530129852137502 0 0.0018407575322993818 -0.037611614825986413 0 0.001290537780548907 -0.038497848096606543 0 0.00098387332708698393 -0.037744437121522909 0 0.0018940681006738493 -0.037530129852137502 0 0.0011903282879235783 -0.038592088127226441 0 0.0018940681006738493 -0.037530129852137502 0 0.0014015362421468372 -0.038352344382023111 0 0.0019449912925209086 -0.038551658365144584 0 0.0014015362421468372 -0.038352344382023111 0 0.0019449912925209086 -0.038551658365144584 0 0.0014169125728411204 -0.038860409846176593 0 0.0011903282879235783 -0.038592088127226441 0 0.00045468831408137616 -0.038872619053112144 0 0.00051613359084524057 -0.039595020289756894 0 0.001290537780548907 -0.038497848096606543 0 0.00044848002077749264 -0.038837376907833281 0 0.0014015362421468372 -0.038352344382023111 0 0.00094056044139833748 -0.039100058640086262 0 0.0014169125728411204 -0.038860409846176593 0 0.0011903282879235783 -0.038592088127226441 0 0.00023301883423246862 -0.038216356879641637 0 0.00045468831408137616 -0.038872619053112144 0 0.00098387332708698393 -0.037744437121522909 0 0.0011903282879235783 -0.038592088127226441 0 0.00023301883423246862 -0.038216356879641637 0 0.00023301883423246862 -0.038216356879641637 0 0.00045468831408137616 -0.038872619053112144 0 -1.0616616264179102e-05 -0.038738707731631829 0 0.00045468831408137616 -0.038872619053112144 0 -1.0616616264179102e-05 -0.038738707731631829 0 0.00010617165312929893 -0.03928324982819259 0 0.00045468831408137616 -0.038872619053112144 0 0.00010617165312929893 -0.03928324982819259 0 0.00051613359084524057 -0.039595020289756894 0 0.00042298168909825687 -0.039119966481216184 0 0.00044848002077749264 -0.038837376907833281 0 0.00094056044139833748 -0.039100058640086262 0 0.0013861957515076326 -0.039429350159128351 0 0.0014169125728411204 -0.038860409846176593 0 0.00047729371863389116 -0.037494657339552324 0 0.0007856012946675108 -0.036997543965639201 0 -0.00012223994537696051 -0.037041139189943575 0 0.00044848002077749264 -0.038837376907833281 0 0.0012139528187522974 -0.03753405959724658 0 0.00010617165312929893 -0.03928324982819259 0 0.00049674360287798051 -0.039568266947358481 0 0.00019836871736821871 -0.040050101634677024 0 0.00044848002077749264 -0.038837376907833281 0 -0.00058510189474434056 -0.036709623755903704 0 -0.0014473491673765672 -0.034094119009914998 0 -0.00021709377174132361 -0.033944304052846937 0 -0.00077020056968304625 -0.03492869903984417 0 -0.0014473491673765672 -0.034094119009914998 0 -0.00079071222140446264 -0.033108250758157425 0 -0.00021709377174132361 -0.033944304052846937 0 -0.00058510189474434056 -0.036709623755903704 0 0.00016365008670735592 -0.035151732302113589 0 0.0007856012946675108 -0.036997543965639201 0 0.00031823671726895176 -0.036282425046434474 0 -0.00012223994537696051 -0.037041139189943575 0 0.00016365008670735592 -0.035151732302113589 0 0.0012139528187522974 -0.03753405959724658 0 0.0014362492947569538 -0.03619194205778848 0 0.0011658381398922855 -0.036235111943760105 0 0.0013383591178020757 -0.036369046368268855 0 0.002670577951250792 -0.03684331575043303 0 0.0012139528187522974 -0.03753405959724658 0 0.0026368029606521348 -0.037530614383197332 0 0.0026174499202039851 -0.037517392160008212 0 0.0025776743581790288 -0.03756528023827866 0 0.0026368029606521348 -0.037530614383197332 0 0.0026137468438352284 -0.037586197452150957 0 0.0025776743581790288 -0.03756528023827866 0 0.0022417773893392474 -0.038196108888608617 0 0.0012139528187522974 -0.03753405959724658 0 0.0019449912925209086 -0.038551658365144584 0 0.0013861957515076326 -0.039429350159128351 0 0.0014169125728411204 -0.038860409846176593 0 0.0037222250390966075 -0.037661307680493618 0 0.002670577951250792 -0.03684331575043303 0 0.0045838758798377056 -0.037546478020105023 0 0.0046473534835053979 -0.0373727436222984 0 0.00455044697522219 -0.037467200149835463 0 0.0045838758798377056 -0.037546478020105023 0 0.0045107759573414386 -0.037573074769000604 0 0.00455044697522219 -0.037467200149835463 0 0.0046022812740112258 -0.036836362427397754 0 0.0046011121849417408 -0.037002920572872355 0 0.0048004508966979775 -0.037149243803555831 0 0.004498715906213961 -0.036874486597068351 0 0.0046011121849417408 -0.037002920572872355 0 0.0045712208719701436 -0.037160898193683525 0 0.0045107759573414386 -0.037573074769000604 0 0.00455044697522219 -0.037467200149835463 0 0.0044567176162271733 -0.037450667740959051 0 0.0045694409051948368 -0.037269318645085224 0 0.0044830189971237664 -0.037293440928399597 0 0.0046217189481745731 -0.036850581130434046 0 0.0047859423598458108 -0.037149892924490717 0 0.0046011121849417408 -0.037002920572872355 0 0.0045712208719701436 -0.037160898193683525 0 0.0048004508966979775 -0.037149243803555831 0 0.0044830189971237664 -0.037293440928399597 0 0.0043552947185683151 -0.037228397028103113 0 0.0044567176162271733 -0.037450667740959051 0 0.0045566430404544531 -0.037366854772830957 0 0.0045468456694885816 -0.037217281526960959 0 0.0044567176162271733 -0.037450667740959051 0 0.0045468456694885816 -0.037217281526960959 0 0.0043024010317136846 -0.037208403116945059 0 0.0045712208719701436 -0.037160898193683525 0 0.0043024010317136846 -0.037208403116945059 0 0.0046098050494491356 -0.037204119979530034 0 0.0046473534835053979 -0.0373727436222984 0 0.0045566430404544531 -0.037366854772830957 0 0.0045468456694885816 -0.037217281526960959 0 0.002670577951250792 -0.03684331575043303 0 0.0037080032388105717 -0.036693228505186269 0 0.0046473534835053979 -0.0373727436222984 0 0.00455044697522219 -0.037467200149835463 0 0.0045566430404544531 -0.037366854772830957 0 0.00455044697522219 -0.037467200149835463 0 0.0044567176162271733 -0.037450667740959051 0 0.0045566430404544531 -0.037366854772830957 0 0.0023180559992939764 -0.03624189432188174 0 0.0023854226324291372 -0.036613996320442738 0 0.0020991308343403501 -0.036460432016991354 0 0.0021581515333718936 -0.035813394215874317 0 0.0023180559992939764 -0.03624189432188174 0 0.0026565010901639821 -0.036076983565796014 0 0.0023180559992939764 -0.03624189432188174 0 0.0026565010901639821 -0.036076983565796014 0 0.0023854226324291372 -0.036613996320442738 0 0.0045468456694885816 -0.037217281526960959 0 0.0043024010317136846 -0.037208403116945059 0 0.0038331743975327619 -0.03696064831315448 0 0.0026565010901639821 -0.036076983565796014 0 0.0029963980889418282 -0.03676870797632395 0 0.0038331743975327619 -0.03696064831315448 0 0.0037080032388105717 -0.036693228505186269 0 0.0038032751279639589 -0.036911386429460465 0 0.0029963980889418282 -0.03676870797632395 0 0.0038331743975327619 -0.03696064831315448 0 0.0030877064906054755 -0.037162012836354799 0 0.0029963980889418282 -0.03676870797632395 0 0.0023854226324291372 -0.036613996320442738 0 0.0030877064906054755 -0.037162012836354799 0 0.0026565010901639821 -0.036076983565796014 0 0.0029963980889418282 -0.03676870797632395 0 0.0023854226324291372 -0.036613996320442738 0 0.0012121123287627401 -0.035731208063608952 0 0.002186644707693617 -0.036716670790219154 0 0.0023854226324291372 -0.036613996320442738 0 0.0020991308343403501 -0.036460432016991354 0 0.0021567478728912737 -0.036712217749064399 0 0.0006248254099289523 -0.035448065720547262 0 0.00069373525851645457 -0.035035030682182347 0 0.0021567478728912737 -0.036712217749064399 0 0.0006248254099289523 -0.035448065720547262 0 5.4752689817360426e-05 -0.035767072591118984 0 0.00042935366584113493 -0.03634870617019114 0 0.0010836309792302266 -0.035523551835642576 0 0.0012121123287627401 -0.035731208063608952 0 0.0006248254099289523 -0.035448065720547262 0 5.4752689817360426e-05 -0.035767072591118984 0 -8.8806422381843006e-05 -0.035279360453320766 0 0.0006248254099289523 -0.035448065720547262 0 0.00063704183964501094 -0.03523854169888932 0 -8.8806422381843006e-05 -0.035279360453320766 0 5.4752689817360426e-05 -0.035767072591118984 0 -0.00042915468844115364 -0.035681519293715026 0 -0.00047518924242177785 -0.036096569943149137 0 -0.0013888214161656975 -0.035843587913743313 0 -0.00042915468844115364 -0.035681519293715026 0 -0.00047518924242177785 -0.036096569943149137 0 -0.00042915468844115364 -0.035681519293715026 0 -0.00096822919414230599 -0.035503538901230418 0 -8.8806422381843006e-05 -0.035279360453320766 0 -0.0013888214161656975 -0.035843587913743313 0 -0.00042915468844115364 -0.035681519293715026 0 -0.00096822919414230599 -0.035503538901230418 0 5.4752689817360426e-05 -0.035767072591118984 0 -0.00042915468844115364 -0.035681519293715026 0 -8.8806422381843006e-05 -0.035279360453320766 0 -0.00026825823833210558 -0.034119491453731915 0 -8.8806422381843006e-05 -0.035279360453320766 0 -0.00077020056968304625 -0.03492869903984417 0 -0.00096822919414230599 -0.035503538901230418 0 -8.8806422381843006e-05 -0.035279360453320766 0 -0.00077020056968304625 -0.03492869903984417 0 0.00016365008670735592 -0.035151732302113589 0 -0.00051595557447548738 -0.034659941362130742 0 0.0021581515333718936 -0.035813394215874317 0 0.0023180559992939764 -0.03624189432188174 0 0.0020991308343403501 -0.036460432016991354 0 0.0014362492947569538 -0.03619194205778848 0 0.0011658381398922855 -0.036235111943760105 0 0.0012372686903997301 -0.035883337434987291 0 0.002670577951250792 -0.03684331575043303 0 0.0012121123287627401 -0.035731208063608952 0 0.00016365008670735592 -0.035151732302113589 0 0.0012121123287627401 -0.035731208063608952 0 -0.00026825823833210558 -0.034119491453731915 0 0.00063704183964501094 -0.03523854169888932 0 -8.8806422381843006e-05 -0.035279360453320766 0 0.005554481840721698 -0.037394072719098663 0 0.0063706308685122408 -0.037769601962073816 0 0.0053251932024656638 -0.037663248516008933 0 0.0063706308685122408 -0.037769601962073816 0 0.0066923863621800713 -0.037426660304766074 0 0.0070201699348914556 -0.037757963052488311 0 0.005554481840721698 -0.037394072719098663 0 0.0063706308685122408 -0.037769601962073816 0 0.0066923863621800713 -0.037426660304766074 0 0.0063706308685122408 -0.037769601962073816 0 0.0063905434534623036 -0.038363166712141045 0 0.0070937877105383424 -0.038307116067395133 0 0.0063706308685122408 -0.037769601962073816 0 0.0063905434534623036 -0.038363166712141045 0 0.0053251932024656638 -0.037663248516008933 0 0.0053251932024656638 -0.037663248516008933 0 0.0044004374893070221 -0.037595978058650982 0 0.0046748871313895754 -0.037906742286904251 0 0.0052497940515099303 -0.037584076350376354 0 0.005410126757943611 -0.038542754125943116 0 0.0063905434534623036 -0.038363166712141045 0 0.0053251932024656638 -0.037663248516008933 0 0.0059980412628479829 -0.038705295009855194 0 0.0053251932024656638 -0.037663248516008933 0 0.0044288773077519935 -0.037317017445787484 0 0.0044004374893070221 -0.037595978058650982 0 0.0044288773077519935 -0.037317017445787484 0 0.0037968946293382311 -0.03731233296272065 0 0.0044004374893070221 -0.037595978058650982 0 0.0037968946293382311 -0.03731233296272065 0 0.0038331743975327619 -0.03696064831315448 0 0.0030877064906054755 -0.037162012836354799 0 0.0044288773077519935 -0.037317017445787484 0 0.0037968946293382311 -0.03731233296272065 0 0.0038331743975327619 -0.03696064831315448 0 0.0043024010317136846 -0.037208403116945059 0 0.0038331743975327619 -0.03696064831315448 0 0.0043384939728533349 -0.037185937567621695 0 0.0044288773077519935 -0.037317017445787484 0 0.0038331743975327619 -0.03696064831315448 0 0.0043384939728533349 -0.037185937567621695 0 0.0043384939728533349 -0.037185937567621695 0 0.0048449248176109534 -0.037251411496005381 0 0.0046098050494491356 -0.037204119979530034 0 0.0043024010317136846 -0.037208403116945059 0 0.0043384939728533349 -0.037185937567621695 0 0.0046098050494491356 -0.037204119979530034 0 0.005554481840721698 -0.037394072719098663 0 0.0053251932024656638 -0.037663248516008933 0 0.0044288773077519935 -0.037317017445787484 0 0.0044288773077519935 -0.037317017445787484 0 0.0043384939728533349 -0.037185937567621695 0 0.0048449248176109534 -0.037251411496005381 0 0.005554481840721698 -0.037394072719098663 0 0.0044288773077519935 -0.037317017445787484 0 0.0048449248176109534 -0.037251411496005381 0 0.0048449248176109534 -0.037251411496005381 0 0.0050549851349293608 -0.037182673141193841 0 0.005798415348635351 -0.037220575367330033 0 0.005554481840721698 -0.037394072719098663 0 0.0048449248176109534 -0.037251411496005381 0 0.005798415348635351 -0.037220575367330033 0 0.0048449248176109534 -0.037251411496005381 0 0.0050549851349293608 -0.037182673141193841 0 0.0046098050494491356 -0.037204119979530034 0 0.0050549851349293608 -0.037182673141193841 0 0.0046098050494491356 -0.037204119979530034 0 0.0048004508966979775 -0.037149243803555831 0 0.0045712208719701436 -0.037160898193683525 0 0.0046098050494491356 -0.037204119979530034 0 0.0048004508966979775 -0.037149243803555831 0 0.0050549851349293608 -0.037182673141193841 0 0.0048004508966979775 -0.037149243803555831 0 0.0054051400493836561 -0.037086592137425482 0 0.0046269248065977714 -0.036948420661100413 0 0.0048004508966979775 -0.037149243803555831 0 0.0049739225536961865 -0.036976002266243431 0 0.0048004508966979775 -0.037149243803555831 0 0.0054051400493836561 -0.037086592137425482 0 0.0049739225536961865 -0.036976002266243431 0 0.0050549851349293608 -0.037182673141193841 0 0.0054051400493836561 -0.037086592137425482 0 0.005798415348635351 -0.037220575367330033 0 0.005798415348635351 -0.037220575367330033 0 0.006926619966361975 -0.037167187054156989 0 0.0062444229858872246 -0.036992541176005207 0 0.0054051400493836561 -0.037086592137425482 0 0.005798415348635351 -0.037220575367330033 0 0.0062444229858872246 -0.036992541176005207 0 0.005554481840721698 -0.037394072719098663 0 0.005798415348635351 -0.037220575367330033 0 0.0066923863621800713 -0.037426660304766074 0 0.005798415348635351 -0.037220575367330033 0 0.0066923863621800713 -0.037426660304766074 0 0.006926619966361975 -0.037167187054156989 0 0.0066923863621800713 -0.037426660304766074 0 0.006926619966361975 -0.037167187054156989 0 0.007503050539619127 -0.037310639879146131 0 0.006926619966361975 -0.037167187054156989 0 0.0072863506343361579 -0.036967089044636602 0 0.0077643910171320508 -0.037065846906738982 0 0.006926619966361975 -0.037167187054156989 0 0.0072863506343361579 -0.036967089044636602 0 0.0062444229858872246 -0.036992541176005207 0 0.0072863506343361579 -0.036967089044636602 0 0.0069139583741761731 -0.036689622160484409 0 0.0081840837751496563 -0.036762331328010406 0 0.0072863506343361579 -0.036967089044636602 0 0.0062444229858872246 -0.036992541176005207 0 0.0069139583741761731 -0.036689622160484409 0 0.0062444229858872246 -0.036992541176005207 0 0.0069139583741761731 -0.036689622160484409 0 0.005927127145747813 -0.036637161585824599 0 0.0069139583741761731 -0.036689622160484409 0 0.005927127145747813 -0.036637161585824599 0 0.0064860112374443583 -0.035881577046795683 0 0.0069139583741761731 -0.036689622160484409 0 0.007472447074351323 -0.03618565057135361 0 0.0081840837751496563 -0.036762331328010406 0 0.0046269248065977714 -0.036948420661100413 0 0.0048203835174252391 -0.036762722015259833 0 0.0049739225536961865 -0.036976002266243431 0 0.0048203835174252391 -0.036762722015259833 0 0.0049739225536961865 -0.036976002266243431 0 0.0052267651853408334 -0.036707985220550493 0 0.0049739225536961865 -0.036976002266243431 0 0.0054879416297564368 -0.036903046080378588 0 0.0052267651853408334 -0.036707985220550493 0 0.0062444229858872246 -0.036992541176005207 0 0.0054879416297564368 -0.036903046080378588 0 0.005927127145747813 -0.036637161585824599 0 0.0054051400493836561 -0.037086592137425482 0 0.0062444229858872246 -0.036992541176005207 0 0.0054879416297564368 -0.036903046080378588 0 0.0054879416297564368 -0.036903046080378588 0 0.005927127145747813 -0.036637161585824599 0 0.0052267651853408334 -0.036707985220550493 0 0.0054051400493836561 -0.037086592137425482 0 0.0049739225536961865 -0.036976002266243431 0 0.0054879416297564368 -0.036903046080378588 0 0.005927127145747813 -0.036637161585824599 0 0.0052267651853408334 -0.036707985220550493 0 0.0054496866539535541 -0.036208950584217227 0 0.0052267651853408334 -0.036707985220550493 0 0.0049085370231881469 -0.036511992563790306 0 0.0054496866539535541 -0.036208950584217227 0 0.004453955738701154 -0.036246752644473391 0 0.0049085370231881469 -0.036511992563790306 0 0.0054496866539535541 -0.036208950584217227 0 0.0045826147642133953 -0.036546970332389746 0 0.0048203835174252391 -0.036762722015259833 0 0.0049085370231881469 -0.036511992563790306 0 0.0048203835174252391 -0.036762722015259833 0 0.0052267651853408334 -0.036707985220550493 0 0.0049085370231881469 -0.036511992563790306 0 0.004453955738701154 -0.036246752644473391 0 0.0045203948023434474 -0.035752424095504658 0 0.0054496866539535541 -0.036208950584217227 0 0.0054496866539535541 -0.036208950584217227 0 0.0052555242874793668 -0.034999771640920191 0 0.0064860112374443583 -0.035881577046795683 0 0.005927127145747813 -0.036637161585824599 0 0.0054496866539535541 -0.036208950584217227 0 0.0064860112374443583 -0.035881577046795683 0 0.0052555242874793668 -0.034999771640920191 0 0.0064860112374443583 -0.035881577046795683 0 0.0071424472153724383 -0.034999687013807693 0 0.0045203948023434474 -0.035752424095504658 0 0.0054496866539535541 -0.036208950584217227 0 0.0052555242874793668 -0.034999771640920191 0 0.007472447074351323 -0.03618565057135361 0 0.0071424472153724383 -0.034999687013807693 0 0.0087638676022839205 -0.035847484695084253 0 0.007472447074351323 -0.03618565057135361 0 0.0087638676022839205 -0.035847484695084253 0 0.0081840837751496563 -0.036762331328010406 0 0.0069139583741761731 -0.036689622160484409 0 0.007472447074351323 -0.03618565057135361 0 0.0064860112374443583 -0.035881577046795683 0 0.007472447074351323 -0.03618565057135361 0 0.0064860112374443583 -0.035881577046795683 0 0.0071424472153724383 -0.034999687013807693 0 0.0071424472153724383 -0.034999687013807693 0 0.0090291580976854038 -0.034999677281680734 0 0.0087638676022839205 -0.035847484695084253 0 0.0090291580976854038 -0.034999677281680734 0 0.0087638676022839205 -0.035847484695084253 0 0.010916589450598251 -0.034999515351275254 0 0.0087638676022839205 -0.035847484695084253 0 0.0098048138212544246 -0.036423243600574223 0 0.0081840837751496563 -0.036762331328010406 0 0.0087638676022839205 -0.035847484695084253 0 0.0098048138212544246 -0.036423243600574223 0 0.010916589450598251 -0.034999515351275254 0 0.010916589450598251 -0.034999515351275254 0 0.012804092692317349 -0.034999843185614575 0 0.011776528436017555 -0.035892699696201111 0 0.012804092692317349 -0.034999843185614575 0 0.012911929066870293 -0.036267241211161323 0 0.011776528436017555 -0.035892699696201111 0 0.012911929066870293 -0.036267241211161323 0 0.011776528436017555 -0.035892699696201111 0 0.012154107249516613 -0.03693414137192165 0 0.0098048138212544246 -0.036423243600574223 0 0.010916589450598251 -0.034999515351275254 0 0.011776528436017555 -0.035892699696201111 0 0.0098048138212544246 -0.036423243600574223 0 0.011776528436017555 -0.035892699696201111 0 0.012154107249516613 -0.03693414137192165 0 0.012911929066870293 -0.036267241211161323 0 0.012154107249516613 -0.03693414137192165 0 0.013103430971126703 -0.037057837695577835 0 0.012154107249516613 -0.03693414137192165 0 0.012733038666676076 -0.037524979250617797 0 0.013103430971126703 -0.037057837695577835 0 0.012154107249516613 -0.03693414137192165 0 0.012733038666676076 -0.037524979250617797 0 0.011754395716408354 -0.037729795163955943 0 0.012733038666676076 -0.037524979250617797 0 0.011754395716408354 -0.037729795163955943 0 0.0128294536102343 -0.037696141282512974 0 0.0072863506343361579 -0.036967089044636602 0 0.0081840837751496563 -0.036762331328010406 0 0.0077643910171320508 -0.037065846906738982 0 0.0084600958964762898 -0.037009670518680461 0 0.0081840837751496563 -0.036762331328010406 0 0.0077643910171320508 -0.037065846906738982 0 0.0098048138212544246 -0.036423243600574223 0 0.0084600958964762898 -0.037009670518680461 0 0.0081840837751496563 -0.036762331328010406 0 0.009781853257190859 -0.036359326949536655 0 0.010133835433252712 -0.037165970298507503 0 0.0098048138212544246 -0.036423243600574223 0 0.012154107249516613 -0.03693414137192165 0 0.011754395716408354 -0.037729795163955943 0 0.016450100553054389 -0.035916543884759906 0 0.015546693519735585 -0.036099773712647241 0 0.016311103528404692 -0.037136629827901613 0 0.016911644257883041 -0.036216281872793167 0 0.01566699331885911 -0.035606214495207615 0 0.016450100553054389 -0.035916543884759906 0 0.015288682228859709 -0.035472012997747604 0 0.015546693519735585 -0.036099773712647241 0 0.01718943844353216 -0.035661583910798961 0 0.016393816624025399 -0.034999948710956311 0 0.01601815747209271 -0.035786492520345714 0 0.01718943844353216 -0.035661583910798961 0 0.016393816624025399 -0.034999948710956311 0 0.018096465219452827 -0.034999929933472319 0 0.017337867201896659 -0.03644503950307286 0 0.01718943844353216 -0.035661583910798961 0 0.01601815747209271 -0.035786492520345714 0 0.016393816624025399 -0.034999948710956311 0 0.01601815747209271 -0.035786492520345714 0 0.014690830336296958 -0.035000012207392836 0 0.01566699331885911 -0.035606214495207615 0 0.014691028093379781 -0.035000137038288665 0 0.015288682228859709 -0.035472012997747604 0 0.015546693519735585 -0.036099773712647241 0 0.014791387508885083 -0.035743610264513399 0 0.015546693519735585 -0.036099773712647241 0 0.014790032553110012 -0.036296023606483367 0 0.014791387508885083 -0.035743610264513399 0 0.015546693519735585 -0.036099773712647241 0 0.014790032553110012 -0.036296023606483367 0 0.015293888901250266 -0.036863358549459643 0 0.014129508587964914 -0.03588424354791965 0 0.013719633033958383 -0.036649404000811743 0 0.014309617350387266 -0.036585249146038397 0 0.014790032553110012 -0.036296023606483367 0 0.014129508587964914 -0.03588424354791965 0 0.014309617350387266 -0.036585249146038397 0 0.014790032553110012 -0.036296023606483367 0 0.014129508587964914 -0.03588424354791965 0 0.014791387508885083 -0.035743610264513399 0 0.014129508587964914 -0.03588424354791965 0 0.014791387508885083 -0.035743610264513399 0 0.014689511282525462 -0.034999723504308744 0 0.015288682228859709 -0.035472012997747604 0 0.014791387508885083 -0.035743610264513399 0 0.014689511282525462 -0.034999723504308744 0 0.012804092692317349 -0.034999843185614575 0 0.012911929066870293 -0.036267241211161323 0 0.014129508587964914 -0.03588424354791965 0 0.012804092692317349 -0.034999843185614575 0 0.014129508587964914 -0.03588424354791965 0 0.014689511282525462 -0.034999723504308744 0 0.012911929066870293 -0.036267241211161323 0 0.014129508587964914 -0.03588424354791965 0 0.013719633033958383 -0.036649404000811743 0 0.012911929066870293 -0.036267241211161323 0 0.013719633033958383 -0.036649404000811743 0 0.013103430971126703 -0.037057837695577835 0 0.013719633033958383 -0.036649404000811743 0 0.01366281388713066 -0.037154896349129336 0 0.013103430971126703 -0.037057837695577835 0 0.012733038666676076 -0.037524979250617797 0 0.013103430971126703 -0.037057837695577835 0 0.013318707346944222 -0.03750531296996476 0 0.01366281388713066 -0.037154896349129336 0 0.013103430971126703 -0.037057837695577835 0 0.013318707346944222 -0.03750531296996476 0 0.012733038666676076 -0.037524979250617797 0 0.013318707346944222 -0.03750531296996476 0 0.012993584747113433 -0.03787207478957421 0 0.013318707346944222 -0.03750531296996476 0 0.013601603169023316 -0.037812779302580361 0 0.012993584747113433 -0.03787207478957421 0 0.01366281388713066 -0.037154896349129336 0 0.013318707346944222 -0.03750531296996476 0 0.014036766131024857 -0.037531593399237326 0 0.01366281388713066 -0.037154896349129336 0 0.014036766131024857 -0.037531593399237326 0 0.014193660381148903 -0.037027742170871882 0 0.013318707346944222 -0.03750531296996476 0 0.014036766131024857 -0.037531593399237326 0 0.013601603169023316 -0.037812779302580361 0 0.014036766131024857 -0.037531593399237326 0 0.014087530367630314 -0.037862345772432485 0 0.013601603169023316 -0.037812779302580361 0 0.014036766131024857 -0.037531593399237326 0 0.014773015433183904 -0.037290782103285229 0 0.014734635972798171 -0.03791843289485005 0 0.014036766131024857 -0.037531593399237326 0 0.014087530367630314 -0.037862345772432485 0 0.014734635972798171 -0.03791843289485005 0 0.014036766131024857 -0.037531593399237326 0 0.014193660381148903 -0.037027742170871882 0 0.014773015433183904 -0.037290782103285229 0 0.014193660381148903 -0.037027742170871882 0 0.014697057294008515 -0.036820663082810297 0 0.014773015433183904 -0.037290782103285229 0 0.013719633033958383 -0.036649404000811743 0 0.01366281388713066 -0.037154896349129336 0 0.014193660381148903 -0.037027742170871882 0 0.013719633033958383 -0.036649404000811743 0 0.014193660381148903 -0.037027742170871882 0 0.014309617350387266 -0.036585249146038397 0 0.014790032553110012 -0.036296023606483367 0 0.014309617350387266 -0.036585249146038397 0 0.014697057294008515 -0.036820663082810297 0 0.014193660381148903 -0.037027742170871882 0 0.014309617350387266 -0.036585249146038397 0 0.014697057294008515 -0.036820663082810297 0 0.014790032553110012 -0.036296023606483367 0 0.014697057294008515 -0.036820663082810297 0 0.015293888901250266 -0.036863358549459643 0 0.014697057294008515 -0.036820663082810297 0 0.015293888901250266 -0.036863358549459643 0 0.014773015433183904 -0.037290782103285229 0 0.014773015433183904 -0.037290782103285229 0 0.014734635972798171 -0.03791843289485005 0 0.015744464461005206 -0.037655934610112865 0 0.015293888901250266 -0.036863358549459643 0 0.014773015433183904 -0.037290782103285229 0 0.015744464461005206 -0.037655934610112865 0 0.015744464461005206 -0.037655934610112865 0 0.016865905291988129 -0.037591531798535104 0 0.016518349717864457 -0.038277142477907686 0 0.015744464461005206 -0.037655934610112865 0 0.016311103528404692 -0.037136629827901613 0 0.016865905291988129 -0.037591531798535104 0 0.016450100553054389 -0.035916543884759906 0 0.016311103528404692 -0.037136629827901613 0 0.017377570602040319 -0.037317022545824412 0 0.015546693519735585 -0.036099773712647241 0 0.015293888901250266 -0.036863358549459643 0 0.016311103528404692 -0.037136629827901613 0 0.015293888901250266 -0.036863358549459643 0 0.015744464461005206 -0.037655934610112865 0 0.016311103528404692 -0.037136629827901613 0 0.016082890964057295 -0.025586777727037099 0 0.015450677331542617 -0.025017342176374188 0 0.015283550197989227 -0.025763357170542546 0 0.016082890964057295 -0.025586777727037099 0 0.015283550197989227 -0.025763357170542546 0 0.01590837646078749 -0.026217581746639195 0 0.016082890964057295 -0.025586777727037099 0 0.015450677331542617 -0.025017342176374188 0 0.016361959759476487 -0.024885474448166335 0 0.015448156798219965 -0.031592439405044401 0 0.016376306892056654 -0.031437426857114162 0 0.015744464461005206 -0.037655934610112865 0 0.015376614621289666 -0.038452777364391129 0 0.016518349717864457 -0.038277142477907686 0 0.015448156798219965 -0.031592439405044401 0 0.01431369626685116 -0.033867706117381727 0 0.014734635972798171 -0.03791843289485005 0 0.015376614621289666 -0.038452777364391129 0 0.013969048375236229 -0.038197510205626353 0 0.014734635972798171 -0.03791843289485005 0 0.015744464461005206 -0.037655934610112865 0 0.015376614621289666 -0.038452777364391129 0 0.015450677331542617 -0.025017342176374188 0 0.015283550197989227 -0.025763357170542546 0 0.014586301479711763 -0.025170327391117697 0 0.01431369626685116 -0.033867706117381727 0 0.012682763599200987 -0.030422768129742518 0 0.011364754204082615 -0.038150315956099516 0 0.01230946442155492 -0.036905155841298609 0 0.011263732785957471 -0.035725111973080925 0 0.015283550197989227 -0.025763357170542546 0 0.014586301479711763 -0.025170327391117697 0 0.014382759546093363 -0.026135122168131415 0 0.015376614621289666 -0.038452777364391129 0 0.013969048375236229 -0.038197510205626353 0 0.013928083510047057 -0.038473031605664995 0 0.014087530367630314 -0.037862345772432485 0 0.014734635972798171 -0.03791843289485005 0 0.013969048375236229 -0.038197510205626353 0 0.014087530367630314 -0.037862345772432485 0 0.013601603169023316 -0.037812779302580361 0 0.013969048375236229 -0.038197510205626353 0 0.013601603169023316 -0.037812779302580361 0 0.013969048375236229 -0.038197510205626353 0 0.013397034839036445 -0.038013494924568077 0 0.01404351894322135 -0.036038577464664448 0 0.01431369626685116 -0.033867706117381727 0 0.013969048375236229 -0.038197510205626353 0 0.013888857752300926 -0.038413011723143133 0 0.013397034839036445 -0.038013494924568077 0 0.01431369626685116 -0.033867706117381727 0 0.012171422905421782 -0.037530769066483942 0 0.012775918013607409 -0.037959826784544994 0 0.012993584747113433 -0.03787207478957421 0 0.013190043435697076 -0.037544103205752376 0 0.013888857752300926 -0.038413011723143133 0 0.012775918013607409 -0.037959826784544994 0 0.013397034839036445 -0.038013494924568077 0 0.012775918013607409 -0.037959826784544994 0 0.013397034839036445 -0.038013494924568077 0 0.012993584747113433 -0.03787207478957421 0 0.013601603169023316 -0.037812779302580361 0 0.013397034839036445 -0.038013494924568077 0 0.012993584747113433 -0.03787207478957421 0 0.012775918013607409 -0.037959826784544994 0 0.01230946442155492 -0.036905155841298609 0 0.012986869458015585 -0.037028922245154097 0 0.01230946442155492 -0.036905155841298609 0 0.012986869458015585 -0.037028922245154097 0 0.013137201333455362 -0.035474425547120325 0 0.011364754204082615 -0.038150315956099516 0 0.012775918013607409 -0.037959826784544994 0 0.01230946442155492 -0.036905155841298609 0 0.012678787381064616 -0.034090806975136292 0 0.011263732785957471 -0.035725111973080925 0 0.013137201333455362 -0.035474425547120325 0 0.01230946442155492 -0.036905155841298609 0 0.011263732785957471 -0.035725111973080925 0 0.013137201333455362 -0.035474425547120325 0 0.012678787381064616 -0.034090806975136292 0 0.013703400714865119 -0.032458133284397839 0 0.011470352134882627 -0.032328270759751497 0 0.012678787381064616 -0.034090806975136292 0 0.011263732785957471 -0.035725111973080925 0 0.011470352134882627 -0.032328270759751497 0 0.012682763599200987 -0.030422768129742518 0 0.012817351239565273 -0.029882187759103913 0 0.014382759546093363 -0.026135122168131415 0 0.015292443705388624 -0.026511407504886567 0 0.014980025149598584 -0.027177406568669089 0 0.014382759546093363 -0.026135122168131415 0 0.014980025149598584 -0.027177406568669089 0 0.014021796775313261 -0.027131833954314465 0 0.015283550197989227 -0.025763357170542546 0 0.015292443705388624 -0.026511407504886567 0 0.01590837646078749 -0.026217581746639195 0 0.015283550197989227 -0.025763357170542546 0 0.014382759546093363 -0.026135122168131415 0 0.015292443705388624 -0.026511407504886567 0 0.015292443705388624 -0.026511407504886567 0 0.016196274375926561 -0.027213690917748546 0 0.014980025149598584 -0.027177406568669089 0 0.015292443705388624 -0.026511407504886567 0 0.01590837646078749 -0.026217581746639195 0 0.016196274375926561 -0.027213690917748546 0 0.01590837646078749 -0.026217581746639195 0 0.016196274375926561 -0.027213690917748546 0 0.016645383282083127 -0.026171305811116784 0 0.016082890964057295 -0.025586777727037099 0 0.01590837646078749 -0.026217581746639195 0 0.016645383282083127 -0.026171305811116784 0 0.0078179536052478699 -0.037425199442818025 0 0.007503050539619127 -0.037310639879146131 0 0.0079373740826425114 -0.037233461892494261 0 0.0078179536052478699 -0.037425199442818025 0 0.0079373740826425114 -0.037233461892494261 0 0.0080522991772726416 -0.037345628633074501 0 0.0079406258182185014 -0.03754700308807328 0 0.0078179536052478699 -0.037425199442818025 0 0.0080522991772726416 -0.037345628633074501 0 0.0079406258182185014 -0.03754700308807328 0 0.0078179536052478699 -0.037425199442818025 0 0.0078015871401956273 -0.037696295245554554 0 0.0078179536052478699 -0.037425199442818025 0 0.007503050539619127 -0.037310639879146131 0 0.0074125711270158923 -0.037571471191340244 0 0.0066923863621800713 -0.037426660304766074 0 0.007503050539619127 -0.037310639879146131 0 0.0074125711270158923 -0.037571471191340244 0 0.006926619966361975 -0.037167187054156989 0 0.007503050539619127 -0.037310639879146131 0 0.0077643910171320508 -0.037065846906738982 0 0.007503050539619127 -0.037310639879146131 0 0.0077643910171320508 -0.037065846906738982 0 0.0079373740826425114 -0.037233461892494261 0 0.0084600958964762898 -0.037009670518680461 0 0.0079373740826425114 -0.037233461892494261 0 0.0080522991772726416 -0.037345628633074501 0 0.010133835433252712 -0.037165970298507503 0 0.010410039455450035 -0.037535484803656302 0 0.0084600958964762898 -0.037009670518680461 0 0.0077643910171320508 -0.037065846906738982 0 0.0079373740826425114 -0.037233461892494261 0 0.011754395716408354 -0.037729795163955943 0 0.0128294536102343 -0.037696141282512974 0 0.01325741825986901 -0.037392401224606103 0 0.0128294536102343 -0.037696141282512974 0 0.013190043435697076 -0.037544103205752376 0 0.01325741825986901 -0.037392401224606103 0 0.012993584747113433 -0.03787207478957421 0 0.0128294536102343 -0.037696141282512974 0 0.013190043435697076 -0.037544103205752376 0 0.012733038666676076 -0.037524979250617797 0 0.012993584747113433 -0.03787207478957421 0 0.0128294536102343 -0.037696141282512974 0 0.012775918013607409 -0.037959826784544994 0 0.013190043435697076 -0.037544103205752376 0 0.012986869458015585 -0.037028922245154097 0 0.013190043435697076 -0.037544103205752376 0 0.013644326512913803 -0.037229563064937542 0 0.013463508369253932 -0.036543778545037139 0 0.013190043435697076 -0.037544103205752376 0 0.012986869458015585 -0.037028922245154097 0 0.013463508369253932 -0.036543778545037139 0 0.0079406258182185014 -0.03754700308807328 0 0.0080522991772726416 -0.037345628633074501 0 0.0080021705457391321 -0.037692115981466864 0 0.013190043435697076 -0.037544103205752376 0 0.01325741825986901 -0.037392401224606103 0 0.013644326512913803 -0.037229563064937542 0 0.014159777078495077 -0.036725991731871702 0 0.012604914841558986 -0.036692612985763713 0 0.013644326512913803 -0.037229563064937542 0 0.014056805529735089 -0.03584657932308058 0 0.015574362184748499 -0.034674253798329467 0 0.010410039455450035 -0.037535484803656302 0 0.012604914841558986 -0.036692612985763713 0 0.0080522991772726416 -0.037345628633074501 0 0.0080021705457391321 -0.037692115981466864 0 0.0082406390324502952 -0.037952967812958573 0 0.01325741825986901 -0.037392401224606103 0 0.013644326512913803 -0.037229563064937542 0 0.013592811094206932 -0.037499876946708664 0 0.014056805529735089 -0.03584657932308058 0 0.014413081503716549 -0.034826858833537942 0 0.015574362184748499 -0.034674253798329467 0 0.0080021705457391321 -0.037692115981466864 0 0.0082406390324502952 -0.037952967812958573 0 0.0078917650219159207 -0.038001135934353995 0 0.012986869458015585 -0.037028922245154097 0 0.013463508369253932 -0.036543778545037139 0 0.013137201333455362 -0.035474425547120325 0 0.013463508369253932 -0.036543778545037139 0 0.013786860553532367 -0.035327663808684302 0 0.013137201333455362 -0.035474425547120325 0 0.013463508369253932 -0.036543778545037139 0 0.014056805529735089 -0.03584657932308058 0 0.013786860553532367 -0.035327663808684302 0 0.013644326512913803 -0.037229563064937542 0 0.013463508369253932 -0.036543778545037139 0 0.014056805529735089 -0.03584657932308058 0 0.014056805529735089 -0.03584657932308058 0 0.013786860553532367 -0.035327663808684302 0 0.014413081503716549 -0.034826858833537942 0 0.013786860553532367 -0.035327663808684302 0 0.013137201333455362 -0.035474425547120325 0 0.013991464298532154 -0.034214628355936041 0 0.012678787381064616 -0.034090806975136292 0 0.013137201333455362 -0.035474425547120325 0 0.013991464298532154 -0.034214628355936041 0 0.013991464298532154 -0.034214628355936041 0 0.014793246850721678 -0.03418021768511928 0 0.01516891996331457 -0.033160893814115501 0 0.013786860553532367 -0.035327663808684302 0 0.014413081503716549 -0.034826858833537942 0 0.013991464298532154 -0.034214628355936041 0 0.014413081503716549 -0.034826858833537942 0 0.013991464298532154 -0.034214628355936041 0 0.014793246850721678 -0.03418021768511928 0 0.013991464298532154 -0.034214628355936041 0 0.01516891996331457 -0.033160893814115501 0 0.013703400714865119 -0.032458133284397839 0 0.012678787381064616 -0.034090806975136292 0 0.013991464298532154 -0.034214628355936041 0 0.013703400714865119 -0.032458133284397839 0 0.012604914841558986 -0.036692612985763713 0 0.012312809835052488 -0.035312561189027543 0 0.015574362184748499 -0.034674253798329467 0 0.01516891996331457 -0.033160893814115501 0 0.016248550321781744 -0.03199628322886082 0 0.0082406390324502952 -0.037952967812958573 0 0.0078917650219159207 -0.038001135934353995 0 0.0081499375485419492 -0.038592751855705286 0 0.015574362184748499 -0.034674253798329467 0 0.014793246850721678 -0.03418021768511928 0 0.01516891996331457 -0.033160893814115501 0 0.014413081503716549 -0.034826858833537942 0 0.015574362184748499 -0.034674253798329467 0 0.014793246850721678 -0.03418021768511928 0 0.0076552210060526022 -0.038313618063097743 0 0.0078917650219159207 -0.038001135934353995 0 0.0081499375485419492 -0.038592751855705286 0 0.0076552210060526022 -0.038313618063097743 0 0.0078917650219159207 -0.038001135934353995 0 0.0075199524540947582 -0.037903416389694668 0 0.0076552210060526022 -0.038313618063097743 0 0.0075199524540947582 -0.037903416389694668 0 0.0070937877105383424 -0.038307116067395133 0 0.0080021705457391321 -0.037692115981466864 0 0.0078917650219159207 -0.038001135934353995 0 0.0078015871401956273 -0.037696295245554554 0 0.0078917650219159207 -0.038001135934353995 0 0.0075199524540947582 -0.037903416389694668 0 0.0078015871401956273 -0.037696295245554554 0 0.0078179536052478699 -0.037425199442818025 0 0.0078015871401956273 -0.037696295245554554 0 0.0074125711270158923 -0.037571471191340244 0 0.0075199524540947582 -0.037903416389694668 0 0.0078015871401956273 -0.037696295245554554 0 0.0074125711270158923 -0.037571471191340244 0 0.0079406258182185014 -0.03754700308807328 0 0.0080021705457391321 -0.037692115981466864 0 0.0078015871401956273 -0.037696295245554554 0 0.0066923863621800713 -0.037426660304766074 0 0.0074125711270158923 -0.037571471191340244 0 0.0070201699348914556 -0.037757963052488311 0 0.0075199524540947582 -0.037903416389694668 0 0.0074125711270158923 -0.037571471191340244 0 0.0070201699348914556 -0.037757963052488311 0 0.0075199524540947582 -0.037903416389694668 0 0.0070201699348914556 -0.037757963052488311 0 0.0070937877105383424 -0.038307116067395133 0 0.0063706308685122408 -0.037769601962073816 0 0.0070201699348914556 -0.037757963052488311 0 0.0070937877105383424 -0.038307116067395133 0 0.0070937877105383424 -0.038307116067395133 0 0.006874267399428746 -0.039221544468633004 0 0.0075628903790663877 -0.038749407655493631 0 0.0063905434534623036 -0.038363166712141045 0 0.0070937877105383424 -0.038307116067395133 0 0.006874267399428746 -0.039221544468633004 0 0.0039782596653887819 -0.038379414634465842 0 0.0037392026365686208 -0.037311646372741508 0 0.0030855601930871238 -0.03759861665752301 0 0.006874267399428746 -0.039221544468633004 0 0.0075628903790663877 -0.038749407655493631 0 0.0080007266913081979 -0.039345436477061339 0 0.0039782596653887819 -0.038379414634465842 0 0.0024101253611064975 -0.037977858111194487 0 0.0030855601930871238 -0.03759861665752301 0 0.0044632307014649004 -0.039382790244832627 0 0.009727902669013723 -0.033792360233754509 0 0.0076552210060526022 -0.038313618063097743 0 0.0075628903790663877 -0.038749407655493631 0 0.0081499375485419492 -0.038592751855705286 0 0.0075628903790663877 -0.038749407655493631 0 0.0081499375485419492 -0.038592751855705286 0 0.0080007266913081979 -0.039345436477061339 0 0.0076552210060526022 -0.038313618063097743 0 0.0070937877105383424 -0.038307116067395133 0 0.0075628903790663877 -0.038749407655493631 0 0.016248550321781744 -0.03199628322886082 0 0.014852779826843189 -0.030891433383521464 0 0.016729361298858554 -0.029586932803792581 0 0.01516891996331457 -0.033160893814115501 0 0.016248550321781744 -0.03199628322886082 0 0.014852779826843189 -0.030891433383521464 0 0.012312809835052488 -0.035312561189027543 0 0.009727902669013723 -0.033792360233754509 0 0.01516891996331457 -0.033160893814115501 0 0.013703400714865119 -0.032458133284397839 0 0.014852779826843189 -0.030891433383521464 0 0.013703400714865119 -0.032458133284397839 0 0.014852779826843189 -0.030891433383521464 0 0.013429867227607412 -0.030535379672911575 0 0.014852779826843189 -0.030891433383521464 0 0.013695857980944495 -0.028998719012785522 0 0.013429867227607412 -0.030535379672911575 0 0.015691589724909381 -0.02805921009231278 0 0.009727902669013723 -0.033792360233754509 0 0.013695857980944495 -0.028998719012785522 0 0.012798932379227261 -0.028768937241328885 0 0.013135539933554591 -0.029077433806156024 0 0.014852779826843189 -0.030891433383521464 0 0.013695857980944495 -0.028998719012785522 0 0.016729361298858554 -0.029586932803792581 0 0.0073252052850072431 -0.029882937690486368 0 0.0040087807393968476 -0.034064360504187458 0 0.00082118716842086701 -0.03114986867649255 0 0.00042044581874439008 -0.031265521269814113 0 0.0003422090918577155 -0.030931694931365165 0 0.013135539933554591 -0.029077433806156024 0 0.013283036094718889 -0.029282779769678979 0 0.012740509733393452 -0.029166022423814074 0 0.012798932379227261 -0.028768937241328885 0 0.013135539933554591 -0.029077433806156024 0 0.012740509733393452 -0.029166022423814074 0 0.013695857980944495 -0.028998719012785522 0 0.013283036094718889 -0.029282779769678979 0 0.013541790897435133 -0.029053279689296427 0 0.013695857980944495 -0.028998719012785522 0 0.013135539933554591 -0.029077433806156024 0 0.013283036094718889 -0.029282779769678979 0 0.0073252052850072431 -0.029882937690486368 0 0.0073206096447625676 -0.030600015915965756 0 0.013283036094718889 -0.029282779769678979 0 0.013541790897435133 -0.029053279689296427 0 0.013590031841076187 -0.02958879000866373 0 0.00082118716842086701 -0.03114986867649255 0 0.0014017219259386232 -0.03138348236764496 0 0.00086481958420019241 -0.031601651059806883 0 0.00082118716842086701 -0.03114986867649255 0 0.00042044581874439008 -0.031265521269814113 0 0.00048137581811712296 -0.03157458961746161 0 0.00082118716842086701 -0.03114986867649255 0 0.00048137581811712296 -0.03157458961746161 0 0.00086481958420019241 -0.031601651059806883 0 0.00042044581874439008 -0.031265521269814113 0 0.00010613410287923447 -0.03154110869913785 0 0.00048137581811712296 -0.03157458961746161 0 0.00042044581874439008 -0.031265521269814113 0 0.0003422090918577155 -0.030931694931365165 0 0.00010613410287923447 -0.03154110869913785 0 0.0040087807393968476 -0.034064360504187458 0 0.0011674775111890868 -0.033579978914911109 0 0.002456616563466925 -0.037258042276567364 0 0.0031765196394630741 -0.036835964174510787 0 0.0027658637577538934 -0.035609740209815208 0 0.0038303628943075836 -0.036386385000591215 0 0.0031765196394630741 -0.036835964174510787 0 0.0027658637577538934 -0.035609740209815208 0 0.0039782596653887819 -0.038379414634465842 0 0.0037392026365686208 -0.037311646372741508 0 0.0045123351011288546 -0.037260406252050716 0 0.0038303628943075836 -0.036386385000591215 0 0.0037392026365686208 -0.037311646372741508 0 0.0031765196394630741 -0.036835964174510787 0 0.0038303628943075836 -0.036386385000591215 0 0.0037392026365686208 -0.037311646372741508 0 0.0045123351011288546 -0.037260406252050716 0 0.0037392026365686208 -0.037311646372741508 0 0.0030855601930871238 -0.03759861665752301 0 0.0031765196394630741 -0.036835964174510787 0 0.0030855601930871238 -0.03759861665752301 0 0.002456616563466925 -0.037258042276567364 0 0.0031765196394630741 -0.036835964174510787 0 0.009727902669013723 -0.033792360233754509 0 0.0040087807393968476 -0.034064360504187458 0 0.0035395753686380351 -0.03652108843772281 0 0.0040087807393968476 -0.034064360504187458 0 0.0024101253611064975 -0.037977858111194487 0 0.0030855601930871238 -0.03759861665752301 0 0.002569049724264273 -0.037283748106475792 0 0.016196274375926561 -0.027213690917748546 0 0.015460643802758885 -0.027914470479274839 0 0.016331702957814997 -0.028446598969133798 0 0.016196274375926561 -0.027213690917748546 0 0.014980025149598584 -0.027177406568669089 0 0.015460643802758885 -0.027914470479274839 0 0.014980025149598584 -0.027177406568669089 0 0.015460643802758885 -0.027914470479274839 0 0.014671346774826914 -0.028327799452240822 0 0.015460643802758885 -0.027914470479274839 0 0.014671346774826914 -0.028327799452240822 0 0.015556611451134014 -0.028491411755255592 0 0.014671346774826914 -0.028327799452240822 0 0.014021796775313261 -0.027131833954314465 0 0.013289674091554514 -0.02878512222950547 0 0.014980025149598584 -0.027177406568669089 0 0.014671346774826914 -0.028327799452240822 0 0.014021796775313261 -0.027131833954314465 0 0.013703400714865119 -0.032458133284397839 0 0.011470352134882627 -0.032328270759751497 0 0.013429867227607412 -0.030535379672911575 0 0.012817351239565273 -0.029882187759103913 0 0.01318436332082378 -0.028877367903936982 0 0.011470352134882627 -0.032328270759751497 0 0.013429867227607412 -0.030535379672911575 0 0.013289674091554514 -0.02878512222950547 0 0.013695857980944495 -0.028998719012785522 0 0.013429867227607412 -0.030535379672911575 0 0.013289674091554514 -0.02878512222950547 0 0.013289674091554514 -0.02878512222950547 0 0.013541790897435133 -0.029053279689296427 0 0.014109224975283313 -0.029055171624552234 0 0.013695857980944495 -0.028998719012785522 0 0.013289674091554514 -0.02878512222950547 0 0.013541790897435133 -0.029053279689296427 0 0.013541790897435133 -0.029053279689296427 0 0.013590031841076187 -0.02958879000866373 0 0.014109224975283313 -0.029055171624552234 0 0.014109224975283313 -0.029055171624552234 0 0.015340887519764198 -0.029058150281324763 0 0.014532628509322939 -0.030165693242148621 0 0.013590031841076187 -0.02958879000866373 0 0.014109224975283313 -0.029055171624552234 0 0.014532628509322939 -0.030165693242148621 0 0.014671346774826914 -0.028327799452240822 0 0.014109224975283313 -0.029055171624552234 0 0.015340887519764198 -0.029058150281324763 0 0.014671346774826914 -0.028327799452240822 0 0.013289674091554514 -0.02878512222950547 0 0.014109224975283313 -0.029055171624552234 0 0.014671346774826914 -0.028327799452240822 0 0.015556611451134014 -0.028491411755255592 0 0.015340887519764198 -0.029058150281324763 0 0.015556611451134014 -0.028491411755255592 0 0.015340887519764198 -0.029058150281324763 0 0.016331702957814997 -0.028446598969133798 0 0.016311699667046663 -0.028616032245346833 0 0.0095603919097866502 -0.029703105693921525 0 0.016331702957814997 -0.028446598969133798 0 0.016185279997499982 -0.029146642563931121 0 0.017116356117923785 -0.028715490506880284 0 0.015340887519764198 -0.029058150281324763 0 0.016331702957814997 -0.028446598969133798 0 0.016185279997499982 -0.029146642563931121 0 0.015460643802758885 -0.027914470479274839 0 0.015556611451134014 -0.028491411755255592 0 0.016331702957814997 -0.028446598969133798 0 0.01605443669243397 -0.029838747439519295 0 0.01638905661088208 -0.029711209659336171 0 0.016612992061126045 -0.030057136619804331 0 0.0076097370483924993 -0.027629769623384641 0 0.0079240411278697614 -0.028490842157843897 0 0.0091549502877306538 -0.028365327325843629 0 0.011719050359113874 -0.028612058318626357 0 0.014373719242340899 -0.028426815509654531 0 0.016185279997499982 -0.029146642563931121 0 0.017215128788834116 -0.02876862384799846 0 0.017140937319683115 -0.028802064377983261 0 0.01618123654881751 -0.028930551027755373 0 0.01699841145104972 -0.029499885969697052 0 0.01605443669243397 -0.029838747439519295 0 0.016185279997499982 -0.029146642563931121 0 0.01638905661088208 -0.029711209659336171 0 0.015340887519764198 -0.029058150281324763 0 0.016185279997499982 -0.029146642563931121 0 0.015130630840613364 -0.029502087329845498 0 0.01605443669243397 -0.029838747439519295 0 0.016185279997499982 -0.029146642563931121 0 0.015130630840613364 -0.029502087329845498 0 0.011719050359113874 -0.028612058318626357 0 0.0095603919097866502 -0.029703105693921525 0 0.0076097370483924993 -0.027629769623384641 0 0.0065413801471280895 -0.027844327443483505 0 0.0069703422857110347 -0.028702902029800248 0 0.0076097370483924993 -0.027629769623384641 0 0.0065413801471280895 -0.027844327443483505 0 0.0061552741269061502 -0.026862207818670814 0 0.0065413801471280895 -0.027844327443483505 0 0.0061552741269061502 -0.026862207818670814 0 0.0052690695392360676 -0.028500827732714829 0 0.0095603919097866502 -0.029703105693921525 0 0.0025298927689036319 -0.030600184358375249 0 0.0073206096447625676 -0.030600015915965756 0 0.0095603919097866502 -0.029703105693921525 0 0.0014017219259386232 -0.03138348236764496 0 0.0020412055226805251 -0.031677381852866317 0 0.0011484828873892315 -0.031909165198988371 0 0.0020412055226805251 -0.031677381852866317 0 0.0011484828873892315 -0.031909165198988371 0 0.0015136444597169264 -0.032370202018850464 0 0.0011484828873892315 -0.031909165198988371 0 0.0015136444597169264 -0.032370202018850464 0 0.00084064154905354952 -0.032419933346363353 0 0.0015136444597169264 -0.032370202018850464 0 0.0010088818907171464 -0.033039123065044564 0 0.00084064154905354952 -0.032419933346363353 0 0.0025298927689036319 -0.030600184358375249 0 0.0028955651370295744 -0.031267839833653874 0 0.0052690695392360676 -0.028500827732714829 0 0.0043744574106883852 -0.030229464009414196 0 0.0062584037173875765 -0.029752020005174205 0 0.0028955651370295744 -0.031267839833653874 0 0.0062084620831909668 -0.029552760630570576 0 0.0065413801471280895 -0.027844327443483505 0 0.0052690695392360676 -0.028500827732714829 0 0.0069703422857110347 -0.028702902029800248 0 0.0052690695392360676 -0.028500827732714829 0 0.0062584037173875765 -0.029752020005174205 0 0.0069703422857110347 -0.028702902029800248 0 0.0062584037173875765 -0.029752020005174205 0 0.0069703422857110347 -0.028702902029800248 0 0.0080143335229609525 -0.029251409298111465 0 0.0056487762376960446 -0.029690569894941388 0 0.0080143335229609525 -0.029251409298111465 0 0.0075067998745441166 -0.030513745763662864 0 0.0062084620831909668 -0.029552760630570576 0 0.0077980940130654812 -0.029329302056497104 0 0.0080143335229609525 -0.029251409298111465 0 0.0088234944311975112 -0.030115059840874508 0 0.0075067998745441166 -0.030513745763662864 0 0.0080143335229609525 -0.029251409298111465 0 0.0079240411278697614 -0.028490842157843897 0 0.0091549502877306538 -0.028365327325843629 0 0.0069703422857110347 -0.028702902029800248 0 0.0080143335229609525 -0.029251409298111465 0 0.0079240411278697614 -0.028490842157843897 0 0.0076097370483924993 -0.027629769623384641 0 0.0069703422857110347 -0.028702902029800248 0 0.0079240411278697614 -0.028490842157843897 0 0.00023325378959779288 -0.031900530924101368 0 0.00020484725984353628 -0.032187441782571956 0 -0.00011945655599491808 -0.032196661667382713 0 -0.00017948638371996205 -0.033967498983947242 0 0.00023858430030368393 -0.033870437446256521 0 0.00024892722080452069 -0.034907893319202458 0 0.00023858430030368393 -0.033870437446256521 0 0.00024892722080452069 -0.034907893319202458 0 0.00056187301088038097 -0.03414976487972142 0 0.0010541342152873773 -0.033278227949582261 0 0.0022517357566828869 -0.035145291816922289 0 0.0038303628943075836 -0.036386385000591215 0 0.0040349726626144897 -0.035089094017658154 0 0.0027658637577538934 -0.035609740209815208 0 0.0031086642483404213 -0.033909659366324403 0 0.0040349726626144897 -0.035089094017658154 0 0.0027658637577538934 -0.035609740209815208 0 0.00023325378959779288 -0.031900530924101368 0 -0.00011945655599491808 -0.032196661667382713 0 0.00010613410287923447 -0.03154110869913785 0 0.0010541342152873773 -0.033278227949582261 0 0.0011674775111890868 -0.033579978914911109 0 0.00023325378959779288 -0.031900530924101368 0 0.00010613410287923447 -0.03154110869913785 0 0.00048137581811712296 -0.03157458961746161 0 0.00048137581811712296 -0.03157458961746161 0 0.00086481958420019241 -0.031601651059806883 0 0.00054710137656029665 -0.031991970202954648 0 0.00023325378959779288 -0.031900530924101368 0 0.00048137581811712296 -0.03157458961746161 0 0.00054710137656029665 -0.031991970202954648 0 0.0011484828873892315 -0.031909165198988371 0 0.00086481958420019241 -0.031601651059806883 0 0.00054710137656029665 -0.031991970202954648 0 0.0014017219259386232 -0.03138348236764496 0 0.0011484828873892315 -0.031909165198988371 0 0.00086481958420019241 -0.031601651059806883 0 0.0011484828873892315 -0.031909165198988371 0 0.00054710137656029665 -0.031991970202954648 0 0.00084064154905354952 -0.032419933346363353 0 0.00020484725984353628 -0.032187441782571956 0 0.00054710137656029665 -0.031991970202954648 0 0.00038682752757273009 -0.03241220890004573 0 0.00023325378959779288 -0.031900530924101368 0 0.00020484725984353628 -0.032187441782571956 0 0.00054710137656029665 -0.031991970202954648 0 0.00054710137656029665 -0.031991970202954648 0 0.00038682752757273009 -0.03241220890004573 0 0.00084064154905354952 -0.032419933346363353 0 0.00020484725984353628 -0.032187441782571956 0 0.00038682752757273009 -0.03241220890004573 0 5.7550928285448722e-05 -0.032488578515163499 0 0.00038682752757273009 -0.03241220890004573 0 0.00013545925063400605 -0.032817863154991439 0 5.7550928285448722e-05 -0.032488578515163499 0 0.00038682752757273009 -0.03241220890004573 0 0.00084064154905354952 -0.032419933346363353 0 0.00053043205379052559 -0.032795161523628012 0 0.0010088818907171464 -0.033039123065044564 0 0.00053043205379052559 -0.032795161523628012 0 0.00018711999499546644 -0.032990429929766252 0 0.0010088818907171464 -0.033039123065044564 0 0.00084064154905354952 -0.032419933346363353 0 0.00053043205379052559 -0.032795161523628012 0 0.00038682752757273009 -0.03241220890004573 0 0.00053043205379052559 -0.032795161523628012 0 0.00013545925063400605 -0.032817863154991439 0 0.00013545925063400605 -0.032817863154991439 0 6.8214598882394584e-05 -0.032784269368693698 0 0.00018711999499546644 -0.032990429929766252 0 0.00053043205379052559 -0.032795161523628012 0 0.00013545925063400605 -0.032817863154991439 0 0.00018711999499546644 -0.032990429929766252 0 6.8214598882394584e-05 -0.032784269368693698 0 0.00016777659599584278 -0.032931495951604238 0 0.00017625639370435269 -0.032636833933125851 0 6.8214598882394584e-05 -0.032784269368693698 0 4.3983012433856674e-05 -0.032973482805113391 0 0.00016777659599584278 -0.032931495951604238 0 4.3983012433856674e-05 -0.032973482805113391 0 6.2943846479153803e-05 -0.033203807793259113 0 0.00016777659599584278 -0.032931495951604238 0 0.00013545925063400605 -0.032817863154991439 0 4.3983012433856674e-05 -0.032973482805113391 0 -7.1409598995205264e-05 -0.033266465742586383 0 0.00013545925063400605 -0.032817863154991439 0 6.8214598882394584e-05 -0.032784269368693698 0 4.3983012433856674e-05 -0.032973482805113391 0 0.00014671358354180207 -0.032920894232337163 0 -4.3467837202837874e-05 -0.032765736007737502 0 -7.1409598995205264e-05 -0.033266465742586383 0 6.2943846479153803e-05 -0.033203807793259113 0 1.5732637716786033e-05 -0.033520625138262025 0 4.3983012433856674e-05 -0.032973482805113391 0 -7.1409598995205264e-05 -0.033266465742586383 0 6.2943846479153803e-05 -0.033203807793259113 0 -1.1255647897214707e-05 -0.033645608072366009 0 -7.1409598995205264e-05 -0.033266465742586383 0 1.5732637716786033e-05 -0.033520625138262025 0 0.0010541342152873773 -0.033278227949582261 0 -4.3467837202837874e-05 -0.032765736007737502 0 0.00020484725984353628 -0.032187441782571956 0 -0.00011945655599491808 -0.032196661667382713 0 5.7550928285448722e-05 -0.032488578515163499 0 -0.00017948638371996205 -0.033967498983947242 0 0.00023858430030368393 -0.033870437446256521 0 1.5732637716786033e-05 -0.033520625138262025 0 0.0010541342152873773 -0.033278227949582261 0 0.00048645697396234043 -0.03372524471692237 0 0.00023858430030368393 -0.033870437446256521 0 1.5732637716786033e-05 -0.033520625138262025 0 0.00021676439160820375 -0.033298051498382837 0 6.2943846479153803e-05 -0.033203807793259113 0 1.5732637716786033e-05 -0.033520625138262025 0 0.00021676439160820375 -0.033298051498382837 0 0.00023858430030368393 -0.033870437446256521 0 0.00021676439160820375 -0.033298051498382837 0 0.00051412708196036565 -0.033448439212469518 0 0.00021676439160820375 -0.033298051498382837 0 0.00039371383043834744 -0.032954124716325875 0 0.00051412708196036565 -0.033448439212469518 0 0.00021676439160820375 -0.033298051498382837 0 0.00016777659599584278 -0.032931495951604238 0 0.00039371383043834744 -0.032954124716325875 0 6.2943846479153803e-05 -0.033203807793259113 0 0.00021676439160820375 -0.033298051498382837 0 0.00016777659599584278 -0.032931495951604238 0 0.00016777659599584278 -0.032931495951604238 0 0.00029321322291546328 -0.03277845066067829 0 0.00039371383043834744 -0.032954124716325875 0 0.00016777659599584278 -0.032931495951604238 0 0.00029321322291546328 -0.03277845066067829 0 0.00017625639370435269 -0.032636833933125851 0 0.00029321322291546328 -0.03277845066067829 0 0.00039371383043834744 -0.032954124716325875 0 0.00043989677144133058 -0.032598004846812328 0 0.00039371383043834744 -0.032954124716325875 0 0.00068727567222004449 -0.032921369486201564 0 0.00043989677144133058 -0.032598004846812328 0 0.00068727567222004449 -0.032921369486201564 0 0.00099404902253244802 -0.033513971348874329 0 0.00051412708196036565 -0.033448439212469518 0 0.00039371383043834744 -0.032954124716325875 0 0.00068727567222004449 -0.032921369486201564 0 0.00051412708196036565 -0.033448439212469518 0 0.0011213222720556563 -0.032831077155281656 0 0.00099404902253244802 -0.033513971348874329 0 0.0017119496359460854 -0.03316327759734633 0 0.00068727567222004449 -0.032921369486201564 0 0.0011213222720556563 -0.032831077155281656 0 0.00099404902253244802 -0.033513971348874329 0 0.00099404902253244802 -0.033513971348874329 0 0.00097497728411057233 -0.034436845826818281 0 0.0014129975131911981 -0.034260656740175276 0 0.00099404902253244802 -0.033513971348874329 0 0.00056187301088038097 -0.03414976487972142 0 0.00097497728411057233 -0.034436845826818281 0 0.00099404902253244802 -0.033513971348874329 0 0.00051412708196036565 -0.033448439212469518 0 0.00056187301088038097 -0.03414976487972142 0 0.00023858430030368393 -0.033870437446256521 0 0.00051412708196036565 -0.033448439212469518 0 0.00056187301088038097 -0.03414976487972142 0 0.00056187301088038097 -0.03414976487972142 0 0.00097497728411057233 -0.034436845826818281 0 0.00076729924978849516 -0.035107972715885061 0 0.00097497728411057233 -0.034436845826818281 0 0.0011858840641443603 -0.035155304783510727 0 0.0014129975131911981 -0.034260656740175276 0 0.0012165367755610282 -0.035296880112484941 0 0.0012737485321162741 -0.035765820732523067 0 0.0011858840641443603 -0.035155304783510727 0 0.00076729924978849516 -0.035107972715885061 0 0.0012551706737938398 -0.035701540274555736 0 0.00097497728411057233 -0.034436845826818281 0 0.0011858840641443603 -0.035155304783510727 0 0.00076729924978849516 -0.035107972715885061 0 0.00024892722080452069 -0.034907893319202458 0 0.00076729924978849516 -0.035107972715885061 0 0.0007438565324761234 -0.035683776593388165 0 0.0022517357566828869 -0.035145291816922289 0 0.0028126425913325972 -0.03587093485375601 0 0.00024892722080452069 -0.034907893319202458 0 0.00056187301088038097 -0.03414976487972142 0 0.00076729924978849516 -0.035107972715885061 0 0.0020998858174176341 -0.035436770038155069 0 0.0023741661974888721 -0.036415879897972916 0 0.0018917552624569925 -0.035952187731800297 0 0.0020998858174176341 -0.035436770038155069 0 0.0016617389165221568 -0.035007749612296253 0 0.0018917552624569925 -0.035952187731800297 0 0.0011858840641443603 -0.035155304783510727 0 0.0016617389165221568 -0.035007749612296253 0 0.0018917552624569925 -0.035952187731800297 0 0.0016617389165221568 -0.035007749612296253 0 0.0014129975131911981 -0.034260656740175276 0 0.0020635314275871492 -0.034344908849628854 0 0.0011858840641443603 -0.035155304783510727 0 0.0016617389165221568 -0.035007749612296253 0 0.0014129975131911981 -0.034260656740175276 0 0.0020998858174176341 -0.035436770038155069 0 0.0020635314275871492 -0.034344908849628854 0 0.0026338474290675748 -0.035177351394202971 0 0.0020998858174176341 -0.035436770038155069 0 0.0016617389165221568 -0.035007749612296253 0 0.0020635314275871492 -0.034344908849628854 0 0.0020635314275871492 -0.034344908849628854 0 0.0017119496359460854 -0.03316327759734633 0 0.0025861047058075444 -0.033160655484472112 0 0.00099404902253244802 -0.033513971348874329 0 0.0014129975131911981 -0.034260656740175276 0 0.0017119496359460854 -0.03316327759734633 0 0.0014129975131911981 -0.034260656740175276 0 0.0020635314275871492 -0.034344908849628854 0 0.0017119496359460854 -0.03316327759734633 0 0.0017119496359460854 -0.03316327759734633 0 0.0025861047058075444 -0.033160655484472112 0 0.0025493608615876876 -0.032045934623891444 0 0.0025861047058075444 -0.033160655484472112 0 0.0034997876138323767 -0.033547813362226335 0 0.0033229056999909928 -0.032135678156723142 0 0.0034997876138323767 -0.033547813362226335 0 0.0039043026748697995 -0.032078112078961427 0 0.0033229056999909928 -0.032135678156723142 0 0.0034997876138323767 -0.033547813362226335 0 0.002660335859917008 -0.034045746880491674 0 0.0026338474290675748 -0.035177351394202971 0 0.0020635314275871492 -0.034344908849628854 0 0.0025861047058075444 -0.033160655484472112 0 0.002660335859917008 -0.034045746880491674 0 0.0025861047058075444 -0.033160655484472112 0 0.0034997876138323767 -0.033547813362226335 0 0.002660335859917008 -0.034045746880491674 0 0.0041366243499749026 -0.031490420640154858 0 0.0041176679699659394 -0.032473816728168507 0 0.0041183500789481724 -0.031803448106165776 0 0.0057935680820307553 -0.032803506389260405 0 0.0048077513411776901 -0.033191489716276813 0 0.0051144260334113354 -0.03378501110906864 0 0.0041176679699659394 -0.032473816728168507 0 0.0039043026748697995 -0.032078112078961427 0 0.0041183500789481724 -0.031803448106165776 0 0.0034997876138323767 -0.033547813362226335 0 0.0041176679699659394 -0.032473816728168507 0 0.0039043026748697995 -0.032078112078961427 0 0.0034997876138323767 -0.033547813362226335 0 0.0048077513411776901 -0.033191489716276813 0 0.0051144260334113354 -0.03378501110906864 0 0.0034997876138323767 -0.033547813362226335 0 0.0051144260334113354 -0.03378501110906864 0 0.004186167718156583 -0.035171949200483242 0 0.0032531618053953945 -0.033622159969612132 0 0.0049712830830703769 -0.032505433750392325 0 0.00061358168995570615 -0.038331679481883374 0 -0.00019287206103581092 -0.037693117227958414 0 0.00089665444557378965 -0.037094791915284558 0 0.0021055119339219311 -0.036590031796747455 0 0.0024555047262661534 -0.036632718226359356 0 -0.00098853411177405237 -0.038227861473634404 0 -0.00063678660514880658 -0.03864951591208448 0 -0.0003712024773994436 -0.038199306516399023 0 -0.00063678660514880658 -0.03864951591208448 0 -0.0003712024773994436 -0.038199306516399023 0 0.00061358168995570615 -0.038331679481883374 0 -0.0003712024773994436 -0.038199306516399023 0 0.00061358168995570615 -0.038331679481883374 0 -0.00019287206103581092 -0.037693117227958414 0 -0.00083492327464508413 -0.037911673970876032 0 -0.0003712024773994436 -0.038199306516399023 0 -0.00019287206103581092 -0.037693117227958414 0 0.0020635314275871492 -0.034344908849628854 0 0.002660335859917008 -0.034045746880491674 0 0.0026338474290675748 -0.035177351394202971 0 0.0034997876138323767 -0.033547813362226335 0 0.004186167718156583 -0.035171949200483242 0 0.0026338474290675748 -0.035177351394202971 0 0.0024555047262661534 -0.036632718226359356 0 0.0024773809292985131 -0.036973184859402104 0 0.004186167718156583 -0.035171949200483242 0 0.0026338474290675748 -0.035177351394202971 0 0.0024998546838527927 -0.036984318135019706 0 0.0026338474290675748 -0.035177351394202971 0 0.0023741661974888721 -0.036415879897972916 0 0.0024998546838527927 -0.036984318135019706 0 0.0020998858174176341 -0.035436770038155069 0 0.0026338474290675748 -0.035177351394202971 0 0.0023741661974888721 -0.036415879897972916 0 0.0023741661974888721 -0.036415879897972916 0 0.0024998546838527927 -0.036984318135019706 0 0.0025399943025489302 -0.036955610876577491 0 0.0024998546838527927 -0.036984318135019706 0 0.0019870586649595057 -0.036966458100853389 0 0.00089665444557378965 -0.037094791915284558 0 0.0024998546838527927 -0.036984318135019706 0 0.0019870586649595057 -0.036966458100853389 0 0.0025399943025489302 -0.036955610876577491 0 0.0019870586649595057 -0.036966458100853389 0 0.0025399943025489302 -0.036955610876577491 0 0.0026165207627818518 -0.037058385026495042 0 0.00061358168995570615 -0.038331679481883374 0 0.0024998546838527927 -0.036984318135019706 0 0.00089665444557378965 -0.037094791915284558 0 -0.0009712635931194059 -0.037499604039347913 0 -0.00019287206103581092 -0.037693117227958414 0 -0.00025125281637944412 -0.037106458650271852 0 -0.00019287206103581092 -0.037693117227958414 0 0.00089665444557378965 -0.037094791915284558 0 -0.00025125281637944412 -0.037106458650271852 0 0.0019870586649595057 -0.036966458100853389 0 0.00089665444557378965 -0.037094791915284558 0 0.00070910852852926719 -0.036826041008731845 0 0.00089665444557378965 -0.037094791915284558 0 -0.00025125281637944412 -0.037106458650271852 0 0.00070910852852926719 -0.036826041008731845 0 -0.00025125281637944412 -0.037106458650271852 0 -0.00049247724521064493 -0.036613776281393715 0 0.00070910852852926719 -0.036826041008731845 0 -0.00049247724521064493 -0.036613776281393715 0 0.00070910852852926719 -0.036826041008731845 0 0.00042935366584113493 -0.03634870617019114 0 0.00070910852852926719 -0.036826041008731845 0 0.00042935366584113493 -0.03634870617019114 0 0.0021567478728912737 -0.036712217749064399 0 0.0006248254099289523 -0.035448065720547262 0 0.00042935366584113493 -0.03634870617019114 0 0.0021567478728912737 -0.036712217749064399 0 -0.0011573978426388258 -0.036237879965719082 0 -0.00049247724521064493 -0.036613776281393715 0 -0.00047518924242177785 -0.036096569943149137 0 -0.00049247724521064493 -0.036613776281393715 0 0.00042935366584113493 -0.03634870617019114 0 -0.00047518924242177785 -0.036096569943149137 0 5.4752689817360426e-05 -0.035767072591118984 0 0.00042935366584113493 -0.03634870617019114 0 -0.00047518924242177785 -0.036096569943149137 0 0.0025399943025489302 -0.036955610876577491 0 0.0026165207627818518 -0.037058385026495042 0 0.0028262626662859634 -0.037236880100143588 0 0.0026165207627818518 -0.037058385026495042 0 0.0030877064906054755 -0.037162012836354799 0 0.0028262626662859634 -0.037236880100143588 0 0.0019870586649595057 -0.036966458100853389 0 0.0026165207627818518 -0.037058385026495042 0 0.0021567478728912737 -0.036712217749064399 0 0.0019870586649595057 -0.036966458100853389 0 0.00070910852852926719 -0.036826041008731845 0 0.0021567478728912737 -0.036712217749064399 0 0.0026165207627818518 -0.037058385026495042 0 0.0021567478728912737 -0.036712217749064399 0 0.0030877064906054755 -0.037162012836354799 0 0.0023854226324291372 -0.036613996320442738 0 0.0021567478728912737 -0.036712217749064399 0 0.0030877064906054755 -0.037162012836354799 0 0.0030877064906054755 -0.037162012836354799 0 0.0028262626662859634 -0.037236880100143588 0 0.0034241566425912695 -0.037614948641288566 0 0.0037968946293382311 -0.03731233296272065 0 0.0030877064906054755 -0.037162012836354799 0 0.0034241566425912695 -0.037614948641288566 0 0.0028262626662859634 -0.037236880100143588 0 0.0022657920446304677 -0.03733358891973735 0 0.0021991644629397933 -0.036951204558603477 0 0.0028262626662859634 -0.037236880100143588 0 0.0022657920446304677 -0.03733358891973735 0 0.0034241566425912695 -0.037614948641288566 0 0.0032660626536405567 -0.037898233157661429 0 0.0032932896004105785 -0.037634377998524135 0 0.0042069727068010229 -0.03850576049700169 0 0.0042493799065349653 -0.037906793690512204 0 0.0044651280408877373 -0.038369388045659494 0 0.0042493799065349653 -0.037906793690512204 0 0.0044004374893070221 -0.037595978058650982 0 0.0046748871313895754 -0.037906742286904251 0 0.0042069727068010229 -0.03850576049700169 0 0.0042493799065349653 -0.037906793690512204 0 0.0034241566425912695 -0.037614948641288566 0 0.0042493799065349653 -0.037906793690512204 0 0.0034241566425912695 -0.037614948641288566 0 0.0044004374893070221 -0.037595978058650982 0 0.0037968946293382311 -0.03731233296272065 0 0.0034241566425912695 -0.037614948641288566 0 0.0044004374893070221 -0.037595978058650982 0 0.0053251932024656638 -0.037663248516008933 0 0.0059980412628479829 -0.038705295009855194 0 0.0056885920384959513 -0.038933061474568556 0 0.0059980412628479829 -0.038705295009855194 0 0.0056885920384959513 -0.038933061474568556 0 0.0056461681423428355 -0.038780242490770021 0 0.0042493799065349653 -0.037906793690512204 0 0.0046748871313895754 -0.037906742286904251 0 0.0044651280408877373 -0.038369388045659494 0 0.0063905434534623036 -0.038363166712141045 0 0.006874267399428746 -0.039221544468633004 0 0.0059980412628479829 -0.038705295009855194 0 0.006874267399428746 -0.039221544468633004 0 0.0059980412628479829 -0.038705295009855194 0 0.0056461681423428355 -0.038780242490770021 0 0.0039782596653887819 -0.038379414634465842 0 0.0049693761455155468 -0.037951652816347749 0 0.0045123351011288546 -0.037260406252050716 0 0.0044632307014649004 -0.039382790244832627 0 0.0060470549529421337 -0.038664686507764355 0 0.0039782596653887819 -0.038379414634465842 0 0.0056461681423428355 -0.038780242490770021 0 0.0049693761455155468 -0.037951652816347749 0 0.0046748871313895754 -0.037906742286904251 0 0.0044651280408877373 -0.038369388045659494 0 0.0047226480996151402 -0.039117716818067499 0 0.0056885920384959513 -0.038933061474568556 0 0.0056461681423428355 -0.038780242490770021 0 0.0058010164883974683 -0.037476704306528982 0 0.0056461681423428355 -0.038780242490770021 0 0.0049693761455155468 -0.037951652816347749 0 0.0058010164883974683 -0.037476704306528982 0 0.005410126757943611 -0.038542754125943116 0 0.0033057851537745589 -0.037471847580942574 0 0.0042069727068010229 -0.03850576049700169 0 0.0044651280408877373 -0.038369388045659494 0 0.0047226480996151402 -0.039117716818067499 0 0.0032660626536405567 -0.037898233157661429 0 0.0033057851537745589 -0.037471847580942574 0 0.0015494144139729697 -0.036923294106496501 0 0.0013074988950810443 -0.036193264915674463 0 0.0018716077025580928 -0.036573796767015276 0 0.0033057851537745589 -0.037471847580942574 0 0.0012737485321162741 -0.035765820732523067 0 0.0033057851537745589 -0.037471847580942574 0 0.0028126425913325972 -0.03587093485375601 0 0.0058010164883974683 -0.037476704306528982 0 0.0045123351011288546 -0.037260406252050716 0 0.0049223921298612305 -0.036262215709989602 0 0.0049693761455155468 -0.037951652816347749 0 0.0058010164883974683 -0.037476704306528982 0 0.0045123351011288546 -0.037260406252050716 0 0.0038303628943075836 -0.036386385000591215 0 0.0040349726626144897 -0.035089094017658154 0 0.0049223921298612305 -0.036262215709989602 0 0.0038303628943075836 -0.036386385000591215 0 0.0045123351011288546 -0.037260406252050716 0 0.0049223921298612305 -0.036262215709989602 0 0.0012806277620094821 -0.036380244600471436 0 0.0007438565324761234 -0.035683776593388165 0 0.0012551706737938398 -0.035701540274555736 0 0.00076729924978849516 -0.035107972715885061 0 0.0007438565324761234 -0.035683776593388165 0 0.0012551706737938398 -0.035701540274555736 0 0.0013074988950810443 -0.036193264915674463 0 0.0018917552624569925 -0.035952187731800297 0 0.0018716077025580928 -0.036573796767015276 0 0.0018917552624569925 -0.035952187731800297 0 0.0023337839412025346 -0.036700225697129642 0 0.0018716077025580928 -0.036573796767015276 0 0.0011858840641443603 -0.035155304783510727 0 0.0013074988950810443 -0.036193264915674463 0 0.0018917552624569925 -0.035952187731800297 0 0.0023741661974888721 -0.036415879897972916 0 0.0025399943025489302 -0.036955610876577491 0 0.0023337839412025346 -0.036700225697129642 0 0.0023741661974888721 -0.036415879897972916 0 0.0018917552624569925 -0.035952187731800297 0 0.0023337839412025346 -0.036700225697129642 0 0.0025399943025489302 -0.036955610876577491 0 0.0028262626662859634 -0.037236880100143588 0 0.0023337839412025346 -0.036700225697129642 0 0.0028262626662859634 -0.037236880100143588 0 0.0023337839412025346 -0.036700225697129642 0 0.0021991644629397933 -0.036951204558603477 0 0.0015494144139729697 -0.036923294106496501 0 0.0021991644629397933 -0.036951204558603477 0 0.0018716077025580928 -0.036573796767015276 0 0.0022657920446304677 -0.03733358891973735 0 0.0015494144139729697 -0.036923294106496501 0 0.0021991644629397933 -0.036951204558603477 0 0.0023337839412025346 -0.036700225697129642 0 0.0021991644629397933 -0.036951204558603477 0 0.0018716077025580928 -0.036573796767015276 0 0.034998886923964467 -0.027829997460152623 0 0.036427527809470402 -0.02612354690085086 0 0.035000085352480392 -0.025306353899615226 0 0.036078192539124386 -0.027389012236407651 0 0.036856850064622561 -0.027478714272051674 0 0.036035622679930795 -0.028132182567867835 0 0.036856850064622561 -0.027478714272051674 0 0.036838426106039601 -0.028488474499731742 0 0.036035622679930795 -0.028132182567867835 0 0.036035622679930795 -0.028132182567867835 0 0.034998886923964467 -0.027829997460152623 0 0.035595233561787579 -0.029040747059843382 0 0.036078192539124386 -0.027389012236407651 0 0.036035622679930795 -0.028132182567867835 0 0.034998886923964467 -0.027829997460152623 0 0.036078192539124386 -0.027389012236407651 0 0.034998886923964467 -0.027829997460152623 0 0.036427527809470402 -0.02612354690085086 0 0.036078192539124386 -0.027389012236407651 0 0.036856850064622561 -0.027478714272051674 0 0.036427527809470402 -0.02612354690085086 0 0.036856850064622561 -0.027478714272051674 0 0.037561896857961199 -0.026716431955075733 0 0.036427527809470402 -0.02612354690085086 0 0.037561896857961199 -0.026716431955075733 0 0.037350607381115779 -0.026062554796748523 0 0.036427527809470402 -0.02612354690085086 0 0.037561896857961199 -0.026716431955075733 0 0.037840880039112908 -0.026403160681239529 0 0.037350607381115779 -0.026062554796748523 0 0.037840880039112908 -0.026403160681239529 0 0.038125426574283687 -0.026482981240221394 0 0.03790301784696213 -0.025769880344277376 0 0.037561896857961199 -0.026716431955075733 0 0.037840880039112908 -0.026403160681239529 0 0.037735854583065234 -0.026558198529727971 0 0.037840880039112908 -0.026403160681239529 0 0.037735854583065234 -0.026558198529727971 0 0.038125426574283687 -0.026482981240221394 0 0.037735854583065234 -0.026558198529727971 0 0.037828657257527556 -0.026484894937136814 0 0.037621563821104487 -0.026301514679004157 0 0.037735854583065234 -0.026558198529727971 0 0.037621563821104487 -0.026301514679004157 0 0.037237006860805284 -0.02637263009121826 0 0.036856850064622561 -0.027478714272051674 0 0.037561896857961199 -0.026716431955075733 0 0.037906720720793992 -0.028181057435979522 0 0.037561896857961199 -0.026716431955075733 0 0.037735854583065234 -0.026558198529727971 0 0.037828657257527556 -0.026484894937136814 0 0.037659798049772222 -0.026883016678568822 0 0.037712292469778447 -0.026978187542554648 0 0.036856850064622561 -0.027478714272051674 0 0.036838426106039601 -0.028488474499731742 0 0.037906720720793992 -0.028181057435979522 0 0.037906720720793992 -0.028181057435979522 0 0.037465455603188827 -0.028988662239969071 0 0.038144059090564932 -0.029622250367979719 0 0.037712292469778447 -0.026978187542554648 0 0.035741230551739514 -0.030352267358918453 0 0.036838426106039601 -0.028488474499731742 0 0.037906720720793992 -0.028181057435979522 0 0.037465455603188827 -0.028988662239969071 0 0.036838426106039601 -0.028488474499731742 0 0.037465455603188827 -0.028988662239969071 0 0.036815763833827758 -0.029046641754698503 0 0.035741230551739514 -0.030352267358918453 0 0.036019226021636222 -0.030766235625140463 0 0.034720927112339636 -0.032145653934098933 0 0.035725346468078907 -0.032078240576924995 0 0.034640203749904917 -0.031655294197989479 0 0.037465455603188827 -0.028988662239969071 0 0.038144059090564932 -0.029622250367979719 0 0.037342036958818728 -0.029674730160746038 0 0.036019226021636222 -0.030766235625140463 0 0.034466697006216178 -0.034291580198391125 0 0.035741230551739514 -0.030352267358918453 0 0.034466697006216178 -0.034291580198391125 0 0.036019226021636222 -0.030766235625140463 0 0.035942435291729434 -0.03066530502181293 0 0.037465455603188827 -0.028988662239969071 0 0.037342036958818728 -0.029674730160746038 0 0.036815763833827758 -0.029046641754698503 0 0.03790451044611743 -0.026088570642589608 0 0.037621563821104487 -0.026301514679004157 0 0.037170320949437181 -0.025845109419667545 0 0.035741230551739514 -0.030352267358918453 0 0.03523412021461364 -0.029655412037643405 0 0.03450449976155634 -0.033498481433247011 0 0.034462402386050216 -0.033261387755585875 0 0.033181568744058594 -0.033586924381992553 0 0.037828657257527556 -0.026484894937136814 0 0.03790451044611743 -0.026088570642589608 0 0.037621563821104487 -0.026301514679004157 0 0.034466697006216178 -0.034291580198391125 0 0.03453584808001791 -0.035853311390889972 0 0.03303619666041456 -0.041242720926724777 0 0.032754879010495279 -0.039504157369985499 0 0.03066485424272463 -0.040410317877136184 0 0.034466697006216178 -0.034291580198391125 0 0.031746229058136427 -0.037005319072871717 0 0.035686081043133672 -0.030378190187420995 0 0.036303790936302142 -0.030138877650421655 0 0.036261932629391855 -0.03165241644356806 0 0.035817775352764411 -0.02990492351941338 0 0.035732229475254243 -0.029889185200944118 0 0.035686081043133672 -0.030378190187420995 0 0.035817775352764411 -0.02990492351941338 0 0.035686081043133672 -0.030378190187420995 0 0.036303790936302142 -0.030138877650421655 0 0.035729233016039655 -0.029582120475546057 0 0.034998748018154641 -0.029414547187839469 0 0.035904460588276274 -0.031579451007981499 0 0.035510888388721247 -0.029599358876115461 0 0.035537402040616402 -0.031479107612304068 0 0.035686081043133672 -0.030378190187420995 0 0.035353338896533831 -0.029628970190398118 0 0.035230000021350398 -0.031283446807958311 0 0.035732229475254243 -0.029889185200944118 0 0.035686081043133672 -0.030378190187420995 0 0.035353338896533831 -0.029628970190398118 0 0.037342036958818728 -0.029674730160746038 0 0.035595233561787579 -0.029040747059843382 0 0.036815763833827758 -0.029046641754698503 0 0.035782399729061914 -0.029996209318202245 0 0.035732229475254243 -0.029889185200944118 0 0.035595233561787579 -0.029040747059843382 0 0.036019226021636222 -0.030766235625140463 0 0.035675213644994819 -0.029067824970818487 0 0.035732229475254243 -0.029889185200944118 0 0.035353338896533831 -0.029628970190398118 0 0.035595233561787579 -0.029040747059843382 0 0.036838426106039601 -0.028488474499731742 0 0.036035622679930795 -0.028132182567867835 0 0.035595233561787579 -0.029040747059843382 0 0.036838426106039601 -0.028488474499731742 0 0.035595233561787579 -0.029040747059843382 0 0.036815763833827758 -0.029046641754698503 0 0.034998886923964467 -0.027829997460152623 0 0.035353338896533831 -0.029628970190398118 0 0.035595233561787579 -0.029040747059843382 0 0.035000608144148848 -0.027829449126033478 0 0.035729233016039655 -0.029582120475546057 0 0.034998748018154641 -0.029414547187839469 0 0.034988567010878838 -0.027981752087251517 0 0.035510888388721247 -0.029599358876115461 0 0.034998748018154641 -0.029414547187839469 0 0.034998106769317208 -0.034999973557661525 0 0.034780192597205717 -0.0344382877930745 0 0.034998748018154641 -0.029414547187839469 0 0.035344705514533288 -0.032731213674531134 0 0.034780192597205717 -0.0344382877930745 0 0.034998748018154641 -0.029414547187839469 0 0.035904460588276274 -0.031579451007981499 0 0.035344705514533288 -0.032731213674531134 0 0.035904460588276274 -0.031579451007981499 0 0.035344705514533288 -0.032731213674531134 0 0.03534691520322706 -0.033195523761720538 0 0.034998106769317208 -0.034999973557661525 0 0.034780192597205717 -0.0344382877930745 0 0.032283271947481228 -0.034998861603572427 0 0.034780192597205717 -0.0344382877930745 0 0.034911516864796023 -0.034316806073500003 0 0.035076230337906557 -0.033946792459694654 0 0.035344705514533288 -0.032731213674531134 0 0.034780192597205717 -0.0344382877930745 0 0.035076230337906557 -0.033946792459694654 0 0.034558222300002057 -0.034500487975068342 0 0.033376593251396122 -0.034812834060855287 0 0.033376593251396122 -0.034812834060855287 0 0.030240982623352775 -0.034999906879334831 0 0.03208991180130645 -0.03547391003078023 0 0.032283271947481228 -0.034998861603572427 0 0.030238814049940558 -0.035000539418839509 0 0.032821029335113688 -0.03529273931044502 0 0.034672227386743977 -0.034124332273610565 0 0.030244016222404389 -0.034996441813997463 0 0.034780192597205717 -0.0344382877930745 0 0.034672227386743977 -0.034124332273610565 0 0.034911516864796023 -0.034316806073500003 0 0.034780192597205717 -0.0344382877930745 0 0.03208991180130645 -0.03547391003078023 0 0.032283271947481228 -0.034998861603572427 0 0.032821029335113688 -0.03529273931044502 0 0.034672227386743977 -0.034124332273610565 0 0.034911516864796023 -0.034316806073500003 0 0.034911516864796023 -0.034316806073500003 0 0.035076230337906557 -0.033946792459694654 0 0.035046567490220643 -0.034013272473293873 0 0.034526808650215894 -0.034492947695789519 0 0.034911516864796023 -0.034316806073500003 0 0.035046567490220643 -0.034013272473293873 0 0.035046567490220643 -0.034013272473293873 0 0.034838212740222994 -0.034280299063006454 0 0.035433946599079308 -0.033541182070320474 0 0.034526808650215894 -0.034492947695789519 0 0.035046567490220643 -0.034013272473293873 0 0.034838212740222994 -0.034280299063006454 0 0.032821029335113688 -0.03529273931044502 0 0.032648699394035516 -0.037741227754380963 0 0.031242546455624513 -0.036840312440018307 0 0.032821029335113688 -0.03529273931044502 0 0.034838212740222994 -0.034280299063006454 0 0.035747414544912065 -0.033749046928465219 0 0.033131529845382743 -0.035085044688905206 0 0.034021373183071454 -0.035525183774381373 0 0.032821029335113688 -0.03529273931044502 0 0.034526808650215894 -0.034492947695789519 0 0.034911516864796023 -0.034316806073500003 0 0.032821029335113688 -0.03529273931044502 0 0.034526808650215894 -0.034492947695789519 0 0.034838212740222994 -0.034280299063006454 0 0.032648699394035516 -0.037741227754380963 0 0.032043518219316558 -0.038597976243554724 0 0.032754879010495279 -0.039504157369985499 0 0.035747414544912065 -0.033749046928465219 0 0.035433946599079308 -0.033541182070320474 0 0.036261932629391855 -0.03165241644356806 0 0.032648699394035516 -0.037741227754380963 0 0.031085798340847653 -0.038034323179954088 0 0.031242546455624513 -0.036840312440018307 0 0.034021373183071454 -0.035525183774381373 0 0.03453584808001791 -0.035853311390889972 0 0.034838212740222994 -0.034280299063006454 0 0.035747414544912065 -0.033749046928465219 0 0.035433946599079308 -0.033541182070320474 0 0.032648699394035516 -0.037741227754380963 0 0.032043518219316558 -0.038597976243554724 0 0.031085798340847653 -0.038034323179954088 0 0.035904460588276274 -0.031579451007981499 0 0.03534691520322706 -0.033195523761720538 0 0.035433946599079308 -0.033541182070320474 0 0.035344705514533288 -0.032731213674531134 0 0.035076230337906557 -0.033946792459694654 0 0.03534691520322706 -0.033195523761720538 0 0.035076230337906557 -0.033946792459694654 0 0.035046567490220643 -0.034013272473293873 0 0.03534691520322706 -0.033195523761720538 0 0.035046567490220643 -0.034013272473293873 0 0.03534691520322706 -0.033195523761720538 0 0.035433946599079308 -0.033541182070320474 0 0.035537402040616402 -0.031479107612304068 0 0.035565014876256087 -0.033306174879683827 0 0.035686081043133672 -0.030378190187420995 0 0.035230000021350398 -0.031283446807958311 0 0.036261932629391855 -0.03165241644356806 0 0.035230000021350398 -0.031283446807958311 0 0.035433946599079308 -0.033541182070320474 0 0.036261932629391855 -0.03165241644356806 0 0.032754879010495279 -0.039504157369985499 0 0.031356244331444384 -0.039041434241239709 0 0.03066485424272463 -0.040410317877136184 0 0.032043518219316558 -0.038597976243554724 0 0.032754879010495279 -0.039504157369985499 0 0.031356244331444384 -0.039041434241239709 0 0.031356244331444384 -0.039041434241239709 0 0.029727001833282252 -0.038630685413477625 0 0.03066485424272463 -0.040410317877136184 0 0.029727001833282252 -0.038630685413477625 0 0.028192738515432969 -0.039411060817967837 0 0.03066485424272463 -0.040410317877136184 0 0.029950343228515326 -0.03558141250598329 0 0.031746229058136427 -0.037005319072871717 0 0.029727001833282252 -0.038630685413477625 0 0.029536835904105829 -0.037163082202262616 0 0.027736686628687276 -0.037733240534714857 0 0.031085798340847653 -0.038034323179954088 0 0.031242546455624513 -0.036840312440018307 0 0.029536835904105829 -0.037163082202262616 0 0.029727001833282252 -0.038630685413477625 0 0.031085798340847653 -0.038034323179954088 0 0.029536835904105829 -0.037163082202262616 0 0.031356244331444384 -0.039041434241239709 0 0.029727001833282252 -0.038630685413477625 0 0.031085798340847653 -0.038034323179954088 0 0.032043518219316558 -0.038597976243554724 0 0.031356244331444384 -0.039041434241239709 0 0.031085798340847653 -0.038034323179954088 0 0.032821029335113688 -0.03529273931044502 0 0.031242546455624513 -0.036840312440018307 0 0.02981614002188333 -0.035833791323172416 0 0.031242546455624513 -0.036840312440018307 0 0.029536835904105829 -0.037163082202262616 0 0.02981614002188333 -0.035833791323172416 0 0.029536835904105829 -0.037163082202262616 0 0.02981614002188333 -0.035833791323172416 0 0.028013582862259606 -0.036185057309366747 0 0.028474391458390268 -0.035000851057648941 0 0.02981614002188333 -0.035833791323172416 0 0.028013582862259606 -0.036185057309366747 0 0.028474391458390268 -0.035000851057648941 0 0.030244016222404389 -0.034996441813997463 0 0.02981614002188333 -0.035833791323172416 0 0.032821029335113688 -0.03529273931044502 0 0.030244016222404389 -0.034996441813997463 0 0.02981614002188333 -0.035833791323172416 0 0.026710398531000656 -0.035000001463786332 0 0.026405186430230029 -0.036539024467839729 0 0.025661224352906416 -0.035889277839442589 0 0.026710488110742669 -0.034999789951411488 0 0.026210321707645135 -0.037008645190461861 0 0.02671079951481186 -0.034999501036505357 0 0.028013582862259606 -0.036185057309366747 0 0.026347506303220143 -0.036628095154232022 0 0.028474391458390268 -0.035000851057648941 0 0.02671079951481186 -0.034999501036505357 0 0.028013582862259606 -0.036185057309366747 0 0.028013582862259606 -0.036185057309366747 0 0.026347506303220143 -0.036628095154232022 0 0.027736686628687276 -0.037733240534714857 0 0.029536835904105829 -0.037163082202262616 0 0.028013582862259606 -0.036185057309366747 0 0.027736686628687276 -0.037733240534714857 0 0.026347506303220143 -0.036628095154232022 0 0.027736686628687276 -0.037733240534714857 0 0.025977737909340343 -0.038429878317348107 0 0.027736686628687276 -0.037733240534714857 0 0.028192738515432969 -0.039411060817967837 0 0.025977737909340343 -0.038429878317348107 0 0.026210321707645135 -0.037008645190461861 0 0.027536439829284848 -0.036241579899483407 0 0.029727001833282252 -0.038630685413477625 0 0.027736686628687276 -0.037733240534714857 0 0.028192738515432969 -0.039411060817967837 0 0.031533346571208633 -0.032193185972741352 0 0.030809910153646092 -0.032725228284085216 0 0.03020787700062634 -0.03206653477541245 0 0.029950343228515326 -0.03558141250598329 0 0.027536439829284848 -0.036241579899483407 0 0.031533346571208633 -0.032193185972741352 0 0.03020787700062634 -0.03206653477541245 0 0.030132122511850719 -0.031702233868902058 0 0.03094067152526489 -0.032709986904107057 0 0.028405287952796652 -0.033311656813387852 0 0.030809910153646092 -0.032725228284085216 0 0.03020787700062634 -0.03206653477541245 0 0.030055021590075601 -0.032158462540503724 0 0.030809910153646092 -0.032725228284085216 0 0.030636133747298167 -0.033710829336777937 0 0.029889689686383759 -0.03316698498462501 0 0.030809910153646092 -0.032725228284085216 0 0.029889689686383759 -0.03316698498462501 0 0.030073443262717998 -0.0321202275731758 0 0.031821510571281915 -0.029375808049775107 0 0.02912379248952739 -0.031289289086408677 0 0.033540807318265427 -0.025823990282342845 0 0.033137348544133027 -0.026346719215864411 0 0.033870164181551983 -0.026349373431112481 0 0.033540807318265427 -0.025823990282342845 0 0.033870164181551983 -0.026349373431112481 0 0.034483157424226425 -0.026363548103319784 0 0.031824590324890711 -0.029010003859565918 0 0.031821510571281915 -0.029375808049775107 0 0.033540807318265427 -0.025823990282342845 0 0.033369109747509486 -0.025673223996857401 0 0.033137348544133027 -0.026346719215864411 0 0.033369109747509486 -0.025673223996857401 0 0.033137348544133027 -0.026346719215864411 0 0.032396629438229012 -0.026248547850953884 0 0.033540807318265427 -0.025823990282342845 0 0.035249580702148973 -0.025671214788509367 0 0.034483157424226425 -0.026363548103319784 0 0.030809910153646092 -0.032725228284085216 0 0.030636133747298167 -0.033710829336777937 0 0.031888909675275003 -0.033652639913871962 0 0.033540807318265427 -0.025823990282342845 0 0.03336133386495295 -0.025688520375815302 0 0.035249580702148973 -0.025671214788509367 0 0.031821510571281915 -0.029375808049775107 0 0.033579522645420329 -0.029708755219134617 0 0.035249580702148973 -0.025671214788509367 0 0.035650589163840424 -0.026762863074874729 0 0.034483157424226425 -0.026363548103319784 0 0.030809910153646092 -0.032725228284085216 0 0.032084024592085772 -0.032905324336113047 0 0.031888909675275003 -0.033652639913871962 0 0.031533346571208633 -0.032193185972741352 0 0.030809910153646092 -0.032725228284085216 0 0.032084024592085772 -0.032905324336113047 0 0.031533346571208633 -0.032193185972741352 0 0.032084024592085772 -0.032905324336113047 0 0.032980110819099677 -0.032715381250505146 0 0.032084024592085772 -0.032905324336113047 0 0.032980110819099677 -0.032715381250505146 0 0.033181568744058594 -0.033586924381992553 0 0.034462402386050216 -0.033261387755585875 0 0.032980110819099677 -0.032715381250505146 0 0.033181568744058594 -0.033586924381992553 0 0.037170320949437181 -0.025845109419667545 0 0.037237006860805284 -0.02637263009121826 0 0.036255651330404877 -0.026237133240046236 0 0.037621563821104487 -0.026301514679004157 0 0.037170320949437181 -0.025845109419667545 0 0.037237006860805284 -0.02637263009121826 0 0.037170320949437181 -0.025845109419667545 0 0.035249580702148973 -0.025671214788509367 0 0.036255651330404877 -0.026237133240046236 0 0.032084024592085772 -0.032905324336113047 0 0.033181568744058594 -0.033586924381992553 0 0.031888909675275003 -0.033652639913871962 0 0.03523412021461364 -0.029655412037643405 0 0.033579522645420329 -0.029708755219134617 0 0.035249580702148973 -0.025671214788509367 0 0.036255651330404877 -0.026237133240046236 0 0.035650589163840424 -0.026762863074874729 0 0.036255651330404877 -0.026237133240046236 0 0.035650589163840424 -0.026762863074874729 0 0.036492879967392519 -0.027067746044464748 0 0.035650589163840424 -0.026762863074874729 0 0.036492879967392519 -0.027067746044464748 0 0.036201681630857893 -0.027848731401561293 0 0.035650589163840424 -0.026762863074874729 0 0.036201681630857893 -0.027848731401561293 0 0.035161625948069632 -0.027550091198053499 0 0.037237006860805284 -0.02637263009121826 0 0.036492879967392519 -0.027067746044464748 0 0.037065628108050065 -0.028060732685885936 0 0.037735854583065234 -0.026558198529727971 0 0.037237006860805284 -0.02637263009121826 0 0.038125426574283687 -0.026482981240221394 0 0.037302981406733528 -0.026365840192300097 0 0.037570970103806792 -0.027211326950514814 0 0.037237006860805284 -0.02637263009121826 0 0.036255651330404877 -0.026237133240046236 0 0.036492879967392519 -0.027067746044464748 0 0.036492879967392519 -0.027067746044464748 0 0.037065628108050065 -0.028060732685885936 0 0.036201681630857893 -0.027848731401561293 0 0.037065628108050065 -0.028060732685885936 0 0.036201681630857893 -0.027848731401561293 0 0.036286740350467146 -0.028676396083031484 0 0.036201681630857893 -0.027848731401561293 0 0.035446382695407529 -0.028422095737232755 0 0.035161625948069632 -0.027550091198053499 0 0.036201681630857893 -0.027848731401561293 0 0.035446382695407529 -0.028422095737232755 0 0.036286740350467146 -0.028676396083031484 0 0.035446382695407529 -0.028422095737232755 0 0.035161625948069632 -0.027550091198053499 0 0.034421883946708698 -0.028383414815404476 0 0.035161625948069632 -0.027550091198053499 0 0.034421883946708698 -0.028383414815404476 0 0.034223316725774985 -0.027461569308462375 0 0.034421883946708698 -0.028383414815404476 0 0.033374108965455125 -0.027890750641105008 0 0.034223316725774985 -0.027461569308462375 0 0.034421883946708698 -0.028383414815404476 0 0.033374108965455125 -0.027890750641105008 0 0.033325641367164989 -0.028852200205995007 0 0.033374108965455125 -0.027890750641105008 0 0.032525657183448943 -0.028262534000730158 0 0.033325641367164989 -0.028852200205995007 0 0.033374108965455125 -0.027890750641105008 0 0.033557994656006292 -0.026852736963382803 0 0.034223316725774985 -0.027461569308462375 0 0.033374108965455125 -0.027890750641105008 0 0.033557994656006292 -0.026852736963382803 0 0.032379403874201504 -0.027154270563462472 0 0.033137348544133027 -0.026346719215864411 0 0.033557994656006292 -0.026852736963382803 0 0.032379403874201504 -0.027154270563462472 0 0.033870164181551983 -0.026349373431112481 0 0.033557994656006292 -0.026852736963382803 0 0.034483157424226425 -0.026363548103319784 0 0.033137348544133027 -0.026346719215864411 0 0.033870164181551983 -0.026349373431112481 0 0.033557994656006292 -0.026852736963382803 0 0.033557994656006292 -0.026852736963382803 0 0.034483157424226425 -0.026363548103319784 0 0.034223316725774985 -0.027461569308462375 0 0.035161625948069632 -0.027550091198053499 0 0.034483157424226425 -0.026363548103319784 0 0.034223316725774985 -0.027461569308462375 0 0.035650589163840424 -0.026762863074874729 0 0.035161625948069632 -0.027550091198053499 0 0.034483157424226425 -0.026363548103319784 0 0.031374079168209654 -0.028454669519231878 0 0.031098580725378456 -0.025864812097670234 0 0.030217891634847213 -0.026936232394220438 0 0.030768946859412512 -0.02832293984510606 0 0.031198382297549593 -0.025887128196383138 0 0.032379403874201504 -0.027154270563462472 0 0.031230295946983105 -0.028112276407908084 0 0.031198382297549593 -0.025887128196383138 0 0.032379403874201504 -0.027154270563462472 0 0.031198382297549593 -0.025887128196383138 0 0.032396629438229012 -0.026248547850953884 0 0.033137348544133027 -0.026346719215864411 0 0.032379403874201504 -0.027154270563462472 0 0.032396629438229012 -0.026248547850953884 0 0.032525657183448943 -0.028262534000730158 0 0.031230295946983105 -0.028112276407908084 0 0.03233361449510818 -0.029268007009045083 0 0.032379403874201504 -0.027154270563462472 0 0.032525657183448943 -0.028262534000730158 0 0.031230295946983105 -0.028112276407908084 0 0.033374108965455125 -0.027890750641105008 0 0.032379403874201504 -0.027154270563462472 0 0.032525657183448943 -0.028262534000730158 0 0.030217891634847213 -0.026936232394220438 0 0.030768946859412512 -0.02832293984510606 0 0.028757408434923411 -0.027763142615874582 0 0.024442754854622526 -0.027065688248873496 0 0.022328867492260734 -0.02843554535824629 0 0.030768946859412512 -0.02832293984510606 0 0.028757408434923411 -0.027763142615874582 0 0.029231744381943803 -0.029534299426122741 0 0.019835587156191114 -0.026581474110834745 0 0.019514451063057554 -0.027069962781105527 0 0.020160415082340125 -0.027628106103390618 0 0.019514451063057554 -0.027069962781105527 0 0.018920714106350902 -0.026971036873954371 0 0.018936999380885545 -0.027296333521024733 0 0.019514451063057554 -0.027069962781105527 0 0.019144261093557335 -0.026738023205672225 0 0.018920714106350902 -0.026971036873954371 0 0.019835587156191114 -0.026581474110834745 0 0.019514451063057554 -0.027069962781105527 0 0.019362431568344926 -0.026567440491796494 0 0.019514451063057554 -0.027069962781105527 0 0.019362431568344926 -0.026567440491796494 0 0.019144261093557335 -0.026738023205672225 0 0.019362431568344926 -0.026567440491796494 0 0.019077122128330869 -0.026531842226725673 0 0.019144261093557335 -0.026738023205672225 0 0.019077122128330869 -0.026531842226725673 0 0.019144261093557335 -0.026738023205672225 0 0.018861081178169953 -0.026628745763860925 0 0.024442754854622526 -0.027065688248873496 0 0.024289755715024244 -0.026837204904339673 0 0.019835587156191114 -0.026581474110834745 0 0.019428072165533609 -0.026035202339327709 0 0.019607477804179683 -0.025769217400228934 0 0.019056018459352824 -0.026288428813231901 0 0.019068940054409664 -0.026030569951250096 0 0.018985661177822834 -0.026183238476829965 0 0.019056018459352824 -0.026288428813231901 0 0.019215028787132923 -0.026421630202006673 0 0.019353073084819334 -0.026287786603670454 0 0.019056018459352824 -0.026288428813231901 0 0.019353073084819334 -0.026287786603670454 0 0.019068940054409664 -0.026030569951250096 0 0.019174627814851762 -0.026418604421760122 0 0.019321817080533044 -0.026715651950740372 0 0.019125066477465574 -0.026373712755600659 0 0.019147439277303609 -0.026405993704143427 0 0.019077122128330869 -0.026531842226725673 0 0.019056018459352824 -0.026288428813231901 0 0.019215028787132923 -0.026421630202006673 0 0.019362431568344926 -0.026567440491796494 0 0.019077122128330869 -0.026531842226725673 0 0.019215028787132923 -0.026421630202006673 0 0.019362431568344926 -0.026567440491796494 0 0.019215028787132923 -0.026421630202006673 0 0.019353073084819334 -0.026287786603670454 0 0.019835587156191114 -0.026581474110834745 0 0.019353073084819334 -0.026287786603670454 0 0.019428072165533609 -0.026035202339327709 0 0.019835587156191114 -0.026581474110834745 0 0.019362431568344926 -0.026567440491796494 0 0.019353073084819334 -0.026287786603670454 0 0.019428072165533609 -0.026035202339327709 0 0.019181861068750236 -0.026123651152867512 0 0.019469839882847558 -0.025789567364801817 0 0.019353073084819334 -0.026287786603670454 0 0.019428072165533609 -0.026035202339327709 0 0.019181861068750236 -0.026123651152867512 0 0.019321817080533044 -0.026715651950740372 0 0.019147439277303609 -0.026405993704143427 0 0.030217891634847213 -0.026936232394220438 0 0.028757408434923411 -0.027763142615874582 0 0.028204098689781028 -0.025857221416300643 0 0.024289755715024244 -0.026837204904339673 0 0.029969450308945083 -0.028259603050267989 0 0.026508073181235901 -0.030093491386446621 0 0.025200869954790119 -0.030870784533562425 0 0.02502539568441588 -0.030213156892206185 0 0.026508073181235901 -0.030093491386446621 0 0.025200869954790119 -0.030870784533562425 0 0.02792358618745298 -0.03073536433740261 0 0.030217891634847213 -0.026936232394220438 0 0.028204098689781028 -0.025857221416300643 0 0.030888245597223227 -0.025732852531233974 0 0.019181861068750236 -0.026123651152867512 0 0.019469839882847558 -0.025789567364801817 0 0.019559260037865137 -0.025532932982306057 0 0.01995796669609445 -0.028131826701019172 0 0.019969255394695278 -0.028587105442836977 0 0.01959595175157754 -0.028833950860333104 0 0.019321817080533044 -0.026715651950740372 0 0.021930035690388625 -0.028546154506899284 0 0.019469839882847558 -0.025789567364801817 0 0.019623689888120174 -0.025786036846240631 0 0.019559260037865137 -0.025532932982306057 0 0.024289755715024244 -0.026837204904339673 0 0.021930035690388625 -0.028546154506899284 0 0.022259493819644479 -0.026777084749707785 0 0.024289755715024244 -0.026837204904339673 0 0.019428072165533609 -0.026035202339327709 0 0.019469839882847558 -0.025789567364801817 0 0.019607477804179683 -0.025769217400228934 0 0.019969255394695278 -0.028587105442836977 0 0.01959595175157754 -0.028833950860333104 0 0.020066422268016651 -0.028884397272959002 0 0.022581267271273388 -0.029886244924849144 0 0.02268430649758069 -0.030273363476205666 0 0.022334389448723652 -0.030376160612919114 0 0.021930035690388625 -0.028546154506899284 0 0.024214332672054705 -0.031035604598484406 0 0.01959595175157754 -0.028833950860333104 0 0.019748298872818544 -0.02940461206420817 0 0.020066422268016651 -0.028884397272959002 0 0.021930035690388625 -0.028546154506899284 0 0.021128722580984187 -0.031020117782333444 0 0.021128722580984187 -0.031020117782333444 0 0.024214332672054705 -0.031035604598484406 0 0.021848022922929065 -0.033737234465430067 0 0.022811426681973109 -0.033477520541727833 0 0.023103068244309542 -0.03295126621978077 0 0.026508073181235901 -0.030093491386446621 0 0.026909279340294443 -0.02915141321217354 0 0.025919518431389042 -0.028600143099900749 0 0.026508073181235901 -0.030093491386446621 0 0.02502539568441588 -0.030213156892206185 0 0.025919518431389042 -0.028600143099900749 0 0.024214332672054705 -0.031035604598484406 0 0.026370873524006015 -0.031869888127168657 0 0.026909279340294443 -0.02915141321217354 0 0.025919518431389042 -0.028600143099900749 0 0.027375170144924781 -0.02820139723337807 0 0.02912379248952739 -0.031289289086408677 0 0.026370873524006015 -0.031869888127168657 0 0.027838360250752998 -0.029711989533238746 0 0.029271034666477295 -0.0295685564977523 0 0.027375170144924781 -0.02820139723337807 0 0.026909279340294443 -0.02915141321217354 0 0.027838360250752998 -0.029711989533238746 0 0.027375170144924781 -0.02820139723337807 0 0.026508073181235901 -0.030093491386446621 0 0.026909279340294443 -0.02915141321217354 0 0.027838360250752998 -0.029711989533238746 0 0.026508073181235901 -0.030093491386446621 0 0.027838360250752998 -0.029711989533238746 0 0.02792358618745298 -0.03073536433740261 0 0.027838360250752998 -0.029711989533238746 0 0.02792358618745298 -0.03073536433740261 0 0.029110985819699915 -0.030519568028242815 0 0.030217891634847213 -0.026936232394220438 0 0.030888245597223227 -0.025732852531233974 0 0.031198382297549593 -0.025887128196383138 0 0.033369109747509486 -0.025673223996857401 0 0.030888245597223227 -0.025732852531233974 0 0.031198382297549593 -0.025887128196383138 0 0.030682953302852672 -0.030570709257858628 0 0.029110985819699915 -0.030519568028242815 0 0.029289376551356185 -0.029550968541729509 0 0.031821510571281915 -0.029375808049775107 0 0.029969450308945083 -0.028259603050267989 0 0.030682953302852672 -0.030570709257858628 0 0.02792358618745298 -0.03073536433740261 0 0.029110985819699915 -0.030519568028242815 0 0.033369109747509486 -0.025673223996857401 0 0.031198382297549593 -0.025887128196383138 0 0.032396629438229012 -0.026248547850953884 0 0.02924461606877982 -0.030088956518199265 0 0.02912379248952739 -0.031289289086408677 0 0.027838360250752998 -0.029711989533238746 0 0.029110985819699915 -0.030519568028242815 0 0.029271034666477295 -0.0295685564977523 0 0.028020758471914198 -0.032429554228257031 0 0.028111249096485869 -0.031924257023881776 0 0.027521842745951645 -0.032072195469309228 0 0.02912379248952739 -0.031289289086408677 0 0.028405287952796652 -0.033311656813387852 0 0.028405287952796652 -0.033311656813387852 0 0.026370873524006015 -0.031869888127168657 0 0.02810212183390131 -0.033328112017384171 0 0.027969345565950592 -0.033217601968585225 0 0.025929380857357156 -0.033900505596271356 0 0.027128802673403344 -0.036109794700517346 0 0.02703725603666212 -0.036122401817943912 0 0.027202428494338148 -0.035698638883328561 0 0.028296918687218665 -0.033741962240122866 0 0.027536439829284848 -0.036241579899483407 0 0.030066580821187471 -0.032088042669384781 0 0.03020787700062634 -0.03206653477541245 0 0.030132122511850719 -0.031702233868902058 0 0.028296918687218665 -0.033741962240122866 0 0.027867036516699372 -0.033999241458226928 0 0.028296918687218665 -0.033741962240122866 0 0.028805476324591441 -0.033571180971405809 0 0.030067511758412862 -0.032085937702778088 0 0.03020787700062634 -0.03206653477541245 0 0.030055021590075601 -0.032158462540503724 0 0.028296918687218665 -0.033741962240122866 0 0.028405287952796652 -0.033311656813387852 0 0.028509842594932285 -0.033951349903850528 0 0.028481614522678021 -0.034106299709189783 0 0.02832444415854311 -0.033975775624380193 0 0.028405287952796652 -0.033311656813387852 0 0.027867036516699372 -0.033999241458226928 0 0.027969345565950592 -0.033217601968585225 0 0.025929380857357156 -0.033900505596271356 0 0.025444854252870592 -0.033545232925337787 0 0.026546388868582394 -0.035664096553914483 0 0.025490305485867181 -0.034820434220907776 0 0.025204454320009593 -0.035850141115980248 0 0.027867036516699372 -0.033999241458226928 0 0.024887624065351815 -0.034434772231940962 0 0.026370873524006015 -0.031869888127168657 0 0.024887624065351815 -0.034434772231940962 0 0.027867036516699372 -0.033999241458226928 0 0.0247409438344946 -0.036632649847034307 0 0.024448126307090416 -0.037368661180480246 0 0.026128585332730849 -0.03803161546386824 0 0.025577769135105566 -0.037028195396469669 0 0.02703725603666212 -0.036122401817943912 0 0.025858730139721089 -0.035195500369586248 0 0.027202428494338148 -0.035698638883328561 0 0.026405186430230029 -0.036539024467839729 0 0.026128585332730849 -0.03803161546386824 0 0.025577769135105566 -0.037028195396469669 0 0.0247409438344946 -0.036632649847034307 0 0.027536439829284848 -0.036241579899483407 0 0.025577769135105566 -0.037028195396469669 0 0.024880781324320242 -0.036554043230650486 0 0.025661224352906416 -0.035889277839442589 0 0.026405186430230029 -0.036539024467839729 0 0.025577769135105566 -0.037028195396469669 0 0.025661224352906416 -0.035889277839442589 0 0.0247409438344946 -0.036632649847034307 0 0.02469755919404068 -0.036865845524498231 0 0.024413619272765499 -0.037410038903778545 0 0.024880781324320242 -0.036554043230650486 0 0.024074601906386366 -0.035968407797574091 0 0.024448126307090416 -0.037368661180480246 0 0.025577769135105566 -0.037028195396469669 0 0.024880781324320242 -0.036554043230650486 0 0.024880781324320242 -0.036554043230650486 0 0.024074601906386366 -0.035968407797574091 0 0.024974421825505567 -0.034999990859108356 0 0.024074601906386366 -0.035968407797574091 0 0.024974421825505567 -0.034999990859108356 0 0.023238373748693059 -0.034999987080155864 0 0.024880781324320242 -0.036554043230650486 0 0.024974421825505567 -0.034999990859108356 0 0.025661224352906416 -0.035889277839442589 0 0.026710398531000656 -0.035000001463786332 0 0.024974421825505567 -0.034999990859108356 0 0.025661224352906416 -0.035889277839442589 0 0.023238373748693059 -0.034999987080155864 0 0.022958905113706133 -0.036203982489582218 0 0.021502328795787305 -0.035000002728354983 0 0.022884676755365041 -0.036286641017499476 0 0.021502571315903479 -0.03500013949161028 0 0.022885126033543191 -0.036173270910205411 0 0.02172731707523853 -0.03632851915776273 0 0.021502168949643234 -0.034999901603727596 0 0.024074601906386366 -0.035968407797574091 0 0.023238373748693059 -0.034999987080155864 0 0.022958905113706133 -0.036203982489582218 0 0.024269816763639551 -0.037320392042701829 0 0.023001956662130601 -0.036825959257619945 0 0.022885126033543191 -0.036173270910205411 0 0.0247409438344946 -0.036632649847034307 0 0.022884676755365041 -0.036286641017499476 0 0.0247409438344946 -0.036632649847034307 0 0.022761050642323841 -0.036762973148374768 0 0.024413619272765499 -0.037410038903778545 0 0.024074601906386366 -0.035968407797574091 0 0.022958905113706133 -0.036203982489582218 0 0.022761050642323841 -0.036762973148374768 0 0.02160125492649656 -0.036264234721408911 0 0.023001956662130601 -0.036825959257619945 0 0.022885126033543191 -0.036173270910205411 0 0.02172731707523853 -0.03632851915776273 0 0.022687875837249741 -0.036676937546271611 0 0.022042118164366003 -0.036971770244751054 0 0.021487289341868519 -0.036213296473361141 0 0.022042118164366003 -0.036971770244751054 0 0.021290694576586808 -0.03724914400619582 0 0.021487289341868519 -0.036213296473361141 0 0.022151197266725455 -0.037516118762294014 0 0.021522778787372673 -0.038789068448198426 0 0.021290694576586808 -0.03724914400619582 0 0.022042118164366003 -0.036971770244751054 0 0.022151197266725455 -0.037516118762294014 0 0.021290694576586808 -0.03724914400619582 0 0.022042118164366003 -0.036971770244751054 0 0.022590888275572103 -0.037202990015276043 0 0.022151197266725455 -0.037516118762294014 0 0.022687875837249741 -0.036676937546271611 0 0.022042118164366003 -0.036971770244751054 0 0.022590888275572103 -0.037202990015276043 0 0.023875608836606711 -0.037142162851380361 0 0.02306202507959524 -0.037457125733393055 0 0.023245461633270379 -0.038295335172098932 0 0.023875608836606711 -0.037142162851380361 0 0.022687875837249741 -0.036676937546271611 0 0.02306202507959524 -0.037457125733393055 0 0.022151197266725455 -0.037516118762294014 0 0.02306202507959524 -0.037457125733393055 0 0.023245461633270379 -0.038295335172098932 0 0.0247409438344946 -0.036632649847034307 0 0.023849160819834646 -0.036315682818244217 0 0.022687875837249741 -0.036676937546271611 0 0.022590888275572103 -0.037202990015276043 0 0.02306202507959524 -0.037457125733393055 0 0.022590888275572103 -0.037202990015276043 0 0.022151197266725455 -0.037516118762294014 0 0.02306202507959524 -0.037457125733393055 0 0.022296738145401476 -0.03794478742261926 0 0.023849160819834646 -0.036315682818244217 0 0.025490305485867181 -0.034820434220907776 0 0.025005300011255678 -0.03570665509730616 0 0.025204454320009593 -0.035850141115980248 0 0.022151197266725455 -0.037516118762294014 0 0.023256557616453472 -0.038304938112854812 0 0.023124125063974616 -0.038549535003153494 0 0.024214332672054705 -0.031035604598484406 0 0.023486674030719457 -0.034763525925570221 0 0.024169534012893804 -0.032721368940329981 0 0.025281291348681411 -0.032422446622494862 0 0.024901363096815756 -0.032145731619559761 0 0.024169534012893804 -0.032721368940329981 0 0.024456532720049638 -0.032202344113276042 0 0.024901363096815756 -0.032145731619559761 0 0.023846454634495296 -0.034448841605622636 0 0.023604821077292514 -0.034891261857961847 0 0.024321659464585362 -0.034797176639245149 0 0.023486674030719457 -0.034763525925570221 0 0.024887624065351815 -0.034434772231940962 0 0.023849160819834646 -0.036315682818244217 0 0.023486674030719457 -0.034763525925570221 0 0.023849160819834646 -0.036315682818244217 0 0.024887624065351815 -0.034434772231940962 0 0.022151197266725455 -0.037516118762294014 0 0.023124125063974616 -0.038549535003153494 0 0.021522778787372673 -0.038789068448198426 0 0.021848022922929065 -0.033737234465430067 0 0.023103068244309542 -0.03295126621978077 0 0.021289611719901593 -0.033187637370451897 0 0.023486674030719457 -0.034763525925570221 0 0.021341012275503488 -0.036119002838244471 0 0.021522778787372673 -0.038789068448198426 0 0.020495018059300298 -0.037914548064135488 0 0.019907043037036526 -0.039029070733872469 0 0.021341012275503488 -0.036119002838244471 0 0.01956940432515691 -0.036055766002062298 0 0.021522778787372673 -0.038789068448198426 0 0.020495018059300298 -0.037914548064135488 0 0.021290694576586808 -0.03724914400619582 0 0.019855065762884521 -0.038246182476063623 0 0.019093190509234907 -0.037938403249894781 0 0.019907043037036526 -0.039029070733872469 0 0.019855065762884521 -0.038246182476063623 0 0.020495018059300298 -0.037914548064135488 0 0.019907043037036526 -0.039029070733872469 0 0.020495018059300298 -0.037914548064135488 0 0.019763208290549387 -0.037446161452354736 0 0.020390112007505151 -0.036767806657109735 0 0.019855065762884521 -0.038246182476063623 0 0.020495018059300298 -0.037914548064135488 0 0.019763208290549387 -0.037446161452354736 0 0.019763208290549387 -0.037446161452354736 0 0.020390112007505151 -0.036767806657109735 0 0.01958488255537813 -0.036750515249991705 0 0.020495018059300298 -0.037914548064135488 0 0.021290694576586808 -0.03724914400619582 0 0.020390112007505151 -0.036767806657109735 0 0.021290694576586808 -0.03724914400619582 0 0.021487289341868519 -0.036213296473361141 0 0.020390112007505151 -0.036767806657109735 0 0.02160125492649656 -0.036264234721408911 0 0.020460401095881452 -0.035812352272359155 0 0.021487289341868519 -0.036213296473361141 0 0.020390112007505151 -0.036767806657109735 0 0.020352602216429424 -0.035768998794425827 0 0.020390112007505151 -0.036767806657109735 0 0.019648757094080611 -0.036065014891024004 0 0.020352602216429424 -0.035768998794425827 0 0.020390112007505151 -0.036767806657109735 0 0.01958488255537813 -0.036750515249991705 0 0.019648757094080611 -0.036065014891024004 0 0.019648757094080611 -0.036065014891024004 0 0.019799304353488451 -0.034999913612294417 0 0.020352602216429424 -0.035768998794425827 0 0.019799304353488451 -0.034999913612294417 0 0.020352602216429424 -0.035768998794425827 0 0.021502168949643234 -0.034999901603727596 0 0.02172731707523853 -0.03632851915776273 0 0.020352602216429424 -0.035768998794425827 0 0.021502168949643234 -0.034999901603727596 0 0.018096465219452827 -0.034999929933472319 0 0.01889578572870914 -0.035724735012262705 0 0.018016000031188202 -0.036013215915843 0 0.01718943844353216 -0.035661583910798961 0 0.018096465219452827 -0.034999929933472319 0 0.018016000031188202 -0.036013215915843 0 0.019648757094080611 -0.036065014891024004 0 0.019799304353488451 -0.034999913612294417 0 0.01889578572870914 -0.035724735012262705 0 0.019799304353488451 -0.034999913612294417 0 0.018096465219452827 -0.034999929933472319 0 0.01889578572870914 -0.035724735012262705 0 0.01889578572870914 -0.035724735012262705 0 0.018845476260127825 -0.036358918541040876 0 0.018016000031188202 -0.036013215915843 0 0.019648757094080611 -0.036065014891024004 0 0.01889578572870914 -0.035724735012262705 0 0.018845476260127825 -0.036358918541040876 0 0.01958488255537813 -0.036750515249991705 0 0.019648757094080611 -0.036065014891024004 0 0.018845476260127825 -0.036358918541040876 0 0.01958488255537813 -0.036750515249991705 0 0.018845476260127825 -0.036358918541040876 0 0.019091712741051089 -0.037027736942243608 0 0.018845476260127825 -0.036358918541040876 0 0.018073165623984977 -0.036619897598942262 0 0.019091712741051089 -0.037027736942243608 0 0.017337867201896659 -0.03644503950307286 0 0.018073165623984977 -0.036619897598942262 0 0.018178953357292041 -0.036950103622222549 0 0.016911644257883041 -0.036216281872793167 0 0.018075708370285975 -0.036890302448080774 0 0.018845476260127825 -0.036358918541040876 0 0.018073165623984977 -0.036619897598942262 0 0.018016000031188202 -0.036013215915843 0 0.017337867201896659 -0.03644503950307286 0 0.018073165623984977 -0.036619897598942262 0 0.018016000031188202 -0.036013215915843 0 0.017337867201896659 -0.03644503950307286 0 0.01718943844353216 -0.035661583910798961 0 0.018016000031188202 -0.036013215915843 0 0.017377570602040319 -0.037317022545824412 0 0.018178953357292041 -0.036950103622222549 0 0.018507698239751735 -0.037513741419642213 0 0.016450100553054389 -0.035916543884759906 0 0.017377570602040319 -0.037317022545824412 0 0.018178953357292041 -0.036950103622222549 0 0.016311103528404692 -0.037136629827901613 0 0.017377570602040319 -0.037317022545824412 0 0.017589310299762621 -0.038075160181845487 0 0.018073165623984977 -0.036619897598942262 0 0.018178953357292041 -0.036950103622222549 0 0.018507698239751735 -0.037513741419642213 0 0.018026234783567904 -0.03653118925643619 0 0.018973470250829894 -0.038161652293749709 0 0.018073165623984977 -0.036619897598942262 0 0.019091712741051089 -0.037027736942243608 0 0.019093190509234907 -0.037938403249894781 0 0.019763208290549387 -0.037446161452354736 0 0.01958488255537813 -0.036750515249991705 0 0.019091712741051089 -0.037027736942243608 0 0.019855065762884521 -0.038246182476063623 0 0.019763208290549387 -0.037446161452354736 0 0.019093190509234907 -0.037938403249894781 0 0.019763208290549387 -0.037446161452354736 0 0.019091712741051089 -0.037027736942243608 0 0.019093190509234907 -0.037938403249894781 0 0.018973470250829894 -0.038161652293749709 0 0.01956940432515691 -0.036055766002062298 0 0.018507698239751735 -0.037513741419642213 0 0.018482692218774532 -0.038754006898563495 0 0.019265452277657438 -0.038638363479376985 0 0.018507698239751735 -0.037513741419642213 0 0.017589310299762621 -0.038075160181845487 0 0.018482692218774532 -0.038754006898563495 0 0.017594303931446818 -0.038256687165448403 0 0.017847073949963294 -0.0337928072147963 0 0.017377570602040319 -0.037317022545824412 0 0.018507698239751735 -0.037513741419642213 0 0.017589310299762621 -0.038075160181845487 0 0.016865905291988129 -0.037591531798535104 0 0.016518349717864457 -0.038277142477907686 0 0.017510991886700151 -0.038102021498050836 0 0.016255733925199977 -0.037058410021074906 0 0.017594303931446818 -0.038256687165448403 0 0.016376306892056654 -0.031437426857114162 0 0.017847073949963294 -0.0337928072147963 0 0.016361959759476487 -0.024885474448166335 0 0.017104257578390757 -0.025174157977092784 0 0.017270079543405269 -0.024782085823110887 0 0.016361959759476487 -0.024885474448166335 0 0.0168516258018695 -0.025495996936825565 0 0.017104257578390757 -0.025174157977092784 0 0.016082890964057295 -0.025586777727037099 0 0.0168516258018695 -0.025495996936825565 0 0.016645383282083127 -0.026171305811116784 0 0.016082890964057295 -0.025586777727037099 0 0.016361959759476487 -0.024885474448166335 0 0.0168516258018695 -0.025495996936825565 0 0.0168516258018695 -0.025495996936825565 0 0.017349262559160427 -0.025776416112407472 0 0.016645383282083127 -0.026171305811116784 0 0.017349262559160427 -0.025776416112407472 0 0.01736825070298921 -0.025443935477409276 0 0.017848099237092775 -0.025557744301885121 0 0.0168516258018695 -0.025495996936825565 0 0.017349262559160427 -0.025776416112407472 0 0.01736825070298921 -0.025443935477409276 0 0.0168516258018695 -0.025495996936825565 0 0.01736825070298921 -0.025443935477409276 0 0.017104257578390757 -0.025174157977092784 0 0.01736825070298921 -0.025443935477409276 0 0.017104257578390757 -0.025174157977092784 0 0.017649124118231836 -0.025267756593634491 0 0.017847073949963294 -0.0337928072147963 0 0.01820671232365809 -0.027470873690358444 0 0.017104257578390757 -0.025174157977092784 0 0.017270079543405269 -0.024782085823110887 0 0.017649124118231836 -0.025267756593634491 0 0.017847073949963294 -0.0337928072147963 0 0.01956940432515691 -0.036055766002062298 0 0.019424403997900734 -0.032514414669562522 0 0.018554826108856413 -0.032626133067998019 0 0.018460430041396358 -0.031661262622348793 0 0.01956940432515691 -0.036055766002062298 0 0.019500399421248867 -0.030284980287119144 0 0.018554826108856413 -0.032626133067998019 0 0.018008363519702756 -0.031787053456267728 0 0.018460430041396358 -0.031661262622348793 0 0.019500399421248867 -0.030284980287119144 0 0.01820671232365809 -0.027470873690358444 0 0.01820671232365809 -0.027470873690358444 0 0.018153425252155419 -0.027023693151668828 0 0.017270079543405269 -0.024782085823110887 0 0.017833024123276597 -0.025223452364584897 0 0.017649124118231836 -0.025267756593634491 0 0.021128722580984187 -0.031020117782333444 0 0.019500399421248867 -0.030284980287119144 0 0.021848022922929065 -0.033737234465430067 0 0.021289611719901593 -0.033187637370451897 0 0.020051280470097556 -0.034223822871247707 0 0.021289611719901593 -0.033187637370451897 0 0.019507935140524759 -0.033428871210793631 0 0.020051280470097556 -0.034223822871247707 0 0.019748298872818544 -0.02940461206420817 0 0.020746602892212286 -0.029122224852351948 0 0.020066422268016651 -0.028884397272959002 0 0.019500399421248867 -0.030284980287119144 0 0.019239440098638812 -0.027055875262740364 0 0.020746602892212286 -0.029122224852351948 0 0.020066422268016651 -0.028884397272959002 0 0.020296239054391468 -0.028427857594882741 0 0.019969255394695278 -0.028587105442836977 0 0.020066422268016651 -0.028884397272959002 0 0.020296239054391468 -0.028427857594882741 0 0.01995796669609445 -0.028131826701019172 0 0.019969255394695278 -0.028587105442836977 0 0.020296239054391468 -0.028427857594882741 0 0.017846431186087856 -0.025205086065648013 0 0.018635951112913177 -0.025793103248392592 0 0.017848099237092775 -0.025557744301885121 0 0.018635951112913177 -0.025793103248392592 0 0.017848099237092775 -0.025557744301885121 0 0.018242636125445955 -0.025936908635897069 0 0.019208784586687056 -0.028205611327477335 0 0.019399605729840636 -0.02815126857840166 0 0.018874453528981355 -0.027680462560040007 0 0.01820671232365809 -0.027470873690358444 0 0.019239440098638812 -0.027055875262740364 0 0.01736825070298921 -0.025443935477409276 0 0.017649124118231836 -0.025267756593634491 0 0.017848099237092775 -0.025557744301885121 0 0.017846431186087856 -0.025205086065648013 0 0.017649124118231836 -0.025267756593634491 0 0.017848099237092775 -0.025557744301885121 0 0.017848099237092775 -0.025557744301885121 0 0.017897421720198082 -0.025958987838177842 0 0.018242636125445955 -0.025936908635897069 0 0.017349262559160427 -0.025776416112407472 0 0.017848099237092775 -0.025557744301885121 0 0.017897421720198082 -0.025958987838177842 0 0.017349262559160427 -0.025776416112407472 0 0.017897421720198082 -0.025958987838177842 0 0.017706837087922183 -0.026425492065634559 0 0.017897421720198082 -0.025958987838177842 0 0.018242636125445955 -0.025936908635897069 0 0.018210525600238177 -0.026242076092572945 0 0.017897421720198082 -0.025958987838177842 0 0.018210525600238177 -0.026242076092572945 0 0.017706837087922183 -0.026425492065634559 0 0.018210525600238177 -0.026242076092572945 0 0.017706837087922183 -0.026425492065634559 0 0.018204547571328927 -0.026637286167539884 0 0.019108097284894477 -0.026746230055489147 0 0.019315825477618297 -0.026925985770083798 0 0.019147994803368523 -0.0266723913200064 0 0.018635951112913177 -0.025793103248392592 0 0.018629602128860431 -0.026143788035206984 0 0.018956165179064552 -0.026209704385940075 0 0.019321817080533044 -0.026715651950740372 0 0.019239440098638812 -0.027055875262740364 0 0.019239440098638812 -0.027055875262740364 0 0.019147439277303609 -0.026405993704143427 0 0.018635951112913177 -0.025793103248392592 0 0.018242636125445955 -0.025936908635897069 0 0.018629602128860431 -0.026143788035206984 0 0.018242636125445955 -0.025936908635897069 0 0.018210525600238177 -0.026242076092572945 0 0.018629602128860431 -0.026143788035206984 0 0.018210525600238177 -0.026242076092572945 0 0.018629602128860431 -0.026143788035206984 0 0.018562255843354823 -0.026436641244532925 0 0.018210525600238177 -0.026242076092572945 0 0.018562255843354823 -0.026436641244532925 0 0.018204547571328927 -0.026637286167539884 0 0.018629602128860431 -0.026143788035206984 0 0.018562255843354823 -0.026436641244532925 0 0.018883183044616558 -0.026359262109567457 0 0.018562255843354823 -0.026436641244532925 0 0.018883183044616558 -0.026359262109567457 0 0.018861081178169953 -0.026628745763860925 0 0.019077122128330869 -0.026531842226725673 0 0.019056018459352824 -0.026288428813231901 0 0.018883183044616558 -0.026359262109567457 0 0.019077122128330869 -0.026531842226725673 0 0.018883183044616558 -0.026359262109567457 0 0.018861081178169953 -0.026628745763860925 0 0.018629602128860431 -0.026143788035206984 0 0.018883183044616558 -0.026359262109567457 0 0.018956165179064552 -0.026209704385940075 0 0.019056018459352824 -0.026288428813231901 0 0.018883183044616558 -0.026359262109567457 0 0.018985756395770794 -0.026183456029184218 0 0.01910863792368251 -0.02639914672616293 0 0.019147439277303609 -0.026405993704143427 0 0.019144261093557335 -0.026738023205672225 0 0.018861081178169953 -0.026628745763860925 0 0.018920714106350902 -0.026971036873954371 0 0.018861081178169953 -0.026628745763860925 0 0.018585069164429851 -0.026726681217068782 0 0.018920714106350902 -0.026971036873954371 0 0.018562255843354823 -0.026436641244532925 0 0.018861081178169953 -0.026628745763860925 0 0.018585069164429851 -0.026726681217068782 0 0.018562255843354823 -0.026436641244532925 0 0.018585069164429851 -0.026726681217068782 0 0.018204547571328927 -0.026637286167539884 0 0.018585069164429851 -0.026726681217068782 0 0.018424461203489541 -0.02704656212635706 0 0.018204547571328927 -0.026637286167539884 0 0.018585069164429851 -0.026726681217068782 0 0.018424461203489541 -0.02704656212635706 0 0.018920714106350902 -0.026971036873954371 0 0.018424461203489541 -0.02704656212635706 0 0.018920714106350902 -0.026971036873954371 0 0.018936999380885545 -0.027296333521024733 0 0.017706837087922183 -0.026425492065634559 0 0.018204547571328927 -0.026637286167539884 0 0.017786912507094216 -0.027014629887217968 0 0.018424461203489541 -0.02704656212635706 0 0.018204547571328927 -0.026637286167539884 0 0.017786912507094216 -0.027014629887217968 0 0.017706837087922183 -0.026425492065634559 0 0.017786912507094216 -0.027014629887217968 0 0.01708906940021632 -0.026746223862594148 0 0.017786912507094216 -0.027014629887217968 0 0.01708906940021632 -0.026746223862594148 0 0.017095998275910147 -0.027401701391646115 0 0.016196274375926561 -0.027213690917748546 0 0.01708906940021632 -0.026746223862594148 0 0.016645383282083127 -0.026171305811116784 0 0.017349262559160427 -0.025776416112407472 0 0.017706837087922183 -0.026425492065634559 0 0.01719623679438181 -0.026279289069729449 0 0.017349262559160427 -0.025776416112407472 0 0.016645383282083127 -0.026171305811116784 0 0.01719623679438181 -0.026279289069729449 0 0.017706837087922183 -0.026425492065634559 0 0.01708906940021632 -0.026746223862594148 0 0.01719623679438181 -0.026279289069729449 0 0.01708906940021632 -0.026746223862594148 0 0.016645383282083127 -0.026171305811116784 0 0.01719623679438181 -0.026279289069729449 0 0.016196274375926561 -0.027213690917748546 0 0.016331702957814997 -0.028446598969133798 0 0.016924032472004441 -0.027928633281966972 0 0.016924032472004441 -0.027928633281966972 0 0.017095998275910147 -0.027401701391646115 0 0.01747730573594241 -0.028039427975429611 0 0.016196274375926561 -0.027213690917748546 0 0.01708906940021632 -0.026746223862594148 0 0.017095998275910147 -0.027401701391646115 0 0.016196274375926561 -0.027213690917748546 0 0.016924032472004441 -0.027928633281966972 0 0.017095998275910147 -0.027401701391646115 0 0.017143615008144968 -0.027428725858188788 0 0.018016360586497214 -0.027761152016802276 0 0.018424461203489541 -0.02704656212635706 0 0.017786912507094216 -0.027014629887217968 0 0.018286989970258564 -0.027895405093435636 0 0.017786912507094216 -0.027014629887217968 0 0.017095998275910147 -0.027401701391646115 0 0.018286989970258564 -0.027895405093435636 0 0.018424461203489541 -0.02704656212635706 0 0.018936999380885545 -0.027296333521024733 0 0.018286989970258564 -0.027895405093435636 0 0.018936999380885545 -0.027296333521024733 0 0.018286989970258564 -0.027895405093435636 0 0.019393338344919599 -0.027653402630212973 0 0.017759984445802259 -0.027661396473648018 0 0.018031651555059286 -0.028311995913646915 0 0.018675151074942282 -0.027841796888656848 0 0.018016360586497214 -0.027761152016802276 0 0.019091448368950818 -0.02806400978865977 0 0.01747730573594241 -0.028039427975429611 0 0.017759984445802259 -0.027661396473648018 0 0.018031651555059286 -0.028311995913646915 0 0.017095998275910147 -0.027401701391646115 0 0.01747730573594241 -0.028039427975429611 0 0.017759984445802259 -0.027661396473648018 0 0.01747730573594241 -0.028039427975429611 0 0.017707203944719363 -0.028427593282539257 0 0.017251496273264565 -0.028384964421784623 0 0.01747730573594241 -0.028039427975429611 0 0.018031651555059286 -0.028311995913646915 0 0.017707203944719363 -0.028427593282539257 0 0.018031651555059286 -0.028311995913646915 0 0.017707203944719363 -0.028427593282539257 0 0.0180047636186738 -0.028428641974711233 0 0.017707203944719363 -0.028427593282539257 0 0.017787606973753155 -0.028569294936078415 0 0.0180047636186738 -0.028428641974711233 0 0.017707203944719363 -0.028427593282539257 0 0.017503988106621141 -0.028582476080468943 0 0.017787606973753155 -0.028569294936078415 0 0.017707203944719363 -0.028427593282539257 0 0.017503988106621141 -0.028582476080468943 0 0.017251496273264565 -0.028384964421784623 0 0.017503988106621141 -0.028582476080468943 0 0.017251496273264565 -0.028384964421784623 0 0.017116356117923785 -0.028715490506880284 0 0.016924032472004441 -0.027928633281966972 0 0.01747730573594241 -0.028039427975429611 0 0.017251496273264565 -0.028384964421784623 0 0.016331702957814997 -0.028446598969133798 0 0.016924032472004441 -0.027928633281966972 0 0.017251496273264565 -0.028384964421784623 0 0.016331702957814997 -0.028446598969133798 0 0.017251496273264565 -0.028384964421784623 0 0.017116356117923785 -0.028715490506880284 0 0.016185279997499982 -0.029146642563931121 0 0.017116356117923785 -0.028715490506880284 0 0.017215128788834116 -0.02876862384799846 0 0.017503988106621141 -0.028582476080468943 0 0.017116356117923785 -0.028715490506880284 0 0.017575871641758771 -0.028581045865223833 0 0.017116356117923785 -0.028715490506880284 0 0.017215128788834116 -0.02876862384799846 0 0.017575871641758771 -0.028581045865223833 0 0.017215128788834116 -0.02876862384799846 0 0.017575871641758771 -0.028581045865223833 0 0.017508007230993706 -0.028514436358379105 0 0.017575871641758771 -0.028581045865223833 0 0.01778370959710739 -0.028162575504779248 0 0.017508007230993706 -0.028514436358379105 0 0.01778370959710739 -0.028162575504779248 0 0.017508007230993706 -0.028514436358379105 0 0.017677780132056675 -0.028278135506629231 0 0.017575871641758771 -0.028581045865223833 0 0.01778370959710739 -0.028162575504779248 0 0.017950432133764609 -0.0278538583517496 0 0.017140937319683115 -0.028802064377983261 0 0.017508007230993706 -0.028514436358379105 0 0.017677780132056675 -0.028278135506629231 0 0.01699841145104972 -0.029499885969697052 0 0.014373719242340899 -0.028426815509654531 0 0.017215128788834116 -0.02876862384799846 0 0.017140937319683115 -0.028802064377983261 0 0.017508007230993706 -0.028514436358379105 0 0.0080143335229609525 -0.029251409298111465 0 0.0091549502877306538 -0.028365327325843629 0 0.0090493791462761819 -0.029327280837629296 0 0.0091549502877306538 -0.028365327325843629 0 0.01009606349546617 -0.029639549093150429 0 0.0090493791462761819 -0.029327280837629296 0 0.01551605201973027 -0.027620613514222368 0 0.016151605035624118 -0.027957890254050408 0 0.015992401131446871 -0.02832532035395971 0 0.014373719242340899 -0.028426815509654531 0 0.017965894415457147 -0.027511124020997639 0 0.01778370959710739 -0.028162575504779248 0 0.017677780132056675 -0.028278135506629231 0 0.018127245685018306 -0.027685161903681994 0 0.017677780132056675 -0.028278135506629231 0 0.018127245685018306 -0.027685161903681994 0 0.018105822517260586 -0.027733439968945488 0 0.014373719242340899 -0.028426815509654531 0 0.01598290777774148 -0.027712624897425833 0 0.01778370959710739 -0.028162575504779248 0 0.018127245685018306 -0.027685161903681994 0 0.017950432133764609 -0.0278538583517496 0 0.018127245685018306 -0.027685161903681994 0 0.018253666807664909 -0.027524934052534953 0 0.018219449562083143 -0.02748588486863221 0 0.017980742559895051 -0.027537591051261669 0 0.017965894415457147 -0.027511124020997639 0 0.017965894415457147 -0.027511124020997639 0 0.018282235706504044 -0.027459412866403427 0 0.019056895464400158 -0.027405413318634834 0 0.019327458129145381 -0.026658071676403848 0 0.018887743789416669 -0.026810288900627494 0 0.017965894415457147 -0.027511124020997639 0 0.01598290777774148 -0.027712624897425833 0 0.019056895464400158 -0.027405413318634834 0 0.018887743789416669 -0.026810288900627494 0 0.018477962180171569 -0.02713747640524259 0 0.019327458129145381 -0.026658071676403848 0 0.018856768252948238 -0.026328149429906224 0 0.018831043315229938 -0.025838919802162665 0 0.01598290777774148 -0.027712624897425833 0 0.018943613042690106 -0.026163366042282969 0 0.019327458129145381 -0.026658071676403848 0 0.018887743789416669 -0.026810288900627494 0 0.018856768252948238 -0.026328149429906224 0 0.01009606349546617 -0.029639549093150429 0 0.0088234944311975112 -0.030115059840874508 0 0.0090493791462761819 -0.029327280837629296 0 0.0080143335229609525 -0.029251409298111465 0 0.0088234944311975112 -0.030115059840874508 0 0.0090493791462761819 -0.029327280837629296 0 0.018363591952774677 -0.026521814702814624 0 0.018430093179313111 -0.026339237016143331 0 0.018091313136812646 -0.027272326771689143 0 0.018430093179313111 -0.026339237016143331 0 0.018091313136812646 -0.027272326771689143 0 0.018558030290930047 -0.026005418607681501 0 0.018363591952774677 -0.026521814702814624 0 0.018405344499267218 -0.026473076207190676 0 0.018293493183540559 -0.026827538463282445 0 0.018430093179313111 -0.026339237016143331 0 0.018562755735548653 -0.026055238202402277 0 0.018529260844145693 -0.026067979965519052 0 0.018363591952774677 -0.026521814702814624 0 0.018430093179313111 -0.026339237016143331 0 0.018529260844145693 -0.026067979965519052 0 0.018363591952774677 -0.026521814702814624 0 0.018460823222654198 -0.026231764422748254 0 0.018529260844145693 -0.026067979965519052 0 0.018460823222654198 -0.026231764422748254 0 0.018520101054505897 -0.0260687893328298 0 0.018529260844145693 -0.026067979965519052 0 0.018363591952774677 -0.026521814702814624 0 0.018460823222654198 -0.026231764422748254 0 0.018405344499267218 -0.026473076207190676 0 0.018460823222654198 -0.026231764422748254 0 0.01849844922930325 -0.026212475109296567 0 0.018405344499267218 -0.026473076207190676 0 0.018460823222654198 -0.026231764422748254 0 0.01849844922930325 -0.026212475109296567 0 0.018521336239359504 -0.026064463893057579 0 0.018560016121738729 -0.026190660281892379 0 0.018548261327525007 -0.026361769498890464 0 0.018649387235357737 -0.026049692113054711 0 0.01849844922930325 -0.026212475109296567 0 0.018560016121738729 -0.026190660281892379 0 0.018548261327525007 -0.026361769498890464 0 0.018548261327525007 -0.026361769498890464 0 0.018405344499267218 -0.026473076207190676 0 0.018397419018657171 -0.026760440671866132 0 0.01849844922930325 -0.026212475109296567 0 0.018548261327525007 -0.026361769498890464 0 0.018405344499267218 -0.026473076207190676 0 0.018548261327525007 -0.026361769498890464 0 0.018856768252948238 -0.026328149429906224 0 0.018747544590169189 -0.026086226675008699 0 0.018548261327525007 -0.026361769498890464 0 0.018649387235357737 -0.026049692113054711 0 0.018747544590169189 -0.026086226675008699 0 0.018548261327525007 -0.026361769498890464 0 0.018856768252948238 -0.026328149429906224 0 0.018618279966858588 -0.026666480823946861 0 0.018887743789416669 -0.026810288900627494 0 0.018856768252948238 -0.026328149429906224 0 0.018618279966858588 -0.026666480823946861 0 0.018887743789416669 -0.026810288900627494 0 0.018618279966858588 -0.026666480823946861 0 0.018477962180171569 -0.02713747640524259 0 0.018548261327525007 -0.026361769498890464 0 0.018618279966858588 -0.026666480823946861 0 0.018397419018657171 -0.026760440671866132 0 0.018618279966858588 -0.026666480823946861 0 0.018477962180171569 -0.02713747640524259 0 0.018397419018657171 -0.026760440671866132 0 0.018477962180171569 -0.02713747640524259 0 0.018397419018657171 -0.026760440671866132 0 0.018280655795791516 -0.027138360930454172 0 0.018405344499267218 -0.026473076207190676 0 0.018397419018657171 -0.026760440671866132 0 0.018293493183540559 -0.026827538463282445 0 0.018397419018657171 -0.026760440671866132 0 0.018293493183540559 -0.026827538463282445 0 0.018280655795791516 -0.027138360930454172 0 0.017950432133764609 -0.0278538583517496 0 0.018139209215766113 -0.027438106899480612 0 0.018091313136812646 -0.027272326771689143 0 0.018280655795791516 -0.027138360930454172 0 0.018139209215766113 -0.027438106899480612 0 0.018091313136812646 -0.027272326771689143 0 0.018293493183540559 -0.026827538463282445 0 0.018280655795791516 -0.027138360930454172 0 0.018091313136812646 -0.027272326771689143 0 0.018253666807664909 -0.027524934052534953 0 0.018477962180171569 -0.02713747640524259 0 0.018219449562083143 -0.02748588486863221 0 0.018477962180171569 -0.02713747640524259 0 0.018280655795791516 -0.027138360930454172 0 0.018219449562083143 -0.02748588486863221 0 0.018280655795791516 -0.027138360930454172 0 0.018219449562083143 -0.02748588486863221 0 0.018139209215766113 -0.027438106899480612 0 0.018219449562083143 -0.02748588486863221 0 0.017950432133764609 -0.0278538583517496 0 0.018139209215766113 -0.027438106899480612 0 0.018127245685018306 -0.027685161903681994 0 0.018219449562083143 -0.02748588486863221 0 0.017950432133764609 -0.0278538583517496 0 0.017845141313466081 -0.028143230648691651 0 0.019138304478973019 -0.026983880469603497 0 0.018363591952774677 -0.026521814702814624 0 0.018293493183540559 -0.026827538463282445 0 0.018091313136812646 -0.027272326771689143 0 0.0178157347606239 -0.028804880052731074 0 0.017881401357650883 -0.028668559996055779 0 0.018040485160388114 -0.028746689032129735 0 0.017575871641758771 -0.028581045865223833 0 0.0178157347606239 -0.028804880052731074 0 0.017881401357650883 -0.028668559996055779 0 0.017575871641758771 -0.028581045865223833 0 0.017950432133764609 -0.0278538583517496 0 0.018091313136812646 -0.027272326771689143 0 0.017729347139997208 -0.028532028660403167 0 0.017845141313466081 -0.028143230648691651 0 0.017575871641758771 -0.028581045865223833 0 0.017881401357650883 -0.028668559996055779 0 0.017787606973753155 -0.028569294936078415 0 0.017503988106621141 -0.028582476080468943 0 0.017575871641758771 -0.028581045865223833 0 0.017787606973753155 -0.028569294936078415 0 0.017881401357650883 -0.028668559996055779 0 0.017787606973753155 -0.028569294936078415 0 0.018105137792746188 -0.028544679093376612 0 0.022479050550548198 -0.02610537392821809 0 0.0224290744134415 -0.026012716900634419 0 0.022428252025617188 -0.026099410971606386 0 0.022479050550548198 -0.02610537392821809 0 0.022483646402577846 -0.026006939326779829 0 0.0224290744134415 -0.026012716900634419 0 0.017881401357650883 -0.028668559996055779 0 0.018105137792746188 -0.028544679093376612 0 0.018040485160388114 -0.028746689032129735 0 0.020367123420312161 -0.027228865544296137 0 0.020378937754278608 -0.02747696370527564 0 0.020378937754278608 -0.02747696370527564 0 0.019138304478973019 -0.026983880469603497 0 0.0178157347606239 -0.028804880052731074 0 0.018040485160388114 -0.028746689032129735 0 0.018023230847258001 -0.028928456581126027 0 0.022483646402577846 -0.026006939326779829 0 0.022427369484844147 -0.025922421595478706 0 0.0224290744134415 -0.026012716900634419 0 0.022483646402577846 -0.026006939326779829 0 0.022427369484844147 -0.025922421595478706 0 0.022482594650274332 -0.025904146666620692 0 0.025689609267736644 -0.024626645921076697 0 0.025423111475758021 -0.024804262890817885 0 0.022427369484844147 -0.025922421595478706 0 0.022482594650274332 -0.025904146666620692 0 0.02242707571809157 -0.025830974631628277 0 0.025689609267736644 -0.024626645921076697 0 0.022652208861284415 -0.024796150130606723 0 0.018643730228991247 -0.025937863802975913 0 0.018656561809681237 -0.025956455471448609 0 0.019342642350357223 -0.025735208014286026 0 0.019138304478973019 -0.026983880469603497 0 0.019123014210704462 -0.026793610219296733 0 0.018656561809681237 -0.025956455471448609 0 0.018562755735548653 -0.026055238202402277 0 0.018686844616579733 -0.025960418991421937 0 0.018562755735548653 -0.026055238202402277 0 0.018686844616579733 -0.025960418991421937 0 0.018529260844145693 -0.026067979965519052 0 0.018430093179313111 -0.026339237016143331 0 0.018558030290930047 -0.026005418607681501 0 0.018562755735548653 -0.026055238202402277 0 0.018558030290930047 -0.026005418607681501 0 0.018656561809681237 -0.025956455471448609 0 0.018562755735548653 -0.026055238202402277 0 0.028569302138392032 -0.023475172107707398 0 0.028637613783064592 -0.023493733116148597 0 0.028522914434495047 -0.02352878539775647 0 0.028457367312049578 -0.023472480901038203 0 0.028569302138392032 -0.023475172107707398 0 0.028522914434495047 -0.02352878539775647 0 0.028457367312049578 -0.023472480901038203 0 0.028546748364470523 -0.023432933561466682 0 0.028483747877204233 -0.023411086532828161 0 0.028457367312049578 -0.023472480901038203 0 0.028569302138392032 -0.023475172107707398 0 0.028546748364470523 -0.023432933561466682 0 0.028569302138392032 -0.023475172107707398 0 0.028546748364470523 -0.023432933561466682 0 0.028650184247584212 -0.023441769173273948 0 0.028546748364470523 -0.023432933561466682 0 0.028616842875559875 -0.023396851322918789 0 0.028650184247584212 -0.023441769173273948 0 0.028546748364470523 -0.023432933561466682 0 0.028552157737716976 -0.023387355735993789 0 0.028616842875559875 -0.023396851322918789 0 0.028552157737716976 -0.023387355735993789 0 0.028600439911422876 -0.023344418258962649 0 0.028616842875559875 -0.023396851322918789 0 0.028552157737716976 -0.023387355735993789 0 0.028483747877204233 -0.023411086532828161 0 0.028498695055323344 -0.023354605316193208 0 0.028546748364470523 -0.023432933561466682 0 0.028552157737716976 -0.023387355735993789 0 0.028483747877204233 -0.023411086532828161 0 0.025423111475758021 -0.024804262890817885 0 0.025530306690635635 -0.024355612770739769 0 0.028552157737716976 -0.023387355735993789 0 0.028498695055323344 -0.023354605316193208 0 0.028600439911422876 -0.023344418258962649 0 0.028498695055323344 -0.023354605316193208 0 0.028600439911422876 -0.023344418258962649 0 0.028557178212802077 -0.023322242690209691 0 0.028600439911422876 -0.023344418258962649 0 0.028557178212802077 -0.023322242690209691 0 0.028634850681907218 -0.023285462610840791 0 0.032012943976428121 -0.030889897283799182 0 0.032627735801973035 -0.030285372693309408 0 0.032923964317556717 -0.031658139200254794 0 0.024962390288551423 -0.026469462972055834 0 0.031603395689241212 -0.026307409236265018 0 0.028999636985402071 -0.02764279170772671 0 0.028166700975100378 -0.028147826328596845 0 0.029718072924455666 -0.028258957828817301 0 0.028557178212802077 -0.023322242690209691 0 0.028497524143274052 -0.023297532493990032 0 0.028634850681907218 -0.023285462610840791 0 0.030893558295786459 -0.029591932975023938 0 0.031603395689241212 -0.026307409236265018 0 0.024962390288551423 -0.026469462972055834 0 0.028023805880513623 -0.029078179808460117 0 0.028999636985402071 -0.02764279170772671 0 0.028166700975100378 -0.028147826328596845 0 0.028291335013021949 -0.027032046485411725 0 0.020479207527180032 -0.028782778364902437 0 0.020443961960915073 -0.028525229704052493 0 0.020567795898423176 -0.027987174110346371 0 0.022428252025617188 -0.026099410971606386 0 0.022429861111665991 -0.026179096835329291 0 0.022449789661062602 -0.02614493735542946 0 0.025530306690635635 -0.024355612770739769 0 0.024962390288551423 -0.026469462972055834 0 0.028498695055323344 -0.023354605316193208 0 0.028557178212802077 -0.023322242690209691 0 0.028497524143274052 -0.023297532493990032 0 0.022479050550548198 -0.02610537392821809 0 0.022449789661062602 -0.02614493735542946 0 0.022462683541411212 -0.026190810055101158 0 0.022479050550548198 -0.02610537392821809 0 0.022428252025617188 -0.026099410971606386 0 0.022449789661062602 -0.02614493735542946 0 0.018105137792746188 -0.028544679093376612 0 0.0180047636186738 -0.028428641974711233 0 0.018153272255222976 -0.028327889035798182 0 0.017787606973753155 -0.028569294936078415 0 0.018105137792746188 -0.028544679093376612 0 0.0180047636186738 -0.028428641974711233 0 0.020367123420312161 -0.027228865544296137 0 0.019564217808828381 -0.027575403616563542 0 0.018031651555059286 -0.028311995913646915 0 0.0180047636186738 -0.028428641974711233 0 0.018153272255222976 -0.028327889035798182 0 0.018031651555059286 -0.028311995913646915 0 0.019094053926191925 -0.028614278145469116 0 0.018675151074942282 -0.027841796888656848 0 0.017756995222525853 -0.028430171484642146 0 0.019564217808828381 -0.027575403616563542 0 0.019094053926191925 -0.028614278145469116 0 0.01918067373065083 -0.028200359751970341 0 0.018675151074942282 -0.027841796888656848 0 0.020479207527180032 -0.028782778364902437 0 0.020443961960915073 -0.028525229704052493 0 0.019164353773407996 -0.028757135138868063 0 0.024962390288551423 -0.026469462972055834 0 0.019564217808828381 -0.027575403616563542 0 0.022429861111665991 -0.026179096835329291 0 0.022449789661062602 -0.02614493735542946 0 0.022462683541411212 -0.026190810055101158 0 0.020443961960915073 -0.028525229704052493 0 0.01918067373065083 -0.028200359751970341 0 0.018675151074942282 -0.027841796888656848 0 0.020443961960915073 -0.028525229704052493 0 0.019164353773407996 -0.028757135138868063 0 0.01918067373065083 -0.028200359751970341 0 0.019564217808828381 -0.027575403616563542 0 0.019330949141673524 -0.028354567875250727 0 0.020443961960915073 -0.028525229704052493 0 0.019956481800934761 -0.028159424555893823 0 0.01945865821112757 -0.028250642537046282 0 0.020443961960915073 -0.028525229704052493 0 0.020242821259175207 -0.028151064701246051 0 0.019956481800934761 -0.028159424555893823 0 0.02036151101991486 -0.028497122619372532 0 0.019091448368950818 -0.02806400978865977 0 0.019956481800934761 -0.028159424555893823 0 0.019753355996989578 -0.027882971204938749 0 0.01945865821112757 -0.028250642537046282 0 0.019956481800934761 -0.028159424555893823 0 0.019753355996989578 -0.027882971204938749 0 0.020107881458284165 -0.027891234608017575 0 0.020107881458284165 -0.027891234608017575 0 0.020026113121155802 -0.027580817130132395 0 0.020567795898423176 -0.027987174110346371 0 0.020242821259175207 -0.028151064701246051 0 0.019956481800934761 -0.028159424555893823 0 0.020107881458284165 -0.027891234608017575 0 0.018286989970258564 -0.027895405093435636 0 0.01945865821112757 -0.028250642537046282 0 0.019393338344919599 -0.027653402630212973 0 0.019753355996989578 -0.027882971204938749 0 0.01945865821112757 -0.028250642537046282 0 0.019393338344919599 -0.027653402630212973 0 0.019514451063057554 -0.027069962781105527 0 0.019393338344919599 -0.027653402630212973 0 0.020010675618587815 -0.027519805507837784 0 0.019514451063057554 -0.027069962781105527 0 0.018936999380885545 -0.027296333521024733 0 0.019393338344919599 -0.027653402630212973 0 0.020817512683999999 -0.027463440925324961 0 0.022328867492260734 -0.02843554535824629 0 0.019753355996989578 -0.027882971204938749 0 0.019393338344919599 -0.027653402630212973 0 0.020010675618587815 -0.027519805507837784 0 0.019753355996989578 -0.027882971204938749 0 0.020107881458284165 -0.027891234608017575 0 0.020010675618587815 -0.027519805507837784 0 0.019048481473817099 -0.026627352603067467 0 0.022328867492260734 -0.02843554535824629 0 0.031374079168209654 -0.028454669519231878 0 0.028023805880513623 -0.029078179808460117 0 0.030768946859412512 -0.02832293984510606 0 0.029231744381943803 -0.029534299426122741 0 0.030443360418159222 -0.030615236018170337 0 0.031230295946983105 -0.028112276407908084 0 0.03233361449510818 -0.029268007009045083 0 0.031100637261622426 -0.030112809979453977 0 0.022328867492260734 -0.02843554535824629 0 0.028023805880513623 -0.029078179808460117 0 0.032525657183448943 -0.028262534000730158 0 0.03233361449510818 -0.029268007009045083 0 0.033325641367164989 -0.028852200205995007 0 0.032012943976428121 -0.030889897283799182 0 0.032627735801973035 -0.030285372693309408 0 0.031100637261622426 -0.030112809979453977 0 0.03233361449510818 -0.029268007009045083 0 0.032627735801973035 -0.030285372693309408 0 0.031100637261622426 -0.030112809979453977 0 0.03233361449510818 -0.029268007009045083 0 0.032627735801973035 -0.030285372693309408 0 0.03344479651163574 -0.029727645107108871 0 0.030893558295786459 -0.029591932975023938 0 0.028023805880513623 -0.029078179808460117 0 0.020443961960915073 -0.028525229704052493 0 0.020242821259175207 -0.028151064701246051 0 0.020567795898423176 -0.027987174110346371 0 0.020242821259175207 -0.028151064701246051 0 0.020107881458284165 -0.027891234608017575 0 0.020567795898423176 -0.027987174110346371 0 0.03460383380118208 -0.030134004310234216 0 0.035607342948539969 -0.030258867627354108 0 0.03508683310911722 -0.031762937382062595 0 0.03460383380118208 -0.030134004310234216 0 0.03344479651163574 -0.029727645107108871 0 0.034183050571823123 -0.029253835960227376 0 0.03460383380118208 -0.030134004310234216 0 0.033574847753879859 -0.030551772371790839 0 0.034105024614229151 -0.031063610592990027 0 0.03460383380118208 -0.030134004310234216 0 0.033574847753879859 -0.030551772371790839 0 0.03344479651163574 -0.029727645107108871 0 0.032627735801973035 -0.030285372693309408 0 0.033574847753879859 -0.030551772371790839 0 0.03344479651163574 -0.029727645107108871 0 0.03344479651163574 -0.029727645107108871 0 0.033325641367164989 -0.028852200205995007 0 0.034183050571823123 -0.029253835960227376 0 0.03233361449510818 -0.029268007009045083 0 0.03344479651163574 -0.029727645107108871 0 0.033325641367164989 -0.028852200205995007 0 0.034421883946708698 -0.028383414815404476 0 0.033325641367164989 -0.028852200205995007 0 0.034183050571823123 -0.029253835960227376 0 0.034421883946708698 -0.028383414815404476 0 0.034183050571823123 -0.029253835960227376 0 0.034915696903121719 -0.029075073802898307 0 0.03460383380118208 -0.030134004310234216 0 0.034915696903121719 -0.029075073802898307 0 0.035683839731256294 -0.029367581175111832 0 0.03460383380118208 -0.030134004310234216 0 0.034183050571823123 -0.029253835960227376 0 0.034915696903121719 -0.029075073802898307 0 0.035446382695407529 -0.028422095737232755 0 0.034421883946708698 -0.028383414815404476 0 0.034915696903121719 -0.029075073802898307 0 0.035446382695407529 -0.028422095737232755 0 0.034915696903121719 -0.029075073802898307 0 0.035683839731256294 -0.029367581175111832 0 0.035446382695407529 -0.028422095737232755 0 0.035683839731256294 -0.029367581175111832 0 0.036286740350467146 -0.028676396083031484 0 0.037570970103806792 -0.027211326950514814 0 0.037944072886477859 -0.027342492798094465 0 0.037065628108050065 -0.028060732685885936 0 0.036286740350467146 -0.028676396083031484 0 0.037053500898688828 -0.029695042996427962 0 0.035683839731256294 -0.029367581175111832 0 0.036286740350467146 -0.028676396083031484 0 0.037053500898688828 -0.029695042996427962 0 0.037053500898688828 -0.029695042996427962 0 0.036321467161276065 -0.030650329654840696 0 0.035607342948539969 -0.030258867627354108 0 0.037053500898688828 -0.029695042996427962 0 0.036321467161276065 -0.030650329654840696 0 0.037097684576442545 -0.031305943381237239 0 0.037944072886477859 -0.027342492798094465 0 0.036917063239728688 -0.02802489897244665 0 0.035683839731256294 -0.029367581175111832 0 0.037053500898688828 -0.029695042996427962 0 0.035607342948539969 -0.030258867627354108 0 0.03460383380118208 -0.030134004310234216 0 0.035683839731256294 -0.029367581175111832 0 0.035607342948539969 -0.030258867627354108 0 0.036321467161276065 -0.030650329654840696 0 0.035607342948539969 -0.030258867627354108 0 0.03508683310911722 -0.031762937382062595 0 0.036321467161276065 -0.030650329654840696 0 0.037079309993219942 -0.031295694342947773 0 0.03508683310911722 -0.031762937382062595 0 0.037079309993219942 -0.031295694342947773 0 0.037102091903530893 -0.031828871016936176 0 0.03508683310911722 -0.031762937382062595 0 0.037061270557598669 -0.031040636302226556 0 0.036917063239728688 -0.02802489897244665 0 0.036917063239728688 -0.02802489897244665 0 0.034656544506141029 -0.025677007660900305 0 0.033333518330917571 -0.0236716717664563 0 0.033439359349866235 -0.023572190939383498 0 0.033320083717290484 -0.023501030544086917 0 0.034656544506141029 -0.025677007660900305 0 0.033305480839653998 -0.022863557616981424 0 0.033439359349866235 -0.023572190939383498 0 0.033576360382507817 -0.023598606245201242 0 0.03352494248878516 -0.023692182904140002 0 0.034656544506141029 -0.025677007660900305 0 0.034813549503018168 -0.028235916322115522 0 0.033333518330917571 -0.0236716717664563 0 0.033439359349866235 -0.023572190939383498 0 0.03352494248878516 -0.023692182904140002 0 0.033576360382507817 -0.023598606245201242 0 0.03352494248878516 -0.023692182904140002 0 0.033648647069624782 -0.023736373662629602 0 0.034813549503018168 -0.028235916322115522 0 0.031603395689241212 -0.026307409236265018 0 0.03460383380118208 -0.030134004310234216 0 0.03508683310911722 -0.031762937382062595 0 0.034105024614229151 -0.031063610592990027 0 0.03508683310911722 -0.031762937382062595 0 0.034105024614229151 -0.031063610592990027 0 0.032923964317556717 -0.031658139200254794 0 0.032627735801973035 -0.030285372693309408 0 0.033574847753879859 -0.030551772371790839 0 0.032923964317556717 -0.031658139200254794 0 0.033574847753879859 -0.030551772371790839 0 0.034105024614229151 -0.031063610592990027 0 0.032923964317556717 -0.031658139200254794 0 0.028600439911422876 -0.023344418258962649 0 0.028713629029984564 -0.023306209379455298 0 0.028634850681907218 -0.023285462610840791 0 0.030913890753954513 -0.022986909205580233 0 0.031603395689241212 -0.026307409236265018 0 0.028600439911422876 -0.023344418258962649 0 0.028713629029984564 -0.023306209379455298 0 0.028714498105887935 -0.023369957077186039 0 0.028713629029984564 -0.023306209379455298 0 0.028714498105887935 -0.023369957077186039 0 0.028812800080230277 -0.023324491112109592 0 0.030913890753954513 -0.022986909205580233 0 0.031208455464035719 -0.023455407502099235 0 0.028714498105887935 -0.023369957077186039 0 0.028762789472405455 -0.023439285264246882 0 0.028821951302634877 -0.02339070709417625 0 0.028714498105887935 -0.023369957077186039 0 0.028616842875559875 -0.023396851322918789 0 0.028650184247584212 -0.023441769173273948 0 0.028600439911422876 -0.023344418258962649 0 0.028714498105887935 -0.023369957077186039 0 0.028616842875559875 -0.023396851322918789 0 0.028714498105887935 -0.023369957077186039 0 0.028650184247584212 -0.023441769173273948 0 0.028762789472405455 -0.023439285264246882 0 0.028650184247584212 -0.023441769173273948 0 0.028762789472405455 -0.023439285264246882 0 0.028709206356377512 -0.023469514150250188 0 0.028650184247584212 -0.023441769173273948 0 0.028709206356377512 -0.023469514150250188 0 0.028637613783064592 -0.023493733116148597 0 0.028569302138392032 -0.023475172107707398 0 0.028650184247584212 -0.023441769173273948 0 0.028637613783064592 -0.023493733116148597 0 0.02884297977877931 -0.023515713514283394 0 0.02889975900247178 -0.023452246408570555 0 0.028964100875069267 -0.023506668880705107 0 0.028878468775999238 -0.023409400139538326 0 0.028919938138736317 -0.023352074303509537 0 0.028920263725619823 -0.023422188405744972 0 0.028878468775999238 -0.023409400139538326 0 0.028804850770909489 -0.023393206644265328 0 0.028855207296034826 -0.023468087995434588 0 0.028730167443696233 -0.023485967985530411 0 0.029384669355580661 -0.022929202254133637 0 0.028878468775999238 -0.023409400139538326 0 0.028804850770909489 -0.023393206644265328 0 0.028919938138736317 -0.023352074303509537 0 0.028709206356377512 -0.023469514150250188 0 0.028804850770909489 -0.023393206644265328 0 0.028729974788088967 -0.023497821917930092 0 0.028762789472405455 -0.023439285264246882 0 0.028709206356377512 -0.023469514150250188 0 0.02884297977877931 -0.023515713514283394 0 0.028765199849416487 -0.023460495688636455 0 0.028730167443696233 -0.023485967985530411 0 0.028762789472405455 -0.023439285264246882 0 0.02889975900247178 -0.023452246408570555 0 0.028821951302634877 -0.02339070709417625 0 0.028762789472405455 -0.023439285264246882 0 0.02884297977877931 -0.023515713514283394 0 0.02889975900247178 -0.023452246408570555 0 0.02889975900247178 -0.023452246408570555 0 0.029003496655407541 -0.023369623363112851 0 0.028821951302634877 -0.02339070709417625 0 0.02889975900247178 -0.023452246408570555 0 0.029003496655407541 -0.023369623363112851 0 0.029116402821405568 -0.023659258251314718 0 0.028960407097972679 -0.023512953942816644 0 0.029384669355580661 -0.022929202254133637 0 0.033368475436652584 -0.023314996001966699 0 0.033397251266077156 -0.023411129240408852 0 0.033376923991605821 -0.02331387281145084 0 0.031152845624739137 -0.023404327246873489 0 0.031208455464035719 -0.023455407502099235 0 0.033368475436652584 -0.023314996001966699 0 0.033397251266077156 -0.023411129240408852 0 0.033470474223376491 -0.023431535066819349 0 0.029003496655407541 -0.023369623363112851 0 0.028821951302634877 -0.02339070709417625 0 0.028812800080230277 -0.023324491112109592 0 0.028714498105887935 -0.023369957077186039 0 0.028821951302634877 -0.02339070709417625 0 0.028812800080230277 -0.023324491112109592 0 0.033439359349866235 -0.023572190939383498 0 0.033397251266077156 -0.023411129240408852 0 0.033470474223376491 -0.023431535066819349 0 0.033439359349866235 -0.023572190939383498 0 0.033576360382507817 -0.023598606245201242 0 0.033470474223376491 -0.023431535066819349 0 0.033397251266077156 -0.023411129240408852 0 0.033320083717290484 -0.023501030544086917 0 0.033376923991605821 -0.02331387281145084 0 0.033439359349866235 -0.023572190939383498 0 0.033397251266077156 -0.023411129240408852 0 0.033320083717290484 -0.023501030544086917 0 0.033305480839653998 -0.022863557616981424 0 0.033387802315996931 -0.023492220181425227 0 0.033419976092155038 -0.023139446084665855 0 0.033487913584045306 -0.023198571822968646 0 0.033495599367936849 -0.023103631065271347 0 0.033419976092155038 -0.023139446084665855 0 0.033487913584045306 -0.023198571822968646 0 0.033376923991605821 -0.02331387281145084 0 0.033487913584045306 -0.023198571822968646 0 0.03359730993932044 -0.023104154830489654 0 0.033495599367936849 -0.023103631065271347 0 0.03359730993932044 -0.023104154830489654 0 0.033573497865071092 -0.023251921923070244 0 0.033728231090449853 -0.023181108426215114 0 0.033487913584045306 -0.023198571822968646 0 0.03359730993932044 -0.023104154830489654 0 0.033573497865071092 -0.023251921923070244 0 0.033573497865071092 -0.023251921923070244 0 0.033519464283633386 -0.023320428270134419 0 0.033581306720321585 -0.023346883965150174 0 0.033573497865071092 -0.023251921923070244 0 0.033473062136604281 -0.023294701342478956 0 0.033519464283633386 -0.023320428270134419 0 0.033487913584045306 -0.023198571822968646 0 0.033473062136604281 -0.023294701342478956 0 0.033376923991605821 -0.02331387281145084 0 0.033487913584045306 -0.023198571822968646 0 0.033573497865071092 -0.023251921923070244 0 0.033473062136604281 -0.023294701342478956 0 0.033368475436652584 -0.023314996001966699 0 0.033376923991605821 -0.02331387281145084 0 0.033445314184245338 -0.023343813535079114 0 0.033473062136604281 -0.023294701342478956 0 0.033376923991605821 -0.02331387281145084 0 0.033445314184245338 -0.023343813535079114 0 0.029003496655407541 -0.023369623363112851 0 0.029116402821405568 -0.023659258251314718 0 0.029378298856103355 -0.023625364643074218 0 0.031152845624739137 -0.023404327246873489 0 0.031759523589907142 -0.022985943365823026 0 0.033368475436652584 -0.023314996001966699 0 0.033445314184245338 -0.023343813535079114 0 0.033484291540701677 -0.023431160657966174 0 0.033445314184245338 -0.023343813535079114 0 0.033501339347426357 -0.023363326222748674 0 0.033484291540701677 -0.023431160657966174 0 0.033473062136604281 -0.023294701342478956 0 0.033445314184245338 -0.023343813535079114 0 0.033519464283633386 -0.023320428270134419 0 0.033445314184245338 -0.023343813535079114 0 0.033501339347426357 -0.023363326222748674 0 0.033519464283633386 -0.023320428270134419 0 0.033501339347426357 -0.023363326222748674 0 0.033519464283633386 -0.023320428270134419 0 0.033581306720321585 -0.023346883965150174 0 0.033573497865071092 -0.023251921923070244 0 0.033581306720321585 -0.023346883965150174 0 0.033676797277157569 -0.023310974071444987 0 0.033581306720321585 -0.023346883965150174 0 0.033549516846586157 -0.023432119160179146 0 0.033676797277157569 -0.023310974071444987 0 0.033501339347426357 -0.023363326222748674 0 0.033526422813522208 -0.023391663710934176 0 0.033484291540701677 -0.023431160657966174 0 0.033501339347426357 -0.023363326222748674 0 0.033581306720321585 -0.023346883965150174 0 0.033526422813522208 -0.023391663710934176 0 0.033581306720321585 -0.023346883965150174 0 0.033526422813522208 -0.023391663710934176 0 0.033549516846586157 -0.023432119160179146 0 0.033513036213463028 -0.022976957323194588 0 0.033219274698516744 -0.022156828537464944 0 0.033526422813522208 -0.023391663710934176 0 0.033536450771479473 -0.023423535922628497 0 0.033484291540701677 -0.023431160657966174 0 0.033219274698516744 -0.022156828537464944 0 0.031759523589907142 -0.022985943365823026 0 0.034115629993544942 -0.020611675396780282 0 0.034240888046660756 -0.020889961841980036 0 0.034576915133997826 -0.02055185377859408 0 0.032003901964911805 -0.021251490054564504 0 0.031911994208834268 -0.021625097041493097 0 0.031753496697289357 -0.021280804768241061 0 0.033219274698516744 -0.022156828537464944 0 0.034541538066301496 -0.01963519239326221 0 0.032122506296797075 -0.021743437002091918 0 0.03222656686960574 -0.021759141661087843 0 0.031911994208834268 -0.021625097041493097 0 0.032003901964911805 -0.021251490054564504 0 0.03222656686960574 -0.021759141661087843 0 0.031911994208834268 -0.021625097041493097 0 0.031911994208834268 -0.021625097041493097 0 0.031231650141727626 -0.021350820906496162 0 0.031753496697289357 -0.021280804768241061 0 0.031911994208834268 -0.021625097041493097 0 0.031231650141727626 -0.021350820906496162 0 0.03200473664543721 -0.022022817536402169 0 0.029384669355580661 -0.022929202254133637 0 0.032037247401877071 -0.021361020501783404 0 0.028919938138736317 -0.023352074303509537 0 0.028920263725619823 -0.023422188405744972 0 0.028973016360110813 -0.023417927693889774 0 0.029384669355580661 -0.022929202254133637 0 0.031759523589907142 -0.022985943365823026 0 0.035572940226405642 -0.01829413032480497 0 0.035841522548428366 -0.017884705455239458 0 0.03597977445112454 -0.018616900492571409 0 0.035000019204673237 -0.0181906515239732 0 0.036205989127710864 -0.017589013096470527 0 0.035572940226405642 -0.01829413032480497 0 0.03597977445112454 -0.018616900492571409 0 0.035082029458569489 -0.018839766826802065 0 0.035572940226405642 -0.01829413032480497 0 0.034999972696326306 -0.018190987476304252 0 0.035841522548428366 -0.017884705455239458 0 0.035572940226405642 -0.01829413032480497 0 0.034999972696326306 -0.018190987476304252 0 0.035082029458569489 -0.018839766826802065 0 0.034541538066301496 -0.01963519239326221 0 0.035044766846419675 -0.020283656302359052 0 0.03667044227753688 -0.017862594445830514 0 0.035841522548428366 -0.017884705455239458 0 0.03597977445112454 -0.018616900492571409 0 0.033219274698516744 -0.022156828537464944 0 0.035044766846419675 -0.020283656302359052 0 0.033549516846586157 -0.023432119160179146 0 0.033753416860699097 -0.023395700968734043 0 0.033676797277157569 -0.023310974071444987 0 0.033753416860699097 -0.023395700968734043 0 0.033676797277157569 -0.023310974071444987 0 0.033873410503809626 -0.023268545651249948 0 0.035044766846419675 -0.020283656302359052 0 0.034918840204970845 -0.021012507680829001 0 0.035044766846419675 -0.020283656302359052 0 0.035610705720321371 -0.018718727069293308 0 0.036293826368994246 -0.018713661325867503 0 0.035082029458569489 -0.018839766826802065 0 0.035317630559069266 -0.019731063795763042 0 0.034999972696326306 -0.018190987476304252 0 0.035082029458569489 -0.018839766826802065 0 0.034999965650521395 -0.019450255304261824 0 0.035082029458569489 -0.018839766826802065 0 0.034999965650521395 -0.019450255304261824 0 0.035317630559069266 -0.019731063795763042 0 0.03499928231176383 -0.019452208706666339 0 0.034918840204970845 -0.021012507680829001 0 0.035000528930992397 -0.02007184301621379 0 0.034918840204970845 -0.021012507680829001 0 0.03499959001076882 -0.02007194529105541 0 0.036360382064776757 -0.021772891886559065 0 0.036079934954275146 -0.023200124929080773 0 0.034918840204970845 -0.021012507680829001 0 0.035033795524198483 -0.022076324768008072 0 0.03499959001076882 -0.02007194529105541 0 0.035303108723240516 -0.019769661498474176 0 0.036356814252562597 -0.020853432359113865 0 0.034999997996076677 -0.019450552103086306 0 0.035000000110750593 -0.020071293189802532 0 0.035324997134984715 -0.019739129039174807 0 0.033573497865071092 -0.023251921923070244 0 0.033676797277157569 -0.023310974071444987 0 0.033728231090449853 -0.023181108426215114 0 0.033676797277157569 -0.023310974071444987 0 0.033873410503809626 -0.023268545651249948 0 0.033728231090449853 -0.023181108426215114 0 0.03734634830696848 -0.02196381266541567 0 0.036356814252562597 -0.020853432359113865 0 0.036360382064776757 -0.021772891886559065 0 0.035401443192373448 -0.022417358421421025 0 0.035033795524198483 -0.022076324768008072 0 0.03499959001076882 -0.02007194529105541 0 0.036356814252562597 -0.020853432359113865 0 0.036360382064776757 -0.021772891886559065 0 0.03499959001076882 -0.02007194529105541 0 0.036079934954275146 -0.023200124929080773 0 0.035000085352480392 -0.025306353899615226 0 0.036079934954275146 -0.023200124929080773 0 0.037115941764744524 -0.023718454144070682 0 0.036356193296176842 -0.024672292283498987 0 0.036079934954275146 -0.023200124929080773 0 0.036966666637339982 -0.022761954418178042 0 0.037115941764744524 -0.023718454144070682 0 0.03734634830696848 -0.02196381266541567 0 0.036360382064776757 -0.021772891886559065 0 0.036966666637339982 -0.022761954418178042 0 0.036360382064776757 -0.021772891886559065 0 0.036079934954275146 -0.023200124929080773 0 0.036966666637339982 -0.022761954418178042 0 0.035401443192373448 -0.022417358421421025 0 0.036003711144150706 -0.023792563247833607 0 0.03734634830696848 -0.02196381266541567 0 0.037754507410202046 -0.022964119927306098 0 0.038317060527186211 -0.023036665922023046 0 0.03734634830696848 -0.02196381266541567 0 0.037754507410202046 -0.022964119927306098 0 0.036966666637339982 -0.022761954418178042 0 0.03359730993932044 -0.023104154830489654 0 0.033495599367936849 -0.023103631065271347 0 0.033494408214941873 -0.023045402599999452 0 0.033443514395304963 -0.023047416252597434 0 0.033419976092155038 -0.023139446084665855 0 0.033495599367936849 -0.023103631065271347 0 0.037936599605308291 -0.023443605515208729 0 0.036003711144150706 -0.023792563247833607 0 0.037754507410202046 -0.022964119927306098 0 0.038232601471502071 -0.023076821734009965 0 0.037751146249899295 -0.023567593858828569 0 0.033443514395304963 -0.023047416252597434 0 0.033495599367936849 -0.023103631065271347 0 0.033494408214941873 -0.023045402599999452 0 0.034656544506141029 -0.025677007660900305 0 0.036003711144150706 -0.023792563247833607 0 0.036474600244728435 -0.026351946931182386 0 0.036413185191332839 -0.025289782848718429 0 0.0351601420311934 -0.025183134802798959 0 0.036917063239728688 -0.02802489897244665 0 0.036003711144150706 -0.023792563247833607 0 0.038819437295165772 -0.023683402762161965 0 0.038232601471502071 -0.023076821734009965 0 0.038224896614923932 -0.023734067351842632 0 0.038232601471502071 -0.023076821734009965 0 0.038224896614923932 -0.023734067351842632 0 0.037751146249899295 -0.023567593858828569 0 0.038224896614923932 -0.023734067351842632 0 0.037764857998393353 -0.024229143084864908 0 0.038290977977038225 -0.024373713453477844 0 0.038224896614923932 -0.023734067351842632 0 0.037764857998393353 -0.024229143084864908 0 0.037751146249899295 -0.023567593858828569 0 0.038819437295165772 -0.023683402762161965 0 0.038224896614923932 -0.023734067351842632 0 0.038290977977038225 -0.024373713453477844 0 0.037754507410202046 -0.022964119927306098 0 0.036966666637339982 -0.022761954418178042 0 0.037115941764744524 -0.023718454144070682 0 0.037754507410202046 -0.022964119927306098 0 0.037751146249899295 -0.023567593858828569 0 0.037115941764744524 -0.023718454144070682 0 0.037764857998393353 -0.024229143084864908 0 0.037751146249899295 -0.023567593858828569 0 0.037115941764744524 -0.023718454144070682 0 0.037764857998393353 -0.024229143084864908 0 0.037110790018809833 -0.024959020431884429 0 0.037980174636070951 -0.024932603145458844 0 0.037764857998393353 -0.024229143084864908 0 0.037115941764744524 -0.023718454144070682 0 0.037110790018809833 -0.024959020431884429 0 0.038665657128846044 -0.02525163569376393 0 0.038819437295165772 -0.023683402762161965 0 0.038290977977038225 -0.024373713453477844 0 0.037764857998393353 -0.024229143084864908 0 0.038290977977038225 -0.024373713453477844 0 0.037980174636070951 -0.024932603145458844 0 0.038665657128846044 -0.02525163569376393 0 0.038290977977038225 -0.024373713453477844 0 0.037980174636070951 -0.024932603145458844 0 0.038125426574283687 -0.026482981240221394 0 0.038665657128846044 -0.02525163569376393 0 0.03790301784696213 -0.025769880344277376 0 0.038665657128846044 -0.02525163569376393 0 0.037980174636070951 -0.024932603145458844 0 0.03790301784696213 -0.025769880344277376 0 0.037840880039112908 -0.026403160681239529 0 0.03790301784696213 -0.025769880344277376 0 0.037350607381115779 -0.026062554796748523 0 0.037110790018809833 -0.024959020431884429 0 0.037980174636070951 -0.024932603145458844 0 0.03790301784696213 -0.025769880344277376 0 0.037110790018809833 -0.024959020431884429 0 0.037350607381115779 -0.026062554796748523 0 0.036427527809470402 -0.02612354690085086 0 0.037110790018809833 -0.024959020431884429 0 0.03790301784696213 -0.025769880344277376 0 0.037350607381115779 -0.026062554796748523 0 0.037110790018809833 -0.024959020431884429 0 0.036427527809470402 -0.02612354690085086 0 0.036356193296176842 -0.024672292283498987 0 0.036427527809470402 -0.02612354690085086 0 0.035000085352480392 -0.025306353899615226 0 0.036356193296176842 -0.024672292283498987 0 0.036079934954275146 -0.023200124929080773 0 0.035000085352480392 -0.025306353899615226 0 0.036356193296176842 -0.024672292283498987 0 0.037115941764744524 -0.023718454144070682 0 0.037110790018809833 -0.024959020431884429 0 0.036356193296176842 -0.024672292283498987 0 0.036119865551622193 -0.01050342758835141 0 0.035711583193495981 -0.010403699174644209 0 0.035956602088648169 -0.010076398558089865 0 0.036119865551622193 -0.01050342758835141 0 0.036471674682770412 -0.010122486314556105 0 0.03653085532870335 -0.010690682083536202 0 0.036119865551622193 -0.01050342758835141 0 0.035956602088648169 -0.010076398558089865 0 0.036471674682770412 -0.010122486314556105 0 0.036119865551622193 -0.01050342758835141 0 0.03653085532870335 -0.010690682083536202 0 0.036198479105255595 -0.011009011786734215 0 0.03653085532870335 -0.010690682083536202 0 0.036627185982612262 -0.011079406654896725 0 0.036198479105255595 -0.011009011786734215 0 0.036119865551622193 -0.01050342758835141 0 0.035806992299006926 -0.010782556922544293 0 0.036198479105255595 -0.011009011786734215 0 0.036119865551622193 -0.01050342758835141 0 0.035806992299006926 -0.010782556922544293 0 0.035711583193495981 -0.010403699174644209 0 0.035806992299006926 -0.010782556922544293 0 0.035417063247905514 -0.010606904665743268 0 0.035611792684985578 -0.011082985116463035 0 0.034999928114293144 -0.009864311718549984 0 0.035331712226902665 -0.011120685370590985 0 0.034999891361900917 -0.011717609215655119 0 0.035417063247905514 -0.010606904665743268 0 0.034999928114293144 -0.009864311718549984 0 0.035331712226902665 -0.011120685370590985 0 0.035806992299006926 -0.010782556922544293 0 0.035417063247905514 -0.010606904665743268 0 0.035711583193495981 -0.010403699174644209 0 0.035417063247905514 -0.010606904665743268 0 0.035331712226902665 -0.011120685370590985 0 0.035611792684985578 -0.011082985116463035 0 0.035417063247905514 -0.010606904665743268 0 0.035270500287379533 -0.010093391563897889 0 0.034999928114293144 -0.009864311718549984 0 0.035417063247905514 -0.010606904665743268 0 0.035270500287379533 -0.010093391563897889 0 0.035711583193495981 -0.010403699174644209 0 0.035270500287379533 -0.010093391563897889 0 0.035711583193495981 -0.010403699174644209 0 0.035956602088648169 -0.010076398558089865 0 0.035270500287379533 -0.010093391563897889 0 0.035956602088648169 -0.010076398558089865 0 0.036138967105315216 -0.0095561774969399969 0 0.035309008791715273 -0.010040187288240804 0 0.036056506240222372 -0.0090407200289063568 0 0.035270500287379533 -0.010093391563897889 0 0.034999928114293144 -0.009864311718549984 0 0.036162630336745973 -0.0084240366517739571 0 0.034999928114293144 -0.009864311718549984 0 0.036162630336745973 -0.0084240366517739571 0 0.034999710780201386 -0.0080095661680203243 0 0.036471674682770412 -0.010122486314556105 0 0.036798734756236774 -0.0096574493983900087 0 0.036138967105315216 -0.0095561774969399969 0 0.035956602088648169 -0.010076398558089865 0 0.036471674682770412 -0.010122486314556105 0 0.036138967105315216 -0.0095561774969399969 0 0.036471674682770412 -0.010122486314556105 0 0.036798734756236774 -0.0096574493983900087 0 0.03701806828415536 -0.010101785588454076 0 0.036471674682770412 -0.010122486314556105 0 0.03701806828415536 -0.010101785588454076 0 0.036803923580302551 -0.010460455556633256 0 0.03701806828415536 -0.010101785588454076 0 0.03732088390620418 -0.010385236029083847 0 0.03749245030295606 -0.009556868289479924 0 0.036798734756236774 -0.0096574493983900087 0 0.03701806828415536 -0.010101785588454076 0 0.03749245030295606 -0.009556868289479924 0 0.030610658233147035 -0.013721581442672243 0 0.030307226257684568 -0.014047151124854709 0 0.030497664299380101 -0.013312128242531243 0 0.033632565603778836 -0.012391680252882143 0 0.03416137569077636 -0.01145051175077119 0 0.030610658233147035 -0.013721581442672243 0 0.030808784273643256 -0.013360557478737005 0 0.030497664299380101 -0.013312128242531243 0 0.030610658233147035 -0.013721581442672243 0 0.030580806296701141 -0.013980093825411962 0 0.030458354802718628 -0.014062264107303267 0 0.030610658233147035 -0.013721581442672243 0 0.030580806296701141 -0.013980093825411962 0 0.03070619279357148 -0.014016652590329972 0 0.033632565603778836 -0.012391680252882143 0 0.035300775838926088 -0.012543371851911695 0 0.030307226257684568 -0.014047151124854709 0 0.030098412039930581 -0.014790608581178234 0 0.030251261862402578 -0.014502493781484516 0 0.030610658233147035 -0.013721581442672243 0 0.030458354802718628 -0.014062264107303267 0 0.030307226257684568 -0.014047151124854709 0 0.030593787486655383 -0.01414261563161604 0 0.030490828091637386 -0.014167150656785551 0 0.030567899111831328 -0.014262963511549933 0 0.030593787486655383 -0.01414261563161604 0 0.030580806296701141 -0.013980093825411962 0 0.03070619279357148 -0.014016652590329972 0 0.030593787486655383 -0.01414261563161604 0 0.030580806296701141 -0.013980093825411962 0 0.030458354802718628 -0.014062264107303267 0 0.030490828091637386 -0.014167150656785551 0 0.030361654010495381 -0.01418659178162808 0 0.030567899111831328 -0.014262963511549933 0 0.030593787486655383 -0.01414261563161604 0 0.030458354802718628 -0.014062264107303267 0 0.030490828091637386 -0.014167150656785551 0 0.030458354802718628 -0.014062264107303267 0 0.030490828091637386 -0.014167150656785551 0 0.030361654010495381 -0.01418659178162808 0 0.030361654010495381 -0.01418659178162808 0 0.030307226257684568 -0.014047151124854709 0 0.030339918541701431 -0.014332381485435556 0 0.030458354802718628 -0.014062264107303267 0 0.030361654010495381 -0.01418659178162808 0 0.030307226257684568 -0.014047151124854709 0 0.030307226257684568 -0.014047151124854709 0 0.030339918541701431 -0.014332381485435556 0 0.030251261862402578 -0.014502493781484516 0 0.030368902342901009 -0.01445910986741311 0 0.030339918541701431 -0.014332381485435556 0 0.030251261862402578 -0.014502493781484516 0 0.030368902342901009 -0.01445910986741311 0 0.030457458338398951 -0.014434890340662587 0 0.030408722124886722 -0.014569660688479686 0 0.030368902342901009 -0.01445910986741311 0 0.030339918541701431 -0.014332381485435556 0 0.030457458338398951 -0.014434890340662587 0 0.030361654010495381 -0.01418659178162808 0 0.030339918541701431 -0.014332381485435556 0 0.030457458338398951 -0.014434890340662587 0 0.030361654010495381 -0.01418659178162808 0 0.030457458338398951 -0.014434890340662587 0 0.030685813505933534 -0.014576662530759007 0 0.030361654010495381 -0.01418659178162808 0 0.030567899111831328 -0.014262963511549933 0 0.030744818002091629 -0.014415217711607019 0 0.030593787486655383 -0.01414261563161604 0 0.030567899111831328 -0.014262963511549933 0 0.030718238244059882 -0.01427643418739892 0 0.03732088390620418 -0.010385236029083847 0 0.03701331695886783 -0.011138318817656458 0 0.037115023024964833 -0.011372314344868491 0 0.03732088390620418 -0.010385236029083847 0 0.036993057294615946 -0.010558128334907022 0 0.03701331695886783 -0.011138318817656458 0 0.036471674682770412 -0.010122486314556105 0 0.036803923580302551 -0.010460455556633256 0 0.03653085532870335 -0.010690682083536202 0 0.03701806828415536 -0.010101785588454076 0 0.03732088390620418 -0.010385236029083847 0 0.036993057294615946 -0.010558128334907022 0 0.03701806828415536 -0.010101785588454076 0 0.036803923580302551 -0.010460455556633256 0 0.036993057294615946 -0.010558128334907022 0 0.036803923580302551 -0.010460455556633256 0 0.036993057294615946 -0.010558128334907022 0 0.036814543655996346 -0.01074943826672408 0 0.036993057294615946 -0.010558128334907022 0 0.036814543655996346 -0.01074943826672408 0 0.03701331695886783 -0.011138318817656458 0 0.036803923580302551 -0.010460455556633256 0 0.036814543655996346 -0.01074943826672408 0 0.03653085532870335 -0.010690682083536202 0 0.036814543655996346 -0.01074943826672408 0 0.03653085532870335 -0.010690682083536202 0 0.036627185982612262 -0.011079406654896725 0 0.036627185982612262 -0.011079406654896725 0 0.036835470594642171 -0.011369271976005549 0 0.03701331695886783 -0.011138318817656458 0 0.036814543655996346 -0.01074943826672408 0 0.036627185982612262 -0.011079406654896725 0 0.03701331695886783 -0.011138318817656458 0 0.036627185982612262 -0.011079406654896725 0 0.036835470594642171 -0.011369271976005549 0 0.036595801343378628 -0.011485534044407405 0 0.036835470594642171 -0.011369271976005549 0 0.03701331695886783 -0.011138318817656458 0 0.037147638132827267 -0.011424778581933545 0 0.03563642071137274 -0.012008277046256365 0 0.035300775838926088 -0.012543371851911695 0 0.037147638132827267 -0.011424778581933545 0 0.036804677352983664 -0.011634568804133784 0 0.036909342307206383 -0.012055122527757397 0 0.035300775838926088 -0.012543371851911695 0 0.036725475931106401 -0.01153905219292259 0 0.036835470594642171 -0.011369271976005549 0 0.037147638132827267 -0.011424778581933545 0 0.036804677352983664 -0.011634568804133784 0 0.036804677352983664 -0.011634568804133784 0 0.036595801343378628 -0.011485534044407405 0 0.036579918667398008 -0.011902893332530605 0 0.036835470594642171 -0.011369271976005549 0 0.036804677352983664 -0.011634568804133784 0 0.036595801343378628 -0.011485534044407405 0 0.030640755808001463 -0.014762906448323012 0 0.030685813505933534 -0.014576662530759007 0 0.030547627969251565 -0.014667569852360337 0 0.030640755808001463 -0.014762906448323012 0 0.030685813505933534 -0.014576662530759007 0 0.030819020923709927 -0.014834678929716851 0 0.030685813505933534 -0.014576662530759007 0 0.030524535748409892 -0.014562310508049221 0 0.030547627969251565 -0.014667569852360337 0 0.030457458338398951 -0.014434890340662587 0 0.030685813505933534 -0.014576662530759007 0 0.030524535748409892 -0.014562310508049221 0 0.030457458338398951 -0.014434890340662587 0 0.030524535748409892 -0.014562310508049221 0 0.030408722124886722 -0.014569660688479686 0 0.030524535748409892 -0.014562310508049221 0 0.030547627969251565 -0.014667569852360337 0 0.030408722124886722 -0.014569660688479686 0 0.030640755808001463 -0.014762906448323012 0 0.030547627969251565 -0.014667569852360337 0 0.030487472715990123 -0.014820867075437266 0 0.030547627969251565 -0.014667569852360337 0 0.030429813849314879 -0.014702169591260864 0 0.030487472715990123 -0.014820867075437266 0 0.030098412039930581 -0.014790608581178234 0 0.030251261862402578 -0.014502493781484516 0 0.030248055850388329 -0.014675096119094235 0 0.030429813849314879 -0.014702169591260864 0 0.030320259413567495 -0.014753693213209988 0 0.030487472715990123 -0.014820867075437266 0 0.030331568455724389 -0.014640735943811541 0 0.030429813849314879 -0.014702169591260864 0 0.030320259413567495 -0.014753693213209988 0 0.030547627969251565 -0.014667569852360337 0 0.030429813849314879 -0.014702169591260864 0 0.030408722124886722 -0.014569660688479686 0 0.030368902342901009 -0.01445910986741311 0 0.030408722124886722 -0.014569660688479686 0 0.030251261862402578 -0.014502493781484516 0 0.030331568455724389 -0.014640735943811541 0 0.030408722124886722 -0.014569660688479686 0 0.030251261862402578 -0.014502493781484516 0 0.030331568455724389 -0.014640735943811541 0 0.030429813849314879 -0.014702169591260864 0 0.030408722124886722 -0.014569660688479686 0 0.030331568455724389 -0.014640735943811541 0 0.030251261862402578 -0.014502493781484516 0 0.030248055850388329 -0.014675096119094235 0 0.030098412039930581 -0.014790608581178234 0 0.030248055850388329 -0.014675096119094235 0 0.030320259413567495 -0.014753693213209988 0 0.030331568455724389 -0.014640735943811541 0 0.030248055850388329 -0.014675096119094235 0 0.030320259413567495 -0.014753693213209988 0 0.030098412039930581 -0.014790608581178234 0 0.030345158186622957 -0.01503320577391668 0 0.030351271805916909 -0.014877619757176596 0 0.030098412039930581 -0.014790608581178234 0 0.030320259413567495 -0.014753693213209988 0 0.030351271805916909 -0.014877619757176596 0 0.030345158186622957 -0.01503320577391668 0 0.030351271805916909 -0.014877619757176596 0 0.030507457264162346 -0.015001522902586436 0 0.030320259413567495 -0.014753693213209988 0 0.030351271805916909 -0.014877619757176596 0 0.030487472715990123 -0.014820867075437266 0 0.030351271805916909 -0.014877619757176596 0 0.030487472715990123 -0.014820867075437266 0 0.030507457264162346 -0.015001522902586436 0 0.030640755808001463 -0.014762906448323012 0 0.030487472715990123 -0.014820867075437266 0 0.030667399590717782 -0.014913979068022713 0 0.030487472715990123 -0.014820867075437266 0 0.030507457264162346 -0.015001522902586436 0 0.030667399590717782 -0.014913979068022713 0 0.030507457264162346 -0.015001522902586436 0 0.030658980045219334 -0.015038573425482116 0 0.030565646416062412 -0.015126847816235514 0 0.030658980045219334 -0.015038573425482116 0 0.030767203933770464 -0.015129462149004123 0 0.030768211595624054 -0.014983561900209531 0 0.030507457264162346 -0.015001522902586436 0 0.030658980045219334 -0.015038573425482116 0 0.030667399590717782 -0.014913979068022713 0 0.030658980045219334 -0.015038573425482116 0 0.030667399590717782 -0.014913979068022713 0 0.030768211595624054 -0.014983561900209531 0 0.030640755808001463 -0.014762906448323012 0 0.030667399590717782 -0.014913979068022713 0 0.030819020923709927 -0.014834678929716851 0 0.030098412039930581 -0.014790608581178234 0 0.030345158186622957 -0.01503320577391668 0 0.030319390438315035 -0.015356415249840516 0 0.035300775838926088 -0.012543371851911695 0 0.033061114410541867 -0.015175339927178897 0 0.030647554004473616 -0.01519955782507589 0 0.030565646416062412 -0.015126847816235514 0 0.030767203933770464 -0.015129462149004123 0 0.030658980045219334 -0.015038573425482116 0 0.030565646416062412 -0.015126847816235514 0 0.030767203933770464 -0.015129462149004123 0 0.030919769306389844 -0.016759949676693815 0 0.031086497154202034 -0.016372071869440598 0 0.030565646416062412 -0.015126847816235514 0 0.030482807445271685 -0.015310249747011779 0 0.030445180697808924 -0.015163251428850898 0 0.030507457264162346 -0.015001522902586436 0 0.030565646416062412 -0.015126847816235514 0 0.030445180697808924 -0.015163251428850898 0 0.030570841861934119 -0.017691648563704112 0 0.031197939582000667 -0.017007675571067169 0 0.030719343817047662 -0.018964175042067408 0 0.030675415537166448 -0.018860649677496757 0 0.030409611081906689 -0.019034198435129889 0 0.030919769306389844 -0.016759949676693815 0 0.031197939582000667 -0.017007675571067169 0 0.030647554004473616 -0.01519955782507589 0 0.030565646416062412 -0.015126847816235514 0 0.030482807445271685 -0.015310249747011779 0 0.030345158186622957 -0.01503320577391668 0 0.030445180697808924 -0.015163251428850898 0 0.030319390438315035 -0.015356415249840516 0 0.031197939582000667 -0.017007675571067169 0 0.033061114410541867 -0.015175339927178897 0 0.030482807445271685 -0.015310249747011779 0 0.030445180697808924 -0.015163251428850898 0 0.030319390438315035 -0.015356415249840516 0 0.030345158186622957 -0.01503320577391668 0 0.030507457264162346 -0.015001522902586436 0 0.030445180697808924 -0.015163251428850898 0 0.033061114410541867 -0.015175339927178897 0 0.032724855859017486 -0.016861741292043198 0 0.031197939582000667 -0.017007675571067169 0 0.032724855859017486 -0.016861741292043198 0 0.03123550956394253 -0.01655489293196959 0 0.033498604353564353 -0.015931671419091749 0 0.033219669298666946 -0.015233069195861107 0 0.030719343817047662 -0.018964175042067408 0 0.030651245694591229 -0.019422307745790873 0 0.031038672338667157 -0.019675258301211869 0 0.03036096688161637 -0.019058191950491341 0 0.030092602740176919 -0.01923482045186941 0 0.030651245694591229 -0.019422307745790873 0 0.030719343817047662 -0.018964175042067408 0 0.03036096688161637 -0.019058191950491341 0 0.030651245694591229 -0.019422307745790873 0 0.033253556815622094 -0.016075011636832674 0 0.034056406921578623 -0.015854124402023037 0 0.033894287184155485 -0.015577832064106189 0 0.033061114410541867 -0.015175339927178897 0 0.035699383247910811 -0.014054043483856303 0 0.037051212353488058 -0.011616371331731167 0 0.037321324139483289 -0.012235310473592805 0 0.036909342307206383 -0.012055122527757397 0 0.037321324139483289 -0.012235310473592805 0 0.036909342307206383 -0.012055122527757397 0 0.036539224009629882 -0.012486668413209783 0 0.036579918667398008 -0.011902893332530605 0 0.036909342307206383 -0.012055122527757397 0 0.036539224009629882 -0.012486668413209783 0 0.036804677352983664 -0.011634568804133784 0 0.036579918667398008 -0.011902893332530605 0 0.036909342307206383 -0.012055122527757397 0 0.033253556815622094 -0.016075011636832674 0 0.033227599462242026 -0.016011926994916992 0 0.033894287184155485 -0.015577832064106189 0 0.032724855859017486 -0.016861741292043198 0 0.032819231096109791 -0.017377877558869156 0 0.036539224009629882 -0.012486668413209783 0 0.036060680984777042 -0.012249395298854503 0 0.035684732573694727 -0.01273495887175456 0 0.036539224009629882 -0.012486668413209783 0 0.036060680984777042 -0.012249395298854503 0 0.036311376783044455 -0.012011337516639497 0 0.036060680984777042 -0.012249395298854503 0 0.0357732243836347 -0.012143764972259868 0 0.035684732573694727 -0.01273495887175456 0 0.036060680984777042 -0.012249395298854503 0 0.036015176804203249 -0.011817684062110017 0 0.0357732243836347 -0.012143764972259868 0 0.036060680984777042 -0.012249395298854503 0 0.036311376783044455 -0.012011337516639497 0 0.036015176804203249 -0.011817684062110017 0 0.036579918667398008 -0.011902893332530605 0 0.036539224009629882 -0.012486668413209783 0 0.036311376783044455 -0.012011337516639497 0 0.036579918667398008 -0.011902893332530605 0 0.036311376783044455 -0.012011337516639497 0 0.036331535159489496 -0.011672158314592502 0 0.036595801343378628 -0.011485534044407405 0 0.036579918667398008 -0.011902893332530605 0 0.036331535159489496 -0.011672158314592502 0 0.036595801343378628 -0.011485534044407405 0 0.036331535159489496 -0.011672158314592502 0 0.036375919925217846 -0.011329606692420047 0 0.036331535159489496 -0.011672158314592502 0 0.03611144265136805 -0.011493770931924489 0 0.036375919925217846 -0.011329606692420047 0 0.036311376783044455 -0.012011337516639497 0 0.036331535159489496 -0.011672158314592502 0 0.036015176804203249 -0.011817684062110017 0 0.036015176804203249 -0.011817684062110017 0 0.035894145127848054 -0.011549282423090897 0 0.035624977681425904 -0.0116323576320194 0 0.036331535159489496 -0.011672158314592502 0 0.036015176804203249 -0.011817684062110017 0 0.03611144265136805 -0.011493770931924489 0 0.035894145127848054 -0.011549282423090897 0 0.03611144265136805 -0.011493770931924489 0 0.035857195298766111 -0.011248729815914458 0 0.036015176804203249 -0.011817684062110017 0 0.035894145127848054 -0.011549282423090897 0 0.03611144265136805 -0.011493770931924489 0 0.035806992299006926 -0.010782556922544293 0 0.035857195298766111 -0.011248729815914458 0 0.036198479105255595 -0.011009011786734215 0 0.03611144265136805 -0.011493770931924489 0 0.035857195298766111 -0.011248729815914458 0 0.036198479105255595 -0.011009011786734215 0 0.036627185982612262 -0.011079406654896725 0 0.036198479105255595 -0.011009011786734215 0 0.036375919925217846 -0.011329606692420047 0 0.03611144265136805 -0.011493770931924489 0 0.036198479105255595 -0.011009011786734215 0 0.036375919925217846 -0.011329606692420047 0 0.036627185982612262 -0.011079406654896725 0 0.036595801343378628 -0.011485534044407405 0 0.036375919925217846 -0.011329606692420047 0 0.035857195298766111 -0.011248729815914458 0 0.035611792684985578 -0.011082985116463035 0 0.035624977681425904 -0.0116323576320194 0 0.035331712226902665 -0.011120685370590985 0 0.035611792684985578 -0.011082985116463035 0 0.035624977681425904 -0.0116323576320194 0 0.035806992299006926 -0.010782556922544293 0 0.035857195298766111 -0.011248729815914458 0 0.035611792684985578 -0.011082985116463035 0 0.035624977681425904 -0.0116323576320194 0 0.035336955078104054 -0.011730360200455286 0 0.035519128484171936 -0.012088303363843252 0 0.036015176804203249 -0.011817684062110017 0 0.035624977681425904 -0.0116323576320194 0 0.0357732243836347 -0.012143764972259868 0 0.035894145127848054 -0.011549282423090897 0 0.035857195298766111 -0.011248729815914458 0 0.035624977681425904 -0.0116323576320194 0 0.035336955078104054 -0.011730360200455286 0 0.035160810573735747 -0.012025839928043802 0 0.035519128484171936 -0.012088303363843252 0 0.035331712226902665 -0.011120685370590985 0 0.035336955078104054 -0.011730360200455286 0 0.034999891361900917 -0.011717609215655119 0 0.035331712226902665 -0.011120685370590985 0 0.035624977681425904 -0.0116323576320194 0 0.035336955078104054 -0.011730360200455286 0 0.035336955078104054 -0.011730360200455286 0 0.034999891361900917 -0.011717609215655119 0 0.035160810573735747 -0.012025839928043802 0 0.035215924630833742 -0.011882296365601055 0 0.035259308932816716 -0.01389076885924626 0 0.034999891361900917 -0.011717609215655119 0 0.035160810573735747 -0.012025839928043802 0 0.03500003156612938 -0.013571848536016661 0 0.035160810573735747 -0.012025839928043802 0 0.03500003156612938 -0.013571848536016661 0 0.035914575408901223 -0.013319543670775015 0 0.035160810573735747 -0.012025839928043802 0 0.035519128484171936 -0.012088303363843252 0 0.035684732573694727 -0.01273495887175456 0 0.035624977681425904 -0.0116323576320194 0 0.0357732243836347 -0.012143764972259868 0 0.035519128484171936 -0.012088303363843252 0 0.0357732243836347 -0.012143764972259868 0 0.035519128484171936 -0.012088303363843252 0 0.035684732573694727 -0.01273495887175456 0 0.035000727399494592 -0.013571705952051391 0 0.035259308932816716 -0.01389076885924626 0 0.034999977384697782 -0.01357190763365947 0 0.035854159598512993 -0.013370622007764552 0 0.035385956684047946 -0.013712317821527854 0 0.035854159598512993 -0.013370622007764552 0 0.035751176042843932 -0.013567374214670117 0 0.03632176245630532 -0.014208111706649464 0 0.035854159598512993 -0.013370622007764552 0 0.035751176042843932 -0.013567374214670117 0 0.035385956684047946 -0.013712317821527854 0 0.035751176042843932 -0.013567374214670117 0 0.035681989686951306 -0.013942786855187846 0 0.036070979090719511 -0.014312079779967677 0 0.035751176042843932 -0.013567374214670117 0 0.035681989686951306 -0.013942786855187846 0 0.035385956684047946 -0.013712317821527854 0 0.035681989686951306 -0.013942786855187846 0 0.035514907275564944 -0.01417743944997227 0 0.035385956684047946 -0.013712317821527854 0 0.035681989686951306 -0.013942786855187846 0 0.035514907275564944 -0.01417743944997227 0 0.036070979090719511 -0.014312079779967677 0 0.035403454733161671 -0.013726576863572339 0 0.035005356500358457 -0.015682814969990987 0 0.035514907275564944 -0.01417743944997227 0 0.035385956684047946 -0.013712317821527854 0 0.034999995052991201 -0.014299884372181498 0 0.034999977384697782 -0.01357190763365947 0 0.035385956684047946 -0.013712317821527854 0 0.034999995052991201 -0.014299884372181498 0 0.035699383247910811 -0.014054043483856303 0 0.035259308932816716 -0.01389076885924626 0 0.034056406921578623 -0.015854124402023037 0 0.034829781702942125 -0.015636031193262054 0 0.034538491718144042 -0.015153655001795106 0 0.034056406921578623 -0.015854124402023037 0 0.034538491718144042 -0.015153655001795106 0 0.033894287184155485 -0.015577832064106189 0 0.035751176042843932 -0.013567374214670117 0 0.03632176245630532 -0.014208111706649464 0 0.036067844749260281 -0.014379373902995037 0 0.035259308932816716 -0.01389076885924626 0 0.033863716657216922 -0.01663802239580742 0 0.033863716657216922 -0.01663802239580742 0 0.032819231096109791 -0.017377877558869156 0 0.035005356500358457 -0.015682814969990987 0 0.035193684612391016 -0.017399784812093134 0 0.035150846226038125 -0.015588668570737724 0 0.034697590279545706 -0.015890451349812377 0 0.03565975304867585 -0.016794359710876821 0 0.033541777832981116 -0.016773929279937344 0 0.033333558736191884 -0.016912769052535866 0 0.03413059457606079 -0.017821927809785577 0 0.031620289731146792 -0.019234828729066619 0 0.031908901773669833 -0.019774840665210302 0 0.032264204403193789 -0.019364244508026464 0 0.033333558736191884 -0.016912769052535866 0 0.03413059457606079 -0.017821927809785577 0 0.033923852228972089 -0.01834322069955515 0 0.033863716657216922 -0.01663802239580742 0 0.0330174319232499 -0.018904776745936169 0 0.033863716657216922 -0.01663802239580742 0 0.035005356500358457 -0.015682814969990987 0 0.035486545550353236 -0.014751133488654262 0 0.034999999011781836 -0.014299971886579336 0 0.034999999075360021 -0.015075736828063324 0 0.035514907275564944 -0.01417743944997227 0 0.035460495061804022 -0.014722942328007535 0 0.034999995052991201 -0.014299884372181498 0 0.035402025774849639 -0.015067717037739606 0 0.035000089661047534 -0.014300342890733876 0 0.035005356500358457 -0.015682814969990987 0 0.035402025774849639 -0.015067717037739606 0 0.035514907275564944 -0.01417743944997227 0 0.036070979090719511 -0.014312079779967677 0 0.035460495061804022 -0.014722942328007535 0 0.03548077651718793 -0.014761875420626692 0 0.034999989787855949 -0.015075785908563778 0 0.035695047966803166 -0.015832652761430588 0 0.035402025774849639 -0.015067717037739606 0 0.035000388439748904 -0.015075718003790107 0 0.034999989787855949 -0.015075785908563778 0 0.035695047966803166 -0.015832652761430588 0 0.034999991689794258 -0.016633184073782621 0 0.03548077651718793 -0.014761875420626692 0 0.035695047966803166 -0.015832652761430588 0 0.036836677877823507 -0.016045472304271838 0 0.035695047966803166 -0.015832652761430588 0 0.036177513854730822 -0.016610340930500379 0 0.034999991689794258 -0.016633184073782621 0 0.035402025774849639 -0.015067717037739606 0 0.035193684612391016 -0.017399784812093134 0 0.035695047966803166 -0.015832652761430588 0 0.036836677877823507 -0.016045472304271838 0 0.036177513854730822 -0.016610340930500379 0 0.03667044227753688 -0.017862594445830514 0 0.035841522548428366 -0.017884705455239458 0 0.036526818431084462 -0.017534644626453291 0 0.036205989127710864 -0.017589013096470527 0 0.035644569192363411 -0.018268892023806719 0 0.036119686065875858 -0.017570102147384963 0 0.036177513854730822 -0.016610340930500379 0 0.037224017058085451 -0.016967341909673514 0 0.035193684612391016 -0.017399784812093134 0 0.035644569192363411 -0.018268892023806719 0 0.036836677877823507 -0.016045472304271838 0 0.036177513854730822 -0.016610340930500379 0 0.037224017058085451 -0.016967341909673514 0 0.034999993414284968 -0.01819060177722415 0 0.036119686065875858 -0.017570102147384963 0 0.034999991689794258 -0.016633184073782621 0 0.036119686065875858 -0.017570102147384963 0 0.036177513854730822 -0.016610340930500379 0 0.034999991689794258 -0.016633184073782621 0 0.028919938138736317 -0.023352074303509537 0 0.028973016360110813 -0.023417927693889774 0 0.029023645683465708 -0.023415352869228388 0 0.028943344947349049 -0.023441554356962345 0 0.028973016360110813 -0.023417927693889774 0 0.029002140663417188 -0.02344606525743936 0 0.028943344947349049 -0.023441554356962345 0 0.029002140663417188 -0.02344606525743936 0 0.028952564912551652 -0.023459124599314332 0 0.028943344947349049 -0.023441554356962345 0 0.028920263725619823 -0.023422188405744972 0 0.028973016360110813 -0.023417927693889774 0 0.032122506296797075 -0.021743437002091918 0 0.031911994208834268 -0.021625097041493097 0 0.03200473664543721 -0.022022817536402169 0 0.031977163058599677 -0.02176792428879433 0 0.032037247401877071 -0.021361020501783404 0 0.034541538066301496 -0.01963519239326221 0 0.035644569192363411 -0.018268892023806719 0 0.032122506296797075 -0.021743437002091918 0 0.03222656686960574 -0.021759141661087843 0 0.03201111816150045 -0.021974599535736151 0 0.034541538066301496 -0.01963519239326221 0 0.032037247401877071 -0.021361020501783404 0 0.034194166051293474 -0.019494187624397728 0 0.03410961986010036 -0.01973682790801401 0 0.034323007552057638 -0.01979177547263318 0 0.034194166051293474 -0.019494187624397728 0 0.033950427106236483 -0.019770242683538594 0 0.03410961986010036 -0.01973682790801401 0 0.033923852228972089 -0.01834322069955515 0 0.034555681180797895 -0.018950795309231053 0 0.034713029773162034 -0.018866086059969173 0 0.034589438142085108 -0.018062729759081651 0 0.034943933634314667 -0.01890254348479857 0 0.035285220987598676 -0.018718326324468664 0 0.03410961986010036 -0.01973682790801401 0 0.034323007552057638 -0.01979177547263318 0 0.034106630955504487 -0.01990978106619461 0 0.035644569192363411 -0.018268892023806719 0 0.033656173280071769 -0.019770111848591017 0 0.028973016360110813 -0.023417927693889774 0 0.029023645683465708 -0.023415352869228388 0 0.029002140663417188 -0.02344606525743936 0 0.032037247401877071 -0.021361020501783404 0 0.030647695296385866 -0.021946177188755831 0 0.032056490628325211 -0.020135646888524494 0 0.032034097026333481 -0.020477164251086824 0 0.031645979476346106 -0.02107237294926111 0 0.032037247401877071 -0.021361020501783404 0 0.033656173280071769 -0.019770111848591017 0 0.032056490628325211 -0.020135646888524494 0 0.032547535848811232 -0.020585495556226921 0 0.032034097026333481 -0.020477164251086824 0 0.032547535848811232 -0.020585495556226921 0 0.032034097026333481 -0.020477164251086824 0 0.032207299999388879 -0.020769310080586433 0 0.033950427106236483 -0.019770242683538594 0 0.03410961986010036 -0.01973682790801401 0 0.034106630955504487 -0.01990978106619461 0 0.033656173280071769 -0.019770111848591017 0 0.03280741233175196 -0.020035850022061624 0 0.032764597359365696 -0.020091233582948051 0 0.03280741233175196 -0.020035850022061624 0 0.032034097026333481 -0.020477164251086824 0 0.032204651670305007 -0.02077016238398657 0 0.031645979476346106 -0.02107237294926111 0 0.03280741233175196 -0.020035850022061624 0 0.030647695296385866 -0.021946177188755831 0 0.0330174319232499 -0.018904776745936169 0 0.03280741233175196 -0.020035850022061624 0 0.031908901773669833 -0.019774840665210302 0 0.032205357711731546 -0.020318983505007313 0 0.032228134910536603 -0.019907895710812896 0 0.032337317121689101 -0.020247727763235208 0 0.032228134910536603 -0.019907895710812896 0 0.032539261093791474 -0.019768170721355796 0 0.03413059457606079 -0.017821927809785577 0 0.033923852228972089 -0.01834322069955515 0 0.034713029773162034 -0.018866086059969173 0 0.032205357711731546 -0.020318983505007313 0 0.032337317121689101 -0.020247727763235208 0 0.032228134910536603 -0.019907895710812896 0 0.035193684612391016 -0.017399784812093134 0 0.033656173280071769 -0.019770111848591017 0 0.030647695296385866 -0.021946177188755831 0 0.030804130870172027 -0.0215031150527909 0 0.029007287703125769 -0.023423343818560555 0 0.028962302707559655 -0.023465728136206621 0 0.028952564912551652 -0.023459124599314332 0 0.030647695296385866 -0.021946177188755831 0 0.028454772149066835 -0.023625931416254308 0 0.028962302707559655 -0.023465728136206621 0 0.028952564912551652 -0.023459124599314332 0 0.028938229476726408 -0.023471678131312752 0 0.030804130870172027 -0.0215031150527909 0 0.030221358439363116 -0.021766279332241081 0 0.028962302707559655 -0.023465728136206621 0 0.028965003862795435 -0.023447068565643023 0 0.028938229476726408 -0.023471678131312752 0 0.032539261093791474 -0.019768170721355796 0 0.032264204403193789 -0.019364244508026464 0 0.032741349762268133 -0.019292060236155539 0 0.031908901773669833 -0.019774840665210302 0 0.032228134910536603 -0.019907895710812896 0 0.032264204403193789 -0.019364244508026464 0 0.032228134910536603 -0.019907895710812896 0 0.032539261093791474 -0.019768170721355796 0 0.032264204403193789 -0.019364244508026464 0 0.031620289731146792 -0.019234828729066619 0 0.032264204403193789 -0.019364244508026464 0 0.03205820139087931 -0.018945430396050508 0 0.032499538769814117 -0.018645226632869272 0 0.032264204403193789 -0.019364244508026464 0 0.03205820139087931 -0.018945430396050508 0 0.030092602740176919 -0.01923482045186941 0 0.030651245694591229 -0.019422307745790873 0 0.030632355278651935 -0.020632911365231429 0 0.030651245694591229 -0.019422307745790873 0 0.030632355278651935 -0.020632911365231429 0 0.031038672338667157 -0.019675258301211869 0 0.032499538769814117 -0.018645226632869272 0 0.032264204403193789 -0.019364244508026464 0 0.032741349762268133 -0.019292060236155539 0 0.032724855859017486 -0.016861741292043198 0 0.030221358439363116 -0.021766279332241081 0 0.030221358439363116 -0.021766279332241081 0 0.029795565183780029 -0.021943380696158685 0 0.028855460401801265 -0.023584634521785421 0 0.028834293438807446 -0.023618225757877819 0 0.028828663798068109 -0.023577766726052468 0 0.028834293438807446 -0.023618225757877819 0 0.028785153246902822 -0.023597237756075091 0 0.028788639149736339 -0.023633918754520877 0 0.028834293438807446 -0.023618225757877819 0 0.028785153246902822 -0.023597237756075091 0 0.028828663798068109 -0.023577766726052468 0 0.028785153246902822 -0.023597237756075091 0 0.028709749179821404 -0.023649447200620941 0 0.028788639149736339 -0.023633918754520877 0 0.028785153246902822 -0.023597237756075091 0 0.028719578575882008 -0.023567553268549857 0 0.028709047575729535 -0.023610295735628613 0 0.028785153246902822 -0.023597237756075091 0 0.028796419336512301 -0.023548905125839396 0 0.028719578575882008 -0.023567553268549857 0 0.028855460401801265 -0.023584634521785421 0 0.028828663798068109 -0.023577766726052468 0 0.028846656432077275 -0.023547754467324596 0 0.030221358439363116 -0.021766279332241081 0 0.028897727742087615 -0.023742191735166489 0 0.028785153246902822 -0.023597237756075091 0 0.028828663798068109 -0.023577766726052468 0 0.028796419336512301 -0.023548905125839396 0 0.028828663798068109 -0.023577766726052468 0 0.028846656432077275 -0.023547754467324596 0 0.028796419336512301 -0.023548905125839396 0 0.028846656432077275 -0.023547754467324596 0 0.028796419336512301 -0.023548905125839396 0 0.028855207296034826 -0.023468087995434588 0 0.028952564912551652 -0.023459124599314332 0 0.028938229476726408 -0.023471678131312752 0 0.028855207296034826 -0.023468087995434588 0 0.028897727742087615 -0.023742191735166489 0 0.028834838197089947 -0.023383953489178787 0 0.028796419336512301 -0.023548905125839396 0 0.028855207296034826 -0.023468087995434588 0 0.028729974788088967 -0.023497821917930092 0 0.028796419336512301 -0.023548905125839396 0 0.028729974788088967 -0.023497821917930092 0 0.028719578575882008 -0.023567553268549857 0 0.028804850770909489 -0.023393206644265328 0 0.028855207296034826 -0.023468087995434588 0 0.028729974788088967 -0.023497821917930092 0 0.028943344947349049 -0.023441554356962345 0 0.028920263725619823 -0.023422188405744972 0 0.028855207296034826 -0.023468087995434588 0 0.028943344947349049 -0.023441554356962345 0 0.028952564912551652 -0.023459124599314332 0 0.028855207296034826 -0.023468087995434588 0 0.028878468775999238 -0.023409400139538326 0 0.028920263725619823 -0.023422188405744972 0 0.028855207296034826 -0.023468087995434588 0 0.028637613783064592 -0.023493733116148597 0 0.028729974788088967 -0.023497821917930092 0 0.028628952133678762 -0.023549190509583123 0 0.028709206356377512 -0.023469514150250188 0 0.028637613783064592 -0.023493733116148597 0 0.028729974788088967 -0.023497821917930092 0 0.028729974788088967 -0.023497821917930092 0 0.028719578575882008 -0.023567553268549857 0 0.028628952133678762 -0.023549190509583123 0 0.028719578575882008 -0.023567553268549857 0 0.028628952133678762 -0.023549190509583123 0 0.028615577800588422 -0.023625508575581107 0 0.028719578575882008 -0.023567553268549857 0 0.028615577800588422 -0.023625508575581107 0 0.028709047575729535 -0.023610295735628613 0 0.028615577800588422 -0.023625508575581107 0 0.028709047575729535 -0.023610295735628613 0 0.028709749179821404 -0.023649447200620941 0 0.028785153246902822 -0.023597237756075091 0 0.028709047575729535 -0.023610295735628613 0 0.028709749179821404 -0.023649447200620941 0 0.023358563403809766 -0.025261147123708083 0 0.023447177105540583 -0.02565616623929582 0 0.023082485174452674 -0.025362118556741611 0 0.025966845210296016 -0.024416672116381311 0 0.026116194651464808 -0.024996563300277649 0 0.023358563403809766 -0.025261147123708083 0 0.023928111102033914 -0.025520207876716921 0 0.023447177105540583 -0.02565616623929582 0 0.021375967238230504 -0.025584171197690186 0 0.022612084845017307 -0.025784784533127904 0 0.021375967238230504 -0.025584171197690186 0 0.026356831609631252 -0.018338484650714023 0 0.02009399002621709 -0.025310829203339234 0 0.021077144410108314 -0.021680560637159299 0 0.021694200721070159 -0.024482352477134848 0 0.023447177105540583 -0.02565616623929582 0 0.023727267786101378 -0.026006897187958851 0 0.023818599428627865 -0.025753281741713017 0 0.02009399002621709 -0.025310829203339234 0 0.021694200721070159 -0.024482352477134848 0 0.02204229751068576 -0.025621773302875572 0 0.02009399002621709 -0.025310829203339234 0 0.021077144410108314 -0.021680560637159299 0 0.015722420489794411 -0.018835268608521773 0 0.026356831609631252 -0.018338484650714023 0 0.025307560904520948 -0.015794230086145909 0 0.021077144410108314 -0.021680560637159299 0 0.015722420489794411 -0.018835268608521773 0 0.021443212850911598 -0.0172167190789804 0 0.029769723779000428 -0.013642953129797453 0 0.029538418581124212 -0.013792842022812732 0 0.029601449528053513 -0.013953548827490487 0 0.029749495644709731 -0.013670181839023429 0 0.029769723779000428 -0.013642953129797453 0 0.029601449528053513 -0.013953548827490487 0 0.026356831609631252 -0.018338484650714023 0 0.028739647622060317 -0.021579162709724417 0 0.023727267786101378 -0.026006897187958851 0 0.023818599428627865 -0.025753281741713017 0 0.024473905133166204 -0.025862816542586289 0 0.023928111102033914 -0.025520207876716921 0 0.023447177105540583 -0.02565616623929582 0 0.023818599428627865 -0.025753281741713017 0 0.023928111102033914 -0.025520207876716921 0 0.023818599428627865 -0.025753281741713017 0 0.024473905133166204 -0.025862816542586289 0 0.028709749179821404 -0.023649447200620941 0 0.028788639149736339 -0.023633918754520877 0 0.028789767161258202 -0.023653533881132852 0 0.026116194651464808 -0.024996563300277649 0 0.028739647622060317 -0.021579162709724417 0 0.029795565183780029 -0.021943380696158685 0 0.030091942980818055 -0.019431191727708168 0 0.030719343817047662 -0.018964175042067408 0 0.031038672338667157 -0.019675258301211869 0 0.031423675317370475 -0.018739911899513805 0 0.028834293438807446 -0.023618225757877819 0 0.028788639149736339 -0.023633918754520877 0 0.028815012473912289 -0.023643334188557616 0 0.028739647622060317 -0.021579162709724417 0 0.030091942980818055 -0.019431191727708168 0 0.028788639149736339 -0.023633918754520877 0 0.028789767161258202 -0.023653533881132852 0 0.028815012473912289 -0.023643334188557616 0 0.030719343817047662 -0.018964175042067408 0 0.030675415537166448 -0.018860649677496757 0 0.031423675317370475 -0.018739911899513805 0 0.030919769306389844 -0.016759949676693815 0 0.030091942980818055 -0.019431191727708168 0 0.031084264527675827 -0.015153991454773865 0 0.030767203933770464 -0.015129462149004123 0 0.030932094037429449 -0.015001123982531703 0 0.030638097947776159 -0.015216425313422256 0 0.031084264527675827 -0.015153991454773865 0 0.030767203933770464 -0.015129462149004123 0 0.030361654010495381 -0.01418659178162808 0 0.030685813505933534 -0.014576662530759007 0 0.031191031899233671 -0.01491022813296111 0 0.030361654010495381 -0.01418659178162808 0 0.031011225650787018 -0.014775555531733759 0 0.030744818002091629 -0.014415217711607019 0 0.031011225650787018 -0.014775555531733759 0 0.031020901445772926 -0.014477967873661532 0 0.031223660657027492 -0.014299932853202701 0 0.030605911607768137 -0.013794199869237789 0 0.030225408587708745 -0.016251715873521019 0 0.030667399590717782 -0.014913979068022713 0 0.030819020923709927 -0.014834678929716851 0 0.030768211595624054 -0.014983561900209531 0 0.030819020923709927 -0.014834678929716851 0 0.030768211595624054 -0.014983561900209531 0 0.030932094037429449 -0.015001123982531703 0 0.030767203933770464 -0.015129462149004123 0 0.030768211595624054 -0.014983561900209531 0 0.030932094037429449 -0.015001123982531703 0 0.030819020923709927 -0.014834678929716851 0 0.030932094037429449 -0.015001123982531703 0 0.03090711489040792 -0.014830480319690845 0 0.030932094037429449 -0.015001123982531703 0 0.03090711489040792 -0.014830480319690845 0 0.031191031899233671 -0.01491022813296111 0 0.029665626681111119 -0.019559426718279191 0 0.029943396053963324 -0.019506381697667819 0 0.029852496636205865 -0.019710484838298015 0 0.030091942980818055 -0.019431191727708168 0 0.030225408587708745 -0.016251715873521019 0 0.031084264527675827 -0.015153991454773865 0 0.030932094037429449 -0.015001123982531703 0 0.031191031899233671 -0.01491022813296111 0 0.028739647622060317 -0.021579162709724417 0 0.030225408587708745 -0.016251715873521019 0 0.031011225650787018 -0.014775555531733759 0 0.031020901445772926 -0.014477967873661532 0 0.030744818002091629 -0.014415217711607019 0 0.030685813505933534 -0.014576662530759007 0 0.03090711489040792 -0.014830480319690845 0 0.031191031899233671 -0.01491022813296111 0 0.030685813505933534 -0.014576662530759007 0 0.030819020923709927 -0.014834678929716851 0 0.03090711489040792 -0.014830480319690845 0 0.030225408587708745 -0.016251715873521019 0 0.031373114780276573 -0.013933190667592226 0 0.03262248114229737 -0.015315593544721295 0 0.031033566166851597 -0.015602192932336587 0 0.031605917134092838 -0.014741676176633155 0 0.030692346428938574 -0.015318331038098616 0 0.031163437239207167 -0.014915417890775672 0 0.031223660657027492 -0.014299932853202701 0 0.031033566166851597 -0.015602192932336587 0 0.030692346428938574 -0.015318331038098616 0 0.031163437239207167 -0.014915417890775672 0 0.031033566166851597 -0.015602192932336587 0 0.031163437239207167 -0.014915417890775672 0 0.031605917134092838 -0.014741676176633155 0 0.031163437239207167 -0.014915417890775672 0 0.031605917134092838 -0.014741676176633155 0 0.031390749116860073 -0.014555051812238094 0 0.031605917134092838 -0.014741676176633155 0 0.03150867712745635 -0.014203410380589181 0 0.031922540827813699 -0.013778708167342125 0 0.031605917134092838 -0.014741676176633155 0 0.031390749116860073 -0.014555051812238094 0 0.03150867712745635 -0.014203410380589181 0 0.031163437239207167 -0.014915417890775672 0 0.031390749116860073 -0.014555051812238094 0 0.031223660657027492 -0.014299932853202701 0 0.031223660657027492 -0.014299932853202701 0 0.031034554858767108 -0.014304747015872386 0 0.031111991942857888 -0.014149818328213491 0 0.031390749116860073 -0.014555051812238094 0 0.031223660657027492 -0.014299932853202701 0 0.03150867712745635 -0.014203410380589181 0 0.031223660657027492 -0.014299932853202701 0 0.03150867712745635 -0.014203410380589181 0 0.031111991942857888 -0.014149818328213491 0 0.03150867712745635 -0.014203410380589181 0 0.031111991942857888 -0.014149818328213491 0 0.031149155437161614 -0.013903774800915373 0 0.030567899111831328 -0.014262963511549933 0 0.030718238244059882 -0.01427643418739892 0 0.030744818002091629 -0.014415217711607019 0 0.030718238244059882 -0.01427643418739892 0 0.030744818002091629 -0.014415217711607019 0 0.030894040624473151 -0.014359385658272451 0 0.030718238244059882 -0.01427643418739892 0 0.030916939881579224 -0.014227079709982436 0 0.030754072393099553 -0.014144304520476825 0 0.030718238244059882 -0.01427643418739892 0 0.030916939881579224 -0.014227079709982436 0 0.030894040624473151 -0.014359385658272451 0 0.031020901445772926 -0.014477967873661532 0 0.030744818002091629 -0.014415217711607019 0 0.030894040624473151 -0.014359385658272451 0 0.030916939881579224 -0.014227079709982436 0 0.030894040624473151 -0.014359385658272451 0 0.031034554858767108 -0.014304747015872386 0 0.031020901445772926 -0.014477967873661532 0 0.030894040624473151 -0.014359385658272451 0 0.031034554858767108 -0.014304747015872386 0 0.031020901445772926 -0.014477967873661532 0 0.031223660657027492 -0.014299932853202701 0 0.031034554858767108 -0.014304747015872386 0 0.030916939881579224 -0.014227079709982436 0 0.031034554858767108 -0.014304747015872386 0 0.031111991942857888 -0.014149818328213491 0 0.031111991942857888 -0.014149818328213491 0 0.030976617205845706 -0.014031283382641088 0 0.031149155437161614 -0.013903774800915373 0 0.030916939881579224 -0.014227079709982436 0 0.031111991942857888 -0.014149818328213491 0 0.030976617205845706 -0.014031283382641088 0 0.030916939881579224 -0.014227079709982436 0 0.030976617205845706 -0.014031283382641088 0 0.030754072393099553 -0.014144304520476825 0 0.030976617205845706 -0.014031283382641088 0 0.030754072393099553 -0.014144304520476825 0 0.030822135908585784 -0.013934798008629979 0 0.03070619279357148 -0.014016652590329972 0 0.030754072393099553 -0.014144304520476825 0 0.030822135908585784 -0.013934798008629979 0 0.030593787486655383 -0.01414261563161604 0 0.03070619279357148 -0.014016652590329972 0 0.030754072393099553 -0.014144304520476825 0 0.030593787486655383 -0.01414261563161604 0 0.030718238244059882 -0.01427643418739892 0 0.030754072393099553 -0.014144304520476825 0 0.030610658233147035 -0.013721581442672243 0 0.030822135908585784 -0.013934798008629979 0 0.030922263402098974 -0.013721093366968643 0 0.030610658233147035 -0.013721581442672243 0 0.03070619279357148 -0.014016652590329972 0 0.030822135908585784 -0.013934798008629979 0 0.030976617205845706 -0.014031283382641088 0 0.030822135908585784 -0.013934798008629979 0 0.030922263402098974 -0.013721093366968643 0 0.030976617205845706 -0.014031283382641088 0 0.030922263402098974 -0.013721093366968643 0 0.031149155437161614 -0.013903774800915373 0 0.030922263402098974 -0.013721093366968643 0 0.031149155437161614 -0.013903774800915373 0 0.031161272721781218 -0.013387380755994042 0 0.030922263402098974 -0.013721093366968643 0 0.030808784273643256 -0.013360557478737005 0 0.031161272721781218 -0.013387380755994042 0 0.030610658233147035 -0.013721581442672243 0 0.030922263402098974 -0.013721093366968643 0 0.030808784273643256 -0.013360557478737005 0 0.030333856048514539 -0.013213926604566884 0 0.030762428215633197 -0.012770644550158182 0 0.031038382725394879 -0.011845634903489376 0 0.031829692560728484 -0.012830817305473235 0 0.03083008310448921 -0.012230748543669527 0 0.031504409399581434 -0.014058992925323045 0 0.030750379494021589 -0.013266568723833803 0 0.031922540827813699 -0.013778708167342125 0 0.031038382725394879 -0.011845634903489376 0 0.030698981675573177 -0.012676679399541953 0 0.03150867712745635 -0.014203410380589181 0 0.031922540827813699 -0.013778708167342125 0 0.030698981675573177 -0.012676679399541953 0 0.03150867712745635 -0.014203410380589181 0 0.031149155437161614 -0.013903774800915373 0 0.031161272721781218 -0.013387380755994042 0 0.030762428215633197 -0.012770644550158182 0 0.030254537975552304 -0.013068573328255239 0 0.030397110826483716 -0.013135044346549097 0 0.030762428215633197 -0.012770644550158182 0 0.030254537975552304 -0.013068573328255239 0 0.030083799628031035 -0.013367730015190411 0 0.030333856048514539 -0.013213926604566884 0 0.030762428215633197 -0.012770644550158182 0 0.030083799628031035 -0.013367730015190411 0 0.030254537975552304 -0.013068573328255239 0 0.029949146649295644 -0.01316468105233674 0 0.030397110826483716 -0.013135044346549097 0 0.030254537975552304 -0.013068573328255239 0 0.029908256476380349 -0.01342843588259067 0 0.030083799628031035 -0.013367730015190411 0 0.030254537975552304 -0.013068573328255239 0 0.029949146649295644 -0.01316468105233674 0 0.029908256476380349 -0.01342843588259067 0 0.029908256476380349 -0.01342843588259067 0 0.029769723779000428 -0.013642953129797453 0 0.030083799628031035 -0.013367730015190411 0 0.029749495644709731 -0.013670181839023429 0 0.029769723779000428 -0.013642953129797453 0 0.030083799628031035 -0.013367730015190411 0 0.029949146649295644 -0.01316468105233674 0 0.029908256476380349 -0.01342843588259067 0 0.029538418581124212 -0.013792842022812732 0 0.029908256476380349 -0.01342843588259067 0 0.029769723779000428 -0.013642953129797453 0 0.029538418581124212 -0.013792842022812732 0 0.026356831609631252 -0.018338484650714023 0 0.031829692560728484 -0.012830817305473235 0 0.03262248114229737 -0.015315593544721295 0 0.031605917134092838 -0.014741676176633155 0 0.031922540827813699 -0.013778708167342125 0 0.029749495644709731 -0.013670181839023429 0 0.030333856048514539 -0.013213926604566884 0 0.030083799628031035 -0.013367730015190411 0 0.02634812482473128 -0.013597648333681198 0 0.023104712264222869 -0.020156923644077195 0 0.029708160097720902 -0.013143605721260077 0 0.029339157674894117 -0.015178973446482035 0 0.031205782913420715 -0.015440753718036529 0 0.022504457598904588 -0.015284753347147162 0 0.023091422932990675 -0.015520036083311465 0 0.022743323646971889 -0.015943785055364468 0 0.020553295094936298 -0.019670250355257025 0 0.023104712264222869 -0.020156923644077195 0 0.029538418581124212 -0.013792842022812732 0 0.029708160097720902 -0.013143605721260077 0 0.029339157674894117 -0.015178973446482035 0 0.029949146649295644 -0.01316468105233674 0 0.029538418581124212 -0.013792842022812732 0 0.029708160097720902 -0.013143605721260077 0 0.02634812482473128 -0.013597648333681198 0 0.027274495646067813 -0.013492217231689817 0 0.029949146649295644 -0.01316468105233674 0 0.029708160097720902 -0.013143605721260077 0 0.029969229593617499 -0.01329430871056979 0 0.022504457598904588 -0.015284753347147162 0 0.023015592255992014 -0.015053693914907604 0 0.022780129802415835 -0.014710693811061446 0 0.022504457598904588 -0.015284753347147162 0 0.023015592255992014 -0.015053693914907604 0 0.023091422932990675 -0.015520036083311465 0 0.023015592255992014 -0.015053693914907604 0 0.023416441168526286 -0.015093397548631236 0 0.023091422932990675 -0.015520036083311465 0 0.023015592255992014 -0.015053693914907604 0 0.023416441168526286 -0.015093397548631236 0 0.023303802475989829 -0.014655027181947344 0 0.021151608721185641 -0.019180089917616865 0 0.020553295094936298 -0.019670250355257025 0 0.018609340523744175 -0.023191938442344524 0 0.018835573193738808 -0.023643449562850246 0 0.019042879529547096 -0.022978690834791839 0 0.021151608721185641 -0.019180089917616865 0 0.019785142433496394 -0.017067996629196561 0 0.018609340523744175 -0.023191938442344524 0 0.019042879529547096 -0.022978690834791839 0 0.019006685553444088 -0.022432111803980682 0 0.018609340523744175 -0.023191938442344524 0 0.018698231549249142 -0.023694933741754236 0 0.018835573193738808 -0.023643449562850246 0 0.018698231549249142 -0.023694933741754236 0 0.018573572266231245 -0.023595261826536623 0 0.018687170152623854 -0.023818665493848357 0 0.018609340523744175 -0.023191938442344524 0 0.018698231549249142 -0.023694933741754236 0 0.018573572266231245 -0.023595261826536623 0 0.018573572266231245 -0.023595261826536623 0 0.018687170152623854 -0.023818665493848357 0 0.018583577355634269 -0.023774503549770457 0 0.018698231549249142 -0.023694933741754236 0 0.018687170152623854 -0.023818665493848357 0 0.018750154824352269 -0.023869542886508874 0 0.018687170152623854 -0.023818665493848357 0 0.018750154824352269 -0.023869542886508874 0 0.018759597357411759 -0.023955250772325871 0 0.018698231549249142 -0.023694933741754236 0 0.018750154824352269 -0.023869542886508874 0 0.018835573193738808 -0.023643449562850246 0 0.018750154824352269 -0.023869542886508874 0 0.018759597357411759 -0.023955250772325871 0 0.018689436039852535 -0.024008042222824388 0 0.018759597357411759 -0.023955250772325871 0 0.018750140974181369 -0.023946755864689466 0 0.018865399931099633 -0.023936206910902418 0 0.018687170152623854 -0.023818665493848357 0 0.018759597357411759 -0.023955250772325871 0 0.018750140974181369 -0.023946755864689466 0 0.019957268171147704 -0.024832897629971026 0 0.021931441741288481 -0.02523318275699795 0 0.023106328778471737 -0.02448842744130169 0 0.019957268171147704 -0.024832897629971026 0 0.023106328778471737 -0.02448842744130169 0 0.01973381711712005 -0.023557226696140902 0 0.019957268171147704 -0.024832897629971026 0 0.021931441741288481 -0.02523318275699795 0 0.021116101077507228 -0.02732616107735648 0 0.019515346440627381 -0.025051869034704147 0 0.023104712264222869 -0.020156923644077195 0 0.018687170152623854 -0.023818665493848357 0 0.018750140974181369 -0.023946755864689466 0 0.018583577355634269 -0.023774503549770457 0 0.029339157674894117 -0.015178973446482035 0 0.031205782913420715 -0.015440753718036529 0 0.025574358055762844 -0.018728759720328701 0 0.031205782913420715 -0.015440753718036529 0 0.025574358055762844 -0.018728759720328701 0 0.023535950312901049 -0.024301169368557696 0 0.023104712264222869 -0.020156923644077195 0 0.02436333366943725 -0.024144922443249093 0 0.029538418581124212 -0.013792842022812732 0 0.029339157674894117 -0.015178973446482035 0 0.029601449528053513 -0.013953548827490487 0 0.029082402211449511 -0.015131719777488598 0 0.025307560904520948 -0.015794230086145909 0 0.029339157674894117 -0.015178973446482035 0 0.021443212850911598 -0.0172167190789804 0 0.025574358055762844 -0.018728759720328701 0 0.021077144410108314 -0.021680560637159299 0 0.021443212850911598 -0.0172167190789804 0 0.025574358055762844 -0.018728759720328701 0 0.021077144410108314 -0.021680560637159299 0 0.025574358055762844 -0.018728759720328701 0 0.023535950312901049 -0.024301169368557696 0 0.021931441741288481 -0.02523318275699795 0 0.021116101077507228 -0.02732616107735648 0 0.023535950312901049 -0.024301169368557696 0 0.021077144410108314 -0.021680560637159299 0 0.023535950312901049 -0.024301169368557696 0 0.021694200721070159 -0.024482352477134848 0 0.021931441741288481 -0.02523318275699795 0 0.023535950312901049 -0.024301169368557696 0 0.023106328778471737 -0.02448842744130169 0 0.023106328778471737 -0.02448842744130169 0 0.022603282103365516 -0.0252695163087952 0 0.022411699457415717 -0.025785889992130329 0 0.023106328778471737 -0.02448842744130169 0 0.022603282103365516 -0.0252695163087952 0 0.022672482688772047 -0.024818914421749886 0 0.021694200721070159 -0.024482352477134848 0 0.022672482688772047 -0.024818914421749886 0 0.02204229751068576 -0.025621773302875572 0 0.023535950312901049 -0.024301169368557696 0 0.021694200721070159 -0.024482352477134848 0 0.022672482688772047 -0.024818914421749886 0 0.023535950312901049 -0.024301169368557696 0 0.023106328778471737 -0.02448842744130169 0 0.022672482688772047 -0.024818914421749886 0 0.022603282103365516 -0.0252695163087952 0 0.022672482688772047 -0.024818914421749886 0 0.02204229751068576 -0.025621773302875572 0 0.02009399002621709 -0.025310829203339234 0 0.02204229751068576 -0.025621773302875572 0 0.022369326588039938 -0.026474985982904445 0 0.022603282103365516 -0.0252695163087952 0 0.02204229751068576 -0.025621773302875572 0 0.022450788244458477 -0.025696018480202483 0 0.022603282103365516 -0.0252695163087952 0 0.022450788244458477 -0.025696018480202483 0 0.022411699457415717 -0.025785889992130329 0 0.022380942138280673 -0.025923207242489088 0 0.022450788244458477 -0.025696018480202483 0 0.022411699457415717 -0.025785889992130329 0 0.02204229751068576 -0.025621773302875572 0 0.022450788244458477 -0.025696018480202483 0 0.022361132918815703 -0.026036151918783734 0 0.022380942138280673 -0.025923207242489088 0 0.022450788244458477 -0.025696018480202483 0 0.022361132918815703 -0.026036151918783734 0 0.022361132918815703 -0.026036151918783734 0 0.022314530090181639 -0.026192531814316456 0 0.022369326588039938 -0.026474985982904445 0 0.022380942138280673 -0.025923207242489088 0 0.022290639139275405 -0.02611606450269327 0 0.022254555494559947 -0.02609409495436284 0 0.022380942138280673 -0.025923207242489088 0 0.022361132918815703 -0.026036151918783734 0 0.022290639139275405 -0.02611606450269327 0 0.022361132918815703 -0.026036151918783734 0 0.022290639139275405 -0.02611606450269327 0 0.022314530090181639 -0.026192531814316456 0 0.02204229751068576 -0.025621773302875572 0 0.022361132918815703 -0.026036151918783734 0 0.022369326588039938 -0.026474985982904445 0 0.022727423494539913 -0.024702545069215268 0 0.020774457447854805 -0.025013442883273302 0 0.023106328778471737 -0.02448842744130169 0 0.022411699457415717 -0.025785889992130329 0 0.021682363653738355 -0.026688384358909845 0 0.022411699457415717 -0.025785889992130329 0 0.0220485851294791 -0.02630196482028788 0 0.021682363653738355 -0.026688384358909845 0 0.022380942138280673 -0.025923207242489088 0 0.022411699457415717 -0.025785889992130329 0 0.022254555494559947 -0.02609409495436284 0 0.022411699457415717 -0.025785889992130329 0 0.022254555494559947 -0.02609409495436284 0 0.0220485851294791 -0.02630196482028788 0 0.022130192961865046 -0.026210411311483675 0 0.0220485851294791 -0.02630196482028788 0 0.021552068165479589 -0.02626200500115583 0 0.022290639139275405 -0.02611606450269327 0 0.022254555494559947 -0.02609409495436284 0 0.022130192961865046 -0.026210411311483675 0 0.022290639139275405 -0.02611606450269327 0 0.022314530090181639 -0.026192531814316456 0 0.022130192961865046 -0.026210411311483675 0 0.022314530090181639 -0.026192531814316456 0 0.022130192961865046 -0.026210411311483675 0 0.022180115422113299 -0.026122691338319473 0 0.022254555494559947 -0.02609409495436284 0 0.022130192961865046 -0.026210411311483675 0 0.0220485851294791 -0.02630196482028788 0 0.0220485851294791 -0.02630196482028788 0 0.021682363653738355 -0.026688384358909845 0 0.021552068165479589 -0.02626200500115583 0 0.021552068165479589 -0.02626200500115583 0 0.021752736483746472 -0.025888059574718906 0 0.020980923964662473 -0.025964385248582595 0 0.021552068165479589 -0.02626200500115583 0 0.021978984040096079 -0.026092816428526677 0 0.021752736483746472 -0.025888059574718906 0 0.022130192961865046 -0.026210411311483675 0 0.021552068165479589 -0.02626200500115583 0 0.021978984040096079 -0.026092816428526677 0 0.021978984040096079 -0.026092816428526677 0 0.022163945389596856 -0.025905487306916563 0 0.021752736483746472 -0.025888059574718906 0 0.022130192961865046 -0.026210411311483675 0 0.021978984040096079 -0.026092816428526677 0 0.022180115422113299 -0.026122691338319473 0 0.021978984040096079 -0.026092816428526677 0 0.022180115422113299 -0.026122691338319473 0 0.022163945389596856 -0.025905487306916563 0 0.02205320459068201 -0.025657052650380381 0 0.021752736483746472 -0.025888059574718906 0 0.02155947225205454 -0.025369335788178217 0 0.022163945389596856 -0.025905487306916563 0 0.02205320459068201 -0.025657052650380381 0 0.022307095362719787 -0.025746420170700411 0 0.022163945389596856 -0.025905487306916563 0 0.02205320459068201 -0.025657052650380381 0 0.021752736483746472 -0.025888059574718906 0 0.02205320459068201 -0.025657052650380381 0 0.022181139676494634 -0.025379383901480125 0 0.022307095362719787 -0.025746420170700411 0 0.02205320459068201 -0.025657052650380381 0 0.022181139676494634 -0.025379383901480125 0 0.02155947225205454 -0.025369335788178217 0 0.021752736483746472 -0.025888059574718906 0 0.02155947225205454 -0.025369335788178217 0 0.020980923964662473 -0.025964385248582595 0 0.025966845210296016 -0.024416672116381311 0 0.025739315522206672 -0.024172918354159155 0 0.022612084845017307 -0.025784784533127904 0 0.022457083421714714 -0.025153142373449167 0 0.022369326588039938 -0.026474985982904445 0 0.022307095362719787 -0.025746420170700411 0 0.022473455350524734 -0.025103071224740953 0 0.023358563403809766 -0.025261147123708083 0 0.023082485174452674 -0.025362118556741611 0 0.022473455350524734 -0.025103071224740953 0 0.023358563403809766 -0.025261147123708083 0 0.022420950644945446 -0.025042105055372608 0 0.022473455350524734 -0.025103071224740953 0 0.022314530090181639 -0.026192531814316456 0 0.022369326588039938 -0.026474985982904445 0 0.022284523468893695 -0.026098303921012391 0 0.022369326588039938 -0.026474985982904445 0 0.022284523468893695 -0.026098303921012391 0 0.022307095362719787 -0.025746420170700411 0 0.022314530090181639 -0.026192531814316456 0 0.022180115422113299 -0.026122691338319473 0 0.022284523468893695 -0.026098303921012391 0 0.022163945389596856 -0.025905487306916563 0 0.022284523468893695 -0.026098303921012391 0 0.022307095362719787 -0.025746420170700411 0 0.022180115422113299 -0.026122691338319473 0 0.022163945389596856 -0.025905487306916563 0 0.022284523468893695 -0.026098303921012391 0 0.022181139676494634 -0.025379383901480125 0 0.022307095362719787 -0.025746420170700411 0 0.022473455350524734 -0.025103071224740953 0 0.028628952133678762 -0.023549190509583123 0 0.028519605414400181 -0.023588788716226491 0 0.028522914434495047 -0.02352878539775647 0 0.028628952133678762 -0.023549190509583123 0 0.028615577800588422 -0.023625508575581107 0 0.028519605414400181 -0.023588788716226491 0 0.022181139676494634 -0.025379383901480125 0 0.022420950644945446 -0.025042105055372608 0 0.022473455350524734 -0.025103071224740953 0 0.025739315522206672 -0.024172918354159155 0 0.022652208861284415 -0.024796150130606723 0 0.022420950644945446 -0.025042105055372608 0 0.02155947225205454 -0.025369335788178217 0 0.020627845092853626 -0.023366911399618922 0 0.022181139676494634 -0.025379383901480125 0 0.022420950644945446 -0.025042105055372608 0 0.02155947225205454 -0.025369335788178217 0 0.028519605414400181 -0.023588788716226491 0 0.028522914434495047 -0.02352878539775647 0 0.02842299983106028 -0.023546211082564914 0 0.028457367312049578 -0.023472480901038203 0 0.028522914434495047 -0.02352878539775647 0 0.02842299983106028 -0.023546211082564914 0 0.028637613783064592 -0.023493733116148597 0 0.028628952133678762 -0.023549190509583123 0 0.028522914434495047 -0.02352878539775647 0 0.019021040041587438 -0.025842156416034576 0 0.018781074826867233 -0.025883158916039869 0 0.019279130432340693 -0.025820739669498757 0 0.019021040041587438 -0.025842156416034576 0 0.018781074826867233 -0.025883158916039869 0 0.018686844616579733 -0.025960418991421937 0 0.018781074826867233 -0.025883158916039869 0 0.018686844616579733 -0.025960418991421937 0 0.018529260844145693 -0.026067979965519052 0 0.018656561809681237 -0.025956455471448609 0 0.019021040041587438 -0.025842156416034576 0 0.018686844616579733 -0.025960418991421937 0 0.019138304478973019 -0.026983880469603497 0 0.022652208861284415 -0.024796150130606723 0 0.018656561809681237 -0.025956455471448609 0 0.019021040041587438 -0.025842156416034576 0 0.019342642350357223 -0.025735208014286026 0 0.019021040041587438 -0.025842156416034576 0 0.019342642350357223 -0.025735208014286026 0 0.019279130432340693 -0.025820739669498757 0 0.019342642350357223 -0.025735208014286026 0 0.019279130432340693 -0.025820739669498757 0 0.02026914706850089 -0.025819452348249089 0 0.02155947225205454 -0.025369335788178217 0 0.020627845092853626 -0.023366911399618922 0 0.02026914706850089 -0.025819452348249089 0 0.022652208861284415 -0.024796150130606723 0 0.019611438131744756 -0.025767915053606708 0 0.019279130432340693 -0.025820739669498757 0 0.019464998552130481 -0.026228693709988853 0 0.018647202439187646 -0.025961378287562748 0 0.018781074826867233 -0.025883158916039869 0 0.019279130432340693 -0.025820739669498757 0 0.018647202439187646 -0.025961378287562748 0 0.019045611839104158 -0.025096153410361727 0 0.018610905484578128 -0.025355426478045499 0 0.018512594691821895 -0.023972915284249132 0 0.018583647765235484 -0.0241219378904017 0 0.018479343887166915 -0.024726480996369912 0 0.018512594691821895 -0.023972915284249132 0 0.018583647765235484 -0.0241219378904017 0 0.018660704317368364 -0.023979577372837527 0 0.021682363653738355 -0.026688384358909845 0 0.021552068165479589 -0.02626200500115583 0 0.019464998552130481 -0.026228693709988853 0 0.019464998552130481 -0.026228693709988853 0 0.020980923964662473 -0.025964385248582595 0 0.02026914706850089 -0.025819452348249089 0 0.021552068165479589 -0.02626200500115583 0 0.019464998552130481 -0.026228693709988853 0 0.020980923964662473 -0.025964385248582595 0 0.019279130432340693 -0.025820739669498757 0 0.019464998552130481 -0.026228693709988853 0 0.02026914706850089 -0.025819452348249089 0 0.02155947225205454 -0.025369335788178217 0 0.020980923964662473 -0.025964385248582595 0 0.02026914706850089 -0.025819452348249089 0 0.018750140974181369 -0.023946755864689466 0 0.019138631895491653 -0.023770625039207925 0 0.018865399931099633 -0.023936206910902418 0 0.019515346440627381 -0.025051869034704147 0 0.019029839127896735 -0.023554794204887215 0 0.019957268171147704 -0.024832897629971026 0 0.01973381711712005 -0.023557226696140902 0 0.019138631895491653 -0.023770625039207925 0 0.020774457447854805 -0.025013442883273302 0 0.019045611839104158 -0.025096153410361727 0 0.01973381711712005 -0.023557226696140902 0 0.018512594691821895 -0.023972915284249132 0 0.019138631895491653 -0.023770625039207925 0 0.018512594691821895 -0.023972915284249132 0 0.019138631895491653 -0.023770625039207925 0 0.018660704317368364 -0.023979577372837527 0 0.019138631895491653 -0.023770625039207925 0 0.018865399931099633 -0.023936206910902418 0 0.018660704317368364 -0.023979577372837527 0 0.018583647765235484 -0.0241219378904017 0 0.018660704317368364 -0.023979577372837527 0 0.018689436039852535 -0.024008042222824388 0 0.018759597357411759 -0.023955250772325871 0 0.018660704317368364 -0.023979577372837527 0 0.018689436039852535 -0.024008042222824388 0 0.018759597357411759 -0.023955250772325871 0 0.018865399931099633 -0.023936206910902418 0 0.018660704317368364 -0.023979577372837527 0 0.018843990285965916 -0.024113570036818469 0 0.018686865178514856 -0.024243822135211951 0 0.018689436039852535 -0.024008042222824388 0 0.018583647765235484 -0.0241219378904017 0 0.018686865178514856 -0.024243822135211951 0 0.018689436039852535 -0.024008042222824388 0 0.018843990285965916 -0.024113570036818469 0 0.018947665564773689 -0.024565109601058344 0 0.019080950573910634 -0.024245613045144786 0 0.018843990285965916 -0.024113570036818469 0 0.018947665564773689 -0.024565109601058344 0 0.018686865178514856 -0.024243822135211951 0 0.018947665564773689 -0.024565109601058344 0 0.018686865178514856 -0.024243822135211951 0 0.018479343887166915 -0.024726480996369912 0 0.018583647765235484 -0.0241219378904017 0 0.018686865178514856 -0.024243822135211951 0 0.018479343887166915 -0.024726480996369912 0 0.018947665564773689 -0.024565109601058344 0 0.018479343887166915 -0.024726480996369912 0 0.01889872979312213 -0.025047720840945174 0 0.018610905484578128 -0.025355426478045499 0 0.018777235540546177 -0.025682592155504474 0 0.018479343887166915 -0.024726480996369912 0 0.01889872979312213 -0.025047720840945174 0 0.018739959458523182 -0.025691675993557719 0 0.018647202439187646 -0.025961378287562748 0 0.018739959458523182 -0.025691675993557719 0 0.018584737713664683 -0.025921876685908882 0 0.018739959458523182 -0.025691675993557719 0 0.01870135273014982 -0.025882417291509068 0 0.018584737713664683 -0.025921876685908882 0 0.018856768252948238 -0.026328149429906224 0 0.018831043315229938 -0.025838919802162665 0 0.018747544590169189 -0.026086226675008699 0 0.018831043315229938 -0.025838919802162665 0 0.01870135273014982 -0.025882417291509068 0 0.018747544590169189 -0.026086226675008699 0 0.018739959458523182 -0.025691675993557719 0 0.018831043315229938 -0.025838919802162665 0 0.01870135273014982 -0.025882417291509068 0 0.01870135273014982 -0.025882417291509068 0 0.018649387235357737 -0.026049692113054711 0 0.018747544590169189 -0.026086226675008699 0 0.01870135273014982 -0.025882417291509068 0 0.018649387235357737 -0.026049692113054711 0 0.018584737713664683 -0.025921876685908882 0 0.018560016121738729 -0.026190660281892379 0 0.018649387235357737 -0.026049692113054711 0 0.018584737713664683 -0.025921876685908882 0 0.01849844922930325 -0.026212475109296567 0 0.018584737713664683 -0.025921876685908882 0 0.018521336239359504 -0.026064463893057579 0 0.01849844922930325 -0.026212475109296567 0 0.018560016121738729 -0.026190660281892379 0 0.018584737713664683 -0.025921876685908882 0 0.018781074826867233 -0.025883158916039869 0 0.018647202439187646 -0.025961378287562748 0 0.018588987606581339 -0.025951875831728862 0 0.018647202439187646 -0.025961378287562748 0 0.018584737713664683 -0.025921876685908882 0 0.018588987606581339 -0.025951875831728862 0 0.018584737713664683 -0.025921876685908882 0 0.018521336239359504 -0.026064463893057579 0 0.018588987606581339 -0.025951875831728862 0 0.018521336239359504 -0.026064463893057579 0 0.018520101054505897 -0.0260687893328298 0 0.018588987606581339 -0.025951875831728862 0 0.018460823222654198 -0.026231764422748254 0 0.018521336239359504 -0.026064463893057579 0 0.018520101054505897 -0.0260687893328298 0 0.018781074826867233 -0.025883158916039869 0 0.018529260844145693 -0.026067979965519052 0 0.018588987606581339 -0.025951875831728862 0 0.018520101054505897 -0.0260687893328298 0 0.018529260844145693 -0.026067979965519052 0 0.018588987606581339 -0.025951875831728862 0 0.0088234944311975112 -0.030115059840874508 0 0.009262968522183156 -0.031594178034042741 0 0.0075067998745441166 -0.030513745763662864 0 0.01009606349546617 -0.029639549093150429 0 0.0088234944311975112 -0.030115059840874508 0 0.009262968522183156 -0.031594178034042741 0 0.01598290777774148 -0.027712624897425833 0 0.014136326302244054 -0.028553382861055382 0 0.019148589262281031 -0.026333161181287854 0 0.018831043315229938 -0.025838919802162665 0 0.0190906322772838 -0.025533640978799996 0 0.019148589262281031 -0.026333161181287854 0 0.0190906322772838 -0.025533640978799996 0 0.019435878006636827 -0.025280607468316833 0 0.018739959458523182 -0.025691675993557719 0 0.018831043315229938 -0.025838919802162665 0 0.0190906322772838 -0.025533640978799996 0 0.01889872979312213 -0.025047720840945174 0 0.018739959458523182 -0.025691675993557719 0 0.0190906322772838 -0.025533640978799996 0 0.01889872979312213 -0.025047720840945174 0 0.0190906322772838 -0.025533640978799996 0 0.019435878006636827 -0.025280607468316833 0 0.018947665564773689 -0.024565109601058344 0 0.01889872979312213 -0.025047720840945174 0 0.019435878006636827 -0.025280607468316833 0 0.014136326302244054 -0.028553382861055382 0 0.013850573145708291 -0.02902625966236486 0 0.018947665564773689 -0.024565109601058344 0 0.019435878006636827 -0.025280607468316833 0 0.019464037303317503 -0.024528434979039622 0 0.018947665564773689 -0.024565109601058344 0 0.019464037303317503 -0.024528434979039622 0 0.019080950573910634 -0.024245613045144786 0 0.019464037303317503 -0.024528434979039622 0 0.019080950573910634 -0.024245613045144786 0 0.019224646013076781 -0.024109419155262653 0 0.019464037303317503 -0.024528434979039622 0 0.019224646013076781 -0.024109419155262653 0 0.019391243466153445 -0.024135118085965981 0 0.019224646013076781 -0.024109419155262653 0 0.019262997180566836 -0.023981351721737616 0 0.019155996776829578 -0.023913275618172039 0 0.019224646013076781 -0.024109419155262653 0 0.019262997180566836 -0.023981351721737616 0 0.019391243466153445 -0.024135118085965981 0 0.019262997180566836 -0.023981351721737616 0 0.019155996776829578 -0.023913275618172039 0 0.019238668520631677 -0.02386653583760006 0 0.019155996776829578 -0.023913275618172039 0 0.019238668520631677 -0.02386653583760006 0 0.019141232994826868 -0.023767080637948444 0 0.019050654730700497 -0.023826398112785814 0 0.019002198291244898 -0.02395629741791604 0 0.018946760585154959 -0.023738123849344452 0 0.019155996776829578 -0.023913275618172039 0 0.019050654730700497 -0.023826398112785814 0 0.019141232994826868 -0.023767080637948444 0 0.019155996776829578 -0.023913275618172039 0 0.019050654730700497 -0.023826398112785814 0 0.019002198291244898 -0.02395629741791604 0 0.019224646013076781 -0.024109419155262653 0 0.019155996776829578 -0.023913275618172039 0 0.019002198291244898 -0.02395629741791604 0 0.018843990285965916 -0.024113570036818469 0 0.019080950573910634 -0.024245613045144786 0 0.019002198291244898 -0.02395629741791604 0 0.019080950573910634 -0.024245613045144786 0 0.019224646013076781 -0.024109419155262653 0 0.019002198291244898 -0.02395629741791604 0 0.018843990285965916 -0.024113570036818469 0 0.019002198291244898 -0.02395629741791604 0 0.01882704840301673 -0.023860948940621539 0 0.018843990285965916 -0.024113570036818469 0 0.018689436039852535 -0.024008042222824388 0 0.01882704840301673 -0.023860948940621539 0 0.018750154824352269 -0.023869542886508874 0 0.018689436039852535 -0.024008042222824388 0 0.01882704840301673 -0.023860948940621539 0 0.018750154824352269 -0.023869542886508874 0 0.01882704840301673 -0.023860948940621539 0 0.018835573193738808 -0.023643449562850246 0 0.01882704840301673 -0.023860948940621539 0 0.01885166517076833 -0.023724381846538873 0 0.018835573193738808 -0.023643449562850246 0 0.019002198291244898 -0.02395629741791604 0 0.01882704840301673 -0.023860948940621539 0 0.018946760585154959 -0.023738123849344452 0 0.01882704840301673 -0.023860948940621539 0 0.018946760585154959 -0.023738123849344452 0 0.01885166517076833 -0.023724381846538873 0 0.018946760585154959 -0.023738123849344452 0 0.01885166517076833 -0.023724381846538873 0 0.018835808493069008 -0.023623168319720882 0 0.018946760585154959 -0.023738123849344452 0 0.018835808493069008 -0.023623168319720882 0 0.018882389056675129 -0.023559741732717666 0 0.018946760585154959 -0.023738123849344452 0 0.018882389056675129 -0.023559741732717666 0 0.018991367294516733 -0.023638535592041116 0 0.01885166517076833 -0.023724381846538873 0 0.018835808493069008 -0.023623168319720882 0 0.018835573193738808 -0.023643449562850246 0 0.018835808493069008 -0.023623168319720882 0 0.018835573193738808 -0.023643449562850246 0 0.018796501305173227 -0.023532284627940134 0 0.018835573193738808 -0.023643449562850246 0 0.019494332920106532 -0.022866331438939173 0 0.019042879529547096 -0.022978690834791839 0 0.018835573193738808 -0.023643449562850246 0 0.018796501305173227 -0.023532284627940134 0 0.018715859167226522 -0.023403034720966952 0 0.018847192250582616 -0.02364722732277896 0 0.019123615176088161 -0.022977840211643587 0 0.019494332920106532 -0.022866331438939173 0 0.019042879529547096 -0.022978690834791839 0 0.019364938043229241 -0.022554007307418602 0 0.018627537024086663 -0.023354162484586608 0 0.019503133862305094 -0.023426873585541103 0 0.018813698542872109 -0.023379302460937643 0 0.018909843177878 -0.023452281755553618 0 0.018950023196237915 -0.02344962495865351 0 0.018813698542872109 -0.023379302460937643 0 0.018939321437196326 -0.023284426860024725 0 0.018853038902107579 -0.023263838441536615 0 0.018882389056675129 -0.023559741732717666 0 0.018909843177878 -0.023452281755553618 0 0.018991367294516733 -0.023638535592041116 0 0.018796501305173227 -0.023532284627940134 0 0.018882389056675129 -0.023559741732717666 0 0.018813698542872109 -0.023379302460937643 0 0.018835808493069008 -0.023623168319720882 0 0.018796501305173227 -0.023532284627940134 0 0.018882389056675129 -0.023559741732717666 0 0.018796501305173227 -0.023532284627940134 0 0.018715859167226522 -0.023403034720966952 0 0.018813698542872109 -0.023379302460937643 0 0.018882389056675129 -0.023559741732717666 0 0.018813698542872109 -0.023379302460937643 0 0.018909843177878 -0.023452281755553618 0 0.019503133862305094 -0.023426873585541103 0 0.015618841713545958 -0.023983154622515171 0 0.018909843177878 -0.023452281755553618 0 0.018950023196237915 -0.02344962495865351 0 0.018927571143734764 -0.023430553742497005 0 0.018950023196237915 -0.02344962495865351 0 0.018927571143734764 -0.023430553742497005 0 0.018854547360197441 -0.023472743407598338 0 0.018939321437196326 -0.023284426860024725 0 0.019090054171755279 -0.023304796644423961 0 0.018984186984302057 -0.023191848081831962 0 0.018909843177878 -0.023452281755553618 0 0.0191103741385279 -0.023586132648917773 0 0.018991367294516733 -0.023638535592041116 0 0.018891201079818423 -0.023447173585637613 0 0.01909178901038101 -0.023557667153182204 0 0.015618841713545958 -0.023983154622515171 0 0.01825730551262841 -0.023799379800327671 0 0.018927571143734764 -0.023430553742497005 0 0.018854547360197441 -0.023472743407598338 0 0.018819385216473972 -0.023385009872499789 0 0.01909178901038101 -0.023557667153182204 0 0.01825730551262841 -0.023799379800327671 0 0.0191103741385279 -0.023586132648917773 0 0.01919249739262718 -0.02373533887074649 0 0.019141232994826868 -0.023767080637948444 0 0.0191103741385279 -0.023586132648917773 0 0.01919249739262718 -0.02373533887074649 0 0.019245573557883706 -0.023718042265141372 0 0.01919249739262718 -0.02373533887074649 0 0.019245573557883706 -0.023718042265141372 0 0.019249077639311579 -0.023757183684262485 0 0.01919249739262718 -0.02373533887074649 0 0.019249077639311579 -0.023757183684262485 0 0.019225542140256704 -0.023794179527300958 0 0.01825730551262841 -0.023799379800327671 0 0.018333044643141293 -0.023833525791525801 0 0.019249077639311579 -0.023757183684262485 0 0.019225542140256704 -0.023794179527300958 0 0.019281163829096525 -0.023842578820441596 0 0.019238668520631677 -0.02386653583760006 0 0.019225542140256704 -0.023794179527300958 0 0.019141232994826868 -0.023767080637948444 0 0.019238668520631677 -0.02386653583760006 0 0.019225542140256704 -0.023794179527300958 0 0.019281163829096525 -0.023842578820441596 0 0.01919249739262718 -0.02373533887074649 0 0.019225542140256704 -0.023794179527300958 0 0.019141232994826868 -0.023767080637948444 0 0.019050654730700497 -0.023826398112785814 0 0.018946760585154959 -0.023738123849344452 0 0.018991367294516733 -0.023638535592041116 0 0.019050654730700497 -0.023826398112785814 0 0.019141232994826868 -0.023767080637948444 0 0.018991367294516733 -0.023638535592041116 0 0.0191103741385279 -0.023586132648917773 0 0.019141232994826868 -0.023767080637948444 0 0.018991367294516733 -0.023638535592041116 0 0.018844536385697861 -0.023024947799291019 0 0.019056988982122824 -0.023023287079828432 0 0.018776743178927545 -0.022864984551870651 0 0.019163173486164663 -0.022913634160997638 0 0.018776743178927545 -0.022864984551870651 0 0.018901595862666081 -0.022307491361299548 0 0.013316401384136771 -0.021961941672625145 0 0.020978900575583565 -0.023306520266337064 0 0.0060003877046942745 -0.018513326084183317 0 0.0058740280416100365 -0.018585906828318823 0 0.0057895227130052938 -0.018503501225009055 0 0.013316401384136771 -0.021961941672625145 0 0.0059903902860924665 -0.021538328153316119 0 0.015618841713545958 -0.023983154622515171 0 0.013316401384136771 -0.021961941672625145 0 0.019090054171755279 -0.023304796644423961 0 0.019056988982122824 -0.023023287079828432 0 0.018984186984302057 -0.023191848081831962 0 0.011516743846157178 -0.022333826920828709 0 0.012021607311768366 -0.023950807371354126 0 0.010030130627189318 -0.023557781359564493 0 0.018844536385697861 -0.023024947799291019 0 0.019056988982122824 -0.023023287079828432 0 0.018902871431568134 -0.023140165305632048 0 0.019056988982122824 -0.023023287079828432 0 0.018984186984302057 -0.023191848081831962 0 0.018902871431568134 -0.023140165305632048 0 0.018844536385697861 -0.023024947799291019 0 0.018902871431568134 -0.023140165305632048 0 0.018826217369995662 -0.023145938535275024 0 0.018939321437196326 -0.023284426860024725 0 0.018984186984302057 -0.023191848081831962 0 0.018919333955321593 -0.023223093409122066 0 0.018939321437196326 -0.023284426860024725 0 0.018919333955321593 -0.023223093409122066 0 0.018853038902107579 -0.023263838441536615 0 0.018902871431568134 -0.023140165305632048 0 0.018919333955321593 -0.023223093409122066 0 0.018853038902107579 -0.023263838441536615 0 0.018984186984302057 -0.023191848081831962 0 0.018902871431568134 -0.023140165305632048 0 0.018919333955321593 -0.023223093409122066 0 0.019494332920106532 -0.022866331438939173 0 0.019364938043229241 -0.022554007307418602 0 0.020703348385626867 -0.020533376341272072 0 0.019123615176088161 -0.022977840211643587 0 0.01984623291020416 -0.022332643756828276 0 0.018715859167226522 -0.023403034720966952 0 0.018770466936283085 -0.023115441261917717 0 0.01870589236663011 -0.022914971035060981 0 0.018902871431568134 -0.023140165305632048 0 0.018853038902107579 -0.023263838441536615 0 0.018826217369995662 -0.023145938535275024 0 0.018853038902107579 -0.023263838441536615 0 0.018786015574357603 -0.023246598558237234 0 0.018826217369995662 -0.023145938535275024 0 0.018813698542872109 -0.023379302460937643 0 0.018853038902107579 -0.023263838441536615 0 0.018786015574357603 -0.023246598558237234 0 0.018715859167226522 -0.023403034720966952 0 0.018786015574357603 -0.023246598558237234 0 0.018770466936283085 -0.023115441261917717 0 0.018715859167226522 -0.023403034720966952 0 0.018813698542872109 -0.023379302460937643 0 0.018786015574357603 -0.023246598558237234 0 0.018844536385697861 -0.023024947799291019 0 0.018826217369995662 -0.023145938535275024 0 0.018770466936283085 -0.023115441261917717 0 0.018844536385697861 -0.023024947799291019 0 0.018770466936283085 -0.023115441261917717 0 0.018765122676154284 -0.022964470154346127 0 0.018786015574357603 -0.023246598558237234 0 0.018826217369995662 -0.023145938535275024 0 0.018770466936283085 -0.023115441261917717 0 0.018445428957559792 -0.021986508668658467 0 0.019364938043229241 -0.022554007307418602 0 0.020167603613212931 -0.020073069080656213 0 0.019042879529547096 -0.022978690834791839 0 0.019006685553444088 -0.022432111803980682 0 0.019364938043229241 -0.022554007307418602 0 0.019785142433496394 -0.017067996629196561 0 0.020338076614967174 -0.020859605458892011 0 0.018809316764848122 -0.0092276781210875597 0 0.018239243978879126 -0.0097737218093709461 0 0.018876531703825895 -0.0097882251347903727 0 0.019785142433496394 -0.017067996629196561 0 0.019488164553156336 -0.014304493147243883 0 0.01870589236663011 -0.022914971035060981 0 0.018776743178927545 -0.022864984551870651 0 0.018901595862666081 -0.022307491361299548 0 0.020167603613212931 -0.020073069080656213 0 0.020703348385626867 -0.020533376341272072 0 0.021807266796384606 -0.018129988176665526 0 0.019364938043229241 -0.022554007307418602 0 0.020167603613212931 -0.020073069080656213 0 0.020703348385626867 -0.020533376341272072 0 0.018770466936283085 -0.023115441261917717 0 0.01870589236663011 -0.022914971035060981 0 0.018765122676154284 -0.022964470154346127 0 0.01870589236663011 -0.022914971035060981 0 0.018776743178927545 -0.022864984551870651 0 0.018765122676154284 -0.022964470154346127 0 0.018844536385697861 -0.023024947799291019 0 0.018776743178927545 -0.022864984551870651 0 0.018765122676154284 -0.022964470154346127 0 0.01984623291020416 -0.022332643756828276 0 0.017981386820486295 -0.016510257459023972 0 0.018239243978879126 -0.0097737218093709461 0 0.01817384226320078 -0.010294181316757703 0 0.017651293230958872 -0.010362333652370574 0 0.019488164553156336 -0.014304493147243883 0 0.017981386820486295 -0.016510257459023972 0 0.01817384226320078 -0.010294181316757703 0 0.017886558821007623 -0.010568772424261718 0 0.017651293230958872 -0.010362333652370574 0 0.018239243978879126 -0.0097737218093709461 0 0.01817384226320078 -0.010294181316757703 0 0.018665691298102416 -0.010327728262994579 0 0.018239243978879126 -0.0097737218093709461 0 0.018665691298102416 -0.010327728262994579 0 0.018876531703825895 -0.0097882251347903727 0 0.018665691298102416 -0.010327728262994579 0 0.018310637864024999 -0.010726578317924852 0 0.018898296390356163 -0.010778831966562522 0 0.018310637864024999 -0.010726578317924852 0 0.018536192398310464 -0.011093094160110992 0 0.018898296390356163 -0.010778831966562522 0 0.01817384226320078 -0.010294181316757703 0 0.018665691298102416 -0.010327728262994579 0 0.018310637864024999 -0.010726578317924852 0 0.01817384226320078 -0.010294181316757703 0 0.017886558821007623 -0.010568772424261718 0 0.018310637864024999 -0.010726578317924852 0 0.018310637864024999 -0.010726578317924852 0 0.017932949281936127 -0.010865564112997482 0 0.018150555946807805 -0.01113763053567177 0 0.017886558821007623 -0.010568772424261718 0 0.018310637864024999 -0.010726578317924852 0 0.017932949281936127 -0.010865564112997482 0 0.012791379729877596 -0.01459155172817554 0 0.010962849380349212 -0.015963246367991776 0 0.0097053314635369425 -0.0094684718069362565 0 0.017932949281936127 -0.010865564112997482 0 0.017557284366622749 -0.010532193543603354 0 0.017793524705809711 -0.01135069748344074 0 0.014821279991409678 -0.01513553007768152 0 0.012106318584445247 -0.0093208281659901537 0 0.0060164650559887912 -0.018737576295269124 0 0.0060807767818677064 -0.018677709688309493 0 0.0059385910174975225 -0.018654763447453648 0 0.012791379729877596 -0.01459155172817554 0 0.010962849380349212 -0.015963246367991776 0 0.011101992249094889 -0.016406648015545099 0 0.0074245902551350077 -0.016591092960559706 0 0.014313105055719396 -0.017732851450495222 0 0.014821279991409678 -0.01513553007768152 0 0.014313105055719396 -0.017732851450495222 0 0.017886558821007623 -0.010568772424261718 0 0.017932949281936127 -0.010865564112997482 0 0.017557284366622749 -0.010532193543603354 0 0.017886558821007623 -0.010568772424261718 0 0.017557284366622749 -0.010532193543603354 0 0.017651293230958872 -0.010362333652370574 0 0.019163173486164663 -0.022913634160997638 0 0.018901595862666081 -0.022307491361299548 0 0.018973819026668112 -0.022212995483530697 0 0.0060003877046942745 -0.018513326084183317 0 0.0060807767818677064 -0.018677709688309493 0 0.0059385910174975225 -0.018654763447453648 0 0.013316401384136771 -0.021961941672625145 0 0.014313105055719396 -0.017732851450495222 0 0.015781344738248049 -0.01789043489479222 0 0.016745108147343306 -0.016108601057451748 0 0.015602062745542175 -0.017304875596958043 0 0.014821279991409678 -0.01513553007768152 0 0.017981386820486295 -0.016510257459023972 0 0.017981386820486295 -0.016510257459023972 0 0.014313105055719396 -0.017732851450495222 0 0.0060003877046942745 -0.018513326084183317 0 0.0058740280416100365 -0.018585906828318823 0 0.0059385910174975225 -0.018654763447453648 0 0.0058740280416100365 -0.018585906828318823 0 0.0059385910174975225 -0.018654763447453648 0 0.0058088281415118433 -0.018655362353612606 0 0.0059385910174975225 -0.018654763447453648 0 0.0058088281415118433 -0.018655362353612606 0 0.0058068531275806846 -0.018744602510051629 0 0.0060747325600010163 -0.018762681710303292 0 0.0058068531275806846 -0.018744602510051629 0 0.0058538987467628041 -0.018865070983259378 0 0.0074245902551350077 -0.016591092960559706 0 0.0066061742499996003 -0.018538814283106102 0 0.0060747325600010163 -0.018762681710303292 0 0.0059385910174975225 -0.018654763447453648 0 0.0058068531275806846 -0.018744602510051629 0 0.0074245902551350077 -0.016591092960559706 0 0.0038079155090137377 -0.01089684632144498 0 0.0060747325600010163 -0.018762681710303292 0 0.0058538987467628041 -0.018865070983259378 0 0.0058831105892312155 -0.019134715457329653 0 0.0058538987467628041 -0.018865070983259378 0 0.0058831105892312155 -0.019134715457329653 0 0.0055711666729829834 -0.018840371378867422 0 0.0058068531275806846 -0.018744602510051629 0 0.0058538987467628041 -0.018865070983259378 0 0.0055711666729829834 -0.018840371378867422 0 0.00239483011879688 -0.0043022368204447487 0 0.0024027920066829137 -0.0042221407354683998 0 0.002350027378512073 -0.0043672148955933472 0 0.00239483011879688 -0.0043022368204447487 0 0.0024027920066829137 -0.0042221407354683998 0 0.0024426982120786746 -0.0043784928651458138 0 0.0024027920066829137 -0.0042221407354683998 0 0.0026464458202726201 -0.0044623170752117721 0 0.0024426982120786746 -0.0043784928651458138 0 0.0026464458202726201 -0.0044623170752117721 0 0.0024426982120786746 -0.0043784928651458138 0 0.0025343174238610408 -0.0044942710433404304 0 0.002447612068676643 -0.0044501785165668804 0 0.0024426982120786746 -0.0043784928651458138 0 0.0025343174238610408 -0.0044942710433404304 0 0.002447612068676643 -0.0044501785165668804 0 0.0024164730824498123 -0.0045086859988590451 0 0.0025343174238610408 -0.0044942710433404304 0 0.0024027920066829137 -0.0042221407354683998 0 0.002350027378512073 -0.0043672148955933472 0 0.0022188770189436203 -0.0044182426754392568 0 0.002447612068676643 -0.0044501785165668804 0 0.0023830346348862655 -0.0044307297490082638 0 0.0024164730824498123 -0.0045086859988590451 0 0.002447612068676643 -0.0044501785165668804 0 0.0023830346348862655 -0.0044307297490082638 0 0.0024426982120786746 -0.0043784928651458138 0 0.0023830346348862655 -0.0044307297490082638 0 0.0023360088028869402 -0.0044906286362579569 0 0.0024164730824498123 -0.0045086859988590451 0 0.0023360088028869402 -0.0044906286362579569 0 0.0023073927209453066 -0.0044286316930270036 0 0.0022113244609081131 -0.0045465114910846699 0 0.0023830346348862655 -0.0044307297490082638 0 0.0023360088028869402 -0.0044906286362579569 0 0.0023073927209453066 -0.0044286316930270036 0 0.0023073927209453066 -0.0044286316930270036 0 0.002350027378512073 -0.0043672148955933472 0 0.0022188770189436203 -0.0044182426754392568 0 0.0023830346348862655 -0.0044307297490082638 0 0.0023073927209453066 -0.0044286316930270036 0 0.002350027378512073 -0.0043672148955933472 0 0.00239483011879688 -0.0043022368204447487 0 0.002350027378512073 -0.0043672148955933472 0 0.0024426982120786746 -0.0043784928651458138 0 0.0023830346348862655 -0.0044307297490082638 0 0.002350027378512073 -0.0043672148955933472 0 0.0024426982120786746 -0.0043784928651458138 0 0.0024027920066829137 -0.0042221407354683998 0 0.0026464458202726201 -0.0044623170752117721 0 0.0030419250293844671 -0.0043707609622331747 0 0.010962849380349212 -0.015963246367991776 0 0.0097053314635369425 -0.0094684718069362565 0 0.0088639626917745989 -0.0091710666232906954 0 0.0074245902551350077 -0.016591092960559706 0 0.0068783853616343447 -0.0078357028673240042 0 0.0060751111437095349 -0.012471769147142472 0 0.0069486461314097504 -0.011517118489990827 0 0.0051189367911891248 -0.010846954588831685 0 0.0038079155090137377 -0.01089684632144498 0 0.0068783853616343447 -0.0078357028673240042 0 0.0026464458202726201 -0.0044623170752117721 0 0.0030419250293844671 -0.0043707609622331747 0 0.0028125013404182012 -0.0045783270810625908 0 0.0068783853616343447 -0.0078357028673240042 0 0.012106318584445247 -0.0093208281659901537 0 0.0028188407472626714 -0.004784862657351458 0 0.0025775619509004399 -0.0049266001088831982 0 0.0033132274482245557 -0.0047167436078783976 0 0.0043950903014916068 -0.0035125084329744333 0 0.010087142242573221 -0.004308326479383868 0 0.0030419250293844671 -0.0043707609622331747 0 0.0030077515457255012 -0.0046298220742820254 0 0.0028125013404182012 -0.0045783270810625908 0 0.0030419250293844671 -0.0043707609622331747 0 0.0030077515457255012 -0.0046298220742820254 0 0.0032620623822184952 -0.0046408958977124781 0 0.0030077515457255012 -0.0046298220742820254 0 0.0030600242424938897 -0.0047070191022605592 0 0.0031832768416475278 -0.0046873569578182173 0 0.0030077515457255012 -0.0046298220742820254 0 0.0028063194620241501 -0.0046915006070048478 0 0.0029097957838941087 -0.0047117497704620565 0 0.0030077515457255012 -0.0046298220742820254 0 0.0028125013404182012 -0.0045783270810625908 0 0.0028063194620241501 -0.0046915006070048478 0 0.0028125013404182012 -0.0045783270810625908 0 0.0026916804533255803 -0.0046215859809694447 0 0.0028063194620241501 -0.0046915006070048478 0 0.0026464458202726201 -0.0044623170752117721 0 0.0028125013404182012 -0.0045783270810625908 0 0.0026916804533255803 -0.0046215859809694447 0 0.0026916804533255803 -0.0046215859809694447 0 0.0026719354362273397 -0.0047273832312220414 0 0.0028063194620241501 -0.0046915006070048478 0 0.0026916804533255803 -0.0046215859809694447 0 0.0026719354362273397 -0.0047273832312220414 0 0.0025853108827767245 -0.0046764264691115959 0 0.0027367297354588976 -0.0047505413316047997 0 0.0026719354362273397 -0.0047273832312220414 0 0.0028063194620241501 -0.0046915006070048478 0 0.0027367297354588976 -0.0047505413316047997 0 0.0026719354362273397 -0.0047273832312220414 0 0.0026500486366071606 -0.0047991565567583978 0 0.0027367297354588976 -0.0047505413316047997 0 0.0026500486366071606 -0.0047991565567583978 0 0.0028188407472626714 -0.004784862657351458 0 0.0026376709394535696 -0.0048381227164646162 0 0.0028188407472626714 -0.004784862657351458 0 0.0025775619509004399 -0.0049266001088831982 0 0.0026500486366071606 -0.0047991565567583978 0 0.0026376709394535696 -0.0048381227164646162 0 0.0028188407472626714 -0.004784862657351458 0 0.0026500486366071606 -0.0047991565567583978 0 0.0026376709394535696 -0.0048381227164646162 0 0.0025737943388088698 -0.0048115942289591847 0 0.0028188407472626714 -0.004784862657351458 0 0.0028063194620241501 -0.0046915006070048478 0 0.0029097957838941087 -0.0047117497704620565 0 0.0027367297354588976 -0.0047505413316047997 0 0.0028188407472626714 -0.004784862657351458 0 0.0028063194620241501 -0.0046915006070048478 0 0.0028188407472626714 -0.004784862657351458 0 0.0030600242424938897 -0.0047070191022605592 0 0.0033132274482245557 -0.0047167436078783976 0 0.0030077515457255012 -0.0046298220742820254 0 0.0029097957838941087 -0.0047117497704620565 0 0.0030600242424938897 -0.0047070191022605592 0 0.0028188407472626714 -0.004784862657351458 0 0.0029097957838941087 -0.0047117497704620565 0 0.0030600242424938897 -0.0047070191022605592 0 0.0024083882930412523 -0.0046376597820499471 0 0.0023574791413696391 -0.0045631586500256656 0 0.0024637959297429926 -0.0045712045175214239 0 0.0024083882930412523 -0.0046376597820499471 0 0.0023093402070234136 -0.0046215472047586043 0 0.0023541290268546634 -0.0047029008209121944 0 0.0024083882930412523 -0.0046376597820499471 0 0.0023093402070234136 -0.0046215472047586043 0 0.0023574791413696391 -0.0045631586500256656 0 0.0023093402070234136 -0.0046215472047586043 0 0.0023574791413696391 -0.0045631586500256656 0 0.0022113244609081131 -0.0045465114910846699 0 0.0023360088028869402 -0.0044906286362579569 0 0.0023574791413696391 -0.0045631586500256656 0 0.0022113244609081131 -0.0045465114910846699 0 0.0023360088028869402 -0.0044906286362579569 0 0.0023574791413696391 -0.0045631586500256656 0 0.0024164730824498123 -0.0045086859988590451 0 0.0023574791413696391 -0.0045631586500256656 0 0.0024164730824498123 -0.0045086859988590451 0 0.0024637959297429926 -0.0045712045175214239 0 0.0024164730824498123 -0.0045086859988590451 0 0.0024637959297429926 -0.0045712045175214239 0 0.0025343174238610408 -0.0044942710433404304 0 0.0024637959297429926 -0.0045712045175214239 0 0.0025343174238610408 -0.0044942710433404304 0 0.0025959041992853369 -0.0045832406112651684 0 0.0026464458202726201 -0.0044623170752117721 0 0.0025343174238610408 -0.0044942710433404304 0 0.0025959041992853369 -0.0045832406112651684 0 0.0026464458202726201 -0.0044623170752117721 0 0.0026916804533255803 -0.0046215859809694447 0 0.0025959041992853369 -0.0045832406112651684 0 0.0025959041992853369 -0.0045832406112651684 0 0.0025084847535457601 -0.0046391466370298414 0 0.0025853108827767245 -0.0046764264691115959 0 0.0026916804533255803 -0.0046215859809694447 0 0.0025959041992853369 -0.0045832406112651684 0 0.0025853108827767245 -0.0046764264691115959 0 0.0024637959297429926 -0.0045712045175214239 0 0.0025959041992853369 -0.0045832406112651684 0 0.0025084847535457601 -0.0046391466370298414 0 0.0024083882930412523 -0.0046376597820499471 0 0.0025084847535457601 -0.0046391466370298414 0 0.0024761328453992227 -0.0047176980128728115 0 0.0024083882930412523 -0.0046376597820499471 0 0.0024637959297429926 -0.0045712045175214239 0 0.0025084847535457601 -0.0046391466370298414 0 0.0025084847535457601 -0.0046391466370298414 0 0.0024761328453992227 -0.0047176980128728115 0 0.0025853108827767245 -0.0046764264691115959 0 0.0024761328453992227 -0.0047176980128728115 0 0.0025853108827767245 -0.0046764264691115959 0 0.0025682352274708016 -0.0047585545785102761 0 0.0026719354362273397 -0.0047273832312220414 0 0.0025853108827767245 -0.0046764264691115959 0 0.0025682352274708016 -0.0047585545785102761 0 0.0026719354362273397 -0.0047273832312220414 0 0.0026500486366071606 -0.0047991565567583978 0 0.0025682352274708016 -0.0047585545785102761 0 0.0026500486366071606 -0.0047991565567583978 0 0.0025682352274708016 -0.0047585545785102761 0 0.0025737943388088698 -0.0048115942289591847 0 0.0025682352274708016 -0.0047585545785102761 0 0.0025737943388088698 -0.0048115942289591847 0 0.0024927997433162592 -0.0048110505859325853 0 0.0025737943388088698 -0.0048115942289591847 0 0.0024927997433162592 -0.0048110505859325853 0 0.0025601256024099868 -0.0048702715565432904 0 0.0026376709394535696 -0.0048381227164646162 0 0.0025737943388088698 -0.0048115942289591847 0 0.0025601256024099868 -0.0048702715565432904 0 0.0024342144748320683 -0.0047806924540865856 0 0.0024927997433162592 -0.0048110505859325853 0 0.0024161797993710317 -0.0048227518939634693 0 0.0024761328453992227 -0.0047176980128728115 0 0.0024342144748320683 -0.0047806924540865856 0 0.0024927997433162592 -0.0048110505859325853 0 0.0024761328453992227 -0.0047176980128728115 0 0.0025682352274708016 -0.0047585545785102761 0 0.0024927997433162592 -0.0048110505859325853 0 0.0024342144748320683 -0.0047806924540865856 0 0.0023541290268546634 -0.0047029008209121944 0 0.0023594936866153157 -0.0047573816673894638 0 0.0024342144748320683 -0.0047806924540865856 0 0.0023594936866153157 -0.0047573816673894638 0 0.0023569754986468546 -0.0047955169003103468 0 0.0024083882930412523 -0.0046376597820499471 0 0.0024761328453992227 -0.0047176980128728115 0 0.0023541290268546634 -0.0047029008209121944 0 0.0024761328453992227 -0.0047176980128728115 0 0.0024342144748320683 -0.0047806924540865856 0 0.0023541290268546634 -0.0047029008209121944 0 0.0023093402070234136 -0.0046215472047586043 0 0.0023541290268546634 -0.0047029008209121944 0 0.0022276324217719392 -0.0046611107126025668 0 0.0023541290268546634 -0.0047029008209121944 0 0.0022603854278579966 -0.0047314016579936002 0 0.0022276324217719392 -0.0046611107126025668 0 0.0023541290268546634 -0.0047029008209121944 0 0.0023594936866153157 -0.0047573816673894638 0 0.0022603854278579966 -0.0047314016579936002 0 0.0023594936866153157 -0.0047573816673894638 0 0.0023137911493799103 -0.0047638769403247367 0 0.0022603854278579966 -0.0047314016579936002 0 0.0025073434765826869 -0.0044648624533914511 0 0.0023818132834461637 -0.0046499799823264713 0 0.0022319005990923449 -0.0046493061170727341 0 0.0023594936866153157 -0.0047573816673894638 0 0.0023569754986468546 -0.0047955169003103468 0 0.0023137911493799103 -0.0047638769403247367 0 0.0024161797993710317 -0.0048227518939634693 0 0.0025209393835547199 -0.0049002755241288358 0 0.0022319005990923449 -0.0046493061170727341 0 0.0043950903014916068 -0.0035125084329744333 0 0.0014936325681985329 -0.005066556529591767 0 0.0023569754986468546 -0.0047955169003103468 0 0.0024161797993710317 -0.0048227518939634693 0 0.0022319005990923449 -0.0046493061170727341 0 0.0023569754986468546 -0.0047955169003103468 0 0.0023137911493799103 -0.0047638769403247367 0 0.0022870547855920512 -0.0047551432089841666 0 0.0024342144748320683 -0.0047806924540865856 0 0.0023569754986468546 -0.0047955169003103468 0 0.0024161797993710317 -0.0048227518939634693 0 0.0024161797993710317 -0.0048227518939634693 0 0.0025209393835547199 -0.0049002755241288358 0 0.0024918803082920808 -0.0048542448084896049 0 0.0024927997433162592 -0.0048110505859325853 0 0.0024161797993710317 -0.0048227518939634693 0 0.0024918803082920808 -0.0048542448084896049 0 0.0025209393835547199 -0.0049002755241288358 0 0.0024918803082920808 -0.0048542448084896049 0 0.0025601256024099868 -0.0048702715565432904 0 0.0024927997433162592 -0.0048110505859325853 0 0.0024918803082920808 -0.0048542448084896049 0 0.0025601256024099868 -0.0048702715565432904 0 0.0026376709394535696 -0.0048381227164646162 0 0.0025775619509004399 -0.0049266001088831982 0 0.0025601256024099868 -0.0048702715565432904 0 0.0043950903014916068 -0.0035125084329744333 0 0.0043561027740907409 -0.0036251381471968675 0 0.009682512644651373 -0.0023169395701294893 0 0.010948773563334929 -0.0026961498288914825 0 0.01134197942254187 -0.0015984351150182057 0 0.009682512644651373 -0.0023169395701294893 0 0.010948773563334929 -0.0026961498288914825 0 0.010584292697132848 -0.003486362867874941 0 0.0098611951020758822 -0.0044260896999259941 0 0.010584292697132848 -0.003486362867874941 0 0.011441658296776064 -0.0044910268255353592 0 0.009682512644651373 -0.0023169395701294893 0 0.0098611951020758822 -0.0044260896999259941 0 0.010584292697132848 -0.003486362867874941 0 0.0025073434765826869 -0.0044648624533914511 0 0.002547505008177933 -0.0047664938608008647 0 0.0023818132834461637 -0.0046499799823264713 0 0.002547505008177933 -0.0047664938608008647 0 0.0023818132834461637 -0.0046499799823264713 0 0.0023102622356591415 -0.004767184198991593 0 0.0043950903014916068 -0.0035125084329744333 0 0.0062864558087376687 -0.0045071376142099768 0 0.012629888027129015 -0.0035471048345804518 0 0.011441658296776064 -0.0044910268255353592 0 0.012765469588932387 -0.0052317040748423044 0 0.012629888027129015 -0.0035471048345804518 0 0.013635114861562251 -0.0042857067159969599 0 0.012765469588932387 -0.0052317040748423044 0 0.012629888027129015 -0.0035471048345804518 0 0.013635114861562251 -0.0042857067159969599 0 0.013815137498121759 -0.0034094461677519699 0 0.010584292697132848 -0.003486362867874941 0 0.011441658296776064 -0.0044910268255353592 0 0.011442928410112801 -0.0033926082382578064 0 0.012629888027129015 -0.0035471048345804518 0 0.011441658296776064 -0.0044910268255353592 0 0.011442928410112801 -0.0033926082382578064 0 0.012629888027129015 -0.0035471048345804518 0 0.011442928410112801 -0.0033926082382578064 0 0.011965702108280473 -0.0025653092388998678 0 0.010948773563334929 -0.0026961498288914825 0 0.011442928410112801 -0.0033926082382578064 0 0.011965702108280473 -0.0025653092388998678 0 0.010948773563334929 -0.0026961498288914825 0 0.010584292697132848 -0.003486362867874941 0 0.011442928410112801 -0.0033926082382578064 0 0.010948773563334929 -0.0026961498288914825 0 0.011965702108280473 -0.0025653092388998678 0 0.01134197942254187 -0.0015984351150182057 0 0.012051430971854779 -0.0024506791588841613 0 0.012959313815138438 -0.00185103217821572 0 0.012220995547711767 -0.0016722169379968291 0 0.012051430971854779 -0.0024506791588841613 0 0.013309824261912772 -0.0026561217264711051 0 0.012959313815138438 -0.00185103217821572 0 0.012576875655580574 -0.003474243190411304 0 0.01178902071153215 -0.0023785208031885138 0 0.012629888027129015 -0.0035471048345804518 0 0.012051430971854779 -0.0024506791588841613 0 0.013309824261912772 -0.0026561217264711051 0 0.012629888027129015 -0.0035471048345804518 0 0.013309824261912772 -0.0026561217264711051 0 0.013815137498121759 -0.0034094461677519699 0 0.013309824261912772 -0.0026561217264711051 0 0.012959313815138438 -0.00185103217821572 0 0.013981506775790934 -0.0019944898554247435 0 0.012959313815138438 -0.00185103217821572 0 0.013728163103760677 -0.0013698795373866114 0 0.013981506775790934 -0.0019944898554247435 0 0.018055559600788883 -0.011464219996758701 0 0.0188740111330069 -0.011181967714474599 0 0.018719865053610684 -0.011709108819640351 0 0.012959313815138438 -0.00185103217821572 0 0.012442738576082359 -0.000977587755383864 0 0.013728163103760677 -0.0013698795373866114 0 0.012959313815138438 -0.00185103217821572 0 0.012442738576082359 -0.000977587755383864 0 0.012220995547711767 -0.0016722169379968291 0 0.015950470122432513 -0.0083053907225295095 0 0.016208795590351099 -0.006522096690568995 0 0.015950470122432513 -0.0083053907225295095 0 0.012106318584445247 -0.0093208281659901537 0 0.013743633989477038 -0.0075360303363037617 0 0.012037085257513099 -0.0079244053476384083 0 0.011696510324824803 -0.0068346994928335245 0 0.0030600242424938897 -0.0047070191022605592 0 0.0033132274482245557 -0.0047167436078783976 0 0.0031832768416475278 -0.0046873569578182173 0 0.01178902071153215 -0.0023785208031885138 0 0.010087142242573221 -0.004308326479383868 0 0.012051430971854779 -0.0024506791588841613 0 0.011436430267598103 -0.0014159449776231536 0 0.012220995547711767 -0.0016722169379968291 0 0.013743633989477038 -0.0075360303363037617 0 0.012200978657829337 -0.008191954674201106 0 0.012037085257513099 -0.0079244053476384083 0 0.012442738576082359 -0.000977587755383864 0 0.011436430267598103 -0.0014159449776231536 0 0.012220995547711767 -0.0016722169379968291 0 0.015950470122432513 -0.0083053907225295095 0 0.010087142242573221 -0.004308326479383868 0 0.0092647124100117568 -0.0054065275071337208 0 0.012106318584445247 -0.0093208281659901537 0 0.0068783853616343447 -0.0078357028673240042 0 0.0092647124100117568 -0.0054065275071337208 0 0.010087142242573221 -0.004308326479383868 0 0.0092647124100117568 -0.0054065275071337208 0 0.0030077515457255012 -0.0046298220742820254 0 0.0032620623822184952 -0.0046408958977124781 0 0.0031832768416475278 -0.0046873569578182173 0 0.0033132274482245557 -0.0047167436078783976 0 0.0032620623822184952 -0.0046408958977124781 0 0.0031832768416475278 -0.0046873569578182173 0 0.017932949281936127 -0.010865564112997482 0 0.017793524705809711 -0.01135069748344074 0 0.018150555946807805 -0.01113763053567177 0 0.018342612619698093 -0.011543881256073555 0 0.017793524705809711 -0.01135069748344074 0 0.018150555946807805 -0.01113763053567177 0 0.010183482808666461 -0.0088043267266656802 0 0.0086454248697570395 -0.006209560089569569 0 0.0093322807449916188 -0.0085007998106118813 0 0.018342612619698093 -0.011543881256073555 0 0.018536192398310464 -0.011093094160110992 0 0.019000575392016852 -0.011276682281773972 0 0.015950470122432513 -0.0083053907225295095 0 0.019167400548144399 -0.011344281042898354 0 0.018342612619698093 -0.011543881256073555 0 0.018150555946807805 -0.01113763053567177 0 0.018536192398310464 -0.011093094160110992 0 0.018310637864024999 -0.010726578317924852 0 0.018150555946807805 -0.01113763053567177 0 0.018536192398310464 -0.011093094160110992 0 0.018536192398310464 -0.011093094160110992 0 0.019000575392016852 -0.011276682281773972 0 0.018898296390356163 -0.010778831966562522 0 0.0188740111330069 -0.011181967714474599 0 0.019641474955646224 -0.0109625370454125 0 0.019409901747629799 -0.011402074739898231 0 0.019167400548144399 -0.011344281042898354 0 0.019504979423320332 -0.010989586683255177 0 0.019000575392016852 -0.011276682281773972 0 0.019641474955646224 -0.0109625370454125 0 0.018898296390356163 -0.010778831966562522 0 0.019641474955646224 -0.0109625370454125 0 0.019409901747629799 -0.011402074739898231 0 0.020439027568812749 -0.011721181745620254 0 0.019409901747629799 -0.011402074739898231 0 0.019343835225064509 -0.011913809728039163 0 0.020439027568812749 -0.011721181745620254 0 0.016807989940000764 -0.0042677799160265647 0 0.019167803477316128 -0.0072550440330603786 0 0.019409901747629799 -0.011402074739898231 0 0.019343835225064509 -0.011913809728039163 0 0.018719865053610684 -0.011709108819640351 0 0.0188740111330069 -0.011181967714474599 0 0.019409901747629799 -0.011402074739898231 0 0.018719865053610684 -0.011709108819640351 0 0.016807989940000764 -0.0042677799160265647 0 0.014081091753736789 -0.0026276252613519936 0 0.016807989940000764 -0.0042677799160265647 0 0.016208795590351099 -0.006522096690568995 0 0.015017224079815695 -0.0018080972190170619 0 0.013728163103760677 -0.0013698795373866114 0 0.013981506775790934 -0.0019944898554247435 0 0.013309824261912772 -0.0026561217264711051 0 0.013981506775790934 -0.0019944898554247435 0 0.014532165714313129 -0.0027270346214681067 0 0.013309824261912772 -0.0026561217264711051 0 0.014532165714313129 -0.0027270346214681067 0 0.013815137498121759 -0.0034094461677519699 0 0.014532165714313129 -0.0027270346214681067 0 0.015599755082136057 -0.002918442452565161 0 0.014915849228255168 -0.0039382911356071089 0 0.015124077820298794 -0.0016979094915589503 0 0.013981506775790934 -0.0019944898554247435 0 0.014532165714313129 -0.0027270346214681067 0 0.015124077820298794 -0.0016979094915589503 0 0.015599755082136057 -0.002918442452565161 0 0.016946616562447343 -0.0022957703271258073 0 0.015124077820298794 -0.0016979094915589503 0 0.014532165714313129 -0.0027270346214681067 0 0.015599755082136057 -0.002918442452565161 0 0.016807989940000764 -0.0042677799160265647 0 0.017053826779052001 -0.0023172130249330515 0 0.015599755082136057 -0.002918442452565161 0 0.016403337782309634 -0.0036880622575609125 0 0.016946616562447343 -0.0022957703271258073 0 0.015599755082136057 -0.002918442452565161 0 0.016403337782309634 -0.0036880622575609125 0 0.014915849228255168 -0.0039382911356071089 0 0.016403337782309634 -0.0036880622575609125 0 0.014915849228255168 -0.0039382911356071089 0 0.01612720785483937 -0.0050286686727951183 0 0.013635114861562251 -0.0042857067159969599 0 0.014915849228255168 -0.0039382911356071089 0 0.014544430800240118 -0.0053227311669564259 0 0.013635114861562251 -0.0042857067159969599 0 0.013815137498121759 -0.0034094461677519699 0 0.014915849228255168 -0.0039382911356071089 0 0.014532165714313129 -0.0027270346214681067 0 0.013815137498121759 -0.0034094461677519699 0 0.014915849228255168 -0.0039382911356071089 0 0.018606144035126181 -0.004237178157807317 0 0.01758894351443302 -0.0035041326723073657 0 0.018779243608005182 -0.003066551436920582 0 0.018606144035126181 -0.004237178157807317 0 0.017254845484481227 -0.0043881379465890557 0 0.017686945898241511 -0.0054531566756709565 0 0.016403337782309634 -0.0036880622575609125 0 0.017254845484481227 -0.0043881379465890557 0 0.01612720785483937 -0.0050286686727951183 0 0.016403337782309634 -0.0036880622575609125 0 0.017254845484481227 -0.0043881379465890557 0 0.01758894351443302 -0.0035041326723073657 0 0.018606144035126181 -0.004237178157807317 0 0.017254845484481227 -0.0043881379465890557 0 0.01758894351443302 -0.0035041326723073657 0 0.017690436093731599 -0.0026718497351522425 0 0.018779243608005182 -0.003066551436920582 0 0.018233462216998481 -0.0019285759476434547 0 0.01758894351443302 -0.0035041326723073657 0 0.016946616562447343 -0.0022957703271258073 0 0.018779243608005182 -0.003066551436920582 0 0.017053826779052001 -0.0023172130249330515 0 0.018755301011996125 -0.0030454078414199133 0 0.016403337782309634 -0.0036880622575609125 0 0.01758894351443302 -0.0035041326723073657 0 0.016946616562447343 -0.0022957703271258073 0 0.018779243608005182 -0.003066551436920582 0 0.01923131797637808 -0.0023620661934620193 0 0.018233462216998481 -0.0019285759476434547 0 0.018606144035126181 -0.004237178157807317 0 0.018779243608005182 -0.003066551436920582 0 0.019898967705682148 -0.0029820285629456535 0 0.018779243608005182 -0.003066551436920582 0 0.01923131797637808 -0.0023620661934620193 0 0.019898967705682148 -0.0029820285629456535 0 0.01923131797637808 -0.0023620661934620193 0 0.018233462216998481 -0.0019285759476434547 0 0.020049234125683837 -0.0015333897860182312 0 0.019641474955646224 -0.0109625370454125 0 0.020439027568812749 -0.011721181745620254 0 0.020873445912800371 -0.010976344273752974 0 0.019167803477316128 -0.0072550440330603786 0 0.022550954662668866 -0.0063190273736431742 0 0.016577115210629819 -0.002320240451668011 0 0.017690436093731599 -0.0026718497351522425 0 0.018233462216998481 -0.0019285759476434547 0 0.020439027568812749 -0.011721181745620254 0 0.020873445912800371 -0.010976344273752974 0 0.021577074338476849 -0.011524735310186015 0 0.020873445912800371 -0.010976344273752974 0 0.021109320339816943 -0.010238835549112615 0 0.020334571961256209 -0.010467914866455638 0 0.019641474955646224 -0.0109625370454125 0 0.020873445912800371 -0.010976344273752974 0 0.020334571961256209 -0.010467914866455638 0 0.020873445912800371 -0.010976344273752974 0 0.021109320339816943 -0.010238835549112615 0 0.021405846911444634 -0.01077837894885649 0 0.021109320339816943 -0.010238835549112615 0 0.020275822484889787 -0.009885917831980737 0 0.020334571961256209 -0.010467914866455638 0 0.023257594004745072 -0.014305685123418921 0 0.023242511942079387 -0.014380748121664082 0 0.023244266539508288 -0.014384498373305472 0 0.021421781186033804 -0.012337944279239482 0 0.0219252402750248 -0.01224084831123913 0 0.020275822484889787 -0.009885917831980737 0 0.020334571961256209 -0.010467914866455638 0 0.019810591201564955 -0.010288396473914352 0 0.019641474955646224 -0.0109625370454125 0 0.019199987678878771 -0.01029660604905477 0 0.019810591201564955 -0.010288396473914352 0 0.019641474955646224 -0.0109625370454125 0 0.020334571961256209 -0.010467914866455638 0 0.019810591201564955 -0.010288396473914352 0 0.018665691298102416 -0.010327728262994579 0 0.018898296390356163 -0.010778831966562522 0 0.019199987678878771 -0.01029660604905477 0 0.019641474955646224 -0.0109625370454125 0 0.018898296390356163 -0.010778831966562522 0 0.019199987678878771 -0.01029660604905477 0 0.018665691298102416 -0.010327728262994579 0 0.019199987678878771 -0.01029660604905477 0 0.018876531703825895 -0.0097882251347903727 0 0.019199987678878771 -0.01029660604905477 0 0.019810591201564955 -0.010288396473914352 0 0.019516070447836504 -0.0095558694212083198 0 0.020275822484889787 -0.009885917831980737 0 0.019810591201564955 -0.010288396473914352 0 0.019516070447836504 -0.0095558694212083198 0 0.0219252402750248 -0.01224084831123913 0 0.021401867769589331 -0.011400724654406278 0 0.018809316764848122 -0.0092276781210875597 0 0.019516070447836504 -0.0095558694212083198 0 0.018876531703825895 -0.0097882251347903727 0 0.019199987678878771 -0.01029660604905477 0 0.019516070447836504 -0.0095558694212083198 0 0.018876531703825895 -0.0097882251347903727 0 0.023416441168526286 -0.015093397548631236 0 0.023660978017362864 -0.014715681567423249 0 0.023303802475989829 -0.014655027181947344 0 0.019785142433496394 -0.017067996629196561 0 0.021401867769589331 -0.011400724654406278 0 0.023660978017362864 -0.014715681567423249 0 0.023277613167288085 -0.014479027262126954 0 0.023303802475989829 -0.014655027181947344 0 0.023277613167288085 -0.014479027262126954 0 0.023303802475989829 -0.014655027181947344 0 0.023226589685891107 -0.014475236164119694 0 0.023665516093909277 -0.014624918803511331 0 0.022068497616328162 -0.014681203578742719 0 0.023015592255992014 -0.015053693914907604 0 0.023303802475989829 -0.014655027181947344 0 0.022780129802415835 -0.014710693811061446 0 0.022068497616328162 -0.014681203578742719 0 0.027274495646067813 -0.013492217231689817 0 0.023226589685891107 -0.014475236164119694 0 0.023249400487593431 -0.014418716804253955 0 0.023244266539508288 -0.014384498373305472 0 0.022504457598904588 -0.015284753347147162 0 0.022780129802415835 -0.014710693811061446 0 0.022312605967001197 -0.01472017027312322 0 0.023242511942079387 -0.014380748121664082 0 0.023277613167288085 -0.014479027262126954 0 0.023226589685891107 -0.014475236164119694 0 0.023242511942079387 -0.014380748121664082 0 0.023226589685891107 -0.014475236164119694 0 0.023244266539508288 -0.014384498373305472 0 0.032457089914314445 -0.010843749930050293 0 0.032035837565391793 -0.0098064244329285743 0 0.033719027721627437 -0.009625097784505687 0 0.032457089914314445 -0.010843749930050293 0 0.033319179602870716 -0.012042874847930291 0 0.033719027721627437 -0.009625097784505687 0 0.032457089914314445 -0.010843749930050293 0 0.031541503045554892 -0.011040795531742644 0 0.032035837565391793 -0.0098064244329285743 0 0.032457089914314445 -0.010843749930050293 0 0.03124876659273166 -0.012255879657608906 0 0.031541503045554892 -0.011040795531742644 0 0.023249400487593431 -0.014418716804253955 0 0.023244266539508288 -0.014384498373305472 0 0.023246988454892276 -0.014337265415033093 0 0.034791859936600084 -0.012025028620162578 0 0.033319179602870716 -0.012042874847930291 0 0.033719027721627437 -0.009625097784505687 0 0.027274495646067813 -0.013492217231689817 0 0.028853979648742985 -0.012221363705776058 0 0.029949146649295644 -0.01316468105233674 0 0.029969229593617499 -0.01329430871056979 0 0.030397110826483716 -0.013135044346549097 0 0.027274495646067813 -0.013492217231689817 0 0.032644225346123143 -0.012551444654354616 0 0.032457089914314445 -0.010843749930050293 0 0.033319179602870716 -0.012042874847930291 0 0.03124876659273166 -0.012255879657608906 0 0.032644225346123143 -0.012551444654354616 0 0.030968588153235891 -0.012378758342733904 0 0.030762428215633197 -0.012770644550158182 0 0.030397110826483716 -0.013135044346549097 0 0.03124876659273166 -0.012255879657608906 0 0.030762428215633197 -0.012770644550158182 0 0.03124876659273166 -0.012255879657608906 0 0.031038382725394879 -0.011845634903489376 0 0.03124876659273166 -0.012255879657608906 0 0.031038382725394879 -0.011845634903489376 0 0.031541503045554892 -0.011040795531742644 0 0.031038382725394879 -0.011845634903489376 0 0.030698981675573177 -0.012676679399541953 0 0.02986203061216558 -0.01063119750867058 0 0.030808784273643256 -0.013360557478737005 0 0.030774979895241666 -0.012509919592980291 0 0.030497664299380101 -0.013312128242531243 0 0.030808784273643256 -0.013360557478737005 0 0.031161272721781218 -0.013387380755994042 0 0.030774979895241666 -0.012509919592980291 0 0.030750379494021589 -0.013266568723833803 0 0.032311011498245806 -0.0099764435294672892 0 0.02986203061216558 -0.01063119750867058 0 0.031161095823771225 -0.010372303419243979 0 0.03139701148004935 -0.0084016256103476173 0 0.031038382725394879 -0.011845634903489376 0 0.02986203061216558 -0.01063119750867058 0 0.031161095823771225 -0.010372303419243979 0 0.031038382725394879 -0.011845634903489376 0 0.031541503045554892 -0.011040795531742644 0 0.031161095823771225 -0.010372303419243979 0 0.031541503045554892 -0.011040795531742644 0 0.031161095823771225 -0.010372303419243979 0 0.032035837565391793 -0.0098064244329285743 0 0.031161095823771225 -0.010372303419243979 0 0.032035837565391793 -0.0098064244329285743 0 0.03139701148004935 -0.0084016256103476173 0 0.032035837565391793 -0.0098064244329285743 0 0.032242498898960463 -0.0085916834602039072 0 0.03139701148004935 -0.0084016256103476173 0 0.032311011498245806 -0.0099764435294672892 0 0.031162552135394112 -0.0082430666677780363 0 0.031835130241551247 -0.0072322580998888959 0 0.03139701148004935 -0.0084016256103476173 0 0.031969192791388025 -0.0080403579835721783 0 0.03139701148004935 -0.0084016256103476173 0 0.032068399384222047 -0.0080529983535992927 0 0.031969192791388025 -0.0080403579835721783 0 0.03139701148004935 -0.0084016256103476173 0 0.032068141440789698 -0.0079822148218990328 0 0.032068399384222047 -0.0080529983535992927 0 0.03139701148004935 -0.0084016256103476173 0 0.032068141440789698 -0.0079822148218990328 0 0.031989700136120555 -0.0080521145564653746 0 0.032068141440789698 -0.0079822148218990328 0 0.031989700136120555 -0.0080521145564653746 0 0.032257654351692637 -0.0078066511130219186 0 0.032068141440789698 -0.0079822148218990328 0 0.032257654351692637 -0.0078066511130219186 0 0.032553848117820264 -0.0077019144616191334 0 0.032242498898960463 -0.0085916834602039072 0 0.03139701148004935 -0.0084016256103476173 0 0.031989700136120555 -0.0080521145564653746 0 0.031989700136120555 -0.0080521145564653746 0 0.032795228786433206 -0.0080109251502598587 0 0.03210392559367975 -0.0077833452219976031 0 0.032242498898960463 -0.0085916834602039072 0 0.031989700136120555 -0.0080521145564653746 0 0.032795228786433206 -0.0080109251502598587 0 0.032035837565391793 -0.0098064244329285743 0 0.032242498898960463 -0.0085916834602039072 0 0.033719027721627437 -0.009625097784505687 0 0.032242498898960463 -0.0085916834602039072 0 0.032795228786433206 -0.0080109251502598587 0 0.033719027721627437 -0.009625097784505687 0 0.023257594004745072 -0.014305685123418921 0 0.023273000748183392 -0.014211358562620298 0 0.023246988454892276 -0.014337265415033093 0 0.023257594004745072 -0.014305685123418921 0 0.023244266539508288 -0.014384498373305472 0 0.023246988454892276 -0.014337265415033093 0 0.027278016579183516 -0.010154576030860868 0 0.028853979648742985 -0.012221363705776058 0 0.021421781186033804 -0.012337944279239482 0 0.027278016579183516 -0.010154576030860868 0 0.021109320339816943 -0.010238835549112615 0 0.022024020973498898 -0.010652491111563762 0 0.021405846911444634 -0.01077837894885649 0 0.020873445912800371 -0.010976344273752974 0 0.021405846911444634 -0.01077837894885649 0 0.021629529198175897 -0.011253546744385324 0 0.020873445912800371 -0.010976344273752974 0 0.021629529198175897 -0.011253546744385324 0 0.021577074338476849 -0.011524735310186015 0 0.022024020973498898 -0.010652491111563762 0 0.021405846911444634 -0.01077837894885649 0 0.021629529198175897 -0.011253546744385324 0 0.021820205429146557 -0.010705601406811271 0 0.022550954662668866 -0.0063190273736431742 0 0.021629529198175897 -0.011253546744385324 0 0.022408783483988861 -0.011378058729346443 0 0.02159342498684063 -0.011535720931584243 0 0.031253173219754883 -0.0073306076013417197 0 0.031553601475707155 -0.0079091249543737936 0 0.031748761006507357 -0.0078641404424623206 0 0.022024020973498898 -0.010652491111563762 0 0.021629529198175897 -0.011253546744385324 0 0.022408783483988861 -0.011378058729346443 0 0.027278016579183516 -0.010154576030860868 0 0.028813845679244717 -0.008545760572982548 0 0.030552946437425958 -0.0051770236009609158 0 0.030142165249962737 -0.0062079457980558266 0 0.031243006667770627 -0.006582550278053532 0 0.030552946437425958 -0.0051770236009609158 0 0.030142165249962737 -0.0062079457980558266 0 0.029299767318780236 -0.0054212408108120598 0 0.028813845679244717 -0.008545760572982548 0 0.022550954662668866 -0.0063190273736431742 0 0.01923131797637808 -0.0023620661934620193 0 0.020049234125683837 -0.0015333897860182312 0 0.019898967705682148 -0.0029820285629456535 0 0.030142165249962737 -0.0062079457980558266 0 0.029299767318780236 -0.0054212408108120598 0 0.029105392437175914 -0.0069180862008811133 0 0.022550954662668866 -0.0063190273736431742 0 0.024751749912631273 -0.0043294366055842935 0 0.030142165249962737 -0.0062079457980558266 0 0.029105392437175914 -0.0069180862008811133 0 0.029981882418694997 -0.0072405621666926257 0 0.029981882418694997 -0.0072405621666926257 0 0.030519745004951061 -0.008062549496986645 0 0.031243006667770627 -0.006582550278053532 0 0.030142165249962737 -0.0062079457980558266 0 0.029981882418694997 -0.0072405621666926257 0 0.031243006667770627 -0.006582550278053532 0 0.029981882418694997 -0.0072405621666926257 0 0.030519745004951061 -0.008062549496986645 0 0.028899602643699798 -0.0084347986156319693 0 0.018606144035126181 -0.004237178157807317 0 0.019898967705682148 -0.0029820285629456535 0 0.019722834528597966 -0.0048940738713299653 0 0.024751749912631273 -0.0043294366055842935 0 0.024239085922422146 -0.0068162756159346602 0 0.029105392437175914 -0.0069180862008811133 0 0.029981882418694997 -0.0072405621666926257 0 0.028899602643699798 -0.0084347986156319693 0 0.032402193194739561 -0.0091971904956891452 0 0.032535672202171101 -0.0086792677297239784 0 0.03319251667559573 -0.0090227412247049707 0 0.032402193194739561 -0.0091971904956891452 0 0.03319251667559573 -0.0090227412247049707 0 0.032973336587445369 -0.0093893215410386331 0 0.030519745004951061 -0.008062549496986645 0 0.031942925687677495 -0.0080192097143787916 0 0.031243006667770627 -0.006582550278053532 0 0.031964554727064304 -0.0085328016251486113 0 0.032535672202171101 -0.0086792677297239784 0 0.032052768237420808 -0.0081521498227977301 0 0.032163544051702381 -0.0086695174170502848 0 0.031767857261864617 -0.0072657688386076041 0 0.032402193194739561 -0.0091971904956891452 0 0.031964554727064304 -0.0085328016251486113 0 0.032535672202171101 -0.0086792677297239784 0 0.032535672202171101 -0.0086792677297239784 0 0.032052768237420808 -0.0081521498227977301 0 0.032875019699506611 -0.0083210120187363727 0 0.032052768237420808 -0.0081521498227977301 0 0.032406721668110712 -0.0079252131743659769 0 0.032875019699506611 -0.0083210120187363727 0 0.032052768237420808 -0.0081521498227977301 0 0.03210392559367975 -0.0077833452219976031 0 0.032406721668110712 -0.0079252131743659769 0 0.03157528606832273 -0.0078946375937280801 0 0.031964554727064304 -0.0085328016251486113 0 0.032052768237420808 -0.0081521498227977301 0 0.028813845679244717 -0.008545760572982548 0 0.031767857261864617 -0.0072657688386076041 0 0.03157528606832273 -0.0078946375937280801 0 0.032052768237420808 -0.0081521498227977301 0 0.031748761006507357 -0.0078641404424623206 0 0.027278016579183516 -0.010154576030860868 0 0.033804675174021553 -0.0073370094658384098 0 0.031253173219754883 -0.0073306076013417197 0 0.031748761006507357 -0.0078641404424623206 0 0.03210392559367975 -0.0077833452219976031 0 0.028813845679244717 -0.008545760572982548 0 0.030826177293995258 -0.0081120193562337645 0 0.032052768237420808 -0.0081521498227977301 0 0.031748761006507357 -0.0078641404424623206 0 0.03210392559367975 -0.0077833452219976031 0 0.031989700136120555 -0.0080521145564653746 0 0.03210392559367975 -0.0077833452219976031 0 0.032257654351692637 -0.0078066511130219186 0 0.032406721668110712 -0.0079252131743659769 0 0.032257654351692637 -0.0078066511130219186 0 0.032739360815459709 -0.0077620421182262008 0 0.03210392559367975 -0.0077833452219976031 0 0.032406721668110712 -0.0079252131743659769 0 0.032257654351692637 -0.0078066511130219186 0 0.03312201235387633 -0.0075685775907370391 0 0.032739360815459709 -0.0077620421182262008 0 0.032553848117820264 -0.0077019144616191334 0 0.032257654351692637 -0.0078066511130219186 0 0.032739360815459709 -0.0077620421182262008 0 0.032553848117820264 -0.0077019144616191334 0 0.03312201235387633 -0.0075685775907370391 0 0.032553848117820264 -0.0077019144616191334 0 0.032687852263875015 -0.0075830557738212501 0 0.03312201235387633 -0.0075685775907370391 0 0.032739360815459709 -0.0077620421182262008 0 0.033422823407123256 -0.0079804214462393525 0 0.034346526493273077 -0.0073275905870251274 0 0.035912453381746944 -0.0055702277348193422 0 0.035768710776122113 -0.0055911211521134461 0 0.03312201235387633 -0.0075685775907370391 0 0.034346526493273077 -0.0073275905870251274 0 0.032687852263875015 -0.0075830557738212501 0 0.034508262354632224 -0.007480841027593178 0 0.034202974005632561 -0.0067334705004619584 0 0.034346526493273077 -0.0073275905870251274 0 0.034945529078784329 -0.0077375851943623413 0 0.035912453381746944 -0.0055702277348193422 0 0.03312201235387633 -0.0075685775907370391 0 0.034346526493273077 -0.0073275905870251274 0 0.033422823407123256 -0.0079804214462393525 0 0.034346526493273077 -0.0073275905870251274 0 0.034307698291109606 -0.0080147632789440981 0 0.034945529078784329 -0.0077375851943623413 0 0.034346526493273077 -0.0073275905870251274 0 0.034307698291109606 -0.0080147632789440981 0 0.033422823407123256 -0.0079804214462393525 0 0.034307698291109606 -0.0080147632789440981 0 0.033422823407123256 -0.0079804214462393525 0 0.033805170187702627 -0.0085123120932648604 0 0.034307698291109606 -0.0080147632789440981 0 0.033805170187702627 -0.0085123120932648604 0 0.034580241492561857 -0.008401135457934937 0 0.032406721668110712 -0.0079252131743659769 0 0.032739360815459709 -0.0077620421182262008 0 0.032875019699506611 -0.0083210120187363727 0 0.032875019699506611 -0.0083210120187363727 0 0.033422823407123256 -0.0079804214462393525 0 0.033805170187702627 -0.0085123120932648604 0 0.032739360815459709 -0.0077620421182262008 0 0.032875019699506611 -0.0083210120187363727 0 0.033422823407123256 -0.0079804214462393525 0 0.032535672202171101 -0.0086792677297239784 0 0.032875019699506611 -0.0083210120187363727 0 0.03319251667559573 -0.0090227412247049707 0 0.032875019699506611 -0.0083210120187363727 0 0.033805170187702627 -0.0085123120932648604 0 0.03319251667559573 -0.0090227412247049707 0 0.033805170187702627 -0.0085123120932648604 0 0.034338255646534553 -0.0092054496333452314 0 0.034580241492561857 -0.008401135457934937 0 0.03319251667559573 -0.0090227412247049707 0 0.034338255646534553 -0.0092054496333452314 0 0.033512324346936247 -0.0096163049687378755 0 0.033805170187702627 -0.0085123120932648604 0 0.03319251667559573 -0.0090227412247049707 0 0.034338255646534553 -0.0092054496333452314 0 0.034999302368951823 -0.00018293573698906337 0 0.035334078143656571 -0.0035908111701403352 0 0.034999802616249139 -0.00018407810059739219 0 0.035578561594229792 -0.00034519825747983331 0 0.035520786094650467 -0.00071974302466736126 0 0.034999999310765195 -0.00018534860986770124 0 0.034999996557569323 -0.0013169201870904257 0 0.035821957166758019 -0.0016369184272330274 0 0.034999802616249139 -0.00018407810059739219 0 0.035578561594229792 -0.00034519825747983331 0 0.035614444915976519 0.00044453404871403927 0 0.035578561594229792 -0.00034519825747983331 0 0.035693439180522257 -0.0003391191960031739 0 0.035520786094650467 -0.00071974302466736126 0 0.035578561594229792 -0.00034519825747983331 0 0.035693439180522257 -0.0003391191960031739 0 0.035677603569683983 -0.00021499820183765278 0 0.034954156888057197 -0.004921707564290884 0 0.035334078143656571 -0.0035908111701403352 0 0.034338255646534553 -0.0092054496333452314 0 0.034580241492561857 -0.008401135457934937 0 0.035141334853957283 -0.0085974870937414391 0 0.034999996557569323 -0.0013169201870904257 0 0.035821957166758019 -0.0016369184272330274 0 0.034999998375168755 -0.002448465995066713 0 0.035334078143656571 -0.0035908111701403352 0 0.035001155319075904 -0.0024474150104294933 0 0.035658200440940223 -0.0018750620106314923 0 0.036256687180975092 -0.0035514972827774089 0 0.035462773231705422 -0.0034835991076323284 0 0.035658200440940223 -0.0018750620106314923 0 0.03499957790434307 -0.0024495188527930219 0 0.035462773231705422 -0.0034835991076323284 0 0.034580241492561857 -0.008401135457934937 0 0.035141334853957283 -0.0085974870937414391 0 0.034945529078784329 -0.0077375851943623413 0 0.035334078143656571 -0.0035908111701403352 0 0.035676667936202118 -0.0058654335182805528 0 0.034307698291109606 -0.0080147632789440981 0 0.034580241492561857 -0.008401135457934937 0 0.034945529078784329 -0.0077375851943623413 0 0.036256687180975092 -0.0035514972827774089 0 0.035817509901599438 -0.0048190751947501994 0 0.035912453381746944 -0.0055702277348193422 0 0.036256687180975092 -0.0035514972827774089 0 0.035462773231705422 -0.0034835991076323284 0 0.035817509901599438 -0.0048190751947501994 0 0.035676667936202118 -0.0058654335182805528 0 0.035707856361740467 -0.0053114245432823171 0 0.03499957790434307 -0.0024495188527930219 0 0.034999761017706202 -0.0043027951124688987 0 0.035462773231705422 -0.0034835991076323284 0 0.034999761017706202 -0.0043027951124688987 0 0.035462773231705422 -0.0034835991076323284 0 0.035817509901599438 -0.0048190751947501994 0 0.034999761017706202 -0.0043027951124688987 0 0.03499970623251572 -0.0061562789673053255 0 0.035762890838474261 -0.0057424496508515889 0 0.034999761017706202 -0.0043027951124688987 0 0.035762890838474261 -0.0057424496508515889 0 0.035817509901599438 -0.0048190751947501994 0 0.03499970623251572 -0.0061562789673053255 0 0.035762890838474261 -0.0057424496508515889 0 0.035810724087334989 -0.0069834669643957827 0 0.036133680205143959 -0.0063639865727402349 0 0.035762890838474261 -0.0057424496508515889 0 0.035810724087334989 -0.0069834669643957827 0 0.036133680205143959 -0.0063639865727402349 0 0.035762890838474261 -0.0057424496508515889 0 0.036029577094757688 -0.0056803889198235348 0 0.035762890838474261 -0.0057424496508515889 0 0.035817509901599438 -0.0048190751947501994 0 0.036029577094757688 -0.0056803889198235348 0 0.035817509901599438 -0.0048190751947501994 0 0.036029577094757688 -0.0056803889198235348 0 0.035912453381746944 -0.0055702277348193422 0 0.035912453381746944 -0.0055702277348193422 0 0.036012117793461113 -0.0056744199890788345 0 0.035768710776122113 -0.0055911211521134461 0 0.036012117793461113 -0.0056744199890788345 0 0.035768710776122113 -0.0055911211521134461 0 0.036210615803748285 -0.0058303519980744982 0 0.036029577094757688 -0.0056803889198235348 0 0.035912453381746944 -0.0055702277348193422 0 0.036012117793461113 -0.0056744199890788345 0 0.036029577094757688 -0.0056803889198235348 0 0.036012117793461113 -0.0056744199890788345 0 0.036207732605575846 -0.0059179549343526868 0 0.032687852263875015 -0.0075830557738212501 0 0.032381991754177483 -0.0078378023293889047 0 0.032157934944905306 -0.008049020670473573 0 0.034202974005632561 -0.0067334705004619584 0 0.035700074964809696 -0.0070128189094969115 0 0.035768710776122113 -0.0055911211521134461 0 0.036647558365791449 -0.0059938600731232533 0 0.036210615803748285 -0.0058303519980744982 0 0.032068141440789698 -0.0079822148218990328 0 0.032553848117820264 -0.0077019144616191334 0 0.032381991754177483 -0.0078378023293889047 0 0.032553848117820264 -0.0077019144616191334 0 0.032687852263875015 -0.0075830557738212501 0 0.032381991754177483 -0.0078378023293889047 0 0.032068141440789698 -0.0079822148218990328 0 0.032381991754177483 -0.0078378023293889047 0 0.032068399384222047 -0.0080529983535992927 0 0.032381991754177483 -0.0078378023293889047 0 0.032068399384222047 -0.0080529983535992927 0 0.032235415780070005 -0.0079557071952391853 0 0.031835130241551247 -0.0072322580998888959 0 0.032157934944905306 -0.008049020670473573 0 0.031969192791388025 -0.0080403579835721783 0 0.036647558365791449 -0.0059938600731232533 0 0.036411018149434274 -0.006161711686628304 0 0.036551397710585534 -0.0069422661723382356 0 0.032381991754177483 -0.0078378023293889047 0 0.032235415780070005 -0.0079557071952391853 0 0.032157934944905306 -0.008049020670473573 0 0.032110582328245138 -0.008021693006976905 0 0.032068399384222047 -0.0080529983535992927 0 0.031969192791388025 -0.0080403579835721783 0 0.032110582328245138 -0.008021693006976905 0 0.032157934944905306 -0.008049020670473573 0 0.031969192791388025 -0.0080403579835721783 0 0.032110582328245138 -0.008021693006976905 0 0.032068399384222047 -0.0080529983535992927 0 0.032235415780070005 -0.0079557071952391853 0 0.032110582328245138 -0.008021693006976905 0 0.032235415780070005 -0.0079557071952391853 0 0.032163757178894484 -0.0080176264400394909 0 0.032235415780070005 -0.0079557071952391853 0 0.032163757178894484 -0.0080176264400394909 0 0.032157934944905306 -0.008049020670473573 0 0.032110582328245138 -0.008021693006976905 0 0.032163757178894484 -0.0080176264400394909 0 0.032157934944905306 -0.008049020670473573 0 0.036647558365791449 -0.0059938600731232533 0 0.036210615803748285 -0.0058303519980744982 0 0.036411018149434274 -0.006161711686628304 0 0.036133680205143959 -0.0063639865727402349 0 0.036029577094757688 -0.0056803889198235348 0 0.036207732605575846 -0.0059179549343526868 0 0.036012117793461113 -0.0056744199890788345 0 0.036210615803748285 -0.0058303519980744982 0 0.036207732605575846 -0.0059179549343526868 0 0.036210615803748285 -0.0058303519980744982 0 0.036207732605575846 -0.0059179549343526868 0 0.036411018149434274 -0.006161711686628304 0 0.036207732605575846 -0.0059179549343526868 0 0.036411018149434274 -0.006161711686628304 0 0.036325274935292896 -0.0063407440152319196 0 0.036133680205143959 -0.0063639865727402349 0 0.036207732605575846 -0.0059179549343526868 0 0.036325274935292896 -0.0063407440152319196 0 0.036411018149434274 -0.006161711686628304 0 0.036325274935292896 -0.0063407440152319196 0 0.036551397710585534 -0.0069422661723382356 0 0.036133680205143959 -0.0063639865727402349 0 0.036325274935292896 -0.0063407440152319196 0 0.036551397710585534 -0.0069422661723382356 0 0.037705619084055376 -0.0088131297101653391 0 0.03738688478976869 -0.0082051042817691249 0 0.036799819394412119 -0.0088809104442290794 0 0.035700074964809696 -0.0070128189094969115 0 0.03686530037558422 -0.0078916542343755065 0 0.032311011498245806 -0.0099764435294672892 0 0.035700074964809696 -0.0070128189094969115 0 0.032311011498245806 -0.0099764435294672892 0 0.03416137569077636 -0.01145051175077119 0 0.037705619084055376 -0.0088131297101653391 0 0.036799819394412119 -0.0088809104442290794 0 0.03749245030295606 -0.009556868289479924 0 0.036798734756236774 -0.0096574493983900087 0 0.036799819394412119 -0.0088809104442290794 0 0.036138967105315216 -0.0095561774969399969 0 0.036798734756236774 -0.0096574493983900087 0 0.036799819394412119 -0.0088809104442290794 0 0.03749245030295606 -0.009556868289479924 0 0.036551397710585534 -0.0069422661723382356 0 0.036162630336745973 -0.0084240366517739571 0 0.035810724087334989 -0.0069834669643957827 0 0.03686530037558422 -0.0078916542343755065 0 0.036056506240222372 -0.0090407200289063568 0 0.036162630336745973 -0.0084240366517739571 0 0.034999710780201386 -0.0080095661680203243 0 0.035810724087334989 -0.0069834669643957827 0 0.03499970623251572 -0.0061562789673053255 0 0.034999710780201386 -0.0080095661680203243 0 0.035810724087334989 -0.0069834669643957827 0 0.036133680205143959 -0.0063639865727402349 0 0.036551397710585534 -0.0069422661723382356 0 0.035810724087334989 -0.0069834669643957827 0 0.0013683356218982137 -0.028319300452707467 0 0.0020293875391759527 -0.028468192373788653 0 0.0016457228752998253 -0.029122569752034682 0 0.0020293875391759527 -0.028468192373788653 0 0.0025138855621599913 -0.02926091310123103 0 0.0016457228752998253 -0.029122569752034682 0 0.0020293875391759527 -0.028468192373788653 0 0.0025138855621599913 -0.02926091310123103 0 0.0027304577537413592 -0.027878265308434673 0 0.0025138855621599913 -0.02926091310123103 0 0.0016457228752998253 -0.029122569752034682 0 0.0019355585483360825 -0.030197782117826193 0 0.0025138855621599913 -0.02926091310123103 0 0.0029941083782102766 -0.030187448965824724 0 0.0019355585483360825 -0.030197782117826193 0 0.0016457228752998253 -0.029122569752034682 0 0.00098466399664594762 -0.029683359814174939 0 0.0019355585483360825 -0.030197782117826193 0 0.0016457228752998253 -0.029122569752034682 0 0.00098466399664594762 -0.029683359814174939 0 0.00065290570724235697 -0.028654883677076793 0 0.00098466399664594762 -0.029683359814174939 0 0.00018354559483936954 -0.029334243571673673 0 0.00065290570724235697 -0.028654883677076793 0 0.00098466399664594762 -0.029683359814174939 0 0.00018354559483936954 -0.029334243571673673 0 0.0001488563512502195 -0.030223947724043167 0 0.00018354559483936954 -0.029334243571673673 0 0.0001488563512502195 -0.030223947724043167 0 -0.00075400242139186577 -0.029536352379534118 0 0.00011169525282006568 -0.028729357330929725 0 9.7632462501764029e-06 -0.02809127513981868 0 -0.00041318206408020794 -0.028834928955684087 0 0.00018354559483936954 -0.029334243571673673 0 0.00011169525282006568 -0.028729357330929725 0 -0.00041318206408020794 -0.028834928955684087 0 0.00018354559483936954 -0.029334243571673673 0 0.00011169525282006568 -0.028729357330929725 0 0.00065290570724235697 -0.028654883677076793 0 0.00011169525282006568 -0.028729357330929725 0 9.7632462501764029e-06 -0.02809127513981868 0 0.00065290570724235697 -0.028654883677076793 0 9.7632462501764029e-06 -0.02809127513981868 0 0.00065290570724235697 -0.028654883677076793 0 0.00076678119165240696 -0.027808066387800208 0 0.0013683356218982137 -0.028319300452707467 0 0.0016457228752998253 -0.029122569752034682 0 0.00065290570724235697 -0.028654883677076793 0 0.0013683356218982137 -0.028319300452707467 0 0.00065290570724235697 -0.028654883677076793 0 0.00076678119165240696 -0.027808066387800208 0 0.00076678119165240696 -0.027808066387800208 0 0.00086179292680504461 -0.026867511569791724 0 0.0015910253193983795 -0.027619617910179924 0 0.0013683356218982137 -0.028319300452707467 0 0.00076678119165240696 -0.027808066387800208 0 0.0015910253193983795 -0.027619617910179924 0 0.00076678119165240696 -0.027808066387800208 0 0.00041631370236104451 -0.027257838009041937 0 0.00086179292680504461 -0.026867511569791724 0 9.7632462501764029e-06 -0.02809127513981868 0 -0.0001190575439316043 -0.027319864035532843 0 -0.00064768147393437058 -0.027782309368530336 0 9.7632462501764029e-06 -0.02809127513981868 0 0.00076678119165240696 -0.027808066387800208 0 0.00041631370236104451 -0.027257838009041937 0 9.7632462501764029e-06 -0.02809127513981868 0 0.00041631370236104451 -0.027257838009041937 0 -0.0001190575439316043 -0.027319864035532843 0 -0.0001190575439316043 -0.027319864035532843 0 0.00010904270127552466 -0.026583634689161015 0 -0.00052532565647857169 -0.026599770422265936 0 0.00041631370236104451 -0.027257838009041937 0 0.00010904270127552466 -0.026583634689161015 0 0.00086179292680504461 -0.026867511569791724 0 0.00041631370236104451 -0.027257838009041937 0 -0.0001190575439316043 -0.027319864035532843 0 0.00010904270127552466 -0.026583634689161015 0 0.00010904270127552466 -0.026583634689161015 0 0.00072523676072208947 -0.02621914164393243 0 -7.8378211173180722e-05 -0.025926662445765875 0 0.00010904270127552466 -0.026583634689161015 0 -0.00052532565647857169 -0.026599770422265936 0 -7.8378211173180722e-05 -0.025926662445765875 0 0.00086179292680504461 -0.026867511569791724 0 0.0016822039914567181 -0.026311605881508958 0 0.00072523676072208947 -0.02621914164393243 0 0.00010904270127552466 -0.026583634689161015 0 0.00086179292680504461 -0.026867511569791724 0 0.00072523676072208947 -0.02621914164393243 0 0.00086179292680504461 -0.026867511569791724 0 0.0016822039914567181 -0.026311605881508958 0 0.0015910253193983795 -0.027619617910179924 0 0.0016822039914567181 -0.026311605881508958 0 0.0015910253193983795 -0.027619617910179924 0 0.0027304577537413592 -0.027878265308434673 0 0.0013683356218982137 -0.028319300452707467 0 0.0020293875391759527 -0.028468192373788653 0 0.0015910253193983795 -0.027619617910179924 0 0.0020293875391759527 -0.028468192373788653 0 0.0015910253193983795 -0.027619617910179924 0 0.0027304577537413592 -0.027878265308434673 0 0.0016822039914567181 -0.026311605881508958 0 0.0019473406392286224 -0.025838766030992673 0 0.0019648791455118288 -0.026134176402217869 0 0.0016912053723401731 -0.026306914315124417 0 0.0022864181992723106 -0.026824580960774523 0 0.00382667834120946 -0.018325300659408839 0 0.0029996169709717111 -0.017737843355339955 0 0.0019473406392286224 -0.025838766030992673 0 0.0016057432938740904 -0.026007129903304876 0 0.0019648791455118288 -0.026134176402217869 0 0.0016057432938740904 -0.026007129903304876 0 0.0012263127071840691 -0.025707651423309302 0 0.00089031569267607636 -0.025792872448866605 0 0.00382667834120946 -0.018325300659408839 0 0.0027762538203409638 -0.016362601916002511 0 0.0054700687300225856 -0.010026312772890199 0 0.0064194184250865455 -0.0096978984917449017 0 0.005877770977168191 -0.009305370218443949 0 0.0016057432938740904 -0.026007129903304876 0 0.0015114997374835253 -0.025650571767772554 0 0.0012263127071840691 -0.025707651423309302 0 0.0015114997374835253 -0.025650571767772554 0 0.0012263127071840691 -0.025707651423309302 0 0.0011659506834155635 -0.02543748169487348 0 0.0019473406392286224 -0.025838766030992673 0 0.0015114997374835253 -0.025650571767772554 0 0.0015851781054167056 -0.02516654332879633 0 0.0019473406392286224 -0.025838766030992673 0 0.0016057432938740904 -0.026007129903304876 0 0.0015114997374835253 -0.025650571767772554 0 -0.0027902144606085826 -0.012171965214161572 0 -0.0025724527746040313 -0.014142149071081619 0 -0.0063368243508312039 -0.012278817718226923 0 -0.0059552136784025017 -0.012281896733636015 0 -0.0061860128243807055 -0.011680557096165408 0 -0.006714347160513225 -0.012085115682074677 0 -0.0063368243508312039 -0.012278817718226923 0 -0.0061860128243807055 -0.011680557096165408 0 0.00035749916443391413 -0.012063184922036752 0 -1.0630359645060072e-05 -0.013294189504417372 0 0.00096286708850335282 -0.013646812631232087 0 -0.0063368243508312039 -0.012278817718226923 0 -0.0059552136784025017 -0.012281896733636015 0 -0.0061768599015448707 -0.012682195915522396 0 0.0026016639575019099 -0.010111222399674385 0 0.0027762538203409638 -0.016362601916002511 0 0.00035749916443391413 -0.012063184922036752 0 -0.0007481501996545603 -0.011692033257152673 0 -1.0630359645060072e-05 -0.013294189504417372 0 0.0054700687300225856 -0.010026312772890199 0 0.0064194184250865455 -0.0096978984917449017 0 0.00677960070047185 -0.01058964073547144 0 0.0012263127071840691 -0.025707651423309302 0 0.00088039668737449725 -0.025595517316255263 0 0.0011659506834155635 -0.02543748169487348 0 0.00088039668737449725 -0.025595517316255263 0 0.00080109374521502273 -0.025384375942074353 0 0.0011659506834155635 -0.02543748169487348 0 0.00088039668737449725 -0.025595517316255263 0 0.00073078191477063848 -0.025599856768359731 0 0.00080109374521502273 -0.025384375942074353 0 0.00083984908461243255 -0.023863385470059225 0 0.0007837403155481101 -0.023460110596210473 0 0.0012263127071840691 -0.025707651423309302 0 0.00088039668737449725 -0.025595517316255263 0 0.00089031569267607636 -0.025792872448866605 0 0.0027762538203409638 -0.016362601916002511 0 0.0007837403155481101 -0.023460110596210473 0 0.00088039668737449725 -0.025595517316255263 0 0.00089031569267607636 -0.025792872448866605 0 0.00076776086086822602 -0.02558315716035062 0 -0.0032691708873620207 -0.017207942360952622 0 -0.00091248824390863031 -0.017636560477465608 0 -0.000741371014573082 -0.018059406559252013 0 -0.0032691708873620207 -0.017207942360952622 0 0.0001560037835591847 -0.017317620915357431 0 -0.00091248824390863031 -0.017636560477465608 0 -0.0034348719507367588 -0.018332875951204447 0 0.0007837403155481101 -0.023460110596210473 0 -0.00011100930513000234 -0.025589624886247369 0 0.00070314799178274132 -0.025616325835142978 0 0.00054842640275550546 -0.025297546004511642 0 0.0027762538203409638 -0.016362601916002511 0 -0.0025724527746040313 -0.014142149071081619 0 0.00077465160337958935 -0.018570430258646294 0 0.0001560037835591847 -0.017317620915357431 0 -0.00073919995021149603 -0.018056802707431052 0 0.0001560037835591847 -0.017317620915357431 0 -0.00091248824390863031 -0.017636560477465608 0 -0.00073919995021149603 -0.018056802707431052 0 0.0007837403155481101 -0.023460110596210473 0 0.00099671170944314459 -0.025507988949321849 0 -0.0020636138786116458 -0.015348033077217141 0 -0.0025724527746040313 -0.014142149071081619 0 0.00054842640275550546 -0.025297546004511642 0 0.00095221847086705575 -0.025083974061919229 0 0.00044643999857446603 -0.024709027247106073 0 -3.9356050055567492e-06 -0.025103400534126567 0 0.00054842640275550546 -0.025297546004511642 0 0.00044643999857446603 -0.024709027247106073 0 0.00073078191477063848 -0.025599856768359731 0 0.00054842640275550546 -0.025297546004511642 0 0.00080109374521502273 -0.025384375942074353 0 0.00054842640275550546 -0.025297546004511642 0 0.00095221847086705575 -0.025083974061919229 0 0.00080109374521502273 -0.025384375942074353 0 0.00095221847086705575 -0.025083974061919229 0 0.00080109374521502273 -0.025384375942074353 0 0.0011659506834155635 -0.02543748169487348 0 0.00095221847086705575 -0.025083974061919229 0 0.0015851781054167056 -0.02516654332879633 0 0.0010004444239769597 -0.024449780731110923 0 0.00095221847086705575 -0.025083974061919229 0 0.00044643999857446603 -0.024709027247106073 0 0.0010004444239769597 -0.024449780731110923 0 0.0022864181992723106 -0.026824580960774523 0 0.0024948808459602351 -0.027161487396163916 0 0.0025138855621599913 -0.02926091310123103 0 0.0027304577537413592 -0.027878265308434673 0 0.0034258169593813681 -0.029145355066465307 0 0.0015114997374835253 -0.025650571767772554 0 0.0011659506834155635 -0.02543748169487348 0 0.0015851781054167056 -0.02516654332879633 0 0.00095221847086705575 -0.025083974061919229 0 0.0011659506834155635 -0.02543748169487348 0 0.0015851781054167056 -0.02516654332879633 0 0.0034258169593813681 -0.029145355066465307 0 0.0029941083782102766 -0.030187448965824724 0 0.0039820509565776253 -0.030238750802493053 0 0.0024948808459602351 -0.027161487396163916 0 0.0024542034650493205 -0.027216127038826747 0 0.0025138855621599913 -0.02926091310123103 0 0.0034258169593813681 -0.029145355066465307 0 0.0029941083782102766 -0.030187448965824724 0 0.0029941083782102766 -0.030187448965824724 0 0.0033257582420229232 -0.031060086127379087 0 0.0039820509565776253 -0.030238750802493053 0 0.0029941083782102766 -0.030187448965824724 0 0.0033257582420229232 -0.031060086127379087 0 0.0024300987953443241 -0.031140020325076276 0 0.0033257582420229232 -0.031060086127379087 0 0.0039820509565776253 -0.030238750802493053 0 0.0038756952876813702 -0.031390515362785809 0 0.0039820509565776253 -0.030238750802493053 0 0.0042758762501570432 -0.031134077220418867 0 0.0038756952876813702 -0.031390515362785809 0 0.00044643999857446603 -0.024709027247106073 0 0.0010004444239769597 -0.024449780731110923 0 0.0003057985184509654 -0.023719764254160759 0 0.0024542034650493205 -0.027216127038826747 0 0.0022086157415852469 -0.028040604798938183 0 0.0042758762501570432 -0.031134077220418867 0 0.0041002324830917165 -0.031595967888946717 0 0.0038756952876813702 -0.031390515362785809 0 0.0041002324830917165 -0.031595967888946717 0 0.0038756952876813702 -0.031390515362785809 0 0.0039043026748697995 -0.032078112078961427 0 0.0038756952876813702 -0.031390515362785809 0 0.0039043026748697995 -0.032078112078961427 0 0.0033229056999909928 -0.032135678156723142 0 0.0041002324830917165 -0.031595967888946717 0 0.0039043026748697995 -0.032078112078961427 0 0.0041183500789481724 -0.031803448106165776 0 0.0040875744524637072 -0.031487535648090682 0 0.0041002324830917165 -0.031595967888946717 0 0.0041183500789481724 -0.031803448106165776 0 0.0033257582420229232 -0.031060086127379087 0 0.0033229056999909928 -0.032135678156723142 0 0.0025493608615876876 -0.032045934623891444 0 0.0033257582420229232 -0.031060086127379087 0 0.0025493608615876876 -0.032045934623891444 0 0.0024300987953443241 -0.031140020325076276 0 0.0033257582420229232 -0.031060086127379087 0 0.0038756952876813702 -0.031390515362785809 0 0.0033229056999909928 -0.032135678156723142 0 0.0025861047058075444 -0.033160655484472112 0 0.0033229056999909928 -0.032135678156723142 0 0.0025493608615876876 -0.032045934623891444 0 0.0025036715059903484 -0.032066864759759645 0 0.0014707175173341717 -0.032131405991066675 0 0.0017119496359460854 -0.03316327759734633 0 0.0025493608615876876 -0.032045934623891444 0 0.0014699686577761156 -0.032250402204867253 0 0.0011213222720556563 -0.032831077155281656 0 0.0017119496359460854 -0.03316327759734633 0 0.0014699686577761156 -0.032250402204867253 0 0.0014211564790119636 -0.032033740158860631 0 0.0024300987953443241 -0.031140020325076276 0 0.0015534456234242932 -0.031157175649641749 0 0.0014211564790119636 -0.032033740158860631 0 0.0015534456234242932 -0.031157175649641749 0 0.00091156146836496104 -0.031472390580354684 0 0.0025493608615876876 -0.032045934623891444 0 0.0014211564790119636 -0.032033740158860631 0 0.0024300987953443241 -0.031140020325076276 0 0.0024300987953443241 -0.031140020325076276 0 0.0015534456234242932 -0.031157175649641749 0 0.0019355585483360825 -0.030197782117826193 0 0.00098466399664594762 -0.029683359814174939 0 0.0019355585483360825 -0.030197782117826193 0 0.0010221450938972176 -0.030657899510686971 0 0.0015534456234242932 -0.031157175649641749 0 0.0019355585483360825 -0.030197782117826193 0 0.0010221450938972176 -0.030657899510686971 0 0.0029941083782102766 -0.030187448965824724 0 0.0024300987953443241 -0.031140020325076276 0 0.0019355585483360825 -0.030197782117826193 0 0.0001488563512502195 -0.030223947724043167 0 0.0010221450938972176 -0.030657899510686971 0 0.00031486543466723884 -0.031355017789087294 0 0.00098466399664594762 -0.029683359814174939 0 0.0001488563512502195 -0.030223947724043167 0 0.0010221450938972176 -0.030657899510686971 0 0.0015534456234242932 -0.031157175649641749 0 0.0010221450938972176 -0.030657899510686971 0 0.00091156146836496104 -0.031472390580354684 0 0.0010221450938972176 -0.030657899510686971 0 0.00031486543466723884 -0.031355017789087294 0 0.00091156146836496104 -0.031472390580354684 0 0.00031486543466723884 -0.031355017789087294 0 0.00091156146836496104 -0.031472390580354684 0 0.00041909151684602352 -0.031925855937319704 0 0.00031486543466723884 -0.031355017789087294 0 0.00041909151684602352 -0.031925855937319704 0 0.00026397195330755231 -0.031672611462159654 0 0.0014211564790119636 -0.032033740158860631 0 0.00091156146836496104 -0.031472390580354684 0 0.00041909151684602352 -0.031925855937319704 0 0.0011213222720556563 -0.032831077155281656 0 0.0014699686577761156 -0.032250402204867253 0 0.0006407137079419903 -0.032308577319617851 0 0.0014707175173341717 -0.032131405991066675 0 0.00053341663627028872 -0.032107440336985198 0 0.00068727567222004449 -0.032921369486201564 0 0.0011213222720556563 -0.032831077155281656 0 0.0006407137079419903 -0.032308577319617851 0 0.00068727567222004449 -0.032921369486201564 0 0.0006407137079419903 -0.032308577319617851 0 0.00043989677144133058 -0.032598004846812328 0 0.0006407137079419903 -0.032308577319617851 0 0.00021489721742029192 -0.03199472398718993 0 0.00015658648139700766 -0.032225630418600396 0 0.0006407137079419903 -0.032308577319617851 0 0.00043989677144133058 -0.032598004846812328 0 0.00015658648139700766 -0.032225630418600396 0 0.00029321322291546328 -0.03277845066067829 0 0.00043989677144133058 -0.032598004846812328 0 0.00017625639370435269 -0.032636833933125851 0 0.00043989677144133058 -0.032598004846812328 0 0.00015658648139700766 -0.032225630418600396 0 0.00017625639370435269 -0.032636833933125851 0 0.00053341663627028872 -0.032107440336985198 0 0.00020324862738480375 -0.032014676815883443 0 0.00041909151684602352 -0.031925855937319704 0 0.00025628650674817168 -0.031820826672058308 0 0.00026397195330755231 -0.031672611462159654 0 0.00041909151684602352 -0.031925855937319704 0 0.00025628650674817168 -0.031820826672058308 0 0.00021489721742029192 -0.03199472398718993 0 0.00025628650674817168 -0.031820826672058308 0 0.00026397195330755231 -0.031672611462159654 0 0.00031035452755104684 -0.031800992734063969 0 0.00025628650674817168 -0.031820826672058308 0 0.00034374762348709896 -0.031865879482265692 0 0.00031035452755104684 -0.031800992734063969 0 0.00025628650674817168 -0.031820826672058308 0 0.00034374762348709896 -0.031865879482265692 0 0.00021489721742029192 -0.03199472398718993 0 0.00034374762348709896 -0.031865879482265692 0 0.00021489721742029192 -0.03199472398718993 0 0.00054001777497200763 -0.031832925857429646 0 6.8214598882394584e-05 -0.032784269368693698 0 0.00015658648139700766 -0.032225630418600396 0 0.00018711999499546644 -0.032990429929766252 0 0.00035045677929416969 -0.032143481895153245 0 0.00058261663803803917 -0.032028800764309431 0 0.00021489721742029192 -0.03199472398718993 0 0.00015658648139700766 -0.032225630418600396 0 0.00054001777497200763 -0.031832925857429646 0 0.00015658648139700766 -0.032225630418600396 0 0.0011580710941185828 -0.030942957049123233 0 0.00054001777497200763 -0.031832925857429646 0 6.8214598882394584e-05 -0.032784269368693698 0 0.00015658648139700766 -0.032225630418600396 0 0.00017625639370435269 -0.032636833933125851 0 0.0011580710941185828 -0.030942957049123233 0 0.0015561172962526041 -0.031770760305750968 0 0.00054001777497200763 -0.031832925857429646 0 0.0028955651370295744 -0.031267839833653874 0 0.00058261663803803917 -0.032028800764309431 0 0.0032558820806998234 -0.030276289403377697 0 0.0015561172962526041 -0.031770760305750968 0 0.0023862359103826933 -0.032193989919676334 0 0.0032558820806998234 -0.030276289403377697 0 0.0023862359103826933 -0.032193989919676334 0 0.0036405423548287988 -0.032000808604695674 0 0.0032558820806998234 -0.030276289403377697 0 0.0011580710941185828 -0.030942957049123233 0 0.0015561172962526041 -0.031770760305750968 0 0.0015561172962526041 -0.031770760305750968 0 0.0023862359103826933 -0.032193989919676334 0 0.0016287746276303096 -0.033503567363420021 0 0.0023862359103826933 -0.032193989919676334 0 0.0030899388229666523 -0.033165897814657279 0 0.0036405423548287988 -0.032000808604695674 0 0.00057345927865735653 -0.031861621459842067 0 0.00090345281204443962 -0.03263227262222055 0 0.0015561172962526041 -0.031770760305750968 0 0.00054001777497200763 -0.031832925857429646 0 0.0016287746276303096 -0.033503567363420021 0 0.00034374762348709896 -0.031865879482265692 0 0.00054001777497200763 -0.031832925857429646 0 0.000315351634232152 -0.031828404647865377 0 0.000315351634232152 -0.031828404647865377 0 0.00031035452755104684 -0.031800992734063969 0 0.00030382961118973059 -0.031804643668734076 0 0.00034374762348709896 -0.031865879482265692 0 0.000315351634232152 -0.031828404647865377 0 0.00031035452755104684 -0.031800992734063969 0 0.0016287746276303096 -0.033503567363420021 0 0.0030899388229666523 -0.033165897814657279 0 0.0029115661779412641 -0.034211450071878549 0 0.0023862359103826933 -0.032193989919676334 0 0.0016287746276303096 -0.033503567363420021 0 0.0030899388229666523 -0.033165897814657279 0 0.00090345281204443962 -0.03263227262222055 0 0.0019438630963457282 -0.033523613622662617 0 0.0016287746276303096 -0.033503567363420021 0 0.0029115661779412641 -0.034211450071878549 0 0.002627350626835198 -0.035252236806954565 0 0.0029115661779412641 -0.034211450071878549 0 0.0035218639442714554 -0.034816571293265069 0 0.002627350626835198 -0.035252236806954565 0 -0.00079176720931665827 -0.030610037972616844 0 0.0019438630963457282 -0.033523613622662617 0 0.000315351634232152 -0.031828404647865377 0 0.00031562511791309692 -0.031847284559606427 0 0.00030382961118973059 -0.031804643668734076 0 0.000315351634232152 -0.031828404647865377 0 0.00031562511791309692 -0.031847284559606427 0 0.00036386255795850785 -0.031873128416873599 0 0.00031562511791309692 -0.031847284559606427 0 0.00027526909698120651 -0.031757001770052425 0 0.00030382961118973059 -0.031804643668734076 0 -0.0011486555784226721 -0.030735061577809534 0 -0.00075400242139186577 -0.029536352379534118 0 -0.001540835498406837 -0.029765323873129808 0 -0.00079176720931665827 -0.030610037972616844 0 -0.0004461555996595894 -0.031272054565705261 0 -0.0024473824768796023 -0.030155263166149457 0 -0.0011486555784226721 -0.030735061577809534 0 -0.001540835498406837 -0.029765323873129808 0 0.0001488563512502195 -0.030223947724043167 0 0.00031486543466723884 -0.031355017789087294 0 -0.0011486555784226721 -0.030735061577809534 0 0.0001488563512502195 -0.030223947724043167 0 -0.0011486555784226721 -0.030735061577809534 0 -0.00075400242139186577 -0.029536352379534118 0 0.00031486543466723884 -0.031355017789087294 0 0.00027526909698120651 -0.031757001770052425 0 0.00026397195330755231 -0.031672611462159654 0 0.00029050610855533172 -0.031377956224157302 0 -0.0004461555996595894 -0.031272054565705261 0 0.00027526909698120651 -0.031757001770052425 0 0.00026397195330755231 -0.031672611462159654 0 0.00031035452755104684 -0.031800992734063969 0 0.00027526909698120651 -0.031757001770052425 0 0.00031035452755104684 -0.031800992734063969 0 0.00030382961118973059 -0.031804643668734076 0 0.009262968522183156 -0.031594178034042741 0 0.0075067998745441166 -0.030513745763662864 0 0.0067164250371853414 -0.031832763655962278 0 0.009262968522183156 -0.031594178034042741 0 0.0083234242371728329 -0.033599504545840861 0 0.0067164250371853414 -0.031832763655962278 0 0.0056487762376960446 -0.029690569894941388 0 0.0075067998745441166 -0.030513745763662864 0 0.0067164250371853414 -0.031832763655962278 0 0.0067164250371853414 -0.031832763655962278 0 0.0046853205901529037 -0.032964438314888787 0 0.0062576227583230693 -0.033386521157165033 0 0.0067164250371853414 -0.031832763655962278 0 0.0047681099095023506 -0.031290361801834692 0 0.0046853205901529037 -0.032964438314888787 0 0.0032558820806998234 -0.030276289403377697 0 0.0056487762376960446 -0.029690569894941388 0 0.0047681099095023506 -0.031290361801834692 0 0.0056487762376960446 -0.029690569894941388 0 0.0067164250371853414 -0.031832763655962278 0 0.0047681099095023506 -0.031290361801834692 0 0.0032558820806998234 -0.030276289403377697 0 0.0047681099095023506 -0.031290361801834692 0 0.0036405423548287988 -0.032000808604695674 0 0.0047681099095023506 -0.031290361801834692 0 0.0036405423548287988 -0.032000808604695674 0 0.0046853205901529037 -0.032964438314888787 0 0.0030899388229666523 -0.033165897814657279 0 0.0036405423548287988 -0.032000808604695674 0 0.0046853205901529037 -0.032964438314888787 0 0.0030899388229666523 -0.033165897814657279 0 0.0037802031144703505 -0.034080962012871807 0 0.0046853205901529037 -0.032964438314888787 0 0.0030899388229666523 -0.033165897814657279 0 0.0029115661779412641 -0.034211450071878549 0 0.0037802031144703505 -0.034080962012871807 0 0.0029115661779412641 -0.034211450071878549 0 0.0037802031144703505 -0.034080962012871807 0 0.0035218639442714554 -0.034816571293265069 0 0.0037802031144703505 -0.034080962012871807 0 0.0035218639442714554 -0.034816571293265069 0 0.0043990589443453389 -0.034851077482372747 0 0.0035218639442714554 -0.034816571293265069 0 0.0043990589443453389 -0.034851077482372747 0 0.0038869648175637165 -0.035667964482882827 0 0.0037802031144703505 -0.034080962012871807 0 0.0043990589443453389 -0.034851077482372747 0 0.0049449452712194142 -0.033991831604165676 0 0.0049449452712194142 -0.033991831604165676 0 0.0056092753989644478 -0.034659279918151195 0 0.0062576227583230693 -0.033386521157165033 0 0.0043990589443453389 -0.034851077482372747 0 0.0049449452712194142 -0.033991831604165676 0 0.0056092753989644478 -0.034659279918151195 0 0.0043990589443453389 -0.034851077482372747 0 0.0056092753989644478 -0.034659279918151195 0 0.0049212310631110562 -0.035500834886500424 0 0.0049449452712194142 -0.033991831604165676 0 0.0046853205901529037 -0.032964438314888787 0 0.0062576227583230693 -0.033386521157165033 0 0.0037802031144703505 -0.034080962012871807 0 0.0049449452712194142 -0.033991831604165676 0 0.0046853205901529037 -0.032964438314888787 0 0.0056092753989644478 -0.034659279918151195 0 0.0062576227583230693 -0.033386521157165033 0 0.0069318498525537155 -0.034366206598053374 0 0.0056092753989644478 -0.034659279918151195 0 0.0069318498525537155 -0.034366206598053374 0 0.0059145125423480114 -0.035856434302437366 0 0.0083234242371728329 -0.033599504545840861 0 0.0069318498525537155 -0.034366206598053374 0 0.007375785871675102 -0.035522104921947323 0 0.013850573145708291 -0.02902625966236486 0 0.013926220090049251 -0.0300086379771318 0 0.0083234242371728329 -0.033599504545840861 0 0.0062576227583230693 -0.033386521157165033 0 0.0069318498525537155 -0.034366206598053374 0 0.0083234242371728329 -0.033599504545840861 0 0.0067164250371853414 -0.031832763655962278 0 0.0062576227583230693 -0.033386521157165033 0 0.019305534889963637 -0.023897935298257067 0 0.019391243466153445 -0.024135118085965981 0 0.019352208277321637 -0.023905182405198819 0 0.019262997180566836 -0.023981351721737616 0 0.019305534889963637 -0.023897935298257067 0 0.019391243466153445 -0.024135118085965981 0 0.013926220090049251 -0.0300086379771318 0 0.0088986859370153853 -0.029193963286337388 0 0.019238668520631677 -0.02386653583760006 0 0.019305534889963637 -0.023897935298257067 0 0.019281163829096525 -0.023842578820441596 0 0.019262997180566836 -0.023981351721737616 0 0.019238668520631677 -0.02386653583760006 0 0.019305534889963637 -0.023897935298257067 0 0.0069318498525537155 -0.034366206598053374 0 0.007375785871675102 -0.035522104921947323 0 0.0059145125423480114 -0.035856434302437366 0 0.007375785871675102 -0.035522104921947323 0 0.0059145125423480114 -0.035856434302437366 0 0.0064444555890799601 -0.037060641470718782 0 0.007375785871675102 -0.035522104921947323 0 0.0064444555890799601 -0.037060641470718782 0 0.0064942902930021189 -0.037357478890383454 0 0.0064444555890799601 -0.037060641470718782 0 0.0048111783327367107 -0.036782166351593919 0 0.0065076792988872523 -0.037361867472202624 0 0.0089280539707065655 -0.032992611144070781 0 0.0088986859370153853 -0.029193963286337388 0 0.0031774194358772196 -0.033055401178837034 0 0.0088986859370153853 -0.029193963286337388 0 0.0059145125423480114 -0.035856434302437366 0 0.0064444555890799601 -0.037060641470718782 0 0.0048111783327367107 -0.036782166351593919 0 0.0028241196979943328 -0.028689003706963517 0 0.002792365411042207 -0.028471628495166022 0 0.0025196463330008313 -0.028531398695349403 0 0.0028241196979943328 -0.028689003706963517 0 0.0029325586822568548 -0.028625762624273625 0 0.002792365411042207 -0.028471628495166022 0 0.0056092753989644478 -0.034659279918151195 0 0.0059145125423480114 -0.035856434302437366 0 0.0049212310631110562 -0.035500834886500424 0 0.0048111783327367107 -0.036782166351593919 0 0.0049212310631110562 -0.035500834886500424 0 0.0038869648175637165 -0.035667964482882827 0 0.0059145125423480114 -0.035856434302437366 0 0.0048111783327367107 -0.036782166351593919 0 0.0049212310631110562 -0.035500834886500424 0 0.0048111783327367107 -0.036782166351593919 0 0.0038869648175637165 -0.035667964482882827 0 0.003105973253147991 -0.036092262919699108 0 0.0035218639442714554 -0.034816571293265069 0 0.0038869648175637165 -0.035667964482882827 0 0.002627350626835198 -0.035252236806954565 0 0.0043990589443453389 -0.034851077482372747 0 0.0049212310631110562 -0.035500834886500424 0 0.0038869648175637165 -0.035667964482882827 0 0.0031774194358772196 -0.033055401178837034 0 0.0032042232060471377 -0.031564724804126275 0 0.0026178865003600397 -0.028199609450771889 0 0.0032042232060471377 -0.031564724804126275 0 0.0028241196979943328 -0.028689003706963517 0 0.0029325586822568548 -0.028625762624273625 0 0.0031395724289998211 -0.028868516835496558 0 0.0029325586822568548 -0.028625762624273625 0 0.0030511787285699686 -0.028652566614909645 0 0.0031395724289998211 -0.028868516835496558 0 0.0030511787285699686 -0.028652566614909645 0 0.0029882542143219457 -0.028534905030728003 0 0.0030876306825090064 -0.028633227734783055 0 0.0029325586822568548 -0.028625762624273625 0 0.0030511787285699686 -0.028652566614909645 0 0.0029882542143219457 -0.028534905030728003 0 0.0029882542143219457 -0.028534905030728003 0 0.0029537126314649205 -0.028264570834623134 0 0.0030876306825090064 -0.028633227734783055 0 -0.00091609819755125114 -0.028001849975380005 0 -0.00037738191893378094 -0.028224846216682767 0 -0.0044235973992765186 -0.026947275829833056 0 -0.0037051358596446142 -0.02817066512465892 0 -0.0036212394029668561 -0.026806503938581267 0 0.0029325586822568548 -0.028625762624273625 0 0.0029882542143219457 -0.028534905030728003 0 0.0029190626009474646 -0.028484638463323206 0 0.0029882542143219457 -0.028534905030728003 0 0.0029190626009474646 -0.028484638463323206 0 0.0029537126314649205 -0.028264570834623134 0 0.0029325586822568548 -0.028625762624273625 0 0.0029190626009474646 -0.028484638463323206 0 0.002792365411042207 -0.028471628495166022 0 0.0029190626009474646 -0.028484638463323206 0 0.0029537126314649205 -0.028264570834623134 0 0.002792365411042207 -0.028471628495166022 0 -0.0044235973992765186 -0.026947275829833056 0 -0.0036212394029668561 -0.026806503938581267 0 -0.0042476647737882262 -0.025927724264701326 0 -0.00091609819755125114 -0.028001849975380005 0 0.0013361038643406465 -0.023992872199421925 0 0.0029537126314649205 -0.028264570834623134 0 0.0027658889813623748 -0.028138705451159457 0 0.002683697977705526 -0.027752653049489304 0 0.0029537126314649205 -0.028264570834623134 0 0.0027658889813623748 -0.028138705451159457 0 0.0027196995174054552 -0.028311613799247761 0 -0.0044235973992765186 -0.026947275829833056 0 -0.0050570915568916323 -0.025840117793757552 0 -0.0042476647737882262 -0.025927724264701326 0 0.0041259346843667043 -0.026954056689068241 0 0.0013361038643406465 -0.023992872199421925 0 0.0027658889813623748 -0.028138705451159457 0 0.0025313155932181869 -0.0281059516045798 0 0.002683697977705526 -0.027752653049489304 0 0.0027658889813623748 -0.028138705451159457 0 0.0027196995174054552 -0.028311613799247761 0 0.0026231778240485672 -0.028150441416804475 0 0.0026336134059119255 -0.027607963054501285 0 0.0041259346843667043 -0.026954056689068241 0 0.0027196995174054552 -0.028311613799247761 0 0.002792365411042207 -0.028471628495166022 0 0.0025196463330008313 -0.028531398695349403 0 0.0029537126314649205 -0.028264570834623134 0 0.0027196995174054552 -0.028311613799247761 0 0.002792365411042207 -0.028471628495166022 0 0.0088986859370153853 -0.029193963286337388 0 0.0085021219801997925 -0.024796133279389235 0 0.0088986859370153853 -0.029193963286337388 0 0.0041259346843667043 -0.026954056689068241 0 0.0027196995174054552 -0.028311613799247761 0 0.0025196463330008313 -0.028531398695349403 0 0.0026231778240485672 -0.028150441416804475 0 0.0071868288311772765 -0.028015682105744791 0 0.0077593852741752525 -0.026612045941842393 0 0.0069102816406936456 -0.026528724279444846 0 0.0047467841145510843 -0.023840969115787758 0 0.0049460856553519249 -0.023852089008005804 0 0.0048012539883573188 -0.023974951410030188 0 0.0041259346843667043 -0.026954056689068241 0 0.0085021219801997925 -0.024796133279389235 0 0.015618841713545958 -0.023983154622515171 0 0.0085021219801997925 -0.024796133279389235 0 0.013422589125734449 -0.026550292900954769 0 0.013120737560572268 -0.025609357292774849 0 0.011755801044388748 -0.026418403941900797 0 0.019249077639311579 -0.023757183684262485 0 0.019352208277321637 -0.023905182405198819 0 0.019281163829096525 -0.023842578820441596 0 0.019243708965443616 -0.023736612294995022 0 0.019249077639311579 -0.023757183684262485 0 0.019352208277321637 -0.023905182405198819 0 0.01825730551262841 -0.023799379800327671 0 0.0088986859370153853 -0.029193963286337388 0 0.019305534889963637 -0.023897935298257067 0 0.019352208277321637 -0.023905182405198819 0 0.019281163829096525 -0.023842578820441596 0 0.013120737560572268 -0.025609357292774849 0 0.011470192728469723 -0.024882288502913217 0 0.011755801044388748 -0.026418403941900797 0 -0.0012417261674020433 -0.028233383786705833 0 -0.0009498278087690799 -0.028796376569675181 0 -0.0015016948893518071 -0.029046931130753937 0 -0.0018382829769479877 -0.028327365356088423 0 -0.0012417261674020433 -0.028233383786705833 0 -0.0015016948893518071 -0.029046931130753937 0 -0.0018382829769479877 -0.028327365356088423 0 -0.0015016948893518071 -0.029046931130753937 0 -0.0020691701293691005 -0.028804169256492058 0 -0.0018382829769479877 -0.028327365356088423 0 -0.0024295192212483879 -0.028074684514310774 0 -0.0017442674333724103 -0.027732381470573921 0 -0.0018382829769479877 -0.028327365356088423 0 -0.0012417261674020433 -0.028233383786705833 0 -0.0017442674333724103 -0.027732381470573921 0 -0.0012417261674020433 -0.028233383786705833 0 -0.00069582791809130577 -0.028321170979843529 0 -0.0009498278087690799 -0.028796376569675181 0 -0.0012417261674020433 -0.028233383786705833 0 -0.00069582791809130577 -0.028321170979843529 0 -0.00064768147393437058 -0.027782309368530336 0 9.7632462501764029e-06 -0.02809127513981868 0 -0.00069582791809130577 -0.028321170979843529 0 -0.00041318206408020794 -0.028834928955684087 0 9.7632462501764029e-06 -0.02809127513981868 0 -0.00069582791809130577 -0.028321170979843529 0 -0.00064768147393437058 -0.027782309368530336 0 -0.00069582791809130577 -0.028321170979843529 0 -0.00041318206408020794 -0.028834928955684087 0 -0.0009498278087690799 -0.028796376569675181 0 -0.00041318206408020794 -0.028834928955684087 0 -0.0009498278087690799 -0.028796376569675181 0 -0.00075400242139186577 -0.029536352379534118 0 0.00018354559483936954 -0.029334243571673673 0 -0.00041318206408020794 -0.028834928955684087 0 -0.00075400242139186577 -0.029536352379534118 0 -0.0009498278087690799 -0.028796376569675181 0 -0.00075400242139186577 -0.029536352379534118 0 -0.0015016948893518071 -0.029046931130753937 0 -0.00075400242139186577 -0.029536352379534118 0 -0.001540835498406837 -0.029765323873129808 0 -0.0015016948893518071 -0.029046931130753937 0 -0.0024473824768796023 -0.030155263166149457 0 -0.001540835498406837 -0.029765323873129808 0 -0.0020766791558976716 -0.029361835825609851 0 -0.0015016948893518071 -0.029046931130753937 0 -0.0020766791558976716 -0.029361835825609851 0 -0.0020691701293691005 -0.028804169256492058 0 -0.001540835498406837 -0.029765323873129808 0 -0.0015016948893518071 -0.029046931130753937 0 -0.0020766791558976716 -0.029361835825609851 0 2.9748180575706068e-06 -0.0303751115394565 0 0.0016330169781993971 -0.0310246208821362 0 0.00089612992492745338 -0.031683760323976136 0 -0.0024473824768796023 -0.030155263166149457 0 -0.0025161864925482007 -0.029338624133653363 0 -0.0020766791558976716 -0.029361835825609851 0 -0.00079176720931665827 -0.030610037972616844 0 0.00041024450379681165 -0.029628695403757847 0 -0.0024473824768796023 -0.030155263166149457 0 -0.0025161864925482007 -0.029338624133653363 0 -0.0029351977487457573 -0.029400095735013322 0 -0.0025161864925482007 -0.029338624133653363 0 -0.0026505416555336371 -0.028956282440935458 0 -0.0029351977487457573 -0.029400095735013322 0 -0.0025161864925482007 -0.029338624133653363 0 -0.0026505416555336371 -0.028956282440935458 0 -0.0020766791558976716 -0.029361835825609851 0 -0.0026505416555336371 -0.028956282440935458 0 -0.0020766791558976716 -0.029361835825609851 0 -0.0020691701293691005 -0.028804169256492058 0 0.0038869648175637165 -0.035667964482882827 0 0.0026481707617191366 -0.035124943147257968 0 0.003105973253147991 -0.036092262919699108 0 0.0041229822792020173 -0.035761573534450676 0 0.0019438630963457282 -0.033523613622662617 0 0.0019438630963457282 -0.033523613622662617 0 0.0032042232060471377 -0.031564724804126275 0 0.0016330169781993971 -0.0310246208821362 0 0.00089612992492745338 -0.031683760323976136 0 0.0022276715720304487 -0.032271959966202593 0 0.00041024450379681165 -0.029628695403757847 0 0.0032042232060471377 -0.031564724804126275 0 -0.0026505416555336371 -0.028956282440935458 0 -0.0037051358596446142 -0.02817066512465892 0 -0.0024295192212483879 -0.028074684514310774 0 -0.0026505416555336371 -0.028956282440935458 0 -0.0029351977487457573 -0.029400095735013322 0 -0.0037051358596446142 -0.02817066512465892 0 0.0030713794354498302 -0.028759685299197028 0 0.0030587485815178439 -0.028720270437654093 0 0.0030876306825090064 -0.028633227734783055 0 0.00041024450379681165 -0.029628695403757847 0 -0.00037738191893378094 -0.028224846216682767 0 0.0030511787285699686 -0.028652566614909645 0 0.0030587485815178439 -0.028720270437654093 0 0.0030876306825090064 -0.028633227734783055 0 -0.0026505416555336371 -0.028956282440935458 0 -0.0020691701293691005 -0.028804169256492058 0 -0.0024295192212483879 -0.028074684514310774 0 -0.0018382829769479877 -0.028327365356088423 0 -0.0020691701293691005 -0.028804169256492058 0 -0.0024295192212483879 -0.028074684514310774 0 -0.0024295192212483879 -0.028074684514310774 0 -0.0022478238647412195 -0.027238831136821628 0 -0.0017442674333724103 -0.027732381470573921 0 -0.0024295192212483879 -0.028074684514310774 0 -0.0022478238647412195 -0.027238831136821628 0 -0.0029672007162503838 -0.027317942154921327 0 -0.0037051358596446142 -0.02817066512465892 0 -0.0029672007162503838 -0.027317942154921327 0 -0.0036212394029668561 -0.026806503938581267 0 -0.0037051358596446142 -0.02817066512465892 0 -0.0024295192212483879 -0.028074684514310774 0 -0.0029672007162503838 -0.027317942154921327 0 -0.0029672007162503838 -0.027317942154921327 0 -0.0036212394029668561 -0.026806503938581267 0 -0.0027254339067055381 -0.026475358055929456 0 -0.0036212394029668561 -0.026806503938581267 0 -0.0034065798970630561 -0.026050302286712495 0 -0.0042476647737882262 -0.025927724264701326 0 -0.0036212394029668561 -0.026806503938581267 0 -0.0027254339067055381 -0.026475358055929456 0 -0.0034065798970630561 -0.026050302286712495 0 -0.0022478238647412195 -0.027238831136821628 0 -0.0027254339067055381 -0.026475358055929456 0 -0.0019238515263510295 -0.026594663615280349 0 -0.0022478238647412195 -0.027238831136821628 0 -0.0029672007162503838 -0.027317942154921327 0 -0.0027254339067055381 -0.026475358055929456 0 -0.0027254339067055381 -0.026475358055929456 0 -0.0019238515263510295 -0.026594663615280349 0 -0.0021822118948250317 -0.02565967855068391 0 -0.0019238515263510295 -0.026594663615280349 0 -0.0012116295801583808 -0.026695608028370729 0 -0.001633823093221434 -0.026034541543125948 0 -0.0012116295801583808 -0.026695608028370729 0 -0.00089829615990178401 -0.025954640573462653 0 -0.001633823093221434 -0.026034541543125948 0 -0.0012116295801583808 -0.026695608028370729 0 -0.0016647945039650848 -0.027143885991015304 0 -0.0011995331963046958 -0.027454657040518162 0 -0.0019238515263510295 -0.026594663615280349 0 -0.0012116295801583808 -0.026695608028370729 0 -0.0016647945039650848 -0.027143885991015304 0 -0.0022478238647412195 -0.027238831136821628 0 -0.0019238515263510295 -0.026594663615280349 0 -0.0016647945039650848 -0.027143885991015304 0 -0.0022478238647412195 -0.027238831136821628 0 -0.0016647945039650848 -0.027143885991015304 0 -0.0017442674333724103 -0.027732381470573921 0 -0.0016647945039650848 -0.027143885991015304 0 -0.0011995331963046958 -0.027454657040518162 0 -0.0017442674333724103 -0.027732381470573921 0 -0.0012417261674020433 -0.028233383786705833 0 -0.0011995331963046958 -0.027454657040518162 0 -0.0017442674333724103 -0.027732381470573921 0 -0.0012417261674020433 -0.028233383786705833 0 -0.0011995331963046958 -0.027454657040518162 0 -0.00064768147393437058 -0.027782309368530336 0 -0.0011995331963046958 -0.027454657040518162 0 -0.00064768147393437058 -0.027782309368530336 0 -0.00075776310803149635 -0.027159901026315533 0 -0.0001190575439316043 -0.027319864035532843 0 -0.00064768147393437058 -0.027782309368530336 0 -0.00075776310803149635 -0.027159901026315533 0 -0.0001190575439316043 -0.027319864035532843 0 -0.00075776310803149635 -0.027159901026315533 0 -0.00052532565647857169 -0.026599770422265936 0 -0.0012116295801583808 -0.026695608028370729 0 -0.0011995331963046958 -0.027454657040518162 0 -0.00075776310803149635 -0.027159901026315533 0 -0.0012116295801583808 -0.026695608028370729 0 -0.00075776310803149635 -0.027159901026315533 0 -0.00052532565647857169 -0.026599770422265936 0 -0.0012116295801583808 -0.026695608028370729 0 -0.00052532565647857169 -0.026599770422265936 0 -0.00089829615990178401 -0.025954640573462653 0 -0.00052532565647857169 -0.026599770422265936 0 -0.00089829615990178401 -0.025954640573462653 0 -7.8378211173180722e-05 -0.025926662445765875 0 -0.00089829615990178401 -0.025954640573462653 0 -0.00041602519848881213 -0.024867302143866638 0 -0.0013335604093437264 -0.025498599239895482 0 -0.00089829615990178401 -0.025954640573462653 0 -0.00041602519848881213 -0.024867302143866638 0 -7.8378211173180722e-05 -0.025926662445765875 0 0.00053531847724970244 -0.016620916702738287 0 -0.00036955020479130708 -0.015788395049420187 0 -0.00041602519848881213 -0.024867302143866638 0 -0.0016903304780556746 -0.024986093337693849 0 -0.0013335604093437264 -0.025498599239895482 0 -0.00041602519848881213 -0.024867302143866638 0 -0.0016903304780556746 -0.024986093337693849 0 -0.0019622178678264978 -0.024181615103991572 0 -0.0003638472462692108 -0.02623701424209492 0 -0.00036955020479130708 -0.015788395049420187 0 -0.0016903304780556746 -0.024986093337693849 0 -0.0023054371623735053 -0.024709603458440341 0 -0.0019340497519072853 -0.024147469663653078 0 -0.0016903304780556746 -0.024986093337693849 0 -0.0013335604093437264 -0.025498599239895482 0 -0.0021822118948250317 -0.02565967855068391 0 -0.00089829615990178401 -0.025954640573462653 0 -0.0013335604093437264 -0.025498599239895482 0 -0.001633823093221434 -0.026034541543125948 0 -0.0013335604093437264 -0.025498599239895482 0 -0.001633823093221434 -0.026034541543125948 0 -0.0021822118948250317 -0.02565967855068391 0 -0.0019238515263510295 -0.026594663615280349 0 -0.001633823093221434 -0.026034541543125948 0 -0.0021822118948250317 -0.02565967855068391 0 -0.0027254339067055381 -0.026475358055929456 0 -0.0021822118948250317 -0.02565967855068391 0 -0.0028777258330203461 -0.025660510439858741 0 -0.0021822118948250317 -0.02565967855068391 0 -0.0028777258330203461 -0.025660510439858741 0 -0.0028725274509117434 -0.024930607252854238 0 -0.0034065798970630561 -0.026050302286712495 0 -0.0036362236099485006 -0.024911913663630336 0 -0.0043798473116224354 -0.025774354547475748 0 -0.0028777258330203461 -0.025660510439858741 0 -0.0034065798970630561 -0.026050302286712495 0 -0.0036362236099485006 -0.024911913663630336 0 -0.0027254339067055381 -0.026475358055929456 0 -0.0028777258330203461 -0.025660510439858741 0 -0.0034065798970630561 -0.026050302286712495 0 -0.0028777258330203461 -0.025660510439858741 0 -0.0036362236099485006 -0.024911913663630336 0 -0.0028725274509117434 -0.024930607252854238 0 -0.0036362236099485006 -0.024911913663630336 0 -0.0028725274509117434 -0.024930607252854238 0 -0.0031315952702834467 -0.023662932736451332 0 -0.0036362236099485006 -0.024911913663630336 0 -0.0031315952702834467 -0.023662932736451332 0 -0.0039920494441359781 -0.024028581562465241 0 -0.0023054371623735053 -0.024709603458440341 0 -0.0028725274509117434 -0.024930607252854238 0 -0.0031315952702834467 -0.023662932736451332 0 -0.0023054371623735053 -0.024709603458440341 0 -0.0031315952702834467 -0.023662932736451332 0 -0.0019340497519072853 -0.024147469663653078 0 -0.0016903304780556746 -0.024986093337693849 0 -0.0021822118948250317 -0.02565967855068391 0 -0.0023054371623735053 -0.024709603458440341 0 -0.0021822118948250317 -0.02565967855068391 0 -0.0023054371623735053 -0.024709603458440341 0 -0.0028725274509117434 -0.024930607252854238 0 0.00010031341092837099 -0.006698004381385356 0 0.0004289807052724608 -0.0078291039672989671 0 0.00068742689530252058 -0.0070534719854053341 0 0.00028450633872885049 -0.009333667310450702 0 0.001541336067918416 -0.0077796064770085504 0 0.0024131046358863242 -0.010143130028959174 0 0.00072196844555818499 -0.0060053645957494619 0 -0.00036955020479130708 -0.015788395049420187 0 -0.0015770020149141128 -0.01672902976318737 0 -0.00036955020479130708 -0.015788395049420187 0 0.00028450633872885049 -0.009333667310450702 0 -0.00045384351721435343 -0.0080754804555254901 0 -0.0018126634662565121 -0.0085786098181822434 0 -0.0015770020149141128 -0.01672902976318737 0 -0.00082578438706276951 -0.013547993463867886 0 -0.00045384351721435343 -0.0080754804555254901 0 0.00020040107461386775 -0.0069581382590537724 0 0.001541336067918416 -0.0077796064770085504 0 0.00028450633872885049 -0.009333667310450702 0 -0.00045384351721435343 -0.0080754804555254901 0 0.001541336067918416 -0.0077796064770085504 0 -0.00045384351721435343 -0.0080754804555254901 0 0.00020040107461386775 -0.0069581382590537724 0 -0.00081995931305804584 -0.0064488335118413481 0 0.00010031341092837099 -0.006698004381385356 0 0.00084590066125670555 -0.0063560147249458292 0 0.00040767750598130927 -0.0059602038145117634 0 0.00010031341092837099 -0.006698004381385356 0 0.00084590066125670555 -0.0063560147249458292 0 0.00068742689530252058 -0.0070534719854053341 0 0.0010721380880117498 -0.0067910245942808031 0 0.00084590066125670555 -0.0063560147249458292 0 0.00068742689530252058 -0.0070534719854053341 0 0.0010721380880117498 -0.0067910245942808031 0 0.00084590066125670555 -0.0063560147249458292 0 0.0014943212048847754 -0.006486351051847427 0 0.0010721380880117498 -0.0067910245942808031 0 0.0014943212048847754 -0.006486351051847427 0 0.0012490404483870587 -0.0072729916254739117 0 0.0014943212048847754 -0.006486351051847427 0 0.0012490404483870587 -0.0072729916254739117 0 0.0021214836309464153 -0.007125685918493674 0 0.001661483172931882 -0.0083301602154214668 0 0.0012490404483870587 -0.0072729916254739117 0 0.0021214836309464153 -0.007125685918493674 0 0.0012490404483870587 -0.0072729916254739117 0 0.0004289807052724608 -0.0078291039672989671 0 0.00068742689530252058 -0.0070534719854053341 0 0.001661483172931882 -0.0083301602154214668 0 0.0012490404483870587 -0.0072729916254739117 0 0.0004289807052724608 -0.0078291039672989671 0 0.0010721380880117498 -0.0067910245942808031 0 0.0012490404483870587 -0.0072729916254739117 0 0.00068742689530252058 -0.0070534719854053341 0 0.0041176691918554751 -0.020337313798298333 0 0.0044047134151507647 -0.019680016132709928 0 0.0039896471455718313 -0.019589361740396993 0 0.0058740280416100365 -0.018585906828318823 0 0.0057895227130052938 -0.018503501225009055 0 0.0057813737852124049 -0.018590608493259782 0 0.0059903902860924665 -0.021538328153316119 0 0.0047784057597201864 -0.018681440653537686 0 0.011516743846157178 -0.022333826920828709 0 0.0097872084774979131 -0.022186521438368002 0 0.010030130627189318 -0.023557781359564493 0 0.0085021219801997925 -0.024796133279389235 0 0.0059903902860924665 -0.021538328153316119 0 0.0059903902860924665 -0.021538328153316119 0 0.0022694339667427132 -0.022267373119965995 0 0.0049910490611773479 -0.024101131561941564 0 0.0048012539883573188 -0.023974951410030188 0 0.0046706585945684538 -0.024054497287611779 0 0.0049460856553519249 -0.023852089008005804 0 0.0049910490611773479 -0.024101131561941564 0 0.0048012539883573188 -0.023974951410030188 0 0.0044394699858192541 -0.017928774560403406 0 0.0022694339667427132 -0.022267373119965995 0 0.0041176691918554751 -0.020337313798298333 0 0.0044047134151507647 -0.019680016132709928 0 0.0049231906566687906 -0.020518259170457982 0 -0.0012047882512026755 -0.02180267365875144 0 0.00035001049507964117 -0.022844320314095508 0 0.0043375720061818966 -0.017427332204493374 0 0.0031489529274538225 -0.017327083516561953 0 0.0036129959332920564 -0.016563515575600492 0 0.00035001049507964117 -0.022844320314095508 0 -0.0050561094603838895 -0.02561717606852712 0 -0.0048547194366184857 -0.024379919310638227 0 -0.0053161677595139085 -0.025537926088756817 0 -0.0043798473116224354 -0.025774354547475748 0 -0.0050196526584175786 -0.025756566822713468 0 -0.0050570915568916323 -0.025840117793757552 0 -0.0042476647737882262 -0.025927724264701326 0 0.0031489529274538225 -0.017327083516561953 0 0.0036129959332920564 -0.016563515575600492 0 0.0035184183655931314 -0.016549528271797159 0 0.0022694339667427132 -0.022267373119965995 0 0.00035001049507964117 -0.022844320314095508 0 0.0047467841145510843 -0.023840969115787758 0 0.0048012539883573188 -0.023974951410030188 0 0.0046501122094299392 -0.024026435364474789 0 0.0048012539883573188 -0.023974951410030188 0 0.0046706585945684538 -0.024054497287611779 0 0.0046501122094299392 -0.024026435364474789 0 0.0016006011187550716 -0.021801153380458682 0 0.0018214328815888427 -0.021847899002940336 0 0.0017468969391579198 -0.022023514054937084 0 0.0022694339667427132 -0.022267373119965995 0 0.0013361038643406465 -0.023992872199421925 0 0.00035001049507964117 -0.022844320314095508 0 0.0013361038643406465 -0.023992872199421925 0 -0.0032659010068628374 -0.026071466765510958 0 -0.0050561094603838895 -0.02561717606852712 0 -0.0036362236099485006 -0.024911913663630336 0 -0.0048547194366184857 -0.024379919310638227 0 -0.0043798473116224354 -0.025774354547475748 0 -0.0036362236099485006 -0.024911913663630336 0 -0.0048547194366184857 -0.024379919310638227 0 -0.0039920494441359781 -0.024028581562465241 0 -0.0048547194366184857 -0.024379919310638227 0 -0.0043540821736124226 -0.023153484906766574 0 -0.0039920494441359781 -0.024028581562465241 0 -0.0012047882512026755 -0.02180267365875144 0 -0.00082578438706276951 -0.013547993463867886 0 -0.0031315952702834467 -0.023662932736451332 0 -0.0043540821736124226 -0.023153484906766574 0 -0.0039920494441359781 -0.024028581562465241 0 -0.00045384351721435343 -0.0080754804555254901 0 -0.0018126634662565121 -0.0085786098181822434 0 -0.00081995931305804584 -0.0064488335118413481 0 -0.00082578438706276951 -0.013547993463867886 0 0.0001919182424301014 -0.0039964433651764782 0 0.00064402645498217511 -0.0037391864393030065 0 0.00089289552955727639 -0.0042127119343481024 0 0.00036387111812797814 -0.0042800896917104042 0 0.00064402645498217511 -0.0037391864393030065 0 0.0012651659338187263 -0.0038901529035160207 0 0.00089289552955727639 -0.0042127119343481024 0 0.0012651659338187263 -0.0038901529035160207 0 0.0014378754380806092 -0.0043321858042711901 0 0.00089289552955727639 -0.0042127119343481024 0 -0.00082578438706276951 -0.013547993463867886 0 0.0028131326964055134 -0.011114238748596076 0 0.0043375720061818966 -0.017427332204493374 0 0.0031489529274538225 -0.017327083516561953 0 0.0036978109047767146 -0.018496293218526635 0 0.0031489529274538225 -0.017327083516561953 0 0.0027472549698088706 -0.018171415664696097 0 0.0036978109047767146 -0.018496293218526635 0 0.0043375720061818966 -0.017427332204493374 0 0.0036978109047767146 -0.018496293218526635 0 0.0052094914874282316 -0.018439101318446689 0 0.0036978109047767146 -0.018496293218526635 0 0.0047946318810315816 -0.018868317158633425 0 0.0052094914874282316 -0.018439101318446689 0 0.0028131326964055134 -0.011114238748596076 0 0.003374401019148353 -0.011519628284936812 0 0.0012651659338187263 -0.0038901529035160207 0 0.0018881582412525887 -0.004062089458849674 0 0.0014378754380806092 -0.0043321858042711901 0 0.0058831105892312155 -0.019134715457329653 0 0.0047946318810315816 -0.018868317158633425 0 0.0055711666729829834 -0.018840371378867422 0 0.0047946318810315816 -0.018868317158633425 0 0.0052394091678334975 -0.018522522893104694 0 0.0052094914874282316 -0.018439101318446689 0 0.0047946318810315816 -0.018868317158633425 0 0.0055711666729829834 -0.018840371378867422 0 0.0052394091678334975 -0.018522522893104694 0 0.0053170105627033237 -0.018948996843062373 0 0.004849486069033117 -0.018862485540642654 0 0.0058088281415118433 -0.018655362353612606 0 0.0058068531275806846 -0.018744602510051629 0 0.0056732751003558228 -0.018735541529079188 0 0.0058068531275806846 -0.018744602510051629 0 0.0055711666729829834 -0.018840371378867422 0 0.0056732751003558228 -0.018735541529079188 0 0.0055711666729829834 -0.018840371378867422 0 0.0052394091678334975 -0.018522522893104694 0 0.0052136701278564452 -0.018435466196964023 0 0.0048557081909343961 -0.018831791010804781 0 0.004849486069033117 -0.018862485540642654 0 0.004849486069033117 -0.018862485540642654 0 0.0047784057597201864 -0.018681440653537686 0 0.0044394699858192541 -0.017928774560403406 0 0.004849486069033117 -0.018862485540642654 0 0.0058088281415118433 -0.018655362353612606 0 0.0056732751003558228 -0.018735541529079188 0 0.0057813737852124049 -0.018590608493259782 0 0.0044047134151507647 -0.019680016132709928 0 0.0038733679619244927 -0.018837874491622931 0 0.0039896471455718313 -0.019589361740396993 0 0.0058740280416100365 -0.018585906828318823 0 0.0058088281415118433 -0.018655362353612606 0 0.0057813737852124049 -0.018590608493259782 0 0.0022603854278579966 -0.0047314016579936002 0 0.002040785494543956 -0.0047235397845715949 0 0.0022276324217719392 -0.0046611107126025668 0 0.0022603854278579966 -0.0047314016579936002 0 0.002040785494543956 -0.0047235397845715949 0 0.0022870547855920512 -0.0047551432089841666 0 0.002040785494543956 -0.0047235397845715949 0 0.0022113244609081131 -0.0045465114910846699 0 0.0019566531471544462 -0.0044755088213486874 0 0.002040785494543956 -0.0047235397845715949 0 0.0022276324217719392 -0.0046611107126025668 0 0.0022113244609081131 -0.0045465114910846699 0 0.0023093402070234136 -0.0046215472047586043 0 0.0022276324217719392 -0.0046611107126025668 0 0.0022113244609081131 -0.0045465114910846699 0 0.0018881582412525887 -0.004062089458849674 0 0.0022188770189436203 -0.0044182426754392568 0 0.0019566531471544462 -0.0044755088213486874 0 0.0038079155090137377 -0.01089684632144498 0 0.003374401019148353 -0.011519628284936812 0 0.0023073927209453066 -0.0044286316930270036 0 0.0022113244609081131 -0.0045465114910846699 0 0.0022188770189436203 -0.0044182426754392568 0 0.0022113244609081131 -0.0045465114910846699 0 0.0022188770189436203 -0.0044182426754392568 0 0.0019566531471544462 -0.0044755088213486874 0 0.0024027920066829137 -0.0042221407354683998 0 0.0018881582412525887 -0.004062089458849674 0 0.0022188770189436203 -0.0044182426754392568 0 0.0019566531471544462 -0.0044755088213486874 0 0.0014378754380806092 -0.0043321858042711901 0 0.0014954991694647224 -0.0047271185643076872 0 0.0018881582412525887 -0.004062089458849674 0 0.0019566531471544462 -0.0044755088213486874 0 0.0014378754380806092 -0.0043321858042711901 0 0.002040785494543956 -0.0047235397845715949 0 0.0019566531471544462 -0.0044755088213486874 0 0.0014954991694647224 -0.0047271185643076872 0 0.002040785494543956 -0.0047235397845715949 0 0.0014954991694647224 -0.0047271185643076872 0 0.0015868936248312152 -0.0051224187617049631 0 0.0014954991694647224 -0.0047271185643076872 0 0.0010716356601356317 -0.0046031521889573308 0 0.00071982334875859109 -0.0051778525426239338 0 0.0014954991694647224 -0.0047271185643076872 0 0.00071982334875859109 -0.0051778525426239338 0 0.0015868936248312152 -0.0051224187617049631 0 0.0014378754380806092 -0.0043321858042711901 0 0.0010716356601356317 -0.0046031521889573308 0 0.00089289552955727639 -0.0042127119343481024 0 0.0014378754380806092 -0.0043321858042711901 0 0.0014954991694647224 -0.0047271185643076872 0 0.0010716356601356317 -0.0046031521889573308 0 0.0010716356601356317 -0.0046031521889573308 0 0.00089289552955727639 -0.0042127119343481024 0 0.00061470289989793651 -0.004632141356675226 0 0.00061470289989793651 -0.004632141356675226 0 0.00036387111812797814 -0.0042800896917104042 0 0.00014315721592177759 -0.0050748663442160098 0 0.00089289552955727639 -0.0042127119343481024 0 0.00061470289989793651 -0.004632141356675226 0 0.00036387111812797814 -0.0042800896917104042 0 0.00061470289989793651 -0.004632141356675226 0 0.00037776957497053664 -0.0049323253064633855 0 0.00071982334875859109 -0.0051778525426239338 0 0.0010716356601356317 -0.0046031521889573308 0 0.00061470289989793651 -0.004632141356675226 0 0.00071982334875859109 -0.0051778525426239338 0 0.00061470289989793651 -0.004632141356675226 0 0.00037776957497053664 -0.0049323253064633855 0 0.00014315721592177759 -0.0050748663442160098 0 0.00037776957497053664 -0.0049323253064633855 0 0.00071982334875859109 -0.0051778525426239338 0 2.6344212974557e-05 -0.0047971293171492797 0 0.0011873186882841069 -0.0046771601325020038 0 0.00062974988680982846 -0.0045113984353049724 0 0.0016618695813246391 -0.0042230390025423791 0 0.0011593282871769331 -0.0041364708426109452 0 0.0013668168479621396 -0.0042741527322091143 0 0.0016618695813246391 -0.0042230390025423791 0 0.0014995731295960673 -0.0044041377398141334 0 0.0018030363284125132 -0.0045424648005258934 0 0.0016618695813246391 -0.0042230390025423791 0 0.0014995731295960673 -0.0044041377398141334 0 0.0013668168479621396 -0.0042741527322091143 0 0.0014995731295960673 -0.0044041377398141334 0 0.0018030363284125132 -0.0045424648005258934 0 0.0015395864833318939 -0.0044915187725388184 0 0.0011873186882841069 -0.0046771601325020038 0 0.0017865866128129416 -0.0047489435136122042 0 0.0016618695813246391 -0.0042230390025423791 0 0.0018030363284125132 -0.0045424648005258934 0 0.0020380574183313013 -0.0043843072479750819 0 0.0018030363284125132 -0.0045424648005258934 0 0.0020380574183313013 -0.0043843072479750819 0 0.0020928787231420522 -0.0045799901229756296 0 0.0020380574183313013 -0.0043843072479750819 0 0.0020928787231420522 -0.0045799901229756296 0 0.0022319005990923449 -0.0046493061170727341 0 0.0018030363284125132 -0.0045424648005258934 0 0.0020832416569194047 -0.0047099609760708578 0 0.0020928787231420522 -0.0045799901229756296 0 0.0020832416569194047 -0.0047099609760708578 0 0.0020928787231420522 -0.0045799901229756296 0 0.0022182742193972726 -0.0046605392715848085 0 0.0020928787231420522 -0.0045799901229756296 0 0.0022182742193972726 -0.0046605392715848085 0 0.0022319005990923449 -0.0046493061170727341 0 0.0020832416569194047 -0.0047099609760708578 0 0.0022182742193972726 -0.0046605392715848085 0 0.0023102622356591415 -0.004767184198991593 0 0.0023818132834461637 -0.0046499799823264713 0 0.0022182742193972726 -0.0046605392715848085 0 0.0023102622356591415 -0.004767184198991593 0 0.0023818132834461637 -0.0046499799823264713 0 0.0022182742193972726 -0.0046605392715848085 0 0.0022319005990923449 -0.0046493061170727341 0 0.0017865866128129416 -0.0047489435136122042 0 0.0022083656103902105 -0.0047563072414765284 0 0.0020380574183313013 -0.0043843072479750819 0 0.0022319005990923449 -0.0046493061170727341 0 0.0022870547855920512 -0.0047551432089841666 0 0.002040785494543956 -0.0047235397845715949 0 0.0015868936248312152 -0.0051224187617049631 0 0.0022870547855920512 -0.0047551432089841666 0 0.0023137911493799103 -0.0047638769403247367 0 0.0022603854278579966 -0.0047314016579936002 0 0.0022870547855920512 -0.0047551432089841666 0 0.0023569754986468546 -0.0047955169003103468 0 0.0022319005990923449 -0.0046493061170727341 0 0.0022870547855920512 -0.0047551432089841666 0 0.00065611239453382134 -0.0051079087814518091 0 0.0010083688704400435 -0.0049397886046616702 0 0.00091427526568153242 -0.0055673691678270196 0 0.0010083688704400435 -0.0049397886046616702 0 0.0013776111013263442 -0.0053624181950126491 0 0.00091427526568153242 -0.0055673691678270196 0 0.00065611239453382134 -0.0051079087814518091 0 0.00091427526568153242 -0.0055673691678270196 0 0.00040951373649841615 -0.0054530443055297211 0 0.00065611239453382134 -0.0051079087814518091 0 0.0010083688704400435 -0.0049397886046616702 0 0.00065368026434225589 -0.004593672612407518 0 0.0010083688704400435 -0.0049397886046616702 0 0.0015467891176065959 -0.0048833939787091933 0 0.0013776111013263442 -0.0053624181950126491 0 0.0017098845465892091 -0.0053532077303904309 0 0.0013776111013263442 -0.0053624181950126491 0 0.001809336957434988 -0.0056970065452016869 0 0.0015467891176065959 -0.0048833939787091933 0 0.0017098845465892091 -0.0053532077303904309 0 0.0020184577402590446 -0.0054504065787858488 0 0.0015467891176065959 -0.0048833939787091933 0 0.0017098845465892091 -0.0053532077303904309 0 0.0013776111013263442 -0.0053624181950126491 0 0.0013776111013263442 -0.0053624181950126491 0 0.0013839330528417834 -0.0058959122024709156 0 0.00091427526568153242 -0.0055673691678270196 0 0.0013776111013263442 -0.0053624181950126491 0 0.001809336957434988 -0.0056970065452016869 0 0.0013839330528417834 -0.0058959122024709156 0 0.001809336957434988 -0.0056970065452016869 0 0.0013839330528417834 -0.0058959122024709156 0 0.0019499738633424969 -0.0062144490435424677 0 0.0014943212048847754 -0.006486351051847427 0 0.0013839330528417834 -0.0058959122024709156 0 0.0019499738633424969 -0.0062144490435424677 0 0.00084590066125670555 -0.0063560147249458292 0 0.0014943212048847754 -0.006486351051847427 0 0.0013839330528417834 -0.0058959122024709156 0 0.00084590066125670555 -0.0063560147249458292 0 0.0013839330528417834 -0.0058959122024709156 0 0.00091427526568153242 -0.0055673691678270196 0 0.00084590066125670555 -0.0063560147249458292 0 0.00091427526568153242 -0.0055673691678270196 0 0.00040767750598130927 -0.0059602038145117634 0 0.00091427526568153242 -0.0055673691678270196 0 0.00040767750598130927 -0.0059602038145117634 0 0.00040951373649841615 -0.0054530443055297211 0 0.00072196844555818499 -0.0060053645957494619 0 0.00032981856536562959 -0.0058842438267748568 0 0.00020040107461386775 -0.0069581382590537724 0 0.001541336067918416 -0.0077796064770085504 0 0.00055425913561974133 -0.0056096711530262819 0 0.00010031341092837099 -0.006698004381385356 0 0.00040767750598130927 -0.0059602038145117634 0 -6.9888022665647671e-05 -0.0055593748257766612 0 0.00040767750598130927 -0.0059602038145117634 0 0.00040951373649841615 -0.0054530443055297211 0 -6.9888022665647671e-05 -0.0055593748257766612 0 0.00020040107461386775 -0.0069581382590537724 0 -0.00081995931305804584 -0.0064488335118413481 0 0.00055425913561974133 -0.0056096711530262819 0 0.0001919182424301014 -0.0039964433651764782 0 -0.0001258932633683127 -0.0056144754908151158 0 -0.00081995931305804584 -0.0064488335118413481 0 0.00055425913561974133 -0.0056096711530262819 0 0.00014315721592177759 -0.0050748663442160098 0 0.00032981856536562959 -0.0058842438267748568 0 3.9934788240444161e-06 -0.004775567621750929 0 -6.9888022665647671e-05 -0.0055593748257766612 0 0.0002136894937374539 -0.0050345991087446373 0 2.6344212974557e-05 -0.0047971293171492797 0 0.00055425913561974133 -0.0056096711530262819 0 0.00014315721592177759 -0.0050748663442160098 0 2.6344212974557e-05 -0.0047971293171492797 0 0.0002136894937374539 -0.0050345991087446373 0 2.6344212974557e-05 -0.0047971293171492797 0 -1.0760604318568245e-05 -0.0047987948758613308 0 0.00037776957497053664 -0.0049323253064633855 0 0.00014315721592177759 -0.0050748663442160098 0 2.6344212974557e-05 -0.0047971293171492797 0 0.0002136894937374539 -0.0050345991087446373 0 -1.0760604318568245e-05 -0.0047987948758613308 0 0.00065368026434225589 -0.004593672612407518 0 0.00065611239453382134 -0.0051079087814518091 0 0.00040951373649841615 -0.0054530443055297211 0 0.0002136894937374539 -0.0050345991087446373 0 0.00040951373649841615 -0.0054530443055297211 0 -6.9888022665647671e-05 -0.0055593748257766612 0 0.0002136894937374539 -0.0050345991087446373 0 0.00065611239453382134 -0.0051079087814518091 0 0.0002136894937374539 -0.0050345991087446373 0 0.00065368026434225589 -0.004593672612407518 0 0.00062974988680982846 -0.0045113984353049724 0 0.00068027071983445438 -0.0045603876903954265 0 0.00088802387948177283 -0.0043821067466992929 0 0.0011593282871769331 -0.0041364708426109452 0 0.00065368026434225589 -0.004593672612407518 0 0.00088802387948177283 -0.0043821067466992929 0 0.00075574346458368773 -0.004379774617903183 0 0.00065368026434225589 -0.004593672612407518 0 0.00071982334875859109 -0.0051778525426239338 0 2.6344212974557e-05 -0.0047971293171492797 0 -1.0760604318568245e-05 -0.0047987948758613308 0 0.0011593282871769331 -0.0041364708426109452 0 0.0011503721332093565 -0.0042798377397137528 0 0.0013668168479621396 -0.0042741527322091143 0 0.00088802387948177283 -0.0043821067466992929 0 0.0011593282871769331 -0.0041364708426109452 0 0.0011503721332093565 -0.0042798377397137528 0 0.00088802387948177283 -0.0043821067466992929 0 0.0011503721332093565 -0.0042798377397137528 0 0.0011747053876071977 -0.0043462447716158129 0 0.0011503721332093565 -0.0042798377397137528 0 0.0011747053876071977 -0.0043462447716158129 0 0.0013668168479621396 -0.0042741527322091143 0 0.0014995731295960673 -0.0044041377398141334 0 0.0011747053876071977 -0.0043462447716158129 0 0.0013668168479621396 -0.0042741527322091143 0 0.0014995731295960673 -0.0044041377398141334 0 0.0011747053876071977 -0.0043462447716158129 0 0.0015395864833318939 -0.0044915187725388184 0 0.0011747053876071977 -0.0043462447716158129 0 0.00093149192802862314 -0.0043887799120027951 0 0.0015395864833318939 -0.0044915187725388184 0 0.00088802387948177283 -0.0043821067466992929 0 0.00093149192802862314 -0.0043887799120027951 0 0.00075574346458368773 -0.004379774617903183 0 0.00093149192802862314 -0.0043887799120027951 0 0.00065830627141570447 -0.0044187564182304045 0 0.00075574346458368773 -0.004379774617903183 0 0.00088802387948177283 -0.0043821067466992929 0 0.0011747053876071977 -0.0043462447716158129 0 0.00093149192802862314 -0.0043887799120027951 0 0.00093149192802862314 -0.0043887799120027951 0 0.00065830627141570447 -0.0044187564182304045 0 0.00080379518892473723 -0.0045290903514332865 0 0.00065830627141570447 -0.0044187564182304045 0 0.00073399554695809653 -0.0044207418684783263 0 0.00067615837114711396 -0.004461522556919827 0 0.00073399554695809653 -0.0044207418684783263 0 0.00075574346458368773 -0.004379774617903183 0 0.00085333825065906396 -0.0043904600810924458 0 0.00065830627141570447 -0.0044187564182304045 0 0.00073399554695809653 -0.0044207418684783263 0 0.00075574346458368773 -0.004379774617903183 0 0.00075574346458368773 -0.004379774617903183 0 0.00085333825065906396 -0.0043904600810924458 0 0.00065368026434225589 -0.004593672612407518 0 0.0010083688704400435 -0.0049397886046616702 0 0.00085333825065906396 -0.0043904600810924458 0 0.00065368026434225589 -0.004593672612407518 0 0.0015467891176065959 -0.0048833939787091933 0 0.00085333825065906396 -0.0043904600810924458 0 0.001741742039321478 -0.00473001508015021 0 0.00085333825065906396 -0.0043904600810924458 0 0.00067397876815965577 -0.0043868566327953289 0 0.00058381464692506299 -0.0042209214071322427 0 0.00073293535182127187 -0.0043363084233998608 0 0.0015040141838964459 -0.0046211112638249226 0 0.0010083688704400435 -0.0049397886046616702 0 0.0015467891176065959 -0.0048833939787091933 0 0.00085333825065906396 -0.0043904600810924458 0 0.00073399554695809653 -0.0044207418684783263 0 0.00085333825065906396 -0.0043904600810924458 0 0.00067397876815965577 -0.0043868566327953289 0 -0.00014744817623628525 -0.0037926600185304569 0 -0.00096055169719166261 -0.0030227544836922715 0 0.00067397876815965577 -0.0043868566327953289 0 0.00067615837114711396 -0.004461522556919827 0 0.0005102821431238765 -0.0043557106965144785 0 0.00073399554695809653 -0.0044207418684783263 0 0.00067397876815965577 -0.0043868566327953289 0 0.00067615837114711396 -0.004461522556919827 0 -0.0020781211748301647 -0.0029050912884702796 0 -0.0024660870118896586 -0.0024949853424766247 0 -0.0020854523774039156 -0.0020964039914188192 0 -0.0010465344526558536 -0.0029517694729069115 0 -0.0020781211748301647 -0.0029050912884702796 0 -0.0020854523774039156 -0.0020964039914188192 0 -0.0024660870118896586 -0.0024949853424766247 0 -0.0027469180646372852 -0.0022092331752226707 0 -0.0020854523774039156 -0.0020964039914188192 0 -0.0020781211748301647 -0.0029050912884702796 0 -0.0024660870118896586 -0.0024949853424766247 0 -0.0026320578413871021 -0.0029537385955286828 0 -0.0026320578413871021 -0.0029537385955286828 0 -0.003081745874987326 -0.0028996676056574021 0 -0.0029350137955441355 -0.0025458437381800014 0 -0.0024660870118896586 -0.0024949853424766247 0 -0.0026320578413871021 -0.0029537385955286828 0 -0.0029350137955441355 -0.0025458437381800014 0 -0.003081745874987326 -0.0028996676056574021 0 -0.0033968327667351196 -0.0029539332543484561 0 -0.0034782097198327419 -0.0025970430602232277 0 -0.003081745874987326 -0.0028996676056574021 0 -0.0029350137955441355 -0.0025458437381800014 0 -0.0034782097198327419 -0.0025970430602232277 0 -0.0029350137955441355 -0.0025458437381800014 0 -0.0031645307172989473 -0.0022764325685398295 0 -0.0034782097198327419 -0.0025970430602232277 0 -0.0029350137955441355 -0.0025458437381800014 0 -0.0027469180646372852 -0.0022092331752226707 0 -0.0031645307172989473 -0.0022764325685398295 0 -0.0024660870118896586 -0.0024949853424766247 0 -0.0029350137955441355 -0.0025458437381800014 0 -0.0027469180646372852 -0.0022092331752226707 0 -0.0027062265654430313 -0.0019031726380259193 0 -0.0020854523774039156 -0.0020964039914188192 0 -0.0028854753971941033 -0.0014409044316137918 0 -0.0027469180646372852 -0.0022092331752226707 0 -0.0030930117335274459 -0.0018723793568112257 0 -0.0027062265654430313 -0.0019031726380259193 0 -0.0031645307172989473 -0.0022764325685398295 0 -0.0030930117335274459 -0.0018723793568112257 0 -0.0034639406406967699 -0.0020756796743727417 0 -0.0027469180646372852 -0.0022092331752226707 0 -0.0031645307172989473 -0.0022764325685398295 0 -0.0030930117335274459 -0.0018723793568112257 0 -0.0030930117335274459 -0.0018723793568112257 0 -0.0034745166985103932 -0.0017267640010399864 0 -0.0028854753971941033 -0.0014409044316137918 0 -0.0030930117335274459 -0.0018723793568112257 0 -0.0027062265654430313 -0.0019031726380259193 0 -0.0028854753971941033 -0.0014409044316137918 0 0.00058381464692506299 -0.0042209214071322427 0 0.0005102821431238765 -0.0043557106965144785 0 0.00025641773936150463 -0.0040930465555535167 0 -0.00096055169719166261 -0.0030227544836922715 0 -0.00043426587602386931 -0.0037207456794209138 0 0.00067397876815965577 -0.0043868566327953289 0 0.00058381464692506299 -0.0042209214071322427 0 0.0005102821431238765 -0.0043557106965144785 0 -0.0027469180646372852 -0.0022092331752226707 0 -0.0027062265654430313 -0.0019031726380259193 0 -0.0020854523774039156 -0.0020964039914188192 0 -0.0087659095303620569 -0.0067289870091032621 0 -0.0089361178621441342 -0.0066433130411430522 0 -0.0088273452466058125 -0.0069360785025839103 0 -0.003772862685887089 -0.0027703998241313484 0 -0.0034782097198327419 -0.0025970430602232277 0 -0.0040668884113078032 -0.0019194807746386973 0 -0.0055801080424966228 -0.0047305157212213858 0 -0.006910560108675648 -0.0042289814055457278 0 -0.0055801080424966228 -0.0047305157212213858 0 -0.0051364800947618083 -0.00378570253923814 0 -0.003772862685887089 -0.0027703998241313484 0 -0.0034782097198327419 -0.0025970430602232277 0 -0.0037337293541879358 -0.0030271951629239971 0 -0.0033968327667351196 -0.0029539332543484561 0 -0.0034782097198327419 -0.0025970430602232277 0 -0.0037337293541879358 -0.0030271951629239971 0 -0.0031645307172989473 -0.0022764325685398295 0 -0.0034782097198327419 -0.0025970430602232277 0 -0.0034639406406967699 -0.0020756796743727417 0 -0.0034782097198327419 -0.0025970430602232277 0 -0.0034639406406967699 -0.0020756796743727417 0 -0.0040668884113078032 -0.0019194807746386973 0 -0.0030930117335274459 -0.0018723793568112257 0 -0.0034639406406967699 -0.0020756796743727417 0 -0.0034745166985103932 -0.0017267640010399864 0 -0.0034639406406967699 -0.0020756796743727417 0 -0.0034745166985103932 -0.0017267640010399864 0 -0.0040668884113078032 -0.0019194807746386973 0 -0.0087659095303620569 -0.0067289870091032621 0 -0.0088273452466058125 -0.0069360785025839103 0 -0.0085842456218066607 -0.0068774972953747539 0 -0.0040668884113078032 -0.0019194807746386973 0 -0.0037398057201033668 -0.0012343913275350994 0 -0.0044757319110553286 -0.0010136778023629989 0 -0.006910560108675648 -0.0042289814055457278 0 -0.0043215572802667102 -0.0045591245595341025 0 -0.0034745166985103932 -0.0017267640010399864 0 -0.0037398057201033668 -0.0012343913275350994 0 -0.0028854753971941033 -0.0014409044316137918 0 -0.00055847263870828804 -0.0047529086204839231 0 -0.00056043290132989248 -0.0047635407360983326 0 -0.00057544564136681659 -0.0047205112949047249 0 -0.00213989198819787 -0.0028092706309060626 0 -0.00043426587602386931 -0.0037207456794209138 0 -0.0034745166985103932 -0.0017267640010399864 0 -0.0040668884113078032 -0.0019194807746386973 0 -0.0037398057201033668 -0.0012343913275350994 0 0.0021388773830280363 -0.0055327236716394262 0 0.0017786551927729038 -0.0056220479582678867 0 0.0033827131142593102 -0.0062102264466381667 0 0.0037947892646003159 -0.0064223296265887722 0 0.0036540330006290117 -0.0065126614677476864 0 -0.00055847263870828804 -0.0047529086204839231 0 -0.00056043290132989248 -0.0047635407360983326 0 -0.00054548955734221819 -0.0047936193911881112 0 0.0033386931741274392 -0.0059165223085831664 0 0.003247819983304593 -0.0065020016318053167 0 0.0036540330006290117 -0.0065126614677476864 0 0.0021388773830280363 -0.0055327236716394262 0 0.0038712288362725972 -0.0067376061183937117 0 -0.00213989198819787 -0.0028092706309060626 0 -0.0043215572802667102 -0.0045591245595341025 0 -0.00055847263870828804 -0.0047529086204839231 0 -0.00054548955734221819 -0.0047936193911881112 0 -0.00054042708541649095 -0.0047829344402577625 0 0.001741742039321478 -0.00473001508015021 0 0.0020144428118757901 -0.0050122730318839922 0 0.0021369597230726069 -0.0049076563927861281 0 0.0015465521045789799 -0.0048867970616230634 0 0.0023692962407894013 -0.0052362456058729486 0 0.0015040141838964459 -0.0046211112638249226 0 -0.00043426587602386931 -0.0037207456794209138 0 0.0015467891176065959 -0.0048833939787091933 0 0.001741742039321478 -0.00473001508015021 0 0.0020144428118757901 -0.0050122730318839922 0 0.0015467891176065959 -0.0048833939787091933 0 0.0025133321250248989 -0.0053957404115979627 0 0.0020184577402590446 -0.0054504065787858488 0 0.0025133321250248989 -0.0053957404115979627 0 0.0020184577402590446 -0.0054504065787858488 0 0.0023116892713535538 -0.0058766731959496365 0 0.0017098845465892091 -0.0053532077303904309 0 0.001809336957434988 -0.0056970065452016869 0 0.0020184577402590446 -0.0054504065787858488 0 0.0021388773830280363 -0.0055327236716394262 0 0.0023692962407894013 -0.0052362456058729486 0 0.0023362634602097161 -0.0051540001165689244 0 0.0020144428118757901 -0.0050122730318839922 0 0.0021369597230726069 -0.0049076563927861281 0 0.0021388773830280363 -0.0055327236716394262 0 -0.00043426587602386931 -0.0037207456794209138 0 0.0033386931741274392 -0.0059165223085831664 0 0.0025133321250248989 -0.0053957404115979627 0 0.0028116835151626067 -0.0060428544139566305 0 0.0025133321250248989 -0.0053957404115979627 0 0.0028116835151626067 -0.0060428544139566305 0 0.0023116892713535538 -0.0058766731959496365 0 0.0028116835151626067 -0.0060428544139566305 0 0.0026131918535042911 -0.0064970462366132544 0 0.003247819983304593 -0.0065020016318053167 0 0.0033386931741274392 -0.0059165223085831664 0 0.0028116835151626067 -0.0060428544139566305 0 0.003247819983304593 -0.0065020016318053167 0 0.0028116835151626067 -0.0060428544139566305 0 0.0023116892713535538 -0.0058766731959496365 0 0.0026131918535042911 -0.0064970462366132544 0 0.0023116892713535538 -0.0058766731959496365 0 0.0019499738633424969 -0.0062144490435424677 0 0.0026131918535042911 -0.0064970462366132544 0 0.001809336957434988 -0.0056970065452016869 0 0.0020184577402590446 -0.0054504065787858488 0 0.0023116892713535538 -0.0058766731959496365 0 0.001809336957434988 -0.0056970065452016869 0 0.0023116892713535538 -0.0058766731959496365 0 0.0019499738633424969 -0.0062144490435424677 0 0.0019499738633424969 -0.0062144490435424677 0 0.0021214836309464153 -0.007125685918493674 0 0.0026131918535042911 -0.0064970462366132544 0 0.0014943212048847754 -0.006486351051847427 0 0.0019499738633424969 -0.0062144490435424677 0 0.0021214836309464153 -0.007125685918493674 0 0.001661483172931882 -0.0083301602154214668 0 0.0021214836309464153 -0.007125685918493674 0 0.0026587826152085557 -0.0078949983515914802 0 0.0031892863090482678 -0.0071003579615330588 0 0.0034786951877900196 -0.0080434770931411496 0 0.0026587826152085557 -0.0078949983515914802 0 0.0021214836309464153 -0.007125685918493674 0 0.0031892863090482678 -0.0071003579615330588 0 0.0026587826152085557 -0.0078949983515914802 0 0.0021214836309464153 -0.007125685918493674 0 0.0031892863090482678 -0.0071003579615330588 0 0.0026131918535042911 -0.0064970462366132544 0 0.0031892863090482678 -0.0071003579615330588 0 0.0026131918535042911 -0.0064970462366132544 0 0.003247819983304593 -0.0065020016318053167 0 0.003247819983304593 -0.0065020016318053167 0 0.0036540330006290117 -0.0065126614677476864 0 0.0035939294504619629 -0.0068668156795611496 0 0.0031892863090482678 -0.0071003579615330588 0 0.003247819983304593 -0.0065020016318053167 0 0.0035939294504619629 -0.0068668156795611496 0 0.0017786551927729038 -0.0056220479582678867 0 -0.00020752731623909518 -0.00661265408776757 0 0.0037947892646003159 -0.0064223296265887722 0 0.0038467639224586008 -0.0067882464613960658 0 0.0041480210618447845 -0.0066625804694977276 0 0.0037947892646003159 -0.0064223296265887722 0 0.0036540330006290117 -0.0065126614677476864 0 0.0038467639224586008 -0.0067882464613960658 0 0.0036540330006290117 -0.0065126614677476864 0 0.0035939294504619629 -0.0068668156795611496 0 0.0038467639224586008 -0.0067882464613960658 0 0.0038249016630589254 -0.0073777745723458393 0 0.0050901740572134608 -0.0078710073980330381 0 0.0037437860841098443 -0.0071494201821072937 0 0.0041198364582801005 -0.0072717981504071966 0 0.004037267365745909 -0.0069956238562192486 0 0.0038467639224586008 -0.0067882464613960658 0 0.0037437860841098443 -0.0071494201821072937 0 0.004037267365745909 -0.0069956238562192486 0 0.0035939294504619629 -0.0068668156795611496 0 0.0038467639224586008 -0.0067882464613960658 0 0.0037437860841098443 -0.0071494201821072937 0 0.0031892863090482678 -0.0071003579615330588 0 0.0041682378830011245 -0.0076945641511321564 0 0.0034786951877900196 -0.0080434770931411496 0 0.0031892863090482678 -0.0071003579615330588 0 0.0035939294504619629 -0.0068668156795611496 0 0.0037437860841098443 -0.0071494201821072937 0 0.0032735593741135107 -0.0071302447599190131 0 0.0038249016630589254 -0.0073777745723458393 0 0.0041682378830011245 -0.0076945641511321564 0 0.0034786951877900196 -0.0080434770931411496 0 0.00428070620036251 -0.008542391343637018 0 0.0037167393601163471 -0.0087338909864324576 0 0.0034786951877900196 -0.0080434770931411496 0 0.0029044431820204049 -0.0089043531880935063 0 0.0037167393601163471 -0.0087338909864324576 0 0.0034786951877900196 -0.0080434770931411496 0 0.00428070620036251 -0.008542391343637018 0 0.0041682378830011245 -0.0076945641511321564 0 0.00428070620036251 -0.008542391343637018 0 0.0050753018928421621 -0.0082274483454005936 0 0.00428070620036251 -0.008542391343637018 0 0.0042055397854441996 -0.0094791909671797549 0 0.005028591419357689 -0.0090381525577218885 0 0.0037167393601163471 -0.0087338909864324576 0 0.00428070620036251 -0.008542391343637018 0 0.0042055397854441996 -0.0094791909671797549 0 0.0037167393601163471 -0.0087338909864324576 0 0.0042055397854441996 -0.0094791909671797549 0 0.0029044431820204049 -0.0089043531880935063 0 0.0016822039914567181 -0.026311605881508958 0 0.0019648791455118288 -0.026134176402217869 0 0.0011112006165181886 -0.025577880680070924 0 0.0029996169709717111 -0.017737843355339955 0 0.0020334676862947066 -0.017250469865286253 0 0.0016822039914567181 -0.026311605881508958 0 0.0011112006165181886 -0.025577880680070924 0 0.00072523676072208947 -0.02621914164393243 0 -0.00041602519848881213 -0.024867302143866638 0 0.0011112006165181886 -0.025577880680070924 0 -7.8378211173180722e-05 -0.025926662445765875 0 0.0011112006165181886 -0.025577880680070924 0 0.00072523676072208947 -0.02621914164393243 0 -7.8378211173180722e-05 -0.025926662445765875 0 0.00053531847724970244 -0.016620916702738287 0 0.0020334676862947066 -0.017250469865286253 0 0.001661483172931882 -0.0083301602154214668 0 0.0029044431820204049 -0.0089043531880935063 0 0.0026587826152085557 -0.0078949983515914802 0 0.0034786951877900196 -0.0080434770931411496 0 0.0029044431820204049 -0.0089043531880935063 0 0.0026587826152085557 -0.0078949983515914802 0 -0.0080092675803695029 -0.0050646524723816999 0 -0.0083095055298652628 -0.0056033138714579765 0 -0.0076442310901806169 -0.0059594284667683428 0 -0.0016453098221070987 -0.007177128635193806 0 -0.0016151252789648827 -0.0071765727491333812 0 -0.0016157282113422628 -0.0072098175976082583 0 -0.0016151252789648827 -0.0071765727491333812 0 -0.0015907235085413733 -0.007182479202791912 0 -0.0016157282113422628 -0.0072098175976082583 0 -0.004904424487903067 -0.0075876968179281433 0 -0.0046887662154432193 -0.0063926061461935593 0 -0.0080092675803695029 -0.0050646524723816999 0 -0.0083095055298652628 -0.0056033138714579765 0 -0.0085819712548467712 -0.0050591710387753366 0 -0.004904424487903067 -0.0075876968179281433 0 -0.007865395526493929 -0.0083029545800627994 0 -0.004904424487903067 -0.0075876968179281433 0 -0.00073905458152195955 -0.0087556976735217625 0 -0.01018683219960013 -0.0059853320471245555 0 -0.007865395526493929 -0.0083029545800627994 0 -0.0083095055298652628 -0.0056033138714579765 0 -0.008866238605597352 -0.0056906905422242603 0 -0.0085819712548467712 -0.0050591710387753366 0 -0.0083095055298652628 -0.0056033138714579765 0 -0.008866238605597352 -0.0056906905422242603 0 -0.0086653056734844833 -0.0060122734913972123 0 -0.0096045542779120158 -0.0056946597777104806 0 -0.008866238605597352 -0.0056906905422242603 0 -0.0085819712548467712 -0.0050591710387753366 0 -0.0096045542779120158 -0.0056946597777104806 0 -0.008866238605597352 -0.0056906905422242603 0 -0.0091805799088233112 -0.0061228591318734042 0 -0.007865395526493929 -0.0083029545800627994 0 -0.0051294437692381177 -0.010823763312873325 0 -0.0066580171790257808 -0.01266874998914473 0 -0.0060577553515710888 -0.013026745292886523 0 -0.0061768599015448707 -0.012682195915522396 0 -0.0060577553515710888 -0.013026745292886523 0 -0.0061768599015448707 -0.012682195915522396 0 -0.0057896627216755606 -0.01284433309243318 0 -0.0059552136784025017 -0.012281896733636015 0 -0.0061768599015448707 -0.012682195915522396 0 -0.0057717843080566508 -0.01284693482745564 0 -0.0057921192549749145 -0.012159062722901686 0 -0.0051294437692381177 -0.010823763312873325 0 -0.0066580171790257808 -0.01266874998914473 0 -0.0063368243508312039 -0.012278817718226923 0 -0.0061768599015448707 -0.012682195915522396 0 0.00035749916443391413 -0.012063184922036752 0 -0.0007481501996545603 -0.011692033257152673 0 -0.00026055678385301673 -0.010489893958869843 0 -0.0007481501996545603 -0.011692033257152673 0 -0.0010626115699354504 -0.010113793278232091 0 -0.0014755880667254371 -0.01011081885714262 0 -0.0007481501996545603 -0.011692033257152673 0 -0.0010626115699354504 -0.010113793278232091 0 -0.00026055678385301673 -0.010489893958869843 0 -0.0027902144606085826 -0.012171965214161572 0 -0.004008676102236897 -0.010571516725052941 0 0.0026016639575019099 -0.010111222399674385 0 0.0024334942204144992 -0.0092375453352030457 0 -0.0059552136784025017 -0.012281896733636015 0 -0.0057717843080566508 -0.01284693482745564 0 -0.0057056035067593013 -0.012874380000741651 0 -0.0046658946499917977 -0.0090134887792068085 0 -0.0069250835018268338 -0.0090131229142818778 0 -0.0053801955615314879 -0.0080058744239604619 0 -0.004904424487903067 -0.0075876968179281433 0 -0.004008676102236897 -0.010571516725052941 0 -0.0046658946499917977 -0.0090134887792068085 0 -0.0053801955615314879 -0.0080058744239604619 0 -0.0050034686201717669 -0.0081754943101002026 0 -0.0051294437692381177 -0.010823763312873325 0 -0.004008676102236897 -0.010571516725052941 0 -0.0039600159191314635 -0.0093797546371995125 0 -0.0020365990546212737 -0.0093727782984014303 0 -0.0043870179828703702 -0.0083255641697044455 0 -0.00073905458152195955 -0.0087556976735217625 0 -0.004008676102236897 -0.010571516725052941 0 0.0054700687300225856 -0.010026312772890199 0 0.005877770977168191 -0.009305370218443949 0 0.0055560553876095094 -0.0091483507144373352 0 0.0064194184250865455 -0.0096978984917449017 0 0.005877770977168191 -0.009305370218443949 0 0.0060405940724223527 -0.0088313867962480745 0 0.005877770977168191 -0.009305370218443949 0 0.0055560553876095094 -0.0091483507144373352 0 0.0058988922203337263 -0.0088299268093360618 0 0.0055560553876095094 -0.0091483507144373352 0 0.0058988922203337263 -0.0088299268093360618 0 0.0055071683794385038 -0.0087899405998775691 0 0.005877770977168191 -0.009305370218443949 0 0.0060405940724223527 -0.0088313867962480745 0 0.0058988922203337263 -0.0088299268093360618 0 0.0054700687300225856 -0.010026312772890199 0 0.0042055397854441996 -0.0094791909671797549 0 0.005028591419357689 -0.0090381525577218885 0 0.0054700687300225856 -0.010026312772890199 0 0.0055560553876095094 -0.0091483507144373352 0 0.005028591419357689 -0.0090381525577218885 0 0.0055560553876095094 -0.0091483507144373352 0 0.005028591419357689 -0.0090381525577218885 0 0.0055071683794385038 -0.0087899405998775691 0 0.005028591419357689 -0.0090381525577218885 0 0.0050753018928421621 -0.0082274483454005936 0 0.0055071683794385038 -0.0087899405998775691 0 0.00428070620036251 -0.008542391343637018 0 0.005028591419357689 -0.0090381525577218885 0 0.0050753018928421621 -0.0082274483454005936 0 0.0050753018928421621 -0.0082274483454005936 0 0.0059716121881538331 -0.0087107424283434046 0 0.0055071683794385038 -0.0087899405998775691 0 0.0050901740572134608 -0.0078710073980330381 0 0.0023898550620819687 -0.0082647056385055425 0 0.0041198364582801005 -0.0072717981504071966 0 0.0044212034082887304 -0.0074215860218019335 0 0.0042938760010729415 -0.0070804241782164625 0 -0.0015907235085413733 -0.007182479202791912 0 -0.0015592194461085159 -0.0072190653335465829 0 -0.0016157282113422628 -0.0072098175976082583 0 0.0023898550620819687 -0.0082647056385055425 0 0.0013888887957646655 -0.0070679288907887989 0 0.0059716121881538331 -0.0087107424283434046 0 0.0058988922203337263 -0.0088299268093360618 0 0.0055071683794385038 -0.0087899405998775691 0 -0.00073905458152195955 -0.0087556976735217625 0 0.0024334942204144992 -0.0092375453352030457 0 0.0023898550620819687 -0.0082647056385055425 0 0.0024334942204144992 -0.0092375453352030457 0 0.00058295448243595349 -0.0085009608431470245 0 0.0022068357213960305 -0.0092278250172499899 0 0.0018545376570026527 -0.0084981011908789629 0 -0.00073905458152195955 -0.0087556976735217625 0 0.0023898550620819687 -0.0082647056385055425 0 0.0024334942204144992 -0.0092375453352030457 0 0.0033833742948433218 -0.0092056233501311736 0 0.0059716121881538331 -0.0087107424283434046 0 0.0060199291790500745 -0.0088276909283631754 0 0.0058988922203337263 -0.0088299268093360618 0 -0.0073912340311947412 -0.0068179785520998092 0 -0.0072560340744385844 -0.0068750840401987654 0 -0.0076442310901806169 -0.0059594284667683428 0 -0.0047051334524612718 -0.0069759364317683262 0 -0.0046887662154432193 -0.0063926061461935593 0 -0.0015592194461085159 -0.0072190653335465829 0 -0.0015951612322786489 -0.0072505430370658581 0 -0.0016157282113422628 -0.0072098175976082583 0 0.0042938760010729415 -0.0070804241782164625 0 0.004037267365745909 -0.0069956238562192486 0 0.0041480210618447845 -0.0066625804694977276 0 0.0041198364582801005 -0.0072717981504071966 0 0.0042938760010729415 -0.0070804241782164625 0 0.004037267365745909 -0.0069956238562192486 0 0.0013888887957646655 -0.0070679288907887989 0 -0.00020752731623909518 -0.00661265408776757 0 0.0038467639224586008 -0.0067882464613960658 0 0.004037267365745909 -0.0069956238562192486 0 0.0041480210618447845 -0.0066625804694977276 0 -0.0047051334524612718 -0.0069759364317683262 0 -0.0069437077811159041 -0.007305177172114893 0 -0.0074639241471537877 -0.0071846050642842213 0 -0.0078176803565539205 -0.0074270216814524802 0 -0.0068963626150168296 -0.0077617560592338503 0 -0.0072542426117921275 -0.0068764036304723658 0 -0.0074639241471537877 -0.0071846050642842213 0 -0.0068963626150168296 -0.0077617560592338503 0 -0.004050602733955023 -0.0064671817974395239 0 -0.0038847923528861077 -0.0065523527725733404 0 -0.0039470189663654252 -0.0063875268311027354 0 -0.00020752731623909518 -0.00661265408776757 0 -0.0047051334524612718 -0.0069759364317683262 0 -0.0015592194461085159 -0.0072190653335465829 0 -0.0015194405758046014 -0.0072701550877592707 0 -0.0015951612322786489 -0.0072505430370658581 0 -0.0073912340311947412 -0.0068179785520998092 0 -0.0072542426117921275 -0.0068764036304723658 0 -0.0074639241471537877 -0.0071846050642842213 0 -0.0052658771587819966 -0.0067983466477312821 0 -0.0047051334524612718 -0.0069759364317683262 0 -0.0074639241471537877 -0.0071846050642842213 0 -0.0078176803565539205 -0.0074270216814524802 0 -0.0078763020411512161 -0.0069392063438559271 0 -0.0082120980285377825 -0.0073399875511253416 0 -0.0086395443086809721 -0.0071280093633096812 0 -0.0078176803565539205 -0.0074270216814524802 0 -0.0078763020411512161 -0.0069392063438559271 0 -0.0087404066089808181 -0.0070612589002935601 0 -0.0083368422661407038 -0.0073646973426289277 0 -0.0087404066089808181 -0.0070612589002935601 0 -0.0084602032193465126 -0.0075955439573549485 0 -0.0078763020411512161 -0.0069392063438559271 0 -0.0081102655874148253 -0.0065417018094331685 0 -0.0087404066089808181 -0.0070612589002935601 0 -0.0073912340311947412 -0.0068179785520998092 0 -0.0074639241471537877 -0.0071846050642842213 0 -0.0078763020411512161 -0.0069392063438559271 0 -0.0073912340311947412 -0.0068179785520998092 0 -0.0078763020411512161 -0.0069392063438559271 0 -0.0078345032966611796 -0.0064593358362134354 0 -0.0073912340311947412 -0.0068179785520998092 0 -0.0078345032966611796 -0.0064593358362134354 0 -0.0076442310901806169 -0.0059594284667683428 0 -0.0078763020411512161 -0.0069392063438559271 0 -0.0078345032966611796 -0.0064593358362134354 0 -0.0081102655874148253 -0.0065417018094331685 0 -0.0081102655874148253 -0.0065417018094331685 0 -0.0082075374037171214 -0.0061746949378326645 0 -0.0086804144366362853 -0.0064789772860269698 0 -0.0078345032966611796 -0.0064593358362134354 0 -0.0081102655874148253 -0.0065417018094331685 0 -0.0082075374037171214 -0.0061746949378326645 0 -0.0083095055298652628 -0.0056033138714579765 0 -0.0082075374037171214 -0.0061746949378326645 0 -0.0076442310901806169 -0.0059594284667683428 0 -0.0078345032966611796 -0.0064593358362134354 0 -0.0082075374037171214 -0.0061746949378326645 0 -0.0076442310901806169 -0.0059594284667683428 0 -0.0091805799088233112 -0.0061228591318734042 0 -0.0086653056734844833 -0.0060122734913972123 0 -0.0086804144366362853 -0.0064789772860269698 0 -0.008866238605597352 -0.0056906905422242603 0 -0.0091805799088233112 -0.0061228591318734042 0 -0.0086653056734844833 -0.0060122734913972123 0 -0.0082075374037171214 -0.0061746949378326645 0 -0.0086653056734844833 -0.0060122734913972123 0 -0.0086804144366362853 -0.0064789772860269698 0 -0.0083095055298652628 -0.0056033138714579765 0 -0.0082075374037171214 -0.0061746949378326645 0 -0.0086653056734844833 -0.0060122734913972123 0 -0.0093915064468309186 -0.0066577061011564333 0 -0.0091805799088233112 -0.0061228591318734042 0 -0.0086804144366362853 -0.0064789772860269698 0 -0.0093915064468309186 -0.0066577061011564333 0 -0.0086804144366362853 -0.0064789772860269698 0 -0.0087404066089808181 -0.0070612589002935601 0 -0.0095191740003936313 -0.0071967827434179206 0 -0.0093135884664991338 -0.0078020393720558004 0 -0.0087404066089808181 -0.0070612589002935601 0 -0.0093915064468309186 -0.0066577061011564333 0 -0.0095191740003936313 -0.0071967827434179206 0 -0.0087404066089808181 -0.0070612589002935601 0 -0.0081102655874148253 -0.0065417018094331685 0 -0.0086804144366362853 -0.0064789772860269698 0 -0.0087404066089808181 -0.0070612589002935601 0 -0.0093135884664991338 -0.0078020393720558004 0 -0.0087404066089808181 -0.0070612589002935601 0 -0.0084602032193465126 -0.0075955439573549485 0 -0.0083368422661407038 -0.0073646973426289277 0 -0.0084602032193465126 -0.0075955439573549485 0 -0.0083951748257569316 -0.0073997890888528074 0 -0.0083368422661407038 -0.0073646973426289277 0 -0.0083951748257569316 -0.0073997890888528074 0 -0.0084234031694310294 -0.0073779721891523535 0 -0.0084602032193465126 -0.0075955439573549485 0 -0.0083951748257569316 -0.0073997890888528074 0 -0.0083984980886217982 -0.0073784739093564434 0 -0.0083984980886217982 -0.0073784739093564434 0 -0.0084111735024562286 -0.0072450358426934258 0 -0.0082934187853217611 -0.0072030425124716448 0 -0.0084602032193465126 -0.0075955439573549485 0 -0.0083984980886217982 -0.0073784739093564434 0 -0.0082934187853217611 -0.0072030425124716448 0 -0.0083951748257569316 -0.0073997890888528074 0 -0.0083984980886217982 -0.0073784739093564434 0 -0.0084111735024562286 -0.0072450358426934258 0 -0.0084111735024562286 -0.0072450358426934258 0 -0.0082934187853217611 -0.0072030425124716448 0 -0.0083706586810427044 -0.0070865078461762616 0 -0.0093135884664991338 -0.0078020393720558004 0 -0.0084602032193465126 -0.0075955439573549485 0 -0.0093505528967901159 -0.0088446950650874299 0 -0.0084587246635649729 -0.0076284473666234469 0 -0.0086779899583751801 -0.0078670253094654304 0 -0.0084602032193465126 -0.0075955439573549485 0 -0.0082934187853217611 -0.0072030425124716448 0 -0.0079643127053002291 -0.0070668804712564941 0 -0.0086789464598584585 -0.0073040523035070191 0 -0.0084760730756547886 -0.0073799492048659777 0 -0.0084644116947725136 -0.0074065883684511996 0 -0.004050602733955023 -0.0064671817974395239 0 -0.0041292375689520973 -0.0062996242967615869 0 -0.0039470189663654252 -0.0063875268311027354 0 -0.00054548955734221819 -0.0047936193911881112 0 -0.00052011872323576259 -0.0048324616584661424 0 -0.00054042708541649095 -0.0047829344402577625 0 -0.0086789464598584585 -0.0073040523035070191 0 -0.008541414785447914 -0.007279715253319447 0 -0.0084760730756547886 -0.0073799492048659777 0 -0.0043215572802667102 -0.0045591245595341025 0 -0.0069437077811159041 -0.007305177172114893 0 -0.00020752731623909518 -0.00661265408776757 0 -0.0043215572802667102 -0.0045591245595341025 0 -0.0082120980285377825 -0.0073399875511253416 0 -0.0069437077811159041 -0.007305177172114893 0 -0.0083368422661407038 -0.0073646973426289277 0 -0.0084601715291213655 -0.0074012104226882569 0 -0.0084234031694310294 -0.0073779721891523535 0 -0.0084760730756547886 -0.0073799492048659777 0 -0.0084234031694310294 -0.0073779721891523535 0 -0.0084654431655616959 -0.0072815096895412611 0 -0.008541414785447914 -0.007279715253319447 0 -0.0084760730756547886 -0.0073799492048659777 0 -0.0084654431655616959 -0.0072815096895412611 0 -0.0084760730756547886 -0.0073799492048659777 0 -0.0084601715291213655 -0.0074012104226882569 0 -0.0084234031694310294 -0.0073779721891523535 0 -0.0070508930360121133 -0.0072454014611744045 0 -0.0069437077811159041 -0.007305177172114893 0 -0.0083951748257569316 -0.0073997890888528074 0 -0.0084234031694310294 -0.0073779721891523535 0 -0.0084654431655616959 -0.0072815096895412611 0 -0.0084111735024562286 -0.0072450358426934258 0 -0.0084676500489005626 -0.0070852080923282674 0 -0.0084654431655616959 -0.0072815096895412611 0 -0.0083951748257569316 -0.0073997890888528074 0 -0.0084111735024562286 -0.0072450358426934258 0 -0.0084654431655616959 -0.0072815096895412611 0 -0.0084111735024562286 -0.0072450358426934258 0 -0.0084676500489005626 -0.0070852080923282674 0 -0.0083706586810427044 -0.0070865078461762616 0 -0.0084676500489005626 -0.0070852080923282674 0 -0.0084654431655616959 -0.0072815096895412611 0 -0.0085625227181989044 -0.0071537341248697857 0 -0.008541414785447914 -0.007279715253319447 0 -0.0084654431655616959 -0.0072815096895412611 0 -0.0085625227181989044 -0.0071537341248697857 0 -0.0088273452466058125 -0.0069360785025839103 0 -0.0086789464598584585 -0.0073040523035070191 0 -0.0085625227181989044 -0.0071537341248697857 0 -0.0086789464598584585 -0.0073040523035070191 0 -0.008541414785447914 -0.007279715253319447 0 -0.0085625227181989044 -0.0071537341248697857 0 -0.0084676500489005626 -0.0070852080923282674 0 -0.0085625227181989044 -0.0071537341248697857 0 -0.0085842456218066607 -0.0068774972953747539 0 -0.0088273452466058125 -0.0069360785025839103 0 -0.0085625227181989044 -0.0071537341248697857 0 -0.0085842456218066607 -0.0068774972953747539 0 -0.0084676500489005626 -0.0070852080923282674 0 -0.0085842456218066607 -0.0068774972953747539 0 -0.0084142801953291328 -0.0069071213851753764 0 -0.0084676500489005626 -0.0070852080923282674 0 -0.0084142801953291328 -0.0069071213851753764 0 -0.0083706586810427044 -0.0070865078461762616 0 -0.0084594921772818688 -0.0066714627106042321 0 -0.0083111478947104529 -0.0066986924909741251 0 -0.0083264403576056561 -0.0064481787041550213 0 -0.0085842456218066607 -0.0068774972953747539 0 -0.0084142801953291328 -0.0069071213851753764 0 -0.0084594921772818688 -0.0066714627106042321 0 -0.0084142801953291328 -0.0069071213851753764 0 -0.0084594921772818688 -0.0066714627106042321 0 -0.0083111478947104529 -0.0066986924909741251 0 -0.0085842456218066607 -0.0068774972953747539 0 -0.0084594921772818688 -0.0066714627106042321 0 -0.0086028436401382677 -0.0066228867697084469 0 -0.0087659095303620569 -0.0067289870091032621 0 -0.0085842456218066607 -0.0068774972953747539 0 -0.0086028436401382677 -0.0066228867697084469 0 -0.0080975153347888594 -0.0069203262093761138 0 -0.0082613559183562432 -0.0069863096703329771 0 -0.0081361010289253931 -0.0067190064204570264 0 -0.0080975153347888594 -0.0069203262093761138 0 -0.0079643127053002291 -0.0070668804712564941 0 -0.0080068085373875154 -0.0067819619576167554 0 -0.0082934187853217611 -0.0072030425124716448 0 -0.0080975153347888594 -0.0069203262093761138 0 -0.0082613559183562432 -0.0069863096703329771 0 -0.0082934187853217611 -0.0072030425124716448 0 -0.0080975153347888594 -0.0069203262093761138 0 -0.0079643127053002291 -0.0070668804712564941 0 -0.0084142801953291328 -0.0069071213851753764 0 -0.0082613559183562432 -0.0069863096703329771 0 -0.0083111478947104529 -0.0066986924909741251 0 -0.0082934187853217611 -0.0072030425124716448 0 -0.0082613559183562432 -0.0069863096703329771 0 -0.0083706586810427044 -0.0070865078461762616 0 -0.0084142801953291328 -0.0069071213851753764 0 -0.0082613559183562432 -0.0069863096703329771 0 -0.0083706586810427044 -0.0070865078461762616 0 -0.0082613559183562432 -0.0069863096703329771 0 -0.0083111478947104529 -0.0066986924909741251 0 -0.0081361010289253931 -0.0067190064204570264 0 -0.0083111478947104529 -0.0066986924909741251 0 -0.0081361010289253931 -0.0067190064204570264 0 -0.0081636657926983814 -0.0064147072483429404 0 -0.0080975153347888594 -0.0069203262093761138 0 -0.0081361010289253931 -0.0067190064204570264 0 -0.0080068085373875154 -0.0067819619576167554 0 -0.0081361010289253931 -0.0067190064204570264 0 -0.0080068085373875154 -0.0067819619576167554 0 -0.0080056392496644681 -0.0065618430328595184 0 -0.0080056392496644681 -0.0065618430328595184 0 -0.0081636657926983814 -0.0064147072483429404 0 -0.0080045489863303666 -0.006347794706689054 0 -0.0081361010289253931 -0.0067190064204570264 0 -0.0080056392496644681 -0.0065618430328595184 0 -0.0081636657926983814 -0.0064147072483429404 0 -0.0083111478947104529 -0.0066986924909741251 0 -0.0081636657926983814 -0.0064147072483429404 0 -0.0083264403576056561 -0.0064481787041550213 0 -0.0081636657926983814 -0.0064147072483429404 0 -0.0082108634443388111 -0.0061573714155837341 0 -0.0083264403576056561 -0.0064481787041550213 0 -0.0081454381885089546 -0.006207743995303717 0 -0.0080045489863303666 -0.006347794706689054 0 -0.0079895577797932348 -0.0060608788599432247 0 -0.0081636657926983814 -0.0064147072483429404 0 -0.0082108634443388111 -0.0061573714155837341 0 -0.0081454381885089546 -0.006207743995303717 0 -0.0081636657926983814 -0.0064147072483429404 0 -0.0081454381885089546 -0.006207743995303717 0 -0.0080045489863303666 -0.006347794706689054 0 -0.0086028436401382677 -0.0066228867697084469 0 -0.0084969531828410425 -0.0064414208319967413 0 -0.0086786719311728877 -0.0063165597015006607 0 -0.0084594921772818688 -0.0066714627106042321 0 -0.0086028436401382677 -0.0066228867697084469 0 -0.0084969531828410425 -0.0064414208319967413 0 -0.0084594921772818688 -0.0066714627106042321 0 -0.0084969531828410425 -0.0064414208319967413 0 -0.0083264403576056561 -0.0064481787041550213 0 -0.0084969531828410425 -0.0064414208319967413 0 -0.0083264403576056561 -0.0064481787041550213 0 -0.0083174060326621814 -0.0062344708055262626 0 -0.0082108634443388111 -0.0061573714155837341 0 -0.0083264403576056561 -0.0064481787041550213 0 -0.0083174060326621814 -0.0062344708055262626 0 -0.007199059157000547 -0.0055560315396866707 0 -0.0069583978829945142 -0.0051130521810333696 0 -0.0083174060326621814 -0.0062344708055262626 0 -0.008270972454378283 -0.0060390001369981031 0 -0.0086786719311728877 -0.0063165597015006607 0 -0.0084969531828410425 -0.0064414208319967413 0 -0.0083174060326621814 -0.0062344708055262626 0 -0.0086786719311728877 -0.0063165597015006607 0 -0.0083174060326621814 -0.0062344708055262626 0 -0.008270972454378283 -0.0060390001369981031 0 -0.0081073891938796723 -0.0060210363718173178 0 -0.0082108634443388111 -0.0061573714155837341 0 -0.0083174060326621814 -0.0062344708055262626 0 -0.0081073891938796723 -0.0060210363718173178 0 -0.007199059157000547 -0.0055560315396866707 0 -0.0076051324877597316 -0.0063518648305563386 0 -0.0061603599149503679 -0.0049739051150599674 0 -0.0075597536092820699 -0.006361511058728825 0 -0.0066600352562354425 -0.006671165723871152 0 -0.008270972454378283 -0.0060390001369981031 0 -0.0081073891938796723 -0.0060210363718173178 0 -0.0075597536092820699 -0.006361511058728825 0 -0.0061603599149503679 -0.0049739051150599674 0 -0.0055067316150269252 -0.0059115805919978262 0 -0.0047317561827042148 -0.0051547488612772759 0 -0.0061603599149503679 -0.0049739051150599674 0 -0.0055067316150269252 -0.0059115805919978262 0 -0.0066600352562354425 -0.006671165723871152 0 -0.0081454381885089546 -0.006207743995303717 0 -0.0082694546377053233 -0.006056314645761722 0 -0.0079895577797932348 -0.0060608788599432247 0 -0.0082694546377053233 -0.006056314645761722 0 -0.0085602710116203726 -0.0059496132411956306 0 -0.0079895577797932348 -0.0060608788599432247 0 -0.0082108634443388111 -0.0061573714155837341 0 -0.0081454381885089546 -0.006207743995303717 0 -0.0082694546377053233 -0.006056314645761722 0 -0.0082108634443388111 -0.0061573714155837341 0 -0.0082694546377053233 -0.006056314645761722 0 -0.0081073891938796723 -0.0060210363718173178 0 -0.0081073891938796723 -0.0060210363718173178 0 -0.0080834449539908607 -0.0062148393025055404 0 -0.0075597536092820699 -0.006361511058728825 0 -0.0082694546377053233 -0.006056314645761722 0 -0.0081073891938796723 -0.0060210363718173178 0 -0.0085602710116203726 -0.0059496132411956306 0 -0.0081073891938796723 -0.0060210363718173178 0 -0.0080834449539908607 -0.0062148393025055404 0 -0.0085602710116203726 -0.0059496132411956306 0 -0.0085456156394730556 -0.0060032144432671554 0 -0.0094580390656855001 -0.0045630603357219622 0 -0.0086302549922732327 0.0062377604501144329 0 -0.010965508400685907 0.0062741031292393957 0 -0.0085602710116203726 -0.0059496132411956306 0 -0.0083432792395986277 -0.0067262447367062873 0 -0.011122435037437605 -0.0069540244383481387 0 -0.0088539641354039595 0.019218799895800963 0 -0.0099262815488911985 0.017881921358944924 0 -0.010754359529588722 0.019465583881880053 0 -0.0088539641354039595 0.019218799895800963 0 -0.0079977884844657735 0.017993507482737526 0 -0.0099262815488911985 0.017881921358944924 0 -0.0080834449539908607 -0.0062148393025055404 0 -0.0085602710116203726 -0.0059496132411956306 0 -0.0083432792395986277 -0.0067262447367062873 0 -0.0080834449539908607 -0.0062148393025055404 0 -0.0083432792395986277 -0.0067262447367062873 0 -0.0075597536092820699 -0.006361511058728825 0 -0.0088539641354039595 0.019218799895800963 0 -0.0071371052374327604 0.018969871199708312 0 -0.0079977884844657735 0.017993507482737526 0 -0.0086302549922732327 0.0062377604501144329 0 -0.0069015067284467629 0.0061452283640521504 0 -0.0083432792395986277 -0.0067262447367062873 0 -0.0075597536092820699 -0.006361511058728825 0 -0.0066600352562354425 -0.006671165723871152 0 -0.0069015067284467629 0.0061452283640521504 0 -0.005054160588877781 0.0060279731251137092 0 -0.0055067316150269252 -0.0059115805919978262 0 -0.0066600352562354425 -0.006671165723871152 0 -0.0044785414255335831 -0.0066661880203792252 0 -0.0071371052374327604 0.018969871199708312 0 -0.0066334400063514914 0.017685377779477349 0 -0.0055865627505471234 0.018692991487218962 0 -0.0071371052374327604 0.018969871199708312 0 -0.0079977884844657735 0.017993507482737526 0 -0.0066334400063514914 0.017685377779477349 0 -0.0079977884844657735 0.017993507482737526 0 -0.0073208454551523805 0.017007372436427505 0 -0.0066334400063514914 0.017685377779477349 0 -0.0079977884844657735 0.017993507482737526 0 -0.0073208454551523805 0.017007372436427505 0 -0.0087852715750233769 0.016856329631590766 0 -0.0073208454551523805 0.017007372436427505 0 -0.0066334400063514914 0.017685377779477349 0 -0.0061026705877936915 0.016862575115452593 0 -0.0073208454551523805 0.017007372436427505 0 -0.0061026705877936915 0.016862575115452593 0 -0.0067205174547921758 0.016092640199139193 0 -0.0073208454551523805 0.017007372436427505 0 -0.0078964243615458635 0.015563840362621571 0 -0.0067205174547921758 0.016092640199139193 0 -0.0073208454551523805 0.017007372436427505 0 -0.0087852715750233769 0.016856329631590766 0 -0.0078964243615458635 0.015563840362621571 0 -0.0087852715750233769 0.016856329631590766 0 -0.0094757276261045065 0.015623349532337584 0 -0.010900691230893055 0.016379580471847031 0 -0.0087852715750233769 0.016856329631590766 0 -0.0099262815488911985 0.017881921358944924 0 -0.010900691230893055 0.016379580471847031 0 -0.0079977884844657735 0.017993507482737526 0 -0.0087852715750233769 0.016856329631590766 0 -0.0099262815488911985 0.017881921358944924 0 -0.0041222011406701767 0.01674696448253564 0 -0.0049259723287008528 0.017872213481700195 0 -0.0033554263778728844 0.017950044764431947 0 -0.0041222011406701767 0.01674696448253564 0 -0.0033554263778728844 0.017950044764431947 0 -0.0028061907528393109 0.016662029345572413 0 -0.0041222011406701767 0.01674696448253564 0 -0.0028061907528393109 0.016662029345572413 0 -0.003838438385467895 0.01574056170416609 0 -0.0041222011406701767 0.01674696448253564 0 -0.005115910811058149 0.016639962699956497 0 -0.0047351124210158581 0.015735717196834781 0 -0.005115910811058149 0.016639962699956497 0 -0.0061026705877936915 0.016862575115452593 0 -0.0057401585463089724 0.015865427310066012 0 -0.0061026705877936915 0.016862575115452593 0 -0.0067205174547921758 0.016092640199139193 0 -0.0057401585463089724 0.015865427310066012 0 -0.005115910811058149 0.016639962699956497 0 -0.0061026705877936915 0.016862575115452593 0 -0.0049259723287008528 0.017872213481700195 0 -0.0066334400063514914 0.017685377779477349 0 -0.0061026705877936915 0.016862575115452593 0 -0.0049259723287008528 0.017872213481700195 0 -0.0065224868725976487 0.017667373232361162 0 -0.0050088713814352426 0.017620936153085433 0 -0.0041222011406701767 0.01674696448253564 0 -0.005115910811058149 0.016639962699956497 0 -0.0049259723287008528 0.017872213481700195 0 -0.0066334400063514914 0.017685377779477349 0 -0.0050421637387908468 0.017360130796108514 0 -0.0055865627505471234 0.018692991487218962 0 -0.0050421637387908468 0.017360130796108514 0 -0.0055865627505471234 0.018692991487218962 0 -0.0039658752919292063 0.018466685363956029 0 -0.0044785414255335831 -0.0066661880203792252 0 -0.0027268382631850901 -0.0065075295292281506 0 -0.0035375830196764419 -0.005504890314050854 0 -0.005054160588877781 0.0060279731251137092 0 -0.003357285661646032 0.0059331095683693054 0 -0.0050088713814352426 0.017620936153085433 0 -0.003235696921847107 0.017525914631788018 0 -0.0050421637387908468 0.017360130796108514 0 -0.0039658752919292063 0.018466685363956029 0 -0.0033466656494549334 0.017134163937402479 0 -0.003357285661646032 0.0059331095683693054 0 -0.0018693684772393556 0.0064100015708405036 0 -0.0027268382631850901 -0.0065075295292281506 0 -0.0019187466444439544 -0.005782529172133755 0 -0.0013296867479100714 -0.0062407369033967179 0 -0.0039658752919292063 0.018466685363956029 0 -0.0033466656494549334 0.017134163937402479 0 -0.0022813375070457101 0.018298317779648601 0 -0.0027268382631850901 -0.0065075295292281506 0 -0.0019187466444439544 -0.005782529172133755 0 -0.0025798892376501332 -0.0055359290658277783 0 -0.0019187466444439544 -0.005782529172133755 0 -0.0025798892376501332 -0.0055359290658277783 0 -0.0017641582929947735 -0.0052745979806153387 0 -0.0027268382631850901 -0.0065075295292281506 0 -0.0025798892376501332 -0.0055359290658277783 0 -0.0035375830196764419 -0.005504890314050854 0 -0.0025798892376501332 -0.0055359290658277783 0 -0.0030140396903269454 -0.0047634673924667409 0 -0.0035375830196764419 -0.005504890314050854 0 -0.0025798892376501332 -0.0055359290658277783 0 -0.0030140396903269454 -0.0047634673924667409 0 -0.0022775148644286814 -0.0048959585801650711 0 -0.0022775148644286814 -0.0048959585801650711 0 -0.0016983793205479318 -0.0048021195829508834 0 -0.0017641582929947735 -0.0052745979806153387 0 -0.0025798892376501332 -0.0055359290658277783 0 -0.0022775148644286814 -0.0048959585801650711 0 -0.0017641582929947735 -0.0052745979806153387 0 -0.0055067316150269252 -0.0059115805919978262 0 -0.0044785414255335831 -0.0066661880203792252 0 -0.0047317561827042148 -0.0051547488612772759 0 -0.0044785414255335831 -0.0066661880203792252 0 -0.0035375830196764419 -0.005504890314050854 0 -0.0047317561827042148 -0.0051547488612772759 0 -0.0035375830196764419 -0.005504890314050854 0 -0.0047317561827042148 -0.0051547488612772759 0 -0.0038578895810816769 -0.0044670858475086327 0 -0.0030140396903269454 -0.0047634673924667409 0 -0.0035375830196764419 -0.005504890314050854 0 -0.0038578895810816769 -0.0044670858475086327 0 -0.0061603599149503679 -0.0049739051150599674 0 -0.0047317561827042148 -0.0051547488612772759 0 -0.0049454791098942014 -0.0038400863778761882 0 -0.0047317561827042148 -0.0051547488612772759 0 -0.0049454791098942014 -0.0038400863778761882 0 -0.0038578895810816769 -0.0044670858475086327 0 -0.0049454791098942014 -0.0038400863778761882 0 -0.0038578895810816769 -0.0044670858475086327 0 -0.003779741841852501 -0.0037049386966113312 0 -0.0038578895810816769 -0.0044670858475086327 0 -0.003779741841852501 -0.0037049386966113312 0 -0.003176927219863361 -0.0039785403606252328 0 -0.0038835204297821067 -0.0027176292576606138 0 -0.0049454791098942014 -0.0038400863778761882 0 -0.0037337293541879358 -0.0030271951629239971 0 -0.0049454791098942014 -0.0038400863778761882 0 -0.003779741841852501 -0.0037049386966113312 0 -0.0037337293541879358 -0.0030271951629239971 0 -0.003779741841852501 -0.0037049386966113312 0 -0.003176927219863361 -0.0039785403606252328 0 -0.0032881576319038911 -0.0033212851892368929 0 -0.0033968327667351196 -0.0029539332543484561 0 -0.0037337293541879358 -0.0030271951629239971 0 -0.0032881576319038911 -0.0033212851892368929 0 -0.003779741841852501 -0.0037049386966113312 0 -0.0037337293541879358 -0.0030271951629239971 0 -0.0032881576319038911 -0.0033212851892368929 0 -0.0087659095303620569 -0.0067289870091032621 0 -0.0089361178621441342 -0.0066433130411430522 0 -0.0086786719311728877 -0.0063165597015006607 0 -0.0087659095303620569 -0.0067289870091032621 0 -0.0086028436401382677 -0.0066228867697084469 0 -0.0086786719311728877 -0.0063165597015006607 0 -0.0055801080424966228 -0.0047305157212213858 0 -0.0069583978829945142 -0.0051130521810333696 0 -0.0022654694028462711 -0.0042124455519205089 0 -0.001790706716015058 -0.0036995032848753072 0 -0.0010716157870728704 -0.0044156830377095301 0 -0.0016983793205479318 -0.0048021195829508834 0 -0.0022654694028462711 -0.0042124455519205089 0 -0.0010716157870728704 -0.0044156830377095301 0 -0.0022775148644286814 -0.0048959585801650711 0 -0.0016983793205479318 -0.0048021195829508834 0 -0.0022654694028462711 -0.0042124455519205089 0 -0.0022654694028462711 -0.0042124455519205089 0 -0.003176927219863361 -0.0039785403606252328 0 -0.0028400982734999099 -0.0035284992555867367 0 -0.0030140396903269454 -0.0047634673924667409 0 -0.0022775148644286814 -0.0048959585801650711 0 -0.0022654694028462711 -0.0042124455519205089 0 -0.0030140396903269454 -0.0047634673924667409 0 -0.0022654694028462711 -0.0042124455519205089 0 -0.003176927219863361 -0.0039785403606252328 0 -0.0030140396903269454 -0.0047634673924667409 0 -0.0038578895810816769 -0.0044670858475086327 0 -0.003176927219863361 -0.0039785403606252328 0 -0.003176927219863361 -0.0039785403606252328 0 -0.0028400982734999099 -0.0035284992555867367 0 -0.0032881576319038911 -0.0033212851892368929 0 -0.003081745874987326 -0.0028996676056574021 0 -0.0028400982734999099 -0.0035284992555867367 0 -0.0032881576319038911 -0.0033212851892368929 0 -0.003081745874987326 -0.0028996676056574021 0 -0.0033968327667351196 -0.0029539332543484561 0 -0.0032881576319038911 -0.0033212851892368929 0 -0.0026320578413871021 -0.0029537385955286828 0 -0.003081745874987326 -0.0028996676056574021 0 -0.0028400982734999099 -0.0035284992555867367 0 -0.0026320578413871021 -0.0029537385955286828 0 -0.0028400982734999099 -0.0035284992555867367 0 -0.0023434712037088495 -0.0033974808810725795 0 -0.0020781211748301647 -0.0029050912884702796 0 -0.0026320578413871021 -0.0029537385955286828 0 -0.0023434712037088495 -0.0033974808810725795 0 -0.0010465344526558536 -0.0029517694729069115 0 -0.0020781211748301647 -0.0029050912884702796 0 -0.001790706716015058 -0.0036995032848753072 0 -0.0022654694028462711 -0.0042124455519205089 0 -0.0023434712037088495 -0.0033974808810725795 0 -0.001790706716015058 -0.0036995032848753072 0 -0.0022654694028462711 -0.0042124455519205089 0 -0.0028400982734999099 -0.0035284992555867367 0 -0.0023434712037088495 -0.0033974808810725795 0 -0.0020781211748301647 -0.0029050912884702796 0 -0.0023434712037088495 -0.0033974808810725795 0 -0.001790706716015058 -0.0036995032848753072 0 -0.0010465344526558536 -0.0029517694729069115 0 -0.001790706716015058 -0.0036995032848753072 0 -0.0010716157870728704 -0.0044156830377095301 0 -0.0010465344526558536 -0.0029517694729069115 0 -0.0010716157870728704 -0.0044156830377095301 0 -0.00040884291609274618 -0.0043007683883440314 0 -0.0016983793205479318 -0.0048021195829508834 0 -0.0010716157870728704 -0.0044156830377095301 0 -0.0012384387473839242 -0.0051302180610407911 0 -0.0010716157870728704 -0.0044156830377095301 0 -0.00040884291609274618 -0.0043007683883440314 0 -3.0150201807984445e-05 -0.0046863959687782602 0 0.00025165576059097566 -0.0050134581269195002 0 0.00037156436724847784 -0.0047873585428932332 0 0.00048194173264501269 -0.0051749880489939792 0 0.00025165576059097566 -0.0050134581269195002 0 -3.0150201807984445e-05 -0.0046863959687782602 0 0.00037156436724847784 -0.0047873585428932332 0 0.00025165576059097566 -0.0050134581269195002 0 -3.0150201807984445e-05 -0.0046863959687782602 0 2.50451787120546e-05 -0.0050864991227878836 0 -0.0010716157870728704 -0.0044156830377095301 0 -3.0150201807984445e-05 -0.0046863959687782602 0 2.50451787120546e-05 -0.0050864991227878836 0 -0.00040884291609274618 -0.0043007683883440314 0 -3.0150201807984445e-05 -0.0046863959687782602 0 0.00032292727317990527 -0.0044429335594266652 0 0.00032292727317990527 -0.0044429335594266652 0 0.00037156436724847784 -0.0047873585428932332 0 0.00059117444287419465 -0.0046075593858397835 0 -3.0150201807984445e-05 -0.0046863959687782602 0 0.00032292727317990527 -0.0044429335594266652 0 0.00037156436724847784 -0.0047873585428932332 0 -0.00014744817623628525 -0.0037926600185304569 0 0.00029698322685597206 -0.0043719587947321148 0 0.00065830627141570447 -0.0044187564182304045 0 0.00067615837114711396 -0.004461522556919827 0 0.0005229667239638763 -0.0044622515546068513 0 -0.0010465344526558536 -0.0029517694729069115 0 -0.00040884291609274618 -0.0043007683883440314 0 0.00032292727317990527 -0.0044429335594266652 0 0.00067615837114711396 -0.004461522556919827 0 0.00032292727317990527 -0.0044429335594266652 0 0.0005229667239638763 -0.0044622515546068513 0 0.00032292727317990527 -0.0044429335594266652 0 0.0005229667239638763 -0.0044622515546068513 0 0.00059117444287419465 -0.0046075593858397835 0 0.00065830627141570447 -0.0044187564182304045 0 0.0005229667239638763 -0.0044622515546068513 0 0.00080379518892473723 -0.0045290903514332865 0 0.00059117444287419465 -0.0046075593858397835 0 0.00080379518892473723 -0.0045290903514332865 0 0.00091987316438449504 -0.0050199956422966067 0 0.0005229667239638763 -0.0044622515546068513 0 0.00059117444287419465 -0.0046075593858397835 0 0.00080379518892473723 -0.0045290903514332865 0 0.00093149192802862314 -0.0043887799120027951 0 0.00080379518892473723 -0.0045290903514332865 0 0.0015395864833318939 -0.0044915187725388184 0 0.00080379518892473723 -0.0045290903514332865 0 0.0015395864833318939 -0.0044915187725388184 0 0.00091987316438449504 -0.0050199956422966067 0 0.00091987316438449504 -0.0050199956422966067 0 0.00085490303183212196 -0.0059346716071070615 0 0.0021298459261563981 -0.0055958953657694243 0 0.0015395864833318939 -0.0044915187725388184 0 0.00091987316438449504 -0.0050199956422966067 0 0.0021298459261563981 -0.0055958953657694243 0 0.00037156436724847784 -0.0047873585428932332 0 0.00059117444287419465 -0.0046075593858397835 0 0.00091987316438449504 -0.0050199956422966067 0 0.00041675407135299467 -0.0049316635540226986 0 0.00082766833339289851 -0.0055392252253599963 0 0.00037156436724847784 -0.0047873585428932332 0 0.00091987316438449504 -0.0050199956422966067 0 0.00085490303183212196 -0.0059346716071070615 0 0.00037156436724847784 -0.0047873585428932332 0 0.00048194173264501269 -0.0051749880489939792 0 0.00083928863666551837 -0.0053294086936944629 0 0.00048194173264501269 -0.0051749880489939792 0 0.00083928863666551837 -0.0053294086936944629 0 0.00058354028621915625 -0.0054992446511435856 0 0.00048194173264501269 -0.0051749880489939792 0 0.00058354028621915625 -0.0054992446511435856 0 0.00032727223872547719 -0.0052982775172511478 0 0.00083928863666551837 -0.0053294086936944629 0 0.00058354028621915625 -0.0054992446511435856 0 0.00073344944631916083 -0.0058375042781977932 0 0.00085490303183212196 -0.0059346716071070615 0 0.0017065153799275944 -0.0071164401315681851 0 0.0021298459261563981 -0.0055958953657694243 0 0.00082766833339289851 -0.0055392252253599963 0 0.0015138313793303952 -0.0070125874103855743 0 0.0012861919133781445 -0.0057236326799303405 0 0.00073344944631916083 -0.0058375042781977932 0 0.0011117633021003484 -0.0061121973161780332 0 -0.00042499123889355782 -0.0048002596926296831 0 0.00032836664905591927 -0.0055901549134293807 0 -0.00028312818310793491 -0.0039975443711099739 0 0.00083928863666551837 -0.0053294086936944629 0 0.0012861919133781445 -0.0057236326799303405 0 0.00073344944631916083 -0.0058375042781977932 0 0.00058354028621915625 -0.0054992446511435856 0 0.00073344944631916083 -0.0058375042781977932 0 0.00022435092304116467 -0.0055526890904771253 0 0.00045183067781251799 -0.0057484474887847222 0 0.00010518094753239015 -0.0053772866065280216 0 0.00045183067781251799 -0.0057484474887847222 0 0.0026763372836257804 0.0016028694903105311 0 6.2817377191943226e-05 -0.0071493801318587499 0 -0.00024713820202153491 0.0032486467521946785 0 -0.00042499123889355782 -0.0048002596926296831 0 0.00022435092304116467 -0.0055526890904771253 0 0.00032836664905591927 -0.0055901549134293807 0 -0.00088130243832726233 -0.0056353765400465492 0 -0.00082949014444498234 -0.0053103824968032494 0 -0.00031812419781784265 -0.006058732498084445 0 -0.00088130243832726233 -0.0056353765400465492 0 -0.00094653700524074957 -0.0058784618843382977 0 -0.00031812419781784265 -0.006058732498084445 0 -0.00088130243832726233 -0.0056353765400465492 0 -0.0010738409468383026 -0.0053967363121444969 0 -0.00082949014444498234 -0.0053103824968032494 0 -0.00088130243832726233 -0.0056353765400465492 0 -0.00094653700524074957 -0.0058784618843382977 0 -0.0012922733517198969 -0.0056163764180364069 0 -0.00094653700524074957 -0.0058784618843382977 0 -0.0012922733517198969 -0.0056163764180364069 0 -0.0013296867479100714 -0.0062407369033967179 0 -0.0019187466444439544 -0.005782529172133755 0 -0.0012922733517198969 -0.0056163764180364069 0 -0.0013296867479100714 -0.0062407369033967179 0 -0.0019187466444439544 -0.005782529172133755 0 -0.0017641582929947735 -0.0052745979806153387 0 -0.0012922733517198969 -0.0056163764180364069 0 -0.00088130243832726233 -0.0056353765400465492 0 -0.0012922733517198969 -0.0056163764180364069 0 -0.0010738409468383026 -0.0053967363121444969 0 -0.0010738409468383026 -0.0053967363121444969 0 -0.0012384387473839242 -0.0051302180610407911 0 -0.00082949014444498234 -0.0053103824968032494 0 -0.001267884033472144 -0.0037177098755112399 0 6.2817377191943226e-05 -0.0071493801318587499 0 -0.0010716157870728704 -0.0044156830377095301 0 -0.0012384387473839242 -0.0051302180610407911 0 -0.00082949014444498234 -0.0053103824968032494 0 -0.0012922733517198969 -0.0056163764180364069 0 -0.0010738409468383026 -0.0053967363121444969 0 -0.0012384387473839242 -0.0051302180610407911 0 -0.0017641582929947735 -0.0052745979806153387 0 -0.0012922733517198969 -0.0056163764180364069 0 -0.0012384387473839242 -0.0051302180610407911 0 -0.0016983793205479318 -0.0048021195829508834 0 -0.0017641582929947735 -0.0052745979806153387 0 -0.0012384387473839242 -0.0051302180610407911 0 -0.0010716157870728704 -0.0044156830377095301 0 2.50451787120546e-05 -0.0050864991227878836 0 0.00032836664905591927 -0.0055901549134293807 0 2.50451787120546e-05 -0.0050864991227878836 0 0.00024245848713284491 -0.0054088377360871753 0 0.00032836664905591927 -0.0055901549134293807 0 0.00025165576059097566 -0.0050134581269195002 0 2.50451787120546e-05 -0.0050864991227878836 0 0.00032727223872547719 -0.0052982775172511478 0 0.00025165576059097566 -0.0050134581269195002 0 0.00048194173264501269 -0.0051749880489939792 0 0.00032727223872547719 -0.0052982775172511478 0 2.50451787120546e-05 -0.0050864991227878836 0 0.00032727223872547719 -0.0052982775172511478 0 0.00024245848713284491 -0.0054088377360871753 0 0.00024245848713284491 -0.0054088377360871753 0 0.00022435092304116467 -0.0055526890904771253 0 0.00032836664905591927 -0.0055901549134293807 0 0.00058354028621915625 -0.0054992446511435856 0 0.00032727223872547719 -0.0052982775172511478 0 0.00022435092304116467 -0.0055526890904771253 0 0.00032727223872547719 -0.0052982775172511478 0 0.00024245848713284491 -0.0054088377360871753 0 0.00022435092304116467 -0.0055526890904771253 0 0.0020832416569194047 -0.0047099609760708578 0 0.0022375421694149043 -0.0050057821318440793 0 0.0023102622356591415 -0.004767184198991593 0 0.0022375421694149043 -0.0050057821318440793 0 0.0023102622356591415 -0.004767184198991593 0 0.0024460815082829584 -0.0049272990003850674 0 0.0020832416569194047 -0.0047099609760708578 0 0.0022375421694149043 -0.0050057821318440793 0 0.0018500488100731934 -0.0048151227209102948 0 0.0039288383586664052 -0.0046560370855405729 0 0.0028844661453860353 -0.0046320888533184735 0 0.0062246133614112182 -0.0046140727679416524 0 0.0037297179957626039 -0.0043610943796003922 0 0.0039552860166429003 -0.0056945322133597747 0 0.0037297179957626039 -0.0043610943796003922 0 0.0021298459261563981 -0.0055958953657694243 0 0.0039552860166429003 -0.0056945322133597747 0 0.0018030363284125132 -0.0045424648005258934 0 0.0020832416569194047 -0.0047099609760708578 0 0.0018500488100731934 -0.0048151227209102948 0 0.0018030363284125132 -0.0045424648005258934 0 0.0015395864833318939 -0.0044915187725388184 0 0.0018500488100731934 -0.0048151227209102948 0 0.0016114939062444277 -0.0044721825660680031 0 0.0028844661453860353 -0.0046320888533184735 0 0.0015395864833318939 -0.0044915187725388184 0 0.0037297179957626039 -0.0043610943796003922 0 0.0021298459261563981 -0.0055958953657694243 0 0.0017065153799275944 -0.0071164401315681851 0 0.0021298459261563981 -0.0055958953657694243 0 0.0033414691426925736 -0.0069869510963591732 0 0.0017065153799275944 -0.0071164401315681851 0 0.0033414691426925736 -0.0069869510963591732 0 0.0028203012264796318 -0.0083529177980822978 0 0.0015138313793303952 -0.0070125874103855743 0 0.0052478989992685247 -0.0013842661040809545 0 0.0033414691426925736 -0.0069869510963591732 0 0.0046589299097669979 -0.0084227357045988036 0 0.0028203012264796318 -0.0083529177980822978 0 0.0033414691426925736 -0.0069869510963591732 0 0.0049681456360705376 -0.0067853548550197637 0 0.0046589299097669979 -0.0084227357045988036 0 0.0033414691426925736 -0.0069869510963591732 0 0.0039552860166429003 -0.0056945322133597747 0 0.0049681456360705376 -0.0067853548550197637 0 0.0021298459261563981 -0.0055958953657694243 0 0.0033414691426925736 -0.0069869510963591732 0 0.0039552860166429003 -0.0056945322133597747 0 0.0062246133614112182 -0.0046140727679416524 0 0.0039552860166429003 -0.0056945322133597747 0 0.0049681456360705376 -0.0067853548550197637 0 0.0049681456360705376 -0.0067853548550197637 0 0.0061668496850846551 -0.0074330635916821722 0 0.0046589299097669979 -0.0084227357045988036 0 0.0049681456360705376 -0.0067853548550197637 0 0.0061668496850846551 -0.0074330635916821722 0 0.0072261679579985645 -0.0065173185699538786 0 0.0099223693478919135 -0.0013092381161207928 0 0.0061312502816226171 -0.0089188330726877353 0 0.0061668496850846551 -0.0074330635916821722 0 0.00673956269846378 -0.0084451703887945852 0 0.007502010207201525 -0.0073643662221218641 0 0.0061668496850846551 -0.0074330635916821722 0 0.0072261679579985645 -0.0065173185699538786 0 0.007502010207201525 -0.0073643662221218641 0 0.0062246133614112182 -0.0046140727679416524 0 0.0049681456360705376 -0.0067853548550197637 0 0.0069855227184413751 -0.0059401256114119793 0 0.0051488579133005651 -0.0068005479900298009 0 0.007335140500705141 -0.0069179152696004784 0 0.0049681456360705376 -0.0067853548550197637 0 0.0073600600100530962 -0.007314933881116579 0 0.0069855227184413751 -0.0059401256114119793 0 0.016602983051157781 0.0076873592764144195 0 0.015730570019534512 0.0088394809743657619 0 0.015304982653170001 0.0076483205298511561 0 0.016602983051157781 0.0076873592764144195 0 0.017324700121334122 0.008795348915728916 0 0.015730570019534512 0.0088394809743657619 0 0.016602983051157781 0.0076873592764144195 0 0.015856226238773492 0.0065625130863040931 0 0.015304982653170001 0.0076483205298511561 0 0.0061668496850846551 -0.0074330635916821722 0 0.00673956269846378 -0.0084451703887945852 0 0.0046589299097669979 -0.0084227357045988036 0 0.012915583980560993 0.0058015480013853191 0 0.0099223693478919135 -0.0013092381161207928 0 0.0099223693478919135 -0.0013092381161207928 0 0.006214512175874984 -0.0032000421350383587 0 0.0084219749413796882 0.0027249782482570693 0 0.0085218405458340474 0.0025770204139045111 0 0.0086044442972470787 0.0027163894720675795 0 0.0084219749413796882 0.0027249782482570693 0 0.0083393773299807773 0.0025575681552312251 0 0.0085218405458340474 0.0025770204139045111 0 0.0084219749413796882 0.0027249782482570693 0 0.0086044442972470787 0.0027163894720675795 0 0.008515249530159202 0.0028985992622114717 0 0.012915583980560993 0.0058015480013853191 0 0.012144965293131528 0.0084442511524348684 0 0.0072864308005456966 0.0054242486150241171 0 0.012144965293131528 0.0084442511524348684 0 0.0069391236030170549 0.0073430049830721473 0 0.0073328803962593656 0.0073799845604347438 0 0.0068198111911089605 0.0076104377526142568 0 0.0069391236030170549 0.0073430049830721473 0 0.0068472980481289721 0.0071852631367291279 0 0.007143643508073394 0.0072990864245567966 0 0.0068472980481289721 0.0071852631367291279 0 0.0068198111911089605 0.0076104377526142568 0 0.0064475748110330317 0.0076478357435646287 0 0.0069391236030170549 0.0073430049830721473 0 0.0068472980481289721 0.0071852631367291279 0 0.0068198111911089605 0.0076104377526142568 0 0.006214512175874984 -0.0032000421350383587 0 0.0052478989992685247 -0.0013842661040809545 0 0.0085218405458340474 0.0025770204139045111 0 0.0086044442972470787 0.0027163894720675795 0 0.0086690262564814314 0.0025634298466664014 0 0.0072864308005456966 0.0054242486150241171 0 0.0052478989992685247 -0.0013842661040809545 0 0.0070727424979772479 0.006845753946847357 0 0.007143643508073394 0.0072990864245567966 0 0.0074458334162134506 0.0068105888481851742 0 0.0052478989992685247 -0.0013842661040809545 0 0.0026763372836257804 0.0016028694903105311 0 0.0068472980481289721 0.0071852631367291279 0 0.0070727424979772479 0.006845753946847357 0 0.007143643508073394 0.0072990864245567966 0 0.0072790773332479363 0.0080452199560193689 0 0.0054254656182158995 0.0098471377013578474 0 0.0066988773621947315 0.016517528279686226 0 0.0077417330992610358 0.015523224289183103 0 0.006266038716601351 0.015420135580485557 0 0.0077417330992610358 0.015523224289183103 0 0.006266038716601351 0.015420135580485557 0 0.0069352541138448433 0.014395046028002068 0 0.0028760876316927201 0.016125913176589547 0 0.0089727770174678513 0.01756212684392025 0 0.012180702841884316 0.015342553688266803 0 0.0089727770174678513 0.01756212684392025 0 0.0073328803962593656 0.0073799845604347438 0 0.0067348851441855571 0.0081039774924410203 0 0.0068198111911089605 0.0076104377526142568 0 0.0054254656182158995 0.0098471377013578474 0 0.012180702841884316 0.015342553688266803 0 0.0067348851441855571 0.0081039774924410203 0 0.0068198111911089605 0.0076104377526142568 0 0.0064475748110330317 0.0076478357435646287 0 0.017096421316131271 0.016938556376167899 0 0.016144621136773157 0.015531441565760614 0 0.015821849589153541 0.018302958290926648 0 0.012180702841884316 0.015342553688266803 0 0.012144965293131528 0.0084442511524348684 0 0.016966066254924628 0.017105368229450683 0 0.015821849589153541 0.018302958290926648 0 0.016690039475316467 0.019529584728110633 0 0.016144621136773157 0.015531441565760614 0 0.015821849589153541 0.018302958290926648 0 0.014393756096245778 0.017470045498893309 0 0.012180702841884316 0.015342553688266803 0 0.016510612814737036 0.017666310088329144 0 0.015821849589153541 0.018302958290926648 0 0.014393756096245778 0.017470045498893309 0 0.014684807594602091 0.019732938410062566 0 0.017324700121334122 0.008795348915728916 0 0.01601013723892248 0.010187126851832443 0 0.015730570019534512 0.0088394809743657619 0 0.012144965293131528 0.0084442511524348684 0 0.01571181357384421 0.01418312629064397 0 -0.0033466656494549334 0.017134163937402479 0 -0.0015958971390101734 0.017009499676398858 0 -0.0022813375070457101 0.018298317779648601 0 -0.003235696921847107 0.017525914631788018 0 -0.0021290369613771254 0.017698307298244956 0 -0.00094653700524074957 -0.0058784618843382977 0 -0.0013296867479100714 -0.0062407369033967179 0 -0.00031812419781784265 -0.006058732498084445 0 -0.0018693684772393556 0.0064100015708405036 0 -0.00024713820202153491 0.0032486467521946785 0 -0.0015958971390101734 0.017009499676398858 0 -0.0022813375070457101 0.018298317779648601 0 -0.00056595687402271396 0.018195373026958839 0 0.0031022580405291262 0.007621431946560021 0 0.002646957532090888 0.0076259442568363768 0 0.0027270394622302243 0.0083486169456282195 0 -0.00024713820202153491 0.0032486467521946785 0 0.0026763372836257804 0.0016028694903105311 0 -0.00042499123889355782 -0.0048002596926296831 0 -0.00028312818310793491 -0.0039975443711099739 0 -0.0011386019600936096 -0.0039711783238196843 0 0.0012861919133781445 -0.0057236326799303405 0 0.0017229701700084471 -0.0060669194123718871 0 0.0011117633021003484 -0.0061121973161780332 0 0.0054254656182158995 0.0098471377013578474 0 0.0018892367226846115 0.016375604825376058 0 0.0020549940654196065 0.0083174004701952724 0 0.002646957532090888 0.0076259442568363768 0 0.0027270394622302243 0.0083486169456282195 0 0.0054254656182158995 0.0098471377013578474 0 0.0026763372836257804 0.0016028694903105311 0 -0.00024713820202153491 0.0032486467521946785 0 0.0018892367226846115 0.016375604825376058 0 -0.0015958971390101734 0.017009499676398858 0 -0.00056595687402271396 0.018195373026958839 0 0.0001700536903181663 0.016989812778698429 0 -0.0021290369613771254 0.017698307298244956 0 0.0018892367226846115 0.016375604825376058 0 -0.0018069777257037397 0.018059456144218538 0 -0.0002153205480699289 0.018140711110980486 0 -0.00074886796424683522 0.017142704534038433 0 0.0066988773621947315 0.016517528279686226 0 0.0055717063191227873 0.016479087486060612 0 0.006266038716601351 0.015420135580485557 0 -0.0002153205480699289 0.018140711110980486 0 -0.00074886796424683522 0.017142704534038433 0 0.00047492980706922148 0.016998742753570488 0 0.0018892367226846115 0.016375604825376058 0 0.0028760876316927201 0.016125913176589547 0 0.00047492980706922148 0.016998742753570488 0 -0.0002377696667529783 0.016494355432807098 0 0.00027636031831854992 0.015990794362884538 0 -0.00074886796424683522 0.017142704534038433 0 0.00047492980706922148 0.016998742753570488 0 -0.0002377696667529783 0.016494355432807098 0 -0.00074886796424683522 0.017142704534038433 0 -0.0002377696667529783 0.016494355432807098 0 -0.0010000340424403849 0.016298791120234739 0 -0.00074886796424683522 0.017142704534038433 0 -0.0010000340424403849 0.016298791120234739 0 -0.0017170451965541459 0.016794443922282149 0 -0.0018069777257037397 0.018059456144218538 0 -0.00074886796424683522 0.017142704534038433 0 -0.0017170451965541459 0.016794443922282149 0 -0.0018069777257037397 0.018059456144218538 0 -0.0017170451965541459 0.016794443922282149 0 -0.0028061907528393109 0.016662029345572413 0 -0.0033554263778728844 0.017950044764431947 0 -0.0018069777257037397 0.018059456144218538 0 -0.0028061907528393109 0.016662029345572413 0 -0.0017170451965541459 0.016794443922282149 0 -0.0028061907528393109 0.016662029345572413 0 -0.0018173610197871144 0.015474224439160697 0 -0.0028061907528393109 0.016662029345572413 0 -0.0018173610197871144 0.015474224439160697 0 -0.0029550123899671362 0.015535412736889864 0 -0.0026690699837599932 0.014824909478222273 0 -0.0018173610197871144 0.015474224439160697 0 -0.0029550123899671362 0.015535412736889864 0 -0.0018173610197871144 0.015474224439160697 0 -0.0011444728645244331 0.014970853269555096 0 -0.0017054398154015959 0.014162243838800905 0 -0.0017494628058388204 0.014666602576063949 0 -0.0020400285460103942 0.01608468462121946 0 -0.0026690699837599932 0.014824909478222273 0 -0.0018173610197871144 0.015474224439160697 0 -0.0018682061945893792 0.014350704196894945 0 -0.0018173610197871144 0.015474224439160697 0 -0.00091763456104723749 0.015581688817532521 0 -0.0011444728645244331 0.014970853269555096 0 -0.0010000340424403849 0.016298791120234739 0 -0.0017170451965541459 0.016794443922282149 0 -0.0018173610197871144 0.015474224439160697 0 -0.0010000340424403849 0.016298791120234739 0 -0.0018173610197871144 0.015474224439160697 0 -0.00091763456104723749 0.015581688817532521 0 -0.0002377696667529783 0.016494355432807098 0 -0.0010000340424403849 0.016298791120234739 0 -0.00030714228500707772 0.015804878756385553 0 -0.0010000340424403849 0.016298791120234739 0 -0.00091763456104723749 0.015581688817532521 0 -0.00030714228500707772 0.015804878756385553 0 -0.00091763456104723749 0.015581688817532521 0 -0.00030714228500707772 0.015804878756385553 0 -0.00034480001730197803 0.015328348104976918 0 0.00027636031831854992 0.015990794362884538 0 0.00040040437833959087 0.015185438557557702 0 0.00011361463391266021 0.015513859728784506 0 -0.0002377696667529783 0.016494355432807098 0 0.00027636031831854992 0.015990794362884538 0 -0.00030714228500707772 0.015804878756385553 0 -0.00030714228500707772 0.015804878756385553 0 0.00011361463391266021 0.015513859728784506 0 -6.457232559142988e-05 0.015337799901529555 0 0.00027636031831854992 0.015990794362884538 0 -0.00030714228500707772 0.015804878756385553 0 0.00011361463391266021 0.015513859728784506 0 0.00040040437833959087 0.015185438557557702 0 0.00012206633126188311 0.01527858369338215 0 2.7406131239232513e-05 0.015115559330265855 0 0.00040040437833959087 0.015185438557557702 0 0.00011361463391266021 0.015513859728784506 0 0.00012206633126188311 0.01527858369338215 0 -0.00030714228500707772 0.015804878756385553 0 -6.457232559142988e-05 0.015337799901529555 0 -0.00034480001730197803 0.015328348104976918 0 0.00012206633126188311 0.01527858369338215 0 -6.457232559142988e-05 0.015337799901529555 0 2.7406131239232513e-05 0.015115559330265855 0 0.00011361463391266021 0.015513859728784506 0 0.00012206633126188311 0.01527858369338215 0 -6.457232559142988e-05 0.015337799901529555 0 -6.457232559142988e-05 0.015337799901529555 0 2.7406131239232513e-05 0.015115559330265855 0 -0.00034480001730197803 0.015328348104976918 0 -0.00024732530026410726 0.014977496664009894 0 2.7406131239232513e-05 0.015115559330265855 0 -0.00034480001730197803 0.015328348104976918 0 -0.00021233533034080321 0.015499308335190459 0 -0.00017551147944828234 0.015376877977603098 0 0.00040040437833959087 0.015185438557557702 0 2.7406131239232513e-05 0.015115559330265855 0 0.00045566239729809309 0.015126424358144205 0 -0.00030444014713327757 0.014810491050939277 0 -0.0011444728645244331 0.014970853269555096 0 -0.0017054398154015959 0.014162243838800905 0 -0.00091763456104723749 0.015581688817532521 0 -0.00034480001730197803 0.015328348104976918 0 -0.0011444728645244331 0.014970853269555096 0 -0.00021233533034080321 0.015499308335190459 0 -0.00025270568878792967 0.015203328957526978 0 -0.00030444014713327757 0.014810491050939277 0 -0.00034480001730197803 0.015328348104976918 0 -0.0011444728645244331 0.014970853269555096 0 -0.0009990279092731856 0.016936582852158658 0 0.00020743358670015092 0.019055621903178811 0 -0.0012135082171058835 0.019204568267490854 0 -0.00021233533034080321 0.015499308335190459 0 -0.0020400285460103942 0.01608468462121946 0 -0.0009990279092731856 0.016936582852158658 0 0.00020743358670015092 0.019055621903178811 0 0.0017626783986749751 0.018259019021569033 0 0.00058393820728804544 0.018842494987494931 0 0.0036705982087366085 0.017966919503414315 0 0.0042725958050048481 0.021949691851159719 0 0.0042955687494806161 0.021935396154095784 0 0.0042956697404357572 0.021963396790856314 0 -0.00011418197063034969 0.015053616028663728 0 2.7406131239232513e-05 0.015115559330265855 0 -7.0236033017555239e-05 0.014547153009665166 0 2.7406131239232513e-05 0.015115559330265855 0 -7.0236033017555239e-05 0.014547153009665166 0 0.00045566239729809309 0.015126424358144205 0 -0.00021233533034080321 0.015499308335190459 0 0.00058393820728804544 0.018842494987494931 0 0.0042725958050048481 0.021949691851159719 0 0.004267122257683156 0.021977143862452097 0 0.0042956697404357572 0.021963396790856314 0 0.00058393820728804544 0.018842494987494931 0 0.0023726744422559935 0.025238821132697101 0 0.0035390841803990014 0.029860462166377909 0 0.0057419604082453255 0.031371117146715873 0 0.0053232330260908189 0.029552621405569968 0 0.0023726744422559935 0.025238821132697101 0 0.0052032969702717055 0.026906304004253354 0 0.00020743358670015092 0.019055621903178811 0 -0.00015009189810600822 0.020745160305454504 0 0.0016246621149559632 0.020136382332386939 0 0.00020743358670015092 0.019055621903178811 0 -0.0012135082171058835 0.019204568267490854 0 -0.00015009189810600822 0.020745160305454504 0 0.00058393820728804544 0.018842494987494931 0 -0.00029889409226963856 0.020336781601546412 0 -0.0010913714488877614 0.019358330040484168 0 -0.0012634003680959422 0.020907488100358657 0 -0.00015009189810600822 0.020745160305454504 0 -0.0063346308264042627 0.016880031517190159 0 -0.0045490946994194963 0.016373053464675474 0 -0.0062117620850707933 0.015614311778113971 0 -0.00015009189810600822 0.020745160305454504 0 0.0016246621149559632 0.020136382332386939 0 0.0014698805348561815 0.021973493187743592 0 -0.0045490946994194963 0.016373053464675474 0 -0.0053203401253130861 0.017489580885452421 0 -0.004175710764564417 0.017622888284977642 0 -0.0063346308264042627 0.016880031517190159 0 -0.0045490946994194963 0.016373053464675474 0 -0.0053203401253130861 0.017489580885452421 0 -0.0042242104354037781 0.014981981990954499 0 -0.0020400285460103942 0.01608468462121946 0 -0.0026690699837599932 0.014824909478222273 0 -0.003061725318782133 0.013963929258654587 0 -0.0018682061945893792 0.014350704196894945 0 -0.0023496946361775688 0.018626831952993105 0 -0.0020400285460103942 0.01608468462121946 0 0.00020743358670015092 0.019055621903178811 0 0.0016246621149559632 0.020136382332386939 0 0.0017626783986749751 0.018259019021569033 0 0.014607619758316709 0.021377886597698459 0 0.014684807594602091 0.019732938410062566 0 0.015956648091041654 0.021090537431279869 0 0.014607619758316709 0.021377886597698459 0 0.014684807594602091 0.019732938410062566 0 0.013143767765514744 0.021109855341446916 0 0.014607619758316709 0.021377886597698459 0 0.013143767765514744 0.021109855341446916 0 0.013766203836997231 0.022656692625586075 0 0.014607619758316709 0.021377886597698459 0 0.015956648091041654 0.021090537431279869 0 0.015415684317234299 0.022523328820902619 0 0.014393756096245778 0.017470045498893309 0 0.014684807594602091 0.019732938410062566 0 0.0126896271421799 0.019308140826804876 0 0.014684807594602091 0.019732938410062566 0 0.016690039475316467 0.019529584728110633 0 0.015956648091041654 0.021090537431279869 0 0.015821849589153541 0.018302958290926648 0 0.014684807594602091 0.019732938410062566 0 0.016690039475316467 0.019529584728110633 0 0.016690039475316467 0.019529584728110633 0 0.015956648091041654 0.021090537431279869 0 0.01707239348154841 0.020489744299712405 0 0.015956648091041654 0.021090537431279869 0 0.01707239348154841 0.020489744299712405 0 0.017124474339146368 0.021884624715617314 0 0.016691414932593362 0.021738395110565339 0 0.014133469137257635 0.022053749412014857 0 0.01707239348154841 0.020489744299712405 0 0.018515103207568367 0.019447997854228155 0 0.017124474339146368 0.021884624715617314 0 0.0089727770174678513 0.01756212684392025 0 0.014133469137257635 0.022053749412014857 0 0.016690039475316467 0.019529584728110633 0 0.01707239348154841 0.020489744299712405 0 0.018515103207568367 0.019447997854228155 0 0.016966066254924628 0.017105368229450683 0 0.016690039475316467 0.019529584728110633 0 0.018515103207568367 0.019447997854228155 0 0.00047492980706922148 0.016998742753570488 0 0.00027636031831854992 0.015990794362884538 0 0.0011473899879408305 0.015905920501689978 0 0.00027636031831854992 0.015990794362884538 0 0.00040040437833959087 0.015185438557557702 0 0.0011473899879408305 0.015905920501689978 0 0.0089727770174678513 0.01756212684392025 0 0.0036705982087366085 0.017966919503414315 0 0.00040040437833959087 0.015185438557557702 0 0.0011473899879408305 0.015905920501689978 0 0.00051046675129849748 0.015095476824880107 0 0.0085748674101505315 0.019661146940388466 0 0.0087316524375063796 0.019926989279516596 0 0.0083695102732292016 0.020090055196316483 0 0.0033682717689830144 0.017838110804796345 0 0.0036705982087366085 0.017966919503414315 0 0.0042955687494806161 0.021935396154095784 0 0.0042956697404357572 0.021963396790856314 0 0.0043298550946278495 0.021965371535799791 0 0.0036705982087366085 0.017966919503414315 0 0.0082884299955468914 0.024359256585197317 0 0.0052032969702717055 0.026906304004253354 0 0.0082884299955468914 0.024359256585197317 0 0.0057419604082453255 0.031371117146715873 0 0.006766049465363461 0.02965307227678474 0 0.0053232330260908189 0.029552621405569968 0 0.0057419604082453255 0.031371117146715873 0 0.0078372490424506655 0.030826160168990355 0 0.006766049465363461 0.02965307227678474 0 0.0057419604082453255 0.031371117146715873 0 0.0078372490424506655 0.030826160168990355 0 0.0079493326740662871 0.032850971301498243 0 0.0078372490424506655 0.030826160168990355 0 0.0079493326740662871 0.032850971301498243 0 0.0099054594606460909 0.031182744071315185 0 0.0078372490424506655 0.030826160168990355 0 0.0080644194340775792 0.02892028383273252 0 0.006766049465363461 0.02965307227678474 0 0.0078372490424506655 0.030826160168990355 0 0.0099054594606460909 0.031182744071315185 0 0.0096881176130639256 0.029342617785044479 0 0.0082884299955468914 0.024359256585197317 0 0.010631753965919873 0.02877945844334355 0 0.012648546894029484 0.024986650654003552 0 0.012222088533309968 0.024674655002019121 0 0.012014351016642204 0.025591942708778601 0 0.0087316524375063796 0.019926989279516596 0 0.0084967641679105227 0.020190521136542273 0 0.0083695102732292016 0.020090055196316483 0 0.0082884299955468914 0.024359256585197317 0 0.014133469137257635 0.022053749412014857 0 0.015415684317234299 0.022523328820902619 0 0.016448958412551104 0.023748179555205407 0 0.014556066895509834 0.024117374190142322 0 0.017387765331261157 0.022086881597727467 0 0.015415684317234299 0.022523328820902619 0 0.016448958412551104 0.023748179555205407 0 0.012222088533309968 0.024674655002019121 0 0.012014351016642204 0.025591942708778601 0 0.011797626152824264 0.025435883624498824 0 0.015956648091041654 0.021090537431279869 0 0.017387765331261157 0.022086881597727467 0 0.015415684317234299 0.022523328820902619 0 0.014133469137257635 0.022053749412014857 0 0.014186821404477089 0.024510615734662958 0 0.016448958412551104 0.023748179555205407 0 0.014556066895509834 0.024117374190142322 0 0.015514490084362165 0.025435549284731341 0 0.012014351016642204 0.025591942708778601 0 0.011797626152824264 0.025435883624498824 0 0.011396964859619337 0.026204902646075418 0 0.0099054594606460909 0.031182744071315185 0 0.011888808030982644 0.029441175132286192 0 0.0096881176130639256 0.029342617785044479 0 0.010631753965919873 0.02877945844334355 0 0.012868809401927786 0.027109795919826204 0 0.014186821404477089 0.024510615734662958 0 0.012868809401927786 0.027109795919826204 0 0.014556066895509834 0.024117374190142322 0 0.013794887886468656 0.025723557947286677 0 0.015514490084362165 0.025435549284731341 0 0.014607619758316709 0.021377886597698459 0 0.015415684317234299 0.022523328820902619 0 0.013766203836997231 0.022656692625586075 0 0.015415684317234299 0.022523328820902619 0 0.014556066895509834 0.024117374190142322 0 0.013766203836997231 0.022656692625586075 0 0.011745464119991828 0.026269931204829088 0 0.017238323577857879 0.029327361125865523 0 0.0127918706117351 0.027143119658391425 0 0.012775127482538458 0.026796870371852202 0 0.013172189561167204 0.027215056232777812 0 0.017238323577857879 0.029327361125865523 0 0.019407130492846973 0.029917443629160087 0 0.0127918706117351 0.027143119658391425 0 0.012177617721498543 0.027535807659012007 0 0.012775127482538458 0.026796870371852202 0 0.012177617721498543 0.027535807659012007 0 0.011854717220044868 0.025949472619510298 0 0.012548349401868518 0.024706929639812508 0 0.025597302692089874 0.033459173034649244 0 0.025314872487111138 0.033221087815338286 0 0.025047639172860476 0.032576724563558188 0 0.0127918706117351 0.027143119658391425 0 0.012641089425068117 0.027428510874673882 0 0.012177617721498543 0.027535807659012007 0 0.012641089425068117 0.027428510874673882 0 0.01286666514138375 0.027326043994874469 0 0.012599059343112635 0.027884038580499891 0 0.01286666514138375 0.027326043994874469 0 0.012599059343112635 0.027884038580499891 0 0.013172189561167204 0.027215056232777812 0 0.0127918706117351 0.027143119658391425 0 0.01286666514138375 0.027326043994874469 0 0.013172189561167204 0.027215056232777812 0 0.0127918706117351 0.027143119658391425 0 0.012641089425068117 0.027428510874673882 0 0.01286666514138375 0.027326043994874469 0 0.012599059343112635 0.027884038580499891 0 0.012387650351695307 0.02856153004318699 0 0.013172189561167204 0.027215056232777812 0 0.012868809401927786 0.027109795919826204 0 0.013610876593419008 0.027114580068432058 0 0.013794887886468656 0.025723557947286677 0 0.015514490084362165 0.025435549284731341 0 0.013172189561167204 0.027215056232777812 0 0.012599059343112635 0.027884038580499891 0 0.011847339831755534 0.02821766303110301 0 0.011888808030982644 0.029441175132286192 0 0.012279548021274995 0.028414446290627476 0 0.012868809401927786 0.027109795919826204 0 0.012641089425068117 0.027428510874673882 0 0.012599059343112635 0.027884038580499891 0 0.012177617721498543 0.027535807659012007 0 0.012599059343112635 0.027884038580499891 0 0.012177617721498543 0.027535807659012007 0 0.011847339831755534 0.02821766303110301 0 0.012177617721498543 0.027535807659012007 0 0.011341396926346475 0.027721177109394268 0 0.011847339831755534 0.02821766303110301 0 0.011341396926346475 0.027721177109394268 0 0.010612100607927744 0.027762416765318505 0 0.010932029716095918 0.027117280330397165 0 0.011341396926346475 0.027721177109394268 0 0.010970971912328549 0.028507952210526964 0 0.010612100607927744 0.027762416765318505 0 0.011341396926346475 0.027721177109394268 0 0.010970971912328549 0.028507952210526964 0 0.011847339831755534 0.02821766303110301 0 0.010970971912328549 0.028507952210526964 0 0.011847339831755534 0.02821766303110301 0 0.011888808030982644 0.029441175132286192 0 0.010970971912328549 0.028507952210526964 0 0.011888808030982644 0.029441175132286192 0 0.0096881176130639256 0.029342617785044479 0 0.010970971912328549 0.028507952210526964 0 0.010023775602229187 0.028268317668664656 0 0.0096881176130639256 0.029342617785044479 0 0.010970971912328549 0.028507952210526964 0 0.010023775602229187 0.028268317668664656 0 0.010612100607927744 0.027762416765318505 0 0.010023775602229187 0.028268317668664656 0 0.010612100607927744 0.027762416765318505 0 0.0097449595174243196 0.027548103780225937 0 0.010612100607927744 0.027762416765318505 0 0.010228973835476959 0.027123446894492163 0 0.0097449595174243196 0.027548103780225937 0 0.010228973835476959 0.027123446894492163 0 0.009626843219320726 0.026882923442793326 0 0.0097449595174243196 0.027548103780225937 0 0.010228973835476959 0.027123446894492163 0 0.010301422057057171 0.026398750422387263 0 0.009626843219320726 0.026882923442793326 0 0.010228973835476959 0.027123446894492163 0 0.010932029716095918 0.027117280330397165 0 0.010301422057057171 0.026398750422387263 0 0.010932029716095918 0.027117280330397165 0 0.011196399522623916 0.02654235041158488 0 0.010301422057057171 0.026398750422387263 0 0.010612100607927744 0.027762416765318505 0 0.010228973835476959 0.027123446894492163 0 0.010932029716095918 0.027117280330397165 0 0.012177617721498543 0.027535807659012007 0 0.011702156816648959 0.026805470928792839 0 0.011854717220044868 0.025949472619510298 0 0.011341396926346475 0.027721177109394268 0 0.010932029716095918 0.027117280330397165 0 0.011505115118181303 0.027164760572776371 0 0.012177617721498543 0.027535807659012007 0 0.011505115118181303 0.027164760572776371 0 0.011702156816648959 0.026805470928792839 0 0.012177617721498543 0.027535807659012007 0 0.011341396926346475 0.027721177109394268 0 0.011505115118181303 0.027164760572776371 0 0.010932029716095918 0.027117280330397165 0 0.011505115118181303 0.027164760572776371 0 0.011196399522623916 0.02654235041158488 0 0.011505115118181303 0.027164760572776371 0 0.011702156816648959 0.026805470928792839 0 0.011196399522623916 0.02654235041158488 0 0.011196399522623916 0.02654235041158488 0 0.011854717220044868 0.025949472619510298 0 0.011040053685871192 0.025871319059375359 0 0.011702156816648959 0.026805470928792839 0 0.011196399522623916 0.02654235041158488 0 0.011854717220044868 0.025949472619510298 0 0.011854717220044868 0.025949472619510298 0 0.011333633202014847 0.025460532276611551 0 0.011753239328954983 0.025305219706227962 0 0.011333633202014847 0.025460532276611551 0 0.011040053685871192 0.025871319059375359 0 0.010969762444768496 0.025128894422318505 0 0.011854717220044868 0.025949472619510298 0 0.011333633202014847 0.025460532276611551 0 0.011040053685871192 0.025871319059375359 0 0.011040053685871192 0.025871319059375359 0 0.010372844733723617 0.025637050489761601 0 0.010969762444768496 0.025128894422318505 0 0.010372844733723617 0.025637050489761601 0 0.0097554252864201808 0.025703591602516208 0 0.0097868821697487136 0.025015755712654939 0 0.010372844733723617 0.025637050489761601 0 0.010301422057057171 0.026398750422387263 0 0.0097554252864201808 0.025703591602516208 0 0.010301422057057171 0.026398750422387263 0 0.009348209312957715 0.02622706501184692 0 0.0097554252864201808 0.025703591602516208 0 0.011196399522623916 0.02654235041158488 0 0.011040053685871192 0.025871319059375359 0 0.010301422057057171 0.026398750422387263 0 0.011040053685871192 0.025871319059375359 0 0.010372844733723617 0.025637050489761601 0 0.010301422057057171 0.026398750422387263 0 0.009348209312957715 0.02622706501184692 0 0.0090564541893607946 0.025423803974913013 0 0.0084861866221995277 0.026372213804590688 0 0.009348209312957715 0.02622706501184692 0 0.0097554252864201808 0.025703591602516208 0 0.0090564541893607946 0.025423803974913013 0 0.0090564541893607946 0.025423803974913013 0 0.008185461667386212 0.025628558943409072 0 0.0084861866221995277 0.026372213804590688 0 0.008185461667386212 0.025628558943409072 0 0.0075235714020341748 0.026123245186723452 0 0.007428784488326531 0.025332038552171986 0 0.0084861866221995277 0.026372213804590688 0 0.0078105158922048348 0.026913847412988034 0 0.0075235714020341748 0.026123245186723452 0 0.008185461667386212 0.025628558943409072 0 0.0084861866221995277 0.026372213804590688 0 0.0075235714020341748 0.026123245186723452 0 0.0084861866221995277 0.026372213804590688 0 0.0078105158922048348 0.026913847412988034 0 0.0088526577321866029 0.027130522717260314 0 0.0078105158922048348 0.026913847412988034 0 0.0079661863042187822 0.027742992846553103 0 0.0072098726874193671 0.027396770317754469 0 0.0078105158922048348 0.026913847412988034 0 0.0088526577321866029 0.027130522717260314 0 0.0079661863042187822 0.027742992846553103 0 0.009348209312957715 0.02622706501184692 0 0.0084861866221995277 0.026372213804590688 0 0.0088526577321866029 0.027130522717260314 0 0.010301422057057171 0.026398750422387263 0 0.009348209312957715 0.02622706501184692 0 0.009626843219320726 0.026882923442793326 0 0.009348209312957715 0.02622706501184692 0 0.0088526577321866029 0.027130522717260314 0 0.009626843219320726 0.026882923442793326 0 0.0088526577321866029 0.027130522717260314 0 0.009626843219320726 0.026882923442793326 0 0.0097449595174243196 0.027548103780225937 0 0.0088526577321866029 0.027130522717260314 0 0.0097449595174243196 0.027548103780225937 0 0.0090938224223105647 0.028187400435391259 0 0.010023775602229187 0.028268317668664656 0 0.0097449595174243196 0.027548103780225937 0 0.0090938224223105647 0.028187400435391259 0 0.010023775602229187 0.028268317668664656 0 0.0090938224223105647 0.028187400435391259 0 0.0096881176130639256 0.029342617785044479 0 0.0090938224223105647 0.028187400435391259 0 0.0096881176130639256 0.029342617785044479 0 0.0080644194340775792 0.02892028383273252 0 0.0078372490424506655 0.030826160168990355 0 0.0096881176130639256 0.029342617785044479 0 0.0080644194340775792 0.02892028383273252 0 0.0090938224223105647 0.028187400435391259 0 0.0080644194340775792 0.02892028383273252 0 0.0079661863042187822 0.027742992846553103 0 0.0080644194340775792 0.02892028383273252 0 0.0079661863042187822 0.027742992846553103 0 0.0069268165559055236 0.028172790640575523 0 0.0088526577321866029 0.027130522717260314 0 0.0090938224223105647 0.028187400435391259 0 0.0079661863042187822 0.027742992846553103 0 0.0079661863042187822 0.027742992846553103 0 0.0069268165559055236 0.028172790640575523 0 0.0072098726874193671 0.027396770317754469 0 0.0069268165559055236 0.028172790640575523 0 0.0058299957278696518 0.027825744094517463 0 0.0065309262775841651 0.027419582183441607 0 0.0069268165559055236 0.028172790640575523 0 0.0065309262775841651 0.027419582183441607 0 0.0072098726874193671 0.027396770317754469 0 0.0069268165559055236 0.028172790640575523 0 0.006766049465363461 0.02965307227678474 0 0.0058849305670577107 0.028728737721229084 0 0.0080644194340775792 0.02892028383273252 0 0.0069268165559055236 0.028172790640575523 0 0.006766049465363461 0.02965307227678474 0 0.006766049465363461 0.02965307227678474 0 0.0053232330260908189 0.029552621405569968 0 0.0058849305670577107 0.028728737721229084 0 0.0053232330260908189 0.029552621405569968 0 0.0058849305670577107 0.028728737721229084 0 0.00469038954404454 0.028145537979568033 0 0.0058849305670577107 0.028728737721229084 0 0.0058299957278696518 0.027825744094517463 0 0.00469038954404454 0.028145537979568033 0 0.0069268165559055236 0.028172790640575523 0 0.0058849305670577107 0.028728737721229084 0 0.0058299957278696518 0.027825744094517463 0 0.0055922478255506112 0.025804851223213549 0 0.0061485298892294217 0.023800400841808168 0 0.0039353340747317299 0.027052410797943096 0 0.0058299957278696518 0.027825744094517463 0 0.0058839504701168532 0.027109151039555374 0 0.0050794008995810897 0.027347980492125987 0 0.0054209476456802521 0.026691261088945799 0 0.0058839504701168532 0.027109151039555374 0 0.0050794008995810897 0.027347980492125987 0 0.0054209476456802521 0.026691261088945799 0 0.0058839504701168532 0.027109151039555374 0 0.0060144861541349282 0.026402309695847809 0 0.0058839504701168532 0.027109151039555374 0 0.0068124570664932277 0.026729741505744489 0 0.0060144861541349282 0.026402309695847809 0 0.0058299957278696518 0.027825744094517463 0 0.0058839504701168532 0.027109151039555374 0 0.0065309262775841651 0.027419582183441607 0 0.0065309262775841651 0.027419582183441607 0 0.0072098726874193671 0.027396770317754469 0 0.0068124570664932277 0.026729741505744489 0 0.0058839504701168532 0.027109151039555374 0 0.0065309262775841651 0.027419582183441607 0 0.0068124570664932277 0.026729741505744489 0 0.0078105158922048348 0.026913847412988034 0 0.0072098726874193671 0.027396770317754469 0 0.0068124570664932277 0.026729741505744489 0 0.0078105158922048348 0.026913847412988034 0 0.0068124570664932277 0.026729741505744489 0 0.0075235714020341748 0.026123245186723452 0 0.0068124570664932277 0.026729741505744489 0 0.0065947140159781301 0.025860797948061249 0 0.0060144861541349282 0.026402309695847809 0 0.0068124570664932277 0.026729741505744489 0 0.0075235714020341748 0.026123245186723452 0 0.0065947140159781301 0.025860797948061249 0 0.0075235714020341748 0.026123245186723452 0 0.0065947140159781301 0.025860797948061249 0 0.007428784488326531 0.025332038552171986 0 0.0065947140159781301 0.025860797948061249 0 0.0055922478255506112 0.025804851223213549 0 0.006632953003591912 0.025015890243336947 0 0.0054209476456802521 0.026691261088945799 0 0.0055922478255506112 0.025804851223213549 0 0.0060144861541349282 0.026402309695847809 0 0.0054209476456802521 0.026691261088945799 0 0.0055922478255506112 0.025804851223213549 0 0.0048647931934384806 0.026820539981626351 0 0.0065947140159781301 0.025860797948061249 0 0.0055922478255506112 0.025804851223213549 0 0.0060144861541349282 0.026402309695847809 0 0.0055922478255506112 0.025804851223213549 0 0.006632953003591912 0.025015890243336947 0 0.0061485298892294217 0.023800400841808168 0 0.0065947140159781301 0.025860797948061249 0 0.006632953003591912 0.025015890243336947 0 0.007428784488326531 0.025332038552171986 0 0.006632953003591912 0.025015890243336947 0 0.0074341214979870727 0.024450016703473756 0 0.0061485298892294217 0.023800400841808168 0 0.006632953003591912 0.025015890243336947 0 0.007428784488326531 0.025332038552171986 0 0.0074341214979870727 0.024450016703473756 0 0.0074341214979870727 0.024450016703473756 0 0.0061485298892294217 0.023800400841808168 0 0.007988317431907959 0.023542005928455376 0 0.0061485298892294217 0.023800400841808168 0 0.008090902655841125 0.022504804086168773 0 0.007988317431907959 0.023542005928455376 0 0.0044390292692693548 0.025266194548042509 0 0.0076211380253790604 0.02760897569794335 0 0.0061485298892294217 0.023800400841808168 0 0.008090902655841125 0.022504804086168773 0 0.0080527046337056114 0.020962824831028914 0 0.0030148743147158166 0.027681458289805141 0 0.0029667168304560658 0.027892535063790407 0 0.0029170655914377928 0.027966136801782161 0 0.0030148743147158166 0.027681458289805141 0 0.0029667168304560658 0.027892535063790407 0 0.0029477829327441275 0.027998518721945316 0 0.008090902655841125 0.022504804086168773 0 0.0089134376401683538 0.022865913184567419 0 0.007988317431907959 0.023542005928455376 0 0.008090902655841125 0.022504804086168773 0 0.0090235277764062569 0.022045102105195731 0 0.0089134376401683538 0.022865913184567419 0 0.008090902655841125 0.022504804086168773 0 0.0084732157814422782 0.021703992447587424 0 0.0080527046337056114 0.020962824831028914 0 0.008090902655841125 0.022504804086168773 0 0.0084732157814422782 0.021703992447587424 0 0.0090235277764062569 0.022045102105195731 0 0.0084732157814422782 0.021703992447587424 0 0.0087371342412524405 0.021314218841902589 0 0.0080527046337056114 0.020962824831028914 0 0.0087591980783876307 0.02131099635354268 0 0.0090235277764062569 0.022045102105195731 0 0.009775784587458522 0.022462369582062998 0 0.013362612193138385 0.028341298316445131 0 0.017719616719745122 0.02850104594668592 0 0.0087591980783876307 0.02131099635354268 0 0.009775784587458522 0.022462369582062998 0 0.010782400807002615 0.022315466381854689 0 0.013362612193138385 0.028341298316445131 0 0.010974534336594821 0.023320590997758468 0 0.0084732157814422782 0.021703992447587424 0 0.0087371342412524405 0.021314218841902589 0 0.0090235277764062569 0.022045102105195731 0 0.0090235277764062569 0.022045102105195731 0 0.009775784587458522 0.022462369582062998 0 0.0089134376401683538 0.022865913184567419 0 0.009775784587458522 0.022462369582062998 0 0.0089134376401683538 0.022865913184567419 0 0.0095440143202993599 0.023343401604680403 0 0.0095440143202993599 0.023343401604680403 0 0.0097930452029790695 0.024174183040984766 0 0.0089303448346472816 0.023771077215984669 0 0.0097930452029790695 0.024174183040984766 0 0.0089303448346472816 0.023771077215984669 0 0.0090306325018928348 0.024555833183156628 0 0.0089303448346472816 0.023771077215984669 0 0.0083207185440171989 0.024225660175416327 0 0.0090306325018928348 0.024555833183156628 0 0.0089134376401683538 0.022865913184567419 0 0.0095440143202993599 0.023343401604680403 0 0.0089303448346472816 0.023771077215984669 0 0.0089134376401683538 0.022865913184567419 0 0.0089303448346472816 0.023771077215984669 0 0.007988317431907959 0.023542005928455376 0 0.0074341214979870727 0.024450016703473756 0 0.007988317431907959 0.023542005928455376 0 0.0083207185440171989 0.024225660175416327 0 0.0089303448346472816 0.023771077215984669 0 0.007988317431907959 0.023542005928455376 0 0.0083207185440171989 0.024225660175416327 0 0.0083207185440171989 0.024225660175416327 0 0.0082426525957334327 0.02492547143205984 0 0.0090306325018928348 0.024555833183156628 0 0.0074341214979870727 0.024450016703473756 0 0.0083207185440171989 0.024225660175416327 0 0.0082426525957334327 0.02492547143205984 0 0.007428784488326531 0.025332038552171986 0 0.0074341214979870727 0.024450016703473756 0 0.0082426525957334327 0.02492547143205984 0 0.008185461667386212 0.025628558943409072 0 0.007428784488326531 0.025332038552171986 0 0.0082426525957334327 0.02492547143205984 0 0.0090564541893607946 0.025423803974913013 0 0.008185461667386212 0.025628558943409072 0 0.0082426525957334327 0.02492547143205984 0 0.0090564541893607946 0.025423803974913013 0 0.0082426525957334327 0.02492547143205984 0 0.0090306325018928348 0.024555833183156628 0 0.0090564541893607946 0.025423803974913013 0 0.0097868821697487136 0.025015755712654939 0 0.0090306325018928348 0.024555833183156628 0 0.0097554252864201808 0.025703591602516208 0 0.0090564541893607946 0.025423803974913013 0 0.0097868821697487136 0.025015755712654939 0 0.0097930452029790695 0.024174183040984766 0 0.0097868821697487136 0.025015755712654939 0 0.0090306325018928348 0.024555833183156628 0 0.010432005626496189 0.024796998741038325 0 0.010969762444768496 0.025128894422318505 0 0.011043848297533139 0.024569111728422008 0 0.010432005626496189 0.024796998741038325 0 0.011043848297533139 0.024569111728422008 0 0.010577190280170521 0.024198456238860522 0 0.0097930452029790695 0.024174183040984766 0 0.010432005626496189 0.024796998741038325 0 0.010577190280170521 0.024198456238860522 0 0.0097930452029790695 0.024174183040984766 0 0.0097868821697487136 0.025015755712654939 0 0.010432005626496189 0.024796998741038325 0 0.010372844733723617 0.025637050489761601 0 0.0097868821697487136 0.025015755712654939 0 0.010432005626496189 0.024796998741038325 0 0.010372844733723617 0.025637050489761601 0 0.010432005626496189 0.024796998741038325 0 0.010969762444768496 0.025128894422318505 0 0.011333633202014847 0.025460532276611551 0 0.010969762444768496 0.025128894422318505 0 0.011574030107195427 0.024911676609757127 0 0.011753239328954983 0.025305219706227962 0 0.011574030107195427 0.024911676609757127 0 0.012146353822179512 0.024940994688758499 0 0.011854717220044868 0.025949472619510298 0 0.011753239328954983 0.025305219706227962 0 0.012146353822179512 0.024940994688758499 0 0.011333633202014847 0.025460532276611551 0 0.011753239328954983 0.025305219706227962 0 0.011574030107195427 0.024911676609757127 0 0.011574030107195427 0.024911676609757127 0 0.011918818522657975 0.024554767291058262 0 0.012146353822179512 0.024940994688758499 0 0.011574030107195427 0.024911676609757127 0 0.011532890161804057 0.024477105105275593 0 0.011918818522657975 0.024554767291058262 0 0.011532890161804057 0.024477105105275593 0 0.011918818522657975 0.024554767291058262 0 0.011822169870385531 0.02415436264444009 0 0.010969762444768496 0.025128894422318505 0 0.011574030107195427 0.024911676609757127 0 0.011043848297533139 0.024569111728422008 0 0.011574030107195427 0.024911676609757127 0 0.011532890161804057 0.024477105105275593 0 0.011043848297533139 0.024569111728422008 0 0.011043848297533139 0.024569111728422008 0 0.011153760489125765 0.023875770624823767 0 0.010577190280170521 0.024198456238860522 0 0.011532890161804057 0.024477105105275593 0 0.011043848297533139 0.024569111728422008 0 0.011153760489125765 0.023875770624823767 0 0.011532890161804057 0.024477105105275593 0 0.011153760489125765 0.023875770624823767 0 0.011822169870385531 0.02415436264444009 0 0.011153760489125765 0.023875770624823767 0 0.011822169870385531 0.02415436264444009 0 0.011952708634299041 0.023720946556450354 0 0.011918818522657975 0.024554767291058262 0 0.011822169870385531 0.02415436264444009 0 0.012175678205051766 0.024160641762962745 0 0.011822169870385531 0.02415436264444009 0 0.011952708634299041 0.023720946556450354 0 0.012175678205051766 0.024160641762962745 0 0.011153760489125765 0.023875770624823767 0 0.010577190280170521 0.024198456238860522 0 0.010283311122588266 0.023390334260865026 0 0.0097930452029790695 0.024174183040984766 0 0.010577190280170521 0.024198456238860522 0 0.010283311122588266 0.023390334260865026 0 0.0095440143202993599 0.023343401604680403 0 0.0097930452029790695 0.024174183040984766 0 0.010283311122588266 0.023390334260865026 0 0.009775784587458522 0.022462369582062998 0 0.010283311122588266 0.023390334260865026 0 0.010782400807002615 0.022315466381854689 0 0.009775784587458522 0.022462369582062998 0 0.0095440143202993599 0.023343401604680403 0 0.010283311122588266 0.023390334260865026 0 0.011153760489125765 0.023875770624823767 0 0.010283311122588266 0.023390334260865026 0 0.010782400807002615 0.022315466381854689 0 0.02499797278663006 0.034811944134167369 0 0.02481001468259815 0.034673372424157974 0 0.024890619751573029 0.034827906395584231 0 0.011952708634299041 0.023720946556450354 0 0.010782400807002615 0.022315466381854689 0 0.01281048968665207 0.023379359829312087 0 0.017719616719745122 0.02850104594668592 0 0.021594927105155128 0.030662202575430109 0 0.011153760489125765 0.023875770624823767 0 0.011952708634299041 0.023720946556450354 0 0.010782400807002615 0.022315466381854689 0 0.02550560482252124 0.033906458984039996 0 0.025023470882635217 0.034314668918644826 0 0.025174712580974031 0.034799285060691451 0 0.02481001468259815 0.034673372424157974 0 0.024545197437421836 0.034509290765918202 0 0.024571209405695755 0.034984147354636418 0 0.021594927105155128 0.030662202575430109 0 0.025105370378346516 0.035557982335796948 0 0.02550560482252124 0.033906458984039996 0 0.025182612986426278 0.033668479454058819 0 0.025023470882635217 0.034314668918644826 0 0.021594927105155128 0.030662202575430109 0 0.026102041833804109 0.033802971570044603 0 0.025409161159292305 0.033548548929113915 0 0.02553956630712895 0.033796185486376591 0 0.025182612986426278 0.033668479454058819 0 0.021594927105155128 0.030662202575430109 0 0.017238323577857879 0.029327361125865523 0 0.01281048968665207 0.023379359829312087 0 0.012175678205051766 0.024160641762962745 0 0.012548349401868518 0.024706929639812508 0 0.025409161159292305 0.033548548929113915 0 0.02553956630712895 0.033796185486376591 0 0.025597302692089874 0.033459173034649244 0 0.011952708634299041 0.023720946556450354 0 0.01281048968665207 0.023379359829312087 0 0.012175678205051766 0.024160641762962745 0 0.011854717220044868 0.025949472619510298 0 0.012548349401868518 0.024706929639812508 0 0.012146353822179512 0.024940994688758499 0 0.012175678205051766 0.024160641762962745 0 0.012548349401868518 0.024706929639812508 0 0.01231329197518093 0.024698344106081609 0 0.011918818522657975 0.024554767291058262 0 0.012175678205051766 0.024160641762962745 0 0.01231329197518093 0.024698344106081609 0 0.012548349401868518 0.024706929639812508 0 0.01231329197518093 0.024698344106081609 0 0.012146353822179512 0.024940994688758499 0 0.011918818522657975 0.024554767291058262 0 0.01231329197518093 0.024698344106081609 0 0.012146353822179512 0.024940994688758499 0 0.025409161159292305 0.033548548929113915 0 0.025215020295870257 0.033280780006739376 0 0.025182612986426278 0.033668479454058819 0 0.025409161159292305 0.033548548929113915 0 0.025597302692089874 0.033459173034649244 0 0.025314872487111138 0.033221087815338286 0 0.025409161159292305 0.033548548929113915 0 0.025314872487111138 0.033221087815338286 0 0.025215020295870257 0.033280780006739376 0 0.0025499900575595051 0.028235048078469372 0 0.0025817715124374636 0.028212511160403152 0 0.002497227378981916 0.028160050434353122 0 0.0024244121003384788 0.028177836446647727 0 0.0024367866862452579 0.028216628863799845 0 0.002497227378981916 0.028160050434353122 0 -0.0016432921190533383 0.022518313597538413 0 -0.0011230014008564179 0.022854853380808303 0 -0.0011401898147931641 0.023114463027805555 0 0.0011216523335413756 0.025644000235610316 0 0.0025684687586671434 0.029080544842910835 0 -0.0025347037430984553 0.022428675075979263 0 -0.0019964352099583181 0.02023515282709247 0 -0.0025347037430984553 0.022428675075979263 0 0.0011216523335413756 0.025644000235610316 0 0.0024244121003384788 0.028177836446647727 0 0.0023601987382221639 0.028211681902989286 0 0.0024367866862452579 0.028216628863799845 0 0.0024244121003384788 0.028177836446647727 0 0.0023601987382221639 0.028211681902989286 0 0.0023439720026821923 0.028121399000204265 0 -0.0025347037430984553 0.022428675075979263 0 -0.005446618940053269 0.019736148198300864 0 -0.0054737500195203952 0.019582157586412061 0 -0.0045707440866262468 0.019801393250663608 0 -0.004568383912108117 0.019289710300919232 0 -0.0054737500195203952 0.019582157586412061 0 -0.0045707440866262468 0.019801393250663608 0 -0.0043258861374450945 0.020547849038750499 0 -0.0054737500195203952 0.019582157586412061 0 -0.004568383912108117 0.019289710300919232 0 -0.0050624693433224243 0.01840594996826319 0 -0.0053203401253130861 0.017489580885452421 0 -0.0050624693433224243 0.01840594996826319 0 -0.0064621285661292322 0.018187366669457569 0 -0.0054737500195203952 0.019582157586412061 0 -0.0050624693433224243 0.01840594996826319 0 -0.0064621285661292322 0.018187366669457569 0 -0.004568383912108117 0.019289710300919232 0 -0.0050624693433224243 0.01840594996826319 0 -0.0039982611085373921 0.018679035348587825 0 -0.0053203401253130861 0.017489580885452421 0 -0.0050624693433224243 0.01840594996826319 0 -0.004175710764564417 0.017622888284977642 0 -0.0063346308264042627 0.016880031517190159 0 -0.0053203401253130861 0.017489580885452421 0 -0.0064621285661292322 0.018187366669457569 0 -0.0023496946361775688 0.018626831952993105 0 -0.0019964352099583181 0.02023515282709247 0 -0.00015009189810600822 0.020745160305454504 0 0.0014040714046472773 0.022792404276188099 0 0.0014698805348561815 0.021973493187743592 0 0.0011216523335413756 0.025644000235610316 0 -0.0019964352099583181 0.02023515282709247 0 -0.0012634003680959422 0.020907488100358657 0 -0.00015009189810600822 0.020745160305454504 0 0.0014040714046472773 0.022792404276188099 0 0.0023726744422559935 0.025238821132697101 0 0.0011216523335413756 0.025644000235610316 0 0.0026286525861974911 0.028235940250795014 0 0.0025499900575595051 0.028235048078469372 0 0.0025977377293942387 0.028229496237791883 0 0.0026286525861974911 0.028235940250795014 0 0.0026244998204456179 0.028229722899421241 0 0.0025977377293942387 0.028229496237791883 0 0.0035390841803990014 0.029860462166377909 0 0.00469038954404454 0.028145537979568033 0 0.0038908926212483648 0.027065641099691524 0 0.0023726744422559935 0.025238821132697101 0 0.0032221886871383722 0.028432018305982135 0 0.0026286525861974911 0.028235940250795014 0 0.0026244998204456179 0.028229722899421241 0 0.0026435717765126883 0.028228756106950682 0 0.0035390841803990014 0.029860462166377909 0 0.0053232330260908189 0.029552621405569968 0 0.00469038954404454 0.028145537979568033 0 0.0058299957278696518 0.027825744094517463 0 0.00469038954404454 0.028145537979568033 0 0.0050794008995810897 0.027347980492125987 0 0.00469038954404454 0.028145537979568033 0 0.0050794008995810897 0.027347980492125987 0 0.0044318655846219222 0.027302767697724183 0 0.0032221886871383722 0.028432018305982135 0 0.0031430363670901795 0.027661144265199774 0 0.0026435717765126883 0.028228756106950682 0 0.0026339515011512341 0.028217584704029464 0 0.0027514721404575718 0.028172875206591612 0 0.0039353340747317299 0.027052410797943096 0 0.0038908926212483648 0.027065641099691524 0 0.0035218068437854969 0.027545045509773967 0 0.0054209476456802521 0.026691261088945799 0 0.0048647931934384806 0.026820539981626351 0 0.0050794008995810897 0.027347980492125987 0 0.0048647931934384806 0.026820539981626351 0 0.0050794008995810897 0.027347980492125987 0 0.0044318655846219222 0.027302767697724183 0 0.0044318655846219222 0.027302767697724183 0 0.0039353340747317299 0.027052410797943096 0 0.0038908926212483648 0.027065641099691524 0 0.00469038954404454 0.028145537979568033 0 0.0044318655846219222 0.027302767697724183 0 0.0038908926212483648 0.027065641099691524 0 0.0048647931934384806 0.026820539981626351 0 0.0044318655846219222 0.027302767697724183 0 0.0039353340747317299 0.027052410797943096 0 0.0026244998204456179 0.028229722899421241 0 0.0026435717765126883 0.028228756106950682 0 0.0026339515011512341 0.028217584704029464 0 0.0055922478255506112 0.025804851223213549 0 0.0048647931934384806 0.026820539981626351 0 0.0039353340747317299 0.027052410797943096 0 0.0025499900575595051 0.028235048078469372 0 0.0025977377293942387 0.028229496237791883 0 0.0025817715124374636 0.028212511160403152 0 0.0025977377293942387 0.028229496237791883 0 0.0026339515011512341 0.028217584704029464 0 0.0025817715124374636 0.028212511160403152 0 0.0026244998204456179 0.028229722899421241 0 0.0025977377293942387 0.028229496237791883 0 0.0026339515011512341 0.028217584704029464 0 0.0026339515011512341 0.028217584704029464 0 0.0025817715124374636 0.028212511160403152 0 0.0026242939396592703 0.028188538764717035 0 0.0025817715124374636 0.028212511160403152 0 0.0026242939396592703 0.028188538764717035 0 0.002497227378981916 0.028160050434353122 0 0.0026242939396592703 0.028188538764717035 0 0.0026403488489392894 0.02814589656978661 0 0.002497227378981916 0.028160050434353122 0 0.0026403488489392894 0.02814589656978661 0 0.0025955278255421778 0.028060552501953939 0 0.002497227378981916 0.028160050434353122 0 0.0026339515011512341 0.028217584704029464 0 0.0026242939396592703 0.028188538764717035 0 0.0027514721404575718 0.028172875206591612 0 0.0026242939396592703 0.028188538764717035 0 0.0026403488489392894 0.02814589656978661 0 0.0027514721404575718 0.028172875206591612 0 0.0026403488489392894 0.02814589656978661 0 0.0027514721404575718 0.028172875206591612 0 0.0029477829327441275 0.027998518721945316 0 0.0030148743147158166 0.027681458289805141 0 0.0035218068437854969 0.027545045509773967 0 0.0029477829327441275 0.027998518721945316 0 0.0044390292692693548 0.025266194548042509 0 0.0039299462157004507 0.027180375356565412 0 0.0030148743147158166 0.027681458289805141 0 0.0039353340747317299 0.027052410797943096 0 0.0035218068437854969 0.027545045509773967 0 0.0029477829327441275 0.027998518721945316 0 0.0025955278255421778 0.028060552501953939 0 0.0027592341568422039 0.027954302750854264 0 0.0031430363670901795 0.027661144265199774 0 0.0029959223293537451 0.028003243218980511 0 0.0029667168304560658 0.027892535063790407 0 0.0029477829327441275 0.027998518721945316 0 0.0029487056820783832 0.027947957903295868 0 0.0026403488489392894 0.02814589656978661 0 0.0029477829327441275 0.027998518721945316 0 0.0025955278255421778 0.028060552501953939 0 0.0025955278255421778 0.028060552501953939 0 0.0024625189529896923 0.028060897439222861 0 0.0025166247124420653 0.027982402732904376 0 0.0025955278255421778 0.028060552501953939 0 0.0024625189529896923 0.028060897439222861 0 0.002497227378981916 0.028160050434353122 0 0.0024625189529896923 0.028060897439222861 0 0.0023789168375880276 0.02805899106334293 0 0.0024075081496755619 0.028020980547382935 0 0.0024625189529896923 0.028060897439222861 0 0.0023964151016401766 0.028096351224667439 0 0.0023789168375880276 0.02805899106334293 0 0.0024625189529896923 0.028060897439222861 0 0.0023964151016401766 0.028096351224667439 0 0.002497227378981916 0.028160050434353122 0 0.0024244121003384788 0.028177836446647727 0 0.0024006696875939352 0.028132043827892354 0 0.002497227378981916 0.028160050434353122 0 0.0023964151016401766 0.028096351224667439 0 0.0024006696875939352 0.028132043827892354 0 0.002497227378981916 0.028160050434353122 0 0.0024244121003384788 0.028177836446647727 0 0.0023439720026821923 0.028121399000204265 0 0.0024006696875939352 0.028132043827892354 0 -0.0025347037430984553 0.022428675075979263 0 0.0001268266013181001 0.025883645103621327 0 0.0029462698691580923 0.028583006779584034 0 0.0001268266013181001 0.025883645103621327 0 -0.005082345174610081 0.020027119313422104 0 -0.004541745488061349 0.020861390913211344 0 -0.0043258861374450945 0.020547849038750499 0 0.0023439720026821923 0.028121399000204265 0 0.0024006696875939352 0.028132043827892354 0 0.0023583322039672627 0.028112498022334693 0 0.0023439720026821923 0.028121399000204265 0 0.0023583322039672627 0.028112498022334693 0 0.0023236770584867312 0.028110621032198441 0 0.0023601987382221639 0.028211681902989286 0 0.0023439720026821923 0.028121399000204265 0 0.0020202083571379537 0.02792438090850909 0 0.0023964151016401766 0.028096351224667439 0 0.0024006696875939352 0.028132043827892354 0 0.0023583322039672627 0.028112498022334693 0 0.0023964151016401766 0.028096351224667439 0 0.0023583322039672627 0.028112498022334693 0 0.0023558645441339853 0.028089385633408379 0 0.0023583322039672627 0.028112498022334693 0 0.0023558645441339853 0.028089385633408379 0 0.0023236770584867312 0.028110621032198441 0 0.0023558645441339853 0.028089385633408379 0 0.0023236770584867312 0.028110621032198441 0 0.0023268206050044561 0.028064695234016578 0 0.0023964151016401766 0.028096351224667439 0 0.0023558645441339853 0.028089385633408379 0 0.0023789168375880276 0.02805899106334293 0 0.0023558645441339853 0.028089385633408379 0 0.0023268206050044561 0.028064695234016578 0 0.0023789168375880276 0.02805899106334293 0 0.0023789168375880276 0.02805899106334293 0 0.0023439330595669693 0.028024026149312611 0 0.0024075081496755619 0.028020980547382935 0 0.0023268206050044561 0.028064695234016578 0 0.0023019988934823718 0.028033088396877737 0 0.0023439330595669693 0.028024026149312611 0 0.0023268206050044561 0.028064695234016578 0 0.0023789168375880276 0.02805899106334293 0 0.0023439330595669693 0.028024026149312611 0 0.0023019988934823718 0.028033088396877737 0 0.0022677388210990503 0.028065633611951104 0 0.0022675250234938864 0.028001642257481644 0 0.0001268266013181001 0.025883645103621327 0 -0.00074878075473461931 0.024894798390249342 0 0.0023268206050044561 0.028064695234016578 0 0.0023019988934823718 0.028033088396877737 0 0.0022677388210990503 0.028065633611951104 0 0.0015536398305102234 0.027222662090956931 0 0.0018848740443369854 0.027685241367562941 0 0.0021740624280107233 0.027794500474032688 0 -0.004541745488061349 0.020861390913211344 0 -0.002902330407895632 0.022749677329141377 0 -0.0035034884300009753 0.021511550459879982 0 0.0022677388210990503 0.028065633611951104 0 0.0022012602558484219 0.027957859720042968 0 0.0022675250234938864 0.028001642257481644 0 0.002370871453129135 0.028227509175487948 0 0.0020785788552314046 0.027825753810381104 0 0.0023236770584867312 0.028110621032198441 0 0.0023268206050044561 0.028064695234016578 0 0.0022677388210990503 0.028065633611951104 0 -0.002902330407895632 0.022749677329141377 0 -0.0021676428551329076 0.022251778673275904 0 -0.001113136169376244 0.022943872551310442 0 0.0018848740443369854 0.027685241367562941 0 0.0021740624280107233 0.027794500474032688 0 0.0022012602558484219 0.027957859720042968 0 -0.002902330407895632 0.022749677329141377 0 -0.0026959455586161871 0.021795954782131831 0 -0.0035034884300009753 0.021511550459879982 0 -0.002902330407895632 0.022749677329141377 0 -0.0026959455586161871 0.021795954782131831 0 -0.0021676428551329076 0.022251778673275904 0 -0.0026959455586161871 0.021795954782131831 0 -0.0021676428551329076 0.022251778673275904 0 -0.0020366412729360419 0.021406078965012242 0 -0.0021676428551329076 0.022251778673275904 0 -0.0020366412729360419 0.021406078965012242 0 -0.001113136169376244 0.022943872551310442 0 -0.0026959455586161871 0.021795954782131831 0 -0.0028721379765732752 0.021010545777408119 0 -0.0035034884300009753 0.021511550459879982 0 -0.0026959455586161871 0.021795954782131831 0 -0.0020366412729360419 0.021406078965012242 0 -0.0028721379765732752 0.021010545777408119 0 -0.0028721379765732752 0.021010545777408119 0 -0.0032114450226359515 0.020250334353837638 0 -0.002106282286493415 0.019879904808643101 0 -0.0020366412729360419 0.021406078965012242 0 -0.0028721379765732752 0.021010545777408119 0 -0.002106282286493415 0.019879904808643101 0 0.0001268266013181001 0.025883645103621327 0 0.002370871453129135 0.028227509175487948 0 -0.004541745488061349 0.020861390913211344 0 -0.0035034884300009753 0.021511550459879982 0 -0.0039424438565638367 0.020879936012544596 0 -0.0028721379765732752 0.021010545777408119 0 -0.0035034884300009753 0.021511550459879982 0 -0.003465486846296825 0.020828666802347805 0 -0.0035034884300009753 0.021511550459879982 0 -0.003465486846296825 0.020828666802347805 0 -0.0039424438565638367 0.020879936012544596 0 -0.003465486846296825 0.020828666802347805 0 -0.0037799388096072441 0.020499983232447769 0 -0.0039424438565638367 0.020879936012544596 0 -0.0028721379765732752 0.021010545777408119 0 -0.003465486846296825 0.020828666802347805 0 -0.0032114450226359515 0.020250334353837638 0 -0.003465486846296825 0.020828666802347805 0 -0.0032114450226359515 0.020250334353837638 0 -0.0037799388096072441 0.020499983232447769 0 -0.0037799388096072441 0.020499983232447769 0 -0.0043258861374450945 0.020547849038750499 0 -0.0039007128445156915 0.019784056736095543 0 -0.0037799388096072441 0.020499983232447769 0 -0.0039424438565638367 0.020879936012544596 0 -0.0043258861374450945 0.020547849038750499 0 -0.004541745488061349 0.020861390913211344 0 -0.0039424438565638367 0.020879936012544596 0 -0.0043258861374450945 0.020547849038750499 0 -0.0045707440866262468 0.019801393250663608 0 -0.004568383912108117 0.019289710300919232 0 -0.0039007128445156915 0.019784056736095543 0 -0.0045707440866262468 0.019801393250663608 0 -0.0043258861374450945 0.020547849038750499 0 -0.0039007128445156915 0.019784056736095543 0 -0.004568383912108117 0.019289710300919232 0 -0.0039007128445156915 0.019784056736095543 0 -0.0039982611085373921 0.018679035348587825 0 -0.0039007128445156915 0.019784056736095543 0 -0.0030715105971151299 0.019275018434879644 0 -0.0039982611085373921 0.018679035348587825 0 -0.0032114450226359515 0.020250334353837638 0 -0.0039007128445156915 0.019784056736095543 0 -0.0030715105971151299 0.019275018434879644 0 -0.0032114450226359515 0.020250334353837638 0 -0.0037799388096072441 0.020499983232447769 0 -0.0039007128445156915 0.019784056736095543 0 -0.002106282286493415 0.019879904808643101 0 -0.0030715105971151299 0.019275018434879644 0 -0.0024980685756692991 0.018459440211372989 0 -0.002106282286493415 0.019879904808643101 0 -0.0024980685756692991 0.018459440211372989 0 -0.0014931292522917551 0.018853924524634583 0 -0.0032114450226359515 0.020250334353837638 0 -0.002106282286493415 0.019879904808643101 0 -0.0030715105971151299 0.019275018434879644 0 -0.0024980685756692991 0.018459440211372989 0 -0.0032593480040049643 0.017990481860073508 0 -0.0027795012759065972 0.017097808927905033 0 -0.0024980685756692991 0.018459440211372989 0 -0.00087484077865858931 0.017815270171002578 0 -0.0027795012759065972 0.017097808927905033 0 -0.0016754758229450613 0.016970643446102194 0 -0.003292425146003271 0.015767865364325919 0 -0.0030715105971151299 0.019275018434879644 0 -0.0024980685756692991 0.018459440211372989 0 -0.0032593480040049643 0.017990481860073508 0 -0.0032593480040049643 0.017990481860073508 0 -0.004175710764564417 0.017622888284977642 0 -0.0027795012759065972 0.017097808927905033 0 -0.0032593480040049643 0.017990481860073508 0 -0.004175710764564417 0.017622888284977642 0 -0.0039982611085373921 0.018679035348587825 0 -0.0050624693433224243 0.01840594996826319 0 -0.004175710764564417 0.017622888284977642 0 -0.0039982611085373921 0.018679035348587825 0 -0.0030715105971151299 0.019275018434879644 0 -0.0032593480040049643 0.017990481860073508 0 -0.0039982611085373921 0.018679035348587825 0 -0.0023694286361159197 0.01418996239533174 0 -0.0031688254761226774 0.013805138026806957 0 -0.0016754758229450613 0.016970643446102194 0 0.00084023120470256283 0.018255540837908785 0 0.0010043905172686012 0.018334068682600693 0 0.0024316449466972633 0.016644863840247166 0 -0.00097165145947458991 0.014701682219414825 0 -0.0027045524362562337 0.016120790407443502 0 0.0010043905172686012 0.018334068682600693 0 -0.00097165145947458991 0.014701682219414825 0 -0.0024980685756692991 0.018459440211372989 0 -0.00087484077865858931 0.017815270171002578 0 -0.0014931292522917551 0.018853924524634583 0 -0.002106282286493415 0.019879904808643101 0 -0.00051083452444624386 0.019296899218886984 0 -0.0010341104581687117 0.020588684453484198 0 -0.00087484077865858931 0.017815270171002578 0 -0.00051083452444624386 0.019296899218886984 0 -0.0014931292522917551 0.018853924524634583 0 -0.002106282286493415 0.019879904808643101 0 -0.00051083452444624386 0.019296899218886984 0 -0.0014931292522917551 0.018853924524634583 0 -0.00051083452444624386 0.019296899218886984 0 0.0010043905172686012 0.018334068682600693 0 0.00039977576514528952 0.020955295104673147 0 -0.00087484077865858931 0.017815270171002578 0 -0.00051083452444624386 0.019296899218886984 0 0.0010043905172686012 0.018334068682600693 0 -0.0020366412729360419 0.021406078965012242 0 -0.0010341104581687117 0.020588684453484198 0 -0.001113136169376244 0.022943872551310442 0 -0.00051083452444624386 0.019296899218886984 0 0.00039977576514528952 0.020955295104673147 0 -0.0010341104581687117 0.020588684453484198 0 0.00039977576514528952 0.020955295104673147 0 -0.0010341104581687117 0.020588684453484198 0 -0.001113136169376244 0.022943872551310442 0 -0.0020366412729360419 0.021406078965012242 0 -0.002106282286493415 0.019879904808643101 0 -0.0010341104581687117 0.020588684453484198 0 0.00039977576514528952 0.020955295104673147 0 0.00095311492231423933 0.023155623021984244 0 0.0023575257709461091 0.021922635548915419 0 0.00039977576514528952 0.020955295104673147 0 -0.001113136169376244 0.022943872551310442 0 0.00095311492231423933 0.023155623021984244 0 0.00095311492231423933 0.023155623021984244 0 0.0023575257709461091 0.021922635548915419 0 0.003227094744919183 0.024661109986162767 0 0.0023575257709461091 0.021922635548915419 0 0.0043579734839870937 0.021407664973016455 0 0.003227094744919183 0.024661109986162767 0 -0.0041892985133378195 0.018874046798579597 0 -0.0043333808834667689 0.018144765206089208 0 -0.0048029503709060327 0.019266974469073692 0 0.00057008852078358266 0.020153491993552496 0 -0.00097850977757433632 0.021784795909580292 0 0.00057008852078358266 0.020153491993552496 0 -0.0032376722632276541 0.015450004544403203 0 0.0023575257709461091 0.021922635548915419 0 0.0043579734839870937 0.021407664973016455 0 0.0028529286319544595 0.019504930839911283 0 0.00021157474857389747 0.020952813584794568 0 0.0034967293807044043 0.01959186674640705 0 0.00039977576514528952 0.020955295104673147 0 0.0023575257709461091 0.021922635548915419 0 0.0028529286319544595 0.019504930839911283 0 -0.013845113910964301 0.013961128287644805 0 -0.013265622728361879 0.014227101380556936 0 -0.013267896714102195 0.013238783400346139 0 -0.0041892985133378195 0.018874046798579597 0 -0.0034016911551764499 0.018360982715154749 0 -0.0038313984239965377 0.019438538197943989 0 -0.0041892985133378195 0.018874046798579597 0 -0.0043333808834667689 0.018144765206089208 0 -0.0034016911551764499 0.018360982715154749 0 -0.0043333808834667689 0.018144765206089208 0 -0.0037675241668148167 0.017744920296251777 0 -0.0039000693843610286 0.016995393442299639 0 -0.0043333808834667689 0.018144765206089208 0 -0.0034016911551764499 0.018360982715154749 0 -0.0037675241668148167 0.017744920296251777 0 -0.0034016911551764499 0.018360982715154749 0 -0.0037675241668148167 0.017744920296251777 0 -0.0033809011230197358 0.017255441627105725 0 -0.013265622728361879 0.014227101380556936 0 -0.013258024291959587 0.015296468414774186 0 -0.01408554920340176 0.014898426249919149 0 -0.013845113910964301 0.013961128287644805 0 -0.013265622728361879 0.014227101380556936 0 -0.01408554920340176 0.014898426249919149 0 -0.0081894629698825178 0.016877273995496676 0 -0.0095604920591817483 0.014161859728176148 0 -0.0096797046037845873 0.010621518952031887 0 -0.010318853853220492 0.011500728931751853 0 -0.010996168910532811 0.01103198349536497 0 -0.0095604920591817483 0.014161859728176148 0 -0.01293805229259839 0.01215643062669973 0 -0.0096797046037845873 0.010621518952031887 0 -0.010996168910532811 0.01103198349536497 0 -0.01095993054847887 0.0099844165561478303 0 -0.0095604920591817483 0.014161859728176148 0 -0.0096599724241767555 0.010538383897377676 0 -0.0037675241668148167 0.017744920296251777 0 -0.0033809011230197358 0.017255441627105725 0 -0.0039000693843610286 0.016995393442299639 0 -0.0096279872146688497 0.01083174728387223 0 -0.0088783266580900189 0.011193025576024723 0 -0.0090446587815093613 0.011545349783973409 0 -0.0095604920591817483 0.014161859728176148 0 -0.0032376722632276541 0.015450004544403203 0 -0.0032376722632276541 0.015450004544403203 0 -0.00079693395356140301 0.015478550682368643 0 -0.006609556799743406 0.013209375932316702 0 -0.010271218021044408 0.012063418334891792 0 -0.0096279872146688497 0.01083174728387223 0 -0.0090446587815093613 0.011545349783973409 0 -0.0097107324478049734 0.011759784072227098 0 -0.0084685682638807221 0.011182553808567653 0 -0.0098839918966544486 0.012006685569607614 0 -0.0092490606431487096 0.012918090529525498 0 -0.006609556799743406 0.013209375932316702 0 -0.0094664347890925735 0.012315687723103486 0 -0.0090446587815093613 0.011545349783973409 0 -0.0097107324478049734 0.011759784072227098 0 -0.010171798571999855 0.012144410164044155 0 -0.0085253083319111397 0.011618519128758805 0 -0.008059682680039185 0.011352567693757922 0 -0.0079241723177965722 0.012014434669153711 0 -0.006609556799743406 0.013209375932316702 0 -0.00079693395356140301 0.015478550682368643 0 -0.0040838884357117227 0.014097771223378509 0 -0.0043869094607904679 0.014772857116220986 0 -0.0036227937453792796 0.014324876612621822 0 -0.0032376722632276541 0.015450004544403203 0 -0.006609556799743406 0.013209375932316702 0 -0.0085253083319111397 0.011618519128758805 0 -0.0079241723177965722 0.012014434669153711 0 -0.0082994991996341305 0.012516051263788337 0 -0.0096797046037845873 0.010621518952031887 0 -0.0097107324478049734 0.011759784072227098 0 -0.010318853853220492 0.011500728931751853 0 -0.0097107324478049734 0.011759784072227098 0 -0.010171798571999855 0.012144410164044155 0 -0.010318853853220492 0.011500728931751853 0 -0.010171798571999855 0.012144410164044155 0 -0.010318853853220492 0.011500728931751853 0 -0.011019316321349535 0.011900866639691881 0 0.0010043905172686012 0.018334068682600693 0 0.00039977576514528952 0.020955295104673147 0 0.0023197368111171797 0.019638335306901331 0 0.0010043905172686012 0.018334068682600693 0 0.0026928216295920471 0.018181949641586891 0 0.0023197368111171797 0.019638335306901331 0 0.0034967293807044043 0.01959186674640705 0 -0.00079693395356140301 0.015478550682368643 0 0.0043579734839870937 0.021407664973016455 0 0.0055274995604422507 0.01834867471427179 0 0.0050535524505346107 0.018111200378117528 0 0.0043579734839870937 0.021407664973016455 0 0.0028529286319544595 0.019504930839911283 0 0.0050535524505346107 0.018111200378117528 0 0.0026928216295920471 0.018181949641586891 0 0.0023197368111171797 0.019638335306901331 0 0.0049582329126948129 0.018087301559162265 0 -0.008059682680039185 0.011352567693757922 0 -0.0079241723177965722 0.012014434669153711 0 -0.0067552492670937773 0.012014047528292654 0 -0.00079693395356140301 0.015478550682368643 0 -0.0023694286361159197 0.01418996239533174 0 -0.0079241723177965722 0.012014434669153711 0 -0.0067552492670937773 0.012014047528292654 0 -0.0076809384221613163 0.012626239471822358 0 0.0026928216295920471 0.018181949641586891 0 0.0049582329126948129 0.018087301559162265 0 0.0024316449466972633 0.016644863840247166 0 0.0010043905172686012 0.018334068682600693 0 0.0026928216295920471 0.018181949641586891 0 0.0024316449466972633 0.016644863840247166 0 -0.0067552492670937773 0.012014047528292654 0 -0.0068653885645134968 0.013228299227118965 0 -0.0076809384221613163 0.012626239471822358 0 -0.0067552492670937773 0.012014047528292654 0 -0.0068653885645134968 0.013228299227118965 0 -0.0054205861160614563 0.012747695433201875 0 -0.0068653885645134968 0.013228299227118965 0 -0.0076809384221613163 0.012626239471822358 0 -0.0081040661072729007 0.013451995610182335 0 -0.0079241723177965722 0.012014434669153711 0 -0.0076809384221613163 0.012626239471822358 0 -0.0082994991996341305 0.012516051263788337 0 -0.0076809384221613163 0.012626239471822358 0 -0.0081040661072729007 0.013451995610182335 0 -0.0082994991996341305 0.012516051263788337 0 -0.0068653885645134968 0.013228299227118965 0 -0.0071683793878162504 0.014392222206229719 0 -0.0081040661072729007 0.013451995610182335 0 -0.0071683793878162504 0.014392222206229719 0 -0.0081040661072729007 0.013451995610182335 0 -0.0081541015271284246 0.014500965046876832 0 -0.0068653885645134968 0.013228299227118965 0 -0.0071683793878162504 0.014392222206229719 0 -0.0058573297797262416 0.014037451718374255 0 -0.0098839918966544486 0.012006685569607614 0 -0.01002056778871765 0.013196323812439265 0 -0.0092490606431487096 0.012918090529525498 0 -0.0098839918966544486 0.012006685569607614 0 -0.01002056778871765 0.013196323812439265 0 -0.011290982122275563 0.012807451634274816 0 -0.0081040661072729007 0.013451995610182335 0 -0.0092490606431487096 0.012918090529525498 0 -0.0082994991996341305 0.012516051263788337 0 -0.0085253083319111397 0.011618519128758805 0 -0.0092490606431487096 0.012918090529525498 0 -0.0082994991996341305 0.012516051263788337 0 -0.0081040661072729007 0.013451995610182335 0 -0.0092490606431487096 0.012918090529525498 0 -0.0092150542480047056 0.013968098749551862 0 -0.0081040661072729007 0.013451995610182335 0 -0.0092150542480047056 0.013968098749551862 0 -0.0081541015271284246 0.014500965046876832 0 -0.01002056778871765 0.013196323812439265 0 -0.0092150542480047056 0.013968098749551862 0 -0.010491433395676344 0.014158023318852719 0 -0.01002056778871765 0.013196323812439265 0 -0.0092490606431487096 0.012918090529525498 0 -0.0092150542480047056 0.013968098749551862 0 -0.0092150542480047056 0.013968098749551862 0 -0.0094757276261045065 0.015623349532337584 0 -0.010491433395676344 0.014158023318852719 0 -0.0092150542480047056 0.013968098749551862 0 -0.0094757276261045065 0.015623349532337584 0 -0.0081541015271284246 0.014500965046876832 0 -0.0094757276261045065 0.015623349532337584 0 -0.0081541015271284246 0.014500965046876832 0 -0.0078964243615458635 0.015563840362621571 0 -0.0087852715750233769 0.016856329631590766 0 -0.0094757276261045065 0.015623349532337584 0 -0.0078964243615458635 0.015563840362621571 0 -0.0071683793878162504 0.014392222206229719 0 -0.0064241204890894445 0.01517930567824269 0 -0.0078964243615458635 0.015563840362621571 0 -0.0071683793878162504 0.014392222206229719 0 -0.0064241204890894445 0.01517930567824269 0 -0.0058573297797262416 0.014037451718374255 0 -0.0071683793878162504 0.014392222206229719 0 -0.0081541015271284246 0.014500965046876832 0 -0.0078964243615458635 0.015563840362621571 0 -0.0064241204890894445 0.01517930567824269 0 -0.0078964243615458635 0.015563840362621571 0 -0.0067205174547921758 0.016092640199139193 0 -0.0064241204890894445 0.01517930567824269 0 -0.0067205174547921758 0.016092640199139193 0 -0.0057401585463089724 0.015865427310066012 0 -0.0064241204890894445 0.01517930567824269 0 -0.0057401585463089724 0.015865427310066012 0 -0.0053057211472748757 0.014858702898423379 0 -0.0064241204890894445 0.01517930567824269 0 -0.0053057211472748757 0.014858702898423379 0 -0.0058573297797262416 0.014037451718374255 0 -0.0053057211472748757 0.014858702898423379 0 -0.004334790410600131 0.014615356742509392 0 -0.0047351124210158581 0.015735717196834781 0 -0.0057401585463089724 0.015865427310066012 0 -0.0053057211472748757 0.014858702898423379 0 -0.0047351124210158581 0.015735717196834781 0 -0.005115910811058149 0.016639962699956497 0 -0.0057401585463089724 0.015865427310066012 0 -0.0047351124210158581 0.015735717196834781 0 -0.0041222011406701767 0.01674696448253564 0 -0.0047351124210158581 0.015735717196834781 0 -0.003838438385467895 0.01574056170416609 0 -0.0028061907528393109 0.016662029345572413 0 -0.003838438385467895 0.01574056170416609 0 -0.0029550123899671362 0.015535412736889864 0 -0.0026690699837599932 0.014824909478222273 0 -0.0029550123899671362 0.015535412736889864 0 -0.0035174905700090997 0.014740658576256739 0 -0.003838438385467895 0.01574056170416609 0 -0.0029550123899671362 0.015535412736889864 0 -0.0035174905700090997 0.014740658576256739 0 -0.004334790410600131 0.014615356742509392 0 -0.003838438385467895 0.01574056170416609 0 -0.0035174905700090997 0.014740658576256739 0 -0.004334790410600131 0.014615356742509392 0 -0.0047351124210158581 0.015735717196834781 0 -0.003838438385467895 0.01574056170416609 0 -0.004334790410600131 0.014615356742509392 0 -0.0038354272698524435 0.014148494681114957 0 -0.0038892791554008244 0.013781802444613746 0 -0.004334790410600131 0.014615356742509392 0 -0.0035174905700090997 0.014740658576256739 0 -0.0038354272698524435 0.014148494681114957 0 -0.0026690699837599932 0.014824909478222273 0 -0.003061725318782133 0.013963929258654587 0 -0.0035174905700090997 0.014740658576256739 0 -0.003061725318782133 0.013963929258654587 0 -0.0035174905700090997 0.014740658576256739 0 -0.0038354272698524435 0.014148494681114957 0 -0.0045490946994194963 0.016373053464675474 0 -0.004175710764564417 0.017622888284977642 0 -0.0027795012759065972 0.017097808927905033 0 -0.0042242104354037781 0.014981981990954499 0 -0.003292425146003271 0.015767865364325919 0 -0.003061725318782133 0.013963929258654587 0 -0.0038354272698524435 0.014148494681114957 0 -0.0041441477844337974 0.014232843583738384 0 -0.0027045524362562337 0.016120790407443502 0 -0.0041441477844337974 0.014232843583738384 0 -0.0038892791554008244 0.013781802444613746 0 -0.0038354272698524435 0.014148494681114957 0 -0.0041441477844337974 0.014232843583738384 0 -0.0038892791554008244 0.013781802444613746 0 -0.0038184538418538291 0.013715395594784447 0 -0.0031688254761226774 0.013805138026806957 0 -0.0038892791554008244 0.013781802444613746 0 -0.0054205861160614563 0.012747695433201875 0 -0.0049270071676915167 0.013977118253295281 0 -0.0027045524362562337 0.016120790407443502 0 -0.0038892791554008244 0.013781802444613746 0 -0.00097165145947458991 0.014701682219414825 0 -0.0068653885645134968 0.013228299227118965 0 -0.0054205861160614563 0.012747695433201875 0 -0.0058573297797262416 0.014037451718374255 0 -0.0054205861160614563 0.012747695433201875 0 -0.0058573297797262416 0.014037451718374255 0 -0.0049270071676915167 0.013977118253295281 0 -0.0053057211472748757 0.014858702898423379 0 -0.0058573297797262416 0.014037451718374255 0 -0.0049270071676915167 0.013977118253295281 0 -0.0053057211472748757 0.014858702898423379 0 -0.004334790410600131 0.014615356742509392 0 -0.0049270071676915167 0.013977118253295281 0 -0.004334790410600131 0.014615356742509392 0 -0.0038892791554008244 0.013781802444613746 0 -0.0049270071676915167 0.013977118253295281 0 0.036018780618257161 0.007215946770682131 0 0.036638977052837744 0.0082075970479649485 0 0.037015479972982733 0.0069666264449249364 0 0.036018780618257161 0.007215946770682131 0 0.037015479972982733 0.0069666264449249364 0 0.036464148779514455 0.0059248276077511521 0 0.036018780618257161 0.007215946770682131 0 0.034999867158483369 0.0084690575491574178 0 0.03499984722143247 0.0064935318040634229 0 0.036018780618257161 0.007215946770682131 0 0.034999867158483369 0.0084690575491574178 0 0.036638977052837744 0.0082075970479649485 0 0.034999867158483369 0.0084690575491574178 0 0.036638977052837744 0.0082075970479649485 0 0.036223341797907732 0.0097631333984302682 0 0.036638977052837744 0.0082075970479649485 0 0.037525995597213709 0.008360430210834045 0 0.037638457294810974 0.0074302907525732242 0 0.036638977052837744 0.0082075970479649485 0 0.037525995597213709 0.008360430210834045 0 0.036941248765462224 0.0091986511497199035 0 0.037525995597213709 0.008360430210834045 0 0.037967784964533902 0.0086607431271561487 0 0.037547540873337192 0.009125706707470628 0 0.037525995597213709 0.008360430210834045 0 0.037547540873337192 0.009125706707470628 0 0.036941248765462224 0.0091986511497199035 0 0.038417084942832892 0.009050310746310743 0 0.037967784964533902 0.0086607431271561487 0 0.038405637210129615 0.007337085506391834 0 0.037525995597213709 0.008360430210834045 0 0.037967784964533902 0.0086607431271561487 0 0.038405637210129615 0.007337085506391834 0 0.037842218851714023 0.013380288075495253 0 0.037822171671316684 0.012967645236069199 0 0.0374086792280858 0.012252613518774677 0 0.038053608318990358 0.011053357130331903 0 0.037943425306260173 0.0099617281518105481 0 0.037842218851714023 0.013380288075495253 0 0.037822171671316684 0.012967645236069199 0 0.037593571972425563 0.013196749987597553 0 0.037822171671316684 0.012967645236069199 0 0.037927634198203337 0.012919439463431617 0 0.037593571972425563 0.013196749987597553 0 0.038417084942832892 0.009050310746310743 0 0.037967784964533902 0.0086607431271561487 0 0.037890129159840531 0.0093709924988606488 0 0.037822171671316684 0.012967645236069199 0 0.0374086792280858 0.012252613518774677 0 0.038031327788438929 0.012847169422954875 0 0.036791408624551408 0.012347289117357746 0 0.036000244509394527 0.012542355282127448 0 0.0374086792280858 0.012252613518774677 0 0.038275586645935 0.011646372865893526 0 0.038031327788438929 0.012847169422954875 0 0.037525995597213709 0.008360430210834045 0 0.038405637210129615 0.007337085506391834 0 0.037638457294810974 0.0074302907525732242 0 0.038405637210129615 0.007337085506391834 0 0.037638457294810974 0.0074302907525732242 0 0.037831927831810698 0.0066556919920185992 0 0.036638977052837744 0.0082075970479649485 0 0.037638457294810974 0.0074302907525732242 0 0.037015479972982733 0.0069666264449249364 0 0.037638457294810974 0.0074302907525732242 0 0.037015479972982733 0.0069666264449249364 0 0.037831927831810698 0.0066556919920185992 0 0.037015479972982733 0.0069666264449249364 0 0.037831927831810698 0.0066556919920185992 0 0.037243985274141418 0.0061223737195186482 0 0.037831927831810698 0.0066556919920185992 0 0.037770293378707923 0.0058170254476999595 0 0.037243985274141418 0.0061223737195186482 0 0.037243985274141418 0.0061223737195186482 0 0.037149879072211824 0.0052705407694906524 0 0.036464148779514455 0.0059248276077511521 0 0.037770293378707923 0.0058170254476999595 0 0.037243985274141418 0.0061223737195186482 0 0.037149879072211824 0.0052705407694906524 0 0.0374086792280858 0.012252613518774677 0 0.037881529278814816 0.010985556844279869 0 0.038275586645935 0.011646372865893526 0 0.037943425306260173 0.0099617281518105481 0 0.037500201480147231 0.0073368114890137769 0 0.0374086792280858 0.012252613518774677 0 0.037881529278814816 0.010985556844279869 0 0.037105880139348742 0.010592530708628995 0 0.038405637210129615 0.007337085506391834 0 0.037831927831810698 0.0066556919920185992 0 0.038247632148127465 0.0057125424708373562 0 0.037881529278814816 0.010985556844279869 0 0.037105880139348742 0.010592530708628995 0 0.038521783777550486 0.010263269395020603 0 0.037831927831810698 0.0066556919920185992 0 0.037770293378707923 0.0058170254476999595 0 0.038247632148127465 0.0057125424708373562 0 0.038026658758680561 0.0066520816021911101 0 0.037500201480147231 0.0073368114890137769 0 0.037763717500677668 0.0048053660905017608 0 0.036226331654470902 0.0040650215766578667 0 0.037500201480147231 0.0073368114890137769 0 0.035688453454396758 0.0086424972725682586 0 0.036914915057060495 0.0059585661824201556 0 0.036670905167249419 0.0061457518788130263 0 0.036421903959565544 0.0060695527067537057 0 0.036670905167249419 0.0061457518788130263 0 0.036963711044980432 0.006280756875029608 0 0.036383691961011599 0.0062735309952127562 0 0.037500201480147231 0.0073368114890137769 0 0.037763717500677668 0.0048053660905017608 0 0.036914915057060495 0.0059585661824201556 0 0.036670905167249419 0.0061457518788130263 0 0.036963711044980432 0.006280756875029608 0 0.038236279739717625 0.005703584396819038 0 0.038103696909741851 0.0048092160649936284 0 0.037785741405043274 0.0053479476232757622 0 0.037763717500677668 0.0048053660905017608 0 0.036603380729560077 0.0045305752155252307 0 0.038103696909741851 0.0048092160649936284 0 0.037149879072211824 0.0052705407694906524 0 0.036527596337734232 0.0047304272333190981 0 0.038103696909741851 0.0048092160649936284 0 0.037149879072211824 0.0052705407694906524 0 0.037785741405043274 0.0053479476232757622 0 0.037770293378707923 0.0058170254476999595 0 0.037149879072211824 0.0052705407694906524 0 0.037785741405043274 0.0053479476232757622 0 0.037770293378707923 0.0058170254476999595 0 0.038236279739717625 0.005703584396819038 0 0.037785741405043274 0.0053479476232757622 0 0.036527596337734232 0.0047304272333190981 0 0.036464148779514455 0.0059248276077511521 0 0.034999946618134457 0.0045184062725314089 0 0.037149879072211824 0.0052705407694906524 0 0.036527596337734232 0.0047304272333190981 0 0.036464148779514455 0.0059248276077511521 0 0.037015479972982733 0.0069666264449249364 0 0.037243985274141418 0.0061223737195186482 0 0.036464148779514455 0.0059248276077511521 0 0.036464148779514455 0.0059248276077511521 0 0.03499984722143247 0.0064935318040634229 0 0.034999946618134457 0.0045184062725314089 0 0.036018780618257161 0.007215946770682131 0 0.036464148779514455 0.0059248276077511521 0 0.03499984722143247 0.0064935318040634229 0 0.036603380729560077 0.0045305752155252307 0 0.035000164545771602 0.0045180293988086205 0 0.034999998659630105 0.0045177622068089066 0 0.036004113244054968 0.0035095552162579297 0 0.034999961018195247 0.0028337660342139612 0 0.036592238897778677 0.0043813351599557215 0 0.034999998659630105 0.0045177622068089066 0 0.036004113244054968 0.0035095552162579297 0 0.036592238897778677 0.0043813351599557215 0 0.036004113244054968 0.0035095552162579297 0 0.037010839210524817 0.0033806845187575969 0 0.036004113244054968 0.0035095552162579297 0 0.036613626010383975 0.0022482781820927903 0 0.037010839210524817 0.0033806845187575969 0 0.036004113244054968 0.0035095552162579297 0 0.034999961018195247 0.0028337660342139612 0 0.036613626010383975 0.0022482781820927903 0 0.035000292204300142 0.001149476690524763 0 0.036198432390523984 0.001595751312538321 0 0.034999961018195247 0.0028337660342139612 0 0.034999983490457423 0.0011495173191772878 0 0.036613626010383975 0.0022482781820927903 0 0.035000068249978054 0.0011478444733487535 0 0.036026103574740669 0.0010456575383663478 0 0.035885048693850702 0.00083652537828319531 0 0.036026103574740669 0.0010456575383663478 0 0.035885048693850702 0.00083652537828319531 0 0.036164105821045539 0.00089587676003893043 0 0.035885048693850702 0.00083652537828319531 0 0.036201018690780802 0.0006345372108603845 0 0.036164105821045539 0.00089587676003893043 0 0.035578561594229792 -0.00034519825747983331 0 0.035614444915976519 0.00044453404871403927 0 0.036201018690780802 0.0006345372108603845 0 0.035586917083185766 -0.00030645789181462768 0 0.035918114246219435 0.00019161263907289559 0 0.035885048693850702 0.00083652537828319531 0 0.035614444915976519 0.00044453404871403927 0 0.036201018690780802 0.0006345372108603845 0 0.035000068249978054 0.0011478444733487535 0 0.035885048693850702 0.00083652537828319531 0 0.035614444915976519 0.00044453404871403927 0 0.034999802616249139 -0.00018407810059739219 0 0.035000068249978054 0.0011478444733487535 0 0.035614444915976519 0.00044453404871403927 0 0.03319251667559573 -0.0090227412247049707 0 0.032973336587445369 -0.0093893215410386331 0 0.033512324346936247 -0.0096163049687378755 0 0.032973336587445369 -0.0093893215410386331 0 0.033512324346936247 -0.0096163049687378755 0 0.032638389714631927 -0.0096196040535033375 0 0.035693439180522257 -0.0003391191960031739 0 0.035774506898720901 -0.00022355327843026233 0 0.035677603569683983 -0.00021499820183765278 0 0.034954156888057197 -0.004921707564290884 0 0.034659370050287817 -0.0048994779636541124 0 0.035918114246219435 0.00019161263907289559 0 0.036037516378822659 0.00052048331495120365 0 0.035774506898720901 -0.00022355327843026233 0 0.035677603569683983 -0.00021499820183765278 0 0.035807588714985732 0.00013640407541517179 0 0.036201018690780802 0.0006345372108603845 0 0.036164105821045539 0.00089587676003893043 0 0.03622697089611205 0.00090222085886082688 0 0.034659370050287817 -0.0048994779636541124 0 0.034593902432979266 -0.0048945056270328956 0 0.033512324346936247 -0.0096163049687378755 0 0.032868171222831137 -0.0099890435502221937 0 0.032638389714631927 -0.0096196040535033375 0 0.035774506898720901 -0.00022355327843026233 0 0.035807588714985732 0.00013640407541517179 0 0.036054128370652458 7.3564892618672718e-05 0 0.036037516378822659 0.00052048331495120365 0 0.036207255598472467 0.00074019358664414927 0 0.035807588714985732 0.00013640407541517179 0 0.036054128370652458 7.3564892618672718e-05 0 0.036213690465950021 0.00074496191705883245 0 0.03622697089611205 0.00090222085886082688 0 0.036232170038035465 0.00084240033969928377 0 0.036213690465950021 0.00074496191705883245 0 0.036164105821045539 0.00089587676003893043 0 0.03622697089611205 0.00090222085886082688 0 0.036232170038035465 0.00084240033969928377 0 0.036198432390523984 0.001595751312538321 0 0.037434805823803222 0.0022245809333240694 0 0.036026103574740669 0.0010456575383663478 0 0.036164105821045539 0.00089587676003893043 0 0.036232170038035465 0.00084240033969928377 0 0.036613626010383975 0.0022482781820927903 0 0.037967642965993878 0.0032595980218458409 0 0.037010839210524817 0.0033806845187575969 0 0.037967642965993878 0.0032595980218458409 0 0.037010839210524817 0.0033806845187575969 0 0.037888966678616118 0.0034431207580866872 0 0.038024876356124754 0.0043394017380408503 0 0.036592238897778677 0.0043813351599557215 0 0.037888966678616118 0.0034431207580866872 0 0.036592238897778677 0.0043813351599557215 0 0.037010839210524817 0.0033806845187575969 0 0.037888966678616118 0.0034431207580866872 0 0.037967642965993878 0.0032595980218458409 0 0.037888966678616118 0.0034431207580866872 0 0.038438205684199804 0.0036431894317190505 0 0.037434805823803222 0.0022245809333240694 0 0.035737280480166285 0.0014801111381081808 0 0.037927313368701761 0.0037549698662903155 0 0.037888966678616118 0.0034431207580866872 0 0.038438205684199804 0.0036431894317190505 0 0.037763717500677668 0.0048053660905017608 0 0.037839404514620256 0.0033356526879771615 0 0.035737280480166285 0.0014801111381081808 0 0.033227529012544867 -0.0051841749074404801 0 0.036232170038035465 0.00084240033969928377 0 0.036213690465950021 0.00074496191705883245 0 0.036231744063217171 0.00078733989821246336 0 0.032531041731050293 -0.0028670194761338361 0 0.032419082616850038 -0.0028401566728086763 0 0.032484675909753541 -0.002658510733625081 0 0.036213690465950021 0.00074496191705883245 0 0.036231744063217171 0.00078733989821246336 0 0.03640406446217153 0.00060048855253963355 0 0.032305334824472509 -0.0027989337367369193 0 0.032102488808882015 -0.0029661303657576772 0 0.032401547898012459 -0.0029506410150064643 0 0.032531041731050293 -0.0028670194761338361 0 0.032419082616850038 -0.0028401566728086763 0 0.032401547898012459 -0.0029506410150064643 0 0.032419082616850038 -0.0028401566728086763 0 0.032305334824472509 -0.0027989337367369193 0 0.032401547898012459 -0.0029506410150064643 0 0.032419082616850038 -0.0028401566728086763 0 0.032305334824472509 -0.0027989337367369193 0 0.032484675909753541 -0.002658510733625081 0 0.031080605322849661 -0.0077289783142916605 0 0.033227529012544867 -0.0051841749074404801 0 0.031247576879225119 -0.010449481594965232 0 0.031025858821566124 -0.010396872485645248 0 0.030977379369786825 -0.011570852676388002 0 0.030707980920271789 -0.010785875363694982 0 0.031901933498533624 -0.010810181545396237 0 0.03174139393393844 -0.010591779591430388 0 0.031523666081531156 -0.010067053403624515 0 0.030271365655666523 -0.010394170021517888 0 0.030707980920271789 -0.010785875363694982 0 0.03174139393393844 -0.010591779591430388 0 0.031901933498533624 -0.010810181545396237 0 0.030707980920271789 -0.010785875363694982 0 0.03174139393393844 -0.010591779591430388 0 0.029995770083026018 -0.0098731606467452899 0 0.031831301427025102 -0.010486729281285847 0 0.03174139393393844 -0.010591779591430388 0 0.031523666081531156 -0.010067053403624515 0 0.031831301427025102 -0.010486729281285847 0 0.03174139393393844 -0.010591779591430388 0 0.031901933498533624 -0.010810181545396237 0 0.034593902432979266 -0.0048945056270328956 0 0.033227529012544867 -0.0051841749074404801 0 0.036054128370652458 7.3564892618672718e-05 0 0.036213690465950021 0.00074496191705883245 0 0.03640406446217153 0.00060048855253963355 0 0.031831301427025102 -0.010486729281285847 0 0.031897695994137033 -0.010799212367521509 0 0.032248204826492773 -0.010050397467852046 0 0.033214933322933987 -0.0091347649273432474 0 0.033227529012544867 -0.0051841749074404801 0 0.032868171222831137 -0.0099890435502221937 0 0.031897695994137033 -0.010799212367521509 0 0.032248204826492773 -0.010050397467852046 0 0.032868171222831137 -0.0099890435502221937 0 0.032638389714631927 -0.0096196040535033375 0 0.032248204826492773 -0.010050397467852046 0 0.032638389714631927 -0.0096196040535033375 0 0.032248204826492773 -0.010050397467852046 0 0.031878816921921314 -0.0094439931307497629 0 0.032248204826492773 -0.010050397467852046 0 0.031523666081531156 -0.010067053403624515 0 0.031878816921921314 -0.0094439931307497629 0 0.031831301427025102 -0.010486729281285847 0 0.032248204826492773 -0.010050397467852046 0 0.031523666081531156 -0.010067053403624515 0 0.031523666081531156 -0.010067053403624515 0 0.031023799211497682 -0.0091913251243179988 0 0.030271365655666523 -0.010394170021517888 0 0.031523666081531156 -0.010067053403624515 0 0.031023799211497682 -0.0091913251243179988 0 0.031878816921921314 -0.0094439931307497629 0 0.031942925687677495 -0.0080192097143787916 0 0.031023799211497682 -0.0091913251243179988 0 0.031878816921921314 -0.0094439931307497629 0 0.030519745004951061 -0.008062549496986645 0 0.031942925687677495 -0.0080192097143787916 0 0.031023799211497682 -0.0091913251243179988 0 0.032402193194739561 -0.0091971904956891452 0 0.032973336587445369 -0.0093893215410386331 0 0.032638389714631927 -0.0096196040535033375 0 0.032163544051702381 -0.0086695174170502848 0 0.032602720299489601 -0.0095308933605714116 0 0.031942925687677495 -0.0080192097143787916 0 0.032638389714631927 -0.0096196040535033375 0 0.031878816921921314 -0.0094439931307497629 0 0.024239085922422146 -0.0068162756159346602 0 0.024441492825381411 -0.0084501959335292198 0 0.028899602643699798 -0.0084347986156319693 0 0.029883365448647541 -0.0092112657034184846 0 0.028668071981560149 -0.0099741676837801774 0 0.030519745004951061 -0.008062549496986645 0 0.028899602643699798 -0.0084347986156319693 0 0.029883365448647541 -0.0092112657034184846 0 0.030519745004951061 -0.008062549496986645 0 0.031023799211497682 -0.0091913251243179988 0 0.029883365448647541 -0.0092112657034184846 0 0.031023799211497682 -0.0091913251243179988 0 0.029883365448647541 -0.0092112657034184846 0 0.030271365655666523 -0.010394170021517888 0 0.031025858821566124 -0.010396872485645248 0 0.024441492825381411 -0.0084501959335292198 0 0.029995770083026018 -0.0098731606467452899 0 0.028886201627320904 -0.010217865897354163 0 0.028206187026688825 -0.0093321743709125302 0 0.029883365448647541 -0.0092112657034184846 0 0.030271365655666523 -0.010394170021517888 0 0.028668071981560149 -0.0099741676837801774 0 0.028886201627320904 -0.010217865897354163 0 0.029328083892878047 -0.010913387216266186 0 0.028019031331534664 -0.010742565386372983 0 0.028886201627320904 -0.010217865897354163 0 0.028019031331534664 -0.010742565386372983 0 0.028206187026688825 -0.0093321743709125302 0 0.029995770083026018 -0.0098731606467452899 0 0.028886201627320904 -0.010217865897354163 0 0.029328083892878047 -0.010913387216266186 0 0.030707980920271789 -0.010785875363694982 0 0.029995770083026018 -0.0098731606467452899 0 0.029328083892878047 -0.010913387216266186 0 0.030707980920271789 -0.010785875363694982 0 0.029328083892878047 -0.010913387216266186 0 0.029999313683749217 -0.011630705408619473 0 0.030977379369786825 -0.011570852676388002 0 0.030707980920271789 -0.010785875363694982 0 0.029999313683749217 -0.011630705408619473 0 0.029328083892878047 -0.010913387216266186 0 0.029999313683749217 -0.011630705408619473 0 0.029248186201798393 -0.011801834489516891 0 0.029999313683749217 -0.011630705408619473 0 0.029248186201798393 -0.011801834489516891 0 0.029626920647461124 -0.012432161460341009 0 0.029999313683749217 -0.011630705408619473 0 0.0300460531295072 -0.012421788144179097 0 0.029626920647461124 -0.012432161460341009 0 0.030977379369786825 -0.011570852676388002 0 0.029999313683749217 -0.011630705408619473 0 0.0300460531295072 -0.012421788144179097 0 0.031080605322849661 -0.0077289783142916605 0 0.03015506601386897 -0.0026273521530238522 0 0.029328083892878047 -0.010913387216266186 0 0.028321331479670486 -0.011469008477518933 0 0.028019031331534664 -0.010742565386372983 0 0.029328083892878047 -0.010913387216266186 0 0.028321331479670486 -0.011469008477518933 0 0.029248186201798393 -0.011801834489516891 0 0.029248186201798393 -0.011801834489516891 0 0.028612894407388349 -0.012178324010526114 0 0.029626920647461124 -0.012432161460341009 0 0.028321331479670486 -0.011469008477518933 0 0.028612894407388349 -0.012178324010526114 0 0.028247051765391828 -0.011998182137868458 0 0.028321331479670486 -0.011469008477518933 0 0.029248186201798393 -0.011801834489516891 0 0.028612894407388349 -0.012178324010526114 0 0.029270510555159807 -0.0070469415727636587 0 0.025240857415820515 -0.0065039774165393423 0 0.026971397078959434 -0.0015069174934441531 0 0.027987525837975633 -0.00067815525574044331 0 0.024960230948942119 -0.00071816153704488549 0 0.026971397078959434 -0.0015069174934441531 0 0.025813460469207218 -0.0014799968243924462 0 0.024960230948942119 -0.00071816153704488549 0 0.028612894407388349 -0.012178324010526114 0 0.029446182593723447 -0.012279770869809371 0 0.028274234012834285 -0.012400896368588026 0 0.028612894407388349 -0.012178324010526114 0 0.028274234012834285 -0.012400896368588026 0 0.028247051765391828 -0.011998182137868458 0 0.029346131582479305 -0.011329988927579866 0 0.029270510555159807 -0.0070469415727636587 0 0.026971397078959434 -0.0015069174934441531 0 0.026733465703675699 -0.002776639881020347 0 0.028912212405355728 -0.00067146004004450485 0 0.026971397078959434 -0.0015069174934441531 0 0.025813460469207218 -0.0014799968243924462 0 0.02619184042446468 -0.0025514338977318477 0 0.026971397078959434 -0.0015069174934441531 0 0.02619184042446468 -0.0025514338977318477 0 0.026733465703675699 -0.002776639881020347 0 0.025831759778759695 0.0037318313868323202 0 0.027604827503067926 0.005988950106277746 0 0.025813460469207218 -0.0014799968243924462 0 0.02619184042446468 -0.0025514338977318477 0 0.023805098675817222 -0.0010340145632097069 0 0.025831759778759695 0.0037318313868323202 0 0.020622875886117158 -0.00094809045411651854 0 0.024425093715951529 0.007170334245905326 0 0.023973030375190062 0.0059330060964837405 0 0.022966975274141804 0.0069350189763022633 0 0.03023999750735348 0.019109145812744772 0 0.029930833173252704 0.01692797814668652 0 0.02856449403082837 0.018143067555034021 0 0.025786631672489735 0.010630675717393902 0 0.028883620910966527 0.012500694742740511 0 0.024425093715951529 0.007170334245905326 0 0.023973030375190062 0.0059330060964837405 0 0.024994306141841009 0.0069282737439325488 0 0.025786631672489735 0.010630675717393902 0 0.027604827503067926 0.005988950106277746 0 0.029998349729115869 0.012459120309647331 0 0.029150195453543672 0.01196033933031016 0 0.031438436186555715 0.01152172030749643 0 0.027983107410624708 0.0097878459594043701 0 0.028103846715665792 0.0096901845369104199 0 0.027933056116023008 0.0095977481305047005 0 0.028366141874874989 0.0072845146299346823 0 0.028798689085176358 0.0069294004233855519 0 0.028973907615713834 0.0070333277307333564 0 0.027604827503067926 0.005988950106277746 0 0.030116482959408854 0.0083638693084089142 0 0.027604827503067926 0.005988950106277746 0 0.029486771528799915 0.0091196156885023222 0 0.029486771528799915 0.0091196156885023222 0 0.030116482959408854 0.0083638693084089142 0 0.027802953973979291 0.009624247257740616 0 0.027983107410624708 0.0097878459594043701 0 0.027933056116023008 0.0095977481305047005 0 0.029486771528799915 0.0091196156885023222 0 0.028883620910966527 0.012500694742740511 0 0.026521026951135694 0.012996288460880853 0 0.026467897109365257 0.01300288464913322 0 0.026621877681790102 0.013132884851543307 0 0.028883620910966527 0.012500694742740511 0 0.025848836052711356 0.014690769210090391 0 0.025786631672489735 0.010630675717393902 0 0.025848836052711356 0.014690769210090391 0 0.032708199808492322 0.010434065584178226 0 0.032596889182318123 0.010533699236631245 0 0.032888837068331865 0.010534883818002107 0 0.028883620910966527 0.012500694742740511 0 0.032007275003816123 0.012445231638422162 0 0.03023999750735348 0.019109145812744772 0 0.032281821317184226 0.018718566802120463 0 0.031502044922185772 0.017095824719760257 0 0.029486771528799915 0.0091196156885023222 0 0.032007275003816123 0.012445231638422162 0 0.032523870977007485 0.010528236114111352 0 0.032708199808492322 0.010434065584178226 0 0.032596889182318123 0.010533699236631245 0 0.030116482959408854 0.0083638693084089142 0 0.030403930392397267 0.008398189050261318 0 0.032523870977007485 0.010528236114111352 0 0.032554683249111614 0.010547752754058464 0 0.032596889182318123 0.010533699236631245 0 0.030116482959408854 0.0083638693084089142 0 0.032300504885401357 0.0049401560977432079 0 0.032596889182318123 0.010533699236631245 0 0.032905678652194938 0.010720369858153769 0 0.032888837068331865 0.010534883818002107 0 0.032558329015865549 0.010547858622740996 0 0.032596889182318123 0.010533699236631245 0 0.032905678652194938 0.010720369858153769 0 0.030131448905999354 0.0040747125573558614 0 0.030269946223033199 0.0043104090457722682 0 0.030479370304882833 0.0042459050115335982 0 0.027604827503067926 0.005988950106277746 0 0.03015506601386897 -0.0026273521530238522 0 0.030031118647452056 0.00411536316290063 0 0.030131448905999354 0.0040747125573558614 0 0.030269946223033199 0.0043104090457722682 0 0.026971397078959434 -0.0015069174934441531 0 0.028912212405355728 -0.00067146004004450485 0 0.027987525837975633 -0.00067815525574044331 0 0.03015506601386897 -0.0026273521530238522 0 0.029270510555159807 -0.0070469415727636587 0 0.03015506601386897 -0.0026273521530238522 0 0.032300504885401357 0.0049401560977432079 0 0.032905678652194938 0.010720369858153769 0 0.033197955530041859 0.010650024020897583 0 0.033070914111399945 0.010551000530075787 0 0.033133388043775011 0.0053232166696763703 0 0.03392444579674142 0.0057891475376013538 0 0.035223994021707401 0.0048596008180669479 0 0.030631861045548655 0.00058044504526484533 0 0.032158801960142244 7.0644567304748869e-05 0 0.033112761460781612 0.00064132620976237046 0 0.032300504885401357 0.0049401560977432079 0 0.035688453454396758 0.0086424972725682586 0 0.03015506601386897 -0.0026273521530238522 0 0.033218781562664196 0.0015983259120682222 0 0.032300504885401357 0.0049401560977432079 0 0.033218781562664196 0.0015983259120682222 0 0.035737280480166285 0.0014801111381081808 0 0.033218781562664196 0.0015983259120682222 0 0.037927313368701761 0.0037549698662903155 0 0.038438205684199804 0.0036431894317190505 0 0.038414278884972647 0.0037552174614171518 0 0.036670905167249419 0.0061457518788130263 0 0.036383691961011599 0.0062735309952127562 0 0.036421903959565544 0.0060695527067537057 0 0.035805441346576608 0.0031915625695877721 0 0.033948744578624956 0.002097804867585042 0 0.035999381604102501 0.0021260550645456136 0 0.033218781562664196 0.0015983259120682222 0 0.036226331654470902 0.0040650215766578667 0 0.03392444579674142 0.0057891475376013538 0 0.035048315489591177 0.0058079842404870456 0 0.035223994021707401 0.0048596008180669479 0 0.036226331654470902 0.0040650215766578667 0 0.035688453454396758 0.0086424972725682586 0 0.035737280480166285 0.0014801111381081808 0 0.036226331654470902 0.0040650215766578667 0 0.033197955530041859 0.010650024020897583 0 0.033235390828833436 0.010426433151404913 0 0.033070914111399945 0.010551000530075787 0 0.035688453454396758 0.0086424972725682586 0 0.035728911117644965 0.01117928336202152 0 0.037881529278814816 0.010985556844279869 0 0.038521783777550486 0.010263269395020603 0 0.038275586645935 0.011646372865893526 0 0.033235390828833436 0.010426433151404913 0 0.033070914111399945 0.010551000530075787 0 0.033064498723239834 0.010438328276637184 0 0.032767545795022605 0.010538279165535651 0 0.033064498723239834 0.010438328276637184 0 0.033045651140014017 0.010343615774888492 0 0.032007275003816123 0.012445231638422162 0 0.03339635548437446 0.010170461064798523 0 0.032708199808492322 0.010434065584178226 0 0.032888837068331865 0.010534883818002107 0 0.033064498723239834 0.010438328276637184 0 0.032905678652194938 0.010720369858153769 0 0.032888837068331865 0.010534883818002107 0 0.033070914111399945 0.010551000530075787 0 0.032888837068331865 0.010534883818002107 0 0.033070914111399945 0.010551000530075787 0 0.033064498723239834 0.010438328276637184 0 0.032281821317184226 0.018718566802120463 0 0.034807306728228918 0.017054112701378746 0 0.032986107459571083 0.016133724594195074 0 0.032007275003816123 0.012445231638422162 0 0.033757587812095799 0.01397984375798916 0 0.033064498723239834 0.010438328276637184 0 0.033045651140014017 0.010343615774888492 0 0.033148520948272198 0.010377462830035529 0 0.034807306728228918 0.017054112701378746 0 0.034376334173564685 0.015051989673065574 0 0.032986107459571083 0.016133724594195074 0 0.034807306728228918 0.017054112701378746 0 0.037317177927463446 0.015341137100707268 0 0.035736448275122928 0.015086057612180197 0 0.035728911117644965 0.01117928336202152 0 0.036000244509394527 0.012542355282127448 0 0.033757587812095799 0.01397984375798916 0 0.036000244509394527 0.012542355282127448 0 0.033235390828833436 0.010426433151404913 0 0.033148520948272198 0.010377462830035529 0 0.033297457456371353 0.01023567317334812 0 0.033045651140014017 0.010343615774888492 0 0.033148520948272198 0.010377462830035529 0 0.033297457456371353 0.01023567317334812 0 0.033235390828833436 0.010426433151404913 0 0.033064498723239834 0.010438328276637184 0 0.033148520948272198 0.010377462830035529 0 0.037317177927463446 0.015341137100707268 0 0.035736448275122928 0.015086057612180197 0 0.036597383725057359 0.014128322505722562 0 0.035736448275122928 0.015086057612180197 0 0.035602448424633691 0.013858524316926132 0 0.036597383725057359 0.014128322505722562 0 0.035602448424633691 0.013858524316926132 0 0.036597383725057359 0.014128322505722562 0 0.036453963199210834 0.013116081329830489 0 0.036000244509394527 0.012542355282127448 0 0.037409348881121483 0.013649123828656556 0 0.037317177927463446 0.015341137100707268 0 0.036597383725057359 0.014128322505722562 0 0.037593571972425563 0.013196749987597553 0 0.034376334173564685 0.015051989673065574 0 0.033116963643279249 0.014104769510164601 0 0.032986107459571083 0.016133724594195074 0 0.034807306728228918 0.017054112701378746 0 0.035736448275122928 0.015086057612180197 0 0.034376334173564685 0.015051989673065574 0 0.035736448275122928 0.015086057612180197 0 0.035602448424633691 0.013858524316926132 0 0.034376334173564685 0.015051989673065574 0 0.035602448424633691 0.013858524316926132 0 0.034376334173564685 0.015051989673065574 0 0.034246530364322458 0.01323670287620022 0 0.034376334173564685 0.015051989673065574 0 0.033116963643279249 0.014104769510164601 0 0.034246530364322458 0.01323670287620022 0 0.033116963643279249 0.014104769510164601 0 0.032073925996874746 0.014832296174894007 0 0.032986107459571083 0.016133724594195074 0 0.032073925996874746 0.014832296174894007 0 0.031185048066693973 0.015611733729436403 0 0.032986107459571083 0.016133724594195074 0 0.032073925996874746 0.014832296174894007 0 0.031432627523114355 0.013825617894548732 0 0.031185048066693973 0.015611733729436403 0 0.033116963643279249 0.014104769510164601 0 0.032073925996874746 0.014832296174894007 0 0.031432627523114355 0.013825617894548732 0 0.031432627523114355 0.013825617894548732 0 0.029984856784732519 0.01510864812573819 0 0.029908003213011999 0.01374981205428084 0 0.031432627523114355 0.013825617894548732 0 0.029984856784732519 0.01510864812573819 0 0.031185048066693973 0.015611733729436403 0 0.029984856784732519 0.01510864812573819 0 0.028871114989014939 0.014503589759169858 0 0.029908003213011999 0.01374981205428084 0 0.028871114989014939 0.014503589759169858 0 0.028972813037724858 0.013504739317564707 0 0.029908003213011999 0.01374981205428084 0 0.029984856784732519 0.01510864812573819 0 0.02883260826023212 0.015843423983906195 0 0.028871114989014939 0.014503589759169858 0 0.029984856784732519 0.01510864812573819 0 0.031185048066693973 0.015611733729436403 0 0.029930833173252704 0.01692797814668652 0 0.03023999750735348 0.019109145812744772 0 0.029930833173252704 0.01692797814668652 0 0.031502044922185772 0.017095824719760257 0 0.031185048066693973 0.015611733729436403 0 0.029930833173252704 0.01692797814668652 0 0.031502044922185772 0.017095824719760257 0 0.029984856784732519 0.01510864812573819 0 0.029930833173252704 0.01692797814668652 0 0.02883260826023212 0.015843423983906195 0 0.029930833173252704 0.01692797814668652 0 0.028697256858665924 0.016995059974547075 0 0.02883260826023212 0.015843423983906195 0 0.029930833173252704 0.01692797814668652 0 0.028697256858665924 0.016995059974547075 0 0.02856449403082837 0.018143067555034021 0 0.032281821317184226 0.018718566802120463 0 0.031502044922185772 0.017095824719760257 0 0.032986107459571083 0.016133724594195074 0 0.031185048066693973 0.015611733729436403 0 0.031502044922185772 0.017095824719760257 0 0.032986107459571083 0.016133724594195074 0 0.01665188733780398 0.014014241395366979 0 0.018511890177346491 0.014723627706108317 0 0.016685801594490599 0.01308997323323099 0 0.023737377414345645 0.016138547916433793 0 0.020283937293305285 0.014664152892280137 0 0.015376740725168031 0.013100200914375073 0 0.020763545676532959 0.013518092173760257 0 0.01665188733780398 0.014014241395366979 0 0.018573940307011965 0.015097814835241729 0 0.018511890177346491 0.014723627706108317 0 0.015186556976505112 0.012551348414139624 0 0.015326168828885902 0.012776416993623302 0 0.015720001653463135 0.012807611966916975 0 0.015326168828885902 0.012776416993623302 0 0.015017339116170795 0.012789531340567791 0 0.015304350152848692 0.012945828728561063 0 0.015186556976505112 0.012551348414139624 0 0.015326168828885902 0.012776416993623302 0 0.015017339116170795 0.012789531340567791 0 0.015326168828885902 0.012776416993623302 0 0.015462692134740217 0.012879158460963934 0 0.015720001653463135 0.012807611966916975 0 0.015326168828885902 0.012776416993623302 0 0.015462692134740217 0.012879158460963934 0 0.015304350152848692 0.012945828728561063 0 0.023315029902572167 0.014345906844560111 0 0.023215843085117892 0.013722805543284266 0 0.024670761381240316 0.015123311849480238 0 0.020763545676532959 0.013518092173760257 0 0.023737377414345645 0.016138547916433793 0 0.023737377414345645 0.016138547916433793 0 0.025848836052711356 0.014690769210090391 0 0.027472747468841575 0.017074449914814816 0 0.028697256858665924 0.016995059974547075 0 0.02856449403082837 0.018143067555034021 0 0.020763545676532959 0.013518092173760257 0 0.025848836052711356 0.014690769210090391 0 0.027472747468841575 0.017074449914814816 0 0.02883260826023212 0.015843423983906195 0 0.027997541166810653 0.015119728143793698 0 0.027472747468841575 0.017074449914814816 0 0.028697256858665924 0.016995059974547075 0 0.02883260826023212 0.015843423983906195 0 0.027472747468841575 0.017074449914814816 0 0.027997541166810653 0.015119728143793698 0 0.027031781232722481 0.014437687415870442 0 0.023737377414345645 0.016138547916433793 0 0.026917984368462849 0.015411840871055672 0 0.02883260826023212 0.015843423983906195 0 0.027997541166810653 0.015119728143793698 0 0.028871114989014939 0.014503589759169858 0 0.027997541166810653 0.015119728143793698 0 0.028871114989014939 0.014503589759169858 0 0.027922586438546785 0.013894557659645389 0 0.028871114989014939 0.014503589759169858 0 0.028972813037724858 0.013504739317564707 0 0.027922586438546785 0.013894557659645389 0 0.027997541166810653 0.015119728143793698 0 0.027031781232722481 0.014437687415870442 0 0.027922586438546785 0.013894557659645389 0 0.026788377365537179 0.018761436026546775 0 0.026373238064095639 0.01566347304966318 0 0.024197322215730538 0.016229707158733678 0 0.026373238064095639 0.01566347304966318 0 0.025087584543464055 0.01516883124246619 0 0.024197322215730538 0.016229707158733678 0 0.025087584543464055 0.01516883124246619 0 0.024197322215730538 0.016229707158733678 0 0.024368463738991708 0.014410022734434669 0 0.01665188733780398 0.014014241395366979 0 0.016685801594490599 0.01308997323323099 0 0.015116114028702957 0.012977650937515938 0 0.016685801594490599 0.01308997323323099 0 0.015116114028702957 0.012977650937515938 0 0.015166334805683353 0.01194408617722199 0 0.015376740725168031 0.013100200914375073 0 0.015023655685046627 0.01270440118564959 0 0.015023655685046627 0.01270440118564959 0 0.014225390997083743 0.012164582700520147 0 0.014685176179805526 0.012330910392231437 0 0.014195300905596359 0.012433379422892949 0 0.014199457322666052 0.012114507850587434 0 0.014685176179805526 0.012330910392231437 0 0.014681498684637077 0.01284150433915429 0 0.014195300905596359 0.012433379422892949 0 0.013327805980336281 0.011636984276104573 0 0.013528913784785275 0.011611020613768635 0 0.011985020692724543 0.0098893405632461094 0 0.013027687916220009 0.0099128117591663917 0 0.012869211222145875 0.010908688506126831 0 0.014685176179805526 0.012330910392231437 0 0.014681498684637077 0.01284150433915429 0 0.015017339116170795 0.012789531340567791 0 0.015186556976505112 0.012551348414139624 0 0.014685176179805526 0.012330910392231437 0 0.015017339116170795 0.012789531340567791 0 0.013327805980336281 0.011636984276104573 0 0.013722066177826077 0.0093652238523721978 0 0.011985020692724543 0.0098893405632461094 0 0.011885492221063084 0.0087193341695383786 0 0.011116979338509319 0.0088802300756835213 0 0.014681498684637077 0.01284150433915429 0 0.015017339116170795 0.012789531340567791 0 0.015176669867392261 0.013318752267716597 0 0.011985020692724543 0.0098893405632461094 0 0.012569882670074502 0.0092209402817741669 0 0.013027687916220009 0.0099128117591663917 0 0.011985020692724543 0.0098893405632461094 0 0.012569882670074502 0.0092209402817741669 0 0.011885492221063084 0.0087193341695383786 0 0.013214416492384336 0.0038179481926206992 0 0.011815497873194424 0.0038518697054845752 0 0.012599920878267607 0.0083405211184653244 0 0.011885492221063084 0.0087193341695383786 0 0.01169336994051264 0.0083731746921087372 0 0.012569882670074502 0.0092209402817741669 0 0.012599920878267607 0.0083405211184653244 0 0.011885492221063084 0.0087193341695383786 0 0.013148390765934036 -0.00089380003298383283 0 0.013085798687789744 -0.00089974713685282606 0 0.013113662446916021 -0.00093229628566154931 0 0.013085798687789744 -0.00089974713685282606 0 0.013103977633612308 -0.00087100385826572842 0 0.013085825578315783 -0.00092206314680932412 0 0.011885492221063084 0.0087193341695383786 0 0.01169336994051264 0.0083731746921087372 0 0.011405558796385941 0.008710679206544638 0 0.011154684281686464 0.0089265887904710871 0 0.013722066177826077 0.0093652238523721978 0 0.011815497873194424 0.0038518697054845752 0 0.014859202623719753 0.0013638527587256349 0 0.01169336994051264 0.0083731746921087372 0 0.01111511017735064 0.0083175466162879481 0 0.011405558796385941 0.008710679206544638 0 0.016716896671453787 0.0067139153300012095 0 0.01570637131139643 0.0063448410947527989 0 0.017316092135785173 0.0060342823113190697 0 0.014859202623719753 0.0013638527587256349 0 0.015885683165190304 -0.0035178691453574291 0 0.015201203181603689 -0.0078529319172115607 0 0.015371695931908687 -0.0076714778099196499 0 0.015201121012343959 -0.0075710817727196551 0 0.016524477342559667 0.0071791510315879666 0 0.016716896671453787 0.0067139153300012095 0 0.01570637131139643 0.0063448410947527989 0 0.014859202623719753 0.0013638527587256349 0 0.013722066177826077 0.0093652238523721978 0 0.015017339116170795 0.012789531340567791 0 0.015176669867392261 0.013318752267716597 0 0.015304350152848692 0.012945828728561063 0 0.015176669867392261 0.013318752267716597 0 0.015526574058223944 0.01303374576839844 0 0.015787689364837765 0.013213131392896036 0 0.013722066177826077 0.0093652238523721978 0 0.019300869533247278 0.0099790121851113557 0 0.015462692134740217 0.012879158460963934 0 0.015720001653463135 0.012807611966916975 0 0.015526574058223944 0.01303374576839844 0 0.015462692134740217 0.012879158460963934 0 0.015526574058223944 0.01303374576839844 0 0.015304350152848692 0.012945828728561063 0 0.015176669867392261 0.013318752267716597 0 0.015526574058223944 0.01303374576839844 0 0.015304350152848692 0.012945828728561063 0 0.023121633728819702 0.012146003731526829 0 0.022822546277116905 0.011874401296947588 0 0.022625883484166928 0.01223819513018881 0 0.022546704435418209 0.011725111126886321 0 0.022822546277116905 0.011874401296947588 0 0.022625883484166928 0.01223819513018881 0 0.015720001653463135 0.012807611966916975 0 0.015526574058223944 0.01303374576839844 0 0.015787689364837765 0.013213131392896036 0 0.020763545676532959 0.013518092173760257 0 0.019300869533247278 0.0099790121851113557 0 0.023973030375190062 0.0059330060964837405 0 0.021595317287364801 0.0063919550562473552 0 0.022966975274141804 0.0069350189763022633 0 0.025786631672489735 0.010630675717393902 0 0.019300869533247278 0.0099790121851113557 0 0.024425093715951529 0.007170334245905326 0 0.022966975274141804 0.0069350189763022633 0 0.021876384726869938 0.0082435678745229075 0 0.024679342828358805 0.0015796291359612739 0 0.020841603088643239 0.0031717907107373798 0 0.020958454867091969 0.0039532918048299382 0 0.025831759778759695 0.0037318313868323202 0 0.020143144050651877 0.0039390568732274797 0 0.021595317287364801 0.0063919550562473552 0 0.022966975274141804 0.0069350189763022633 0 0.021876384726869938 0.0082435678745229075 0 0.019300869533247278 0.0099790121851113557 0 0.020143144050651877 0.0039390568732274797 0 0.016716896671453787 0.0067139153300012095 0 0.017316092135785173 0.0060342823113190697 0 0.017438158084026489 0.0068307598065283047 0 0.014859202623719753 0.0013638527587256349 0 0.018860574124122093 -0.0019844630210803303 0 0.015142090724176721 -0.00096545810161625934 0 0.017823242904237598 -0.00094250154005906647 0 0.016184708149949815 0.00013337973266239645 0 0.015514834154908775 0.0015803202229331924 0 0.020376740597700272 -0.00031641497292036607 0 0.019445033126522585 0.0016309405149550716 0 0.016524477342559667 0.0071791510315879666 0 0.016716896671453787 0.0067139153300012095 0 0.017438158084026489 0.0068307598065283047 0 0.014859202623719753 0.0013638527587256349 0 0.020143144050651877 0.0039390568732274797 0 0.020376740597700272 -0.00031641497292036607 0 0.019445033126522585 0.0016309405149550716 0 0.02056079602211348 0.00090208037529569348 0 0.018860574124122093 -0.0019844630210803303 0 0.020622875886117158 -0.00094809045411651854 0 0.015705585000434653 -0.0078562141283749273 0 0.0157551092837942 -0.00772982146167394 0 0.015488825492635845 -0.0076098016104123693 0 0.018860574124122093 -0.0019844630210803303 0 0.020621208400351289 -0.0035855334112785734 0 0.015705585000434653 -0.0078562141283749273 0 0.0157551092837942 -0.00772982146167394 0 0.015859796959615226 -0.0078535439899107932 0 0.015705585000434653 -0.0078562141283749273 0 0.015488825492635845 -0.0076098016104123693 0 0.015398886321050572 -0.007682529483462321 0 0.018860574124122093 -0.0019844630210803303 0 0.015885683165190304 -0.0035178691453574291 0 0.025813460469207218 -0.0014799968243924462 0 0.023805098675817222 -0.0010340145632097069 0 0.024960230948942119 -0.00071816153704488549 0 0.023805098675817222 -0.0010340145632097069 0 0.023850418790203168 -0.00072699515258592699 0 0.024960230948942119 -0.00071816153704488549 0 0.020143144050651877 0.0039390568732274797 0 0.020622875886117158 -0.00094809045411651854 0 0.019661990392050032 -0.0021612199991226755 0 0.021686129554590424 -0.0034873529153491346 0 0.021890421840260212 -0.0021340757107240487 0 0.020622875886117158 -0.00094809045411651854 0 0.020621208400351289 -0.0035855334112785734 0 0.020621208400351289 -0.0035855334112785734 0 0.020944749107420012 -0.0086797024746307246 0 0.02104139980836604 -0.0063655701216589217 0 0.022798027177754726 -0.0063595677969001674 0 0.021235699938829171 -0.0050764001664530102 0 0.0157551092837942 -0.00772982146167394 0 0.015859796959615226 -0.0078535439899107932 0 0.015888239185947225 -0.0076198493267974664 0 0.025240857415820515 -0.0065039774165393423 0 0.020944749107420012 -0.0086797024746307246 0 0.020621208400351289 -0.0035855334112785734 0 0.025240857415820515 -0.0065039774165393423 0 0.028274234012834285 -0.012400896368588026 0 0.028247051765391828 -0.011998182137868458 0 0.027828781698755998 -0.012062494869298328 0 0.020944749107420012 -0.0086797024746307246 0 0.023774367897059241 -0.010224846367214317 0 0.028321331479670486 -0.011469008477518933 0 0.027828781698755998 -0.012062494869298328 0 0.028019031331534664 -0.010742565386372983 0 0.015888239185947225 -0.0076198493267974664 0 0.015488825492635845 -0.0076098016104123693 0 0.014976992144013244 -0.0072674537534849733 0 0.028321331479670486 -0.011469008477518933 0 0.028247051765391828 -0.011998182137868458 0 0.027828781698755998 -0.012062494869298328 0 0.019249985385379944 -0.010817751634532715 0 0.017008368339525584 -0.0089924171144413079 0 0.018542575162973928 -0.0092238903108332257 0 0.019249985385379944 -0.010817751634532715 0 0.019526929565969534 -0.0089447086946815406 0 0.018542575162973928 -0.0092238903108332257 0 0.0157551092837942 -0.00772982146167394 0 0.015888239185947225 -0.0076198493267974664 0 0.015488825492635845 -0.0076098016104123693 0 0.020944749107420012 -0.0086797024746307246 0 0.015296564905446498 -0.0078595397076835251 0 0.014859202623719753 0.0013638527587256349 0 0.013790615020815286 -0.0044974046013843876 0 0.015201121012343959 -0.0075710817727196551 0 0.014976992144013244 -0.0072674537534849733 0 0.014294047308282367 -0.0074978816289747357 0 0.015888239185947225 -0.0076198493267974664 0 0.014976992144013244 -0.0072674537534849733 0 0.014780776904124415 -0.0068483443619566688 0 0.015201203181603689 -0.0078529319172115607 0 0.015201121012343959 -0.0075710817727196551 0 0.014294047308282367 -0.0074978816289747357 0 0.015488825492635845 -0.0076098016104123693 0 0.015201121012343959 -0.0075710817727196551 0 0.014976992144013244 -0.0072674537534849733 0 0.015488825492635845 -0.0076098016104123693 0 0.015398886321050572 -0.007682529483462321 0 0.015201121012343959 -0.0075710817727196551 0 0.015885683165190304 -0.0035178691453574291 0 0.016273240872520332 -0.0045691293370390875 0 0.014976992144013244 -0.0072674537534849733 0 0.014780776904124415 -0.0068483443619566688 0 0.014520356145630159 -0.0071758715156940694 0 0.017008368339525584 -0.0089924171144413079 0 0.017252940705206211 -0.0074759152372598746 0 0.01628998145586515 -0.0071861147474329753 0 0.017008368339525584 -0.0089924171144413079 0 0.018542575162973928 -0.0092238903108332257 0 0.018384238881262886 -0.0081416069919868512 0 0.017008368339525584 -0.0089924171144413079 0 0.018384238881262886 -0.0081416069919868512 0 0.017252940705206211 -0.0074759152372598746 0 0.023774367897059241 -0.010224846367214317 0 0.024441492825381411 -0.0084501959335292198 0 0.019526929565969534 -0.0089447086946815406 0 0.018384238881262886 -0.0081416069919868512 0 0.019822830081939441 -0.0070648586356122679 0 0.019526929565969534 -0.0089447086946815406 0 0.018542575162973928 -0.0092238903108332257 0 0.018384238881262886 -0.0081416069919868512 0 0.024441492825381411 -0.0084501959335292198 0 0.017411588119171408 -0.0063985697349686847 0 0.019475303431102445 -0.0070123035233851053 0 0.018089580664826289 -0.0066171996781978016 0 0.018715654649847563 -0.005632737412198773 0 0.018384238881262886 -0.0081416069919868512 0 0.019822830081939441 -0.0070648586356122679 0 0.018270516107443568 -0.006620161786997719 0 0.018384238881262886 -0.0081416069919868512 0 0.018270516107443568 -0.006620161786997719 0 0.017252940705206211 -0.0074759152372598746 0 0.017252940705206211 -0.0074759152372598746 0 0.016719384101295795 -0.0062134385498425889 0 0.01628998145586515 -0.0071861147474329753 0 0.018270516107443568 -0.006620161786997719 0 0.017252940705206211 -0.0074759152372598746 0 0.016719384101295795 -0.0062134385498425889 0 0.017411588119171408 -0.0063985697349686847 0 0.017151501139041257 -0.0063318415962275443 0 0.018089580664826289 -0.0066171996781978016 0 0.016719384101295795 -0.0062134385498425889 0 0.017686945898241511 -0.0054531566756709565 0 0.016719384101295795 -0.0062134385498425889 0 0.017686945898241511 -0.0054531566756709565 0 0.01612720785483937 -0.0050286686727951183 0 0.017254845484481227 -0.0043881379465890557 0 0.017686945898241511 -0.0054531566756709565 0 0.01612720785483937 -0.0050286686727951183 0 0.018606144035126181 -0.004237178157807317 0 0.017686945898241511 -0.0054531566756709565 0 0.018715654649847563 -0.005632737412198773 0 0.019722834528597966 -0.0048940738713299653 0 0.019475303431102445 -0.0070123035233851053 0 0.018715654649847563 -0.005632737412198773 0 0.018606144035126181 -0.004237178157807317 0 0.019722834528597966 -0.0048940738713299653 0 0.018715654649847563 -0.005632737412198773 0 0.018089580664826289 -0.0066171996781978016 0 0.017686945898241511 -0.0054531566756709565 0 0.018715654649847563 -0.005632737412198773 0 0.013635114861562251 -0.0042857067159969599 0 0.014544430800240118 -0.0053227311669564259 0 0.012765469588932387 -0.0052317040748423044 0 0.014544430800240118 -0.0053227311669564259 0 0.014846978054690601 -0.0071699175298330755 0 0.012765469588932387 -0.0052317040748423044 0 0.014544430800240118 -0.0053227311669564259 0 0.01612720785483937 -0.0050286686727951183 0 0.015626462823357959 -0.0061122411024379097 0 0.014915849228255168 -0.0039382911356071089 0 0.014544430800240118 -0.0053227311669564259 0 0.01612720785483937 -0.0050286686727951183 0 0.016719384101295795 -0.0062134385498425889 0 0.01612720785483937 -0.0050286686727951183 0 0.015626462823357959 -0.0061122411024379097 0 0.015626462823357959 -0.0061122411024379097 0 0.01628998145586515 -0.0071861147474329753 0 0.014846978054690601 -0.0071699175298330755 0 0.016719384101295795 -0.0062134385498425889 0 0.015626462823357959 -0.0061122411024379097 0 0.01628998145586515 -0.0071861147474329753 0 0.014544430800240118 -0.0053227311669564259 0 0.015626462823357959 -0.0061122411024379097 0 0.014846978054690601 -0.0071699175298330755 0 0.014419372221021973 -0.0066632696646765121 0 0.012791543334806723 -0.0052943931293367311 0 0.013762448281627983 -0.0061175497658477835 0 0.012951677902804947 -0.0066035888620565577 0 0.012669418848223656 -0.006098536386748986 0 0.013762448281627983 -0.0061175497658477835 0 0.013391004066496648 -0.0067460779497029444 0 0.012951677902804947 -0.0066035888620565577 0 0.013762448281627983 -0.0061175497658477835 0 0.013391004066496648 -0.0067460779497029444 0 0.013972235262562027 -0.0067994948353247379 0 0.013391004066496648 -0.0067460779497029444 0 0.013972235262562027 -0.0067994948353247379 0 0.013385181801852081 -0.0072102182245815973 0 0.013391004066496648 -0.0067460779497029444 0 0.012984371897875911 -0.0070439205438003107 0 0.012951677902804947 -0.0066035888620565577 0 0.013391004066496648 -0.0067460779497029444 0 0.013385181801852081 -0.0072102182245815973 0 0.012984371897875911 -0.0070439205438003107 0 0.017008368339525584 -0.0089924171144413079 0 0.01628998145586515 -0.0071861147474329753 0 0.014846978054690601 -0.0071699175298330755 0 0.014780776904124415 -0.0068483443619566688 0 0.013762448281627983 -0.0061175497658477835 0 0.013972235262562027 -0.0067994948353247379 0 0.015296564905446498 -0.0078595397076835251 0 0.014419372221021973 -0.0066632696646765121 0 0.014780776904124415 -0.0068483443619566688 0 0.013972235262562027 -0.0067994948353247379 0 0.014520356145630159 -0.0071758715156940694 0 0.014512041636475877 -0.0074666304586506593 0 0.013242869628770448 -0.0055605287509940338 0 0.013972235262562027 -0.0067994948353247379 0 0.014520356145630159 -0.0071758715156940694 0 0.013385181801852081 -0.0072102182245815973 0 0.014520356145630159 -0.0071758715156940694 0 0.014294047308282367 -0.0074978816289747357 0 0.013391123446471061 -0.0070790565981561386 0 0.014976992144013244 -0.0072674537534849733 0 0.014520356145630159 -0.0071758715156940694 0 0.014294047308282367 -0.0074978816289747357 0 0.013085798687789744 -0.00089974713685282606 0 0.013085825578315783 -0.00092206314680932412 0 0.013113662446916021 -0.00093229628566154931 0 0.013148390765934036 -0.00089380003298383283 0 0.013134280893139044 -0.00099780915640850258 0 0.013113662446916021 -0.00093229628566154931 0 0.013790615020815286 -0.0044974046013843876 0 0.013242869628770448 -0.0055605287509940338 0 0.013085825578315783 -0.00092206314680932412 0 0.013134280893139044 -0.00099780915640850258 0 0.013113662446916021 -0.00093229628566154931 0 0.013242869628770448 -0.0055605287509940338 0 0.013395066495402919 -0.0064664929897646876 0 0.013148390765934036 -0.00089380003298383283 0 0.013228772054255373 -0.0010197599570312033 0 0.013252895501470241 -0.00089135875493770585 0 0.013148390765934036 -0.00089380003298383283 0 0.013134280893139044 -0.00099780915640850258 0 0.013228772054255373 -0.0010197599570312033 0 0.013242869628770448 -0.0055605287509940338 0 0.012511686709904437 -0.0062991649207420246 0 0.013338255106996891 -0.0071885168262808075 0 0.012474699534605388 -0.007162714700433304 0 0.012984371897875911 -0.0070439205438003107 0 0.011764556442955246 -0.0065093260279590259 0 0.010612515108250845 -0.0071386229173988295 0 0.011367090716605105 -0.008159049035708377 0 0.012511686709904437 -0.0062991649207420246 0 0.0098359763973528899 -0.0072075717455771298 0 0.011764556442955246 -0.0065093260279590259 0 0.010612515108250845 -0.0071386229173988295 0 0.0095099816149372511 -0.0064758142213356251 0 0.010612515108250845 -0.0071386229173988295 0 0.0098367937416859747 -0.0074576767610829821 0 0.011367090716605105 -0.008159049035708377 0 0.012511686709904437 -0.0062991649207420246 0 0.012283085481018821 0.0019342044007194532 0 0.012203609425629142 -0.0078759042132726959 0 0.011895596785471229 -0.0066502087096641715 0 0.011430772857448689 -0.0070339748994680106 0 0.012203609425629142 -0.0078759042132726959 0 0.011430772857448689 -0.0070339748994680106 0 0.010895572143945239 -0.0073167409199192306 0 0.012203609425629142 -0.0078759042132726959 0 0.010895572143945239 -0.0073167409199192306 0 0.010383296138762158 -0.0078008450363518216 0 0.011895596785471229 -0.0066502087096641715 0 0.011430772857448689 -0.0070339748994680106 0 0.01129110974227791 -0.0065537997594103158 0 0.011430772857448689 -0.0070339748994680106 0 0.01129110974227791 -0.0065537997594103158 0 0.010820277758079694 -0.0067541381083528491 0 0.011430772857448689 -0.0070339748994680106 0 0.010820277758079694 -0.0067541381083528491 0 0.010895572143945239 -0.0073167409199192306 0 0.012203609425629142 -0.0078759042132726959 0 0.011895596785471229 -0.0066502087096641715 0 0.012669418848223656 -0.006098536386748986 0 0.012474699534605388 -0.007162714700433304 0 0.012951677902804947 -0.0066035888620565577 0 0.012669418848223656 -0.006098536386748986 0 0.012511686709904437 -0.0062991649207420246 0 0.012559411394085257 -0.0066743661825559982 0 0.012474699534605388 -0.007162714700433304 0 0.012984371897875911 -0.0070439205438003107 0 0.012951677902804947 -0.0066035888620565577 0 0.013762448281627983 -0.0061175497658477835 0 0.012669418848223656 -0.006098536386748986 0 0.012765469588932387 -0.0052317040748423044 0 0.012669418848223656 -0.006098536386748986 0 0.011411057299286705 -0.006019993801492261 0 0.011850120646637563 -0.0053588156196732488 0 0.011895596785471229 -0.0066502087096641715 0 0.012669418848223656 -0.006098536386748986 0 0.011411057299286705 -0.006019993801492261 0 0.01129110974227791 -0.0065537997594103158 0 0.011411057299286705 -0.006019993801492261 0 0.010897560451245613 -0.0063304469427137239 0 0.011895596785471229 -0.0066502087096641715 0 0.01129110974227791 -0.0065537997594103158 0 0.011411057299286705 -0.006019993801492261 0 0.01129110974227791 -0.0065537997594103158 0 0.010897560451245613 -0.0063304469427137239 0 0.010820277758079694 -0.0067541381083528491 0 0.011411057299286705 -0.006019993801492261 0 0.011850120646637563 -0.0053588156196732488 0 0.010464915911195043 -0.0053670381764616111 0 0.011441658296776064 -0.0044910268255353592 0 0.011850120646637563 -0.0053588156196732488 0 0.010464915911195043 -0.0053670381764616111 0 0.011441658296776064 -0.0044910268255353592 0 0.011850120646637563 -0.0053588156196732488 0 0.012765469588932387 -0.0052317040748423044 0 0.012669418848223656 -0.006098536386748986 0 0.011850120646637563 -0.0053588156196732488 0 0.012765469588932387 -0.0052317040748423044 0 0.002547505008177933 -0.0047664938608008647 0 0.0024460815082829584 -0.0049272990003850674 0 0.0026351989570000144 -0.0051148923980783292 0 0.002547505008177933 -0.0047664938608008647 0 0.0023102622356591415 -0.004767184198991593 0 0.0024460815082829584 -0.0049272990003850674 0 0.0098611951020758822 -0.0044260896999259941 0 0.010464915911195043 -0.0053670381764616111 0 0.010011760208997409 -0.0063325776796620522 0 0.0098611951020758822 -0.0044260896999259941 0 0.011441658296776064 -0.0044910268255353592 0 0.010464915911195043 -0.0053670381764616111 0 0.0062864558087376687 -0.0045071376142099768 0 0.0073910233690624872 -0.0060167171840844122 0 0.010464915911195043 -0.0053670381764616111 0 0.01059027128884093 -0.0059968016060362936 0 0.010011760208997409 -0.0063325776796620522 0 0.011411057299286705 -0.006019993801492261 0 0.010464915911195043 -0.0053670381764616111 0 0.01059027128884093 -0.0059968016060362936 0 0.011411057299286705 -0.006019993801492261 0 0.01059027128884093 -0.0059968016060362936 0 0.010897560451245613 -0.0063304469427137239 0 0.01059027128884093 -0.0059968016060362936 0 0.010897560451245613 -0.0063304469427137239 0 0.010404885993326961 -0.0063934443818332298 0 0.010897560451245613 -0.0063304469427137239 0 0.010404885993326961 -0.0063934443818332298 0 0.010820277758079694 -0.0067541381083528491 0 0.01059027128884093 -0.0059968016060362936 0 0.010404885993326961 -0.0063934443818332298 0 0.010011760208997409 -0.0063325776796620522 0 0.010404885993326961 -0.0063934443818332298 0 0.01000160967434697 -0.0062731406154585079 0 0.010360192650475775 -0.0066091019911706673 0 0.0096218716150217945 -0.006426097303882842 0 0.0073910233690624872 -0.0060167171840844122 0 0.0022375421694149043 -0.0050057821318440793 0 0.0024460815082829584 -0.0049272990003850674 0 0.0026351989570000144 -0.0051148923980783292 0 0.0062246133614112182 -0.0046140727679416524 0 0.0069855227184413751 -0.0059401256114119793 0 0.0093831126852533427 -0.0050675844270709584 0 0.0039288383586664052 -0.0046560370855405729 0 0.0073910233690624872 -0.0060167171840844122 0 0.0073600600100530962 -0.007314933881116579 0 0.0083989424093762564 -0.0063653589726960658 0 0.0096984635388179703 -0.0075931215329047043 0 0.0069855227184413751 -0.0059401256114119793 0 0.0093831126852533427 -0.0050675844270709584 0 0.0083989424093762564 -0.0063653589726960658 0 0.0093831126852533427 -0.0050675844270709584 0 0.0083989424093762564 -0.0063653589726960658 0 0.0096984635388179703 -0.0075931215329047043 0 0.0073600600100530962 -0.007314933881116579 0 0.0069855227184413751 -0.0059401256114119793 0 0.0083989424093762564 -0.0063653589726960658 0 0.0073910233690624872 -0.0060167171840844122 0 0.0099261031229506864 -0.007380936240436748 0 0.01000160967434697 -0.0062731406154585079 0 0.010255122071357373 -0.0070213379646680597 0 0.0096984635388179703 -0.0075931215329047043 0 0.010820277758079694 -0.0067541381083528491 0 0.010255122071357373 -0.0070213379646680597 0 0.010895572143945239 -0.0073167409199192306 0 0.010820277758079694 -0.0067541381083528491 0 0.010360192650475775 -0.0066091019911706673 0 0.010255122071357373 -0.0070213379646680597 0 0.010404885993326961 -0.0063934443818332298 0 0.010820277758079694 -0.0067541381083528491 0 0.010360192650475775 -0.0066091019911706673 0 0.01000160967434697 -0.0062731406154585079 0 0.010360192650475775 -0.0066091019911706673 0 0.010255122071357373 -0.0070213379646680597 0 0.010255122071357373 -0.0070213379646680597 0 0.010281569202222006 -0.007409655195281392 0 0.0096984635388179703 -0.0075931215329047043 0 0.010281569202222006 -0.007409655195281392 0 0.010383296138762158 -0.0078008450363518216 0 0.0096984635388179703 -0.0075931215329047043 0 0.010255122071357373 -0.0070213379646680597 0 0.010281569202222006 -0.007409655195281392 0 0.010895572143945239 -0.0073167409199192306 0 0.010281569202222006 -0.007409655195281392 0 0.010895572143945239 -0.0073167409199192306 0 0.010383296138762158 -0.0078008450363518216 0 0.010612515108250845 -0.0071386229173988295 0 0.0095099816149372511 -0.0064758142213356251 0 0.0098367937416859747 -0.0074576767610829821 0 0.0095099816149372511 -0.0064758142213356251 0 0.0098367937416859747 -0.0074576767610829821 0 0.008636784866325185 -0.0072597039246049457 0 0.0098367937416859747 -0.0074576767610829821 0 0.008636784866325185 -0.0072597039246049457 0 0.0090659227172547423 -0.0082530961846648473 0 0.008636784866325185 -0.0072597039246049457 0 0.007502010207201525 -0.0073643662221218641 0 0.0090659227172547423 -0.0082530961846648473 0 0.007335140500705141 -0.0069179152696004784 0 0.0098359763973528899 -0.0072075717455771298 0 0.0072261679579985645 -0.0065173185699538786 0 0.0095099816149372511 -0.0064758142213356251 0 0.008636784866325185 -0.0072597039246049457 0 0.0073600600100530962 -0.007314933881116579 0 0.010383296138762158 -0.0078008450363518216 0 0.0096984635388179703 -0.0075931215329047043 0 0.0072261679579985645 -0.0065173185699538786 0 0.008636784866325185 -0.0072597039246049457 0 0.007502010207201525 -0.0073643662221218641 0 0.0068660733054186065 -0.0082838199286517176 0 0.007502010207201525 -0.0073643662221218641 0 0.0090659227172547423 -0.0082530961846648473 0 0.0099223693478919135 -0.0013092381161207928 0 0.011724718889792221 -0.0010874860519881318 0 0.015856226238773492 0.0065625130863040931 0 0.015304982653170001 0.0076483205298511561 0 0.014024479170514323 0.0065344839876927989 0 0.015730570019534512 0.0088394809743657619 0 0.015304982653170001 0.0076483205298511561 0 0.014312879015207601 0.0086062827053899355 0 0.015304982653170001 0.0076483205298511561 0 0.014312879015207601 0.0086062827053899355 0 0.014024479170514323 0.0065344839876927989 0 0.014312879015207601 0.0086062827053899355 0 0.014024479170514323 0.0065344839876927989 0 0.012584070169435396 0.0083098577477965906 0 0.0098367937416859747 -0.0074576767610829821 0 0.0090659227172547423 -0.0082530961846648473 0 0.011367090716605105 -0.008159049035708377 0 0.014024479170514323 0.0065344839876927989 0 0.012126445579173889 0.0064855748199127939 0 0.012584070169435396 0.0083098577477965906 0 0.011724718889792221 -0.0010874860519881318 0 0.012283085481018821 0.0019342044007194532 0 0.013214416492384336 0.0038179481926206992 0 0.012283085481018821 0.0019342044007194532 0 0.012569882670074502 0.0092209402817741669 0 0.012599920878267607 0.0083405211184653244 0 0.013222558820831428 0.0090648160884159047 0 0.012599920878267607 0.0083405211184653244 0 0.013653489654317041 0.0083203566841488098 0 0.013222558820831428 0.0090648160884159047 0 0.013222558820831428 0.0090648160884159047 0 0.013919046281054613 0.0095582377449602001 0 0.013027687916220009 0.0099128117591663917 0 0.012569882670074502 0.0092209402817741669 0 0.013222558820831428 0.0090648160884159047 0 0.013027687916220009 0.0099128117591663917 0 0.013653489654317041 0.0083203566841488098 0 0.013222558820831428 0.0090648160884159047 0 0.013919046281054613 0.0095582377449602001 0 0.012283085481018821 0.0019342044007194532 0 0.013457644498065663 0.010058166286922396 0 0.013919046281054613 0.0095582377449602001 0 0.013392260521245902 0.010560844568111443 0 0.014075247873980554 0.010786097633990247 0 0.013457644498065663 0.010058166286922396 0 0.013550109129343771 0.010178865943049543 0 0.013027687916220009 0.0099128117591663917 0 0.013392260521245902 0.010560844568111443 0 0.012869211222145875 0.010908688506126831 0 0.013919046281054613 0.0095582377449602001 0 0.013027687916220009 0.0099128117591663917 0 0.013392260521245902 0.010560844568111443 0 0.013392260521245902 0.010560844568111443 0 0.012869211222145875 0.010908688506126831 0 0.013683452137999439 0.011177129572645767 0 0.012869211222145875 0.010908688506126831 0 0.013683452137999439 0.011177129572645767 0 0.01373667529108437 0.011755654275755699 0 0.014075247873980554 0.010786097633990247 0 0.013683452137999439 0.011177129572645767 0 0.013929865695539117 0.011618465144345993 0 0.013392260521245902 0.010560844568111443 0 0.014075247873980554 0.010786097633990247 0 0.013683452137999439 0.011177129572645767 0 0.013550109129343771 0.010178865943049543 0 0.013911279057012716 0.011594965857011631 0 0.013126987444256841 0.010108984336969606 0 0.014104966345455777 0.01085642545040745 0 0.014670965919346784 0.010058703849232206 0 0.013126987444256841 0.010108984336969606 0 0.014104966345455777 0.01085642545040745 0 0.013929865695539117 0.011618465144345993 0 0.01571181357384421 0.01418312629064397 0 0.01375248039921116 0.015311925677339246 0 0.01601013723892248 0.010187126851832443 0 0.014670965919346784 0.010058703849232206 0 0.014665403263226941 0.011477791519247002 0 0.014104966345455777 0.01085642545040745 0 0.014670965919346784 0.010058703849232206 0 0.014665403263226941 0.011477791519247002 0 0.01601013723892248 0.010187126851832443 0 0.015730570019534512 0.0088394809743657619 0 0.014670965919346784 0.010058703849232206 0 0.015730570019534512 0.0088394809743657619 0 0.014312879015207601 0.0086062827053899355 0 0.014670965919346784 0.010058703849232206 0 0.014312879015207601 0.0086062827053899355 0 0.012584070169435396 0.0083098577477965906 0 0.013126987444256841 0.010108984336969606 0 0.014312879015207601 0.0086062827053899355 0 0.013126987444256841 0.010108984336969606 0 0.014670965919346784 0.010058703849232206 0 0.01095797010337656 0.021164708134840237 0 0.013143767765514744 0.021109855341446916 0 0.011835041472857565 0.022892750215946604 0 0.01095797010337656 0.021164708134840237 0 0.013143767765514744 0.021109855341446916 0 0.0126896271421799 0.019308140826804876 0 0.014684807594602091 0.019732938410062566 0 0.013143767765514744 0.021109855341446916 0 0.0126896271421799 0.019308140826804876 0 0.011564920236503387 0.016390463704901985 0 0.01375248039921116 0.015311925677339246 0 0.013843786017271164 0.011893692054194108 0 0.014665403263226941 0.011477791519247002 0 0.013929865695539117 0.011618465144345993 0 0.014104966345455777 0.01085642545040745 0 0.014665403263226941 0.011477791519247002 0 0.013929865695539117 0.011618465144345993 0 0.013683452137999439 0.011177129572645767 0 0.013929865695539117 0.011618465144345993 0 0.01373667529108437 0.011755654275755699 0 0.013843786017271164 0.011893692054194108 0 0.013929865695539117 0.011618465144345993 0 0.01373667529108437 0.011755654275755699 0 0.013528913784785275 0.011611020613768635 0 0.013728019712667884 0.011783348873393442 0 0.01373667529108437 0.011755654275755699 0 0.014199457322666052 0.012114507850587434 0 0.013991740889461203 0.011779119071306854 0 0.014195300905596359 0.012433379422892949 0 0.01373667529108437 0.011755654275755699 0 0.014199457322666052 0.012114507850587434 0 0.014199457322666052 0.012114507850587434 0 0.013991740889461203 0.011779119071306854 0 0.014256419468931209 0.011555526628301302 0 0.013895512058427211 0.011736595198698295 0 0.013909437788068697 0.011647047482145472 0 0.014256419468931209 0.011555526628301302 0 0.013991740889461203 0.011779119071306854 0 0.013895512058427211 0.011736595198698295 0 0.014256419468931209 0.011555526628301302 0 0.013843786017271164 0.011893692054194108 0 0.013895512058427211 0.011736595198698295 0 0.013909437788068697 0.011647047482145472 0 0.013843786017271164 0.011893692054194108 0 0.01373667529108437 0.011755654275755699 0 0.013895512058427211 0.011736595198698295 0 0.01373667529108437 0.011755654275755699 0 0.013991740889461203 0.011779119071306854 0 0.013895512058427211 0.011736595198698295 0 0.011564920236503387 0.016390463704901985 0 0.018015674761880492 0.020293467486568083 0 0.01095797010337656 0.021164708134840237 0 0.0092361020674389827 0.023007757843370114 0 0.011835041472857565 0.022892750215946604 0 0.018015674761880492 0.020293467486568083 0 0.018420848678562727 0.01239858611660289 0 0.024293795524916104 0.016382291593276432 0 0.02275223044876034 0.01607796487843012 0 0.022997559495508829 0.014993690763801039 0 0.024293795524916104 0.016382291593276432 0 0.022581196793784539 0.016985931708270216 0 0.02275223044876034 0.01607796487843012 0 0.018015674761880492 0.020293467486568083 0 0.02326985961910125 0.025275542418997814 0 0.024293795524916104 0.016382291593276432 0 0.022793129770505495 0.018166640846716757 0 0.022581196793784539 0.016985931708270216 0 0.023371350774718642 0.030084094971394096 0 0.023466795902343487 0.031889357514370512 0 0.022363739919743508 0.031215053155178033 0 0.018015674761880492 0.020293467486568083 0 0.01765707354498576 0.029166460741385191 0 0.023371350774718642 0.030084094971394096 0 0.024324199335212456 0.031372974513375791 0 0.023466795902343487 0.031889357514370512 0 0.011108654404687173 0.025078594420833333 0 0.011835041472857565 0.022892750215946604 0 0.012847256141929001 0.024363510906603537 0 0.0092361020674389827 0.023007757843370114 0 0.011108654404687173 0.025078594420833333 0 0.011835041472857565 0.022892750215946604 0 0.013143767765514744 0.021109855341446916 0 0.011835041472857565 0.022892750215946604 0 0.013766203836997231 0.022656692625586075 0 0.011835041472857565 0.022892750215946604 0 0.013766203836997231 0.022656692625586075 0 0.012847256141929001 0.024363510906603537 0 0.014556066895509834 0.024117374190142322 0 0.013794887886468656 0.025723557947286677 0 0.012847256141929001 0.024363510906603537 0 0.014556066895509834 0.024117374190142322 0 0.013766203836997231 0.022656692625586075 0 0.012847256141929001 0.024363510906603537 0 0.013794887886468656 0.025723557947286677 0 0.012847256141929001 0.024363510906603537 0 0.013189143491398441 0.027224990753298921 0 0.011108654404687173 0.025078594420833333 0 0.012847256141929001 0.024363510906603537 0 0.013189143491398441 0.027224990753298921 0 0.013794887886468656 0.025723557947286677 0 0.013172189561167204 0.027215056232777812 0 0.013189143491398441 0.027224990753298921 0 0.01765707354498576 0.029166460741385191 0 0.019407130492846973 0.029917443629160087 0 0.024324199335212456 0.031372974513375791 0 0.024369068207893824 0.032623160805962462 0 0.025047639172860476 0.032576724563558188 0 0.024369068207893824 0.032623160805962462 0 0.024621721580651065 0.033090733141470818 0 0.024203120711122312 0.033541649788693034 0 0.024369068207893824 0.032623160805962462 0 0.024203120711122312 0.033541649788693034 0 0.023743239052582885 0.032916000861854408 0 0.024369068207893824 0.032623160805962462 0 0.024621721580651065 0.033090733141470818 0 0.024852797354238176 0.032914104832488501 0 0.012775127482538458 0.026796870371852202 0 0.013172189561167204 0.027215056232777812 0 0.013189143491398441 0.027224990753298921 0 0.024369068207893824 0.032623160805962462 0 0.025047639172860476 0.032576724563558188 0 0.024852797354238176 0.032914104832488501 0 0.025047639172860476 0.032576724563558188 0 0.024852797354238176 0.032914104832488501 0 0.025057220226601905 0.033080128423105586 0 0.024621721580651065 0.033090733141470818 0 0.024852797354238176 0.032914104832488501 0 0.024835959956973901 0.033266927108301765 0 0.024852797354238176 0.032914104832488501 0 0.025057220226601905 0.033080128423105586 0 0.024835959956973901 0.033266927108301765 0 0.025047639172860476 0.032576724563558188 0 0.025057220226601905 0.033080128423105586 0 0.025215020295870257 0.033280780006739376 0 0.025314872487111138 0.033221087815338286 0 0.025047639172860476 0.032576724563558188 0 0.025215020295870257 0.033280780006739376 0 0.025024114220922454 0.033387709883822739 0 0.025182612986426278 0.033668479454058819 0 0.024823918520404931 0.033637900644729567 0 0.025215020295870257 0.033280780006739376 0 0.025024114220922454 0.033387709883822739 0 0.025182612986426278 0.033668479454058819 0 0.025057220226601905 0.033080128423105586 0 0.025215020295870257 0.033280780006739376 0 0.025024114220922454 0.033387709883822739 0 0.025057220226601905 0.033080128423105586 0 0.025024114220922454 0.033387709883822739 0 0.024835959956973901 0.033266927108301765 0 0.025182612986426278 0.033668479454058819 0 0.024823918520404931 0.033637900644729567 0 0.024888075745902256 0.033962079708732149 0 0.024823918520404931 0.033637900644729567 0 0.024516373064764001 0.034162717089903233 0 0.024888075745902256 0.033962079708732149 0 0.024823918520404931 0.033637900644729567 0 0.024835959956973901 0.033266927108301765 0 0.024555227393260468 0.033506138277050866 0 0.025024114220922454 0.033387709883822739 0 0.024823918520404931 0.033637900644729567 0 0.024835959956973901 0.033266927108301765 0 0.024621721580651065 0.033090733141470818 0 0.024835959956973901 0.033266927108301765 0 0.024555227393260468 0.033506138277050866 0 0.024621721580651065 0.033090733141470818 0 0.024555227393260468 0.033506138277050866 0 0.024203120711122312 0.033541649788693034 0 0.024555227393260468 0.033506138277050866 0 0.024203120711122312 0.033541649788693034 0 0.024516373064764001 0.034162717089903233 0 0.024823918520404931 0.033637900644729567 0 0.024555227393260468 0.033506138277050866 0 0.024516373064764001 0.034162717089903233 0 0.024203120711122312 0.033541649788693034 0 0.024516373064764001 0.034162717089903233 0 0.023902534831128166 0.034345843545369542 0 0.024516373064764001 0.034162717089903233 0 0.023902534831128166 0.034345843545369542 0 0.024107593142874729 0.03486248358623447 0 0.024516373064764001 0.034162717089903233 0 0.025023470882635217 0.034314668918644826 0 0.024888075745902256 0.033962079708732149 0 0.024516373064764001 0.034162717089903233 0 0.025023470882635217 0.034314668918644826 0 0.024647822659597245 0.034873923189170861 0 0.025182612986426278 0.033668479454058819 0 0.025023470882635217 0.034314668918644826 0 0.024888075745902256 0.033962079708732149 0 0.023362628337311512 0.03450889762203839 0 0.023437309370199392 0.034881479860947459 0 0.023426728885771766 0.034778994813096167 0 0.023362628337311512 0.03450889762203839 0 0.023437309370199392 0.034881479860947459 0 0.023581094058588797 0.034908662626238214 0 0.023362628337311512 0.03450889762203839 0 0.023902534831128166 0.034345843545369542 0 0.023581094058588797 0.034908662626238214 0 0.023902534831128166 0.034345843545369542 0 0.023581094058588797 0.034908662626238214 0 0.024107593142874729 0.03486248358623447 0 0.023362628337311512 0.03450889762203839 0 0.023902534831128166 0.034345843545369542 0 0.023584887440364913 0.033605505376609938 0 0.024203120711122312 0.033541649788693034 0 0.023902534831128166 0.034345843545369542 0 0.023584887440364913 0.033605505376609938 0 0.024203120711122312 0.033541649788693034 0 0.023584887440364913 0.033605505376609938 0 0.023743239052582885 0.032916000861854408 0 0.023584887440364913 0.033605505376609938 0 0.022947693658142695 0.033556302605458922 0 0.022983098845645301 0.032863977393867899 0 0.023362628337311512 0.03450889762203839 0 0.023584887440364913 0.033605505376609938 0 0.022947693658142695 0.033556302605458922 0 0.023362628337311512 0.03450889762203839 0 0.022947693658142695 0.033556302605458922 0 0.022421148446314123 0.033667118549221477 0 0.022947693658142695 0.033556302605458922 0 0.022500789075261211 0.033243064969846546 0 0.022421148446314123 0.033667118549221477 0 0.022947693658142695 0.033556302605458922 0 0.022983098845645301 0.032863977393867899 0 0.022500789075261211 0.033243064969846546 0 0.022983098845645301 0.032863977393867899 0 0.022124991693890577 0.032839812421812928 0 0.022500789075261211 0.033243064969846546 0 0.022983098845645301 0.032863977393867899 0 0.023466795902343487 0.031889357514370512 0 0.022483874127556411 0.032184870338554689 0 0.022983098845645301 0.032863977393867899 0 0.022483874127556411 0.032184870338554689 0 0.022124991693890577 0.032839812421812928 0 0.022983098845645301 0.032863977393867899 0 0.023743239052582885 0.032916000861854408 0 0.023466795902343487 0.031889357514370512 0 0.024369068207893824 0.032623160805962462 0 0.023743239052582885 0.032916000861854408 0 0.023466795902343487 0.031889357514370512 0 0.023584887440364913 0.033605505376609938 0 0.022983098845645301 0.032863977393867899 0 0.023743239052582885 0.032916000861854408 0 0.024324199335212456 0.031372974513375791 0 0.024369068207893824 0.032623160805962462 0 0.023466795902343487 0.031889357514370512 0 0.023466795902343487 0.031889357514370512 0 0.022483874127556411 0.032184870338554689 0 0.022363739919743508 0.031215053155178033 0 0.022483874127556411 0.032184870338554689 0 0.02128587170591062 0.032315010233466161 0 0.022363739919743508 0.031215053155178033 0 0.021533052015014372 0.018685403662250081 0 0.02058738477143271 0.020642622379411498 0 0.022793129770505495 0.018166640846716757 0 0.021045143949736906 0.024391250264935962 0 0.02326985961910125 0.025275542418997814 0 0.022109871037486937 0.017813897448210977 0 0.021304111222002556 0.017964580337852594 0 0.022092077032256054 0.017433271220745308 0 0.022109871037486937 0.017813897448210977 0 0.021304111222002556 0.017964580337852594 0 0.021702884026999873 0.018649646151085254 0 0.020569982935165643 0.018282396139582376 0 0.022220509281138945 0.017361186869930764 0 0.022210642801201438 0.017596035950781744 0 0.021045143949736906 0.024391250264935962 0 0.021304111222002556 0.017964580337852594 0 0.021702884026999873 0.018649646151085254 0 0.021056604481663393 0.018707543675585716 0 0.021045143949736906 0.024391250264935962 0 0.022883660605942338 0.028620906178822011 0 0.021750812482362113 0.025090020892817477 0 0.022026225079650526 0.024621508200833253 0 0.022175938174151054 0.024685189577029094 0 0.02128587170591062 0.032315010233466161 0 0.021571311247759739 0.033060723495589084 0 0.020773934568663711 0.033252693384033263 0 0.021702884026999873 0.018649646151085254 0 0.021051788072368797 0.019339965384108943 0 0.021056604481663393 0.018707543675585716 0 0.021045143949736906 0.024391250264935962 0 0.023219224210039024 0.022966929217546624 0 0.022483874127556411 0.032184870338554689 0 0.02128587170591062 0.032315010233466161 0 0.022124991693890577 0.032839812421812928 0 0.021571311247759739 0.033060723495589084 0 0.022124991693890577 0.032839812421812928 0 0.022008678277180629 0.033319998249927846 0 0.02128587170591062 0.032315010233466161 0 0.021571311247759739 0.033060723495589084 0 0.022124991693890577 0.032839812421812928 0 0.022124991693890577 0.032839812421812928 0 0.022500789075261211 0.033243064969846546 0 0.022008678277180629 0.033319998249927846 0 0.022500789075261211 0.033243064969846546 0 0.022421148446314123 0.033667118549221477 0 0.022008678277180629 0.033319998249927846 0 0.023362628337311512 0.03450889762203839 0 0.022421148446314123 0.033667118549221477 0 0.021876622724289294 0.033911568074147823 0 0.022421148446314123 0.033667118549221477 0 0.021967767318858269 0.033584376441240911 0 0.022008678277180629 0.033319998249927846 0 0.022421148446314123 0.033667118549221477 0 0.021876622724289294 0.033911568074147823 0 0.021967767318858269 0.033584376441240911 0 0.023451536133349982 0.034865910862872211 0 0.023443030693902727 0.034838298564141383 0 0.023430876859403305 0.034858576179873514 0 0.021876622724289294 0.033911568074147823 0 0.021639532161815571 0.03342235128337135 0 0.021967767318858269 0.033584376441240911 0 0.021639532161815571 0.03342235128337135 0 0.021967767318858269 0.033584376441240911 0 0.022008678277180629 0.033319998249927846 0 0.021571311247759739 0.033060723495589084 0 0.021639532161815571 0.03342235128337135 0 0.022008678277180629 0.033319998249927846 0 0.022910995798498368 0.033017957277188974 0 0.022883660605942338 0.028620906178822011 0 0.023472844020018695 0.030259762837272861 0 0.023353368878085853 0.0302405946137696 0 0.023398513406459306 0.030226935761575435 0 0.022910995798498368 0.033017957277188974 0 0.024227603396143865 0.029860171608216367 0 0.023451536133349982 0.034865910862872211 0 0.023344268768365362 0.034817195832909389 0 0.023397407410096979 0.034846781626813005 0 0.021571311247759739 0.033060723495589084 0 0.021639532161815571 0.03342235128337135 0 0.020773934568663711 0.033252693384033263 0 0.023472844020018695 0.030259762837272861 0 0.023356114936871262 0.030167043118827029 0 0.023398513406459306 0.030226935761575435 0 0.021876622724289294 0.033911568074147823 0 0.021639532161815571 0.03342235128337135 0 0.020773934568663711 0.033252693384033263 0 0.023356114936871262 0.030167043118827029 0 0.023398513406459306 0.030226935761575435 0 0.023333372392416066 0.030213504702807752 0 0.023344268768365362 0.034817195832909389 0 0.023397407410096979 0.034846781626813005 0 0.023308666103397654 0.034807246042112876 0 0.023397407410096979 0.034846781626813005 0 0.023358826951506376 0.034856153028016916 0 0.023308666103397654 0.034807246042112876 0 0.023353368878085853 0.0302405946137696 0 0.023398513406459306 0.030226935761575435 0 0.023333372392416066 0.030213504702807752 0 0.023451536133349982 0.034865910862872211 0 0.023397407410096979 0.034846781626813005 0 0.023430876859403305 0.034858576179873514 0 0.023397407410096979 0.034846781626813005 0 0.023416035677394684 0.034867014789060728 0 0.023430876859403305 0.034858576179873514 0 0.023417500657476834 0.034887604177657718 0 0.023415549138956958 0.03496132506181239 0 0.023435957567883536 0.034875589096115843 0 0.023428541224094081 0.034868154467404142 0 0.023416035677394684 0.034867014789060728 0 0.023430876859403305 0.034858576179873514 0 0.023428541224094081 0.034868154467404142 0 0.023416035677394684 0.034867014789060728 0 0.023417500657476834 0.034887604177657718 0 0.023397407410096979 0.034846781626813005 0 0.02340003757526906 0.034870281499524446 0 0.023384147292183213 0.034878911929340679 0 0.023397407410096979 0.034846781626813005 0 0.023416035677394684 0.034867014789060728 0 0.02340003757526906 0.034870281499524446 0 0.02340003757526906 0.034870281499524446 0 0.023417500657476834 0.034887604177657718 0 0.023384147292183213 0.034878911929340679 0 0.023416035677394684 0.034867014789060728 0 0.02340003757526906 0.034870281499524446 0 0.023417500657476834 0.034887604177657718 0 0.023417500657476834 0.034887604177657718 0 0.023384147292183213 0.034878911929340679 0 0.023415549138956958 0.03496132506181239 0 0.023428541224094081 0.034868154467404142 0 0.023417500657476834 0.034887604177657718 0 0.023435957567883536 0.034875589096115843 0 0.023358826951506376 0.034856153028016916 0 0.023384147292183213 0.034878911929340679 0 0.023341517459119939 0.034896646806753778 0 0.023397407410096979 0.034846781626813005 0 0.023358826951506376 0.034856153028016916 0 0.023384147292183213 0.034878911929340679 0 0.023384147292183213 0.034878911929340679 0 0.02337801974413067 0.034970036901969093 0 0.023415549138956958 0.03496132506181239 0 0.023384147292183213 0.034878911929340679 0 0.023341517459119939 0.034896646806753778 0 0.02337801974413067 0.034970036901969093 0 0.02337801974413067 0.034970036901969093 0 0.023415549138956958 0.03496132506181239 0 0.023419222076858762 0.035117512998274029 0 0.02337801974413067 0.034970036901969093 0 0.023330965377834547 0.035014409472632936 0 0.023419222076858762 0.035117512998274029 0 0.023341517459119939 0.034896646806753778 0 0.02337801974413067 0.034970036901969093 0 0.023330965377834547 0.035014409472632936 0 0.023415549138956958 0.03496132506181239 0 0.023446200492766793 0.035049788443164837 0 0.023419222076858762 0.035117512998274029 0 0.023415549138956958 0.03496132506181239 0 0.023435957567883536 0.034875589096115843 0 0.023446200492766793 0.035049788443164837 0 0.023437309370199392 0.034881479860947459 0 0.023435957567883536 0.034875589096115843 0 0.023446200492766793 0.035049788443164837 0 0.023362628337311512 0.03450889762203839 0 0.023451536133349982 0.034865910862872211 0 0.023426728885771766 0.034778994813096167 0 0.023353962011391709 0.034760660966366493 0 0.022910995798498368 0.033017957277188974 0 0.023437309370199392 0.034881479860947459 0 0.023426728885771766 0.034778994813096167 0 0.023435957567883536 0.034875589096115843 0 0.023451536133349982 0.034865910862872211 0 0.023426728885771766 0.034778994813096167 0 0.023443030693902727 0.034838298564141383 0 0.023426728885771766 0.034778994813096167 0 0.023443030693902727 0.034838298564141383 0 0.023435957567883536 0.034875589096115843 0 0.023428541224094081 0.034868154467404142 0 0.023443030693902727 0.034838298564141383 0 0.023435957567883536 0.034875589096115843 0 0.023428541224094081 0.034868154467404142 0 0.023443030693902727 0.034838298564141383 0 0.023430876859403305 0.034858576179873514 0 0.03375647952567172 0.016425651278447861 0 0.034507293307030298 0.016660674629839188 0 0.034942014719799956 0.015201113219181241 0 0.031476082420609251 0.020169955311241147 0 0.033980383787674741 0.020598968237300883 0 0.03375647952567172 0.016425651278447861 0 0.033223965533187905 0.016825199086537828 0 0.034942014719799956 0.015201113219181241 0 0.030826099084076221 0.028284639504895903 0 0.032275199780519501 0.026832183966944062 0 0.031124773375123163 0.02581848344669414 0 0.034371477386211664 0.015718798880444737 0 0.035516256050949262 0.015366084188516047 0 0.03375647952567172 0.016425651278447861 0 0.034498672163641171 0.016747410846232942 0 0.033223965533187905 0.016825199086537828 0 0.023330965377834547 0.035014409472632936 0 0.023244339135327037 0.03487324077500286 0 0.02328063865768755 0.035180858012522159 0 0.029963044076225315 0.027929498916982504 0 0.030826099084076221 0.028284639504895903 0 0.031124773375123163 0.02581848344669414 0 0.025933995974892876 0.030861435545702649 0 0.023732758347207571 0.035464824351951182 0 0.023341517459119939 0.034896646806753778 0 0.023244339135327037 0.03487324077500286 0 0.023308666103397654 0.034807246042112876 0 0.023341517459119939 0.034896646806753778 0 0.023330965377834547 0.035014409472632936 0 0.023244339135327037 0.03487324077500286 0 0.025933995974892876 0.030861435545702649 0 0.025183312694250771 0.028657924233420749 0 0.026406693293480766 0.02910685147100359 0 0.026225110143978967 0.027834345817815648 0 0.027120983659754308 0.027767460862372573 0 0.023358826951506376 0.034856153028016916 0 0.023341517459119939 0.034896646806753778 0 0.023308666103397654 0.034807246042112876 0 0.029963044076225315 0.027929498916982504 0 0.030032267155624764 0.028372319190946387 0 0.030826099084076221 0.028284639504895903 0 0.025933995974892876 0.030861435545702649 0 0.027567162843885985 0.026315347189017291 0 0.027567162843885985 0.026315347189017291 0 0.031476082420609251 0.020169955311241147 0 0.028040487804184212 0.020114300984576294 0 0.031476082420609251 0.020169955311241147 0 0.028127836312651554 0.021815026509948765 0 0.028289054517647006 0.022951894147788712 0 0.02953566947043432 0.021703639692932195 0 0.032030757056406942 0.013558870643049926 0 0.031325155195454625 0.013321856825423986 0 0.032601906044879024 0.012027449637130538 0 0.027567162843885985 0.026315347189017291 0 0.028040487804184212 0.020114300984576294 0 0.025816288446773989 0.026060089340733027 0 0.026342382168891499 0.024906986108394046 0 0.02553261227230744 0.024077834484125312 0 0.024227603396143865 0.029860171608216367 0 0.025183312694250771 0.028657924233420749 0 0.025183312694250771 0.028657924233420749 0 0.024837967491925954 0.027516141630806276 0 0.024550742398358506 0.029045757039822161 0 0.024876158482219326 0.029019859229397302 0 0.024743081105357702 0.029263897111052158 0 0.025816288446773989 0.026060089340733027 0 0.026839398235605473 0.025985211442311976 0 0.026342382168891499 0.024906986108394046 0 0.027567162843885985 0.026315347189017291 0 0.025183312694250771 0.028657924233420749 0 0.026839398235605473 0.025985211442311976 0 0.026342382168891499 0.024906986108394046 0 0.02740873079133279 0.02492423430580646 0 0.026342382168891499 0.024906986108394046 0 0.02740873079133279 0.02492423430580646 0 0.026113666169067608 0.023486309039352404 0 0.024227603396143865 0.029860171608216367 0 0.024837967491925954 0.027516141630806276 0 0.024324884434862512 0.025565097435789278 0 0.024358859161306763 0.025511034034105869 0 0.024360674212810702 0.025573386215635985 0 0.024358859161306763 0.025511034034105869 0 0.024393581292343015 0.025540510028865447 0 0.024360674212810702 0.025573386215635985 0 0.022883660605942338 0.028620906178822011 0 0.024837967491925954 0.027516141630806276 0 0.026342382168891499 0.024906986108394046 0 0.026113666169067608 0.023486309039352404 0 0.02553261227230744 0.024077834484125312 0 0.024837967491925954 0.027516141630806276 0 0.025965081183566066 0.022061063668217484 0 0.025435941099829107 0.020856241117052195 0 0.02566732553790084 0.020620098825437201 0 0.025259036532224388 0.020656927886825011 0 0.025965081183566066 0.022061063668217484 0 0.023219224210039024 0.022966929217546624 0 0.022883660605942338 0.028620906178822011 0 0.023219224210039024 0.022966929217546624 0 0.032030757056406942 0.013558870643049926 0 0.031325155195454625 0.013321856825423986 0 0.031453326804970053 0.014183796402930457 0 0.028114154770085886 0.020856100033937414 0 0.027400965250488254 0.021581291290632316 0 0.027140094583750836 0.019785271967451702 0 0.025965081183566066 0.022061063668217484 0 0.028040487804184212 0.020114300984576294 0 0.028040487804184212 0.020114300984576294 0 0.026908239000148357 0.018808456781176305 0 0.025965081183566066 0.022061063668217484 0 0.026908239000148357 0.018808456781176305 0 0.032030757056406942 0.013558870643049926 0 0.031453326804970053 0.014183796402930457 0 0.032475676602144989 0.014272643083118049 0 0.032475676602144989 0.014272643083118049 0 0.033213736963470727 0.013908075922191699 0 0.032704441155011137 0.013467197255372342 0 0.032030757056406942 0.013558870643049926 0 0.032475676602144989 0.014272643083118049 0 0.032704441155011137 0.013467197255372342 0 0.033213736963470727 0.013908075922191699 0 0.033404343945226893 0.01319838664269465 0 0.032704441155011137 0.013467197255372342 0 0.033404343945226893 0.01319838664269465 0 0.032601906044879024 0.012027449637130538 0 0.034229007463759342 0.012807438472824402 0 0.032030757056406942 0.013558870643049926 0 0.032704441155011137 0.013467197255372342 0 0.032601906044879024 0.012027449637130538 0 0.033404343945226893 0.01319838664269465 0 0.032704441155011137 0.013467197255372342 0 0.032601906044879024 0.012027449637130538 0 0.034647734418056492 0.011853997269210272 0 0.032601906044879024 0.012027449637130538 0 0.034229007463759342 0.012807438472824402 0 0.034647734418056492 0.011853997269210272 0 0.034229007463759342 0.012807438472824402 0 0.034920426755129207 0.013176465944352992 0 0.035516256050949262 0.015366084188516047 0 0.031476082420609251 0.020169955311241147 0 0.034229007463759342 0.012807438472824402 0 0.033982792925040396 0.013817039949508217 0 0.034920426755129207 0.013176465944352992 0 0.033213736963470727 0.013908075922191699 0 0.033404343945226893 0.01319838664269465 0 0.033982792925040396 0.013817039949508217 0 0.033404343945226893 0.01319838664269465 0 0.034229007463759342 0.012807438472824402 0 0.033982792925040396 0.013817039949508217 0 0.033213736963470727 0.013908075922191699 0 0.033982792925040396 0.013817039949508217 0 0.033501931979782677 0.01478658395050292 0 0.033982792925040396 0.013817039949508217 0 0.034752750582160881 0.014289359363521777 0 0.034920426755129207 0.013176465944352992 0 0.033982792925040396 0.013817039949508217 0 0.033501931979782677 0.01478658395050292 0 0.034752750582160881 0.014289359363521777 0 0.033501931979782677 0.01478658395050292 0 0.0339545654006293 0.015893422449782188 0 0.034752750582160881 0.014289359363521777 0 0.032475676602144989 0.014272643083118049 0 0.033213736963470727 0.013908075922191699 0 0.033501931979782677 0.01478658395050292 0 0.033501931979782677 0.01478658395050292 0 0.032419322663241712 0.015215706064343689 0 0.0339545654006293 0.015893422449782188 0 0.032475676602144989 0.014272643083118049 0 0.033501931979782677 0.01478658395050292 0 0.032419322663241712 0.015215706064343689 0 0.027005838212708747 0.016163402412418378 0 0.027220497376446572 0.01638226211061402 0 0.026875212565692787 0.016569050466620563 0 0.030715721117508581 0.014717575481874115 0 0.031567245174404325 0.015630025159003611 0 0.03210633270925594 0.015329059778478977 0 0.03136311921594994 0.014389817678927819 0 0.023948832466649469 0.016625071331344689 0 0.029254081889316282 0.016291977709874492 0 0.034951905551071465 0.014129581139137532 0 0.029254081889316282 0.016291977709874492 0 0.03136311921594994 0.014389817678927819 0 0.036613194449508432 0.012278829718709394 0 0.036782091010466131 0.012181333148510587 0 0.037019533561276033 0.012442158549189763 0 0.03136311921594994 0.014389817678927819 0 0.034951905551071465 0.014129581139137532 0 0.021051788072368797 0.019339965384108943 0 0.020671046023687814 0.019153459227865058 0 0.021056604481663393 0.018707543675585716 0 0.023219224210039024 0.022966929217546624 0 0.025537621967218562 0.01808884622875883 0 0.026908239000148357 0.018808456781176305 0 0.025537621967218562 0.01808884622875883 0 0.02566732553790084 0.020620098825437201 0 0.025259036532224388 0.020656927886825011 0 0.025223040062722014 0.020404994895179784 0 0.031453326804970053 0.014183796402930457 0 0.032475676602144989 0.014272643083118049 0 0.032419322663241712 0.015215706064343689 0 0.02766938452476728 0.017359802340103821 0 0.027630931398845537 0.017293891642045835 0 0.027667887788086966 0.017321100259904881 0 0.026908239000148357 0.018808456781176305 0 0.029254081889316282 0.016291977709874492 0 0.029254081889316282 0.016291977709874492 0 0.025537621967218562 0.01808884622875883 0 0.025537621967218562 0.01808884622875883 0 0.023948832466649469 0.016625071331344689 0 0.027005838212708747 0.016163402412418378 0 0.02680944619994843 0.016081629020152609 0 0.026875212565692787 0.016569050466620563 0 0.020671046023687814 0.019153459227865058 0 0.021056604481663393 0.018707543675585716 0 0.020561762936539479 0.018420608086465579 0 0.021065302153880652 0.017913676726159108 0 0.020100250257967474 0.01843619295762515 0 0.019932305556568344 0.017466880050351411 0 0.021304111222002556 0.017964580337852594 0 0.021056604481663393 0.018707543675585716 0 0.020561762936539479 0.018420608086465579 0 0.020569982935165643 0.018282396139582376 0 0.023948832466649469 0.016625071331344689 0 0.023948832466649469 0.016625071331344689 0 0.024488312457630435 0.016115282545742522 0 0.03136311921594994 0.014389817678927819 0 0.034038766897773971 0.013365851985989666 0 0.036613194449508432 0.012278829718709394 0 0.037188267609885146 0.012805914349677811 0 0.037019533561276033 0.012442158549189763 0 0.029768335935788971 0.012824462211777606 0 0.029794916484724848 0.014065002311515204 0 0.031003325424696419 0.014124696412967508 0 0.029768335935788971 0.012824462211777606 0 0.028850814244941455 0.013333710770637646 0 0.029794916484724848 0.014065002311515204 0 0.028850814244941455 0.013333710770637646 0 0.029794916484724848 0.014065002311515204 0 0.029060144666012439 0.014786392054425846 0 0.029794916484724848 0.014065002311515204 0 0.030297965772639632 0.015264787371579115 0 0.031003325424696419 0.014124696412967508 0 0.030297965772639632 0.015264787371579115 0 0.029260759295523443 0.016257541259615354 0 0.030913084125042754 0.016441231941779592 0 0.029794916484724848 0.014065002311515204 0 0.030297965772639632 0.015264787371579115 0 0.029060144666012439 0.014786392054425846 0 0.024904463785034994 0.015674337800809082 0 0.024488312457630435 0.016115282545742522 0 0.030297965772639632 0.015264787371579115 0 0.029260759295523443 0.016257541259615354 0 0.029060144666012439 0.014786392054425846 0 0.024904463785034994 0.015674337800809082 0 0.03170217068761938 0.012622083022801911 0 0.026367731927781246 0.012729709207690664 0 0.026691246935463701 0.014990213663349832 0 0.029291364395087786 0.013059880794241994 0 0.019721240114912952 0.016422687118557235 0 0.019573791725541238 0.015477729490248549 0 0.019975359550616096 0.016040090997022999 0 0.024904463785034994 0.015674337800809082 0 0.025533430263499923 0.012604333216115942 0 0.027464149373314095 0.0095482698221433689 0 0.028937836233184227 0.0096991840658826375 0 0.029552092496375817 0.0079950640099485468 0 0.025533430263499923 0.012604333216115942 0 0.03170217068761938 0.012622083022801911 0 0.020608747354698229 0.015687098710297279 0 0.021151153456566395 0.015428455846896305 0 0.020531545653684979 0.015311474939264502 0 0.020608747354698229 0.015687098710297279 0 0.02035819772808484 0.016134715442419179 0 0.020907788186757557 0.016063224864334775 0 0.020608747354698229 0.015687098710297279 0 0.020241650243725404 0.015712147651714529 0 0.02035819772808484 0.016134715442419179 0 0.020608747354698229 0.015687098710297279 0 0.020241650243725404 0.015712147651714529 0 0.020531545653684979 0.015311474939264502 0 0.019573791725541238 0.015477729490248549 0 0.020241650243725404 0.015712147651714529 0 0.019975359550616096 0.016040090997022999 0 0.019573791725541238 0.015477729490248549 0 0.020241650243725404 0.015712147651714529 0 0.020531545653684979 0.015311474939264502 0 0.020241650243725404 0.015712147651714529 0 0.02035819772808484 0.016134715442419179 0 0.019975359550616096 0.016040090997022999 0 0.02035819772808484 0.016134715442419179 0 0.019975359550616096 0.016040090997022999 0 0.019982461280772773 0.016459408970261484 0 0.019721240114912952 0.016422687118557235 0 0.019975359550616096 0.016040090997022999 0 0.019982461280772773 0.016459408970261484 0 0.024904463785034994 0.015674337800809082 0 0.022962577703553168 0.015616412353025607 0 0.02035819772808484 0.016134715442419179 0 0.019982461280772773 0.016459408970261484 0 0.020356909565859591 0.016482188466923245 0 0.02035819772808484 0.016134715442419179 0 0.02068285782494075 0.016484079634856048 0 0.020907788186757557 0.016063224864334775 0 0.02035819772808484 0.016134715442419179 0 0.020356909565859591 0.016482188466923245 0 0.02068285782494075 0.016484079634856048 0 0.020404668338753613 0.016845041592265728 0 0.020736820167813419 0.017243939146347458 0 0.020933867493521829 0.01689626856797451 0 0.02068285782494075 0.016484079634856048 0 0.020404668338753613 0.016845041592265728 0 0.020933867493521829 0.01689626856797451 0 0.021065302153880652 0.017913676726159108 0 0.019932305556568344 0.017466880050351411 0 0.020736820167813419 0.017243939146347458 0 0.020356909565859591 0.016482188466923245 0 0.02068285782494075 0.016484079634856048 0 0.020404668338753613 0.016845041592265728 0 0.019750223642384469 0.016430257373845937 0 0.019982461280772773 0.016459408970261484 0 0.019932305556568344 0.017466880050351411 0 0.019982461280772773 0.016459408970261484 0 0.020404668338753613 0.016845041592265728 0 0.019932305556568344 0.017466880050351411 0 0.019982461280772773 0.016459408970261484 0 0.020356909565859591 0.016482188466923245 0 0.020404668338753613 0.016845041592265728 0 0.020404668338753613 0.016845041592265728 0 0.019932305556568344 0.017466880050351411 0 0.020736820167813419 0.017243939146347458 0 0.021065302153880652 0.017913676726159108 0 0.021154720722664069 0.017272832393429131 0 0.021523065152458314 0.0173056182029932 0 0.021065302153880652 0.017913676726159108 0 0.020736820167813419 0.017243939146347458 0 0.021154720722664069 0.017272832393429131 0 0.020736820167813419 0.017243939146347458 0 0.021154720722664069 0.017272832393429131 0 0.020933867493521829 0.01689626856797451 0 0.021154720722664069 0.017272832393429131 0 0.021523065152458314 0.0173056182029932 0 0.021409186391573295 0.016944717233632681 0 0.021065302153880652 0.017913676726159108 0 0.021523065152458314 0.0173056182029932 0 0.022092077032256054 0.017433271220745308 0 0.021523065152458314 0.0173056182029932 0 0.021894433379510955 0.016949243483640727 0 0.022092077032256054 0.017433271220745308 0 0.021523065152458314 0.0173056182029932 0 0.021409186391573295 0.016944717233632681 0 0.021894433379510955 0.016949243483640727 0 0.021894433379510955 0.016949243483640727 0 0.022017941457427706 0.016410571328682139 0 0.021594640793475114 0.01658508022348712 0 0.021409186391573295 0.016944717233632681 0 0.021894433379510955 0.016949243483640727 0 0.021594640793475114 0.01658508022348712 0 0.021409186391573295 0.016944717233632681 0 0.020933867493521829 0.01689626856797451 0 0.021182321354323533 0.016509823260270166 0 0.021409186391573295 0.016944717233632681 0 0.021182321354323533 0.016509823260270166 0 0.021594640793475114 0.01658508022348712 0 0.02068285782494075 0.016484079634856048 0 0.020933867493521829 0.01689626856797451 0 0.021182321354323533 0.016509823260270166 0 0.021154720722664069 0.017272832393429131 0 0.021409186391573295 0.016944717233632681 0 0.020933867493521829 0.01689626856797451 0 0.021533052015014372 0.018685403662250081 0 0.022793129770505495 0.018166640846716757 0 0.022581196793784539 0.016985931708270216 0 0.022109871037486937 0.017813897448210977 0 0.022092077032256054 0.017433271220745308 0 0.022581196793784539 0.016985931708270216 0 0.022210642801201438 0.017596035950781744 0 0.02235818592964375 0.017350827224815929 0 0.021894433379510955 0.016949243483640727 0 0.022581196793784539 0.016985931708270216 0 0.022017941457427706 0.016410571328682139 0 0.021894433379510955 0.016949243483640727 0 0.022092077032256054 0.017433271220745308 0 0.022581196793784539 0.016985931708270216 0 0.022581196793784539 0.016985931708270216 0 0.02275223044876034 0.01607796487843012 0 0.022017941457427706 0.016410571328682139 0 0.02275223044876034 0.01607796487843012 0 0.022017941457427706 0.016410571328682139 0 0.022041411738255964 0.015635744060265036 0 0.02275223044876034 0.01607796487843012 0 0.022041411738255964 0.015635744060265036 0 0.022997559495508829 0.014993690763801039 0 0.020907788186757557 0.016063224864334775 0 0.021182321354323533 0.016509823260270166 0 0.021468501021091144 0.0161051546799632 0 0.02068285782494075 0.016484079634856048 0 0.020907788186757557 0.016063224864334775 0 0.021182321354323533 0.016509823260270166 0 0.021182321354323533 0.016509823260270166 0 0.021594640793475114 0.01658508022348712 0 0.021468501021091144 0.0161051546799632 0 0.022017941457427706 0.016410571328682139 0 0.021594640793475114 0.01658508022348712 0 0.021468501021091144 0.0161051546799632 0 0.022017941457427706 0.016410571328682139 0 0.022041411738255964 0.015635744060265036 0 0.021468501021091144 0.0161051546799632 0 0.022041411738255964 0.015635744060265036 0 0.021468501021091144 0.0161051546799632 0 0.021151153456566395 0.015428455846896305 0 0.020608747354698229 0.015687098710297279 0 0.020907788186757557 0.016063224864334775 0 0.021151153456566395 0.015428455846896305 0 0.020907788186757557 0.016063224864334775 0 0.021468501021091144 0.0161051546799632 0 0.021151153456566395 0.015428455846896305 0 0.021103064975085632 0.014946336052715704 0 0.021151153456566395 0.015428455846896305 0 0.020531545653684979 0.015311474939264502 0 0.021103064975085632 0.014946336052715704 0 0.021151153456566395 0.015428455846896305 0 0.021713048840166765 0.01493488428776743 0 0.022041411738255964 0.015635744060265036 0 0.021151153456566395 0.015428455846896305 0 0.021713048840166765 0.01493488428776743 0 0.021713048840166765 0.01493488428776743 0 0.021794138063710059 0.014301557833691594 0 0.021465865210858467 0.014506264576204438 0 0.021465865210858467 0.014506264576204438 0 0.022000012397666864 0.013772208341973426 0 0.020565090222098854 0.01462340325941432 0 0.021103064975085632 0.014946336052715704 0 0.021713048840166765 0.01493488428776743 0 0.021465865210858467 0.014506264576204438 0 0.021103064975085632 0.014946336052715704 0 0.021465865210858467 0.014506264576204438 0 0.020565090222098854 0.01462340325941432 0 0.021794138063710059 0.014301557833691594 0 0.022997559495508829 0.014993690763801039 0 0.021677061865564583 0.01378666734995368 0 0.018420848678562727 0.01239858611660289 0 0.018611041854617271 0.013099713259307439 0 0.021713048840166765 0.01493488428776743 0 0.021794138063710059 0.014301557833691594 0 0.022997559495508829 0.014993690763801039 0 0.022041411738255964 0.015635744060265036 0 0.021713048840166765 0.01493488428776743 0 0.022997559495508829 0.014993690763801039 0 0.015116114028702957 0.012977650937515938 0 0.014199457322666052 0.012114507850587434 0 0.015166334805683353 0.01194408617722199 0 0.014199457322666052 0.012114507850587434 0 0.014256419468931209 0.011555526628301302 0 0.015166334805683353 0.01194408617722199 0 0.024197322215730538 0.016229707158733678 0 0.022000012397666864 0.013772208341973426 0 0.024368463738991708 0.014410022734434669 0 0.024197322215730538 0.016229707158733678 0 0.022000012397666864 0.013772208341973426 0 0.021677061865564583 0.01378666734995368 0 0.020283937293305285 0.014664152892280137 0 0.018611041854617271 0.013099713259307439 0 0.022000012397666864 0.013772208341973426 0 0.024547506246337274 0.013181177701199809 0 0.02458651535749062 0.011579190045630643 0 0.022000012397666864 0.013772208341973426 0 0.024368463738991708 0.014410022734434669 0 0.024547506246337274 0.013181177701199809 0 0.022135030541700754 0.013598885440800621 0 0.022296713499820268 0.01332388618223391 0 0.021794138063710059 0.014301557833691594 0 0.021465865210858467 0.014506264576204438 0 0.022000012397666864 0.013772208341973426 0 0.021794138063710059 0.014301557833691594 0 0.022000012397666864 0.013772208341973426 0 0.021677061865564583 0.01378666734995368 0 0.026917984368462849 0.015411840871055672 0 0.026178430385897365 0.012220089929717435 0 0.026373238064095639 0.01566347304966318 0 0.025307774761982437 0.0141351093953707 0 0.026167261188938841 0.012207246242734468 0 0.025087584543464055 0.01516883124246619 0 0.024368463738991708 0.014410022734434669 0 0.025307774761982437 0.0141351093953707 0 0.024368463738991708 0.014410022734434669 0 0.024547506246337274 0.013181177701199809 0 0.025307774761982437 0.0141351093953707 0 0.024547506246337274 0.013181177701199809 0 0.025307774761982437 0.0141351093953707 0 0.026167261188938841 0.012207246242734468 0 0.026373238064095639 0.01566347304966318 0 0.025087584543464055 0.01516883124246619 0 0.025307774761982437 0.0141351093953707 0 0.027031781232722481 0.014437687415870442 0 0.027922586438546785 0.013894557659645389 0 0.026167261188938841 0.012207246242734468 0 0.027869275700194651 0.013804624881905635 0 0.027446882155962651 0.011561130078093175 0 0.027922586438546785 0.013894557659645389 0 0.027342839710629434 0.012213096054220648 0 0.026167261188938841 0.012207246242734468 0 0.027922586438546785 0.013894557659645389 0 0.028615418376197372 0.012660351249806035 0 0.027740384797161195 0.011651871908307064 0 0.028972813037724858 0.013504739317564707 0 0.027922586438546785 0.013894557659645389 0 0.028615418376197372 0.012660351249806035 0 0.028972813037724858 0.013504739317564707 0 0.028615418376197372 0.012660351249806035 0 0.029576455479125473 0.012643709314193537 0 0.028615418376197372 0.012660351249806035 0 0.027740384797161195 0.011651871908307064 0 0.028997231203740568 0.011613532597993286 0 0.028615418376197372 0.012660351249806035 0 0.028997231203740568 0.011613532597993286 0 0.029576455479125473 0.012643709314193537 0 0.027077789220573686 0.0098360819041281924 0 0.027342839710629434 0.012213096054220648 0 0.026167261188938841 0.012207246242734468 0 0.027464149373314095 0.0095482698221433689 0 0.027740384797161195 0.011651871908307064 0 0.028443238617897094 0.010620899952186779 0 0.025533430263499923 0.012604333216115942 0 0.027446882155962651 0.011561130078093175 0 0.027740384797161195 0.011651871908307064 0 0.028997231203740568 0.011613532597993286 0 0.028443238617897094 0.010620899952186779 0 0.028997231203740568 0.011613532597993286 0 0.028443238617897094 0.010620899952186779 0 0.029313922880261994 0.010667214465869533 0 0.027464149373314095 0.0095482698221433689 0 0.028443238617897094 0.010620899952186779 0 0.028937836233184227 0.0096991840658826375 0 0.028443238617897094 0.010620899952186779 0 0.028937836233184227 0.0096991840658826375 0 0.029313922880261994 0.010667214465869533 0 0.025533430263499923 0.012604333216115942 0 0.022296713499820268 0.01332388618223391 0 0.019573791725541238 0.015477729490248549 0 0.020531545653684979 0.015311474939264502 0 0.020565090222098854 0.01462340325941432 0 0.021103064975085632 0.014946336052715704 0 0.020531545653684979 0.015311474939264502 0 0.020565090222098854 0.01462340325941432 0 0.024547506246337274 0.013181177701199809 0 0.02458651535749062 0.011579190045630643 0 0.026167261188938841 0.012207246242734468 0 0.027077789220573686 0.0098360819041281924 0 0.02458651535749062 0.011579190045630643 0 0.026167261188938841 0.012207246242734468 0 0.032073948262956113 0.010915726898760397 0 0.030462302501074762 0.011288581108139602 0 0.031956817992135005 0.012212365800362593 0 0.032073948262956113 0.010915726898760397 0 0.032927493042121371 0.011359616969751598 0 0.031956817992135005 0.012212365800362593 0 0.032073948262956113 0.010915726898760397 0 0.032927493042121371 0.011359616969751598 0 0.033397859719089575 0.010532763462982138 0 0.032073948262956113 0.010915726898760397 0 0.033397859719089575 0.010532763462982138 0 0.032635014045231919 0.0097834594996047027 0 0.033397859719089575 0.010532763462982138 0 0.032635014045231919 0.0097834594996047027 0 0.034013042152663084 0.0096383409150911405 0 0.032073948262956113 0.010915726898760397 0 0.032635014045231919 0.0097834594996047027 0 0.031218093494217725 0.0096736815405501116 0 0.032073948262956113 0.010915726898760397 0 0.031218093494217725 0.0096736815405501116 0 0.030462302501074762 0.011288581108139602 0 0.031218093494217725 0.0096736815405501116 0 0.029922411011644254 0.0096510202412363171 0 0.030462302501074762 0.011288581108139602 0 0.029922411011644254 0.0096510202412363171 0 0.029313922880261994 0.010667214465869533 0 0.030462302501074762 0.011288581108139602 0 0.028937836233184227 0.0096991840658826375 0 0.029922411011644254 0.0096510202412363171 0 0.029313922880261994 0.010667214465869533 0 0.028997231203740568 0.011613532597993286 0 0.029313922880261994 0.010667214465869533 0 0.030462302501074762 0.011288581108139602 0 0.030462302501074762 0.011288581108139602 0 0.030768195773882408 0.012891501284115949 0 0.031956817992135005 0.012212365800362593 0 0.030462302501074762 0.011288581108139602 0 0.029576455479125473 0.012643709314193537 0 0.030768195773882408 0.012891501284115949 0 0.028997231203740568 0.011613532597993286 0 0.030462302501074762 0.011288581108139602 0 0.029576455479125473 0.012643709314193537 0 0.028972813037724858 0.013504739317564707 0 0.029576455479125473 0.012643709314193537 0 0.029908003213011999 0.01374981205428084 0 0.029576455479125473 0.012643709314193537 0 0.029908003213011999 0.01374981205428084 0 0.030768195773882408 0.012891501284115949 0 0.031432627523114355 0.013825617894548732 0 0.029908003213011999 0.01374981205428084 0 0.030768195773882408 0.012891501284115949 0 0.031432627523114355 0.013825617894548732 0 0.030768195773882408 0.012891501284115949 0 0.031956817992135005 0.012212365800362593 0 0.031432627523114355 0.013825617894548732 0 0.031956817992135005 0.012212365800362593 0 0.03265960678141195 0.013073571240893263 0 0.031956817992135005 0.012212365800362593 0 0.03265960678141195 0.013073571240893263 0 0.033439863755410151 0.012158135001875556 0 0.032927493042121371 0.011359616969751598 0 0.031956817992135005 0.012212365800362593 0 0.033439863755410151 0.012158135001875556 0 0.033116963643279249 0.014104769510164601 0 0.031432627523114355 0.013825617894548732 0 0.03265960678141195 0.013073571240893263 0 0.033116963643279249 0.014104769510164601 0 0.03265960678141195 0.013073571240893263 0 0.034246530364322458 0.01323670287620022 0 0.03265960678141195 0.013073571240893263 0 0.034246530364322458 0.01323670287620022 0 0.033439863755410151 0.012158135001875556 0 0.035602448424633691 0.013858524316926132 0 0.034246530364322458 0.01323670287620022 0 0.035596757742326915 0.012572610391344542 0 0.034246530364322458 0.01323670287620022 0 0.034872988087290044 0.011926283466465975 0 0.035596757742326915 0.012572610391344542 0 0.034872988087290044 0.011926283466465975 0 0.035596757742326915 0.012572610391344542 0 0.035780734266035903 0.011526505527878971 0 0.034246530364322458 0.01323670287620022 0 0.034872988087290044 0.011926283466465975 0 0.033439863755410151 0.012158135001875556 0 0.034872988087290044 0.011926283466465975 0 0.033439863755410151 0.012158135001875556 0 0.034179837666008281 0.011290744231195094 0 0.037067811474435691 0.012181449004789062 0 0.037661128632367674 0.010613862020346141 0 0.037593571972425563 0.013196749987597553 0 0.036453963199210834 0.013116081329830489 0 0.037067811474435691 0.012181449004789062 0 0.037593571972425563 0.013196749987597553 0 0.036597383725057359 0.014128322505722562 0 0.036453963199210834 0.013116081329830489 0 0.037593571972425563 0.013196749987597553 0 0.035602448424633691 0.013858524316926132 0 0.036453963199210834 0.013116081329830489 0 0.035596757742326915 0.012572610391344542 0 0.036453963199210834 0.013116081329830489 0 0.035596757742326915 0.012572610391344542 0 0.036543450049837396 0.011818849855136156 0 0.035596757742326915 0.012572610391344542 0 0.036543450049837396 0.011818849855136156 0 0.035780734266035903 0.011526505527878971 0 0.036543450049837396 0.011818849855136156 0 0.037067811474435691 0.012181449004789062 0 0.037661128632367674 0.010613862020346141 0 0.036453963199210834 0.013116081329830489 0 0.036543450049837396 0.011818849855136156 0 0.037067811474435691 0.012181449004789062 0 0.036543450049837396 0.011818849855136156 0 0.036215609095630583 0.010695581439978891 0 0.037661128632367674 0.010613862020346141 0 0.035780734266035903 0.011526505527878971 0 0.036215609095630583 0.010695581439978891 0 0.035034158650551345 0.010575050200166908 0 0.036543450049837396 0.011818849855136156 0 0.035780734266035903 0.011526505527878971 0 0.036215609095630583 0.010695581439978891 0 0.036215609095630583 0.010695581439978891 0 0.035034158650551345 0.010575050200166908 0 0.035989982553285997 0.0090811206576852013 0 0.036215609095630583 0.010695581439978891 0 0.035989982553285997 0.0090811206576852013 0 0.037661128632367674 0.010613862020346141 0 0.033397859719089575 0.010532763462982138 0 0.034179837666008281 0.011290744231195094 0 0.035034158650551345 0.010575050200166908 0 0.032927493042121371 0.011359616969751598 0 0.033439863755410151 0.012158135001875556 0 0.034179837666008281 0.011290744231195094 0 0.032927493042121371 0.011359616969751598 0 0.033397859719089575 0.010532763462982138 0 0.034179837666008281 0.011290744231195094 0 0.034872988087290044 0.011926283466465975 0 0.035780734266035903 0.011526505527878971 0 0.035034158650551345 0.010575050200166908 0 0.034872988087290044 0.011926283466465975 0 0.034179837666008281 0.011290744231195094 0 0.035034158650551345 0.010575050200166908 0 0.035034158650551345 0.010575050200166908 0 0.034013042152663084 0.0096383409150911405 0 0.035989982553285997 0.0090811206576852013 0 0.033397859719089575 0.010532763462982138 0 0.035034158650551345 0.010575050200166908 0 0.034013042152663084 0.0096383409150911405 0 0.034013042152663084 0.0096383409150911405 0 0.035989982553285997 0.0090811206576852013 0 0.032777529984085257 0.0083774472386022036 0 0.036794439381965131 0.010637522675958758 0 0.035626914632284956 0.010212530556294843 0 0.037990212805999977 0.012344870338641793 0 0.037816065276555039 0.012115409347103902 0 0.038066984298000102 0.0124275006074001 0 0.037990212805999977 0.012344870338641793 0 0.037816065276555039 0.012115409347103902 0 0.037897624229575433 0.012437668804938247 0 0.037816065276555039 0.012115409347103902 0 0.037547238013892217 0.01224134863818002 0 0.037374900171430012 0.011752645112241162 0 0.036794439381965131 0.010637522675958758 0 0.037486772868763674 0.010959316700634341 0 0.035989982553285997 0.0090811206576852013 0 0.037869274484945224 0.010239386858308911 0 0.037661128632367674 0.010613862020346141 0 0.037816065276555039 0.012115409347103902 0 0.037748848344085047 0.012351743514604673 0 0.037897624229575433 0.012437668804938247 0 0.037816065276555039 0.012115409347103902 0 0.037748848344085047 0.012351743514604673 0 0.037547238013892217 0.01224134863818002 0 0.037748848344085047 0.012351743514604673 0 0.037685791986100975 0.012619508076150103 0 0.037547238013892217 0.01224134863818002 0 0.037748848344085047 0.012351743514604673 0 0.037685791986100975 0.012619508076150103 0 0.037897624229575433 0.012437668804938247 0 0.037685791986100975 0.012619508076150103 0 0.037479705552639145 0.012714093747982219 0 0.037547238013892217 0.01224134863818002 0 0.037897624229575433 0.012437668804938247 0 0.037971495849915743 0.01256830373112449 0 0.038020920290006179 0.012397453141678238 0 0.037990212805999977 0.012344870338641793 0 0.037897624229575433 0.012437668804938247 0 0.038020920290006179 0.012397453141678238 0 0.037685791986100975 0.012619508076150103 0 0.037897624229575433 0.012437668804938247 0 0.037868840368670782 0.012744977494505018 0 0.037897624229575433 0.012437668804938247 0 0.037971495849915743 0.01256830373112449 0 0.037868840368670782 0.012744977494505018 0 0.037971495849915743 0.01256830373112449 0 0.038016459392692374 0.012776230963491484 0 0.037868840368670782 0.012744977494505018 0 0.036565329542456088 0.013484427258764845 0 0.03841923844973151 0.012493993330393161 0 0.037971495849915743 0.01256830373112449 0 0.038067996653617743 0.01250813697559194 0 0.038016459392692374 0.012776230963491484 0 0.038281061533269378 0.012482730921988889 0 0.038067996653617743 0.01250813697559194 0 0.038016459392692374 0.012776230963491484 0 0.037657609081026812 0.01320299346819985 0 0.038016459392692374 0.012776230963491484 0 0.037692620047882368 0.012826322831097104 0 0.036565329542456088 0.013484427258764845 0 0.037618328136711433 0.012554627409767826 0 0.038281061533269378 0.012482730921988889 0 0.038067996653617743 0.01250813697559194 0 0.038021154280828889 0.01227322823094831 0 0.038067996653617743 0.01250813697559194 0 0.038020920290006179 0.012397453141678238 0 0.038021154280828889 0.01227322823094831 0 0.037971495849915743 0.01256830373112449 0 0.038067996653617743 0.01250813697559194 0 0.038020920290006179 0.012397453141678238 0 0.037990212805999977 0.012344870338641793 0 0.038033387891388375 0.012344205481552755 0 0.038066984298000102 0.0124275006074001 0 0.038066984298000102 0.0124275006074001 0 0.038021154280828889 0.01227322823094831 0 0.036602436722146511 0.012385242437789736 0 0.038020920290006179 0.012397453141678238 0 0.038033387891388375 0.012344205481552755 0 0.038021154280828889 0.01227322823094831 0 0.037990212805999977 0.012344870338641793 0 0.038020920290006179 0.012397453141678238 0 0.038033387891388375 0.012344205481552755 0 0.038033387891388375 0.012344205481552755 0 0.038066984298000102 0.0124275006074001 0 0.038021154280828889 0.01227322823094831 0 0.032635014045231919 0.0097834594996047027 0 0.031218093494217725 0.0096736815405501116 0 0.032777529984085257 0.0083774472386022036 0 0.032635014045231919 0.0097834594996047027 0 0.034013042152663084 0.0096383409150911405 0 0.032777529984085257 0.0083774472386022036 0 0.031218093494217725 0.0096736815405501116 0 0.032777529984085257 0.0083774472386022036 0 0.029552092496375817 0.0079950640099485468 0 0.035626914632284956 0.010212530556294843 0 0.03170217068761938 0.012622083022801911 0 0.028937836233184227 0.0096991840658826375 0 0.029922411011644254 0.0096510202412363171 0 0.029552092496375817 0.0079950640099485468 0 0.031218093494217725 0.0096736815405501116 0 0.029922411011644254 0.0096510202412363171 0 0.029552092496375817 0.0079950640099485468 0 0.030297965772639632 0.015264787371579115 0 0.032259891167000711 0.015446252898866209 0 0.031003325424696419 0.014124696412967508 0 0.030297965772639632 0.015264787371579115 0 0.032259891167000711 0.015446252898866209 0 0.030913084125042754 0.016441231941779592 0 0.037487177012391945 0.011714300904638285 0 0.038021154280828889 0.01227322823094831 0 0.036602436722146511 0.012385242437789736 0 0.036565329542456088 0.013484427258764845 0 0.03170217068761938 0.012622083022801911 0 0.036565329542456088 0.013484427258764845 0 0.034038766897773971 0.013365851985989666 0 0.037657609081026812 0.01320299346819985 0 0.037188267609885146 0.012805914349677811 0 0.037692620047882368 0.012826322831097104 0 0.037188267609885146 0.012805914349677811 0 0.037439874495461323 0.012464508867463293 0 0.037692620047882368 0.012826322831097104 0 0.037188267609885146 0.012805914349677811 0 0.037439874495461323 0.012464508867463293 0 0.037019533561276033 0.012442158549189763 0 0.038016459392692374 0.012776230963491484 0 0.037953709438021004 0.012767061698136245 0 0.037692620047882368 0.012826322831097104 0 0.038016459392692374 0.012776230963491484 0 0.037953709438021004 0.012767061698136245 0 0.037952750774269114 0.012832608671939093 0 0.038107707878625205 0.01285218653722052 0 0.037841483158385876 0.012714016497228616 0 0.038244251054268541 0.012954656584952004 0 0.037953709438021004 0.012767061698136245 0 0.038063862893851309 0.012959908886009187 0 0.037439874495461323 0.012464508867463293 0 0.037953709438021004 0.012767061698136245 0 0.037692620047882368 0.012826322831097104 0 0.037953709438021004 0.012767061698136245 0 0.038063862893851309 0.012959908886009187 0 0.037965180420507214 0.012934799753217732 0 0.037953709438021004 0.012767061698136245 0 0.037965180420507214 0.012934799753217732 0 0.037952750774269114 0.012832608671939093 0 0.037992858938172711 0.013206557179979365 0 0.038046274433574785 0.013309728513581538 0 0.03778888793646603 0.013157731199220559 0 0.037965180420507214 0.012934799753217732 0 0.037941939081505067 0.013074520729033669 0 0.038032532724651652 0.013048373873799528 0 0.038063862893851309 0.012959908886009187 0 0.037965180420507214 0.012934799753217732 0 0.038032532724651652 0.013048373873799528 0 0.038032532724651652 0.013048373873799528 0 0.038058302876787624 0.013127859491313183 0 0.038006219315208888 0.013117551372279063 0 0.037941939081505067 0.013074520729033669 0 0.038032532724651652 0.013048373873799528 0 0.038006219315208888 0.013117551372279063 0 0.038244251054268541 0.012954656584952004 0 0.038063862893851309 0.012959908886009187 0 0.038143014486971716 0.013069913608168884 0 0.038032532724651652 0.013048373873799528 0 0.038143014486971716 0.013069913608168884 0 0.038058302876787624 0.013127859491313183 0 0.038063862893851309 0.012959908886009187 0 0.038032532724651652 0.013048373873799528 0 0.038143014486971716 0.013069913608168884 0 0.038116054634080618 0.013186750307232355 0 0.038269184550338335 0.013181861879245848 0 0.038030800613446512 0.013349711790415315 0 0.038116054634080618 0.013186750307232355 0 0.038058302876787624 0.013127859491313183 0 0.037992858938172711 0.013206557179979365 0 0.038116054634080618 0.013186750307232355 0 0.037992858938172711 0.013206557179979365 0 0.038030800613446512 0.013349711790415315 0 0.038143014486971716 0.013069913608168884 0 0.038116054634080618 0.013186750307232355 0 0.038058302876787624 0.013127859491313183 0 0.038058302876787624 0.013127859491313183 0 0.038006219315208888 0.013117551372279063 0 0.037992858938172711 0.013206557179979365 0 0.037941939081505067 0.013074520729033669 0 0.038006219315208888 0.013117551372279063 0 0.037992858938172711 0.013206557179979365 0 0.036782091010466131 0.012181333148510587 0 0.037439874495461323 0.012464508867463293 0 0.037019533561276033 0.012442158549189763 0 0.034951905551071465 0.014129581139137532 0 0.038107707878625205 0.01285218653722052 0 0.038426740233768721 0.013075299575353756 0 0.038244251054268541 0.012954656584952004 0 0.038269184550338335 0.013181861879245848 0 0.038244251054268541 0.012954656584952004 0 0.038143014486971716 0.013069913608168884 0 0.038269184550338335 0.013181861879245848 0 0.038143014486971716 0.013069913608168884 0 0.038116054634080618 0.013186750307232355 0 0.038269184550338335 0.013181861879245848 0 0.0339545654006293 0.015893422449782188 0 0.03603553334928538 0.014705046584048267 0 0.034752750582160881 0.014289359363521777 0 0.034951905551071465 0.014129581139137532 0 0.037253285019388301 0.013824087975996673 0 0.035516256050949262 0.015366084188516047 0 0.037968433069362713 0.014070820405885599 0 0.034752750582160881 0.014289359363521777 0 0.034920426755129207 0.013176465944352992 0 0.03611371211841051 0.013358473253440103 0 0.038160457109706919 0.015433526266477758 0 0.037797903727153033 0.015240452238032809 0 0.037883830965475568 0.015454596537425891 0 0.034647734418056492 0.011853997269210272 0 0.03695154489948807 0.013323136382181387 0 0.038046274433574785 0.013309728513581538 0 0.03603553334928538 0.014705046584048267 0 0.034752750582160881 0.014289359363521777 0 0.03611371211841051 0.013358473253440103 0 0.034647734418056492 0.011853997269210272 0 0.034920426755129207 0.013176465944352992 0 0.03611371211841051 0.013358473253440103 0 0.034647734418056492 0.011853997269210272 0 0.03611371211841051 0.013358473253440103 0 0.03695154489948807 0.013323136382181387 0 0.037253285019388301 0.013824087975996673 0 0.037858618153768141 0.013480722543143609 0 0.03603553334928538 0.014705046584048267 0 0.03695154489948807 0.013323136382181387 0 0.038030800613446512 0.013349711790415315 0 0.03603553334928538 0.014705046584048267 0 0.03611371211841051 0.013358473253440103 0 0.03695154489948807 0.013323136382181387 0 0.037992858938172711 0.013206557179979365 0 0.038046274433574785 0.013309728513581538 0 0.038030800613446512 0.013349711790415315 0 0.03695154489948807 0.013323136382181387 0 0.038046274433574785 0.013309728513581538 0 0.038030800613446512 0.013349711790415315 0 0.037797903727153033 0.015240452238032809 0 0.03761345773860271 0.015368724495890244 0 0.037532848272164653 0.015221047633572165 0 0.037797903727153033 0.015240452238032809 0 0.03761345773860271 0.015368724495890244 0 0.037883830965475568 0.015454596537425891 0 0.036099362465356735 0.016283299781256443 0 0.036714609464211234 0.015635096127821026 0 0.037382636688989522 0.015629228780332721 0 0.037094067220400831 0.01586320205481238 0 0.037248042278754327 0.015703425257141222 0 0.03761345773860271 0.015368724495890244 0 0.037883830965475568 0.015454596537425891 0 0.037382636688989522 0.015629228780332721 0 0.036099362465356735 0.016283299781256443 0 0.03545483828099228 0.015813987377065162 0 0.03616431860636618 0.01518974734009922 0 0.036099362465356735 0.016283299781256443 0 0.036714609464211234 0.015635096127821026 0 0.03616431860636618 0.01518974734009922 0 0.034507293307030298 0.016660674629839188 0 0.036099362465356735 0.016283299781256443 0 0.03545483828099228 0.015813987377065162 0 0.034507293307030298 0.016660674629839188 0 0.03545483828099228 0.015813987377065162 0 0.034942014719799956 0.015201113219181241 0 0.03545483828099228 0.015813987377065162 0 0.034942014719799956 0.015201113219181241 0 0.03616431860636618 0.01518974734009922 0 0.035516256050949262 0.015366084188516047 0 0.037094067220400831 0.01586320205481238 0 0.03615065827938365 0.018449667266836875 0 0.038357897790289613 0.015203892815099434 0 0.040220257874066585 0.017141402254108248 0 0.038981808335038962 0.015845815594492298 0 0.038735456409318532 0.01705767889716879 0 0.037378845916395037 0.015600816838627933 0 0.03741052644853609 0.015548143961143226 0 0.037022141236857507 0.014984885063536081 0 0.040220257874066585 0.017141402254108248 0 0.038735456409318532 0.01705767889716879 0 0.039430153748523211 0.018485768214509431 0 0.03615065827938365 0.018449667266836875 0 0.035064630361159511 0.019736748023068081 0 0.037477786286116477 0.015532166797131453 0 0.037221908337649615 0.015436171018566378 0 0.037373542676297361 0.015543922230765563 0 0.03615065827938365 0.018449667266836875 0 0.036419971946421319 0.01796792767362989 0 0.037477786286116477 0.015532166797131453 0 0.037221908337649615 0.015436171018566378 0 0.037135986227411308 0.014938180622086742 0 0.036714609464211234 0.015635096127821026 0 0.037221908337649615 0.015436171018566378 0 0.037135986227411308 0.014938180622086742 0 0.036714609464211234 0.015635096127821026 0 0.037221908337649615 0.015436171018566378 0 0.037382636688989522 0.015629228780332721 0 0.037221908337649615 0.015436171018566378 0 0.037382636688989522 0.015629228780332721 0 0.037373542676297361 0.015543922230765563 0 0.037382636688989522 0.015629228780332721 0 0.037394492375103089 0.015468760938065373 0 0.037444663266903724 0.015383147358232074 0 0.03741052644853609 0.015548143961143226 0 0.037394492375103089 0.015468760938065373 0 0.037368543262148064 0.015220974513314672 0 0.037477786286116477 0.015532166797131453 0 0.03741052644853609 0.015548143961143226 0 0.037373542676297361 0.015543922230765563 0 0.03741052644853609 0.015548143961143226 0 0.037373542676297361 0.015543922230765563 0 0.037394492375103089 0.015468760938065373 0 0.037382636688989522 0.015629228780332721 0 0.037373542676297361 0.015543922230765563 0 0.037394492375103089 0.015468760938065373 0 0.037968433069362713 0.014070820405885599 0 0.037603018972389601 0.014018359512607999 0 0.037368543262148064 0.015220974513314672 0 0.037444663266903724 0.015383147358232074 0 0.037532848272164653 0.015221047633572165 0 0.037394492375103089 0.015468760938065373 0 0.037368543262148064 0.015220974513314672 0 0.037444663266903724 0.015383147358232074 0 0.037797903727153033 0.015240452238032809 0 0.037532848272164653 0.015221047633572165 0 0.037439686718353703 0.014853540466957516 0 0.03761345773860271 0.015368724495890244 0 0.037444663266903724 0.015383147358232074 0 0.037532848272164653 0.015221047633572165 0 0.03761345773860271 0.015368724495890244 0 0.037382636688989522 0.015629228780332721 0 0.037444663266903724 0.015383147358232074 0 0.037368543262148064 0.015220974513314672 0 0.037532848272164653 0.015221047633572165 0 0.037439686718353703 0.014853540466957516 0 0.037368543262148064 0.015220974513314672 0 0.037439686718353703 0.014853540466957516 0 0.037022141236857507 0.014984885063536081 0 0.03741052644853609 0.015548143961143226 0 0.037368543262148064 0.015220974513314672 0 0.037022141236857507 0.014984885063536081 0 0.037439686718353703 0.014853540466957516 0 0.037092271144042163 0.014223594609637047 0 0.037022141236857507 0.014984885063536081 0 0.03778888793646603 0.013157731199220559 0 0.037709052505860395 0.012902272114156036 0 0.037450448250918145 0.013110958908681017 0 0.037603018972389601 0.014018359512607999 0 0.037211326002710425 0.013637274007535404 0 0.03778888793646603 0.013157731199220559 0 0.037880415286317186 0.012971354868334282 0 0.037709052505860395 0.012902272114156036 0 0.037941939081505067 0.013074520729033669 0 0.037992858938172711 0.013206557179979365 0 0.03778888793646603 0.013157731199220559 0 0.037941939081505067 0.013074520729033669 0 0.03778888793646603 0.013157731199220559 0 0.037880415286317186 0.012971354868334282 0 0.037965180420507214 0.012934799753217732 0 0.037941939081505067 0.013074520729033669 0 0.037880415286317186 0.012971354868334282 0 0.037965180420507214 0.012934799753217732 0 0.037880415286317186 0.012971354868334282 0 0.037952750774269114 0.012832608671939093 0 0.037880415286317186 0.012971354868334282 0 0.037952750774269114 0.012832608671939093 0 0.037868840368670782 0.012744977494505018 0 0.037880415286317186 0.012971354868334282 0 0.037868840368670782 0.012744977494505018 0 0.037709052505860395 0.012902272114156036 0 0.038016459392692374 0.012776230963491484 0 0.037952750774269114 0.012832608671939093 0 0.037868840368670782 0.012744977494505018 0 0.037709052505860395 0.012902272114156036 0 0.037479705552639145 0.012714093747982219 0 0.037450448250918145 0.013110958908681017 0 0.037685791986100975 0.012619508076150103 0 0.037868840368670782 0.012744977494505018 0 0.037709052505860395 0.012902272114156036 0 0.037685791986100975 0.012619508076150103 0 0.037709052505860395 0.012902272114156036 0 0.037479705552639145 0.012714093747982219 0 0.037479705552639145 0.012714093747982219 0 0.037173298520471423 0.012843599987111142 0 0.037450448250918145 0.013110958908681017 0 0.037173298520471423 0.012843599987111142 0 0.036627269872846827 0.013212710705251846 0 0.037450448250918145 0.013110958908681017 0 0.036627269872846827 0.013212710705251846 0 0.036685833935412158 0.013999348415146131 0 0.037092271144042163 0.014223594609637047 0 0.036627269872846827 0.013212710705251846 0 0.036685833935412158 0.013999348415146131 0 0.036106085762450009 0.012784072859876127 0 0.037189734915999889 0.014298112171022358 0 0.036303581316716529 0.013019249752542648 0 0.036604423274535718 0.013238146845941408 0 0.037211326002710425 0.013637274007535404 0 0.036627269872846827 0.013212710705251846 0 0.036709482708316782 0.012360358770229179 0 0.036937736697424978 0.012727597431050756 0 0.037173298520471423 0.012843599987111142 0 0.036627269872846827 0.013212710705251846 0 0.036937736697424978 0.012727597431050756 0 0.038161916162144822 0.015070312090276495 0 0.037235196084468736 0.015587662856578236 0 0.036572971213649316 0.014766912018698952 0 0.037754452194520782 0.014531129885769769 0 0.038161916162144822 0.015070312090276495 0 0.036600635178109672 0.014706962818711136 0 0.038063098054936885 0.015044099482792282 0 0.036606798458780308 0.014740804555162454 0 0.036685833935412158 0.013999348415146131 0 0.037092271144042163 0.014223594609637047 0 0.037022141236857507 0.014984885063536081 0 0.037754452194520782 0.014531129885769769 0 0.038161916162144822 0.015070312090276495 0 0.038981808335038962 0.015845815594492298 0 0.037189734915999889 0.014298112171022358 0 0.038357897790289613 0.015203892815099434 0 0.038981808335038962 0.015845815594492298 0 0.038148749021762782 0.015952616043110282 0 0.038735456409318532 0.01705767889716879 0 0.038161916162144822 0.015070312090276495 0 0.038981808335038962 0.015845815594492298 0 0.038148749021762782 0.015952616043110282 0 0.038161916162144822 0.015070312090276495 0 0.038148749021762782 0.015952616043110282 0 0.037235196084468736 0.015587662856578236 0 0.038148749021762782 0.015952616043110282 0 0.037235196084468736 0.015587662856578236 0 0.03758682286069899 0.016602775592079854 0 0.03758682286069899 0.016602775592079854 0 0.037070214275853379 0.017571034406465288 0 0.037902384604622988 0.018259338445007278 0 0.03758682286069899 0.016602775592079854 0 0.038735456409318532 0.01705767889716879 0 0.037902384604622988 0.018259338445007278 0 0.038148749021762782 0.015952616043110282 0 0.03758682286069899 0.016602775592079854 0 0.038735456409318532 0.01705767889716879 0 0.036141995074313621 0.017155730228179865 0 0.036131413704170064 0.015858620576723693 0 0.034999946728805499 0.016361701005181369 0 0.036141995074313621 0.017155730228179865 0 0.034999946728805499 0.016361701005181369 0 0.034999968632164598 0.018328170103426644 0 0.03758682286069899 0.016602775592079854 0 0.036141995074313621 0.017155730228179865 0 0.037070214275853379 0.017571034406465288 0 0.03758682286069899 0.016602775592079854 0 0.036141995074313621 0.017155730228179865 0 0.036131413704170064 0.015858620576723693 0 0.037235196084468736 0.015587662856578236 0 0.03758682286069899 0.016602775592079854 0 0.036131413704170064 0.015858620576723693 0 0.037235196084468736 0.015587662856578236 0 0.036131413704170064 0.015858620576723693 0 0.036572971213649316 0.014766912018698952 0 0.036131413704170064 0.015858620576723693 0 0.034999946728805499 0.016361701005181369 0 0.03499997834367554 0.014395298966091447 0 0.035000284312091498 0.014395243639893125 0 0.036606798458780308 0.014740804555162454 0 0.036131413704170064 0.015858620576723693 0 0.03499997834367554 0.014395298966091447 0 0.036572971213649316 0.014766912018698952 0 0.037754452194520782 0.014531129885769769 0 0.036600635178109672 0.014706962818711136 0 0.036530850271924098 0.013238318033540915 0 0.036627269872846827 0.013212710705251846 0 0.036106085762450009 0.012784072859876127 0 0.036709482708316782 0.012360358770229179 0 0.035000009979849402 0.014395235502846349 0 0.036530850271924098 0.013238318033540915 0 0.034999925891019468 0.012419604324741061 0 0.035000009979849402 0.014395235502846349 0 0.036600635178109672 0.014706962818711136 0 0.036530850271924098 0.013238318033540915 0 0.036530850271924098 0.013238318033540915 0 0.034999925891019468 0.012419604324741061 0 0.035242611956777886 0.011918005443389694 0 0.036303581316716529 0.013019249752542648 0 0.035299270793081337 0.011975271477151781 0 0.035242611956777886 0.011918005443389694 0 0.035833782071360287 0.01103909169303637 0 0.036105862045367372 0.011933171984915161 0 0.035242611956777886 0.011918005443389694 0 0.035833782071360287 0.01103909169303637 0 0.034999838341451678 0.010444355690895602 0 0.034999925891019468 0.012419604324741061 0 0.035242611956777886 0.011918005443389694 0 0.034999838341451678 0.010444355690895602 0 0.035833782071360287 0.01103909169303637 0 0.036744924506182969 0.011036641473676998 0 0.036105862045367372 0.011933171984915161 0 0.036744924506182969 0.011036641473676998 0 0.036105862045367372 0.011933171984915161 0 0.036669542296089902 0.011799825682629638 0 0.036106085762450009 0.012784072859876127 0 0.036105862045367372 0.011933171984915161 0 0.036709482708316782 0.012360358770229179 0 0.036106085762450009 0.012784072859876127 0 0.035242611956777886 0.011918005443389694 0 0.036105862045367372 0.011933171984915161 0 0.036105862045367372 0.011933171984915161 0 0.036709482708316782 0.012360358770229179 0 0.036669542296089902 0.011799825682629638 0 0.036709482708316782 0.012360358770229179 0 0.036937736697424978 0.012727597431050756 0 0.037238699262696046 0.012445107525957875 0 0.036709482708316782 0.012360358770229179 0 0.037238699262696046 0.012445107525957875 0 0.037099403423099642 0.011963363663453795 0 0.036709482708316782 0.012360358770229179 0 0.036669542296089902 0.011799825682629638 0 0.037099403423099642 0.011963363663453795 0 0.037238699262696046 0.012445107525957875 0 0.037547238013892217 0.01224134863818002 0 0.037099403423099642 0.011963363663453795 0 0.037479705552639145 0.012714093747982219 0 0.037238699262696046 0.012445107525957875 0 0.037547238013892217 0.01224134863818002 0 0.037479705552639145 0.012714093747982219 0 0.037173298520471423 0.012843599987111142 0 0.037238699262696046 0.012445107525957875 0 0.037173298520471423 0.012843599987111142 0 0.036937736697424978 0.012727597431050756 0 0.037238699262696046 0.012445107525957875 0 0.037547238013892217 0.01224134863818002 0 0.037374900171430012 0.011752645112241162 0 0.037099403423099642 0.011963363663453795 0 0.036744924506182969 0.011036641473676998 0 0.037374900171430012 0.011752645112241162 0 0.037099403423099642 0.011963363663453795 0 0.036742320589593168 0.011008400923516215 0 0.037486772868763674 0.010959316700634341 0 0.036744924506182969 0.011036641473676998 0 0.036669542296089902 0.011799825682629638 0 0.037099403423099642 0.011963363663453795 0 0.036744924506182969 0.011036641473676998 0 0.037869274484945224 0.010239386858308911 0 0.03770076669648275 0.010311137599877868 0 0.036744924506182969 0.011036641473676998 0 0.03770076669648275 0.010311137599877868 0 0.03736551103455657 0.0098473342935557016 0 0.037869274484945224 0.010239386858308911 0 0.03770076669648275 0.010311137599877868 0 0.037661128632367674 0.010613862020346141 0 0.03770076669648275 0.010311137599877868 0 0.037841086418580465 0.0098799877731404247 0 0.03736551103455657 0.0098473342935557016 0 0.03770076669648275 0.010311137599877868 0 0.037661128632367674 0.010613862020346141 0 0.037841086418580465 0.0098799877731404247 0 0.037842218851714023 0.013380288075495253 0 0.037661128632367674 0.010613862020346141 0 0.037593571972425563 0.013196749987597553 0 0.038417084942832892 0.009050310746310743 0 0.037661128632367674 0.010613862020346141 0 0.037841086418580465 0.0098799877731404247 0 0.038053608318990358 0.011053357130331903 0 0.037754993753462612 0.010622946423441151 0 0.037841086418580465 0.0098799877731404247 0 0.037890129159840531 0.0093709924988606488 0 0.03736551103455657 0.0098473342935557016 0 0.037967784964533902 0.0086607431271561487 0 0.037890129159840531 0.0093709924988606488 0 0.037547540873337192 0.009125706707470628 0 0.038417084942832892 0.009050310746310743 0 0.037841086418580465 0.0098799877731404247 0 0.037890129159840531 0.0093709924988606488 0 0.03736551103455657 0.0098473342935557016 0 0.036941248765462224 0.0091986511497199035 0 0.036223341797907732 0.0097631333984302682 0 0.037890129159840531 0.0093709924988606488 0 0.03736551103455657 0.0098473342935557016 0 0.037547540873337192 0.009125706707470628 0 0.03736551103455657 0.0098473342935557016 0 0.037547540873337192 0.009125706707470628 0 0.036941248765462224 0.0091986511497199035 0 0.036638977052837744 0.0082075970479649485 0 0.036941248765462224 0.0091986511497199035 0 0.036223341797907732 0.0097631333984302682 0 0.034999867158483369 0.0084690575491574178 0 0.036223341797907732 0.0097631333984302682 0 0.034999838341451678 0.010444355690895602 0 0.035833782071360287 0.01103909169303637 0 0.036223341797907732 0.0097631333984302682 0 0.034999838341451678 0.010444355690895602 0 0.035833782071360287 0.01103909169303637 0 0.036744924506182969 0.011036641473676998 0 0.036223341797907732 0.0097631333984302682 0 0.036744924506182969 0.011036641473676998 0 0.03736551103455657 0.0098473342935557016 0 0.036223341797907732 0.0097631333984302682 0 0.035832387729776767 0.026353281477776106 0 0.036535439747243631 0.026535518957967377 0 0.036193626674564397 0.024954838591283179 0 0.037353200532071133 0.023742121631766377 0 0.03601912696599912 0.023754085429486118 0 0.035807724831998962 0.027445833233929913 0 0.035035236104185886 0.028103092077105422 0 0.035021330593614779 0.029995517683574911 0 0.036193626674564397 0.024954838591283179 0 0.034999979761916322 0.024227674986951744 0 0.034999995486735734 0.026194152875234435 0 0.036193626674564397 0.024954838591283179 0 0.034999979761916322 0.024227674986951744 0 0.03601912696599912 0.023754085429486118 0 0.035832387729776767 0.026353281477776106 0 0.035000279600096322 0.026194308984542728 0 0.035807724831998962 0.027445833233929913 0 0.035000590401200377 0.02619712433019529 0 0.03550139571102124 0.026884093141640163 0 0.035807724831998962 0.027445833233929913 0 0.035002357594046997 0.027010162280130961 0 0.03550139571102124 0.026884093141640163 0 0.035807724831998962 0.027445833233929913 0 0.035002357594046997 0.027010162280130961 0 0.035035236104185886 0.028103092077105422 0 0.033595837049854152 0.032174679511505634 0 0.032142628857171625 0.032047991378137242 0 0.032362759867056265 0.032831865214046782 0 0.032142628857171625 0.032047991378137242 0 0.032362759867056265 0.032831865214046782 0 0.031510245666303054 0.03336367325023458 0 0.032362759867056265 0.032831865214046782 0 0.032178458344943796 0.033249779896820375 0 0.031510245666303054 0.03336367325023458 0 0.032362759867056265 0.032831865214046782 0 0.032178458344943796 0.033249779896820375 0 0.032536520609791439 0.033302551451211387 0 0.032178458344943796 0.033249779896820375 0 0.03224478210070527 0.033160037952104968 0 0.031510245666303054 0.03336367325023458 0 0.034275188645028445 0.029636160044299888 0 0.03310408418142647 0.031128235143871169 0 0.035002357594046997 0.027010162280130961 0 0.035035236104185886 0.028103092077105422 0 0.033558957736574961 0.028868804576953559 0 0.033595837049854152 0.032174679511505634 0 0.032362759867056265 0.032831865214046782 0 0.032536520609791439 0.033302551451211387 0 0.035035236104185886 0.028103092077105422 0 0.033558957736574961 0.028868804576953559 0 0.035021330593614779 0.029995517683574911 0 0.033558957736574961 0.028868804576953559 0 0.035021330593614779 0.029995517683574911 0 0.032304624404717 0.033029113238627353 0 0.036535439747243631 0.026535518957967377 0 0.033189565562173153 0.029296374777266057 0 0.032536520609791439 0.033302551451211387 0 0.03224478210070527 0.033160037952104968 0 0.032304624404717 0.033029113238627353 0 0.03310408418142647 0.031128235143871169 0 0.032366584816390383 0.032866612980124221 0 0.032313303651336327 0.034524294677390419 0 0.031491344170061226 0.033128529872285949 0 0.032178458344943796 0.033249779896820375 0 0.032536520609791439 0.033302551451211387 0 0.03224478210070527 0.033160037952104968 0 0.032313303651336327 0.034524294677390419 0 0.033189565562173153 0.029296374777266057 0 0.031777633562563704 0.034713977193129159 0 0.032258812988540844 0.035922106638547523 0 0.030713498874741986 0.03564527607028635 0 0.03224478210070527 0.033160037952104968 0 0.032248410758507991 0.033235780696589633 0 0.032304624404717 0.033029113238627353 0 0.033189565562173153 0.029296374777266057 0 0.030916539566368015 0.032597864407473344 0 0.037353200532071133 0.023742121631766377 0 0.038463388993191024 0.022578040687329524 0 0.037458718503891993 0.021969063738960383 0 0.035021330593614779 0.029995517683574911 0 0.032248410758507991 0.033235780696589633 0 0.032304624404717 0.033029113238627353 0 0.037353200532071133 0.023742121631766377 0 0.037458718503891993 0.021969063738960383 0 0.036334611318199254 0.022772742967436688 0 0.037458718503891993 0.021969063738960383 0 0.036334611318199254 0.022772742967436688 0 0.036104843355292161 0.021613894825199029 0 0.037353200532071133 0.023742121631766377 0 0.036334611318199254 0.022772742967436688 0 0.03601912696599912 0.023754085429486118 0 0.034999979761916322 0.024227674986951744 0 0.03601912696599912 0.023754085429486118 0 0.0349999825945706 0.022261230899482568 0 0.036334611318199254 0.022772742967436688 0 0.0349999825945706 0.022261230899482568 0 0.036104843355292161 0.021613894825199029 0 0.036334611318199254 0.022772742967436688 0 0.03601912696599912 0.023754085429486118 0 0.0349999825945706 0.022261230899482568 0 0.036104843355292161 0.021613894825199029 0 0.036730247340503022 0.020770963088550896 0 0.034999967579758887 0.02029470711087367 0 0.0349999825945706 0.022261230899482568 0 0.036104843355292161 0.021613894825199029 0 0.034999967579758887 0.02029470711087367 0 0.037458718503891993 0.021969063738960383 0 0.036104843355292161 0.021613894825199029 0 0.036730247340503022 0.020770963088550896 0 0.036730247340503022 0.020770963088550896 0 0.036111842026382165 0.019563892735318035 0 0.037373633960658223 0.019793602589170321 0 0.036730247340503022 0.020770963088550896 0 0.034999967579758887 0.02029470711087367 0 0.036111842026382165 0.019563892735318035 0 0.036111842026382165 0.019563892735318035 0 0.036765861508544252 0.018465283634184652 0 0.034999968632164598 0.018328170103426644 0 0.034999967579758887 0.02029470711087367 0 0.036111842026382165 0.019563892735318035 0 0.034999968632164598 0.018328170103426644 0 0.036111842026382165 0.019563892735318035 0 0.036765861508544252 0.018465283634184652 0 0.037373633960658223 0.019793602589170321 0 0.036706541728212201 0.018500232901482356 0 0.037336934297510366 0.019650199024031492 0 0.036183281668402879 0.017270808931122126 0 0.036706541728212201 0.018500232901482356 0 0.036141995074313621 0.017155730228179865 0 0.036644927334469064 0.018506667629634172 0 0.037070214275853379 0.017571034406465288 0 0.036141995074313621 0.017155730228179865 0 0.036765861508544252 0.018465283634184652 0 0.034999968632164598 0.018328170103426644 0 0.038735456409318532 0.01705767889716879 0 0.037902384604622988 0.018259338445007278 0 0.039430153748523211 0.018485768214509431 0 0.036644927334469064 0.018506667629634172 0 0.037070214275853379 0.017571034406465288 0 0.037902384604622988 0.018259338445007278 0 0.037902384604622988 0.018259338445007278 0 0.038626910034264814 0.019856625986243055 0 0.037201007652384974 0.019873371840208608 0 0.036644927334469064 0.018506667629634172 0 0.037902384604622988 0.018259338445007278 0 0.037201007652384974 0.019873371840208608 0 0.037902384604622988 0.018259338445007278 0 0.038626910034264814 0.019856625986243055 0 0.039430153748523211 0.018485768214509431 0 0.034690051563791305 0.023623868726130381 0 0.035530380250133435 0.022320987488510694 0 0.031231429520492345 0.0268925884249759 0 0.031503478077730636 0.02714793688903068 0 0.031201391855594476 0.027251193765778677 0 0.031231429520492345 0.0268925884249759 0 0.031503478077730636 0.02714793688903068 0 0.031703489517196135 0.026976275265562916 0 0.034690051563791305 0.023623868726130381 0 0.036218703115875064 0.02281637732588741 0 0.037336934297510366 0.019650199024031492 0 0.036218703115875064 0.02281637732588741 0 0.036730247340503022 0.020770963088550896 0 0.037373633960658223 0.019793602589170321 0 0.037969701350124091 0.021147507352405167 0 0.038626910034264814 0.019856625986243055 0 0.037201007652384974 0.019873371840208608 0 0.037789618221141581 0.021250164610941896 0 0.037458718503891993 0.021969063738960383 0 0.036730247340503022 0.020770963088550896 0 0.037969701350124091 0.021147507352405167 0 0.038463388993191024 0.022578040687329524 0 0.037458718503891993 0.021969063738960383 0 0.037873998012553374 0.021285004539116047 0 0.03771403264558057 0.021321284989013811 0 0.036218703115875064 0.02281637732588741 0 0.033189565562173153 0.029296374777266057 0 0.036218703115875064 0.02281637732588741 0 0.031503478077730636 0.02714793688903068 0 0.031201391855594476 0.027251193765778677 0 0.031566717493261308 0.027320078756457228 0 0.031351413004507944 0.027576744075281573 0 0.031201391855594476 0.027251193765778677 0 0.031566717493261308 0.027320078756457228 0 0.030916539566368015 0.032597864407473344 0 0.03023373798075682 0.033176025735164788 0 0.030816969322759742 0.037220663234695292 0 0.029397572406168186 0.038371242862339908 0 0.02914987183697126 0.036412854283761849 0 0.029397572406168186 0.038371242862339908 0 0.028240500897682565 0.037523270617514558 0 0.02914987183697126 0.036412854283761849 0 0.03023373798075682 0.033176025735164788 0 0.030582607750042529 0.030267197455784059 0 0.031503478077730636 0.02714793688903068 0 0.031617406945556356 0.027104040083413477 0 0.031703489517196135 0.026976275265562916 0 0.031503478077730636 0.02714793688903068 0 0.031566717493261308 0.027320078756457228 0 0.031617406945556356 0.027104040083413477 0 0.031617406945556356 0.027104040083413477 0 0.031703489517196135 0.026976275265562916 0 0.031567425790215188 0.027335831000110014 0 0.031231429520492345 0.0268925884249759 0 0.03208368850826359 0.026280116570531909 0 0.031690442775821087 0.02559431877727238 0 0.031231429520492345 0.0268925884249759 0 0.031703489517196135 0.026976275265562916 0 0.03208368850826359 0.026280116570531909 0 0.031703489517196135 0.026976275265562916 0 0.03208368850826359 0.026280116570531909 0 0.032813261167424036 0.026717185076977651 0 0.031629386539558005 0.027067151632579872 0 0.032595603188756588 0.026957736884749468 0 0.032595603188756588 0.026957736884749468 0 0.030582607750042529 0.030267197455784059 0 0.032813261167424036 0.026717185076977651 0 0.033220761701079154 0.025915652849581399 0 0.033950727150037489 0.026398868911930152 0 0.031617406945556356 0.027104040083413477 0 0.031567425790215188 0.027335831000110014 0 0.031020314266339066 0.027547023819393415 0 0.03208368850826359 0.026280116570531909 0 0.033220761701079154 0.025915652849581399 0 0.032592816875221725 0.025387487176864471 0 0.03208368850826359 0.026280116570531909 0 0.032813261167424036 0.026717185076977651 0 0.033220761701079154 0.025915652849581399 0 0.032527299479145871 0.024055301108156443 0 0.032592816875221725 0.025387487176864471 0 0.033453463254302471 0.025037333675062813 0 0.033220761701079154 0.025915652849581399 0 0.032592816875221725 0.025387487176864471 0 0.033453463254302471 0.025037333675062813 0 0.03615065827938365 0.018449667266836875 0 0.035530380250133435 0.022320987488510694 0 0.032527299479145871 0.024055301108156443 0 0.032592816875221725 0.025387487176864471 0 0.031690442775821087 0.02559431877727238 0 0.03208368850826359 0.026280116570531909 0 0.032592816875221725 0.025387487176864471 0 0.031690442775821087 0.02559431877727238 0 0.033980383787674741 0.020598968237300883 0 0.033802354313685348 0.02434058691498114 0 0.034942014719799956 0.015201113219181241 0 0.03616431860636618 0.01518974734009922 0 0.036269986424895831 0.014097950110171443 0 0.032275199780519501 0.026832183966944062 0 0.033703163463841529 0.025390837614800158 0 0.033426352902400168 0.025135544399593372 0 0.032275199780519501 0.026832183966944062 0 0.033426352902400168 0.025135544399593372 0 0.031124773375123163 0.02581848344669414 0 0.037135986227411308 0.014938180622086742 0 0.03616431860636618 0.01518974734009922 0 0.036269986424895831 0.014097950110171443 0 0.033220761701079154 0.025915652849581399 0 0.033453463254302471 0.025037333675062813 0 0.03436284063605697 0.025972756043298299 0 0.036714609464211234 0.015635096127821026 0 0.037135986227411308 0.014938180622086742 0 0.03616431860636618 0.01518974734009922 0 0.035064630361159511 0.019736748023068081 0 0.033802354313685348 0.02434058691498114 0 0.02752820720736119 0.039570468534991965 0 0.028201905759281071 0.039396385107982691 0 0.027605400226116062 0.038468882055276203 0 0.032278335568793552 0.029038365855428364 0 0.032561849731726482 0.029320958132771059 0 0.031788352101308037 0.029541360704507299 0 0.033220761701079154 0.025915652849581399 0 0.03436284063605697 0.025972756043298299 0 0.033950727150037489 0.026398868911930152 0 0.031703043371307922 0.03017893481159557 0 0.030582607750042529 0.030267197455784059 0 0.033802354313685348 0.02434058691498114 0 0.031703043371307922 0.03017893481159557 0 0.033802354313685348 0.02434058691498114 0 0.030582607750042529 0.030267197455784059 0 0.031703043371307922 0.03017893481159557 0 0.027569561049107173 0.031602727700284459 0 0.031703043371307922 0.03017893481159557 0 0.026135466772314559 0.036762575306407017 0 0.028596139161310787 0.032836861667890176 0 0.028526245865994285 0.032811833892525809 0 0.028486625801570725 0.032862298271559773 0 0.026361566209825233 0.038514394647954711 0 0.027605400226116062 0.038468882055276203 0 0.02692788101790523 0.037310190766040884 0 0.02752820720736119 0.039570468534991965 0 0.026361566209825233 0.038514394647954711 0 0.027605400226116062 0.038468882055276203 0 0.026135466772314559 0.036762575306407017 0 0.026608960829994716 0.037220891384250034 0 0.029397572406168186 0.038371242862339908 0 0.028201905759281071 0.039396385107982691 0 0.027605400226116062 0.038468882055276203 0 0.029397572406168186 0.038371242862339908 0 0.027605400226116062 0.038468882055276203 0 0.028240500897682565 0.037523270617514558 0 0.028240500897682565 0.037523270617514558 0 0.02692788101790523 0.037310190766040884 0 0.027320264987828403 0.035977039291161785 0 0.027605400226116062 0.038468882055276203 0 0.028240500897682565 0.037523270617514558 0 0.02692788101790523 0.037310190766040884 0 0.026608960829994716 0.037220891384250034 0 0.027312564690388372 0.035946975381677786 0 0.026435908156143759 0.0367358849481405 0 0.027320264987828403 0.035977039291161785 0 0.025550471377929661 0.035480063409150678 0 0.026253774012613623 0.034601379693834235 0 0.02521605926126955 0.034646248059158877 0 0.025550471377929661 0.035480063409150678 0 0.026253774012613623 0.034601379693834235 0 0.027320264987828403 0.035977039291161785 0 0.025550471377929661 0.035480063409150678 0 0.026253774012613623 0.034601379693834235 0 0.028027752057353198 0.035033479619622346 0 0.029367883290970773 0.033279201621418467 0 0.026253774012613623 0.034601379693834235 0 0.028027752057353198 0.035033479619622346 0 0.027320264987828403 0.035977039291161785 0 0.028027752057353198 0.035033479619622346 0 0.027320264987828403 0.035977039291161785 0 0.02914987183697126 0.036412854283761849 0 0.028240500897682565 0.037523270617514558 0 0.027320264987828403 0.035977039291161785 0 0.02914987183697126 0.036412854283761849 0 0.028027752057353198 0.035033479619622346 0 0.02914987183697126 0.036412854283761849 0 0.02950696349183117 0.035001727570015281 0 0.02914987183697126 0.036412854283761849 0 0.030713498874741986 0.03564527607028635 0 0.02950696349183117 0.035001727570015281 0 0.032258812988540844 0.035922106638547523 0 0.030816969322759742 0.037220663234695292 0 0.030713498874741986 0.03564527607028635 0 0.030816969322759742 0.037220663234695292 0 0.02914987183697126 0.036412854283761849 0 0.030713498874741986 0.03564527607028635 0 0.031777633562563704 0.034713977193129159 0 0.030713498874741986 0.03564527607028635 0 0.030654784402268577 0.034445963347973549 0 0.030713498874741986 0.03564527607028635 0 0.030654784402268577 0.034445963347973549 0 0.02950696349183117 0.035001727570015281 0 0.031777633562563704 0.034713977193129159 0 0.030654784402268577 0.034445963347973549 0 0.031510245666303054 0.03336367325023458 0 0.030654784402268577 0.034445963347973549 0 0.02950696349183117 0.035001727570015281 0 0.029367883290970773 0.033279201621418467 0 0.028027752057353198 0.035033479619622346 0 0.02950696349183117 0.035001727570015281 0 0.029367883290970773 0.033279201621418467 0 0.029367883290970773 0.033279201621418467 0 0.031510245666303054 0.03336367325023458 0 0.030917593635347983 0.032532337839794624 0 0.030654784402268577 0.034445963347973549 0 0.029367883290970773 0.033279201621418467 0 0.031510245666303054 0.03336367325023458 0 0.032142628857171625 0.032047991378137242 0 0.030917593635347983 0.032532337839794624 0 0.030515672049715906 0.031499529818948803 0 0.032142628857171625 0.032047991378137242 0 0.031510245666303054 0.03336367325023458 0 0.030917593635347983 0.032532337839794624 0 0.029367883290970773 0.033279201621418467 0 0.027614458616956869 0.031951207272188045 0 0.030515672049715906 0.031499529818948803 0 0.029367883290970773 0.033279201621418467 0 0.030917593635347983 0.032532337839794624 0 0.030515672049715906 0.031499529818948803 0 0.026219212080878521 0.034621471285297564 0 0.02631623337140352 0.033463308567576594 0 0.026253774012613623 0.034601379693834235 0 0.024988108184530327 0.034715912694113706 0 0.02521605926126955 0.034646248059158877 0 0.026253774012613623 0.034601379693834235 0 0.029367883290970773 0.033279201621418467 0 0.027614458616956869 0.031951207272188045 0 0.02521605926126955 0.034646248059158877 0 0.024848626868850841 0.034677350986327349 0 0.024794901082940756 0.035221934163813501 0 0.02521605926126955 0.034646248059158877 0 0.025110162097148191 0.034818282400059526 0 0.024848626868850841 0.034677350986327349 0 0.02521605926126955 0.034646248059158877 0 0.025072784108968234 0.034878924912734366 0 0.025110162097148191 0.034818282400059526 0 0.024988108184530327 0.034715912694113706 0 0.02521605926126955 0.034646248059158877 0 0.025072784108968234 0.034878924912734366 0 0.025110162097148191 0.034818282400059526 0 0.024848626868850841 0.034677350986327349 0 0.025447227596011722 0.035113558233641463 0 0.023069346358382557 0.036637106616826141 0 0.023080271985408643 0.036590440344333175 0 0.023054971217986095 0.036615258456799617 0 0.023069346358382557 0.036637106616826141 0 0.023054971217986095 0.036615258456799617 0 0.023040992636876905 0.036695760965851351 0 0.023937082518247662 0.03571188848464283 0 0.02428204861233528 0.035817975403616233 0 0.022144293091497274 0.039011271615559166 0 0.021873669988212881 0.038440776803654202 0 0.02218049294902914 0.039296535459800788 0 0.023069346358382557 0.036637106616826141 0 0.023080271985408643 0.036590440344333175 0 0.023086868343366117 0.036695259997046495 0 0.022144293091497274 0.039011271615559166 0 0.021873669988212881 0.038440776803654202 0 0.022241486201521086 0.038839508997707453 0 0.022527130682126615 0.037506734935014413 0 0.022631125667857459 0.037967885985915883 0 0.023080271985408643 0.036590440344333175 0 0.023054971217986095 0.036615258456799617 0 0.023093112341140705 0.036609708326937579 0 0.023054971217986095 0.036615258456799617 0 0.023093112341140705 0.036609708326937579 0 0.023042466003332592 0.036481692278848218 0 0.023937082518247662 0.03571188848464283 0 0.023608262055694912 0.035985564744027414 0 0.023093112341140705 0.036609708326937579 0 0.02314570213271027 0.036501130769330904 0 0.023042466003332592 0.036481692278848218 0 0.023080271985408643 0.036590440344333175 0 0.023093112341140705 0.036609708326937579 0 0.022941543826776184 0.036770239264167989 0 0.023093112341140705 0.036609708326937579 0 0.02314570213271027 0.036501130769330904 0 0.022941543826776184 0.036770239264167989 0 0.02314570213271027 0.036501130769330904 0 0.023042466003332592 0.036481692278848218 0 0.023347829183410745 0.036093618150864273 0 0.02314570213271027 0.036501130769330904 0 0.023347829183410745 0.036093618150864273 0 0.023283059228573214 0.036327851391249312 0 0.024128639634033156 0.035453713080184877 0 0.024794901082940756 0.035221934163813501 0 0.02427103974483185 0.036151708956420579 0 0.024848626868850841 0.034677350986327349 0 0.024128639634033156 0.035453713080184877 0 0.024794901082940756 0.035221934163813501 0 0.02521605926126955 0.034646248059158877 0 0.024794901082940756 0.035221934163813501 0 0.025550471377929661 0.035480063409150678 0 0.024794901082940756 0.035221934163813501 0 0.025550471377929661 0.035480063409150678 0 0.02427103974483185 0.036151708956420579 0 0.025738148415175806 0.037910188041692355 0 0.026435908156143759 0.0367358849481405 0 0.02427103974483185 0.036151708956420579 0 0.026435908156143759 0.0367358849481405 0 0.025550471377929661 0.035480063409150678 0 0.02427103974483185 0.036151708956420579 0 0.024128639634033156 0.035453713080184877 0 0.02427103974483185 0.036151708956420579 0 0.023544891836524622 0.035942607735074447 0 0.02427103974483185 0.036151708956420579 0 0.023729451891280652 0.035823530891983084 0 0.023544891836524622 0.035942607735074447 0 0.02427103974483185 0.036151708956420579 0 0.023729451891280652 0.035823530891983084 0 0.023703411645251145 0.035701861580878215 0 0.02340114831246674 0.035805463198159575 0 0.02427103974483185 0.036151708956420579 0 0.023703411645251145 0.035701861580878215 0 0.026135466772314559 0.036762575306407017 0 0.023743494510442893 0.03609165604038482 0 0.023703411645251145 0.035701861580878215 0 0.023650310948350135 0.035481335626794716 0 0.023518496877183 0.035285917796652654 0 0.026135466772314559 0.036762575306407017 0 0.027569561049107173 0.031602727700284459 0 0.02340114831246674 0.035805463198159575 0 0.023703411645251145 0.035701861580878215 0 0.023518496877183 0.035285917796652654 0 0.023729451891280652 0.035823530891983084 0 0.023703411645251145 0.035701861580878215 0 0.023650310948350135 0.035481335626794716 0 0.023729451891280652 0.035823530891983084 0 0.023648485145051742 0.03553013771765872 0 0.023650310948350135 0.035481335626794716 0 0.023650310948350135 0.035481335626794716 0 0.02367048714164157 0.035133881213264308 0 0.023518496877183 0.035285917796652654 0 0.023648485145051742 0.03553013771765872 0 0.023650310948350135 0.035481335626794716 0 0.02367048714164157 0.035133881213264308 0 0.025933995974892876 0.030861435545702649 0 0.027569561049107173 0.031602727700284459 0 0.023648485145051742 0.03553013771765872 0 0.02328063865768755 0.035180858012522159 0 0.023489267963959008 0.035358616480168234 0 0.023648485145051742 0.03553013771765872 0 0.02367048714164157 0.035133881213264308 0 0.024033813752662895 0.034767862240867337 0 0.02393973133114442 0.033636868074828609 0 0.02367048714164157 0.035133881213264308 0 0.024033813752662895 0.034767862240867337 0 0.02393973133114442 0.033636868074828609 0 0.02367048714164157 0.035133881213264308 0 0.02310256436067705 0.035260798578681564 0 0.023634887622459071 0.035224912608187477 0 0.023732758347207571 0.035464824351951182 0 0.023330965377834547 0.035014409472632936 0 0.02328063865768755 0.035180858012522159 0 0.023419222076858762 0.035117512998274029 0 0.022853192413047001 0.034418457676103673 0 0.027569561049107173 0.031602727700284459 0 0.023437309370199392 0.034881479860947459 0 0.023495927116173623 0.035259159866316857 0 0.023446200492766793 0.035049788443164837 0 0.023495927116173623 0.035259159866316857 0 0.023446200492766793 0.035049788443164837 0 0.023471310581963393 0.035287493064063077 0 0.023446200492766793 0.035049788443164837 0 0.023419222076858762 0.035117512998274029 0 0.023471310581963393 0.035287493064063077 0 0.02328063865768755 0.035180858012522159 0 0.023419222076858762 0.035117512998274029 0 0.023489267963959008 0.035358616480168234 0 0.023419222076858762 0.035117512998274029 0 0.023489267963959008 0.035358616480168234 0 0.023471310581963393 0.035287493064063077 0 0.023489267963959008 0.035358616480168234 0 0.023471310581963393 0.035287493064063077 0 0.023506983757958188 0.035642478229173241 0 0.023729451891280652 0.035823530891983084 0 0.023648485145051742 0.03553013771765872 0 0.023506983757958188 0.035642478229173241 0 0.023648485145051742 0.03553013771765872 0 0.023489267963959008 0.035358616480168234 0 0.023506983757958188 0.035642478229173241 0 0.023495927116173623 0.035259159866316857 0 0.023471310581963393 0.035287493064063077 0 0.023506983757958188 0.035642478229173241 0 0.023495927116173623 0.035259159866316857 0 0.023506983757958188 0.035642478229173241 0 0.023515959007159679 0.035757978599834449 0 0.023506983757958188 0.035642478229173241 0 0.023347829183410745 0.036093618150864273 0 0.023515959007159679 0.035757978599834449 0 0.023506983757958188 0.035642478229173241 0 0.023544891836524622 0.035942607735074447 0 0.023347829183410745 0.036093618150864273 0 0.023729451891280652 0.035823530891983084 0 0.023506983757958188 0.035642478229173241 0 0.023544891836524622 0.035942607735074447 0 0.023608262055694912 0.035985564744027414 0 0.023541147036301731 0.035997964543628164 0 0.023042466003332592 0.036481692278848218 0 0.023544891836524622 0.035942607735074447 0 0.023347829183410745 0.036093618150864273 0 0.023347829183410745 0.036093618150864273 0 0.023515959007159679 0.035757978599834449 0 0.023283059228573214 0.036327851391249312 0 0.023708361729426395 0.035965944620074637 0 0.023515959007159679 0.035757978599834449 0 0.023283059228573214 0.036327851391249312 0 0.023708361729426395 0.035965944620074637 0 0.024105041491513733 0.036311047011625588 0 0.023283059228573214 0.036327851391249312 0 0.023708361729426395 0.035965944620074637 0 0.024043449343746609 0.035947424548805458 0 0.024105041491513733 0.036311047011625588 0 0.023708361729426395 0.035965944620074637 0 0.023901787657666682 0.035647802818526989 0 0.024043449343746609 0.035947424548805458 0 0.023708361729426395 0.035965944620074637 0 0.023901787657666682 0.035647802818526989 0 0.023515959007159679 0.035757978599834449 0 0.023901787657666682 0.035647802818526989 0 0.023515959007159679 0.035757978599834449 0 0.023762511956251019 0.035266520334602286 0 0.023495927116173623 0.035259159866316857 0 0.023515959007159679 0.035757978599834449 0 0.023762511956251019 0.035266520334602286 0 0.023762511956251019 0.035266520334602286 0 0.024107593142874729 0.03486248358623447 0 0.024291817259392431 0.035343995924239778 0 0.023901787657666682 0.035647802818526989 0 0.023762511956251019 0.035266520334602286 0 0.024291817259392431 0.035343995924239778 0 0.023762511956251019 0.035266520334602286 0 0.023581094058588797 0.034908662626238214 0 0.024107593142874729 0.03486248358623447 0 0.023495927116173623 0.035259159866316857 0 0.023762511956251019 0.035266520334602286 0 0.023581094058588797 0.034908662626238214 0 0.023437309370199392 0.034881479860947459 0 0.023495927116173623 0.035259159866316857 0 0.023581094058588797 0.034908662626238214 0 0.024647822659597245 0.034873923189170861 0 0.0247268720427735 0.035417845769028934 0 0.025174712580974031 0.034799285060691451 0 0.025023470882635217 0.034314668918644826 0 0.024647822659597245 0.034873923189170861 0 0.025174712580974031 0.034799285060691451 0 0.024516373064764001 0.034162717089903233 0 0.024647822659597245 0.034873923189170861 0 0.024107593142874729 0.03486248358623447 0 0.024647822659597245 0.034873923189170861 0 0.024107593142874729 0.03486248358623447 0 0.024291817259392431 0.035343995924239778 0 0.024647822659597245 0.034873923189170861 0 0.024291817259392431 0.035343995924239778 0 0.0247268720427735 0.035417845769028934 0 0.024291817259392431 0.035343995924239778 0 0.02438199408732792 0.035825730156378417 0 0.0247268720427735 0.035417845769028934 0 0.023901787657666682 0.035647802818526989 0 0.024043449343746609 0.035947424548805458 0 0.02438199408732792 0.035825730156378417 0 0.023901787657666682 0.035647802818526989 0 0.024291817259392431 0.035343995924239778 0 0.02438199408732792 0.035825730156378417 0 0.024043449343746609 0.035947424548805458 0 0.02438199408732792 0.035825730156378417 0 0.024105041491513733 0.036311047011625588 0 0.02438199408732792 0.035825730156378417 0 0.024105041491513733 0.036311047011625588 0 0.024622761497308191 0.036316960448698025 0 0.025068287350513405 0.03670981161313721 0 0.02020272822216795 0.03510857340402955 0 0.023776538193174029 0.036520789030533525 0 0.024548932711119544 0.037768592037896079 0 0.0250636990631561 0.036760043996195743 0 0.020911365153434884 0.037084061918214471 0 0.02020272822216795 0.03510857340402955 0 0.023776538193174029 0.036520789030533525 0 0.023533002568630498 0.037555192386912011 0 0.024548932711119544 0.037768592037896079 0 0.025068287350513405 0.03670981161313721 0 0.022797638586162332 0.036208197265035741 0 0.023776538193174029 0.036520789030533525 0 0.023283059228573214 0.036327851391249312 0 0.02332362187518186 0.036814995202862931 0 0.02314570213271027 0.036501130769330904 0 0.023283059228573214 0.036327851391249312 0 0.022941543826776184 0.036770239264167989 0 0.023283059228573214 0.036327851391249312 0 0.022941543826776184 0.036770239264167989 0 0.02332362187518186 0.036814995202862931 0 0.022941543826776184 0.036770239264167989 0 0.023116771190345536 0.037298098107503681 0 0.022560066390925847 0.038239635956313626 0 0.022941543826776184 0.036770239264167989 0 0.02332362187518186 0.036814995202862931 0 0.023116771190345536 0.037298098107503681 0 0.023776538193174029 0.036520789030533525 0 0.02332362187518186 0.036814995202862931 0 0.023533002568630498 0.037555192386912011 0 0.02332362187518186 0.036814995202862931 0 0.023116771190345536 0.037298098107503681 0 0.023533002568630498 0.037555192386912011 0 0.023116771190345536 0.037298098107503681 0 0.023533002568630498 0.037555192386912011 0 0.022560066390925847 0.038239635956313626 0 0.023533002568630498 0.037555192386912011 0 0.022560066390925847 0.038239635956313626 0 0.023168071155472685 0.038931349768854207 0 0.021873669988212881 0.038440776803654202 0 0.022941543826776184 0.036770239264167989 0 0.022560066390925847 0.038239635956313626 0 0.022527130682126615 0.037506734935014413 0 0.022882944738498414 0.036825869282989518 0 0.022560066390925847 0.038239635956313626 0 0.022241486201521086 0.038839508997707453 0 0.022313775421384494 0.039220229607591542 0 0.022456094824157849 0.038376709872776811 0 0.022160288513894996 0.039624642113322797 0 0.021873669988212881 0.038440776803654202 0 0.022560066390925847 0.038239635956313626 0 0.022241486201521086 0.038839508997707453 0 0.022144293091497274 0.039011271615559166 0 0.022241486201521086 0.038839508997707453 0 0.022219609487945026 0.039101780194834838 0 0.023168071155472685 0.038931349768854207 0 0.023683143761054376 0.039323899857488902 0 0.021957659589572461 0.040106857651221933 0 0.022560066390925847 0.038239635956313626 0 0.023168071155472685 0.038931349768854207 0 0.021957659589572461 0.040106857651221933 0 0.023600808206270318 0.039310869982202318 0 0.020923217228766913 0.038391127572736453 0 0.023168071155472685 0.038931349768854207 0 0.023762270981362701 0.039199004080651037 0 0.024548932711119544 0.037768592037896079 0 0.018240730192475175 0.034524836447366279 0 0.016194162326880642 0.03521282786095397 0 0.016238945364872345 0.033576860336336868 0 0.018240730192475175 0.034524836447366279 0 0.017195403011903383 0.036189412863980142 0 0.016194162326880642 0.03521282786095397 0 0.023533002568630498 0.037555192386912011 0 0.023168071155472685 0.038931349768854207 0 0.024548932711119544 0.037768592037896079 0 0.020923217228766913 0.038391127572736453 0 0.020911365153434884 0.037084061918214471 0 0.020445542319968674 0.04027241537924451 0 0.019652704470417209 0.041285164735241797 0 0.019077492215846162 0.039926205469295525 0 0.020445542319968674 0.04027241537924451 0 0.019652704470417209 0.041285164735241797 0 0.021756124451992032 0.040665339864945249 0 0.019652704470417209 0.041285164735241797 0 0.01753186831307529 0.040372972801395034 0 0.018096295285399345 0.042108372750165914 0 0.019652704470417209 0.041285164735241797 0 0.019077492215846162 0.039926205469295525 0 0.01753186831307529 0.040372972801395034 0 0.020299491091436417 0.04317062956766541 0 0.019652704470417209 0.041285164735241797 0 0.018096295285399345 0.042108372750165914 0 0.020923217228766913 0.038391127572736453 0 0.016826394877197785 0.037853112447371731 0 0.020299491091436417 0.04317062956766541 0 0.019652704470417209 0.041285164735241797 0 0.021756124451992032 0.040665339864945249 0 0.023683143761054376 0.039323899857488902 0 0.021957659589572461 0.040106857651221933 0 0.021756124451992032 0.040665339864945249 0 0.020923217228766913 0.038391127572736453 0 0.021972214939973304 0.041711226141702321 0 0.022313775421384494 0.039220229607591542 0 0.022081051071849944 0.039189346208427553 0 0.0221889238651998 0.039228315300550043 0 0.022219609487945026 0.039101780194834838 0 0.022313775421384494 0.039220229607591542 0 0.0221889238651998 0.039228315300550043 0 0.022144293091497274 0.039011271615559166 0 0.022219609487945026 0.039101780194834838 0 0.0221889238651998 0.039228315300550043 0 0.022241486201521086 0.038839508997707453 0 0.022219609487945026 0.039101780194834838 0 0.022313775421384494 0.039220229607591542 0 0.022313775421384494 0.039220229607591542 0 0.022081051071849944 0.039189346208427553 0 0.02171171069560212 0.039111778524255132 0 0.022081051071849944 0.039189346208427553 0 0.022220310823920446 0.039193281053128276 0 0.0221889238651998 0.039228315300550043 0 0.022081051071849944 0.039189346208427553 0 0.02171171069560212 0.039111778524255132 0 0.022022075644470472 0.039010004733268974 0 0.022081051071849944 0.039189346208427553 0 0.022022075644470472 0.039010004733268974 0 0.022266123944290384 0.039100611295347053 0 0.021957659589572461 0.040106857651221933 0 0.021756124451992032 0.040665339864945249 0 0.021632937770679678 0.040495220827021818 0 0.020445542319968674 0.04027241537924451 0 0.021756124451992032 0.040665339864945249 0 0.021632937770679678 0.040495220827021818 0 0.022160288513894996 0.039624642113322797 0 0.021650428882129726 0.039739875566350294 0 0.02171171069560212 0.039111778524255132 0 0.021829795814453032 0.038682443601805686 0 0.020991658168086645 0.038470149928089184 0 0.021650428882129726 0.039739875566350294 0 0.021090278420043945 0.038538127262370249 0 0.020445542319968674 0.04027241537924451 0 0.021632937770679678 0.040495220827021818 0 0.019960675932003614 0.03921197654641146 0 0.021632937770679678 0.040495220827021818 0 0.020991658168086645 0.038470149928089184 0 0.019960675932003614 0.03921197654641146 0 0.02171171069560212 0.039111778524255132 0 0.022022075644470472 0.039010004733268974 0 0.021829795814453032 0.038682443601805686 0 0.022022075644470472 0.039010004733268974 0 0.021829795814453032 0.038682443601805686 0 0.02225111516526964 0.038863518599625745 0 0.021829795814453032 0.038682443601805686 0 0.020991658168086645 0.038470149928089184 0 0.021749752418732764 0.037955956294334604 0 0.021829795814453032 0.038682443601805686 0 0.021749752418732764 0.037955956294334604 0 0.022468355083632048 0.038254227055068986 0 0.020991658168086645 0.038470149928089184 0 0.019960675932003614 0.03921197654641146 0 0.019418794505422464 0.037931809588905428 0 0.019960675932003614 0.03921197654641146 0 0.018275441228800624 0.038856519762097676 0 0.019418794505422464 0.037931809588905428 0 0.020445542319968674 0.04027241537924451 0 0.019960675932003614 0.03921197654641146 0 0.019077492215846162 0.039926205469295525 0 0.019077492215846162 0.039926205469295525 0 0.018275441228800624 0.038856519762097676 0 0.01753186831307529 0.040372972801395034 0 0.019960675932003614 0.03921197654641146 0 0.019077492215846162 0.039926205469295525 0 0.018275441228800624 0.038856519762097676 0 0.018275441228800624 0.038856519762097676 0 0.018033619297882532 0.037589235972090622 0 0.019418794505422464 0.037931809588905428 0 0.018743409554982007 0.034999560894478303 0 0.020791360492699338 0.036662291569050674 0 0.024796787658556651 0.036558566593738205 0 0.019418794505422464 0.037931809588905428 0 0.019937579574524817 0.037157767677969605 0 0.020832879223412412 0.037542548292725783 0 0.019937579574524817 0.037157767677969605 0 0.018784853953524312 0.036757353356729465 0 0.020791360492699338 0.036662291569050674 0 0.019418794505422464 0.037931809588905428 0 0.019937579574524817 0.037157767677969605 0 0.018784853953524312 0.036757353356729465 0 0.018033619297882532 0.037589235972090622 0 0.019418794505422464 0.037931809588905428 0 0.018784853953524312 0.036757353356729465 0 0.018033619297882532 0.037589235972090622 0 0.018784853953524312 0.036757353356729465 0 0.01724933763973378 0.036948323493171203 0 0.018784853953524312 0.036757353356729465 0 0.018743409554982007 0.034999560894478303 0 0.017214724673390761 0.036039041200140794 0 0.018784853953524312 0.036757353356729465 0 0.018743409554982007 0.034999560894478303 0 0.020791360492699338 0.036662291569050674 0 0.020791360492699338 0.036662291569050674 0 0.021826421054897689 0.037050981308197117 0 0.020832879223412412 0.037542548292725783 0 0.019937579574524817 0.037157767677969605 0 0.020791360492699338 0.036662291569050674 0 0.020832879223412412 0.037542548292725783 0 0.020991658168086645 0.038470149928089184 0 0.020832879223412412 0.037542548292725783 0 0.021749752418732764 0.037955956294334604 0 0.020991658168086645 0.038470149928089184 0 0.019418794505422464 0.037931809588905428 0 0.020832879223412412 0.037542548292725783 0 0.021826421054897689 0.037050981308197117 0 0.020832879223412412 0.037542548292725783 0 0.021749752418732764 0.037955956294334604 0 0.022443131772417795 0.037417519409054738 0 0.023382137670780276 0.037396092419615834 0 0.022468355083632048 0.038254227055068986 0 0.021826421054897689 0.037050981308197117 0 0.023345776611373908 0.037327387418931247 0 0.024796787658556651 0.036558566593738205 0 0.021826421054897689 0.037050981308197117 0 0.021749752418732764 0.037955956294334604 0 0.022443131772417795 0.037417519409054738 0 0.021749752418732764 0.037955956294334604 0 0.022443131772417795 0.037417519409054738 0 0.022468355083632048 0.038254227055068986 0 0.020791360492699338 0.036662291569050674 0 0.021826421054897689 0.037050981308197117 0 0.024796787658556651 0.036558566593738205 0 0.018743409554982007 0.034999560894478303 0 0.024796787658556651 0.036558566593738205 0 0.026755729703076759 0.034998492507380033 0 0.023382137670780276 0.037396092419615834 0 0.023142901183744104 0.036683876711899786 0 0.024421166884253047 0.036693159435997026 0 0.022443131772417795 0.037417519409054738 0 0.023382137670780276 0.037396092419615834 0 0.023142901183744104 0.036683876711899786 0 0.021826421054897689 0.037050981308197117 0 0.022443131772417795 0.037417519409054738 0 0.023142901183744104 0.036683876711899786 0 0.021973617528883879 0.037023233305746389 0 0.023243660393112878 0.037016239478265392 0 0.024796787658556651 0.036558566593738205 0 0.026625962992363233 0.03720134549709498 0 0.026755729703076759 0.034998492507380033 0 0.025032396378244972 0.036552144627975534 0 0.025602548411473997 0.037329088294508317 0 0.024796787658556651 0.036558566593738205 0 0.025160816245861823 0.03700131517109928 0 0.02552732832348294 0.036925199722454422 0 0.025160816245861823 0.03700131517109928 0 0.024743329360401148 0.03734455813665026 0 0.025489058052123287 0.037133847804524278 0 0.024544399469204718 0.037016380388634203 0 0.025186090904887982 0.036984852019577116 0 0.024421166884253047 0.036693159435997026 0 0.024643737070087355 0.036976096999318891 0 0.02489868080755249 0.036833385589168044 0 0.025160816245861823 0.03700131517109928 0 0.025489058052123287 0.037133847804524278 0 0.02552732832348294 0.036925199722454422 0 0.024796787658556651 0.036558566593738205 0 0.025160816245861823 0.03700131517109928 0 0.024743329360401148 0.03734455813665026 0 0.023345776611373908 0.037327387418931247 0 0.024796787658556651 0.036558566593738205 0 0.024743329360401148 0.03734455813665026 0 0.023243660393112878 0.037016239478265392 0 0.024544399469204718 0.037016380388634203 0 0.023382137670780276 0.037396092419615834 0 0.024421166884253047 0.036693159435997026 0 0.024496848166015706 0.037409561754355322 0 0.024421166884253047 0.036693159435997026 0 0.024643737070087355 0.036976096999318891 0 0.024496848166015706 0.037409561754355322 0 0.024758116225526153 0.037044283749537145 0 0.024664571240302101 0.037074686806324933 0 0.024626716124445797 0.036867126915156756 0 0.024758116225526153 0.037044283749537145 0 0.024643737070087355 0.036976096999318891 0 0.02489868080755249 0.036833385589168044 0 0.024643737070087355 0.036976096999318891 0 0.024664571240302101 0.037074686806324933 0 0.024496848166015706 0.037409561754355322 0 0.024758116225526153 0.037044283749537145 0 0.024643737070087355 0.036976096999318891 0 0.024664571240302101 0.037074686806324933 0 0.024664571240302101 0.037074686806324933 0 0.02469992296079666 0.036864732000288752 0 0.024496848166015706 0.037409561754355322 0 0.024664571240302101 0.037074686806324933 0 0.024626716124445797 0.036867126915156756 0 0.02469992296079666 0.036864732000288752 0 0.024626716124445797 0.036867126915156756 0 0.02469992296079666 0.036864732000288752 0 0.02465704843378121 0.036432030363336018 0 0.02469992296079666 0.036864732000288752 0 0.02465704843378121 0.036432030363336018 0 0.024951596651870234 0.036269631430717722 0 0.02465704843378121 0.036432030363336018 0 0.024951596651870234 0.036269631430717722 0 0.024790323728831932 0.035868987910671661 0 0.02465704843378121 0.036432030363336018 0 0.024790323728831932 0.035868987910671661 0 0.024545667452486614 0.036004317038839842 0 0.02520274224676081 0.035990958073966191 0 0.025567535324943859 0.036336671639998409 0 0.025255717270978688 0.035619716123626813 0 0.02520274224676081 0.035990958073966191 0 0.025135697704818986 0.036307541774568818 0 0.025567535324943859 0.036336671639998409 0 0.02520274224676081 0.035990958073966191 0 0.024951596651870234 0.036269631430717722 0 0.025065559970840694 0.035665111938614276 0 0.02520274224676081 0.035990958073966191 0 0.024951596651870234 0.036269631430717722 0 0.025135697704818986 0.036307541774568818 0 0.024951596651870234 0.036269631430717722 0 0.025135697704818986 0.036307541774568818 0 0.024900498168979737 0.036681168149236359 0 0.02469992296079666 0.036864732000288752 0 0.024951596651870234 0.036269631430717722 0 0.024900498168979737 0.036681168149236359 0 0.025135697704818986 0.036307541774568818 0 0.024900498168979737 0.036681168149236359 0 0.025567535324943859 0.036336671639998409 0 0.024900498168979737 0.036681168149236359 0 0.024496848166015706 0.037409561754355322 0 0.025567535324943859 0.036336671639998409 0 0.024594972938722266 0.037494876230288493 0 0.023989576347185081 0.037074095111355634 0 0.02469992296079666 0.036864732000288752 0 0.024900498168979737 0.036681168149236359 0 0.024496848166015706 0.037409561754355322 0 0.023382137670780276 0.037396092419615834 0 0.023202739366640326 0.038328622509226966 0 0.022468355083632048 0.038254227055068986 0 0.023382137670780276 0.037396092419615834 0 0.024496848166015706 0.037409561754355322 0 0.023202739366640326 0.038328622509226966 0 0.024496848166015706 0.037409561754355322 0 0.023202739366640326 0.038328622509226966 0 0.023475741840093586 0.038834839440954241 0 0.023202739366640326 0.038328622509226966 0 0.022468355083632048 0.038254227055068986 0 0.02264890800670144 0.038683049705751434 0 0.021829795814453032 0.038682443601805686 0 0.022468355083632048 0.038254227055068986 0 0.02225111516526964 0.038863518599625745 0 0.02225111516526964 0.038863518599625745 0 0.02264890800670144 0.038683049705751434 0 0.022489788404274205 0.038943039322166542 0 0.022468355083632048 0.038254227055068986 0 0.02225111516526964 0.038863518599625745 0 0.02264890800670144 0.038683049705751434 0 0.022489788404274205 0.038943039322166542 0 0.022812564189385123 0.038919305298342921 0 0.022537260378183453 0.039068362636621889 0 0.022489788404274205 0.038943039322166542 0 0.022266123944290384 0.039100611295347053 0 0.022537260378183453 0.039068362636621889 0 0.02264890800670144 0.038683049705751434 0 0.022489788404274205 0.038943039322166542 0 0.022812564189385123 0.038919305298342921 0 0.02225111516526964 0.038863518599625745 0 0.022489788404274205 0.038943039322166542 0 0.022266123944290384 0.039100611295347053 0 0.022022075644470472 0.039010004733268974 0 0.02225111516526964 0.038863518599625745 0 0.022266123944290384 0.039100611295347053 0 0.023202739366640326 0.038328622509226966 0 0.023475741840093586 0.038834839440954241 0 0.023173483704531306 0.039086828449144698 0 0.023202739366640326 0.038328622509226966 0 0.022812564189385123 0.038919305298342921 0 0.023173483704531306 0.039086828449144698 0 0.023202739366640326 0.038328622509226966 0 0.02264890800670144 0.038683049705751434 0 0.022812564189385123 0.038919305298342921 0 0.022812564189385123 0.038919305298342921 0 0.022621508228543703 0.039153879229484462 0 0.022537260378183453 0.039068362636621889 0 0.022812564189385123 0.038919305298342921 0 0.023173483704531306 0.039086828449144698 0 0.022621508228543703 0.039153879229484462 0 0.023989576347185081 0.037074095111355634 0 0.023274266354035157 0.03789460387853176 0 0.023989576347185081 0.037074095111355634 0 0.02428204861233528 0.035817975403616233 0 0.023173483704531306 0.039086828449144698 0 0.022621508228543703 0.039153879229484462 0 0.02218049294902914 0.039296535459800788 0 0.023274266354035157 0.03789460387853176 0 0.022631125667857459 0.037967885985915883 0 0.023057626591125126 0.036860758534894213 0 0.023065469155151109 0.036829506138002094 0 0.023040992636876905 0.036695760965851351 0 0.023065469155151109 0.036829506138002094 0 0.023086868343366117 0.036695259997046495 0 0.023040992636876905 0.036695760965851351 0 0.022621508228543703 0.039153879229484462 0 0.022342732441207817 0.039222963164421844 0 0.02218049294902914 0.039296535459800788 0 0.022081051071849944 0.039189346208427553 0 0.022266123944290384 0.039100611295347053 0 0.022220310823920446 0.039193281053128276 0 0.022266123944290384 0.039100611295347053 0 0.022342732441207817 0.039222963164421844 0 0.022220310823920446 0.039193281053128276 0 0.022621508228543703 0.039153879229484462 0 0.022537260378183453 0.039068362636621889 0 0.022342732441207817 0.039222963164421844 0 0.022266123944290384 0.039100611295347053 0 0.022537260378183453 0.039068362636621889 0 0.022342732441207817 0.039222963164421844 0 0.022342732441207817 0.039222963164421844 0 0.022220310823920446 0.039193281053128276 0 0.0221889238651998 0.039228315300550043 0 0.022342732441207817 0.039222963164421844 0 0.0221889238651998 0.039228315300550043 0 0.02218049294902914 0.039296535459800788 0 0.022144293091497274 0.039011271615559166 0 0.0221889238651998 0.039228315300550043 0 0.02218049294902914 0.039296535459800788 0 0.023069346358382557 0.036637106616826141 0 0.023086868343366117 0.036695259997046495 0 0.023040992636876905 0.036695760965851351 0 0.025072784108968234 0.034878924912734366 0 0.025110162097148191 0.034818282400059526 0 0.025133010135726712 0.035180738211821543 0 0.025110162097148191 0.034818282400059526 0 0.025447227596011722 0.035113558233641463 0 0.025133010135726712 0.035180738211821543 0 0.025447227596011722 0.035113558233641463 0 0.025133010135726712 0.035180738211821543 0 0.025255717270978688 0.035619716123626813 0 0.024988108184530327 0.034715912694113706 0 0.025072784108968234 0.034878924912734366 0 0.024933454514993673 0.035327695293593524 0 0.025072784108968234 0.034878924912734366 0 0.025133010135726712 0.035180738211821543 0 0.024933454514993673 0.035327695293593524 0 0.024933454514993673 0.035327695293593524 0 0.024790323728831932 0.035868987910671661 0 0.025065559970840694 0.035665111938614276 0 0.025133010135726712 0.035180738211821543 0 0.024933454514993673 0.035327695293593524 0 0.025065559970840694 0.035665111938614276 0 0.024933454514993673 0.035327695293593524 0 0.024790323728831932 0.035868987910671661 0 0.024676405739581575 0.035507267858951558 0 0.024951596651870234 0.036269631430717722 0 0.024790323728831932 0.035868987910671661 0 0.025065559970840694 0.035665111938614276 0 0.025567535324943859 0.036336671639998409 0 0.025447227596011722 0.035113558233641463 0 0.025255717270978688 0.035619716123626813 0 0.02520274224676081 0.035990958073966191 0 0.025065559970840694 0.035665111938614276 0 0.025255717270978688 0.035619716123626813 0 0.025133010135726712 0.035180738211821543 0 0.025065559970840694 0.035665111938614276 0 0.025255717270978688 0.035619716123626813 0 0.024165779159783133 0.035676445946155322 0 0.024676405739581575 0.035507267858951558 0 0.024545667452486614 0.036004317038839842 0 0.024790323728831932 0.035868987910671661 0 0.024676405739581575 0.035507267858951558 0 0.024545667452486614 0.036004317038839842 0 0.024988108184530327 0.034715912694113706 0 0.024933454514993673 0.035327695293593524 0 0.024676405739581575 0.035507267858951558 0 0.024988108184530327 0.034715912694113706 0 0.024165779159783133 0.035676445946155322 0 0.024676405739581575 0.035507267858951558 0 0.027614458616956869 0.031951207272188045 0 0.028360594378268565 0.029778795309715445 0 0.030515672049715906 0.031499529818948803 0 0.02631623337140352 0.033463308567576594 0 0.026072277853075324 0.032609801332298856 0 0.030515672049715906 0.031499529818948803 0 0.032619238418159426 0.029945753148017618 0 0.033064116547311617 0.030993099120734575 0 0.030515672049715906 0.031499529818948803 0 0.030497190937060402 0.02999022251056185 0 0.032619238418159426 0.029945753148017618 0 0.030497190937060402 0.02999022251056185 0 0.030522457842981049 0.028354349342513314 0 0.032619238418159426 0.029945753148017618 0 0.028360594378268565 0.029778795309715445 0 0.030497190937060402 0.02999022251056185 0 0.030522457842981049 0.028354349342513314 0 0.028360594378268565 0.029778795309715445 0 0.030515672049715906 0.031499529818948803 0 0.030497190937060402 0.02999022251056185 0 0.032734396532269804 0.029870558516988822 0 0.033116184261772187 0.029672684299018731 0 0.032619238418159426 0.029945753148017618 0 0.031860391731903151 0.028780964559178054 0 0.032525902665306146 0.029932373377920374 0 0.032734396532269804 0.029870558516988822 0 0.033116184261772187 0.029672684299018731 0 0.032708559695773333 0.029508623306975158 0 0.032734396532269804 0.029870558516988822 0 0.032708559695773333 0.029508623306975158 0 0.032337267763658563 0.029677246036407565 0 0.031860391731903151 0.028780964559178054 0 0.027803699945287454 0.032599952954289697 0 0.023948363944545588 0.036669072358573536 0 0.024374649798833817 0.036490331337033471 0 0.02436895487704302 0.036943021686801962 0 0.027803699945287454 0.032599952954289697 0 0.024911326538790295 0.037060892409029489 0 0.028360594378268565 0.029778795309715445 0 0.030522457842981049 0.028354349342513314 0 0.028813057892695091 0.027240717797906967 0 0.024165779159783133 0.035676445946155322 0 0.023948363944545588 0.036669072358573536 0 0.024374649798833817 0.036490331337033471 0 0.026072277853075324 0.032609801332298856 0 0.027803699945287454 0.032599952954289697 0 0.024165779159783133 0.035676445946155322 0 0.024545667452486614 0.036004317038839842 0 0.024374649798833817 0.036490331337033471 0 0.02465704843378121 0.036432030363336018 0 0.024545667452486614 0.036004317038839842 0 0.024374649798833817 0.036490331337033471 0 0.024626716124445797 0.036867126915156756 0 0.024374649798833817 0.036490331337033471 0 0.02436895487704302 0.036943021686801962 0 0.024626716124445797 0.036867126915156756 0 0.02465704843378121 0.036432030363336018 0 0.024374649798833817 0.036490331337033471 0 0.025250715324052927 0.037054208851338803 0 0.025747835408287283 0.036970791071109822 0 0.02489868080755249 0.036833385589168044 0 0.024758116225526153 0.037044283749537145 0 0.025311205271764028 0.03738061488730339 0 0.025047779770915518 0.037038186409810069 0 0.026755729703076759 0.034998492507380033 0 0.029007599905186074 0.035074818288461124 0 0.035000378962977363 0.034996189169045497 0 0.024758116225526153 0.037044283749537145 0 0.024626716124445797 0.036867126915156756 0 0.02436895487704302 0.036943021686801962 0 0.024749345865993189 0.03705392701645549 0 0.024911326538790295 0.037060892409029489 0 0.025311205271764028 0.03738061488730339 0 0.025250715324052927 0.037054208851338803 0 0.025047779770915518 0.037038186409810069 0 0.025250715324052927 0.037054208851338803 0 0.025047779770915518 0.037038186409810069 0 0.02489868080755249 0.036833385589168044 0 0.024758116225526153 0.037044283749537145 0 0.025047779770915518 0.037038186409810069 0 0.02489868080755249 0.036833385589168044 0 0.02573922463309862 0.037576570279596107 0 0.025311205271764028 0.03738061488730339 0 0.025747835408287283 0.036970791071109822 0 0.027803699945287454 0.032599952954289697 0 0.029647162073113315 0.034519225881874505 0 0.02573922463309862 0.037576570279596107 0 0.025747835408287283 0.036970791071109822 0 0.025861442848600379 0.036853890306372893 0 0.025311205271764028 0.03738061488730339 0 0.025250715324052927 0.037054208851338803 0 0.025747835408287283 0.036970791071109822 0 0.028497845185795734 0.037767257156997268 0 0.026625962992363233 0.03720134549709498 0 0.02870146796129015 0.036489903406466871 0 0.025861442848600379 0.036853890306372893 0 0.025653317597490958 0.036974197566492346 0 0.02552732832348294 0.036925199722454422 0 0.029647162073113315 0.034519225881874505 0 0.025602548411473997 0.037329088294508317 0 0.025747835408287283 0.036970791071109822 0 0.025861442848600379 0.036853890306372893 0 0.025653317597490958 0.036974197566492346 0 0.02569325029933792 0.036979810397777764 0 0.025186090904887982 0.036984852019577116 0 0.025747835408287283 0.036970791071109822 0 0.025653317597490958 0.036974197566492346 0 0.025489058052123287 0.037133847804524278 0 0.025653317597490958 0.036974197566492346 0 0.025489058052123287 0.037133847804524278 0 0.02552732832348294 0.036925199722454422 0 0.026625962992363233 0.03720134549709498 0 0.026755729703076759 0.034998492507380033 0 0.02870146796129015 0.036489903406466871 0 0.026755729703076759 0.034998492507380033 0 0.029007599905186074 0.035074818288461124 0 0.02870146796129015 0.036489903406466871 0 0.029007599905186074 0.035074818288461124 0 0.030351461521193317 0.034927068750017033 0 0.031678955476505052 0.034723223806461964 0 0.029185179697909396 0.034939014760315391 0 0.02928757694271111 0.036001935608675401 0 0.029007599905186074 0.035074818288461124 0 0.030351461521193317 0.034927068750017033 0 0.030102028302745297 0.034892068999438558 0 0.030351461521193317 0.034927068750017033 0 0.030102028302745297 0.034892068999438558 0 0.030944673352546415 0.034853912163268018 0 0.030351461521193317 0.034927068750017033 0 0.030944673352546415 0.034853912163268018 0 0.031678955476505052 0.034723223806461964 0 0.030944673352546415 0.034853912163268018 0 0.031450155998281146 0.035141127755944107 0 0.032403100713638569 0.034397312283119985 0 0.030219467190035341 0.035238526706483482 0 0.030102028302745297 0.034892068999438558 0 0.030944673352546415 0.034853912163268018 0 0.030219467190035341 0.035238526706483482 0 0.030944673352546415 0.034853912163268018 0 0.031450155998281146 0.035141127755944107 0 0.029647162073113315 0.034519225881874505 0 0.02928757694271111 0.036001935608675401 0 0.029647162073113315 0.034519225881874505 0 0.032482361634819747 0.03186221041418455 0 0.032708559695773333 0.029508623306975158 0 0.03241101935613077 0.029107511929273192 0 0.032980608103222085 0.029199226281434374 0 0.032708559695773333 0.029508623306975158 0 0.032337267763658563 0.029677246036407565 0 0.03241101935613077 0.029107511929273192 0 0.033116184261772187 0.029672684299018731 0 0.032708559695773333 0.029508623306975158 0 0.032980608103222085 0.029199226281434374 0 0.033116184261772187 0.029672684299018731 0 0.032980608103222085 0.029199226281434374 0 0.033852911952711763 0.029502846597721184 0 0.031450155998281146 0.035141127755944107 0 0.033544582506996032 0.033837338967572898 0 0.032403100713638569 0.034397312283119985 0 0.032482361634819747 0.03186221041418455 0 0.033507333349050282 0.031615141381559825 0 0.029007599905186074 0.035074818288461124 0 0.031678955476505052 0.034723223806461964 0 0.035000378962977363 0.034996189169045497 0 0.033507333349050282 0.031615141381559825 0 0.034592337928272633 0.031009789428781524 0 0.032403100713638569 0.034397312283119985 0 0.031678955476505052 0.034723223806461964 0 0.034124300396833757 0.033502964706519096 0 0.033544582506996032 0.033837338967572898 0 0.032403100713638569 0.034397312283119985 0 0.034124300396833757 0.033502964706519096 0 0.030944673352546415 0.034853912163268018 0 0.032403100713638569 0.034397312283119985 0 0.031678955476505052 0.034723223806461964 0 0.035000378962977363 0.034996189169045497 0 0.034124300396833757 0.033502964706519096 0 0.034996931157525321 0.031168973416009899 0 0.031678955476505052 0.034723223806461964 0 0.035000378962977363 0.034996189169045497 0 0.034124300396833757 0.033502964706519096 0 0.034124300396833757 0.033502964706519096 0 0.034996931157525321 0.031168973416009899 0 0.034890095097894924 0.030898232282745759 0 0.033544582506996032 0.033837338967572898 0 0.034124300396833757 0.033502964706519096 0 0.034890095097894924 0.030898232282745759 0 0.034996931157525321 0.031168973416009899 0 0.034890095097894924 0.030898232282745759 0 0.034999003620761332 0.028313890726933747 0 0.035103092521321433 0.029533875428859029 0 0.034890095097894924 0.030898232282745759 0 0.034999003620761332 0.028313890726933747 0 0.035103092521321433 0.029533875428859029 0 0.034890095097894924 0.030898232282745759 0 0.033922471735642404 0.029795807329193187 0 0.033852911952711763 0.029502846597721184 0 0.034890095097894924 0.030898232282745759 0 0.033922471735642404 0.029795807329193187 0 0.033116184261772187 0.029672684299018731 0 0.033852911952711763 0.029502846597721184 0 0.033922471735642404 0.029795807329193187 0 0.033116184261772187 0.029672684299018731 0 0.033922471735642404 0.029795807329193187 0 0.032619238418159426 0.029945753148017618 0 0.033922471735642404 0.029795807329193187 0 0.033777773334478248 0.030166461951619206 0 0.032619238418159426 0.029945753148017618 0 0.035103092521321433 0.029533875428859029 0 0.033922471735642404 0.029795807329193187 0 0.033777773334478248 0.030166461951619206 0 0.035103092521321433 0.029533875428859029 0 0.033777773334478248 0.030166461951619206 0 0.034393537129368906 0.030816490343507197 0 0.033777773334478248 0.030166461951619206 0 0.033064116547311617 0.030993099120734575 0 0.034393537129368906 0.030816490343507197 0 0.033777773334478248 0.030166461951619206 0 0.032619238418159426 0.029945753148017618 0 0.033064116547311617 0.030993099120734575 0 0.032142628857171625 0.032047991378137242 0 0.030515672049715906 0.031499529818948803 0 0.033064116547311617 0.030993099120734575 0 0.033595837049854152 0.032174679511505634 0 0.032142628857171625 0.032047991378137242 0 0.033064116547311617 0.030993099120734575 0 0.034275188645028445 0.029636160044299888 0 0.03506132165413646 0.029158249156145889 0 0.033595837049854152 0.032174679511505634 0 0.033064116547311617 0.030993099120734575 0 0.034393537129368906 0.030816490343507197 0 0.035002357594046997 0.027010162280130961 0 0.03550139571102124 0.026884093141640163 0 0.035866775446786875 0.02743980478897343 0 0.03550139571102124 0.026884093141640163 0 0.035298705845706095 0.027590003170111756 0 0.035866775446786875 0.02743980478897343 0 0.035000590401200377 0.02619712433019529 0 0.034999003620761332 0.028313890726933747 0 0.035298705845706095 0.027590003170111756 0 0.035000590401200377 0.02619712433019529 0 0.03550139571102124 0.026884093141640163 0 0.035298705845706095 0.027590003170111756 0 0.035103092521321433 0.029533875428859029 0 0.034999003620761332 0.028313890726933747 0 0.035298705845706095 0.027590003170111756 0 0.035113928714888637 0.02946357995101043 0 0.03506132165413646 0.029158249156145889 0 0.035103092521321433 0.029533875428859029 0 0.035298705845706095 0.027590003170111756 0 0.035866775446786875 0.02743980478897343 0 0.0026386536761895119 0.028538957621345323 0 0.0024010534826965518 0.028254822956730607 0 0.002326681677432029 0.028447205520672859 0 0.00097751605756145874 0.031350567281800502 0 0.00037627568675817829 0.031609386270493742 0 0.00032705666751925867 0.031949883960656657 0 0.0017865106274247383 0.029891453370654041 0 0.0014928363625752793 0.030377345988743885 0 0.00039596381467881236 0.031656649434207318 0 0.00036566031854961617 0.031391746911717089 0 0.00037627568675817829 0.031609386270493742 0 -0.0003531267994644025 0.031315299593500295 0 -0.00023000590928871616 0.031498059368018513 0 0.00097751605756145874 0.031350567281800502 0 0.00037627568675817829 0.031609386270493742 0 0.0010609598772534979 0.031308626918015031 0 0.00037627568675817829 0.031609386270493742 0 -0.00023000590928871616 0.031498059368018513 0 -0.00012521937658096195 0.03177085727504713 0 0.00032705666751925867 0.031949883960656657 0 -0.00012521937658096195 0.03177085727504713 0 -0.00017209248348209173 0.032094448627521789 0 0.00037627568675817829 0.031609386270493742 0 0.00032705666751925867 0.031949883960656657 0 -0.00012521937658096195 0.03177085727504713 0 0.002451417341272522 0.02818994194109728 0 0.0024010534826965518 0.028254822956730607 0 0.002371583959572984 0.028135987548926256 0 0.0026386536761895119 0.028538957621345323 0 0.002451417341272522 0.02818994194109728 0 0.0024010534826965518 0.028254822956730607 0 0.0024010534826965518 0.028254822956730607 0 0.002371583959572984 0.028135987548926256 0 0.0023162651785343055 0.02811827945932675 0 0.0022827536244557243 0.02821780478161413 0 0.0022235066243743379 0.028375878449524425 0 0.002326681677432029 0.028447205520672859 0 0.0024010534826965518 0.028254822956730607 0 0.0022827536244557243 0.02821780478161413 0 0.002326681677432029 0.028447205520672859 0 0.0024010534826965518 0.028254822956730607 0 0.0022827536244557243 0.02821780478161413 0 0.0023162651785343055 0.02811827945932675 0 0.0022235066243743379 0.028375878449524425 0 0.0022242951813419231 0.02817852047425903 0 0.0021783986518927089 0.028304882204990726 0 0.0022827536244557243 0.02821780478161413 0 0.0022235066243743379 0.028375878449524425 0 0.0022242951813419231 0.02817852047425903 0 0.0022235066243743379 0.028375878449524425 0 0.0021673749293604967 0.028741922827438024 0 0.0021037943561440322 0.028567276258798464 0 0.0022235066243743379 0.028375878449524425 0 0.0021037943561440322 0.028567276258798464 0 0.0021783986518927089 0.028304882204990726 0 0.0022235066243743379 0.028375878449524425 0 0.002326681677432029 0.028447205520672859 0 0.0021673749293604967 0.028741922827438024 0 0.002326681677432029 0.028447205520672859 0 0.0023342028758099225 0.028726280838315143 0 0.0021673749293604967 0.028741922827438024 0 0.0026386536761895119 0.028538957621345323 0 0.002326681677432029 0.028447205520672859 0 0.0023342028758099225 0.028726280838315143 0 0.0022920687945822363 0.029280836760538345 0 0.0021673749293604967 0.028741922827438024 0 0.0020952697389705621 0.028906117929191854 0 0.0026386536761895119 0.028538957621345323 0 0.0022920687945822363 0.029280836760538345 0 0.0021899441569466272 0.02989181049024613 0 0.0026386536761895119 0.028538957621345323 0 0.0023342028758099225 0.028726280838315143 0 0.0022920687945822363 0.029280836760538345 0 0.0023342028758099225 0.028726280838315143 0 0.0022920687945822363 0.029280836760538345 0 0.0021673749293604967 0.028741922827438024 0 0.0021673749293604967 0.028741922827438024 0 0.0021037943561440322 0.028567276258798464 0 0.0020447435645937679 0.028777434700251261 0 0.0021673749293604967 0.028741922827438024 0 0.0020952697389705621 0.028906117929191854 0 0.0020447435645937679 0.028777434700251261 0 0.0008937566962000928 0.02974913469507574 0 0.0021899441569466272 0.02989181049024613 0 0.0011542161583472427 0.030538914483136215 0 0.0008937566962000928 0.02974913469507574 0 0.00049658663431158018 0.030842778386978426 0 0.0011542161583472427 0.030538914483136215 0 0.002190151486690421 0.029266596287543533 0 0.0017233418777899204 0.029335295210061039 0 0.0022920687945822363 0.029280836760538345 0 0.0008937566962000928 0.02974913469507574 0 0.0021899441569466272 0.02989181049024613 0 0.0011621673085974245 0.031412287834709521 0 0.0011317754573249214 0.031363533067837915 0 0.0012733112352342954 0.031483937601467088 0 0.00097751605756145874 0.031350567281800502 0 0.0011317754573249214 0.031363533067837915 0 0.0010609598772534979 0.031308626918015031 0 0.00097751605756145874 0.031350567281800502 0 0.0011621673085974245 0.031412287834709521 0 0.0011317754573249214 0.031363533067837915 0 0.0017865106274247383 0.029891453370654041 0 0.0016536765478087857 0.030666719678172829 0 0.0011317754573249214 0.031363533067837915 0 0.0015503805509491009 0.031466076450847799 0 0.0012733112352342954 0.031483937601467088 0 0.0011317754573249214 0.031363533067837915 0 0.0010609598772534979 0.031308626918015031 0 0.0015503805509491009 0.031466076450847799 0 0.00036566031854961617 0.031391746911717089 0 0.00038185152432114098 0.031479026449357024 0 -0.0003531267994644025 0.031315299593500295 0 -0.00065703501582045827 0.031372304548660808 0 -0.00079303318322937574 0.03143368227159217 0 -0.00065703501582045827 0.031372304548660808 0 -0.00060109669490509264 0.03147006546075564 0 -0.00068063783670678447 0.031365155795945718 0 -0.00065703501582045827 0.031372304548660808 0 -0.00047892184747500732 0.031399893111018908 0 -0.00068063783670678447 0.031365155795945718 0 -0.0003531267994644025 0.031315299593500295 0 -0.00065703501582045827 0.031372304548660808 0 -0.00047892184747500732 0.031399893111018908 0 -0.0003531267994644025 0.031315299593500295 0 -0.00047892184747500732 0.031399893111018908 0 -0.00023000590928871616 0.031498059368018513 0 -0.00060109669490509264 0.03147006546075564 0 -0.00054765336374158139 0.031398888213028234 0 -0.00044783077442629932 0.031455961922009057 0 -0.00060109669490509264 0.03147006546075564 0 -0.00068063783670678447 0.031365155795945718 0 -0.00054765336374158139 0.031398888213028234 0 -0.00068063783670678447 0.031365155795945718 0 -0.00054765336374158139 0.031398888213028234 0 -0.00056796733683391781 0.031290451223203626 0 -0.00054765336374158139 0.031398888213028234 0 -0.00056796733683391781 0.031290451223203626 0 -0.00045457853309203083 0.031379443600545225 0 -0.00056796733683391781 0.031290451223203626 0 -0.00059252250111467997 0.03112367465294243 0 -0.00043720730732134172 0.031231444943792441 0 -0.00068063783670678447 0.031365155795945718 0 -0.00056796733683391781 0.031290451223203626 0 -0.00075673253110863893 0.031128931214353641 0 -0.00071262731819794333 0.031156061772608514 0 -0.00064731474573633116 0.031970535937380223 0 -0.00075673253110863893 0.031128931214353641 0 -0.00059252250111467997 0.03112367465294243 0 -0.00068661897216138129 0.031007123628038022 0 -0.00056796733683391781 0.031290451223203626 0 -0.00075673253110863893 0.031128931214353641 0 -0.00059252250111467997 0.03112367465294243 0 -0.00059252250111467997 0.03112367465294243 0 -0.00051873534659232882 0.031058293773479816 0 -0.00043720730732134172 0.031231444943792441 0 -0.00059252250111467997 0.03112367465294243 0 -0.0006027860112422889 0.0309988256430761 0 -0.00068661897216138129 0.031007123628038022 0 -0.00059252250111467997 0.03112367465294243 0 -0.00051873534659232882 0.031058293773479816 0 -0.0006027860112422889 0.0309988256430761 0 -0.00023000590928871616 0.031498059368018513 0 -0.0004584616119729889 0.031594500640243363 0 -0.00012521937658096195 0.03177085727504713 0 -0.00047892184747500732 0.031399893111018908 0 -0.00023000590928871616 0.031498059368018513 0 -0.0004584616119729889 0.031594500640243363 0 -0.00047892184747500732 0.031399893111018908 0 -0.00068063783670678447 0.031365155795945718 0 -0.0004584616119729889 0.031594500640243363 0 -0.00068063783670678447 0.031365155795945718 0 -0.00074319299799567693 0.031802327011351147 0 -0.0004584616119729889 0.031594500640243363 0 -0.00074319299799567693 0.031802327011351147 0 -0.0004584616119729889 0.031594500640243363 0 -0.0004086401754269329 0.031879488365543072 0 -0.00074319299799567693 0.031802327011351147 0 -0.0004086401754269329 0.031879488365543072 0 -0.00049292101069230642 0.032136864837064148 0 -0.0004086401754269329 0.031879488365543072 0 -0.00012521937658096195 0.03177085727504713 0 -0.00017209248348209173 0.032094448627521789 0 -0.0004584616119729889 0.031594500640243363 0 -0.0004086401754269329 0.031879488365543072 0 -0.00012521937658096195 0.03177085727504713 0 -0.00017209248348209173 0.032094448627521789 0 -0.00027522317072374168 0.032276735951864574 0 -3.4675789845162029e-05 0.032448408966824389 0 -0.00017209248348209173 0.032094448627521789 0 -0.00027522317072374168 0.032276735951864574 0 -0.00049292101069230642 0.032136864837064148 0 -0.00027522317072374168 0.032276735951864574 0 -0.00049292101069230642 0.032136864837064148 0 -0.0004033579097069476 0.032426727756309899 0 -0.0004086401754269329 0.031879488365543072 0 -0.00017209248348209173 0.032094448627521789 0 -0.00049292101069230642 0.032136864837064148 0 -0.00074319299799567693 0.031802327011351147 0 -0.00049292101069230642 0.032136864837064148 0 -0.00077627099338955043 0.032304878908207262 0 -0.0023929628059411751 0.026534468829304186 0 -0.0030300604178896398 0.026353947398401308 0 -0.0030371619076378547 0.026526061650136313 0 -0.0025720812656018781 0.026710507041228897 0 -0.0017094906340792469 0.029341786851248622 0 -0.0041848446691207025 0.020565389985339716 0 -0.0045903349112259347 0.02103229771983528 0 -0.0034640281344537104 0.021077195973551059 0 -0.0025720812656018781 0.026710507041228897 0 -0.0031891768014239391 0.023703685751191955 0 -0.00049292101069230642 0.032136864837064148 0 -0.0004033579097069476 0.032426727756309899 0 -0.00077627099338955043 0.032304878908207262 0 -0.0041848446691207025 0.020565389985339716 0 -0.0034640281344537104 0.021077195973551059 0 -0.0034425218936634944 0.020556931961075046 0 -0.0041848446691207025 0.020565389985339716 0 -0.0045903349112259347 0.02103229771983528 0 -0.0048127115405887768 0.020345092175795231 0 -0.0025720812656018781 0.026710507041228897 0 0.00023962592897732157 0.028622531296072104 0 -0.00017704046182384761 0.02760125664293045 0 -0.0025076885358374205 0.026918231118350327 0 0.00010201902691244181 0.026961029995965922 0 -0.00027522317072374168 0.032276735951864574 0 -0.0004033579097069476 0.032426727756309899 0 -3.4675789845162029e-05 0.032448408966824389 0 -0.0054343395007569531 0.020746160164149853 0 -0.0045903349112259347 0.02103229771983528 0 -0.0048127115405887768 0.020345092175795231 0 -0.00073311698173592261 0.025283460332500982 0 -0.0025720812656018781 0.026710507041228897 0 -0.0049632609292513744 0.025324772106059143 0 -0.0067270113905426622 0.023363721481257545 0 -0.00362637038744275 0.025394376670938822 0 -0.00051873534659232882 0.031058293773479816 0 -0.00053259243673934719 0.030919134008864018 0 -0.00044132387390175665 0.030996765385471574 0 -0.00051873534659232882 0.031058293773479816 0 -0.00053259243673934719 0.030919134008864018 0 -0.0006027860112422889 0.0309988256430761 0 -0.0028290663398886956 0.028212010008429694 0 -0.0051155425687795077 0.023711729725271743 0 -0.0028290663398886956 0.028212010008429694 0 -0.0025918855891567099 0.028349568814038918 0 -0.00053259243673934719 0.030919134008864018 0 -0.0006027860112422889 0.0309988256430761 0 -0.0006701900387020435 0.030903729359406169 0 -0.00053259243673934719 0.030919134008864018 0 -0.00067254853026307382 0.030861694966837334 0 -0.0006701900387020435 0.030903729359406169 0 -0.002563293950464709 0.027491425808428269 0 -0.0039292011880962801 0.027075467348591637 0 -0.0039137281875171121 0.026518575438864583 0 -0.00064731474573633116 0.031970535937380223 0 -0.0017094906340792469 0.029341786851248622 0 -0.00075673253110863893 0.031128931214353641 0 -0.00068661897216138129 0.031007123628038022 0 -0.00080100430297706793 0.030819134805308627 0 -0.0006707691473627587 0.030856011979850242 0 -0.0006701900387020435 0.030903729359406169 0 -0.00080100430297706793 0.030819134805308627 0 -0.0006701900387020435 0.030903729359406169 0 -0.00068661897216138129 0.031007123628038022 0 -0.00080100430297706793 0.030819134805308627 0 -0.0025918855891567099 0.028349568814038918 0 -0.0023785579713367089 0.029326253681510202 0 -0.0006027860112422889 0.0309988256430761 0 -0.0006701900387020435 0.030903729359406169 0 -0.00068661897216138129 0.031007123628038022 0 -0.0026932562869557445 0.025913137676715464 0 -0.0030051124264128958 0.02613827299156039 0 -0.0032745964338858641 0.026013505784436741 0 -0.0031891768014239391 0.023703685751191955 0 -0.0048431817960125677 0.022359266184840975 0 -0.0030051124264128958 0.02613827299156039 0 -0.0027089339367536544 0.026324333148903929 0 -0.0033106123189338148 0.026314922755060473 0 -0.0017094906340792469 0.029341786851248622 0 -0.0031891768014239391 0.023703685751191955 0 -0.0026932562869557445 0.025913137676715464 0 -0.0030051124264128958 0.02613827299156039 0 -0.0027089339367536544 0.026324333148903929 0 -0.0041545754504058322 0.021710489199287211 0 -0.0040760038456863039 0.022228813895673747 0 -0.0055863326446942306 0.021283547870850631 0 -0.0040415493502209627 0.021116299385803984 0 -0.0041545754504058322 0.021710489199287211 0 -0.0040760038456863039 0.022228813895673747 0 -0.0031891768014239391 0.023703685751191955 0 -0.0037374755466297459 0.020650896568603763 0 -0.0040415493502209627 0.021116299385803984 0 -0.0041545754504058322 0.021710489199287211 0 -0.0050133344262115369 0.021112468471072909 0 -0.0047385291908446673 0.021935772419524175 0 -0.0048431817960125677 0.022359266184840975 0 -0.003839315852610178 0.019921907270063492 0 -0.003596410273965631 0.020101920838301299 0 -0.0036833033253522137 0.019721641266957673 0 -0.0041545754504058322 0.021710489199287211 0 -0.0055863326446942306 0.021283547870850631 0 -0.0050579263604297094 0.021075786157913338 0 -0.0037374755466297459 0.020650896568603763 0 -0.0069795438077099184 0.01886500928072448 0 -0.0069795438077099184 0.01886500928072448 0 -0.0084632898709575827 0.0199202959222976 0 -0.0025918855891567099 0.028349568814038918 0 -0.0017094906340792469 0.029341786851248622 0 -0.0065012788021611033 0.020921444824316481 0 -0.0084632898709575827 0.0199202959222976 0 -0.0035942818759215024 0.025653781655007653 0 -0.0026932562869557445 0.025913137676715464 0 -0.0032745964338858641 0.026013505784436741 0 -0.0058872046642916929 0.021132196269093465 0 -0.005856075345308737 0.020092360015584419 0 -0.0075673464620356875 0.020068222185759346 0 -0.0071246701771188478 0.023355977158813938 0 -0.0071366743149963822 0.023754131553773497 0 -0.0067270113905426622 0.023363721481257545 0 -0.0069795438077099184 0.01886500928072448 0 -0.0065012788021611033 0.020921444824316481 0 -0.0065012788021611033 0.020921444824316481 0 -0.0051155425687795077 0.023711729725271743 0 -0.0051155425687795077 0.023711729725271743 0 -0.0048431817960125677 0.022359266184840975 0 -0.0065012788021611033 0.020921444824316481 0 -0.0048431817960125677 0.022359266184840975 0 -0.0055863326446942306 0.021283547870850631 0 -0.0055807749743488934 0.021067130489800925 0 -0.0050579263604297094 0.021075786157913338 0 -0.0064769763176777658 0.022111595659915755 0 -0.0064510331568043162 0.021262292799637792 0 -0.0052105603884015465 0.022128864251576594 0 -0.0036101735386829272 0.026107390974528355 0 -0.0033106123189338148 0.026314922755060473 0 -0.0032745964338858641 0.026013505784436741 0 -0.0030051124264128958 0.02613827299156039 0 -0.0033106123189338148 0.026314922755060473 0 -0.0032745964338858641 0.026013505784436741 0 -0.0035942818759215024 0.025653781655007653 0 -0.0036101735386829272 0.026107390974528355 0 -0.0032745964338858641 0.026013505784436741 0 -0.0025918855891567099 0.028349568814038918 0 -0.0051155425687795077 0.023711729725271743 0 -0.007946263628216441 0.022462189644040953 0 -0.0084944641907405711 0.02230876680508102 0 -0.0085037827174374338 0.022167297475646865 0 -0.013310004521099615 0.01222916752993322 0 -0.0138324221280068 0.012739038208923793 0 -0.014554905384788347 0.012169988436386819 0 -0.0084632898709575827 0.0199202959222976 0 -0.0054080029610253655 0.025464867192843271 0 -0.0049632609292513744 0.025324772106059143 0 -0.0071366743149963822 0.023754131553773497 0 -0.0067270113905426622 0.023363721481257545 0 -0.013211317726754764 0.01229454507968515 0 -0.013310004521099615 0.01222916752993322 0 -0.0138324221280068 0.012739038208923793 0 -0.013211317726754764 0.01229454507968515 0 -0.0138324221280068 0.012739038208923793 0 -0.013267896714102195 0.013238783400346139 0 -0.003596410273965631 0.020101920838301299 0 -0.0036833033253522137 0.019721641266957673 0 -0.0034730178571209629 0.019410782714056728 0 -0.0037374755466297459 0.020650896568603763 0 -0.0038275345274827468 0.019307454321289594 0 -0.003839315852610178 0.019921907270063492 0 -0.0036833033253522137 0.019721641266957673 0 -0.0038313984239965377 0.019438538197943989 0 -0.0038325440706060278 0.020268464861134722 0 -0.0038313984239965377 0.019438538197943989 0 -0.0041185458567418948 0.019759921965749473 0 -0.0069795438077099184 0.01886500928072448 0 -0.0085334108070129026 0.015640387708372672 0 -0.0036833033253522137 0.019721641266957673 0 -0.0038313984239965377 0.019438538197943989 0 -0.0034730178571209629 0.019410782714056728 0 -0.0034016911551764499 0.018360982715154749 0 -0.0038313984239965377 0.019438538197943989 0 -0.0034730178571209629 0.019410782714056728 0 -0.0081894629698825178 0.016877273995496676 0 -0.0085334108070129026 0.015640387708372672 0 -0.013845113910964301 0.013961128287644805 0 -0.013267896714102195 0.013238783400346139 0 -0.014216202230243256 0.013473898387899747 0 -0.0138324221280068 0.012739038208923793 0 -0.013267896714102195 0.013238783400346139 0 -0.014216202230243256 0.013473898387899747 0 -0.0054343395007569531 0.020746160164149853 0 -0.0048127115405887768 0.020345092175795231 0 -0.0048029503709060327 0.019266974469073692 0 -0.0048127115405887768 0.020345092175795231 0 -0.0045362667382625932 0.01987847979031435 0 -0.0048029503709060327 0.019266974469073692 0 0.0020967631528757786 0.027576568387101447 0 0.003227094744919183 0.024661109986162767 0 0.0013885189364647779 0.025055409535146251 0 -0.00073311698173592261 0.025283460332500982 0 -0.00097850977757433632 0.021784795909580292 0 0.0021209586122560445 0.028153206056468802 0 0.0020967631528757786 0.027576568387101447 0 0.003227094744919183 0.024661109986162767 0 -0.0041848446691207025 0.020565389985339716 0 -0.0048127115405887768 0.020345092175795231 0 -0.0045362667382625932 0.01987847979031435 0 -0.0038325440706060278 0.020268464861134722 0 -0.0041185458567418948 0.019759921965749473 0 -0.0045362667382625932 0.01987847979031435 0 -0.0041848446691207025 0.020565389985339716 0 -0.0034425218936634944 0.020556931961075046 0 -0.0045362667382625932 0.01987847979031435 0 -0.0037374755466297459 0.020650896568603763 0 -0.0044610140787633449 0.019885698040463036 0 -0.0041185458567418948 0.019759921965749473 0 -0.0045362667382625932 0.01987847979031435 0 -0.0042855242860606099 0.019445821857399175 0 -0.0045362667382625932 0.01987847979031435 0 -0.0042855242860606099 0.019445821857399175 0 -0.0048029503709060327 0.019266974469073692 0 -0.0041892985133378195 0.018874046798579597 0 -0.0038313984239965377 0.019438538197943989 0 -0.0042855242860606099 0.019445821857399175 0 -0.0038313984239965377 0.019438538197943989 0 -0.0041185458567418948 0.019759921965749473 0 -0.0042855242860606099 0.019445821857399175 0 -0.0041892985133378195 0.018874046798579597 0 -0.0042855242860606099 0.019445821857399175 0 -0.0048029503709060327 0.019266974469073692 0 0.00095311492231423933 0.023155623021984244 0 0.003227094744919183 0.024661109986162767 0 0.0013885189364647779 0.025055409535146251 0 0.00095311492231423933 0.023155623021984244 0 0.0013885189364647779 0.025055409535146251 0 -0.00075912116881161277 0.025038011266915676 0 -0.002902330407895632 0.022749677329141377 0 -0.001113136169376244 0.022943872551310442 0 -0.00075912116881161277 0.025038011266915676 0 -0.001113136169376244 0.022943872551310442 0 0.00095311492231423933 0.023155623021984244 0 -0.00075912116881161277 0.025038011266915676 0 0.0022539218697958442 0.028006238706538539 0 0.0022571434653207625 0.027929731678216746 0 0.0022346632662709523 0.027980915072907547 0 0.0022539218697958442 0.028006238706538539 0 0.0022571434653207625 0.027929731678216746 0 0.0022029431694834765 0.027837698204979978 0 0.0022571434653207625 0.027929731678216746 0 0.0022029431694834765 0.027837698204979978 0 0.0022399215578179084 0.02788413167281097 0 0.0022571434653207625 0.027929731678216746 0 0.0022399215578179084 0.02788413167281097 0 0.0022670163210113141 0.027954966427374588 0 0.00198954745675075 0.02750577345687789 0 0.00088696331574116721 0.026611380060310014 0 0.0020967631528757786 0.027576568387101447 0 0.0013885189364647779 0.025055409535146251 0 -0.00075912116881161277 0.025038011266915676 0 0.0020967631528757786 0.027576568387101447 0 0.0022539218697958442 0.028006238706538539 0 0.0022029431694834765 0.027837698204979978 0 0.0022029431694834765 0.027837698204979978 0 0.0021546845057364692 0.027796629960581312 0 0.0022399215578179084 0.02788413167281097 0 0.0020967631528757786 0.027576568387101447 0 0.0022029431694834765 0.027837698204979978 0 0.0021546845057364692 0.027796629960581312 0 0.0022871084801107506 0.027819393700344482 0 0.0022686392768141586 0.027879950882547019 0 0.0021546845057364692 0.027796629960581312 0 0.0021209586122560445 0.028153206056468802 0 0.0020967631528757786 0.027576568387101447 0 0.0021546845057364692 0.027796629960581312 0 -0.00073311698173592261 0.025283460332500982 0 0.0026755437256693279 0.027290507984620852 0 0.0022686392768141586 0.027879950882547019 0 0.0022456228356699439 0.027887272694908257 0 0.0021546845057364692 0.027796629960581312 0 -0.00073311698173592261 0.025283460332500982 0 0.00023962592897732157 0.028622531296072104 0 0.0023323890965469122 0.027907421606626161 0 0.0022971601419283973 0.027957355522474234 0 0.0022456228356699439 0.027887272694908257 0 0.00023962592897732157 0.028622531296072104 0 0.0022259714466054611 0.028280837992941676 0 0.0022971601419283973 0.027957355522474234 0 0.0022456228356699439 0.027887272694908257 0 0.0022862105678838592 0.027967025291916525 0 0.0023323890965469122 0.027907421606626161 0 0.0022971601419283973 0.027957355522474234 0 0.002367633076231529 0.028070901381969042 0 0.0022456228356699439 0.027887272694908257 0 0.0021546845057364692 0.027796629960581312 0 0.0022399215578179084 0.02788413167281097 0 0.0022399215578179084 0.02788413167281097 0 0.0022670163210113141 0.027954966427374588 0 0.0022862105678838592 0.027967025291916525 0 0.0022456228356699439 0.027887272694908257 0 0.0022399215578179084 0.02788413167281097 0 0.0022862105678838592 0.027967025291916525 0 0.0022670163210113141 0.027954966427374588 0 0.0022862105678838592 0.027967025291916525 0 0.0022882859987091134 0.028025311901376269 0 0.0022862105678838592 0.027967025291916525 0 0.0023213700307427292 0.02805845419861152 0 0.002367633076231529 0.028070901381969042 0 0.0022862105678838592 0.027967025291916525 0 0.0023213700307427292 0.02805845419861152 0 0.0022882859987091134 0.028025311901376269 0 0.0023213700307427292 0.02805845419861152 0 0.0023162651785343055 0.02811827945932675 0 0.0022882859987091134 0.028025311901376269 0 0.0023213700307427292 0.02805845419861152 0 0.002371583959572984 0.028135987548926256 0 0.0023162651785343055 0.02811827945932675 0 0.002451417341272522 0.02818994194109728 0 0.002371583959572984 0.028135987548926256 0 0.002367633076231529 0.028070901381969042 0 0.0023213700307427292 0.02805845419861152 0 0.002371583959572984 0.028135987548926256 0 0.002367633076231529 0.028070901381969042 0 0.002451417341272522 0.02818994194109728 0 0.0023323890965469122 0.027907421606626161 0 0.002367633076231529 0.028070901381969042 0 0.0014928363625752793 0.030377345988743885 0 0.00023962592897732157 0.028622531296072104 0 0.00032705666751925867 0.031949883960656657 0 -0.00017209248348209173 0.032094448627521789 0 -3.4675789845162029e-05 0.032448408966824389 0 0.0022971601419283973 0.027957355522474234 0 0.0022862105678838592 0.027967025291916525 0 0.002367633076231529 0.028070901381969042 0 0.0022242951813419231 0.02817852047425903 0 0.0022588558697394672 0.028084812816605423 0 0.0022275666628043854 0.028114706939572121 0 0.0022827536244557243 0.02821780478161413 0 0.0022242951813419231 0.02817852047425903 0 0.0022588558697394672 0.028084812816605423 0 0.0022827536244557243 0.02821780478161413 0 0.0022588558697394672 0.028084812816605423 0 0.0023162651785343055 0.02811827945932675 0 0.0022588558697394672 0.028084812816605423 0 0.0023162651785343055 0.02811827945932675 0 0.0022882859987091134 0.028025311901376269 0 0.0022588558697394672 0.028084812816605423 0 0.0022882859987091134 0.028025311901376269 0 0.0022658502504033728 0.028007199873404526 0 0.0022670163210113141 0.027954966427374588 0 0.0022882859987091134 0.028025311901376269 0 0.0022658502504033728 0.028007199873404526 0 0.0022588558697394672 0.028084812816605423 0 0.0022606840832366413 0.028049126271987277 0 0.0022275666628043854 0.028114706939572121 0 0.0022658502504033728 0.028007199873404526 0 0.0022606840832366413 0.028049126271987277 0 0.0022723870809689072 0.028011189297225656 0 0.0022588558697394672 0.028084812816605423 0 0.0022658502504033728 0.028007199873404526 0 0.0022606840832366413 0.028049126271987277 0 0.0022606840832366413 0.028049126271987277 0 0.0022723870809689072 0.028011189297225656 0 0.0022939072328123865 0.02806117392825799 0 0.0022723870809689072 0.028011189297225656 0 0.0023004619593450033 0.028009629210615911 0 0.0022939072328123865 0.02806117392825799 0 0.0022723870809689072 0.028011189297225656 0 0.0022547837583684295 0.027976304036206458 0 0.0022603980865786291 0.027982728418628915 0 0.0022723870809689072 0.028011189297225656 0 0.0022603980865786291 0.027982728418628915 0 0.0023004619593450033 0.028009629210615911 0 0.0022571434653207625 0.027929731678216746 0 0.0022670163210113141 0.027954966427374588 0 0.0022547837583684295 0.027976304036206458 0 0.0022670163210113141 0.027954966427374588 0 0.0022658502504033728 0.028007199873404526 0 0.0022547837583684295 0.027976304036206458 0 0.0022658502504033728 0.028007199873404526 0 0.0022723870809689072 0.028011189297225656 0 0.0022547837583684295 0.027976304036206458 0 0.0022571434653207625 0.027929731678216746 0 0.0022547837583684295 0.027976304036206458 0 0.0022346632662709523 0.027980915072907547 0 0.0021740624280107233 0.027794500474032688 0 0.0022539218697958442 0.028006238706538539 0 0.0022346632662709523 0.027980915072907547 0 0.0021740624280107233 0.027794500474032688 0 0.0022346632662709523 0.027980915072907547 0 0.0022012602558484219 0.027957859720042968 0 0.0022547837583684295 0.027976304036206458 0 0.0022346632662709523 0.027980915072907547 0 0.0022012602558484219 0.027957859720042968 0 0.0022547837583684295 0.027976304036206458 0 0.0022012602558484219 0.027957859720042968 0 0.0022603980865786291 0.027982728418628915 0 -0.00074878075473461931 0.024894798390249342 0 0.00088696331574116721 0.026611380060310014 0 0.0022960899389723468 0.028003625648010417 0 0.0022603980865786291 0.027982728418628915 0 0.0023004619593450033 0.028009629210615911 0 0.0022960899389723468 0.028003625648010417 0 0.0022603980865786291 0.027982728418628915 0 0.0022675250234938864 0.028001642257481644 0 0.0022012602558484219 0.027957859720042968 0 0.0022603980865786291 0.027982728418628915 0 0.0022675250234938864 0.028001642257481644 0 0.0023019988934823718 0.028033088396877737 0 0.0022960899389723468 0.028003625648010417 0 0.0022675250234938864 0.028001642257481644 0 0.0022960899389723468 0.028003625648010417 0 0.0023439330595669693 0.028024026149312611 0 0.0023438554393267605 0.028008802059805944 0 0.0023019988934823718 0.028033088396877737 0 0.0022960899389723468 0.028003625648010417 0 0.0023439330595669693 0.028024026149312611 0 0.0022960899389723468 0.028003625648010417 0 0.0023004619593450033 0.028009629210615911 0 0.0023438554393267605 0.028008802059805944 0 0.0023439330595669693 0.028024026149312611 0 0.0023438554393267605 0.028008802059805944 0 0.0024075081496755619 0.028020980547382935 0 0.0023004619593450033 0.028009629210615911 0 0.0023438554393267605 0.028008802059805944 0 0.0022939072328123865 0.02806117392825799 0 0.0023438554393267605 0.028008802059805944 0 0.0022939072328123865 0.02806117392825799 0 0.002316376931019526 0.028141364845463621 0 0.0023438554393267605 0.028008802059805944 0 0.002541766421799113 0.027894462027420644 0 0.002316376931019526 0.028141364845463621 0 0.0027429975652518697 0.028346750505380412 0 0.0023084365311126904 0.02814680647523092 0 0.0023438554393267605 0.028008802059805944 0 0.0025166247124420653 0.027982402732904376 0 0.002541766421799113 0.027894462027420644 0 0.0023438554393267605 0.028008802059805944 0 0.0024075081496755619 0.028020980547382935 0 0.0025166247124420653 0.027982402732904376 0 0.0024625189529896923 0.028060897439222861 0 0.0024075081496755619 0.028020980547382935 0 0.0025166247124420653 0.027982402732904376 0 0.0025955278255421778 0.028060552501953939 0 0.0025166247124420653 0.027982402732904376 0 0.0027592341568422039 0.027954302750854264 0 0.0025166247124420653 0.027982402732904376 0 0.0027592341568422039 0.027954302750854264 0 0.002541766421799113 0.027894462027420644 0 0.0027592341568422039 0.027954302750854264 0 0.0029192803832852306 0.027893230352751108 0 0.002541766421799113 0.027894462027420644 0 0.0029477829327441275 0.027998518721945316 0 0.0029487056820783832 0.027947957903295868 0 0.0027592341568422039 0.027954302750854264 0 0.0029487056820783832 0.027947957903295868 0 0.0027592341568422039 0.027954302750854264 0 0.0029192803832852306 0.027893230352751108 0 0.0023107387245198557 0.02843080224242283 0 0.0027429975652518697 0.028346750505380412 0 0.0031634807090970257 0.029112691157479286 0 0.002593642256427527 0.028683715568746698 0 0.0030044884599936053 0.028478905768028542 0 0.002545396594371092 0.028293922949497206 0 0.0030044884599936053 0.028478905768028542 0 0.0027179427998821138 0.028041602920276333 0 0.002593642256427527 0.028683715568746698 0 0.002545396594371092 0.028293922949497206 0 0.0030044884599936053 0.028478905768028542 0 0.002593642256427527 0.028683715568746698 0 0.002545396594371092 0.028293922949497206 0 0.002316376931019526 0.028141364845463621 0 0.0027179427998821138 0.028041602920276333 0 0.0033194578742917857 0.028113888928768319 0 0.0031123540132380325 0.027552048867838241 0 0.0030044884599936053 0.028478905768028542 0 0.0027179427998821138 0.028041602920276333 0 0.0033194578742917857 0.028113888928768319 0 0.002545396594371092 0.028293922949497206 0 0.0027179427998821138 0.028041602920276333 0 0.0023530426397736881 0.028152650732008299 0 0.0027179427998821138 0.028041602920276333 0 0.0023530426397736881 0.028152650732008299 0 0.0025213388371633761 0.027864297059309453 0 0.0022242951813419231 0.02817852047425903 0 0.0022275666628043854 0.028114706939572121 0 0.0021429407252499849 0.028143894514392177 0 0.0023530426397736881 0.028152650732008299 0 0.0022275666628043854 0.028114706939572121 0 0.0021429407252499849 0.028143894514392177 0 0.0022939072328123865 0.02806117392825799 0 0.0022275666628043854 0.028114706939572121 0 0.002316376931019526 0.028141364845463621 0 0.0022606840832366413 0.028049126271987277 0 0.0022939072328123865 0.02806117392825799 0 0.0022275666628043854 0.028114706939572121 0 0.0023530426397736881 0.028152650732008299 0 0.0022275666628043854 0.028114706939572121 0 0.002316376931019526 0.028141364845463621 0 0.002545396594371092 0.028293922949497206 0 0.0023530426397736881 0.028152650732008299 0 0.002316376931019526 0.028141364845463621 0 0.024780246087790527 0.035203226980665074 0 0.0247268720427735 0.035417845769028934 0 0.024571209405695755 0.034984147354636418 0 0.024736211323559014 0.035087151769404953 0 0.025105370378346516 0.035557982335796948 0 0.024780246087790527 0.035203226980665074 0 0.0247268720427735 0.035417845769028934 0 0.024954708017547917 0.035371718756091144 0 0.024780246087790527 0.035203226980665074 0 0.024571209405695755 0.034984147354636418 0 0.024861214226329389 0.034995644546564446 0 0.02481001468259815 0.034673372424157974 0 0.024890619751573029 0.034827906395584231 0 0.024861214226329389 0.034995644546564446 0 0.02481001468259815 0.034673372424157974 0 0.024571209405695755 0.034984147354636418 0 0.024861214226329389 0.034995644546564446 0 0.024780246087790527 0.035203226980665074 0 0.024861214226329389 0.034995644546564446 0 0.024954708017547917 0.035371718756091144 0 0.012634090539775074 0.031326500808120189 0 0.0079262834496871375 0.030731297610658553 0 0.014360187681309144 0.032931492984259361 0 0.013561075219319979 0.03417796263931995 0 0.013084105631565566 0.032922388445516503 0 0.020464295037131149 0.034565944733812803 0 0.012634090539775074 0.031326500808120189 0 0.024890619751573029 0.034827906395584231 0 0.024861214226329389 0.034995644546564446 0 0.025042405037099518 0.034931607703988753 0 0.024861214226329389 0.034995644546564446 0 0.024954708017547917 0.035371718756091144 0 0.025042405037099518 0.034931607703988753 0 0.02499797278663006 0.034811944134167369 0 0.024890619751573029 0.034827906395584231 0 0.025042405037099518 0.034931607703988753 0 0.013362612193138385 0.028341298316445131 0 0.012634090539775074 0.031326500808120189 0 0.013362612193138385 0.028341298316445131 0 0.0076211380253790604 0.02760897569794335 0 0.011770508076960623 0.027894092252959347 0 0.012544215313104061 0.02830401647731141 0 0.012151093548735399 0.028981812914862844 0 0.0076211380253790604 0.02760897569794335 0 0.012634090539775074 0.031326500808120189 0 0.0031634807090970257 0.029112691157479286 0 0.0038886799761495916 0.029508124140009043 0 0.0039733783486622888 0.029360143649950782 0 0.0029192803832852306 0.027893230352751108 0 0.0029170655914377928 0.027966136801782161 0 0.0029399802776454214 0.027935621227439162 0 0.0023107387245198557 0.02843080224242283 0 0.0076211380253790604 0.02760897569794335 0 0.0029667168304560658 0.027892535063790407 0 0.0029170655914377928 0.027966136801782161 0 0.0029399802776454214 0.027935621227439162 0 0.0029487056820783832 0.027947957903295868 0 0.0029192803832852306 0.027893230352751108 0 0.0029399802776454214 0.027935621227439162 0 0.0029667168304560658 0.027892535063790407 0 0.0029487056820783832 0.027947957903295868 0 0.0029399802776454214 0.027935621227439162 0 0.0031634807090970257 0.029112691157479286 0 0.0030044884599936053 0.028478905768028542 0 0.0036292931235438136 0.0286424512025284 0 0.0031634807090970257 0.029112691157479286 0 0.0039733783486622888 0.029360143649950782 0 0.0036292931235438136 0.0286424512025284 0 0.0030044884599936053 0.028478905768028542 0 0.0036292931235438136 0.0286424512025284 0 0.0033194578742917857 0.028113888928768319 0 0.0079262834496871375 0.030731297610658553 0 0.0081355614730081755 0.029892875663854627 0 0.013084105631565566 0.032922388445516503 0 0.012571241154258178 0.031619444100599636 0 0.013800230602482087 0.031673779256070872 0 0.012571241154258178 0.031619444100599636 0 0.013800230602482087 0.031673779256070872 0 0.013120941258044848 0.030642433870007917 0 0.014360187681309144 0.032931492984259361 0 0.013084105631565566 0.032922388445516503 0 0.013800230602482087 0.031673779256070872 0 0.020464295037131149 0.034565944733812803 0 0.020021663967765235 0.033343476194940831 0 0.014360187681309144 0.032931492984259361 0 0.013800230602482087 0.031673779256070872 0 0.015199692195589634 0.031644102869245551 0 0.013800230602482087 0.031673779256070872 0 0.015199692195589634 0.031644102869245551 0 0.014286385659141287 0.029955764200826386 0 0.02438199408732792 0.035825730156378417 0 0.024869026938732497 0.035820866985123254 0 0.024622761497308191 0.036316960448698025 0 0.0247268720427735 0.035417845769028934 0 0.024954708017547917 0.035371718756091144 0 0.024869026938732497 0.035820866985123254 0 0.02438199408732792 0.035825730156378417 0 0.0247268720427735 0.035417845769028934 0 0.024869026938732497 0.035820866985123254 0 0.017195403011903383 0.036189412863980142 0 0.015275775699505782 0.036799923089349741 0 0.016195481493363414 0.037816283225335041 0 0.015275775699505782 0.036799923089349741 0 0.016195481493363414 0.037816283225335041 0 0.014044750933407679 0.037390824911700711 0 0.020021663967765235 0.033343476194940831 0 0.02020272822216795 0.03510857340402955 0 0.02020272822216795 0.03510857340402955 0 0.013389948125761893 0.033507253509655367 0 0.015199692195589634 0.031644102869245551 0 0.016050807793545254 0.030310050756334729 0 0.014286385659141287 0.029955764200826386 0 0.015275775699505782 0.036799923089349741 0 0.014044750933407679 0.037390824911700711 0 0.013586377611588683 0.036205316809461242 0 0.013389948125761893 0.033507253509655367 0 0.011706821031243122 0.033052691293107173 0 0.014286385659141287 0.029955764200826386 0 0.013120941258044848 0.030642433870007917 0 0.012540205273011661 0.029620474056518086 0 0.011209507948050796 0.035211912826143117 0 0.013612389947553594 0.036334305182623587 0 0.014044750933407679 0.037390824911700711 0 0.012080332131553373 0.036734157441419342 0 0.013586377611588683 0.036205316809461242 0 0.013800230602482087 0.031673779256070872 0 0.014286385659141287 0.029955764200826386 0 0.013120941258044848 0.030642433870007917 0 0.012571241154258178 0.031619444100599636 0 0.013120941258044848 0.030642433870007917 0 0.012053773882318092 0.030280405997966536 0 0.0081355614730081755 0.029892875663854627 0 0.0062792775731886951 0.029132548277851136 0 0.013120941258044848 0.030642433870007917 0 0.012540205273011661 0.029620474056518086 0 0.012053773882318092 0.030280405997966536 0 0.0080035899730489038 0.031085893081346665 0 0.0080742728085214498 0.03110054743893206 0 0.007917890347328517 0.031280122998189719 0 0.011706821031243122 0.033052691293107173 0 0.0062792775731886951 0.029132548277851136 0 0.014044750933407679 0.037390824911700711 0 0.011921905097900885 0.03694838786883034 0 0.012080332131553373 0.036734157441419342 0 0.011110050649443799 0.037058779821488717 0 0.01158289510550606 0.036889677189051971 0 0.011176293588654429 0.036517701573151644 0 0.0096114265233400841 0.032953441896824663 0 0.011209507948050796 0.035211912826143117 0 0.0096114265233400841 0.032953441896824663 0 0.011706821031243122 0.033052691293107173 0 0.011706821031243122 0.033052691293107173 0 0.011209507948050796 0.035211912826143117 0 0.010845029845302182 0.033887499349109541 0 0.011164005514209841 0.03395120392388435 0 0.011342159306435735 0.033708459157818428 0 0.01158289510550606 0.036889677189051971 0 0.01157444227883013 0.03594582572030211 0 0.012748550647216026 0.035398593748664532 0 0.011209507948050796 0.035211912826143117 0 0.012850404269984192 0.035624727601124284 0 0.01157444227883013 0.03594582572030211 0 0.01122994797047925 0.03501792107180126 0 0.012748550647216026 0.035398593748664532 0 0.01158289510550606 0.036889677189051971 0 0.01157444227883013 0.03594582572030211 0 0.011176293588654429 0.036517701573151644 0 0.01157444227883013 0.03594582572030211 0 0.011176293588654429 0.036517701573151644 0 0.010956110657864823 0.035970623556646091 0 0.01157444227883013 0.03594582572030211 0 0.01122994797047925 0.03501792107180126 0 0.010956110657864823 0.035970623556646091 0 0.01122994797047925 0.03501792107180126 0 0.012359418672606075 0.034235611501360536 0 0.012748550647216026 0.035398593748664532 0 0.01122994797047925 0.03501792107180126 0 0.012359418672606075 0.034235611501360536 0 0.011275175160177463 0.033826945623710761 0 0.012964100589133705 0.035371441436359757 0 0.014114948363059068 0.035092294716869865 0 0.013988740801059314 0.03385715535652789 0 0.012850404269984192 0.035624727601124284 0 0.01394862577527199 0.033857022225127022 0 0.012359418672606075 0.034235611501360536 0 0.012748550647216026 0.035398593748664532 0 0.013988740801059314 0.03385715535652789 0 0.011892295401232288 0.036849924725118367 0 0.012964100589133705 0.035371441436359757 0 0.013442042130002675 0.036281369251765443 0 0.012964100589133705 0.035371441436359757 0 0.013442042130002675 0.036281369251765443 0 0.014114948363059068 0.035092294716869865 0 0.015275775699505782 0.036799923089349741 0 0.013586377611588683 0.036205316809461242 0 0.015062821696275016 0.035681034571207873 0 0.013612389947553594 0.036334305182623587 0 0.014917475233580004 0.035712030193120275 0 0.013442042130002675 0.036281369251765443 0 0.014114948363059068 0.035092294716869865 0 0.015062821696275016 0.035681034571207873 0 0.014114948363059068 0.035092294716869865 0 0.01516807106201571 0.034408710111786471 0 0.013988740801059314 0.03385715535652789 0 0.014114948363059068 0.035092294716869865 0 0.01516807106201571 0.034408710111786471 0 0.015062821696275016 0.035681034571207873 0 0.016194162326880642 0.03521282786095397 0 0.01516807106201571 0.034408710111786471 0 0.016238945364872345 0.033576860336336868 0 0.016194162326880642 0.03521282786095397 0 0.01516807106201571 0.034408710111786471 0 0.015062821696275016 0.035681034571207873 0 0.017195403011903383 0.036189412863980142 0 0.015275775699505782 0.036799923089349741 0 0.016194162326880642 0.03521282786095397 0 0.015275775699505782 0.036799923089349741 0 0.016194162326880642 0.03521282786095397 0 0.015062821696275016 0.035681034571207873 0 0.001214915093389738 0.028637836982755002 0 0.0021812204402515828 0.028764748142799931 0 0.0019948042640589901 0.028458348894771789 0 0.0017163528321223736 0.028630542043433866 0 0.001978102991398873 0.028712387839256306 0 0.0019948042640589901 0.028458348894771789 0 0.0021037943561440322 0.028567276258798464 0 0.001978102991398873 0.028712387839256306 0 0.0019948042640589901 0.028458348894771789 0 0.0021037943561440322 0.028567276258798464 0 0.0021783986518927089 0.028304882204990726 0 0.0022242951813419231 0.02817852047425903 0 0.0021429407252499849 0.028143894514392177 0 0.0021783986518927089 0.028304882204990726 0 0.0019948042640589901 0.028458348894771789 0 0.0021429407252499849 0.028143894514392177 0 0.0021783986518927089 0.028304882204990726 0 0.0022930560903671243 0.028110295787123096 0 0.001737312813762013 0.028070683280642859 0 0.0019948042640589901 0.028458348894771789 0 0.0021429407252499849 0.028143894514392177 0 0.0017412482889881348 0.028390856553248783 0 0.0023530426397736881 0.028152650732008299 0 0.0021429407252499849 0.028143894514392177 0 0.0025213388371633761 0.027864297059309453 0 0.0027179427998821138 0.028041602920276333 0 0.0025213388371633761 0.027864297059309453 0 0.0027122043798795429 0.027879701082993962 0 0.0021149188412237477 0.027950204461085981 0 0.0062792775731886951 0.029132548277851136 0 0.0027179427998821138 0.028041602920276333 0 0.0027122043798795429 0.027879701082993962 0 0.0028444268383369595 0.027878050254210952 0 0.0027122043798795429 0.027879701082993962 0 0.0028444268383369595 0.027878050254210952 0 0.0028201648812922787 0.027763463088516033 0 0.0017412482889881348 0.028390856553248783 0 0.001527915185325571 0.028543116186156042 0 0.0015438550873366011 0.028599132574387509 0 0.0080035899730489038 0.031085893081346665 0 0.007917890347328517 0.031280122998189719 0 0.0078631009285264567 0.031128695589183707 0 0.0062792775731886951 0.029132548277851136 0 0.0047825528929021444 0.030235422370503407 0 0.0096114265233400841 0.032953441896824663 0 0.0047825528929021444 0.030235422370503407 0 0.0096114265233400841 0.032953441896824663 0 0.0053242444061467964 0.03164227804829832 0 0.011110050649443799 0.037058779821488717 0 0.011176293588654429 0.036517701573151644 0 0.010382518749005037 0.036915217857107968 0 0.0080791285519015536 0.03179561498528042 0 0.0057639233905309208 0.032672623850680323 0 0.0052589218011821039 0.031263992726846081 0 0.0047825528929021444 0.030235422370503407 0 0.0053242444061467964 0.03164227804829832 0 0.001737312813762013 0.028070683280642859 0 0.0047825528929021444 0.030235422370503407 0 0.0019948042640589901 0.028458348894771789 0 0.0017412482889881348 0.028390856553248783 0 0.0017163528321223736 0.028630542043433866 0 0.0053242444061467964 0.03164227804829832 0 0.001214915093389738 0.028637836982755002 0 0.0025213388371633761 0.027864297059309453 0 0.0027122043798795429 0.027879701082993962 0 0.0028201648812922787 0.027763463088516033 0 0.0017412482889881348 0.028390856553248783 0 0.0015438550873366011 0.028599132574387509 0 0.0017163528321223736 0.028630542043433866 0 0.0021058399776406221 0.028880121676882441 0 0.0020120818687184398 0.028824960750260666 0 0.0020479961177319551 0.028813244992730601 0 0.0020120818687184398 0.028824960750260666 0 0.001996531508618741 0.028795012982383981 0 0.0020479961177319551 0.028813244992730601 0 0.0053242444061467964 0.03164227804829832 0 0.006061137993475926 0.032360116608200443 0 0.010382518749005037 0.036915217857107968 0 0.010956110657864823 0.035970623556646091 0 0.009887387549803537 0.035559530703381609 0 0.01122994797047925 0.03501792107180126 0 0.010956110657864823 0.035970623556646091 0 0.009887387549803537 0.035559530703381609 0 0.011176293588654429 0.036517701573151644 0 0.010382518749005037 0.036915217857107968 0 0.010956110657864823 0.035970623556646091 0 0.01122994797047925 0.03501792107180126 0 0.009887387549803537 0.035559530703381609 0 0.0093728468277481519 0.034166878447603709 0 0.01122994797047925 0.03501792107180126 0 0.0093728468277481519 0.034166878447603709 0 0.011275175160177463 0.033826945623710761 0 0.001996531508618741 0.028795012982383981 0 0.0020479961177319551 0.028813244992730601 0 0.0020182072964043942 0.028823511762314021 0 0.006061137993475926 0.032360116608200443 0 0.0049205926206442128 0.032195162157329892 0 0.0049205926206442128 0.032195162157329892 0 8.2529267770559153e-05 0.029368802831007519 0 0.001996531508618741 0.028795012982383981 0 0.0020182072964043942 0.028823511762314021 0 0.0020018527679056116 0.028836757547555852 0 0.0020018527679056116 0.028836757547555852 0 0.001978102991398873 0.028712387839256306 0 0.0020447435645937679 0.028777434700251261 0 0.001996531508618741 0.028795012982383981 0 0.0020018527679056116 0.028836757547555852 0 0.001978102991398873 0.028712387839256306 0 0.0020120818687184398 0.028824960750260666 0 0.001996531508618741 0.028795012982383981 0 0.001978102991398873 0.028712387839256306 0 0.0021037943561440322 0.028567276258798464 0 0.001978102991398873 0.028712387839256306 0 0.0020447435645937679 0.028777434700251261 0 0.0008937566962000928 0.02974913469507574 0 -0.00013556998920038506 0.030214896149195765 0 0.00049658663431158018 0.030842778386978426 0 0.0017233418777899204 0.029335295210061039 0 8.2529267770559153e-05 0.029368802831007519 0 0.0020952697389705621 0.028906117929191854 0 0.0020018527679056116 0.028836757547555852 0 0.0020447435645937679 0.028777434700251261 0 -0.00013556998920038506 0.030214896149195765 0 0.00049658663431158018 0.030842778386978426 0 -0.00016329662891372731 0.031009180460339313 0 0.00049658663431158018 0.030842778386978426 0 0.00051226792467925965 0.031895037053638373 0 -0.00016329662891372731 0.031009180460339313 0 0.00051226792467925965 0.031895037053638373 0 -0.00016329662891372731 0.031009180460339313 0 -0.00060539430333455071 0.031653711312634732 0 -0.0010165159252172528 0.030480532255554051 0 -0.00013556998920038506 0.030214896149195765 0 -0.00016329662891372731 0.031009180460339313 0 -0.0010165159252172528 0.030480532255554051 0 -0.00016329662891372731 0.031009180460339313 0 -0.00060539430333455071 0.031653711312634732 0 0.0049205926206442128 0.032195162157329892 0 0.0035944442831713857 0.031389640267565348 0 0.0094572984549462849 0.034184956989931167 0 0.010352900911565828 0.03241967562326882 0 0.0087134575886277411 0.032054305812890857 0 0.0049205926206442128 0.032195162157329892 0 0.012839453409239313 0.034014963965291432 0 0.0094572984549462849 0.034184956989931167 0 0.010352900911565828 0.03241967562326882 0 0.011275175160177463 0.033826945623710761 0 0.010352900911565828 0.03241967562326882 0 0.0087134575886277411 0.032054305812890857 0 0.0099229334566650618 0.030848538446334423 0 0.0087134575886277411 0.032054305812890857 0 0.0099229334566650618 0.030848538446334423 0 0.007960021296400166 0.030017271654137652 0 0.012081914169439607 0.035508718758468047 0 0.012949582421204331 0.03597997451612904 0 0.010352900911565828 0.03241967562326882 0 0.0099229334566650618 0.030848538446334423 0 0.011967547654644873 0.031688948751536654 0 0.01264780124782346 0.039604238913189774 0 0.014296042540132467 0.040415436734511881 0 0.013634637209801508 0.039193532464360123 0 0.01264780124782346 0.039604238913189774 0 0.013634637209801508 0.039193532464360123 0 0.013234360061040739 0.03806205028788924 0 0.012081914169439607 0.035508718758468047 0 0.0059580301286229122 0.033450953673086987 0 0.01264780124782346 0.039604238913189774 0 0.011970205235290082 0.038398868971022897 0 0.013234360061040739 0.03806205028788924 0 0.01264780124782346 0.039604238913189774 0 0.0110751600642509 0.038888046397878587 0 0.011970205235290082 0.038398868971022897 0 0.0110751600642509 0.038888046397878587 0 0.010763500117924363 0.038024888575041757 0 0.011970205235290082 0.038398868971022897 0 -0.00013906427395070091 0.032846910427737415 0 0.0001650588376841682 0.033019970263628504 0 0.00031807028832638745 0.032499102050990686 0 0.0059580301286229122 0.033450953673086987 0 0.0073818752538385912 0.037390250650744188 0 -0.0001216345608337968 0.032877779561368004 0 0.0001650588376841682 0.033019970263628504 0 0.00013162726774565721 0.033615842630558952 0 0.0059580301286229122 0.033450953673086987 0 0.0013129026216061959 0.032150172184015398 0 0.0001650588376841682 0.033019970263628504 0 0.00031807028832638745 0.032499102050990686 0 0.0011184222978071379 0.033105901383520653 0 0.0001650588376841682 0.033019970263628504 0 0.00013162726774565721 0.033615842630558952 0 0.0011184222978071379 0.033105901383520653 0 0.00031807028832638745 0.032499102050990686 0 0.00069624505966723942 0.032744944206627082 0 0.00067132699417042055 0.032567809805699809 0 0.00031807028832638745 0.032499102050990686 0 0.00067132699417042055 0.032567809805699809 0 0.00061840697435432406 0.032432609079347169 0 -0.00038522522886580809 0.031910213963456155 0 0.0032958160915797247 0.034496573487837232 0 0.00051226792467925965 0.031895037053638373 0 0.00031807028832638745 0.032499102050990686 0 0.00061840697435432406 0.032432609079347169 0 0.00051226792467925965 0.031895037053638373 0 -0.00060539430333455071 0.031653711312634732 0 0.00031807028832638745 0.032499102050990686 0 0.0035944442831713857 0.031389640267565348 0 0.0059580301286229122 0.033450953673086987 0 -0.00060539430333455071 0.031653711312634732 0 -0.00013906427395070091 0.032846910427737415 0 0.00031807028832638745 0.032499102050990686 0 0.01753186831307529 0.040372972801395034 0 0.018096295285399345 0.042108372750165914 0 0.016169646245846197 0.04125826443431628 0 0.016826394877197785 0.037853112447371731 0 0.015258123310560671 0.036958032828194473 0 0.01516807106201571 0.034408710111786471 0 0.016238945364872345 0.033576860336336868 0 0.014131954838865099 0.032600472230791863 0 0.01516807106201571 0.034408710111786471 0 0.013988740801059314 0.03385715535652789 0 0.014131954838865099 0.032600472230791863 0 0.01753186831307529 0.040372972801395034 0 0.016169646245846197 0.04125826443431628 0 0.015867786078571738 0.039934960637848994 0 0.016169646245846197 0.04125826443431628 0 0.014296042540132467 0.040415436734511881 0 0.015867786078571738 0.039934960637848994 0 0.015258123310560671 0.036958032828194473 0 0.012949582421204331 0.03597997451612904 0 0.014131954838865099 0.032600472230791863 0 0.012611141614480592 0.033065768965014473 0 0.011967547654644873 0.031688948751536654 0 0.013988740801059314 0.03385715535652789 0 0.014131954838865099 0.032600472230791863 0 0.012611141614480592 0.033065768965014473 0 0.012359418672606075 0.034235611501360536 0 0.013988740801059314 0.03385715535652789 0 0.012611141614480592 0.033065768965014473 0 0.012359418672606075 0.034235611501360536 0 0.012611141614480592 0.033065768965014473 0 0.011275175160177463 0.033826945623710761 0 0.010352900911565828 0.03241967562326882 0 0.011275175160177463 0.033826945623710761 0 0.011967547654644873 0.031688948751536654 0 0.012611141614480592 0.033065768965014473 0 0.011275175160177463 0.033826945623710761 0 0.011967547654644873 0.031688948751536654 0 0.014296042540132467 0.040415436734511881 0 0.013634637209801508 0.039193532464360123 0 0.014701305148706319 0.03958937464343714 0 0.013634637209801508 0.039193532464360123 0 0.014701305148706319 0.03958937464343714 0 0.014718412307272236 0.038024792690130697 0 0.014712768050313142 0.039519890190039639 0 0.014951285326121729 0.038023117742878178 0 0.015759780908466973 0.038910042274415226 0 0.014701305148706319 0.03958937464343714 0 0.01520620379755522 0.037925575160197018 0 0.015759780908466973 0.038910042274415226 0 0.014701305148706319 0.03958937464343714 0 0.015867786078571738 0.039934960637848994 0 0.014296042540132467 0.040415436734511881 0 0.014701305148706319 0.03958937464343714 0 0.015867786078571738 0.039934960637848994 0 0.01753186831307529 0.040372972801395034 0 0.015867786078571738 0.039934960637848994 0 0.016868909374433073 0.039086125688761617 0 0.015759780908466973 0.038910042274415226 0 0.016868909374433073 0.039086125688761617 0 0.016240313877965065 0.03822118934187551 0 0.015759780908466973 0.038910042274415226 0 0.015867786078571738 0.039934960637848994 0 0.016868909374433073 0.039086125688761617 0 0.016868909374433073 0.039086125688761617 0 0.017142615864672778 0.038094848327429792 0 0.016240313877965065 0.03822118934187551 0 0.018275441228800624 0.038856519762097676 0 0.016868909374433073 0.039086125688761617 0 0.017142615864672778 0.038094848327429792 0 0.018275441228800624 0.038856519762097676 0 0.01753186831307529 0.040372972801395034 0 0.016868909374433073 0.039086125688761617 0 0.01724933763973378 0.036948323493171203 0 0.017142615864672778 0.038094848327429792 0 0.016442219270695457 0.037380398570943454 0 0.018033619297882532 0.037589235972090622 0 0.01724933763973378 0.036948323493171203 0 0.017142615864672778 0.038094848327429792 0 0.018275441228800624 0.038856519762097676 0 0.018033619297882532 0.037589235972090622 0 0.017142615864672778 0.038094848327429792 0 0.017142615864672778 0.038094848327429792 0 0.016240313877965065 0.03822118934187551 0 0.016442219270695457 0.037380398570943454 0 0.016240313877965065 0.03822118934187551 0 0.016442219270695457 0.037380398570943454 0 0.01520620379755522 0.037925575160197018 0 0.015859623194361964 0.037080771435179488 0 0.015423338399827732 0.036507696528440811 0 0.016337627720104261 0.036539547537065037 0 0.01724933763973378 0.036948323493171203 0 0.016442219270695457 0.037380398570943454 0 0.016337627720104261 0.036539547537065037 0 0.015859623194361964 0.037080771435179488 0 0.016442219270695457 0.037380398570943454 0 0.01520620379755522 0.037925575160197018 0 0.015859623194361964 0.037080771435179488 0 0.016442219270695457 0.037380398570943454 0 0.016337627720104261 0.036539547537065037 0 0.015859623194361964 0.037080771435179488 0 0.01520620379755522 0.037925575160197018 0 0.015423338399827732 0.036507696528440811 0 0.014718412307272236 0.038024792690130697 0 0.014198184425875402 0.03726106199305431 0 0.014819996490044627 0.036769750443928627 0 0.014951285326121729 0.038023117742878178 0 0.015115023891255375 0.036596490926521577 0 0.015759780908466973 0.038910042274415226 0 0.016240313877965065 0.03822118934187551 0 0.01520620379755522 0.037925575160197018 0 0.013634637209801508 0.039193532464360123 0 0.014718412307272236 0.038024792690130697 0 0.013234360061040739 0.03806205028788924 0 0.014718412307272236 0.038024792690130697 0 0.014198184425875402 0.03726106199305431 0 0.013234360061040739 0.03806205028788924 0 0.014198184425875402 0.03726106199305431 0 0.014416677211891001 0.036467601166567928 0 0.013380089908199498 0.036907219692967376 0 0.014198184425875402 0.03726106199305431 0 0.013234360061040739 0.03806205028788924 0 0.013380089908199498 0.036907219692967376 0 0.013280482272884999 0.03607518065644285 0 0.015188147686821935 0.035000023493659604 0 0.012609747929938405 0.034999880556868063 0 0.013280482272884999 0.03607518065644285 0 0.014416677211891001 0.036467601166567928 0 0.012900430252157294 0.037320666435537588 0 0.014364326410176922 0.036498019663776068 0 0.013045851618069272 0.037131939837316517 0 0.013280482272884999 0.03607518065644285 0 0.015188147686821935 0.035000023493659604 0 0.014416677211891001 0.036467601166567928 0 0.015211506459839071 0.035056701557918055 0 0.015115023891255375 0.036596490926521577 0 0.015188147686821935 0.035000023493659604 0 0.014416677211891001 0.036467601166567928 0 0.014819996490044627 0.036769750443928627 0 0.014198184425875402 0.03726106199305431 0 0.014416677211891001 0.036467601166567928 0 0.014819996490044627 0.036769750443928627 0 0.018743409554982007 0.034999560894478303 0 0.015189798636616549 0.034999702399025265 0 0.017214724673390761 0.036039041200140794 0 0.015189798636616549 0.034999702399025265 0 0.015423338399827732 0.036507696528440811 0 0.016337627720104261 0.036539547537065037 0 0.015189798636616549 0.034999702399025265 0 0.016337627720104261 0.036539547537065037 0 0.017214724673390761 0.036039041200140794 0 0.018784853953524312 0.036757353356729465 0 0.01724933763973378 0.036948323493171203 0 0.017214724673390761 0.036039041200140794 0 0.01724933763973378 0.036948323493171203 0 0.016337627720104261 0.036539547537065037 0 0.017214724673390761 0.036039041200140794 0 0.010430966243898795 0.037599529789164615 0 0.009889969909259862 0.03884112179491464 0 0.011390431210721922 0.038092498693204503 0 0.010430966243898795 0.037599529789164615 0 0.009889969909259862 0.03884112179491464 0 0.0092137612848026632 0.036934236712564766 0 0.0073818752538385912 0.037390250650744188 0 0.0094685624650972435 0.03721078444654749 0 0.0094311056633524706 0.038468628580327534 0 0.0089426999663633922 0.036821097665503441 0 0.0082255530482163858 0.037827505287165442 0 0.0073818752538385912 0.037390250650744188 0 0.0032958160915797247 0.034496573487837232 0 0.0094311056633524706 0.038468628580327534 0 0.0082255530482163858 0.037827505287165442 0 0.008256379266242328 0.039056506992355286 0 0.0073818752538385912 0.037390250650744188 0 0.012247648573555812 0.037747255580278354 0 0.010763500117924363 0.038024888575041757 0 0.011970205235290082 0.038398868971022897 0 0.012105542212832731 0.037419149629839284 0 0.011970205235290082 0.038398868971022897 0 0.013234360061040739 0.03806205028788924 0 0.012105542212832731 0.037419149629839284 0 0.013234360061040739 0.03806205028788924 0 0.013380089908199498 0.036907219692967376 0 0.012105542212832731 0.037419149629839284 0 0.013045851618069272 0.037131939837316517 0 0.012247648573555812 0.037747255580278354 0 0.012900430252157294 0.037320666435537588 0 0.011390431210721922 0.038092498693204503 0 0.011236197510371883 0.03652912781877924 0 0.010430966243898795 0.037599529789164615 0 0.011390431210721922 0.038092498693204503 0 0.011236197510371883 0.03652912781877924 0 0.011236197510371883 0.03652912781877924 0 0.012609747929938405 0.034999880556868063 0 0.010391192282146657 0.035871413954018203 0 0.013280482272884999 0.03607518065644285 0 0.012900430252157294 0.037320666435537588 0 0.011236197510371883 0.03652912781877924 0 0.013280482272884999 0.03607518065644285 0 0.011236197510371883 0.03652912781877924 0 0.012609747929938405 0.034999880556868063 0 0.012609747929938405 0.034999880556868063 0 0.010391192282146657 0.035871413954018203 0 0.0085050518124176779 0.035000006588570325 0 0.010430966243898795 0.037599529789164615 0 0.011236197510371883 0.03652912781877924 0 0.0092137612848026632 0.036934236712564766 0 0.011236197510371883 0.03652912781877924 0 0.010391192282146657 0.035871413954018203 0 0.0092137612848026632 0.036934236712564766 0 0.0094685624650972435 0.03721078444654749 0 0.0083814863917501311 0.034906729144215165 0 0.010391192282146657 0.035871413954018203 0 0.0092137612848026632 0.036934236712564766 0 0.0085050518124176779 0.035000006588570325 0 0.0081637949671041991 0.034999868138365337 0 0.0073794575831529 0.036591797865861933 0 0.0043578225685765486 0.036119831786939352 0 0.0081637949671041991 0.034999868138365337 0 0.0043578225685765486 0.036119831786939352 0 0.0029547078124724478 0.034999942115124541 0 0.0081637949671041991 0.034999868138365337 0 0.0085047572436999595 0.035000152387237499 0 0.0073794575831529 0.036591797865861933 0 0.0089426999663633922 0.036821097665503441 0 0.0085047572436999595 0.035000152387237499 0 0.0073794575831529 0.036591797865861933 0 0.0073794575831529 0.036591797865861933 0 0.0057404889605688365 0.037169101148240111 0 0.0043578225685765486 0.036119831786939352 0 0.0036143660034650671 0.035473396067469673 0 0.0033499483173948861 0.035348124797984937 0 0.0016010229683624197 0.03389956623756727 0 0.002331768569664557 0.033889329456094013 0 0.0023227892802286936 0.034580088306357254 0 0.0016010229683624197 0.03389956623756727 0 0.0015636234581850028 0.033198631460277704 0 0.0020369046761798595 0.033294683677367841 0 0.0016010229683624197 0.03389956623756727 0 0.0020369046761798595 0.033294683677367841 0 0.002331768569664557 0.033889329456094013 0 0.0016010229683624197 0.03389956623756727 0 0.0015636234581850028 0.033198631460277704 0 0.0010978185996052231 0.033245575564635518 0 0.0036143660034650671 0.035473396067469673 0 0.0043656638142453774 0.03598157726795799 0 0.0015636234581850028 0.033198631460277704 0 0.0010978185996052231 0.033245575564635518 0 0.0014022608493918214 0.032853116185512884 0 0.0015636234581850028 0.033198631460277704 0 0.0014022608493918214 0.032853116185512884 0 0.0017317070610290875 0.032771196081038213 0 0.0015636234581850028 0.033198631460277704 0 0.0020369046761798595 0.033294683677367841 0 0.0017317070610290875 0.032771196081038213 0 0.0020369046761798595 0.033294683677367841 0 0.0017317070610290875 0.032771196081038213 0 0.0021482695529781086 0.032782755053291882 0 0.0073794575831529 0.036591797865861933 0 0.0082255530482163858 0.037827505287165442 0 0.0070707196682984535 0.038136775461681739 0 0.0089426999663633922 0.036821097665503441 0 0.0073794575831529 0.036591797865861933 0 0.0082255530482163858 0.037827505287165442 0 0.0073794575831529 0.036591797865861933 0 0.0057404889605688365 0.037169101148240111 0 0.0070707196682984535 0.038136775461681739 0 0.0010978185996052231 0.033245575564635518 0 0.0011826799897612676 0.032671722096678416 0 0.0014022608493918214 0.032853116185512884 0 0.0010978185996052231 0.033245575564635518 0 0.00069069688926747734 0.032751905704608918 0 0.00080662349836780939 0.03268492883485008 0 0.0082255530482163858 0.037827505287165442 0 0.0070707196682984535 0.038136775461681739 0 0.008256379266242328 0.039056506992355286 0 0.0043656638142453774 0.03598157726795799 0 0.0032958160915797247 0.034496573487837232 0 0.0032958160915797247 0.034496573487837232 0 0.0020843131061364538 0.034301181943108321 0 0.00069624505966723942 0.032744944206627082 0 0.00080662349836780939 0.03268492883485008 0 0.00067132699417042055 0.032567809805699809 0 0.00080662349836780939 0.03268492883485008 0 0.00085915145137593961 0.032416482184962576 0 0.0010048518113545425 0.032643330600109696 0 0.00085915145137593961 0.032416482184962576 0 0.0010976518380945404 0.032204292818046008 0 0.0010048518113545425 0.032643330600109696 0 0.00080662349836780939 0.03268492883485008 0 0.00067132699417042055 0.032567809805699809 0 0.00085915145137593961 0.032416482184962576 0 0.00067132699417042055 0.032567809805699809 0 0.00061840697435432406 0.032432609079347169 0 0.00085915145137593961 0.032416482184962576 0 0.00051226792467925965 0.031895037053638373 0 0.00085915145137593961 0.032416482184962576 0 0.0010976518380945404 0.032204292818046008 0 0.00051226792467925965 0.031895037053638373 0 0.00061840697435432406 0.032432609079347169 0 0.00085915145137593961 0.032416482184962576 0 0.0010976518380945404 0.032204292818046008 0 0.0014195365249217505 0.032465417925838368 0 0.0013637943316248938 0.03200530445198576 0 0.0010976518380945404 0.032204292818046008 0 0.0013637943316248938 0.03200530445198576 0 0.0011529443201891262 0.031654966970724764 0 0.0010978185996052231 0.033245575564635518 0 0.0010048518113545425 0.032643330600109696 0 0.0011826799897612676 0.032671722096678416 0 0.0010978185996052231 0.033245575564635518 0 0.00080662349836780939 0.03268492883485008 0 0.0010048518113545425 0.032643330600109696 0 0.0010976518380945404 0.032204292818046008 0 0.0011826799897612676 0.032671722096678416 0 0.0014195365249217505 0.032465417925838368 0 0.0010976518380945404 0.032204292818046008 0 0.0010048518113545425 0.032643330600109696 0 0.0011826799897612676 0.032671722096678416 0 0.0011826799897612676 0.032671722096678416 0 0.0014022608493918214 0.032853116185512884 0 0.0014195365249217505 0.032465417925838368 0 0.0014195365249217505 0.032465417925838368 0 0.0017317070610290875 0.032771196081038213 0 0.0018122993161152898 0.032334131730533976 0 0.0014022608493918214 0.032853116185512884 0 0.0014195365249217505 0.032465417925838368 0 0.0017317070610290875 0.032771196081038213 0 0.0017317070610290875 0.032771196081038213 0 0.0018122993161152898 0.032334131730533976 0 0.0021482695529781086 0.032782755053291882 0 0.0018122993161152898 0.032334131730533976 0 0.0016221242482945177 0.031954745277080449 0 0.0019580530988443381 0.031890691206740367 0 0.0018122993161152898 0.032334131730533976 0 0.0013637943316248938 0.03200530445198576 0 0.0016221242482945177 0.031954745277080449 0 0.0014195365249217505 0.032465417925838368 0 0.0018122993161152898 0.032334131730533976 0 0.0013637943316248938 0.03200530445198576 0 0.0013637943316248938 0.03200530445198576 0 0.0016221242482945177 0.031954745277080449 0 0.0013533642234820099 0.031671244171805391 0 0.0016221242482945177 0.031954745277080449 0 0.0015503805509491009 0.031466076450847799 0 0.0019580530988443381 0.031890691206740367 0 0.0016221242482945177 0.031954745277080449 0 0.0015503805509491009 0.031466076450847799 0 0.0013533642234820099 0.031671244171805391 0 0.0015503805509491009 0.031466076450847799 0 0.0012733112352342954 0.031483937601467088 0 0.0013533642234820099 0.031671244171805391 0 0.0011621673085974245 0.031412287834709521 0 0.0012733112352342954 0.031483937601467088 0 0.0013533642234820099 0.031671244171805391 0 0.0021899441569466272 0.02989181049024613 0 0.0011542161583472427 0.030538914483136215 0 0.0011529443201891262 0.031654966970724764 0 0.0011621673085974245 0.031412287834709521 0 0.0013533642234820099 0.031671244171805391 0 0.0011529443201891262 0.031654966970724764 0 0.0016536765478087857 0.030666719678172829 0 0.0011990146373880442 0.031589581689204824 0 0.00049658663431158018 0.030842778386978426 0 0.0011542161583472427 0.030538914483136215 0 0.0011529443201891262 0.031654966970724764 0 0.00051226792467925965 0.031895037053638373 0 0.0010976518380945404 0.032204292818046008 0 0.0011529443201891262 0.031654966970724764 0 0.00049658663431158018 0.030842778386978426 0 0.00051226792467925965 0.031895037053638373 0 0.0011529443201891262 0.031654966970724764 0 0.0013637943316248938 0.03200530445198576 0 0.0013533642234820099 0.031671244171805391 0 0.0011529443201891262 0.031654966970724764 0 -0.00051382780210942208 0.03164963999802272 0 -0.0007735875961924955 0.031604326544958733 0 -0.00063748902389646812 0.031899730654899837 0 -0.00051382780210942208 0.03164963999802272 0 -0.00063748902389646812 0.031899730654899837 0 -0.00037479087639644311 0.031945625911823462 0 -0.00051382780210942208 0.03164963999802272 0 -0.00037479087639644311 0.031945625911823462 0 -0.00033741243432183234 0.031735643555863634 0 -0.00060109669490509264 0.03147006546075564 0 -0.00051382780210942208 0.03164963999802272 0 -0.00044783077442629932 0.031455961922009057 0 -0.00060109669490509264 0.03147006546075564 0 -0.00051382780210942208 0.03164963999802272 0 -0.0007735875961924955 0.031604326544958733 0 -0.00065703501582045827 0.031372304548660808 0 -0.00060109669490509264 0.03147006546075564 0 -0.0007735875961924955 0.031604326544958733 0 -0.00079303318322937574 0.03143368227159217 0 -0.0007735875961924955 0.031604326544958733 0 -0.0011087646593251983 0.031776652253245843 0 0.00038185152432114098 0.031479026449357024 0 0.00044863274277616449 0.031928354417396776 0 -0.00065703501582045827 0.031372304548660808 0 -0.00079303318322937574 0.03143368227159217 0 -0.0007735875961924955 0.031604326544958733 0 -0.0007735875961924955 0.031604326544958733 0 -0.0011087646593251983 0.031776652253245843 0 -0.00095899030106201229 0.032097439038828536 0 -0.0007735875961924955 0.031604326544958733 0 -0.00095899030106201229 0.032097439038828536 0 -0.00063748902389646812 0.031899730654899837 0 0.0018122993161152898 0.032334131730533976 0 0.0019580530988443381 0.031890691206740367 0 0.0022995292575183832 0.032492124909831936 0 -0.0011087646593251983 0.031776652253245843 0 -0.00095899030106201229 0.032097439038828536 0 -0.0013789572415388567 0.032351447834222238 0 0.00044863274277616449 0.031928354417396776 0 0.00031920134573853467 0.032198530908802238 0 0.00031920134573853467 0.032198530908802238 0 0.0016104892267052137 0.034235799381486576 0 0.0022995292575183832 0.032492124909831936 0 0.0021482695529781086 0.032782755053291882 0 0.0024538901521808302 0.033083068945180635 0 -0.0013789572415388567 0.032351447834222238 0 -0.0011534533577829088 0.032678272635988451 0 -0.0015139603087288424 0.033216744049919693 0 0.0018122993161152898 0.032334131730533976 0 0.0022995292575183832 0.032492124909831936 0 0.0021482695529781086 0.032782755053291882 0 -0.00095899030106201229 0.032097439038828536 0 -0.0011534533577829088 0.032678272635988451 0 -0.00082199638261548288 0.032589416913504192 0 -0.00095899030106201229 0.032097439038828536 0 -0.0013789572415388567 0.032351447834222238 0 -0.0011534533577829088 0.032678272635988451 0 -0.0011534533577829088 0.032678272635988451 0 -0.00082199638261548288 0.032589416913504192 0 -0.00086783030955151429 0.033253846146242411 0 -0.00082199638261548288 0.032589416913504192 0 -0.00071597103282335756 0.032200098469560338 0 -0.00043518465176011715 0.032283612096302518 0 -0.00082199638261548288 0.032589416913504192 0 -0.00043518465176011715 0.032283612096302518 0 -0.00014314352096885154 0.033178571746346766 0 -0.00063748902389646812 0.031899730654899837 0 -0.00071597103282335756 0.032200098469560338 0 -0.00043518465176011715 0.032283612096302518 0 -0.00095899030106201229 0.032097439038828536 0 -0.00082199638261548288 0.032589416913504192 0 -0.00071597103282335756 0.032200098469560338 0 -0.00095899030106201229 0.032097439038828536 0 -0.00063748902389646812 0.031899730654899837 0 -0.00071597103282335756 0.032200098469560338 0 -0.00063748902389646812 0.031899730654899837 0 -0.00037479087639644311 0.031945625911823462 0 -0.00043518465176011715 0.032283612096302518 0 -0.00037479087639644311 0.031945625911823462 0 -0.00026955391361168128 0.03214346906501768 0 -0.00043518465176011715 0.032283612096302518 0 -0.00015629890698517842 0.033139608378589397 0 0.00020455446358428825 0.032480974373494571 0 -0.00043518465176011715 0.032283612096302518 0 -0.00014314352096885154 0.033178571746346766 0 -5.2414895745025466e-05 0.032369063544567568 0 -0.00026955391361168128 0.03214346906501768 0 -0.00043518465176011715 0.032283612096302518 0 -5.2414895745025466e-05 0.032369063544567568 0 -0.00014314352096885154 0.033178571746346766 0 -0.00086783030955151429 0.033253846146242411 0 -0.00037550596141485614 0.033987246235537394 0 -0.00082199638261548288 0.032589416913504192 0 -0.00014314352096885154 0.033178571746346766 0 -0.00086783030955151429 0.033253846146242411 0 -0.00037550596141485614 0.033987246235537394 0 -0.0011010814792456471 0.033994251828050166 0 -0.00031293244335458658 0.035099813834436083 0 -0.00086783030955151429 0.033253846146242411 0 -0.00037550596141485614 0.033987246235537394 0 -0.0011010814792456471 0.033994251828050166 0 -0.00014314352096885154 0.033178571746346766 0 -0.00037550596141485614 0.033987246235537394 0 0.00056595039567929257 0.034296340443988972 0 -0.00037550596141485614 0.033987246235537394 0 -2.1485058915851617e-05 0.034572535102235527 0 0.00056595039567929257 0.034296340443988972 0 0.0020369046761798595 0.033294683677367841 0 0.0021482695529781086 0.032782755053291882 0 0.0027508710382218426 0.033255555639048411 0 0.0022485543104986132 0.032776746043626626 0 0.0016104892267052137 0.034235799381486576 0 -0.0011534533577829088 0.032678272635988451 0 -0.00086783030955151429 0.033253846146242411 0 -0.0015139603087288424 0.033216744049919693 0 -0.00086783030955151429 0.033253846146242411 0 -0.0015139603087288424 0.033216744049919693 0 -0.0011010814792456471 0.033994251828050166 0 0.0016104892267052137 0.034235799381486576 0 0.00049279079655541245 0.035723274135582697 0 0.0029465131760272587 0.037837397335969788 0 0.0021576577260361803 0.037167404038142185 0 0.0027503268352272554 0.036605922727416439 0 0.0016104892267052137 0.034235799381486576 0 0.0030087447158774322 0.035734790129984172 0 0.0027508710382218426 0.033255555639048411 0 0.002331768569664557 0.033889329456094013 0 0.0029524001830853411 0.034335418218813696 0 0.0020369046761798595 0.033294683677367841 0 0.0027508710382218426 0.033255555639048411 0 0.002331768569664557 0.033889329456094013 0 0.002331768569664557 0.033889329456094013 0 0.0023227892802286936 0.034580088306357254 0 0.0029524001830853411 0.034335418218813696 0 0.0021576577260361803 0.037167404038142185 0 0.0027503268352272554 0.036605922727416439 0 0.0019195138404494887 0.036086068774150923 0 0.0027503268352272554 0.036605922727416439 0 0.0026072054115432947 0.035000056766040823 0 0.0019195138404494887 0.036086068774150923 0 0.0029524001830853411 0.034335418218813696 0 0.0029508765686116272 0.034999593268670845 0 0.0026112236651179106 0.035000250481975241 0 0.0030087447158774322 0.035734790129984172 0 0.0026074113727491415 0.034999477287231399 0 0.0023227892802286936 0.034580088306357254 0 0.0029524001830853411 0.034335418218813696 0 0.0029508765686116272 0.034999593268670845 0 0.0033499483173948861 0.035348124797984937 0 0.0029616117369222171 0.035013903147021012 0 -0.00023162068992946478 0.03524247197469467 0 -2.1485058915851617e-05 0.034572535102235527 0 0.00056595039567929257 0.034296340443988972 0 -0.0001872465377842776 0.035302897434865102 0 -9.2502241346142483e-05 0.035420060833386682 0 -0.00037550596141485614 0.033987246235537394 0 -0.00031293244335458658 0.035099813834436083 0 -2.1485058915851617e-05 0.034572535102235527 0 -0.00031293244335458658 0.035099813834436083 0 -0.00023162068992946478 0.03524247197469467 0 -2.1485058915851617e-05 0.034572535102235527 0 0.00049279079655541245 0.035723274135582697 0 0.00037453771092548356 0.03571064082378262 0 0.0021576577260361803 0.037167404038142185 0 0.0011036076890923027 0.036405178876833609 0 0.0019195138404494887 0.036086068774150923 0 0.0026072054115432947 0.035000056766040823 0 0.0019195138404494887 0.036086068774150923 0 0.00086821621401800243 0.03499986465447056 0 0.0011036076890923027 0.036405178876833609 0 0.0019195138404494887 0.036086068774150923 0 0.00086821621401800243 0.03499986465447056 0 0.0011036076890923027 0.036405178876833609 0 0.00086821621401800243 0.03499986465447056 0 -0.00017719509706670418 0.035416266524241576 0 0.00037453771092548356 0.03571064082378262 0 -0.00011134884102631351 0.035437361924177048 0 -0.00031293244335458658 0.035099813834436083 0 -0.00023162068992946478 0.03524247197469467 0 -0.00017719509706670418 0.035416266524241576 0 -0.00023162068992946478 0.03524247197469467 0 -0.00017719509706670418 0.035416266524241576 0 -0.00049174796947129085 0.035666708712388903 0 0.00086821621401800243 0.03499986465447056 0 -0.00017719509706670418 0.035416266524241576 0 -0.00087170729236305292 0.03499988824166185 0 -0.00017719509706670418 0.035416266524241576 0 -0.00087170729236305292 0.03499988824166185 0 -0.001125492034941128 0.035748643272868343 0 -0.00017719509706670418 0.035416266524241576 0 -0.00049174796947129085 0.035666708712388903 0 -0.001125492034941128 0.035748643272868343 0 -0.00049174796947129085 0.035666708712388903 0 -0.001125492034941128 0.035748643272868343 0 -0.00059199907310233067 0.036515459268192857 0 -0.00023162068992946478 0.03524247197469467 0 -0.00049174796947129085 0.035666708712388903 0 -0.00059199907310233067 0.036515459268192857 0 -0.001125492034941128 0.035748643272868343 0 -0.0019520211558432359 0.036337136691795564 0 -0.00059199907310233067 0.036515459268192857 0 -0.001125492034941128 0.035748643272868343 0 -0.0019520211558432359 0.036337136691795564 0 -0.0019650450586092554 0.035613285755458239 0 -0.00087170729236305292 0.03499988824166185 0 -0.0019650450586092554 0.035613285755458239 0 -0.0026097014974677045 0.034999623303896894 0 -0.00087170729236305292 0.03499988824166185 0 -0.001125492034941128 0.035748643272868343 0 -0.0019650450586092554 0.035613285755458239 0 -0.0019650450586092554 0.035613285755458239 0 -0.0026097014974677045 0.034999623303896894 0 -0.0030595462478530382 0.035897869029123612 0 -0.0026107266710047512 0.035000214857805675 0 -0.0032750606524727527 0.036102384060234027 0 -0.0034724024035511724 0.036323537281153985 0 -0.0043887424575066152 0.034999982121550949 0 -0.0045353851433018091 0.036487585922743072 0 -0.0026106817743562238 0.034999976744369644 0 -0.0034724024035511724 0.036323537281153985 0 -0.0043887424575066152 0.034999982121550949 0 -0.0034724024035511724 0.036323537281153985 0 -0.0043391290101755927 0.037551319766367879 0 -0.0045353851433018091 0.036487585922743072 0 -0.0032750606524727527 0.036102384060234027 0 -0.0040493707201289539 0.037216478900438929 0 -0.0019520211558432359 0.036337136691795564 0 -0.0019650450586092554 0.035613285755458239 0 -0.0030595462478530382 0.035897869029123612 0 -0.0019520211558432359 0.036337136691795564 0 -0.0030595462478530382 0.035897869029123612 0 -0.0028065730633580915 0.037125467027113127 0 -0.0019520211558432359 0.036337136691795564 0 -0.0028065730633580915 0.037125467027113127 0 -0.0018458228221155408 0.036999864616835555 0 -0.0028065730633580915 0.037125467027113127 0 -0.0021721417975841856 0.037565113682934102 0 -0.0018458228221155408 0.036999864616835555 0 -0.0030595462478530382 0.035897869029123612 0 -0.0028065730633580915 0.037125467027113127 0 -0.0037630945865670335 0.036899505479980783 0 -0.0028065730633580915 0.037125467027113127 0 -0.0037630945865670335 0.036899505479980783 0 -0.0036901819560160305 0.037590796952403555 0 -0.0028065730633580915 0.037125467027113127 0 -0.0036901819560160305 0.037590796952403555 0 -0.0033093257508882003 0.037970837793044949 0 -0.0036901819560160305 0.037590796952403555 0 -0.0033093257508882003 0.037970837793044949 0 -0.0039319453302875465 0.038135489265134534 0 -0.0021721417975841856 0.037565113682934102 0 -0.0026517674994693745 0.038000588237095866 0 -0.002215426684816038 0.038478489068312006 0 -0.0021543464463285914 0.038471939410826821 0 -0.0012611433580231115 0.035838709801185385 0 -0.0028065730633580915 0.037125467027113127 0 -0.0021721417975841856 0.037565113682934102 0 -0.0026517674994693745 0.038000588237095866 0 -0.0028065730633580915 0.037125467027113127 0 -0.0033093257508882003 0.037970837793044949 0 -0.0026517674994693745 0.038000588237095866 0 -0.0033093257508882003 0.037970837793044949 0 -0.0026517674994693745 0.038000588237095866 0 -0.0030531146281171789 0.038558662777100162 0 -0.0021721417975841856 0.037565113682934102 0 -0.0014260246178282184 0.037512416825589236 0 -0.0022020003104470868 0.038378117523929091 0 -5.3590096596257191e-05 0.035381681300963905 0 -0.0012611433580231115 0.035838709801185385 0 0.001053775731987748 0.033430750362713264 0 0.00092152517372408402 0.032899581978952201 0 0.0014916167451806471 0.032780446802681197 0 -0.0021721417975841856 0.037565113682934102 0 -0.0014260246178282184 0.037512416825589236 0 -0.0018458228221155408 0.036999864616835555 0 -0.00014314352096885154 0.033178571746346766 0 0.00053278299923118389 0.03326899049236761 0 0.00056595039567929257 0.034296340443988972 0 -0.00014314352096885154 0.033178571746346766 0 0.00053278299923118389 0.03326899049236761 0 0.00051889279277980065 0.032566104039599662 0 0.001053775731987748 0.033430750362713264 0 0.00053278299923118389 0.03326899049236761 0 0.00092152517372408402 0.032899581978952201 0 0.001053775731987748 0.033430750362713264 0 0.00053278299923118389 0.03326899049236761 0 0.00056595039567929257 0.034296340443988972 0 -5.3590096596257191e-05 0.035381681300963905 0 -9.2502241346142483e-05 0.035420060833386682 0 -0.0014260246178282184 0.037512416825589236 0 -0.00059199907310233067 0.036515459268192857 0 -0.0018458228221155408 0.036999864616835555 0 -0.0019520211558432359 0.036337136691795564 0 -0.00059199907310233067 0.036515459268192857 0 -0.0018458228221155408 0.036999864616835555 0 -0.0078427595546915838 0.036906466698685185 0 -0.0082308280674329125 0.036249191235667458 0 -0.0070835839802914965 0.036312302998968517 0 -0.008626763083651838 0.036940246609761994 0 -0.0078427595546915838 0.036906466698685185 0 -0.0088598770370023738 0.037132666091932227 0 -0.008626763083651838 0.036940246609761994 0 -0.0078427595546915838 0.036906466698685185 0 -0.0082308280674329125 0.036249191235667458 0 -0.008626763083651838 0.036940246609761994 0 -0.0082308280674329125 0.036249191235667458 0 -0.0090194758321389262 0.036451753598966616 0 -0.0082308280674329125 0.036249191235667458 0 -0.0089164000580513134 0.035881198851679945 0 -0.0090194758321389262 0.036451753598966616 0 -0.0082308280674329125 0.036249191235667458 0 -0.0079448228913010354 0.034999957401974827 0 -0.0070835839802914965 0.036312302998968517 0 -0.0082308280674329125 0.036249191235667458 0 -0.0079448228913010354 0.034999957401974827 0 -0.0089164000580513134 0.035881198851679945 0 -0.0079448228913010354 0.034999957401974827 0 -0.0070835839802914965 0.036312302998968517 0 -0.0061667159962722692 0.034999959163675438 0 -0.0070835839802914965 0.036312302998968517 0 -0.0059967884256648318 0.037074124993607897 0 -0.0070640049268371049 0.037611142433474479 0 -0.0078427595546915838 0.036906466698685185 0 -0.0070835839802914965 0.036312302998968517 0 -0.0070640049268371049 0.037611142433474479 0 -0.0070835839802914965 0.036312302998968517 0 -0.0055693630939028255 0.036230215748653996 0 -0.0059967884256648318 0.037074124993607897 0 -0.0055693630939028255 0.036230215748653996 0 -0.0050911049630024945 0.03715350534596349 0 -0.0059967884256648318 0.037074124993607897 0 -0.0070835839802914965 0.036312302998968517 0 -0.0055693630939028255 0.036230215748653996 0 -0.0061667159962722692 0.034999959163675438 0 -0.0055693630939028255 0.036230215748653996 0 -0.0061667159962722692 0.034999959163675438 0 -0.0043887424575066152 0.034999982121550949 0 -0.0055693630939028255 0.036230215748653996 0 -0.0043887424575066152 0.034999982121550949 0 -0.0045353851433018091 0.036487585922743072 0 -0.0055693630939028255 0.036230215748653996 0 -0.0045353851433018091 0.036487585922743072 0 -0.0050911049630024945 0.03715350534596349 0 -0.0043391290101755927 0.037551319766367879 0 -0.0050911049630024945 0.03715350534596349 0 -0.0052925703325929071 0.03791578051674499 0 -0.0043391290101755927 0.037551319766367879 0 -0.0045353851433018091 0.036487585922743072 0 -0.0050911049630024945 0.03715350534596349 0 -0.0043391290101755927 0.037551319766367879 0 -0.0052925703325929071 0.03791578051674499 0 -0.0050385607145122307 0.038469636134944252 0 -0.0037630945865670335 0.036899505479980783 0 -0.0036901819560160305 0.037590796952403555 0 -0.0045681642461887365 0.037997415127621857 0 -0.0040493707201289539 0.037216478900438929 0 -0.0048023705895033362 0.038259941663439705 0 -0.0036901819560160305 0.037590796952403555 0 -0.0039319453302875465 0.038135489265134534 0 -0.0045681642461887365 0.037997415127621857 0 -0.0052925703325929071 0.03791578051674499 0 -0.0056725917354984541 0.038528532364635826 0 -0.0061380393893599068 0.038163008316567403 0 -0.0052925703325929071 0.03791578051674499 0 -0.0050385607145122307 0.038469636134944252 0 -0.0056725917354984541 0.038528532364635826 0 -0.0052925703325929071 0.03791578051674499 0 -0.0064281824504256787 0.03741888678407352 0 -0.0061380393893599068 0.038163008316567403 0 -0.0052925703325929071 0.03791578051674499 0 -0.0059967884256648318 0.037074124993607897 0 -0.0070640049268371049 0.037611142433474479 0 -0.0054638138184987944 0.037856442275826664 0 -0.0065875574512642482 0.037627241193606387 0 -0.0050911049630024945 0.03715350534596349 0 -0.0052925703325929071 0.03791578051674499 0 -0.0059967884256648318 0.037074124993607897 0 -0.0056725917354984541 0.038528532364635826 0 -0.0061380393893599068 0.038163008316567403 0 -0.0063081309722795289 0.038906043748216726 0 -0.0087514820344773807 0.035710854512891764 0 -0.0080224942794772259 0.036591307523053951 0 -0.0064281824504256787 0.03741888678407352 0 -0.0061380393893599068 0.038163008316567403 0 -0.0070986133155913171 0.038068864840982888 0 -0.0061380393893599068 0.038163008316567403 0 -0.0070986133155913171 0.038068864840982888 0 -0.0063081309722795289 0.038906043748216726 0 -0.010472521292020831 0.03350099792667971 0 -0.010849406808282268 0.034033420302662078 0 -0.0096929539891904438 0.034350773170792673 0 -0.010472521292020831 0.03350099792667971 0 -0.010849406808282268 0.034033420302662078 0 -0.011086318611217009 0.033388665074938435 0 -0.010472521292020831 0.03350099792667971 0 -0.011167265307168857 0.032721677651057428 0 -0.011086318611217009 0.033388665074938435 0 -0.0065875574512642482 0.037627241193606387 0 -0.0089037694949270964 0.03629824227174866 0 -0.0087514820344773807 0.035710854512891764 0 -0.0099998010976443466 0.035560174081756775 0 -0.0070986133155913171 0.038068864840982888 0 -0.0077644895683342055 0.036965945776135281 0 -0.0079325908012378241 0.037097207643113278 0 -0.0064281824504256787 0.03741888678407352 0 -0.0070986133155913171 0.038068864840982888 0 -0.0077644895683342055 0.036965945776135281 0 -0.0078427595546915838 0.036906466698685185 0 -0.0070640049268371049 0.037611142433474479 0 -0.0088598770370023738 0.037132666091932227 0 -0.010385849999119946 0.03536947455452219 0 -0.010743742857522923 0.03470505721174004 0 -0.011258064115524193 0.035113372975560116 0 -0.010385849999119946 0.03536947455452219 0 -0.010743742857522923 0.03470505721174004 0 -0.0096929539891904438 0.034350773170792673 0 -0.010743742857522923 0.03470505721174004 0 -0.010849406808282268 0.034033420302662078 0 -0.0096929539891904438 0.034350773170792673 0 -0.010385849999119946 0.03536947455452219 0 -0.0096929539891904438 0.034350773170792673 0 -0.0088970271099184407 0.035250174044043035 0 -0.0080224942794772259 0.036591307523053951 0 -0.0071673799026796478 0.037823176109289883 0 -0.0063081309722795289 0.038906043748216726 0 -0.0054940035475765734 0.039801145712062919 0 -0.0054272203136016403 0.039270299175322446 0 -0.0054940035475765734 0.039801145712062919 0 -0.0054272203136016403 0.039270299175322446 0 -0.0048708223515967763 0.03975718200971453 0 -0.0056725917354984541 0.038528532364635826 0 -0.0063081309722795289 0.038906043748216726 0 -0.0054272203136016403 0.039270299175322446 0 -0.0050385607145122307 0.038469636134944252 0 -0.0056725917354984541 0.038528532364635826 0 -0.0054272203136016403 0.039270299175322446 0 -0.0048023705895033362 0.038259941663439705 0 -0.0053868211070631005 0.039204404532143813 0 -0.0045681642461887365 0.037997415127621857 0 -0.0046307831953903431 0.039083837010248479 0 -0.0039308742206530098 0.038765815972662904 0 -0.0045681642461887365 0.037997415127621857 0 -0.0054272203136016403 0.039270299175322446 0 -0.0046307831953903431 0.039083837010248479 0 -0.0039319453302875465 0.038135489265134534 0 -0.0045681642461887365 0.037997415127621857 0 -0.0039308742206530098 0.038765815972662904 0 -0.0046307831953903431 0.039083837010248479 0 -0.0042749525026470397 0.039743160262954727 0 -0.0039308742206530098 0.038765815972662904 0 -0.0054272203136016403 0.039270299175322446 0 -0.0046307831953903431 0.039083837010248479 0 -0.0048708223515967763 0.03975718200971453 0 -0.0046307831953903431 0.039083837010248479 0 -0.0048708223515967763 0.03975718200971453 0 -0.0042749525026470397 0.039743160262954727 0 -0.0042749525026470397 0.039743160262954727 0 -0.0045149107307234345 0.040917240293202151 0 -0.0041626263012472017 0.040699004561455261 0 -0.0071673799026796478 0.037823176109289883 0 -0.0056578187905668266 0.036498240137893719 0 -0.0048708223515967763 0.03975718200971453 0 -0.0042749525026470397 0.039743160262954727 0 -0.0045149107307234345 0.040917240293202151 0 -0.0054940035475765734 0.039801145712062919 0 -0.0048708223515967763 0.03975718200971453 0 -0.0045149107307234345 0.040917240293202151 0 -0.0050330069869304588 0.033332173105179122 0 -0.0049483428606711581 0.033294620297767932 0 -0.0051325088997486827 0.033453797425028693 0 -0.0056578187905668266 0.036498240137893719 0 -0.0035865079157666167 0.034350414779410386 0 -0.0028855045596446671 0.028762473641815937 0 -0.0034018747587019576 0.02936109280785654 0 -0.002614740841090455 0.02927716206495886 0 -0.0040814802934973828 0.030187389017225664 0 -0.0025569053251685053 0.029208999893236408 0 -0.0039025656856793035 0.029234568558488369 0 -0.002614740841090455 0.02927716206495886 0 -0.0030023666181628944 0.029838403663193326 0 -0.0050330069869304588 0.033332173105179122 0 -0.0051325088997486827 0.033453797425028693 0 -0.0053063266962014386 0.033453051952599115 0 -0.0035865079157666167 0.034350414779410386 0 -0.0040814802934973828 0.030187389017225664 0 -0.0039025656856793035 0.029234568558488369 0 -0.0030023666181628944 0.029838403663193326 0 -0.0037433111488067187 0.029912741179926934 0 -0.0039025656856793035 0.029234568558488369 0 -0.0037433111488067187 0.029912741179926934 0 -0.0044978419731929141 0.02980841040518438 0 -0.0056578187905668266 0.036498240137893719 0 -0.0068073233977994727 0.03288362479935094 0 -0.0040814802934973828 0.030187389017225664 0 -0.0068073233977994727 0.03288362479935094 0 -0.0039893002808132081 0.029189478233666476 0 -0.0047267007711152163 0.02923459921181603 0 -0.0044978419731929141 0.02980841040518438 0 -0.0040814802934973828 0.030187389017225664 0 -0.0041900976331450991 0.029642312944203057 0 -0.0088970271099184407 0.035250174044043035 0 -0.0081017660249124539 0.036158962580207184 0 -0.0090205090437195292 0.036723229233840561 0 -0.0088970271099184407 0.035250174044043035 0 -0.0090205090437195292 0.036723229233840561 0 -0.0096960377501787726 0.036039509941578167 0 -0.010385849999119946 0.03536947455452219 0 -0.0088970271099184407 0.035250174044043035 0 -0.0096960377501787726 0.036039509941578167 0 -0.0068073233977994727 0.03288362479935094 0 -0.011063833529315743 0.03189444040518459 0 -0.0090205090437195292 0.036723229233840561 0 -0.0096960377501787726 0.036039509941578167 0 -0.010480615860863655 0.036818328978975703 0 -0.0068073233977994727 0.03288362479935094 0 -0.0075706916728588043 0.029606838296127865 0 -0.0072547384834524865 0.03136622039238298 0 -0.0095174431875575897 0.031522938977319691 0 -0.0087588927529209677 0.032313070090611906 0 -0.011063833529315743 0.03189444040518459 0 -0.016104485876831925 0.026306305850941451 0 -0.011183408673828076 0.026363232312753809 0 -0.014487985088241288 0.027092757703377237 0 -0.014642861384287083 0.026615333068803908 0 -0.010385849999119946 0.03536947455452219 0 -0.010480615860863655 0.036818328978975703 0 -0.011540736231337848 0.035756388280158632 0 -0.010385849999119946 0.03536947455452219 0 -0.0096960377501787726 0.036039509941578167 0 -0.010480615860863655 0.036818328978975703 0 0.0010145269777133363 0.031977794117835405 0 0.00145020236733601 0.032139993736277475 0 0.0014616199110656109 0.031387361295825263 0 0.0010145269777133363 0.031977794117835405 0 0.00051889279277980065 0.032566104039599662 0 0.0010076729059545501 0.032463659627865661 0 0.0010145269777133363 0.031977794117835405 0 0.0010076729059545501 0.032463659627865661 0 0.00145020236733601 0.032139993736277475 0 0.00140181659274687 0.032156464048495571 0 -0.00049414315216100748 0.031575846439244638 0 0.0004433606279846214 0.032088967985795962 0 0.00020455446358428825 0.032480974373494571 0 -0.00018590502077154441 0.031849735446642061 0 -0.00022464194674886369 0.032011006854184627 0 -0.00033741243432183234 0.031735643555863634 0 -0.00018590502077154441 0.031849735446642061 0 -0.00022464194674886369 0.032011006854184627 0 -5.2414895745025466e-05 0.032369063544567568 0 -0.00037479087639644311 0.031945625911823462 0 -0.00022464194674886369 0.032011006854184627 0 -0.00033741243432183234 0.031735643555863634 0 -0.00026955391361168128 0.03214346906501768 0 -0.00022464194674886369 0.032011006854184627 0 -5.2414895745025466e-05 0.032369063544567568 0 -0.00037479087639644311 0.031945625911823462 0 -0.00026955391361168128 0.03214346906501768 0 -0.00022464194674886369 0.032011006854184627 0 0.00053278299923118389 0.03326899049236761 0 0.00051889279277980065 0.032566104039599662 0 0.00092152517372408402 0.032899581978952201 0 0.00051889279277980065 0.032566104039599662 0 0.00092152517372408402 0.032899581978952201 0 0.0010076729059545501 0.032463659627865661 0 0.0010076729059545501 0.032463659627865661 0 0.0014916167451806471 0.032780446802681197 0 0.0014995174064806531 0.03214763171528149 0 0.00092152517372408402 0.032899581978952201 0 0.0010076729059545501 0.032463659627865661 0 0.0014916167451806471 0.032780446802681197 0 -0.002215426684816038 0.038478489068312006 0 -0.0030531146281171789 0.038558662777100162 0 -0.003171845191111319 0.039591703200016759 0 -0.0012611433580231115 0.035838709801185385 0 -0.00049414315216100748 0.031575846439244638 0 -0.0012611433580231115 0.035838709801185385 0 -0.0029520423392001998 0.037694389479045798 0 -0.0026517674994693745 0.038000588237095866 0 -0.002215426684816038 0.038478489068312006 0 -0.0030531146281171789 0.038558662777100162 0 -0.0030531146281171789 0.038558662777100162 0 -0.0039308742206530098 0.038765815972662904 0 -0.003171845191111319 0.039591703200016759 0 -0.0033093257508882003 0.037970837793044949 0 -0.0039319453302875465 0.038135489265134534 0 -0.0039308742206530098 0.038765815972662904 0 -0.0033093257508882003 0.037970837793044949 0 -0.0030531146281171789 0.038558662777100162 0 -0.0039308742206530098 0.038765815972662904 0 -0.0042749525026470397 0.039743160262954727 0 -0.0039308742206530098 0.038765815972662904 0 -0.003171845191111319 0.039591703200016759 0 -0.0042749525026470397 0.039743160262954727 0 -0.0041626263012472017 0.040699004561455261 0 -0.003171845191111319 0.039591703200016759 0 -0.0018997621533751476 0.034249329500802166 0 -0.0021566394439844904 0.03450621356980365 0 -0.0019202421481921926 0.034488385971156874 0 -0.0021566394439844904 0.03450621356980365 0 -0.0019202421481921926 0.034488385971156874 0 -0.0021697854882835321 0.034638529890264634 0 -0.00049414315216100748 0.031575846439244638 0 -0.0020112687752858178 0.031373091170286992 0 -0.00049414315216100748 0.031575846439244638 0 -0.00037792144385259734 0.030093302596590803 0 -0.0015734250371638656 0.028027502251022976 0 -0.0015973154466205626 0.028896441560784168 0 -0.0021859586843760675 0.028376682209660258 0 -0.0015973154466205626 0.028896441560784168 0 -0.0021859586843760675 0.028376682209660258 0 -0.0022227893049883317 0.028910511850215048 0 -0.0035865079157666167 0.034350414779410386 0 -0.0029520423392001998 0.037694389479045798 0 -0.0024538514190354356 0.034783213508110873 0 -0.0021566394439844904 0.03450621356980365 0 -0.0021697854882835321 0.034638529890264634 0 -0.0035865079157666167 0.034350414779410386 0 -0.0020112687752858178 0.031373091170286992 0 -0.0028855045596446671 0.028762473641815937 0 -0.0021859586843760675 0.028376682209660258 0 -0.0022227893049883317 0.028910511850215048 0 -0.0028855045596446671 0.028762473641815937 0 -0.0022227893049883317 0.028910511850215048 0 -0.002614740841090455 0.02927716206495886 0 -0.0022227893049883317 0.028910511850215048 0 -0.002614740841090455 0.02927716206495886 0 -0.0019237147774270585 0.029382514366642253 0 -0.002614740841090455 0.02927716206495886 0 -0.0022393620411796087 0.029740833636589928 0 -0.0019237147774270585 0.029382514366642253 0 -0.002614740841090455 0.02927716206495886 0 -0.0022393620411796087 0.029740833636589928 0 -0.0030023666181628944 0.029838403663193326 0 -0.0012608091188021696 0.028602286332507477 0 -0.0019237147774270585 0.029382514366642253 0 -0.0012831599091340747 0.029887189358936375 0 -0.00032578011223904132 0.031557746574340476 0 -0.00046576601007689732 0.031467817005590912 0 -0.00060817269246559802 0.031375043581918449 0 -0.00037792144385259734 0.030093302596590803 0 -0.00098265524484846445 0.030688357954518995 0 -0.0015973154466205626 0.028896441560784168 0 -0.0022227893049883317 0.028910511850215048 0 -0.0019237147774270585 0.029382514366642253 0 -0.00037792144385259734 0.030093302596590803 0 -0.0016669736555162157 0.029320113704049057 0 -0.0022393620411796087 0.029740833636589928 0 -0.0019237147774270585 0.029382514366642253 0 -0.0012831599091340747 0.029887189358936375 0 -0.00046576601007689732 0.031467817005590912 0 -0.00044783077442629932 0.031455961922009057 0 -0.00065664873001166561 0.031362982076262896 0 -0.00046576601007689732 0.031467817005590912 0 -0.00034816027689644829 0.031609924531863176 0 -0.00044783077442629932 0.031455961922009057 0 -0.00032578011223904132 0.031557746574340476 0 -0.00046576601007689732 0.031467817005590912 0 -0.00034816027689644829 0.031609924531863176 0 -0.00018590502077154441 0.031849735446642061 0 -0.00034816027689644829 0.031609924531863176 0 -0.00033741243432183234 0.031735643555863634 0 -0.00018590502077154441 0.031849735446642061 0 -0.00032578011223904132 0.031557746574340476 0 -0.00034816027689644829 0.031609924531863176 0 0.0004433606279846214 0.032088967985795962 0 -0.00037792144385259734 0.030093302596590803 0 -0.00034816027689644829 0.031609924531863176 0 -0.00033741243432183234 0.031735643555863634 0 -0.00044783077442629932 0.031455961922009057 0 -0.00051382780210942208 0.03164963999802272 0 -0.00033741243432183234 0.031735643555863634 0 -0.00044783077442629932 0.031455961922009057 0 -0.00054765336374158139 0.031398888213028234 0 -0.00044783077442629932 0.031455961922009057 0 -0.00045457853309203083 0.031379443600545225 0 -0.00044500463929872592 0.031464094166352187 0 -0.00044445649032047018 0.031427554627417975 0 -0.00044783077442629932 0.031455961922009057 0 -0.00065664873001166561 0.031362982076262896 0 -0.00042651776953020096 0.0315129693012976 0 -0.00046576601007689732 0.031467817005590912 0 -0.00065664873001166561 0.031362982076262896 0 -0.00060817269246559802 0.031375043581918449 0 -0.00065664873001166561 0.031362982076262896 0 -0.00070678247328284215 0.031785821036975824 0 -0.0012237828062086247 0.031332347636171994 0 -0.00070678247328284215 0.031785821036975824 0 -0.0011096013550311705 0.032035595123931691 0 -0.0012237828062086247 0.031332347636171994 0 -0.00065664873001166561 0.031362982076262896 0 -0.00070678247328284215 0.031785821036975824 0 -0.00042651776953020096 0.0315129693012976 0 -0.00044445649032047018 0.031427554627417975 0 -0.00023087770827584427 0.031908490365988862 0 -0.00070678247328284215 0.031785821036975824 0 -0.00042651776953020096 0.0315129693012976 0 -0.00024837315278498153 0.032291427769080172 0 -0.00056796733683391781 0.031290451223203626 0 -0.00045457853309203083 0.031379443600545225 0 -0.00043720730732134172 0.031231444943792441 0 -0.00024837315278498153 0.032291427769080172 0 -0.00066570734125592865 0.032348769108755962 0 -0.00050819952766265747 0.032607343178936501 0 -0.00070678247328284215 0.031785821036975824 0 -0.00024837315278498153 0.032291427769080172 0 -0.00066570734125592865 0.032348769108755962 0 -0.00070678247328284215 0.031785821036975824 0 -0.0011096013550311705 0.032035595123931691 0 -0.00066570734125592865 0.032348769108755962 0 -0.0011096013550311705 0.032035595123931691 0 -0.00066570734125592865 0.032348769108755962 0 -0.00094150216073630034 0.032664950515108676 0 -0.00094150216073630034 0.032664950515108676 0 -0.00050819952766265747 0.032607343178936501 0 -0.00018911768231702741 0.033116477728558517 0 -0.00066570734125592865 0.032348769108755962 0 -0.00094150216073630034 0.032664950515108676 0 -0.00050819952766265747 0.032607343178936501 0 -0.0019523897969144434 0.03263368117802351 0 -0.0019111560431530224 0.032570680054305377 0 -0.0019105314989854058 0.032563842666049198 0 -0.0019523897969144434 0.03263368117802351 0 -0.0020308101943969305 0.032734868650338277 0 -0.0019088783483153116 0.03249049452694782 0 -0.00078017706409170195 0.033752968161812939 0 -0.0041448503002857557 0.02862576739684437 0 -0.0012800147933200831 0.032843913945472925 0 -0.001558089653294649 0.031412816134478494 0 -0.0019111560431530224 0.032570680054305377 0 -0.0019105314989854058 0.032563842666049198 0 -0.0019110908890605498 0.03255964225366826 0 -0.00024837315278498153 0.032291427769080172 0 -0.00050819952766265747 0.032607343178936501 0 -0.00018911768231702741 0.033116477728558517 0 -0.00023087770827584427 0.031908490365988862 0 -0.001558089653294649 0.031412816134478494 0 -0.00051873534659232882 0.031058293773479816 0 -0.00043720730732134172 0.031231444943792441 0 -0.00044132387390175665 0.030996765385471574 0 -0.0095952767451503804 0.021714475313590182 0 -0.010635562813390467 0.021367604788157774 0 -0.0098678560065933556 0.022099723712979798 0 -0.0020308101943969305 0.032734868650338277 0 -0.0021763063291957499 0.032088983542204561 0 -0.0030326522378410171 0.032825852233692332 0 -0.0061354697060944955 0.027000948347372204 0 -0.0067560883945830177 0.027140295865388967 0 -0.0019523897969144434 0.03263368117802351 0 -0.0020308101943969305 0.032734868650338277 0 -0.0021763063291957499 0.032088983542204561 0 -0.0019523897969144434 0.03263368117802351 0 -0.0019111560431530224 0.032570680054305377 0 -0.0021763063291957499 0.032088983542204561 0 -0.0012800147933200831 0.032843913945472925 0 -0.0022372650578867917 0.032017795631213333 0 -0.0011096013550311705 0.032035595123931691 0 -0.00094150216073630034 0.032664950515108676 0 -0.0021763063291957499 0.032088983542204561 0 -0.0021763063291957499 0.032088983542204561 0 -0.0030992499532240801 0.031678469140702124 0 -0.0030326522378410171 0.032825852233692332 0 -0.0021763063291957499 0.032088983542204561 0 -0.002281932409525322 0.031268321241838253 0 -0.0030992499532240801 0.031678469140702124 0 -0.002281932409525322 0.031268321241838253 0 -0.0032194756735914316 0.030498602698122067 0 -0.0030992499532240801 0.031678469140702124 0 -0.0021763063291957499 0.032088983542204561 0 -0.002281932409525322 0.031268321241838253 0 -0.0012237828062086247 0.031332347636171994 0 -0.0011096013550311705 0.032035595123931691 0 -0.0021763063291957499 0.032088983542204561 0 -0.0012237828062086247 0.031332347636171994 0 -0.002281932409525322 0.031268321241838253 0 -0.0012237828062086247 0.031332347636171994 0 -0.0022731595283886816 0.030388593919327155 0 -0.00065664873001166561 0.031362982076262896 0 -0.0012237828062086247 0.031332347636171994 0 -0.00060817269246559802 0.031375043581918449 0 -0.0011500505457936409 0.031314646068347947 0 -0.00098265524484846445 0.030688357954518995 0 -0.0012237828062086247 0.031332347636171994 0 -0.0012831599091340747 0.029887189358936375 0 -0.0022731595283886816 0.030388593919327155 0 -0.0022393620411796087 0.029740833636589928 0 -0.0012831599091340747 0.029887189358936375 0 -0.0022731595283886816 0.030388593919327155 0 -0.002281932409525322 0.031268321241838253 0 -0.0022731595283886816 0.030388593919327155 0 -0.0032194756735914316 0.030498602698122067 0 -0.0022393620411796087 0.029740833636589928 0 -0.0022731595283886816 0.030388593919327155 0 -0.0030023666181628944 0.029838403663193326 0 -0.0022731595283886816 0.030388593919327155 0 -0.0030023666181628944 0.029838403663193326 0 -0.0032194756735914316 0.030498602698122067 0 -0.0030023666181628944 0.029838403663193326 0 -0.0032194756735914316 0.030498602698122067 0 -0.0037433111488067187 0.029912741179926934 0 -0.0032194756735914316 0.030498602698122067 0 -0.0040411744148307876 0.030341809743401792 0 -0.0040543815348680042 0.031050399545624635 0 -0.0032194756735914316 0.030498602698122067 0 -0.0040411744148307876 0.030341809743401792 0 -0.0037433111488067187 0.029912741179926934 0 -0.0040411744148307876 0.030341809743401792 0 -0.0037433111488067187 0.029912741179926934 0 -0.0044978419731929141 0.02980841040518438 0 -0.0047267007711152163 0.02923459921181603 0 -0.0044978419731929141 0.02980841040518438 0 -0.0050789638366992773 0.029964251996545371 0 -0.0044978419731929141 0.02980841040518438 0 -0.0050789638366992773 0.029964251996545371 0 -0.0047116845605020127 0.030438091371173606 0 -0.0050789638366992773 0.029964251996545371 0 -0.0047116845605020127 0.030438091371173606 0 -0.0054773640005978197 0.030398905016062558 0 -0.0040411744148307876 0.030341809743401792 0 -0.0047116845605020127 0.030438091371173606 0 -0.0040543815348680042 0.031050399545624635 0 -0.0040411744148307876 0.030341809743401792 0 -0.0044978419731929141 0.02980841040518438 0 -0.0047116845605020127 0.030438091371173606 0 -0.0047116845605020127 0.030438091371173606 0 -0.0040543815348680042 0.031050399545624635 0 -0.0051724149894419201 0.031397686053329016 0 -0.0040543815348680042 0.031050399545624635 0 -0.0051724149894419201 0.031397686053329016 0 -0.0039263679529601093 0.032019986358134127 0 -0.0047116845605020127 0.030438091371173606 0 -0.0054773640005978197 0.030398905016062558 0 -0.0051724149894419201 0.031397686053329016 0 -0.0032194756735914316 0.030498602698122067 0 -0.0040543815348680042 0.031050399545624635 0 -0.0030992499532240801 0.031678469140702124 0 -0.0040543815348680042 0.031050399545624635 0 -0.0030992499532240801 0.031678469140702124 0 -0.0039263679529601093 0.032019986358134127 0 -0.010939595109890949 0.025879953091785465 0 -0.012821024533646124 0.027083349232340313 0 -0.014019972244705586 0.023420316857442797 0 -0.0095441608650568971 0.028022695976420996 0 -0.011110235278509422 0.024520557919225795 0 -0.011183408673828076 0.026363232312753809 0 -0.010648845893369414 0.030156133890606531 0 -0.014487985088241288 0.027092757703377237 0 -0.0095441608650568971 0.028022695976420996 0 -0.016394050776828116 0.023536609860531413 0 -0.011063833529315743 0.03189444040518459 0 -0.0075706916728588043 0.029606838296127865 0 -0.011183408673828076 0.026363232312753809 0 -0.010648845893369414 0.030156133890606531 0 -0.0087350241727653447 0.028932319871142767 0 -0.0066984294545847914 0.030035052590343263 0 -0.0063147416421596098 0.030358933970911703 0 -0.0061237106676646936 0.029666299101661603 0 -0.0066984294545847914 0.030035052590343263 0 -0.0063147416421596098 0.030358933970911703 0 -0.0073807900669085316 0.030438406396201649 0 -0.0095441608650568971 0.028022695976420996 0 -0.0075706916728588043 0.029606838296127865 0 -0.0047267007711152163 0.02923459921181603 0 -0.0050789638366992773 0.029964251996545371 0 -0.0059301912462221516 0.029941347354285896 0 -0.0075706916728588043 0.029606838296127865 0 -0.0056948263698678083 0.030606468863207462 0 -0.0063147416421596098 0.030358933970911703 0 -0.0061237106676646936 0.029666299101661603 0 -0.0054773640005978197 0.030398905016062558 0 -0.0050789638366992773 0.029964251996545371 0 -0.0059301912462221516 0.029941347354285896 0 -0.0054773640005978197 0.030398905016062558 0 -0.0054773640005978197 0.030398905016062558 0 -0.0051724149894419201 0.031397686053329016 0 -0.0062128914939764048 0.030901520770948859 0 -0.0051724149894419201 0.031397686053329016 0 -0.0061657579070879317 0.031594787197981956 0 -0.0062128914939764048 0.030901520770948859 0 -0.0061657579070879317 0.031594787197981956 0 -0.0062128914939764048 0.030901520770948859 0 -0.0067195174645616499 0.031131850083858333 0 -0.0063147416421596098 0.030358933970911703 0 -0.0054773640005978197 0.030398905016062558 0 -0.0062128914939764048 0.030901520770948859 0 -0.0067195174645616499 0.031131850083858333 0 -0.0073807900669085316 0.030438406396201649 0 -0.0071095392273104688 0.031511664220305054 0 -0.011110235278509422 0.024520557919225795 0 -0.0066128971599910278 0.033088179920443814 0 -0.0063147416421596098 0.030358933970911703 0 -0.0062128914939764048 0.030901520770948859 0 -0.0073807900669085316 0.030438406396201649 0 -0.0062128914939764048 0.030901520770948859 0 -0.0067195174645616499 0.031131850083858333 0 -0.0073807900669085316 0.030438406396201649 0 -0.0061657579070879317 0.031594787197981956 0 -0.0067195174645616499 0.031131850083858333 0 -0.0071095392273104688 0.031511664220305054 0 -0.0061657579070879317 0.031594787197981956 0 -0.0071095392273104688 0.031511664220305054 0 -0.0070387292360038151 0.032217478738928676 0 -0.0095578099117479571 0.026980178311652604 0 -0.008527218358539675 0.026664210219474762 0 -0.0061657579070879317 0.031594787197981956 0 -0.0070387292360038151 0.032217478738928676 0 -0.0048644574396984382 0.03259529001109035 0 -0.0051724149894419201 0.031397686053329016 0 -0.0061657579070879317 0.031594787197981956 0 -0.0048644574396984382 0.03259529001109035 0 -0.012928872858831602 0.021715914295765314 0 -0.011831461170571283 0.020965102758066699 0 -0.011627016306203263 0.02208741075162525 0 -0.01323682817677445 0.020482684908962105 0 -0.012928872858831602 0.021715914295765314 0 -0.011831461170571283 0.020965102758066699 0 -0.01323682817677445 0.020482684908962105 0 -0.012928872858831602 0.021715914295765314 0 -0.014434271647255675 0.021243912442131346 0 -0.01581373847855971 0.018359755397749401 0 -0.016400221475174753 0.018380532310333989 0 -0.0030992499532240801 0.031678469140702124 0 -0.0039263679529601093 0.032019986358134127 0 -0.0030326522378410171 0.032825852233692332 0 -0.0039263679529601093 0.032019986358134127 0 -0.0048644574396984382 0.03259529001109035 0 -0.0030326522378410171 0.032825852233692332 0 -0.0051724149894419201 0.031397686053329016 0 -0.0039263679529601093 0.032019986358134127 0 -0.0048644574396984382 0.03259529001109035 0 -0.011831461170571283 0.020965102758066699 0 -0.01095036637030492 0.021928470122364537 0 -0.011627016306203263 0.02208741075162525 0 -0.008527218358539675 0.026664210219474762 0 -0.0067560883945830177 0.027140295865388967 0 -0.011831461170571283 0.020965102758066699 0 -0.010635562813390467 0.021367604788157774 0 -0.01095036637030492 0.021928470122364537 0 -0.015205626117406071 0.018727851178321396 0 -0.013921794851363705 0.017350476874930052 0 -0.01095036637030492 0.021928470122364537 0 -0.011627016306203263 0.02208741075162525 0 -0.010490204727963071 0.022404132011770585 0 -0.010635562813390467 0.021367604788157774 0 -0.01095036637030492 0.021928470122364537 0 -0.01036753451045461 0.022150638810451064 0 -0.018609204927050909 0.015023139216175381 0 -0.018622488939701958 0.014981100767191816 0 -0.018647751360268468 0.015017205216489343 0 -0.016691089708542099 0.012821617946646456 0 -0.01630201212095533 0.012223618573784033 0 -0.016259869058138341 0.012052680714491705 0 -0.017945585467637276 0.013274648392101431 0 -0.013921794851363705 0.017350476874930052 0 -0.018609204927050909 0.015023139216175381 0 -0.018622488939701958 0.014981100767191816 0 -0.018590567319116371 0.015008561123849795 0 -0.018622488939701958 0.014981100767191816 0 -0.01862485875721728 0.01494966961985336 0 -0.018590567319116371 0.015008561123849795 0 -0.018658356163088342 0.015091444900458892 0 -0.018647751360268468 0.015017205216489343 0 -0.01868606504231601 0.015043512658258384 0 -0.018658356163088342 0.015091444900458892 0 -0.018609204927050909 0.015023139216175381 0 -0.018647751360268468 0.015017205216489343 0 -0.01581373847855971 0.018359755397749401 0 -0.015205626117406071 0.018727851178321396 0 -0.018622488939701958 0.014981100767191816 0 -0.018647751360268468 0.015017205216489343 0 -0.01864846368557941 0.014933208185830497 0 -0.018647751360268468 0.015017205216489343 0 -0.01864846368557941 0.014933208185830497 0 -0.01868606504231601 0.015043512658258384 0 -0.01864846368557941 0.014933208185830497 0 -0.018768895605577329 0.014846411049403069 0 -0.01868606504231601 0.015043512658258384 0 -0.01864846368557941 0.014933208185830497 0 -0.018614585026459022 0.014921259426744826 0 -0.018616086990501494 0.014856482460893746 0 -0.018614585026459022 0.014921259426744826 0 -0.018584445299159154 0.014884947996489933 0 -0.018616086990501494 0.014856482460893746 0 -0.01864846368557941 0.014933208185830497 0 -0.018768895605577329 0.014846411049403069 0 -0.018616086990501494 0.014856482460893746 0 -0.016691089708542099 0.012821617946646456 0 -0.016496554318205799 0.013343518319004299 0 -0.01621029500017326 0.012985042040612479 0 -0.018622488939701958 0.014981100767191816 0 -0.01862485875721728 0.01494966961985336 0 -0.018614585026459022 0.014921259426744826 0 -0.018622488939701958 0.014981100767191816 0 -0.01864846368557941 0.014933208185830497 0 -0.018614585026459022 0.014921259426744826 0 -0.01862485875721728 0.01494966961985336 0 -0.018614585026459022 0.014921259426744826 0 -0.018584445299159154 0.014884947996489933 0 -0.017945585467637276 0.013274648392101431 0 -0.017837103068958037 0.014336950711109546 0 -0.016691089708542099 0.012821617946646456 0 -0.017109883511578838 0.013561328251471851 0 -0.016496554318205799 0.013343518319004299 0 -0.016496554318205799 0.013343518319004299 0 -0.015968454012429963 0.0133329274075287 0 -0.016168458762116259 0.013787093717106574 0 -0.015968454012429963 0.0133329274075287 0 -0.016168458762116259 0.013787093717106574 0 -0.015861184088380241 0.013680457896924729 0 -0.016496554318205799 0.013343518319004299 0 -0.015968454012429963 0.0133329274075287 0 -0.01621029500017326 0.012985042040612479 0 -0.016691089708542099 0.012821617946646456 0 -0.01621029500017326 0.012985042040612479 0 -0.016066796141460501 0.012542202616494792 0 -0.015968454012429963 0.0133329274075287 0 -0.01621029500017326 0.012985042040612479 0 -0.015813550485708632 0.012882777311949586 0 -0.01621029500017326 0.012985042040612479 0 -0.015813550485708632 0.012882777311949586 0 -0.016066796141460501 0.012542202616494792 0 -0.015677220791929115 0.012554707564592019 0 -0.015813550485708632 0.012882777311949586 0 -0.016066796141460501 0.012542202616494792 0 -0.015677220791929115 0.012554707564592019 0 -0.015384012171099826 0.012842338302956939 0 -0.015345088254410008 0.012309659448646282 0 -0.015677220791929115 0.012554707564592019 0 -0.015813550485708632 0.012882777311949586 0 -0.015384012171099826 0.012842338302956939 0 -0.015813550485708632 0.012882777311949586 0 -0.015384012171099826 0.012842338302956939 0 -0.015614300153230449 0.013141044852017161 0 -0.015384012171099826 0.012842338302956939 0 -0.015295173244057873 0.013262423883520186 0 -0.015614300153230449 0.013141044852017161 0 -0.015295173244057873 0.013262423883520186 0 -0.015614300153230449 0.013141044852017161 0 -0.015528917082738753 0.013593250435943234 0 -0.015968454012429963 0.0133329274075287 0 -0.015813550485708632 0.012882777311949586 0 -0.015614300153230449 0.013141044852017161 0 -0.015968454012429963 0.0133329274075287 0 -0.015528917082738753 0.013593250435943234 0 -0.015861184088380241 0.013680457896924729 0 -0.015968454012429963 0.0133329274075287 0 -0.015614300153230449 0.013141044852017161 0 -0.015528917082738753 0.013593250435943234 0 -0.015295173244057873 0.013262423883520186 0 -0.015528917082738753 0.013593250435943234 0 -0.015071927726034726 0.013475881051893309 0 -0.015528917082738753 0.013593250435943234 0 -0.015071927726034726 0.013475881051893309 0 -0.015153173561174947 0.013763261597068409 0 -0.015071927726034726 0.013475881051893309 0 -0.014679568603242193 0.013371508103243782 0 -0.014772021670856563 0.013759052496829413 0 -0.014679568603242193 0.013371508103243782 0 -0.014953685818402018 0.013099557732259966 0 -0.014464102716927059 0.012998359579188273 0 -0.015071927726034726 0.013475881051893309 0 -0.014679568603242193 0.013371508103243782 0 -0.014953685818402018 0.013099557732259966 0 -0.015295173244057873 0.013262423883520186 0 -0.015071927726034726 0.013475881051893309 0 -0.014953685818402018 0.013099557732259966 0 -0.014679568603242193 0.013371508103243782 0 -0.014216202230243256 0.013473898387899747 0 -0.014772021670856563 0.013759052496829413 0 -0.014679568603242193 0.013371508103243782 0 -0.014216202230243256 0.013473898387899747 0 -0.014464102716927059 0.012998359579188273 0 -0.0138324221280068 0.012739038208923793 0 -0.014216202230243256 0.013473898387899747 0 -0.014464102716927059 0.012998359579188273 0 -0.0138324221280068 0.012739038208923793 0 -0.014464102716927059 0.012998359579188273 0 -0.014554905384788347 0.012169988436386819 0 -0.014464102716927059 0.012998359579188273 0 -0.014932544303042831 0.012692106010978588 0 -0.014554905384788347 0.012169988436386819 0 -0.015384012171099826 0.012842338302956939 0 -0.014953685818402018 0.013099557732259966 0 -0.014932544303042831 0.012692106010978588 0 -0.015384012171099826 0.012842338302956939 0 -0.015295173244057873 0.013262423883520186 0 -0.014953685818402018 0.013099557732259966 0 -0.014953685818402018 0.013099557732259966 0 -0.014464102716927059 0.012998359579188273 0 -0.014932544303042831 0.012692106010978588 0 -0.015384012171099826 0.012842338302956939 0 -0.014932544303042831 0.012692106010978588 0 -0.015345088254410008 0.012309659448646282 0 -0.014932544303042831 0.012692106010978588 0 -0.014554905384788347 0.012169988436386819 0 -0.015345088254410008 0.012309659448646282 0 -0.0088169451189143207 0.022517281583610504 0 -0.0092584394322442493 0.022191758233953768 0 -0.0099162125083847464 0.022535404249511476 0 -0.011980210275783564 0.01731718012260907 0 -0.013685415209857292 0.014968040953296201 0 -0.0088169451189143207 0.022517281583610504 0 -0.008736544078833312 0.022273597450797711 0 -0.0092584394322442493 0.022191758233953768 0 -0.007946263628216441 0.022462189644040953 0 -0.0088169451189143207 0.022517281583610504 0 -0.0084944641907405711 0.02230876680508102 0 -0.0084632898709575827 0.0199202959222976 0 -0.011980210275783564 0.01731718012260907 0 -0.0088169451189143207 0.022517281583610504 0 -0.0084944641907405711 0.02230876680508102 0 -0.008736544078833312 0.022273597450797711 0 -0.0049632609292513744 0.025324772106059143 0 -0.00362637038744275 0.025394376670938822 0 -0.0035981033233585097 0.025741386154042301 0 -0.0084944641907405711 0.02230876680508102 0 -0.0084913671290462196 0.022151359401905962 0 -0.008736544078833312 0.022273597450797711 0 -0.0028290663398886956 0.028212010008429694 0 -0.00380699081996283 0.028106560111335034 0 -0.0063033809797429794 0.023220490711260165 0 -0.0054080029610253655 0.025464867192843271 0 -0.0054080029610253655 0.025464867192843271 0 -0.00380699081996283 0.028106560111335034 0 -0.0084913671290462196 0.022151359401905962 0 -0.008736544078833312 0.022273597450797711 0 -0.0086707382379421199 0.022021589815890794 0 -0.0041448503002857557 0.02862576739684437 0 -0.00380699081996283 0.028106560111335034 0 -0.0054080029610253655 0.025464867192843271 0 -0.0041448503002857557 0.02862576739684437 0 -0.0028290663398886956 0.028212010008429694 0 -0.001558089653294649 0.031412816134478494 0 -0.0030300801834406079 0.028783449489628219 0 -0.0027009120558669198 0.02889121463381613 0 -0.0026886240701775449 0.029040817677376443 0 -0.0019105314989854058 0.032563842666049198 0 -0.0019157527709375084 0.032546198991015497 0 -0.0019110908890605498 0.03255964225366826 0 -0.0042207751158068203 0.027936210211858416 0 -0.0043101359771195048 0.027892747615456227 0 -0.0042231981158558519 0.027908232900287024 0 -0.00380699081996283 0.028106560111335034 0 -0.001558089653294649 0.031412816134478494 0 -0.0061354697060944955 0.027000948347372204 0 -0.0041448503002857557 0.02862576739684437 0 -0.0095952767451503804 0.021714475313590182 0 -0.0086707382379421199 0.022021589815890794 0 -0.0092584394322442493 0.022191758233953768 0 -0.008736544078833312 0.022273597450797711 0 -0.0086707382379421199 0.022021589815890794 0 -0.0092584394322442493 0.022191758233953768 0 -0.0092584394322442493 0.022191758233953768 0 -0.0098678560065933556 0.022099723712979798 0 -0.0099162125083847464 0.022535404249511476 0 -0.0095952767451503804 0.021714475313590182 0 -0.0092584394322442493 0.022191758233953768 0 -0.0098678560065933556 0.022099723712979798 0 -0.010635562813390467 0.021367604788157774 0 -0.0098678560065933556 0.022099723712979798 0 -0.01036753451045461 0.022150638810451064 0 -0.01095036637030492 0.021928470122364537 0 -0.01036753451045461 0.022150638810451064 0 -0.010490204727963071 0.022404132011770585 0 -0.013285758441528272 0.020308276831609632 0 -0.013921794851363705 0.017350476874930052 0 -0.0098678560065933556 0.022099723712979798 0 -0.01036753451045461 0.022150638810451064 0 -0.0099162125083847464 0.022535404249511476 0 -0.01036753451045461 0.022150638810451064 0 -0.010478989577292035 0.02235484891012891 0 -0.0099162125083847464 0.022535404249511476 0 -0.016821189986681792 0.012419881058760962 0 -0.013685415209857292 0.014968040953296201 0 -0.016691089708542099 0.012821617946646456 0 -0.01630201212095533 0.012223618573784033 0 -0.016066796141460501 0.012542202616494792 0 -0.013921794851363705 0.017350476874930052 0 -0.013685415209857292 0.014968040953296201 0 -0.01630201212095533 0.012223618573784033 0 -0.016259869058138341 0.012052680714491705 0 -0.015616057264405566 0.012295253455700955 0 -0.01630201212095533 0.012223618573784033 0 -0.016066796141460501 0.012542202616494792 0 -0.015757731247835301 0.012190201019774721 0 -0.015677220791929115 0.012554707564592019 0 -0.016066796141460501 0.012542202616494792 0 -0.015757731247835301 0.012190201019774721 0 -0.014554905384788347 0.012169988436386819 0 -0.015345088254410008 0.012309659448646282 0 -0.015751607650237469 0.012182473246894325 0 -0.015677220791929115 0.012554707564592019 0 -0.015345088254410008 0.012309659448646282 0 -0.015757731247835301 0.012190201019774721 0 -0.016050801140217591 0.012744982896630216 0 -0.013685415209857292 0.014968040953296201 0 -0.019071641559632577 0.014918249308487791 0 -0.019080068693995873 0.014877836618996372 0 -0.019067380378481404 0.014909539476659191 0 -0.019071641559632577 0.014918249308487791 0 -0.019067380378481404 0.014909539476659191 0 -0.019104241117136229 0.01490947103483861 0 -0.019071641559632577 0.014918249308487791 0 -0.019080068693995873 0.014877836618996372 0 -0.019076972582887951 0.014846884023358807 0 -0.019080068693995873 0.014877836618996372 0 -0.019098903388756392 0.01492383816954352 0 -0.019067380378481404 0.014909539476659191 0 -0.019098903388756392 0.01492383816954352 0 -0.019067380378481404 0.014909539476659191 0 -0.019048853615007175 0.014969941418599822 0 -0.019067380378481404 0.014909539476659191 0 -0.019058904247294541 0.014935481009544014 0 -0.019048853615007175 0.014969941418599822 0 -0.019067380378481404 0.014909539476659191 0 -0.019080548003534897 0.014922839230710408 0 -0.019104241117136229 0.01490947103483861 0 -0.019067380378481404 0.014909539476659191 0 -0.019058904247294541 0.014935481009544014 0 -0.019080548003534897 0.014922839230710408 0 -0.019058904247294541 0.014935481009544014 0 -0.019080548003534897 0.014922839230710408 0 -0.019045995064018977 0.014947575812440186 0 -0.019141184320094731 0.01491792080649296 0 -0.019104241117136229 0.01490947103483861 0 -0.019221877838405094 0.014890135583907537 0 -0.019080548003534897 0.014922839230710408 0 -0.019098448820851856 0.014931432074751699 0 -0.019141184320094731 0.01491792080649296 0 -0.019080548003534897 0.014922839230710408 0 -0.019098448820851856 0.014931432074751699 0 -0.019045995064018977 0.014947575812440186 0 -0.019098448820851856 0.014931432074751699 0 -0.019141184320094731 0.01491792080649296 0 -0.019219132149662893 0.014925110396523559 0 -0.019080548003534897 0.014922839230710408 0 -0.019141184320094731 0.01491792080649296 0 -0.019104241117136229 0.01490947103483861 0 -0.019199129530029963 0.014908997670221247 0 -0.019219132149662893 0.014925110396523559 0 -0.019291692884073973 0.015048502656596812 0 -0.019199129530029963 0.014908997670221247 0 -0.019291692884073973 0.015048502656596812 0 -0.019150907851347623 0.014902168889571582 0 -0.019141184320094731 0.01491792080649296 0 -0.019219132149662893 0.014925110396523559 0 -0.019221877838405094 0.014890135583907537 0 -0.019199129530029963 0.014908997670221247 0 -0.019219132149662893 0.014925110396523559 0 -0.019221877838405094 0.014890135583907537 0 -0.019199129530029963 0.014908997670221247 0 -0.019221877838405094 0.014890135583907537 0 -0.019150907851347623 0.014902168889571582 0 -0.019221877838405094 0.014890135583907537 0 -0.019250369544280988 0.014792414354904505 0 -0.019150907851347623 0.014902168889571582 0 -0.025115990990677031 0.011623383934584388 0 -0.025524019734614028 0.011917416947153399 0 -0.025796153652578278 0.011574192604423029 0 -0.025115990990677031 0.011623383934584388 0 -0.025752241248163339 0.010865856934350545 0 -0.025796153652578278 0.011574192604423029 0 -0.021786110980819721 0.013205018954229009 0 -0.025202603761422446 0.013694887685670032 0 -0.019071641559632577 0.014918249308487791 0 -0.019104241117136229 0.01490947103483861 0 -0.019221877838405094 0.014890135583907537 0 -0.019370722388426052 0.014756099463128166 0 -0.019221877838405094 0.014890135583907537 0 -0.019250369544280988 0.014792414354904505 0 -0.019220630030491542 0.014836591073851657 0 -0.019219794530317885 0.01488317044697114 0 -0.019370722388426052 0.014756099463128166 0 -0.019250369544280988 0.014792414354904505 0 -0.019383383566992294 0.014729692233422876 0 -0.025115990990677031 0.011623383934584388 0 -0.025258845110826576 0.012252646185092959 0 -0.024531886354140643 0.012156453598663368 0 -0.021786110980819721 0.013205018954229009 0 -0.022006913510804825 0.013429337177549098 0 -0.025115990990677031 0.011623383934584388 0 -0.025524019734614028 0.011917416947153399 0 -0.025258845110826576 0.012252646185092959 0 -0.025258845110826576 0.012252646185092959 0 -0.025805585775623349 0.012756244909118905 0 -0.024811489019027751 0.01279364616089145 0 -0.025258845110826576 0.012252646185092959 0 -0.024531886354140643 0.012156453598663368 0 -0.024811489019027751 0.01279364616089145 0 -0.019383383566992294 0.014729692233422876 0 -0.019293653368661619 0.014722547728366597 0 -0.019355193332572077 0.014826659461876878 0 -0.022006913510804825 0.013429337177549098 0 -0.021608203234414404 0.013681666258842743 0 -0.019370722388426052 0.014756099463128166 0 -0.019383383566992294 0.014729692233422876 0 -0.019293653368661619 0.014722547728366597 0 -0.019220630030491542 0.014836591073851657 0 -0.019183195228450689 0.01478929452858278 0 -0.019293653368661619 0.014722547728366597 0 -0.019233614984364041 0.014852973158376082 0 -0.019355193332572077 0.014826659461876878 0 -0.019293653368661619 0.014722547728366597 0 -0.019074492257681888 0.014821582633303798 0 -0.019233614984364041 0.014852973158376082 0 -0.019183195228450689 0.01478929452858278 0 -0.019081914947492826 0.014820557088712686 0 -0.019074492257681888 0.014821582633303798 0 -0.019003505019856922 0.014786168429854094 0 -0.019073884765002099 0.014831794595034932 0 -0.019076972582887951 0.014846884023358807 0 -0.019074492257681888 0.014821582633303798 0 -0.019073884765002099 0.014831794595034932 0 -0.018768895605577329 0.014846411049403069 0 -0.018616086990501494 0.014856482460893746 0 -0.018899903720769485 0.014857520482724563 0 -0.019074492257681888 0.014821582633303798 0 -0.018768895605577329 0.014846411049403069 0 -0.018899903720769485 0.014857520482724563 0 -0.019074492257681888 0.014821582633303798 0 -0.018768895605577329 0.014846411049403069 0 -0.019003505019856922 0.014786168429854094 0 -0.018772269156240012 0.014860857654117215 0 -0.018805559471344553 0.01491224304021398 0 -0.018768895605577329 0.014846411049403069 0 -0.01868606504231601 0.015043512658258384 0 -0.018612150576209591 0.015025113217344031 0 -0.01868606504231601 0.015043512658258384 0 -0.018612150576209591 0.015025113217344031 0 -0.018635509488544106 0.015162388340228072 0 -0.018612150576209591 0.015025113217344031 0 -0.018635509488544106 0.015162388340228072 0 -0.018584892629235173 0.015215903564636462 0 -0.01868606504231601 0.015043512658258384 0 -0.018635509488544106 0.015162388340228072 0 -0.018646782366428166 0.015224499706609685 0 -0.018658356163088342 0.015091444900458892 0 -0.01868606504231601 0.015043512658258384 0 -0.018646782366428166 0.015224499706609685 0 -0.019080068693995873 0.014877836618996372 0 -0.019073884765002099 0.014831794595034932 0 -0.019106396756770613 0.014869845309434944 0 -0.019080068693995873 0.014877836618996372 0 -0.019076972582887951 0.014846884023358807 0 -0.019073884765002099 0.014831794595034932 0 -0.018805559471344553 0.01491224304021398 0 -0.018850772820358654 0.015045309402571004 0 -0.019003505019856922 0.014786168429854094 0 -0.019073884765002099 0.014831794595034932 0 -0.019106396756770613 0.014869845309434944 0 -0.018635509488544106 0.015162388340228072 0 -0.018584892629235173 0.015215903564636462 0 -0.018628210851680062 0.015272898898539188 0 -0.019080068693995873 0.014877836618996372 0 -0.019098903388756392 0.01492383816954352 0 -0.019106396756770613 0.014869845309434944 0 -0.019098903388756392 0.01492383816954352 0 -0.019106396756770613 0.014869845309434944 0 -0.019163078856836446 0.015004591766643075 0 -0.018584892629235173 0.015215903564636462 0 -0.018663821376876919 0.015475859497620781 0 -0.018656722817305765 0.015399705186085917 0 -0.018850772820358654 0.015045309402571004 0 -0.018915259745726536 0.015233287275366466 0 -0.018584892629235173 0.015215903564636462 0 -0.018656722817305765 0.015399705186085917 0 -0.018628210851680062 0.015272898898539188 0 -0.018656722817305765 0.015399705186085917 0 -0.018628210851680062 0.015272898898539188 0 -0.018627944436723727 0.015339659930978349 0 -0.018361896662551905 0.015797406806385476 0 -0.017834637874229203 0.017056856685514755 0 -0.018620131762705446 0.015592471645494502 0 -0.018635786925101122 0.015553898440137817 0 -0.018549369893037914 0.015596289713027321 0 -0.017834637874229203 0.017056856685514755 0 -0.019049654254714523 0.015572313140578841 0 -0.018656722817305765 0.015399705186085917 0 -0.018748205815061786 0.015465560003297237 0 -0.018676324526668495 0.015506107026306039 0 -0.018620131762705446 0.015592471645494502 0 -0.018635786925101122 0.015553898440137817 0 -0.018676324526668495 0.015506107026306039 0 -0.018635786925101122 0.015553898440137817 0 -0.018676324526668495 0.015506107026306039 0 -0.018710132807744841 0.015501101337156419 0 -0.018676324526668495 0.015506107026306039 0 -0.018781246227219803 0.015444636750141582 0 -0.0187768783519764 0.015460754840963549 0 -0.018663821376876919 0.015475859497620781 0 -0.018676324526668495 0.015506107026306039 0 -0.018781246227219803 0.015444636750141582 0 -0.018663821376876919 0.015475859497620781 0 -0.018656722817305765 0.015399705186085917 0 -0.018676324526668495 0.015506107026306039 0 -0.018628210851680062 0.015272898898539188 0 -0.018627944436723727 0.015339659930978349 0 -0.018646782366428166 0.015224499706609685 0 -0.018635509488544106 0.015162388340228072 0 -0.018628210851680062 0.015272898898539188 0 -0.018646782366428166 0.015224499706609685 0 -0.016030553128333937 0.020667738552632424 0 -0.014434271647255675 0.021243912442131346 0 -0.014835356608319476 0.019956954892250862 0 -0.017834637874229203 0.017056856685514755 0 -0.015613791063656141 0.021121393682677295 0 -0.017834637874229203 0.017056856685514755 0 -0.016400221475174753 0.018380532310333989 0 -0.0095578099117479571 0.026980178311652604 0 -0.015613791063656141 0.021121393682677295 0 -0.0071095392273104688 0.031511664220305054 0 -0.0070387292360038151 0.032217478738928676 0 -0.011754405410656907 0.030911544788765666 0 -0.01323682817677445 0.020482684908962105 0 -0.014434271647255675 0.021243912442131346 0 -0.014835356608319476 0.019956954892250862 0 -0.011110235278509422 0.024520557919225795 0 -0.015613791063656141 0.021121393682677295 0 -0.0080503251821335761 0.028544197620823063 0 -0.0071095392273104688 0.031511664220305054 0 -0.011754405410656907 0.030911544788765666 0 -0.01732771309979109 0.015746193683347717 0 -0.017951020599769722 0.016037202577386698 0 -0.017909765785360326 0.015581828823462988 0 -0.017951020599769722 0.016037202577386698 0 -0.018288736938122777 0.015566078337543093 0 -0.018639877624557134 0.015556621510511499 0 -0.017951020599769722 0.016037202577386698 0 -0.018288736938122777 0.015566078337543093 0 -0.017909765785360326 0.015581828823462988 0 -0.018288736938122777 0.015566078337543093 0 -0.018164500658704324 0.015390786167689604 0 -0.017909765785360326 0.015581828823462988 0 -0.018288736938122777 0.015566078337543093 0 -0.018164500658704324 0.015390786167689604 0 -0.018433881264166282 0.015299124234993824 0 -0.018164500658704324 0.015390786167689604 0 -0.018433881264166282 0.015299124234993824 0 -0.01819368914247985 0.015187357989466056 0 -0.018164500658704324 0.015390786167689604 0 -0.017907966164562049 0.015349819224555609 0 -0.01819368914247985 0.015187357989466056 0 -0.018164500658704324 0.015390786167689604 0 -0.017907966164562049 0.015349819224555609 0 -0.017909765785360326 0.015581828823462988 0 -0.01732771309979109 0.015746193683347717 0 -0.017909765785360326 0.015581828823462988 0 -0.017695662686804128 0.015386126937953182 0 -0.011110235278509422 0.024520557919225795 0 -0.016394050776828116 0.023536609860531413 0 -0.01732771309979109 0.015746193683347717 0 -0.017695662686804128 0.015386126937953182 0 -0.017507799934220723 0.015249292716611096 0 -0.017907966164562049 0.015349819224555609 0 -0.017695662686804128 0.015386126937953182 0 -0.017571420822403042 0.015199642918706555 0 -0.017907966164562049 0.015349819224555609 0 -0.017909765785360326 0.015581828823462988 0 -0.017695662686804128 0.015386126937953182 0 -0.018710132807744841 0.015501101337156419 0 -0.018639877624557134 0.015556621510511499 0 -0.018726904487109116 0.015393386525014634 0 -0.018814543366759827 0.015410135700233868 0 -0.018710132807744841 0.015501101337156419 0 -0.018726904487109116 0.015393386525014634 0 -0.018814543366759827 0.015410135700233868 0 -0.0187768783519764 0.015460754840963549 0 -0.018872773154785888 0.015418492832311961 0 -0.018814543366759827 0.015410135700233868 0 -0.0187768783519764 0.015460754840963549 0 -0.018710132807744841 0.015501101337156419 0 -0.018676324526668495 0.015506107026306039 0 -0.0187768783519764 0.015460754840963549 0 -0.018710132807744841 0.015501101337156419 0 -0.018635786925101122 0.015553898440137817 0 -0.018710132807744841 0.015501101337156419 0 -0.018639877624557134 0.015556621510511499 0 -0.015613791063656141 0.021121393682677295 0 -0.019957732382648034 0.014079712768923306 0 -0.018635786925101122 0.015553898440137817 0 -0.018549369893037914 0.015596289713027321 0 -0.018639877624557134 0.015556621510511499 0 -0.018288736938122777 0.015566078337543093 0 -0.018639877624557134 0.015556621510511499 0 -0.018569109541644483 0.015409870235554681 0 -0.018639877624557134 0.015556621510511499 0 -0.018569109541644483 0.015409870235554681 0 -0.018726904487109116 0.015393386525014634 0 -0.018433881264166282 0.015299124234993824 0 -0.018737295301443368 0.015241463414878018 0 -0.01819368914247985 0.015187357989466056 0 -0.018288736938122777 0.015566078337543093 0 -0.018569109541644483 0.015409870235554681 0 -0.018433881264166282 0.015299124234993824 0 -0.018772811261925558 0.015990724310395225 0 -0.019068121750798975 0.018445078725580422 0 -0.018569109541644483 0.015409870235554681 0 -0.018433881264166282 0.015299124234993824 0 -0.018673915851163535 0.015245561585312617 0 -0.019068121750798975 0.018445078725580422 0 -0.022453502856996488 0.018033696983231071 0 -0.018569109541644483 0.015409870235554681 0 -0.018673915851163535 0.015245561585312617 0 -0.018726904487109116 0.015393386525014634 0 -0.018673915851163535 0.015245561585312617 0 -0.018777381028445728 0.015322583126054289 0 -0.018798659309180163 0.015270966416668846 0 -0.018673915851163535 0.015245561585312617 0 -0.018726904487109116 0.015393386525014634 0 -0.018777381028445728 0.015322583126054289 0 -0.018814543366759827 0.015410135700233868 0 -0.018726904487109116 0.015393386525014634 0 -0.018822868415831907 0.015339502093594344 0 -0.018726904487109116 0.015393386525014634 0 -0.018822868415831907 0.015339502093594344 0 -0.018777381028445728 0.015322583126054289 0 -0.018822868415831907 0.015339502093594344 0 -0.018777381028445728 0.015322583126054289 0 -0.018798659309180163 0.015270966416668846 0 -0.022453502856996488 0.018033696983231071 0 -0.024720515074236941 0.014091799880880006 0 -0.022453502856996488 0.018033696983231071 0 -0.026632370210647065 0.018952996529644661 0 -0.026782433629058754 0.01405930389841516 0 -0.027001456465121438 0.014182510758484552 0 -0.027147081498605462 0.014359759335462898 0 -0.026782433629058754 0.01405930389841516 0 -0.027001456465121438 0.014182510758484552 0 -0.027191537262288634 0.01418283720054505 0 -0.026782433629058754 0.01405930389841516 0 -0.027191537262288634 0.01418283720054505 0 -0.027437778998686387 0.014106640187914446 0 -0.027191537262288634 0.01418283720054505 0 -0.0271868622261177 0.014319789728331105 0 -0.02736492434458395 0.014230655458620473 0 -0.018822868415831907 0.015339502093594344 0 -0.018798659309180163 0.015270966416668846 0 -0.018940092240774784 0.015330187430329092 0 -0.018814543366759827 0.015410135700233868 0 -0.018822868415831907 0.015339502093594344 0 -0.018940092240774784 0.015330187430329092 0 -0.026470053211367073 0.014772557726533967 0 -0.024720515074236941 0.014091799880880006 0 -0.027001456465121438 0.014182510758484552 0 -0.027191537262288634 0.01418283720054505 0 -0.0271868622261177 0.014319789728331105 0 -0.027437778998686387 0.014106640187914446 0 -0.027554327333000436 0.014220548124891652 0 -0.02779831445719063 0.014199851464384973 0 -0.027191537262288634 0.01418283720054505 0 -0.027437778998686387 0.014106640187914446 0 -0.02736492434458395 0.014230655458620473 0 -0.027437778998686387 0.014106640187914446 0 -0.02736492434458395 0.014230655458620473 0 -0.027554327333000436 0.014220548124891652 0 -0.02736492434458395 0.014230655458620473 0 -0.027554327333000436 0.014220548124891652 0 -0.027467662089104953 0.014316271787387225 0 -0.0271868622261177 0.014319789728331105 0 -0.02736492434458395 0.014230655458620473 0 -0.027467662089104953 0.014316271787387225 0 -0.027554327333000436 0.014220548124891652 0 -0.027467662089104953 0.014316271787387225 0 -0.027642136826764231 0.014287324561605377 0 -0.026247595199104436 0.013429433283545521 0 -0.027048543751251691 0.013974225332714469 0 -0.02710673068019983 0.014245264949783875 0 -0.024720515074236941 0.014091799880880006 0 -0.021287645309866259 0.015177942861667177 0 -0.0271868622261177 0.014319789728331105 0 -0.027467662089104953 0.014316271787387225 0 -0.027587656414670633 0.014450894098631231 0 -0.018969286403084859 0.015430674958358105 0 -0.018978285865647645 0.015356905904867893 0 -0.018953468041160337 0.015148457129557976 0 -0.018395769981566279 0.015206574472704206 0 -0.021287645309866259 0.015177942861667177 0 -0.024720515074236941 0.014091799880880006 0 -0.027620334551809251 0.014309207736873266 0 -0.027598964086855655 0.014365936540719276 0 -0.027467662089104953 0.014316271787387225 0 -0.027587656414670633 0.014450894098631231 0 -0.027598964086855655 0.014365936540719276 0 -0.027467662089104953 0.014316271787387225 0 -0.027642136826764231 0.014287324561605377 0 -0.027598964086855655 0.014365936540719276 0 -0.027587656414670633 0.014450894098631231 0 -0.027664640569471512 0.014398423275721481 0 -0.018940092240774784 0.015330187430329092 0 -0.018969286403084859 0.015430674958358105 0 -0.019330005845503293 0.015596852720156687 0 -0.018814543366759827 0.015410135700233868 0 -0.018940092240774784 0.015330187430329092 0 -0.018872773154785888 0.015418492832311961 0 -0.018940092240774784 0.015330187430329092 0 -0.018872773154785888 0.015418492832311961 0 -0.018969286403084859 0.015430674958358105 0 -0.018969286403084859 0.015430674958358105 0 -0.018978285865647645 0.015356905904867893 0 -0.018864663753193258 0.01541939105791427 0 -0.018781246227219803 0.015444636750141582 0 -0.018978285865647645 0.015356905904867893 0 -0.018864663753193258 0.01541939105791427 0 -0.018872773154785888 0.015418492832311961 0 -0.018969286403084859 0.015430674958358105 0 -0.018864663753193258 0.01541939105791427 0 -0.0187768783519764 0.015460754840963549 0 -0.018872773154785888 0.015418492832311961 0 -0.018864663753193258 0.01541939105791427 0 -0.018781246227219803 0.015444636750141582 0 -0.0187768783519764 0.015460754840963549 0 -0.018864663753193258 0.01541939105791427 0 -0.018915259745726536 0.015233287275366466 0 -0.018965573455911138 0.015338261649384245 0 -0.018663821376876919 0.015475859497620781 0 -0.018781246227219803 0.015444636750141582 0 -0.018978285865647645 0.015356905904867893 0 -0.019163078856836446 0.015004591766643075 0 -0.018978285865647645 0.015356905904867893 0 -0.019022357352712377 0.015110738108994435 0 -0.018978285865647645 0.015356905904867893 0 -0.019022357352712377 0.015110738108994435 0 -0.018985846293406997 0.015177981088162444 0 -0.018978285865647645 0.015356905904867893 0 -0.018985846293406997 0.015177981088162444 0 -0.018953468041160337 0.015148457129557976 0 -0.018985846293406997 0.015177981088162444 0 -0.018953468041160337 0.015148457129557976 0 -0.018996199879519997 0.015101519449796529 0 -0.018953468041160337 0.015148457129557976 0 -0.01901160518619055 0.015017000760453262 0 -0.019031249741896288 0.01494921358900452 0 -0.018953468041160337 0.015148457129557976 0 -0.018996199879519997 0.015101519449796529 0 -0.01901160518619055 0.015017000760453262 0 -0.018996199879519997 0.015101519449796529 0 -0.019027824192368495 0.01503382308554522 0 -0.01901160518619055 0.015017000760453262 0 -0.019022357352712377 0.015110738108994435 0 -0.018985846293406997 0.015177981088162444 0 -0.018996199879519997 0.015101519449796529 0 -0.019022357352712377 0.015110738108994435 0 -0.018996199879519997 0.015101519449796529 0 -0.019027824192368495 0.01503382308554522 0 -0.019027824192368495 0.01503382308554522 0 -0.01901160518619055 0.015017000760453262 0 -0.019048853615007175 0.014969941418599822 0 -0.01901160518619055 0.015017000760453262 0 -0.019045995064018977 0.014947575812440186 0 -0.019048853615007175 0.014969941418599822 0 -0.019058904247294541 0.014935481009544014 0 -0.019045995064018977 0.014947575812440186 0 -0.019048853615007175 0.014969941418599822 0 -0.019163078856836446 0.015004591766643075 0 -0.019022357352712377 0.015110738108994435 0 -0.019083856668640247 0.014998182282421661 0 -0.019098903388756392 0.01492383816954352 0 -0.019048853615007175 0.014969941418599822 0 -0.019083856668640247 0.014998182282421661 0 -0.019098903388756392 0.01492383816954352 0 -0.019163078856836446 0.015004591766643075 0 -0.019083856668640247 0.014998182282421661 0 -0.019027824192368495 0.01503382308554522 0 -0.019048853615007175 0.014969941418599822 0 -0.019083856668640247 0.014998182282421661 0 -0.019022357352712377 0.015110738108994435 0 -0.019027824192368495 0.01503382308554522 0 -0.019083856668640247 0.014998182282421661 0 -0.023714548412813254 0.014904537546593334 0 -0.025202603761422446 0.013694887685670032 0 -0.02792117624087562 0.014587425454505403 0 -0.028090127774087585 0.014411313570331766 0 -0.028172342548324833 0.014297944136166512 0 -0.02792117624087562 0.014587425454505403 0 -0.028019315991775019 0.01448190794370406 0 -0.028090127774087585 0.014411313570331766 0 -0.02792117624087562 0.014587425454505403 0 -0.028019315991775019 0.01448190794370406 0 -0.027954636141764862 0.014456270920499913 0 -0.02792117624087562 0.014587425454505403 0 -0.027758736983685459 0.014416170341895435 0 -0.027954636141764862 0.014456270920499913 0 -0.028019315991775019 0.01448190794370406 0 -0.027954636141764862 0.014456270920499913 0 -0.028064051058312778 0.014462377775147245 0 -0.028019315991775019 0.01448190794370406 0 -0.028090127774087585 0.014411313570331766 0 -0.028064051058312778 0.014462377775147245 0 -0.019716379023938038 0.015365841935921151 0 -0.019291692884073973 0.015048502656596812 0 -0.019458617409343643 0.015082922421267343 0 -0.019098448820851856 0.014931432074751699 0 -0.019219132149662893 0.014925110396523559 0 -0.019031249741896288 0.01494921358900452 0 -0.019219132149662893 0.014925110396523559 0 -0.019291692884073973 0.015048502656596812 0 -0.019458617409343643 0.015082922421267343 0 -0.019274811105605211 0.015008824937700649 0 -0.019085979053970345 0.014894987218874174 0 -0.019098448820851856 0.014931432074751699 0 -0.019045995064018977 0.014947575812440186 0 -0.019031249741896288 0.01494921358900452 0 -0.01901160518619055 0.015017000760453262 0 -0.019045995064018977 0.014947575812440186 0 -0.019031249741896288 0.01494921358900452 0 -0.02710673068019983 0.014245264949783875 0 -0.02792117624087562 0.014587425454505403 0 -0.027758736983685459 0.014416170341895435 0 -0.027620334551809251 0.014309207736873266 0 -0.027614295583434773 0.01435844015563947 0 -0.021287645309866259 0.015177942861667177 0 -0.023714548412813254 0.014904537546593334 0 -0.027587656414670633 0.014450894098631231 0 -0.027758736983685459 0.014416170341895435 0 -0.02771649119926933 0.014411588638171255 0 -0.027048543751251691 0.013974225332714469 0 -0.02710673068019983 0.014245264949783875 0 -0.027758736983685459 0.014416170341895435 0 -0.021287645309866259 0.015177942861667177 0 -0.019085979053970345 0.014894987218874174 0 -0.027758736983685459 0.014416170341895435 0 -0.02771649119926933 0.014411588638171255 0 -0.027810417282512826 0.014406171834807807 0 -0.027810417282512826 0.014406171834807807 0 -0.027954636141764862 0.014456270920499913 0 -0.027934309712358676 0.014422273491191816 0 -0.027810417282512826 0.014406171834807807 0 -0.027934309712358676 0.014422273491191816 0 -0.02790814336878325 0.014369378186728616 0 -0.027758736983685459 0.014416170341895435 0 -0.027810417282512826 0.014406171834807807 0 -0.027954636141764862 0.014456270920499913 0 -0.027954636141764862 0.014456270920499913 0 -0.027934309712358676 0.014422273491191816 0 -0.028017603652870846 0.014455483947779228 0 -0.027954636141764862 0.014456270920499913 0 -0.028064051058312778 0.014462377775147245 0 -0.028017603652870846 0.014455483947779228 0 -0.027934309712358676 0.014422273491191816 0 -0.02790814336878325 0.014369378186728616 0 -0.028019679849690504 0.014426277310709713 0 -0.027810417282512826 0.014406171834807807 0 -0.02790814336878325 0.014369378186728616 0 -0.027775290812306907 0.014365639190333505 0 -0.02790814336878325 0.014369378186728616 0 -0.027775290812306907 0.014365639190333505 0 -0.027869597322391457 0.01430095617398954 0 -0.02790814336878325 0.014369378186728616 0 -0.027869597322391457 0.01430095617398954 0 -0.027964104921031015 0.014332633083050661 0 -0.027664640569471512 0.014398423275721481 0 -0.027775290812306907 0.014365639190333505 0 -0.027674897905459468 0.014349453763869365 0 -0.027587656414670633 0.014450894098631231 0 -0.02771649119926933 0.014411588638171255 0 -0.027664640569471512 0.014398423275721481 0 -0.02771649119926933 0.014411588638171255 0 -0.027664640569471512 0.014398423275721481 0 -0.027775290812306907 0.014365639190333505 0 -0.02771649119926933 0.014411588638171255 0 -0.027810417282512826 0.014406171834807807 0 -0.027775290812306907 0.014365639190333505 0 -0.027775290812306907 0.014365639190333505 0 -0.02775923129767199 0.014303816155032366 0 -0.027869597322391457 0.01430095617398954 0 -0.027775290812306907 0.014365639190333505 0 -0.02775923129767199 0.014303816155032366 0 -0.027674897905459468 0.014349453763869365 0 -0.02775923129767199 0.014303816155032366 0 -0.027674897905459468 0.014349453763869365 0 -0.027642136826764231 0.014287324561605377 0 -0.027598964086855655 0.014365936540719276 0 -0.027674897905459468 0.014349453763869365 0 -0.027642136826764231 0.014287324561605377 0 -0.027598964086855655 0.014365936540719276 0 -0.027664640569471512 0.014398423275721481 0 -0.027674897905459468 0.014349453763869365 0 -0.026632370210647065 0.018952996529644661 0 -0.026353857015418387 0.019025889511211588 0 -0.027554327333000436 0.014220548124891652 0 -0.027642136826764231 0.014287324561605377 0 -0.02779831445719063 0.014199851464384973 0 -0.024594917483485405 0.023609839216232893 0 -0.02519804093609419 0.023662048499440976 0 -0.024884194156119033 0.023461591450024761 0 -0.02775923129767199 0.014303816155032366 0 -0.027642136826764231 0.014287324561605377 0 -0.02779831445719063 0.014199851464384973 0 -0.026353857015418387 0.019025889511211588 0 -0.026924582225024075 0.017976358434907774 0 -0.02779831445719063 0.014199851464384973 0 -0.027869597322391457 0.01430095617398954 0 -0.028013757342079438 0.014266256813962472 0 -0.02519804093609419 0.023662048499440976 0 -0.025479189466451446 0.023469337947640962 0 -0.025676421734416352 0.023723807902057165 0 -0.02775923129767199 0.014303816155032366 0 -0.02779831445719063 0.014199851464384973 0 -0.027869597322391457 0.01430095617398954 0 -0.025479189466451446 0.023469337947640962 0 -0.025175540994169927 0.02327474361874193 0 -0.025625269102996985 0.023228086309921733 0 -0.02519804093609419 0.023662048499440976 0 -0.025479189466451446 0.023469337947640962 0 -0.025175540994169927 0.02327474361874193 0 -0.023997717833521556 0.023903411693345714 0 -0.024655516826315213 0.022849630778609551 0 -0.025625269102996985 0.023228086309921733 0 -0.024567878678926375 0.023535364943458766 0 -0.025563012441410161 0.023273797363112102 0 -0.023997717833521556 0.023903411693345714 0 -0.024655516826315213 0.022849630778609551 0 -0.023673266969525056 0.022720611202137333 0 -0.023997717833521556 0.023903411693345714 0 -0.02297399527389625 0.023493264584169771 0 -0.023673266969525056 0.022720611202137333 0 -0.025175540994169927 0.02327474361874193 0 -0.024884194156119033 0.023461591450024761 0 -0.024539061091965471 0.02330044823212717 0 -0.02519804093609419 0.023662048499440976 0 -0.025175540994169927 0.02327474361874193 0 -0.024884194156119033 0.023461591450024761 0 -0.024567878678926375 0.023535364943458766 0 -0.023523087022077765 0.024187049366872996 0 -0.023997717833521556 0.023903411693345714 0 -0.022320717127845904 0.024403359574798288 0 -0.02297399527389625 0.023493264584169771 0 -0.024594917483485405 0.023609839216232893 0 -0.024884194156119033 0.023461591450024761 0 -0.024539061091965471 0.02330044823212717 0 -0.023778928768566954 0.023502889265446372 0 -0.024594917483485405 0.023609839216232893 0 -0.024539061091965471 0.02330044823212717 0 -0.022320717127845904 0.024403359574798288 0 -0.020667141461934463 0.024838970334750458 0 -0.020819346574905622 0.023972115264667249 0 -0.023523087022077765 0.024187049366872996 0 -0.021397607102276336 0.021451643716057761 0 -0.023778928768566954 0.023502889265446372 0 -0.024539061091965471 0.02330044823212717 0 -0.023690615440536567 0.023420535257946129 0 -0.022320717127845904 0.024403359574798288 0 -0.021387387873518883 0.023454957651315955 0 -0.020819346574905622 0.023972115264667249 0 -0.022320717127845904 0.024403359574798288 0 -0.021387387873518883 0.023454957651315955 0 -0.022200993547149453 0.023341119233510742 0 -0.021387387873518883 0.023454957651315955 0 -0.022200993547149453 0.023341119233510742 0 -0.021676328139357708 0.022629729708404041 0 -0.022320717127845904 0.024403359574798288 0 -0.02297399527389625 0.023493264584169771 0 -0.022200993547149453 0.023341119233510742 0 -0.02297399527389625 0.023493264584169771 0 -0.022200993547149453 0.023341119233510742 0 -0.022714139721780144 0.02274179905779488 0 -0.02297399527389625 0.023493264584169771 0 -0.022714139721780144 0.02274179905779488 0 -0.023673266969525056 0.022720611202137333 0 -0.022200993547149453 0.023341119233510742 0 -0.022714139721780144 0.02274179905779488 0 -0.021676328139357708 0.022629729708404041 0 -0.022714139721780144 0.02274179905779488 0 -0.021676328139357708 0.022629729708404041 0 -0.022046616572847195 0.021240759592482561 0 -0.021387387873518883 0.023454957651315955 0 -0.021676328139357708 0.022629729708404041 0 -0.020593714897261646 0.022384463301688654 0 -0.021676328139357708 0.022629729708404041 0 -0.022046616572847195 0.021240759592482561 0 -0.020593714897261646 0.022384463301688654 0 -0.016683550194846478 0.033547994090519895 0 -0.017552046304483388 0.032543050895270945 0 -0.017411125157509446 0.032874744681313822 0 -0.016683550194846478 0.033547994090519895 0 -0.017411125157509446 0.032874744681313822 0 -0.017446356767793193 0.033617022749698917 0 -0.019400775107756417 0.0273528557594345 0 -0.019108671421931882 0.027501232980910617 0 -0.022714139721780144 0.02274179905779488 0 -0.022046616572847195 0.021240759592482561 0 -0.023218428246133925 0.021641351169524529 0 -0.023218428246133925 0.021641351169524529 0 -0.024457577193675872 0.021768855867065066 0 -0.023495792573619272 0.020113319784863401 0 -0.024457577193675872 0.021768855867065066 0 -0.02505561879918668 0.020496613337508025 0 -0.025507975971202308 0.021604416891539708 0 -0.024457577193675872 0.021768855867065066 0 -0.024655516826315213 0.022849630778609551 0 -0.025380397963373581 0.022463633860240272 0 -0.024457577193675872 0.021768855867065066 0 -0.024655516826315213 0.022849630778609551 0 -0.023673266969525056 0.022720611202137333 0 -0.023218428246133925 0.021641351169524529 0 -0.024457577193675872 0.021768855867065066 0 -0.023673266969525056 0.022720611202137333 0 -0.022714139721780144 0.02274179905779488 0 -0.023218428246133925 0.021641351169524529 0 -0.023673266969525056 0.022720611202137333 0 -0.011063833529315743 0.03189444040518459 0 -0.013818364443488416 0.034160162961567715 0 -0.013818364443488416 0.034160162961567715 0 -0.016104485876831925 0.026306305850941451 0 -0.019145306590767599 0.031786243793756074 0 -0.019453068702119512 0.030484041552364158 0 -0.018791558729848123 0.031075541216639371 0 -0.019145306590767599 0.031786243793756074 0 -0.019453068702119512 0.030484041552364158 0 -0.019539096494546698 0.030489261130878031 0 -0.014419971527971547 0.030650344823063079 0 -0.013049893732384108 0.032156336787526558 0 -0.013531548743881551 0.030577185431457748 0 -0.017168503461697893 0.024613980561847014 0 -0.016104485876831925 0.026306305850941451 0 -0.017168503461697893 0.024613980561847014 0 -0.016394050776828116 0.023536609860531413 0 -0.017695662686804128 0.015386126937953182 0 -0.017571420822403042 0.015199642918706555 0 -0.017507799934220723 0.015249292716611096 0 -0.015767890521262675 0.02421629533091783 0 -0.014941552700165995 0.024863392967116364 0 -0.015166322404992138 0.024168959178643992 0 -0.016394050776828116 0.023536609860531413 0 -0.016104485876831925 0.026306305850941451 0 -0.017168503461697893 0.024613980561847014 0 -0.018509433503553347 0.027234040218528401 0 -0.017168503461697893 0.024613980561847014 0 -0.018331159848856658 0.019036599175616342 0 -0.017907966164562049 0.015349819224555609 0 -0.017571420822403042 0.015199642918706555 0 -0.01819368914247985 0.015187357989466056 0 -0.018310098484239812 0.023482541414372848 0 -0.018384568975212068 0.023430506288556259 0 -0.018427872775726339 0.023463760793146732 0 -0.018384568975212068 0.023430506288556259 0 -0.018427872775726339 0.023463760793146732 0 -0.018439881673592184 0.023427397421448552 0 -0.018509433503553347 0.027234040218528401 0 -0.018515981687584532 0.027420323291841568 0 -0.018384568975212068 0.023430506288556259 0 -0.018439881673592184 0.023427397421448552 0 -0.018445358857317649 0.023402692283948385 0 -0.018791558729848123 0.031075541216639371 0 -0.018163709986299216 0.031615541274383985 0 -0.018688391990029897 0.031628147512037991 0 -0.019145306590767599 0.031786243793756074 0 -0.018791558729848123 0.031075541216639371 0 -0.018688391990029897 0.031628147512037991 0 -0.019145306590767599 0.031786243793756074 0 -0.018688391990029897 0.031628147512037991 0 -0.018625390851192129 0.032023058843305335 0 -0.018163709986299216 0.031615541274383985 0 -0.018688391990029897 0.031628147512037991 0 -0.018625390851192129 0.032023058843305335 0 -0.018327234347205679 0.031772195467791121 0 -0.018625390851192129 0.032023058843305335 0 -0.018169614805671908 0.032320851589690315 0 -0.018515981687584532 0.027420323291841568 0 -0.019563014006250812 0.031387511820183241 0 -0.019156502964295465 0.023534175839623431 0 -0.019909995503592195 0.024181168632465413 0 -0.020593714897261646 0.022384463301688654 0 -0.018439881673592184 0.023427397421448552 0 -0.018445358857317649 0.023402692283948385 0 -0.018498943430823846 0.023415725161002758 0 -0.018515981687584532 0.027420323291841568 0 -0.018978917813556824 0.023592591206932204 0 -0.018427872775726339 0.023463760793146732 0 -0.018439881673592184 0.023427397421448552 0 -0.018498943430823846 0.023415725161002758 0 -0.018529377556765023 0.023443992653939875 0 -0.018427872775726339 0.023463760793146732 0 -0.018498943430823846 0.023415725161002758 0 -0.019068121750798975 0.018445078725580422 0 -0.018331159848856658 0.019036599175616342 0 -0.019909995503592195 0.024181168632465413 0 -0.020667141461934463 0.024838970334750458 0 -0.020819346574905622 0.023972115264667249 0 -0.019490663921922918 0.018565867861124269 0 -0.022407565761009697 0.018786439220812693 0 -0.021558657100505439 0.018022722450110846 0 -0.018978917813556824 0.023592591206932204 0 -0.021397607102276336 0.021451643716057761 0 -0.018529377556765023 0.023443992653939875 0 -0.018498943430823846 0.023415725161002758 0 -0.018562697808433004 0.023431307766856931 0 -0.019068121750798975 0.018445078725580422 0 -0.021397607102276336 0.021451643716057761 0 -0.022453502856996488 0.018033696983231071 0 -0.021397607102276336 0.021451643716057761 0 -0.021387387873518883 0.023454957651315955 0 -0.020819346574905622 0.023972115264667249 0 -0.020593714897261646 0.022384463301688654 0 -0.019909995503592195 0.024181168632465413 0 -0.020819346574905622 0.023972115264667249 0 -0.020593714897261646 0.022384463301688654 0 -0.017552046304483388 0.032543050895270945 0 -0.017411125157509446 0.032874744681313822 0 -0.017920197445905613 0.032677726920545873 0 -0.017411125157509446 0.032874744681313822 0 -0.018112093177011259 0.033490542341895503 0 -0.017446356767793193 0.033617022749698917 0 -0.017411125157509446 0.032874744681313822 0 -0.017904836169536937 0.033207701129913204 0 -0.017920197445905613 0.032677726920545873 0 -0.017751476885362157 0.033038948710066407 0 -0.016411048989627749 0.033968843765490364 0 -0.013319296366169199 0.034011833374002813 0 -0.012425023611871549 0.034894020321063472 0 -0.012661678367935835 0.034003928415075345 0 -0.016411048989627749 0.033968843765490364 0 -0.015600972476707848 0.033569004450947813 0 -0.017904836169536937 0.033207701129913204 0 -0.017920197445905613 0.032677726920545873 0 -0.018455606564267715 0.032575423238069688 0 -0.017920197445905613 0.032677726920545873 0 -0.018169614805671908 0.032320851589690315 0 -0.018455606564267715 0.032575423238069688 0 -0.018515981687584532 0.027420323291841568 0 -0.019108671421931882 0.027501232980910617 0 -0.018327234347205679 0.031772195467791121 0 -0.017552046304483388 0.032543050895270945 0 -0.018169614805671908 0.032320851589690315 0 -0.017552046304483388 0.032543050895270945 0 -0.017920197445905613 0.032677726920545873 0 -0.018169614805671908 0.032320851589690315 0 -0.011655936980224475 0.035667674077088388 0 -0.011915404375242635 0.034768800817001351 0 -0.012425023611871549 0.034894020321063472 0 -0.013818364443488416 0.034160162961567715 0 -0.015600972476707848 0.033569004450947813 0 -0.019145306590767599 0.031786243793756074 0 -0.018625390851192129 0.032023058843305335 0 -0.018455606564267715 0.032575423238069688 0 -0.018625390851192129 0.032023058843305335 0 -0.018169614805671908 0.032320851589690315 0 -0.018455606564267715 0.032575423238069688 0 -0.011915404375242635 0.034768800817001351 0 -0.012425023611871549 0.034894020321063472 0 -0.012190051855889002 0.034474722831894573 0 -0.012425023611871549 0.034894020321063472 0 -0.012661678367935835 0.034003928415075345 0 -0.012190051855889002 0.034474722831894573 0 -0.012661678367935835 0.034003928415075345 0 -0.011975373558134186 0.034177002919111833 0 -0.012190051855889002 0.034474722831894573 0 -0.012661678367935835 0.034003928415075345 0 -0.011975373558134186 0.034177002919111833 0 -0.012149105198070212 0.033617153038887182 0 -0.011975373558134186 0.034177002919111833 0 -0.012190051855889002 0.034474722831894573 0 -0.011900028325610226 0.034503961198303561 0 -0.011915404375242635 0.034768800817001351 0 -0.012190051855889002 0.034474722831894573 0 -0.011900028325610226 0.034503961198303561 0 -0.010849406808282268 0.034033420302662078 0 -0.011507435787339503 0.034594085649397824 0 -0.01146332798143 0.03375541291708551 0 -0.011915404375242635 0.034768800817001351 0 -0.011900028325610226 0.034503961198303561 0 -0.011507435787339503 0.034594085649397824 0 -0.011975373558134186 0.034177002919111833 0 -0.011507435787339503 0.034594085649397824 0 -0.011612574322689823 0.033636508434452518 0 -0.011975373558134186 0.034177002919111833 0 -0.011900028325610226 0.034503961198303561 0 -0.011507435787339503 0.034594085649397824 0 -0.011504169382870565 0.034578587239529029 0 -0.011552453959814305 0.033518323625014099 0 -0.010743742857522923 0.03470505721174004 0 -0.010849406808282268 0.034033420302662078 0 -0.011507435787339503 0.034594085649397824 0 -0.013818364443488416 0.034160162961567715 0 -0.011472516295322732 0.035560158064550672 0 -0.010743742857522923 0.03470505721174004 0 -0.011507435787339503 0.034594085649397824 0 -0.011258064115524193 0.035113372975560116 0 -0.011540736231337848 0.035756388280158632 0 -0.011915404375242635 0.034768800817001351 0 -0.011258064115524193 0.035113372975560116 0 -0.010385849999119946 0.03536947455452219 0 -0.011540736231337848 0.035756388280158632 0 -0.011258064115524193 0.035113372975560116 0 -0.011915404375242635 0.034768800817001351 0 -0.011507435787339503 0.034594085649397824 0 -0.011258064115524193 0.035113372975560116 0 -0.0089037694949270964 0.03629824227174866 0 -0.0099998010976443466 0.035560174081756775 0 -0.0099998010976443466 0.035560174081756775 0 -0.010064002260666399 0.035885394579018411 0 -0.0096271346174998957 0.036103279535990025 0 -0.0097744321002822317 0.036221902096905935 0 -0.00995654746517864 0.036003753782571153 0 -0.011210221916743689 0.033952646398756441 0 -0.010809788605467077 0.035512585811077406 0 -0.012110144904398048 0.034633687595247785 0 -0.011876023416773518 0.035130221949376358 0 -0.012086915748726071 0.035065246661399506 0 -0.010954954418647297 0.035119155849768317 0 -0.01057746227484427 0.034806314239000359 0 -0.010746806133316801 0.035372527234116401 0 -0.01057746227484427 0.034806314239000359 0 -0.010546468417943402 0.03543387222221283 0 -0.010746806133316801 0.035372527234116401 0 -0.0099998010976443466 0.035560174081756775 0 -0.011210221916743689 0.033952646398756441 0 -0.011167265307168857 0.032721677651057428 0 -0.011469531954243793 0.032961484112805133 0 -0.011086318611217009 0.033388665074938435 0 -0.011469531954243793 0.032961484112805133 0 -0.011086318611217009 0.033388665074938435 0 -0.01146332798143 0.03375541291708551 0 -0.011668463574515826 0.032763711277355181 0 -0.011612574322689823 0.033636508434452518 0 -0.012078064680217925 0.033088555568689594 0 -0.011210221916743689 0.033952646398756441 0 -0.011552453959814305 0.033518323625014099 0 -0.010849406808282268 0.034033420302662078 0 -0.011086318611217009 0.033388665074938435 0 -0.01146332798143 0.03375541291708551 0 -0.012661678367935835 0.034003928415075345 0 -0.012149105198070212 0.033617153038887182 0 -0.012086230013892101 0.03304219154551593 0 -0.011612574322689823 0.033636508434452518 0 -0.012149105198070212 0.033617153038887182 0 -0.012078064680217925 0.033088555568689594 0 -0.012334921198642847 0.033270092363584899 0 -0.012917021906148152 0.034304760667085453 0 -0.011975373558134186 0.034177002919111833 0 -0.011612574322689823 0.033636508434452518 0 -0.012149105198070212 0.033617153038887182 0 -0.012917021906148152 0.034304760667085453 0 -0.012186907794293914 0.035352524193869368 0 -0.015877649273463256 0.035137608036838984 0 -0.016162875683319262 0.035043091484005827 0 -0.015837958521984791 0.034872524364123261 0 -0.012110144904398048 0.034633687595247785 0 -0.011798962192957906 0.034374413326783017 0 -0.011876023416773518 0.035130221949376358 0 -0.011210221916743689 0.033952646398756441 0 -0.012917021906148152 0.034304760667085453 0 -0.016411048989627749 0.033968843765490364 0 -0.012917021906148152 0.034304760667085453 0 -0.013319296366169199 0.034011833374002813 0 -0.012661678367935835 0.034003928415075345 0 -0.012086230013892101 0.03304219154551593 0 -0.016213290301648475 0.035374250069864797 0 -0.015877649273463256 0.035137608036838984 0 -0.016162875683319262 0.035043091484005827 0 -0.016411048989627749 0.033968843765490364 0 -0.016977991757005935 0.034717655563591902 0 -0.018112093177011259 0.033490542341895503 0 -0.017354727191846633 0.034259617060994924 0 -0.017446356767793193 0.033617022749698917 0 -0.016213290301648475 0.035374250069864797 0 -0.016162875683319262 0.035043091484005827 0 -0.01644324399755405 0.03513707426210478 0 -0.016162875683319262 0.035043091484005827 0 -0.01644324399755405 0.03513707426210478 0 -0.016397162472571895 0.034926832005953402 0 -0.016397162472571895 0.034926832005953402 0 -0.016492586079337481 0.034853073636042932 0 -0.016178260094772225 0.034802618369833165 0 -0.014735740480281556 0.035396082112576138 0 -0.013998794740821314 0.035608903498344176 0 -0.013063661164769209 0.035915463984432641 0 -0.01190631404781263 0.034999985371908598 0 -0.013998077182556488 0.034999994280839837 0 -0.013063661164769209 0.035915463984432641 0 -0.01190631404781263 0.034999985371908598 0 -0.011556743508945051 0.036366345178711401 0 -0.01190631404781263 0.034999985371908598 0 -0.011556743508945051 0.036366345178711401 0 -0.0097230209295579312 0.034999988677681788 0 -0.016162875683319262 0.035043091484005827 0 -0.016397162472571895 0.034926832005953402 0 -0.016178260094772225 0.034802618369833165 0 -0.016162875683319262 0.035043091484005827 0 -0.016178260094772225 0.034802618369833165 0 -0.015837958521984791 0.034872524364123261 0 -0.013998794740821314 0.035608903498344176 0 -0.012186907794293914 0.035352524193869368 0 -0.011556743508945051 0.036366345178711401 0 -0.010059809436352568 0.036813261092342356 0 -0.0097230209295579312 0.034999988677681788 0 -0.012186907794293914 0.035352524193869368 0 -0.010044045681021491 0.035446054674367004 0 -0.010044045681021491 0.035446054674367004 0 -0.01039717519028297 0.03592266207233942 0 -0.0079448228913010354 0.034999957401974827 0 -0.0097228667760365841 0.034999974571310086 0 -0.0089164000580513134 0.035881198851679945 0 -0.0097228667760365841 0.034999974571310086 0 -0.0089164000580513134 0.035881198851679945 0 -0.0096018457083535715 0.036664920175986333 0 -0.01078318036769405 0.035518925050860239 0 -0.010758211372896119 0.035467160695842902 0 -0.010769763620984639 0.035515825126901913 0 -0.0089164000580513134 0.035881198851679945 0 -0.0090194758321389262 0.036451753598966616 0 -0.0096018457083535715 0.036664920175986333 0 -0.010434910131745146 0.035655267289406323 0 -0.010433414400736321 0.035674520594372067 0 -0.010411417857742753 0.035680599621845797 0 -0.01039717519028297 0.03592266207233942 0 -0.010064002260666399 0.035885394579018411 0 -0.0090194758321389262 0.036451753598966616 0 -0.0096018457083535715 0.036664920175986333 0 -0.0093390902106713254 0.036980243331197593 0 -0.01078318036769405 0.035518925050860239 0 -0.010769763620984639 0.035515825126901913 0 -0.010769822286017043 0.035522417012376906 0 -0.012186907794293914 0.035352524193869368 0 -0.010809788605467077 0.035512585811077406 0 -0.01039717519028297 0.03592266207233942 0 -0.010809788605467077 0.035512585811077406 0 -0.010809788605467077 0.035512585811077406 0 -0.010064002260666399 0.035885394579018411 0 -0.0088606645697953419 0.03712781787848228 0 -0.0093390902106713254 0.036980243331197593 0 -0.0089623595166125405 0.036874780849319576 0 -0.0089037694949270964 0.03629824227174866 0 -0.010064002260666399 0.035885394579018411 0 -0.008626763083651838 0.036940246609761994 0 -0.0088606645697953419 0.03712781787848228 0 -0.0089623595166125405 0.036874780849319576 0 -0.0089447995353087312 0.036471422870858528 0 -0.0089037694949270964 0.03629824227174866 0 -0.008626763083651838 0.036940246609761994 0 -0.0090194758321389262 0.036451753598966616 0 -0.0089623595166125405 0.036874780849319576 0 -0.0090194758321389262 0.036451753598966616 0 -0.0093390902106713254 0.036980243331197593 0 -0.0089623595166125405 0.036874780849319576 0 -0.016190254622919141 0.034417535761959633 0 -0.016327311011338417 0.034827135395850063 0 -0.016084421749718664 0.034866982754914753 0 -0.019763566897729217 0.027404164929109263 0 -0.020838265609088923 0.026133938487822903 0 -0.02505561879918668 0.020496613337508025 0 -0.023495792573619272 0.020113319784863401 0 -0.024974658651680175 0.018995112353699644 0 -0.024457577193675872 0.021768855867065066 0 -0.02505561879918668 0.020496613337508025 0 -0.023495792573619272 0.020113319784863401 0 -0.022046616572847195 0.021240759592482561 0 -0.023218428246133925 0.021641351169524529 0 -0.023495792573619272 0.020113319784863401 0 -0.016683550194846478 0.033547994090519895 0 -0.016190254622919141 0.034417535761959633 0 -0.016686432994977577 0.034282058950063352 0 -0.019400775107756417 0.0273528557594345 0 -0.019763566897729217 0.027404164929109263 0 -0.017354727191846633 0.034259617060994924 0 -0.017446356767793193 0.033617022749698917 0 -0.016686432994977577 0.034282058950063352 0 -0.016683550194846478 0.033547994090519895 0 -0.017446356767793193 0.033617022749698917 0 -0.016686432994977577 0.034282058950063352 0 -0.017354727191846633 0.034259617060994924 0 -0.016686432994977577 0.034282058950063352 0 -0.016609869908241651 0.034853928061242247 0 -0.016977991757005935 0.034717655563591902 0 -0.016620594598836615 0.034854410389977677 0 -0.01644324399755405 0.03513707426210478 0 -0.016397162472571895 0.034926832005953402 0 -0.016609869908241651 0.034853928061242247 0 -0.016190254622919141 0.034417535761959633 0 -0.016686432994977577 0.034282058950063352 0 -0.016327311011338417 0.034827135395850063 0 -0.016686432994977577 0.034282058950063352 0 -0.016327311011338417 0.034827135395850063 0 -0.016609869908241651 0.034853928061242247 0 -0.016327311011338417 0.034827135395850063 0 -0.016407805605291412 0.03507125832775649 0 -0.016215146291928283 0.035109292294123622 0 -0.016327311011338417 0.034827135395850063 0 -0.016609869908241651 0.034853928061242247 0 -0.016407805605291412 0.03507125832775649 0 -0.016397162472571895 0.034926832005953402 0 -0.016492586079337481 0.034853073636042932 0 -0.016609869908241651 0.034853928061242247 0 -0.016492586079337481 0.034853073636042932 0 -0.016609869908241651 0.034853928061242247 0 -0.016407805605291412 0.03507125832775649 0 -0.014735740480281556 0.035396082112576138 0 -0.015491363067611199 0.035245165634746882 0 -0.013063661164769209 0.035915463984432641 0 -0.013998077182556488 0.034999994280839837 0 -0.01457483825924322 0.035460077312553392 0 -0.013998077182556488 0.034999994280839837 0 -0.01457483825924322 0.035460077312553392 0 -0.016089821267328611 0.034999998701197806 0 -0.015491363067611199 0.035245165634746882 0 -0.016089731493403966 0.035000071059996772 0 -0.016407805605291412 0.03507125832775649 0 -0.016091162295669811 0.034999751495881026 0 -0.016215146291928283 0.035109292294123622 0 -0.016327311011338417 0.034827135395850063 0 -0.016215146291928283 0.035109292294123622 0 -0.016084421749718664 0.034866982754914753 0 -0.016215146291928283 0.035109292294123622 0 -0.016084421749718664 0.034866982754914753 0 -0.016148417914419684 0.034812929848159285 0 -0.016632956192259945 0.035056715518884611 0 -0.016036831484561542 0.035648175692949202 0 -0.016091162295669811 0.034999751495881026 0 -0.017345873291583932 0.035705469166865067 0 -0.017997354087697214 0.034999745337214692 0 -0.016091162295669811 0.034999751495881026 0 -0.016215146291928283 0.035109292294123622 0 -0.017345873291583932 0.035705469166865067 0 -0.017345873291583932 0.035705469166865067 0 -0.017997354087697214 0.034999745337214692 0 -0.018966332907549795 0.035673106998873001 0 -0.016036831484561542 0.035648175692949202 0 -0.02087971384129543 0.030717682439565255 0 -0.017997354087697214 0.034999745337214692 0 -0.018966332907549795 0.035673106998873001 0 -0.019906614116181592 0.035000063833386504 0 -0.02087971384129543 0.030717682439565255 0 -0.019903108236445657 0.035002362830213782 0 -0.026501279930225663 0.01889880992324296 0 -0.027452850641893706 0.018803472860026191 0 -0.026974464338553203 0.01819292004595582 0 -0.02642230663874957 0.018032947371274605 0 -0.026501279930225663 0.01889880992324296 0 -0.026974464338553203 0.01819292004595582 0 -0.024974658651680175 0.018995112353699644 0 -0.02642230663874957 0.018032947371274605 0 -0.026501279930225663 0.01889880992324296 0 -0.016084421749718664 0.034866982754914753 0 -0.016148417914419684 0.034812929848159285 0 -0.016504557522313938 0.034719324482236746 0 -0.020838265609088923 0.026133938487822903 0 -0.02087971384129543 0.030717682439565255 0 -0.024974658651680175 0.018995112353699644 0 -0.026501279930225663 0.01889880992324296 0 -0.025949537552422762 0.019771882743083152 0 -0.02505561879918668 0.020496613337508025 0 -0.024974658651680175 0.018995112353699644 0 -0.025949537552422762 0.019771882743083152 0 -0.026501279930225663 0.01889880992324296 0 -0.025949537552422762 0.019771882743083152 0 -0.027273561651328073 0.019491011483214353 0 -0.025949537552422762 0.019771882743083152 0 -0.02641028825126818 0.020762029441129936 0 -0.027273561651328073 0.019491011483214353 0 -0.02505561879918668 0.020496613337508025 0 -0.025949537552422762 0.019771882743083152 0 -0.02641028825126818 0.020762029441129936 0 -0.02505561879918668 0.020496613337508025 0 -0.02641028825126818 0.020762029441129936 0 -0.025507975971202308 0.021604416891539708 0 -0.028836454534076846 0.020239226187324683 0 -0.02755514851554007 0.0205237965477254 0 -0.028143171631261548 0.019721577274420102 0 -0.02641028825126818 0.020762029441129936 0 -0.02755514851554007 0.0205237965477254 0 -0.027273561651328073 0.019491011483214353 0 -0.02755514851554007 0.0205237965477254 0 -0.027273561651328073 0.019491011483214353 0 -0.028143171631261548 0.019721577274420102 0 -0.027273561651328073 0.019491011483214353 0 -0.02806042935707162 0.019121344442953825 0 -0.028143171631261548 0.019721577274420102 0 -0.027273561651328073 0.019491011483214353 0 -0.02806042935707162 0.019121344442953825 0 -0.027452850641893706 0.018803472860026191 0 -0.028836454534076846 0.020239226187324683 0 -0.028143171631261548 0.019721577274420102 0 -0.0287749299199834 0.019320910688961874 0 -0.02806042935707162 0.019121344442953825 0 -0.028143171631261548 0.019721577274420102 0 -0.0287749299199834 0.019320910688961874 0 -0.02806042935707162 0.019121344442953825 0 -0.0287749299199834 0.019320910688961874 0 -0.028397608887616929 0.018401504258577429 0 -0.028397608887616929 0.018401504258577429 0 -0.027452850641893706 0.018803472860026191 0 -0.026974464338553203 0.01819292004595582 0 -0.026501279930225663 0.01889880992324296 0 -0.027273561651328073 0.019491011483214353 0 -0.027452850641893706 0.018803472860026191 0 -0.028240014864332721 0.018597184761248105 0 -0.027092457366444032 0.018227535086502242 0 -0.02806042935707162 0.019121344442953825 0 -0.028397608887616929 0.018401504258577429 0 -0.027452850641893706 0.018803472860026191 0 -0.019074135627782908 0.035589336351985294 0 -0.019906614440523229 0.034999851146634738 0 -0.020798357551476389 0.035402243851647086 0 -0.019906614440523229 0.034999851146634738 0 -0.021184065521723229 0.034999991985676597 0 -0.020798357551476389 0.035402243851647086 0 -0.028091843413048528 0.018794652750826438 0 -0.026974464338553203 0.01819292004595582 0 -0.027728351640930324 0.018015426997467582 0 -0.02642230663874957 0.018032947371274605 0 -0.026974464338553203 0.01819292004595582 0 -0.027728351640930324 0.018015426997467582 0 -0.02087971384129543 0.030717682439565255 0 -0.025189173465459531 0.025625140815913217 0 -0.021184065521723229 0.034999991985676597 0 -0.020798357551476389 0.035402243851647086 0 -0.022615836785621225 0.035121903093628198 0 -0.028091843413048528 0.018794652750826438 0 -0.027728351640930324 0.018015426997467582 0 -0.029111649608645856 0.017880288309865815 0 -0.025189173465459531 0.025625140815913217 0 -0.023907290013752983 0.031185899043940511 0 -0.021184065521723229 0.034999991985676597 0 -0.022615836785621225 0.035121903093628198 0 -0.022462099948136083 0.034999960577677916 0 -0.02246298441618878 0.034999670562763673 0 -0.022796807240752389 0.035063676909973564 0 -0.027034628258314108 0.034998229463993877 0 -0.022633823472152249 0.035107307487381688 0 -0.02246298441618878 0.034999670562763673 0 -0.022796807240752389 0.035063676909973564 0 -0.023907290013752983 0.031185899043940511 0 -0.02364794350860306 0.031392139555121913 0 -0.023907290013752983 0.031185899043940511 0 -0.022468905529990254 0.034988509824159811 0 -0.023907290013752983 0.031185899043940511 0 -0.027676718242072549 0.026531086096880371 0 -0.022630784196003347 0.035108851923624541 0 -0.022796807240752389 0.035063676909973564 0 -0.024671645332666706 0.035803433780684332 0 -0.02931815543607226 0.019243153957237451 0 -0.030377248468475403 0.018841586632326865 0 -0.030585455202990403 0.01956874911526376 0 -0.029111649608645856 0.017880288309865815 0 -0.02931815543607226 0.019243153957237451 0 -0.030377248468475403 0.018841586632326865 0 -0.028091843413048528 0.018794652750826438 0 -0.029111649608645856 0.017880288309865815 0 -0.02931815543607226 0.019243153957237451 0 -0.028240014864332721 0.018597184761248105 0 -0.029484785609383394 0.018985767785025556 0 -0.0287749299199834 0.019320910688961874 0 -0.028397608887616929 0.018401504258577429 0 -0.029641841037723476 0.01873554146476885 0 -0.022796807240752389 0.035063676909973564 0 -0.024671645332666706 0.035803433780684332 0 -0.026149069493734273 0.03541283434620808 0 -0.022796807240752389 0.035063676909973564 0 -0.026149069493734273 0.03541283434620808 0 -0.027034628258314108 0.034998229463993877 0 -0.024671645332666706 0.035803433780684332 0 -0.026149069493734273 0.03541283434620808 0 -0.027042766249176262 0.035828113437552635 0 -0.027676718242072549 0.026531086096880371 0 -0.02932000060963999 0.027767940376117038 0 -0.031854069759522298 0.019723101078690325 0 -0.031697842763293259 0.019565325330027833 0 -0.030585455202990403 0.01956874911526376 0 -0.031854069759522298 0.019723101078690325 0 -0.030871331644458953 0.019118699118274213 0 -0.031021152601852169 0.019572223260820719 0 -0.030377248468475403 0.018841586632326865 0 -0.031697842763293259 0.019565325330027833 0 -0.030585455202990403 0.01956874911526376 0 -0.031746493978838157 0.019685552775381962 0 -0.030723108713635795 0.019349664417581385 0 -0.030871331644458953 0.019118699118274213 0 -0.031021152601852169 0.019572223260820719 0 -0.03053053976114499 0.019611677567801689 0 -0.031021152601852169 0.019572223260820719 0 -0.030896657059392141 0.020131127410070997 0 -0.031933509045621165 0.020281358976197556 0 -0.031021152601852169 0.019572223260820719 0 -0.030896657059392141 0.020131127410070997 0 -0.03053053976114499 0.019611677567801689 0 -0.031092052485168414 0.019630244845292702 0 -0.031872719923488085 0.020385719549955064 0 -0.031854069759522298 0.019723101078690325 0 -0.031021152601852169 0.019572223260820719 0 -0.031835592190624262 0.020525075280580441 0 -0.0287749299199834 0.019320910688961874 0 -0.029641841037723476 0.01873554146476885 0 -0.029374722080062754 0.019651044139218164 0 -0.029641841037723476 0.01873554146476885 0 -0.029374722080062754 0.019651044139218164 0 -0.030053116995718148 0.019360907437660013 0 -0.028836454534076846 0.020239226187324683 0 -0.0287749299199834 0.019320910688961874 0 -0.029374722080062754 0.019651044139218164 0 -0.029484785609383394 0.018985767785025556 0 -0.030723108713635795 0.019349664417581385 0 -0.029641841037723476 0.01873554146476885 0 -0.030871331644458953 0.019118699118274213 0 -0.030053116995718148 0.019360907437660013 0 -0.030871331644458953 0.019118699118274213 0 -0.03053053976114499 0.019611677567801689 0 -0.030053116995718148 0.019360907437660013 0 -0.03053053976114499 0.019611677567801689 0 -0.030053116995718148 0.019360907437660013 0 -0.029878444166168579 0.01979192594056094 0 -0.029374722080062754 0.019651044139218164 0 -0.030053116995718148 0.019360907437660013 0 -0.029878444166168579 0.01979192594056094 0 -0.029878444166168579 0.01979192594056094 0 -0.029196390650978354 0.020200684908988745 0 -0.030720286407254504 0.020538665935453101 0 -0.030896657059392141 0.020131127410070997 0 -0.029878444166168579 0.01979192594056094 0 -0.030839130205969938 0.020717356949485094 0 -0.029984531599654304 0.019820937634788587 0 -0.030760836217194436 0.020610618570097442 0 -0.030896657059392141 0.020131127410070997 0 -0.03053053976114499 0.019611677567801689 0 -0.029878444166168579 0.01979192594056094 0 -0.029374722080062754 0.019651044139218164 0 -0.029878444166168579 0.01979192594056094 0 -0.029196390650978354 0.020200684908988745 0 -0.028836454534076846 0.020239226187324683 0 -0.029374722080062754 0.019651044139218164 0 -0.029196390650978354 0.020200684908988745 0 -0.028836454534076846 0.020239226187324683 0 -0.029196390650978354 0.020200684908988745 0 -0.028971433937627043 0.019982794387723844 0 -0.029196390650978354 0.020200684908988745 0 -0.028782422823406671 0.019498593538216234 0 -0.028971433937627043 0.019982794387723844 0 -0.029146707823841322 0.020103717624619263 0 -0.029035563670454248 0.019887452432489374 0 -0.029196390650978354 0.020200684908988745 0 -0.028782422823406671 0.019498593538216234 0 -0.027641557709178796 0.018910743771197596 0 -0.029196390650978354 0.020200684908988745 0 -0.030720286407254504 0.020538665935453101 0 -0.030427731218873773 0.021018731364487564 0 -0.030720286407254504 0.020538665935453101 0 -0.030427731218873773 0.021018731364487564 0 -0.031464345707654801 0.021060720572690757 0 -0.028782422823406671 0.019498593538216234 0 -0.027641557709178796 0.018910743771197596 0 -0.028248877492844583 0.018054479557353082 0 -0.031933509045621165 0.020281358976197556 0 -0.031632439300923056 0.020834718753291792 0 -0.032620541243653461 0.020923063511044789 0 -0.030896657059392141 0.020131127410070997 0 -0.030839130205969938 0.020717356949485094 0 -0.031632439300923056 0.020834718753291792 0 -0.030896657059392141 0.020131127410070997 0 -0.031933509045621165 0.020281358976197556 0 -0.031632439300923056 0.020834718753291792 0 -0.030839130205969938 0.020717356949485094 0 -0.031632439300923056 0.020834718753291792 0 -0.031604946745595427 0.021339696010507229 0 -0.030760836217194436 0.020610618570097442 0 -0.031534237128724427 0.021201377563029172 0 -0.031632439300923056 0.020834718753291792 0 -0.032312340929281605 0.021383550186205639 0 -0.032620541243653461 0.020923063511044789 0 -0.031632439300923056 0.020834718753291792 0 -0.032312340929281605 0.021383550186205639 0 -0.031604946745595427 0.021339696010507229 0 -0.031534237128724427 0.021201377563029172 0 -0.032177120222814735 0.021611324106540264 0 -0.032312340929281605 0.021383550186205639 0 -0.031604946745595427 0.021339696010507229 0 -0.032244622043734267 0.021760582097382682 0 -0.031464345707654801 0.021060720572690757 0 -0.032112434410340493 0.021458445665622945 0 -0.031235801849457963 0.021533704360351406 0 -0.032112434410340493 0.021458445665622945 0 -0.031235801849457963 0.021533704360351406 0 -0.032048944791623166 0.021773917870128685 0 -0.028248877492844583 0.018054479557353082 0 -0.027996240073827606 0.016711067103866797 0 -0.028954685683993245 0.017561223016062763 0 -0.027641557709178796 0.018910743771197596 0 -0.028248877492844583 0.018054479557353082 0 -0.02680943279664947 0.016871312070806027 0 -0.029035563670454248 0.019887452432489374 0 -0.029032638754849207 0.019188035391984076 0 -0.030427731218873773 0.021018731364487564 0 -0.031464345707654801 0.021060720572690757 0 -0.031235801849457963 0.021533704360351406 0 -0.02680943279664947 0.016871312070806027 0 -0.027996240073827606 0.016711067103866797 0 -0.027318538825879216 0.015804430034950367 0 -0.028248877492844583 0.018054479557353082 0 -0.02680943279664947 0.016871312070806027 0 -0.027996240073827606 0.016711067103866797 0 -0.027996240073827606 0.016711067103866797 0 -0.029146636514998374 0.016615032540872512 0 -0.028954685683993245 0.017561223016062763 0 -0.029146636514998374 0.016615032540872512 0 -0.028954685683993245 0.017561223016062763 0 -0.029970840946918174 0.017406945647304349 0 -0.028248877492844583 0.018054479557353082 0 -0.028954685683993245 0.017561223016062763 0 -0.029351880871998682 0.018601535410868807 0 -0.028954685683993245 0.017561223016062763 0 -0.029970840946918174 0.017406945647304349 0 -0.029351880871998682 0.018601535410868807 0 -0.029970840946918174 0.017406945647304349 0 -0.029351880871998682 0.018601535410868807 0 -0.030426794885059446 0.018521923350413288 0 -0.029146636514998374 0.016615032540872512 0 -0.030476111435038155 0.016547171350499087 0 -0.029970840946918174 0.017406945647304349 0 -0.027614468149960471 0.021274502137596886 0 -0.028730389327929932 0.015837908549105696 0 -0.030476111435038155 0.016547171350499087 0 -0.031258588434446566 0.017252228341340312 0 -0.031274363162023575 0.015852390985144092 0 -0.030476111435038155 0.016547171350499087 0 -0.029970840946918174 0.017406945647304349 0 -0.031258588434446566 0.017252228341340312 0 -0.026001770503306182 0.023475338105037092 0 -0.025693493059339115 0.023482703821828963 0 -0.025676421734416352 0.023723807902057165 0 -0.027614468149960471 0.021274502137596886 0 -0.026924582225024075 0.017976358434907774 0 -0.025479189466451446 0.023469337947640962 0 -0.025693493059339115 0.023482703821828963 0 -0.025676421734416352 0.023723807902057165 0 -0.026001770503306182 0.023475338105037092 0 -0.025693493059339115 0.023482703821828963 0 -0.025625269102996985 0.023228086309921733 0 -0.025479189466451446 0.023469337947640962 0 -0.025693493059339115 0.023482703821828963 0 -0.025625269102996985 0.023228086309921733 0 -0.024655516826315213 0.022849630778609551 0 -0.025625269102996985 0.023228086309921733 0 -0.025380397963373581 0.022463633860240272 0 -0.026001770503306182 0.023475338105037092 0 -0.025625269102996985 0.023228086309921733 0 -0.026239205534888382 0.022462637569101371 0 -0.029970840946918174 0.017406945647304349 0 -0.031258588434446566 0.017252228341340312 0 -0.030426794885059446 0.018521923350413288 0 -0.026616413859714024 0.023375561254446783 0 -0.026564875758220249 0.02218666733401882 0 -0.027166359690546621 0.022544386845677552 0 -0.027614468149960471 0.021274502137596886 0 -0.029015440978946355 0.020291361068022516 0 -0.027614468149960471 0.021274502137596886 0 -0.026234912948209427 0.022777594817096545 0 -0.026564875758220249 0.02218666733401882 0 -0.027112543982443432 0.021564707005054608 0 -0.027166359690546621 0.022544386845677552 0 -0.025625269102996985 0.023228086309921733 0 -0.026239205534888382 0.022462637569101371 0 -0.025380397963373581 0.022463633860240272 0 -0.026239205534888382 0.022462637569101371 0 -0.025380397963373581 0.022463633860240272 0 -0.025507975971202308 0.021604416891539708 0 -0.024457577193675872 0.021768855867065066 0 -0.025380397963373581 0.022463633860240272 0 -0.025507975971202308 0.021604416891539708 0 -0.02641028825126818 0.020762029441129936 0 -0.026564875758220249 0.02218666733401882 0 -0.027112543982443432 0.021564707005054608 0 -0.02644910993923515 0.020626917144286109 0 -0.026234912948209427 0.022777594817096545 0 -0.02641028825126818 0.020762029441129936 0 -0.02755514851554007 0.0205237965477254 0 -0.027112543982443432 0.021564707005054608 0 -0.02641028825126818 0.020762029441129936 0 -0.026239205534888382 0.022462637569101371 0 -0.025507975971202308 0.021604416891539708 0 -0.02755514851554007 0.0205237965477254 0 -0.027112543982443432 0.021564707005054608 0 -0.027911162726544703 0.021596254576217343 0 -0.028836454534076846 0.020239226187324683 0 -0.029639172379705748 0.019658306777424001 0 -0.028971433937627043 0.019982794387723844 0 -0.028782422823406671 0.019498593538216234 0 -0.029639172379705748 0.019658306777424001 0 -0.028971433937627043 0.019982794387723844 0 -0.028836454534076846 0.020239226187324683 0 -0.02755514851554007 0.0205237965477254 0 -0.027911162726544703 0.021596254576217343 0 -0.028880772806961035 0.020245416447101795 0 -0.028734194850641385 0.020637002574395481 0 -0.028782422823406671 0.019498593538216234 0 -0.029639172379705748 0.019658306777424001 0 -0.029351880871998682 0.018601535410868807 0 -0.028782422823406671 0.019498593538216234 0 -0.028248877492844583 0.018054479557353082 0 -0.029351880871998682 0.018601535410868807 0 -0.029639172379705748 0.019658306777424001 0 -0.029351880871998682 0.018601535410868807 0 -0.030426794885059446 0.018521923350413288 0 -0.028734194850641385 0.020637002574395481 0 -0.029015440978946355 0.020291361068022516 0 -0.027112543982443432 0.021564707005054608 0 -0.027911162726544703 0.021596254576217343 0 -0.027166359690546621 0.022544386845677552 0 -0.034998653192031805 0.034995793147241189 0 -0.032175258538832283 0.034180940833616245 0 -0.03046774525361096 0.03499801732567176 0 -0.034996230755580802 0.031173825234747529 0 -0.033791659266493863 0.033229410710040257 0 -0.034998653192031805 0.034995793147241189 0 -0.035000575206186935 0.031162215394042785 0 -0.035017016662065192 0.030717670717510883 0 -0.035245182002837529 0.030580515741617229 0 -0.034999426095970142 0.031163996378308047 0 -0.034125951972817106 0.032280936851829291 0 -0.03340233737594716 0.033763560937468087 0 -0.033791659266493863 0.033229410710040257 0 -0.032585489422264795 0.033880019511737802 0 -0.034996230755580802 0.031173825234747529 0 -0.03340233737594716 0.033763560937468087 0 -0.033791659266493863 0.033229410710040257 0 -0.033791659266493863 0.033229410710040257 0 -0.034998653192031805 0.034995793147241189 0 -0.032175258538832283 0.034180940833616245 0 -0.032175258538832283 0.034180940833616245 0 -0.030631280787380734 0.034579935115084705 0 -0.03046774525361096 0.03499801732567176 0 -0.032175258538832283 0.034180940833616245 0 -0.032585489422264795 0.033880019511737802 0 -0.03163630281433813 0.034213818199352215 0 -0.032175258538832283 0.034180940833616245 0 -0.03163630281433813 0.034213818199352215 0 -0.030631280787380734 0.034579935115084705 0 -0.033791659266493863 0.033229410710040257 0 -0.032175258538832283 0.034180940833616245 0 -0.032585489422264795 0.033880019511737802 0 -0.03340233737594716 0.033763560937468087 0 -0.032585489422264795 0.033880019511737802 0 -0.032410330230143211 0.033580428484084504 0 -0.032585489422264795 0.033880019511737802 0 -0.031843169455687347 0.034081543022071073 0 -0.032410330230143211 0.033580428484084504 0 -0.032585489422264795 0.033880019511737802 0 -0.031843169455687347 0.034081543022071073 0 -0.03163630281433813 0.034213818199352215 0 -0.031843169455687347 0.034081543022071073 0 -0.030799529099391328 0.034307130883733369 0 -0.031247472457745878 0.034490992775251327 0 -0.031843169455687347 0.034081543022071073 0 -0.03163630281433813 0.034213818199352215 0 -0.030799529099391328 0.034307130883733369 0 -0.030799529099391328 0.034307130883733369 0 -0.030528779463769994 0.033886352377244383 0 -0.029626206472535766 0.034864718674156608 0 -0.030799529099391328 0.034307130883733369 0 -0.030528779463769994 0.033886352377244383 0 -0.031247472457745878 0.034490992775251327 0 -0.030631280787380734 0.034579935115084705 0 -0.028817365056335496 0.035064403784853947 0 -0.029626206472535766 0.034864718674156608 0 -0.030799529099391328 0.034307130883733369 0 -0.030631280787380734 0.034579935115084705 0 -0.029626206472535766 0.034864718674156608 0 -0.03163630281433813 0.034213818199352215 0 -0.030799529099391328 0.034307130883733369 0 -0.030631280787380734 0.034579935115084705 0 -0.030631280787380734 0.034579935115084705 0 -0.03046774525361096 0.03499801732567176 0 -0.028817365056335496 0.035064403784853947 0 -0.03046774525361096 0.03499801732567176 0 -0.027034628258314108 0.034998229463993877 0 -0.028817365056335496 0.035064403784853947 0 -0.026149069493734273 0.03541283434620808 0 -0.027042766249176262 0.035828113437552635 0 -0.028817365056335496 0.035064403784853947 0 -0.026149069493734273 0.03541283434620808 0 -0.027034628258314108 0.034998229463993877 0 -0.028817365056335496 0.035064403784853947 0 -0.031854069759522298 0.019723101078690325 0 -0.031697842763293259 0.019565325330027833 0 -0.03267772238475327 0.020340928161411281 0 -0.027042766249176262 0.035828113437552635 0 -0.028817365056335496 0.035064403784853947 0 -0.029626206472535766 0.034864718674156608 0 -0.027042766249176262 0.035828113437552635 0 -0.029626206472535766 0.034864718674156608 0 -0.029411106454401467 0.035013609525075727 0 -0.030528779463769994 0.033886352377244383 0 -0.029626206472535766 0.034864718674156608 0 -0.029411106454401467 0.035013609525075727 0 -0.031854069759522298 0.019723101078690325 0 -0.031835592190624262 0.020525075280580441 0 -0.03267772238475327 0.020340928161411281 0 -0.02932000060963999 0.027767940376117038 0 -0.030954960209950911 0.027542370458163375 0 -0.031872719923488085 0.020385719549955064 0 -0.032599475685761659 0.021008071063547414 0 -0.031835592190624262 0.020525075280580441 0 -0.03267772238475327 0.020340928161411281 0 -0.032583832495294257 0.02109297351033446 0 -0.03267772238475327 0.020340928161411281 0 -0.032583832495294257 0.02109297351033446 0 -0.033318304354176972 0.020927139661536334 0 -0.030954960209950911 0.027542370458163375 0 -0.03227034927344296 0.026709935978529751 0 -0.030528779463769994 0.033886352377244383 0 -0.029411106454401467 0.035013609525075727 0 -0.031422722799525654 0.032650532253296463 0 -0.032583832495294257 0.02109297351033446 0 -0.033111064023208847 0.021438498340517139 0 -0.033318304354176972 0.020927139661536334 0 -0.032599475685761659 0.021008071063547414 0 -0.033069247896586267 0.021415366807197456 0 -0.032312340929281605 0.021383550186205639 0 -0.032620541243653461 0.020923063511044789 0 -0.033111064023208847 0.021438498340517139 0 -0.032312340929281605 0.021383550186205639 0 -0.032244622043734267 0.021760582097382682 0 -0.032739255555656398 0.021703258993337519 0 -0.032312340929281605 0.021383550186205639 0 -0.032739255555656398 0.021703258993337519 0 -0.033111064023208847 0.021438498340517139 0 -0.032244622043734267 0.021760582097382682 0 -0.032739255555656398 0.021703258993337519 0 -0.032669240574656568 0.021906179956376459 0 -0.032739255555656398 0.021703258993337519 0 -0.033108693092056253 0.021713027772671669 0 -0.033111064023208847 0.021438498340517139 0 -0.032739255555656398 0.021703258993337519 0 -0.033108693092056253 0.021713027772671669 0 -0.033035823297786218 0.021872046393671692 0 -0.033111064023208847 0.021438498340517139 0 -0.033547687987923111 0.021796575682941535 0 -0.033838039155439641 0.021329983482067768 0 -0.033108693092056253 0.021713027772671669 0 -0.033547687987923111 0.021796575682941535 0 -0.033035823297786218 0.021872046393671692 0 -0.033108693092056253 0.021713027772671669 0 -0.033111064023208847 0.021438498340517139 0 -0.033547687987923111 0.021796575682941535 0 -0.033547687987923111 0.021796575682941535 0 -0.033962398726822177 0.021984566292297711 0 -0.033887132504770011 0.021725075341473089 0 -0.033547687987923111 0.021796575682941535 0 -0.033887132504770011 0.021725075341473089 0 -0.033838039155439641 0.021329983482067768 0 -0.033720275649378094 0.025957101061072647 0 -0.03227034927344296 0.026709935978529751 0 -0.033817365273296401 0.03070477244747389 0 -0.033454565102301048 0.030891040981737831 0 -0.031422722799525654 0.032650532253296463 0 -0.033111064023208847 0.021438498340517139 0 -0.033838039155439641 0.021329983482067768 0 -0.033318304354176972 0.020927139661536334 0 -0.030528779463769994 0.033886352377244383 0 -0.031422722799525654 0.032650532253296463 0 -0.032797760063423984 0.031116562988208092 0 -0.030909711413731292 0.033680235468191683 0 -0.032108137238836064 0.032831769292514093 0 -0.033454565102301048 0.030891040981737831 0 -0.031422722799525654 0.032650532253296463 0 -0.032797760063423984 0.031116562988208092 0 -0.033454565102301048 0.030891040981737831 0 -0.032797760063423984 0.031116562988208092 0 -0.034498687965286372 0.029842679462003537 0 -0.031843169455687347 0.034081543022071073 0 -0.031247472457745878 0.034490992775251327 0 -0.032410330230143211 0.033580428484084504 0 -0.031247472457745878 0.034490992775251327 0 -0.032410330230143211 0.033580428484084504 0 -0.032965873715649269 0.033196150279187618 0 -0.032108137238836064 0.032831769292514093 0 -0.033674263808187443 0.031502170457334146 0 -0.033674263808187443 0.031502170457334146 0 -0.034991028521096486 0.030203392379797571 0 -0.035017016662065192 0.030717670717510883 0 -0.032965873715649269 0.033196150279187618 0 -0.035199786186168772 0.031169265872270892 0 -0.035017016662065192 0.030717670717510883 0 -0.032410330230143211 0.033580428484084504 0 -0.032965873715649269 0.033196150279187618 0 -0.034125951972817106 0.032280936851829291 0 -0.032668238658022895 0.033360340272516206 0 -0.034771815929968627 0.029678272246073743 0 -0.034938320488608697 0.029489742351645358 0 -0.035137059192868636 0.029239863482838812 0 -0.034498687965286372 0.029842679462003537 0 -0.034771815929968627 0.029678272246073743 0 -0.035137059192868636 0.029239863482838812 0 -0.034498687965286372 0.029842679462003537 0 -0.034771815929968627 0.029678272246073743 0 -0.034299143926920038 0.030171913755904497 0 -0.034771815929968627 0.029678272246073743 0 -0.034938320488608697 0.029489742351645358 0 -0.034299143926920038 0.030171913755904497 0 -0.033817365273296401 0.03070477244747389 0 -0.033454565102301048 0.030891040981737831 0 -0.034299143926920038 0.030171913755904497 0 -0.033454565102301048 0.030891040981737831 0 -0.034498687965286372 0.029842679462003537 0 -0.034299143926920038 0.030171913755904497 0 -0.033817365273296401 0.03070477244747389 0 -0.034938320488608697 0.029489742351645358 0 -0.034299143926920038 0.030171913755904497 0 -0.033817365273296401 0.03070477244747389 0 -0.034938320488608697 0.029489742351645358 0 -0.0353076333671394 0.028879667030124317 0 -0.033720275649378094 0.025957101061072647 0 -0.034834760727731735 0.025381406664584112 0 -0.033838039155439641 0.021329983482067768 0 -0.034211847059759937 0.021950777580290369 0 -0.034560272848725329 0.021963264414819345 0 -0.033887132504770011 0.021725075341473089 0 -0.033838039155439641 0.021329983482067768 0 -0.034211847059759937 0.021950777580290369 0 -0.033962398726822177 0.021984566292297711 0 -0.033887132504770011 0.021725075341473089 0 -0.034211847059759937 0.021950777580290369 0 -0.033962398726822177 0.021984566292297711 0 -0.034211847059759937 0.021950777580290369 0 -0.034221668987126426 0.022169702411051394 0 -0.034211847059759937 0.021950777580290369 0 -0.034560272848725329 0.021963264414819345 0 -0.034925297569354939 0.02362898850276271 0 -0.034834760727731735 0.025381406664584112 0 -0.035456861701089762 0.025081636625407907 0 -0.034252376888984498 0.02206334871572891 0 -0.034807289149919825 0.022863065659832947 0 -0.034938320488608697 0.029489742351645358 0 -0.0353076333671394 0.028879667030124317 0 -0.03526164646252871 0.028594929080413056 0 -0.0353076333671394 0.028879667030124317 0 -0.03526164646252871 0.028594929080413056 0 -0.035382828506612049 0.027538827107351834 0 -0.0353076333671394 0.028879667030124317 0 -0.035382828506612049 0.027538827107351834 0 -0.035705526432904755 0.026613016457287503 0 -0.035382828506612049 0.027538827107351834 0 -0.034999544289968029 0.027449001759784288 0 -0.034999364903115816 0.025990137308949061 0 -0.03526164646252871 0.028594929080413056 0 -0.035382828506612049 0.027538827107351834 0 -0.034999544289968029 0.027449001759784288 0 -0.03526164646252871 0.028594929080413056 0 -0.034999544289968029 0.027449001759784288 0 -0.034999548272816511 0.028905444403403261 0 -0.03526164646252871 0.028594929080413056 0 -0.034999548272816511 0.028905444403403261 0 -0.035137059192868636 0.029239863482838812 0 -0.034999755021092656 0.028906854530394623 0 -0.034991028521096486 0.030203392379797571 0 -0.035000406731687278 0.028907972747101149 0 -0.035199786186168772 0.031169265872270892 0 -0.035245182002837529 0.030580515741617229 0 -0.034938320488608697 0.029489742351645358 0 -0.03526164646252871 0.028594929080413056 0 -0.035137059192868636 0.029239863482838812 0 -0.035017016662065192 0.030717670717510883 0 -0.035199786186168772 0.031169265872270892 0 -0.035245182002837529 0.030580515741617229 0 -0.035000575206186935 0.031162215394042785 0 -0.035245182002837529 0.030580515741617229 0 -0.034999151250742544 0.030035840876148148 0 -0.035000406731687278 0.028907972747101149 0 -0.035245182002837529 0.030580515741617229 0 -0.034999151250742544 0.030035840876148148 0 -0.035136760200692251 0.02255074561249076 0 -0.03500005152426678 0.023072724134232753 0 -0.035375709546774173 0.021949791485029284 0 -0.03500005152426678 0.023072724134232753 0 -0.034999454134504691 0.021490627025541727 0 -0.035375709546774173 0.021949791485029284 0 -0.035136760200692251 0.02255074561249076 0 -0.035106146411516416 0.022226792191755301 0 -0.035375709546774173 0.021949791485029284 0 -0.035136760200692251 0.02255074561249076 0 -0.035106146411516416 0.022226792191755301 0 -0.034943086657208841 0.022402386831926503 0 -0.035106146411516416 0.022226792191755301 0 -0.034943086657208841 0.022402386831926503 0 -0.034861260303238467 0.022261303063417795 0 -0.035106146411516416 0.022226792191755301 0 -0.034861260303238467 0.022261303063417795 0 -0.034878712204481056 0.022297442967323094 0 -0.035136760200692251 0.02255074561249076 0 -0.034943086657208841 0.022402386831926503 0 -0.035017471449632138 0.022390911358192662 0 -0.034999771553229808 0.023076961782455826 0 -0.035000313270807465 0.024528860386855821 0 -0.035468012646261142 0.024261146417714263 0 -0.034999945354367637 0.023075411711076212 0 -0.035198632188216727 0.023288381825456287 0 -0.035136760200692251 0.02255074561249076 0 -0.03500005152426678 0.023072724134232753 0 -0.035017471449632138 0.022390911358192662 0 -0.035000313270807465 0.024528860386855821 0 -0.035491621211510324 0.023691415312556526 0 -0.035468012646261142 0.024261146417714263 0 -0.035382828506612049 0.027538827107351834 0 -0.034999364903115816 0.025990137308949061 0 -0.035705526432904755 0.026613016457287503 0 -0.035000244495568551 0.024531079750329768 0 -0.034999364903115816 0.025990137308949061 0 -0.035705526432904755 0.026613016457287503 0 -0.034999910573939988 0.024530679691529333 0 -0.035456861701089762 0.025081636625407907 0 -0.035491621211510324 0.023691415312556526 0 -0.035468012646261142 0.024261146417714263 0 -0.034925297569354939 0.02362898850276271 0 -0.035198632188216727 0.023288381825456287 0 -0.034807289149919825 0.022863065659832947 0 -0.034943086657208841 0.022402386831926503 0 -0.035017471449632138 0.022390911358192662 0 -0.034696890526883684 0.022361038833705403 0 -0.035017471449632138 0.022390911358192662 0 -0.034696890526883684 0.022361038833705403 0 -0.034631726419176861 0.022121353088922612 0 -0.034475071807716917 0.022284981622992289 0 -0.034696890526883684 0.022361038833705403 0 -0.034340642326847547 0.022525036188950392 0 -0.034475071807716917 0.022284981622992289 0 -0.034696890526883684 0.022361038833705403 0 -0.034631726419176861 0.022121353088922612 0 -0.034560272848725329 0.021963264414819345 0 -0.035491621211510324 0.023691415312556526 0 -0.034925297569354939 0.02362898850276271 0 -0.034475071807716917 0.022284981622992289 0 -0.034631726419176861 0.022121353088922612 0 -0.034221668987126426 0.022169702411051394 0 -0.034211847059759937 0.021950777580290369 0 -0.034631726419176861 0.022121353088922612 0 -0.034221668987126426 0.022169702411051394 0 -0.034221668987126426 0.022169702411051394 0 -0.034340642326847547 0.022525036188950392 0 -0.033672682888078002 0.022334255449736436 0 -0.034475071807716917 0.022284981622992289 0 -0.034221668987126426 0.022169702411051394 0 -0.034340642326847547 0.022525036188950392 0 -0.03437881417852947 0.021813646973559128 0 -0.034586419614460746 0.022185351736996033 0 -0.033974555785244387 0.022030648665663212 0 -0.034943086657208841 0.022402386831926503 0 -0.034696890526883684 0.022361038833705403 0 -0.034340642326847547 0.022525036188950392 0 -0.03487988247445846 0.022376896964189267 0 -0.034349189667884375 0.022175399293773591 0 -0.034943086657208841 0.022402386831926503 0 -0.03437881417852947 0.021813646973559128 0 -0.034586419614460746 0.022185351736996033 0 -0.034943086657208841 0.022402386831926503 0 -0.034586419614460746 0.022185351736996033 0 -0.034861260303238467 0.022261303063417795 0 -0.034586419614460746 0.022185351736996033 0 -0.034861260303238467 0.022261303063417795 0 -0.034631561655448916 0.022282177580204517 0 -0.034861260303238467 0.022261303063417795 0 -0.034631561655448916 0.022282177580204517 0 -0.034878712204481056 0.022297442967323094 0 -0.034586419614460746 0.022185351736996033 0 -0.03430743046988393 0.022245056687433769 0 -0.033974555785244387 0.022030648665663212 0 -0.034586419614460746 0.022185351736996033 0 -0.03430743046988393 0.022245056687433769 0 -0.034631561655448916 0.022282177580204517 0 -0.033468221119009198 0.022160289744528446 0 -0.033974555785244387 0.022030648665663212 0 -0.033900263719236857 0.022323287082477057 0 -0.03430743046988393 0.022245056687433769 0 -0.033974555785244387 0.022030648665663212 0 -0.033900263719236857 0.022323287082477057 0 -0.033468221119009198 0.022160289744528446 0 -0.033502442359185453 0.022402987368164883 0 -0.033900263719236857 0.022323287082477057 0 -0.033468221119009198 0.022160289744528446 0 -0.033974555785244387 0.022030648665663212 0 -0.033650298611936261 0.021713981101280647 0 -0.034349189667884375 0.022175399293773591 0 -0.033672251799372298 0.022027580456261363 0 -0.03437881417852947 0.021813646973559128 0 -0.033974555785244387 0.022030648665663212 0 -0.033650298611936261 0.021713981101280647 0 -0.033547687987923111 0.021796575682941535 0 -0.033962398726822177 0.021984566292297711 0 -0.033672682888078002 0.022334255449736436 0 -0.033962398726822177 0.021984566292297711 0 -0.034221668987126426 0.022169702411051394 0 -0.033672682888078002 0.022334255449736436 0 -0.033547687987923111 0.021796575682941535 0 -0.033672682888078002 0.022334255449736436 0 -0.033035823297786218 0.021872046393671692 0 -0.033672251799372298 0.022027580456261363 0 -0.03309858255141452 0.021878496474865634 0 -0.033650298611936261 0.021713981101280647 0 -0.033171818016799214 0.021964077593744108 0 -0.033035823297786218 0.021872046393671692 0 -0.033468221119009198 0.022160289744528446 0 -0.033650298611936261 0.021713981101280647 0 -0.033171818016799214 0.021964077593744108 0 -0.033171818016799214 0.021964077593744108 0 -0.033035823297786218 0.021872046393671692 0 -0.032669240574656568 0.021906179956376459 0 -0.032739255555656398 0.021703258993337519 0 -0.033035823297786218 0.021872046393671692 0 -0.032669240574656568 0.021906179956376459 0 -0.032669240574656568 0.021906179956376459 0 -0.03286309524846822 0.022030972110063083 0 -0.03261879487104026 0.022096825529535836 0 -0.033171818016799214 0.021964077593744108 0 -0.032669240574656568 0.021906179956376459 0 -0.03286309524846822 0.022030972110063083 0 -0.033171818016799214 0.021964077593744108 0 -0.03286309524846822 0.022030972110063083 0 -0.032995748378140698 0.02216871488024192 0 -0.032995748378140698 0.02216871488024192 0 -0.03261879487104026 0.022096825529535836 0 -0.032725521458868381 0.022202916938461006 0 -0.03286309524846822 0.022030972110063083 0 -0.032995748378140698 0.02216871488024192 0 -0.03261879487104026 0.022096825529535836 0 -0.033468221119009198 0.022160289744528446 0 -0.033171818016799214 0.021964077593744108 0 -0.032995748378140698 0.02216871488024192 0 -0.033468221119009198 0.022160289744528446 0 -0.033199995504873556 0.022322153826223351 0 -0.033502442359185453 0.022402987368164883 0 -0.033468221119009198 0.022160289744528446 0 -0.032995748378140698 0.02216871488024192 0 -0.033199995504873556 0.022322153826223351 0 -0.032995748378140698 0.02216871488024192 0 -0.033199995504873556 0.022322153826223351 0 -0.032838319378405978 0.02230801216694268 0 -0.032995748378140698 0.02216871488024192 0 -0.032725521458868381 0.022202916938461006 0 -0.032838319378405978 0.02230801216694268 0 -0.033199995504873556 0.022322153826223351 0 -0.033212066779410063 0.022482852217352075 0 -0.032838319378405978 0.02230801216694268 0 -0.033199995504873556 0.022322153826223351 0 -0.033212066779410063 0.022482852217352075 0 -0.033502442359185453 0.022402987368164883 0 -0.033212066779410063 0.022482852217352075 0 -0.033522460503409138 0.022567088099056051 0 -0.033502442359185453 0.022402987368164883 0 -0.033212066779410063 0.022482852217352075 0 -0.033370479675900934 0.02256285319674952 0 -0.033522460503409138 0.022567088099056051 0 -0.033212066779410063 0.022482852217352075 0 -0.033370479675900934 0.02256285319674952 0 -0.033228731034328537 0.022530341204818886 0 -0.033403763043615919 0.02246048563230808 0 -0.033370479675900934 0.02256285319674952 0 -0.033228731034328537 0.022530341204818886 0 -0.033403763043615919 0.02246048563230808 0 -0.033228731034328537 0.022530341204818886 0 -0.033547106425325227 0.02231075162477596 0 -0.030128874754048574 0.018216016773266151 0 -0.030524166933022467 0.017997742513158822 0 -0.033403763043615919 0.02246048563230808 0 -0.033392611342238178 0.022370422141249891 0 -0.033547106425325227 0.02231075162477596 0 -0.033370479675900934 0.02256285319674952 0 -0.033578598333370777 0.022739849414364015 0 -0.033392611342238178 0.022370422141249891 0 -0.033403763043615919 0.02246048563230808 0 -0.033370479675900934 0.02256285319674952 0 -0.033392611342238178 0.022370422141249891 0 -0.033370479675900934 0.02256285319674952 0 -0.033578598333370777 0.022739849414364015 0 -0.033522460503409138 0.022567088099056051 0 -0.033578598333370777 0.022739849414364015 0 -0.033818579354586646 0.022650675853818254 0 -0.033522460503409138 0.022567088099056051 0 -0.033475946698591538 0.022440698994102195 0 -0.033408582628666444 0.022384483314098931 0 -0.033219766503356361 0.022210318769356637 0 -0.033262455322366886 0.022196602191816055 0 -0.033392611342238178 0.022370422141249891 0 -0.033219766503356361 0.022210318769356637 0 -0.033260903266522937 0.022104074179986725 0 -0.033272642600066411 0.022153084227153407 0 -0.033475946698591538 0.022440698994102195 0 -0.033529875844889388 0.022581795068158116 0 -0.033219766503356361 0.022210318769356637 0 -0.033272642600066411 0.022153084227153407 0 -0.033163151136879371 0.022106953803391418 0 -0.033578598333370777 0.022739849414364015 0 -0.033818579354586646 0.022650675853818254 0 -0.034128905903236494 0.02287879007528737 0 -0.033818579354586646 0.022650675853818254 0 -0.034088486151641735 0.022633297113206736 0 -0.034128905903236494 0.02287879007528737 0 -0.033818579354586646 0.022650675853818254 0 -0.034033701722175506 0.022483591913599089 0 -0.03371431881858248 0.022480744023079431 0 -0.033818579354586646 0.022650675853818254 0 -0.034088486151641735 0.022633297113206736 0 -0.034033701722175506 0.022483591913599089 0 -0.033818579354586646 0.022650675853818254 0 -0.03371431881858248 0.022480744023079431 0 -0.033522460503409138 0.022567088099056051 0 -0.03371431881858248 0.022480744023079431 0 -0.033522460503409138 0.022567088099056051 0 -0.033502442359185453 0.022402987368164883 0 -0.03371431881858248 0.022480744023079431 0 -0.033502442359185453 0.022402987368164883 0 -0.033900263719236857 0.022323287082477057 0 -0.034033701722175506 0.022483591913599089 0 -0.03371431881858248 0.022480744023079431 0 -0.033900263719236857 0.022323287082477057 0 -0.034033701722175506 0.022483591913599089 0 -0.033900263719236857 0.022323287082477057 0 -0.03433897058072443 0.022350179862671155 0 -0.03430743046988393 0.022245056687433769 0 -0.033900263719236857 0.022323287082477057 0 -0.03433897058072443 0.022350179862671155 0 -0.03433897058072443 0.022350179862671155 0 -0.034631561655448916 0.022282177580204517 0 -0.03475452028408374 0.022352743889514103 0 -0.03430743046988393 0.022245056687433769 0 -0.03433897058072443 0.022350179862671155 0 -0.034631561655448916 0.022282177580204517 0 -0.034878712204481056 0.022297442967323094 0 -0.03475452028408374 0.022352743889514103 0 -0.03503759193321445 0.022312727897447541 0 -0.034631561655448916 0.022282177580204517 0 -0.034878712204481056 0.022297442967323094 0 -0.03475452028408374 0.022352743889514103 0 -0.034894500292921016 0.022292095337885679 0 -0.035291902856697095 0.022357605075589738 0 -0.03475452028408374 0.022352743889514103 0 -0.035373701917479461 0.022007575462469977 0 -0.035583649257905289 0.021781008624094867 0 -0.03475452028408374 0.022352743889514103 0 -0.034825215458007146 0.022344641359382453 0 -0.034406622971016591 0.022482370724336079 0 -0.03475452028408374 0.022352743889514103 0 -0.035373701917479461 0.022007575462469977 0 -0.034825215458007146 0.022344641359382453 0 -0.035373701917479461 0.022007575462469977 0 -0.034991929873066353 0.022380859706339809 0 -0.034825215458007146 0.022344641359382453 0 -0.034991929873066353 0.022380859706339809 0 -0.034849946064354737 0.022483125991464358 0 -0.034998323924455316 0.022684728057535436 0 -0.035373701917479461 0.022007575462469977 0 -0.034991929873066353 0.022380859706339809 0 -0.034998323924455316 0.022684728057535436 0 -0.035373701917479461 0.022007575462469977 0 -0.0361225844323542 0.02145449913095825 0 -0.035682945520226154 0.021636181261345852 0 -0.035379094223817908 0.02178105621048675 0 -0.035034859728051308 0.021784017874717978 0 -0.035373701917479461 0.022007575462469977 0 -0.036744008633536648 0.021335082340364946 0 -0.0361225844323542 0.02145449913095825 0 -0.034849946064354737 0.022483125991464358 0 -0.034626943170804371 0.02258933184922848 0 -0.034998323924455316 0.022684728057535436 0 -0.034825215458007146 0.022344641359382453 0 -0.034849946064354737 0.022483125991464358 0 -0.034626943170804371 0.02258933184922848 0 -0.034991929873066353 0.022380859706339809 0 -0.034825215458007146 0.022344641359382453 0 -0.034849946064354737 0.022483125991464358 0 -0.03433897058072443 0.022350179862671155 0 -0.03475452028408374 0.022352743889514103 0 -0.034406622971016591 0.022482370724336079 0 -0.034825215458007146 0.022344641359382453 0 -0.034406622971016591 0.022482370724336079 0 -0.034626943170804371 0.02258933184922848 0 -0.034033701722175506 0.022483591913599089 0 -0.03433897058072443 0.022350179862671155 0 -0.034406622971016591 0.022482370724336079 0 -0.034088486151641735 0.022633297113206736 0 -0.034033701722175506 0.022483591913599089 0 -0.034406622971016591 0.022482370724336079 0 -0.034088486151641735 0.022633297113206736 0 -0.034406622971016591 0.022482370724336079 0 -0.034128905903236494 0.02287879007528737 0 -0.033529875844889388 0.022581795068158116 0 -0.035034859728051308 0.021784017874717978 0 -0.034128905903236494 0.02287879007528737 0 -0.034626943170804371 0.02258933184922848 0 -0.034998323924455316 0.022684728057535436 0 -0.034406622971016591 0.022482370724336079 0 -0.034128905903236494 0.02287879007528737 0 -0.034626943170804371 0.02258933184922848 0 -0.033260903266522937 0.022104074179986725 0 -0.033272642600066411 0.022153084227153407 0 -0.033446387386123586 0.022020996768362944 0 -0.038296821612152261 0.018597995111781989 0 -0.037394474695506275 0.018546065966916433 0 -0.037399772278963024 0.01754755500611296 0 -0.036726128201735042 0.018500116745443034 0 -0.037394474695506275 0.018546065966916433 0 -0.037399772278963024 0.01754755500611296 0 -0.038296821612152261 0.018597995111781989 0 -0.037394474695506275 0.018546065966916433 0 -0.037152120105021308 0.019617274346646351 0 -0.036726128201735042 0.018500116745443034 0 -0.037394474695506275 0.018546065966916433 0 -0.037152120105021308 0.019617274346646351 0 -0.036726128201735042 0.018500116745443034 0 -0.036465389703275453 0.019575742084385526 0 -0.03583714993471851 0.019344472444758228 0 -0.036726128201735042 0.018500116745443034 0 -0.037152120105021308 0.019617274346646351 0 -0.036465389703275453 0.019575742084385526 0 -0.035774434848143584 0.020363426463898306 0 -0.035034859728051308 0.021784017874717978 0 -0.036465389703275453 0.019575742084385526 0 -0.036515850639873039 0.020292669363454655 0 -0.036014743578712281 0.020263722103426363 0 -0.037152120105021308 0.019617274346646351 0 -0.036515850639873039 0.020292669363454655 0 -0.036692340122761756 0.021225825829896374 0 -0.038296821612152261 0.018597995111781989 0 -0.037152120105021308 0.019617274346646351 0 -0.036692340122761756 0.021225825829896374 0 -0.037152120105021308 0.019617274346646351 0 -0.036465389703275453 0.019575742084385526 0 -0.036515850639873039 0.020292669363454655 0 -0.036515850639873039 0.020292669363454655 0 -0.036260521573598298 0.020845476029832517 0 -0.036014743578712281 0.020263722103426363 0 -0.036515850639873039 0.020292669363454655 0 -0.036260521573598298 0.020845476029832517 0 -0.036692340122761756 0.021225825829896374 0 -0.035034859728051308 0.021784017874717978 0 -0.035484218456789389 0.021601233279575988 0 -0.036260521573598298 0.020845476029832517 0 -0.036692340122761756 0.021225825829896374 0 -0.0361225844323542 0.02145449913095825 0 -0.036260521573598298 0.020845476029832517 0 -0.0361225844323542 0.02145449913095825 0 -0.03580590681538412 0.021099265303279914 0 -0.03580590681538412 0.021099265303279914 0 -0.035267596677134007 0.020403115579925322 0 -0.036014743578712281 0.020263722103426363 0 -0.03580590681538412 0.021099265303279914 0 -0.035267596677134007 0.020403115579925322 0 -0.035583649257905289 0.021781008624094867 0 -0.03510393651071167 0.020034822973232048 0 -0.035291902856697095 0.022357605075589738 0 -0.03529882153926106 0.022791816590937358 0 -0.035198557830374851 0.02261223186179807 0 -0.035034886739297645 0.022602952914691291 0 -0.03580590681538412 0.021099265303279914 0 -0.035682945520226154 0.021636181261345852 0 -0.035583649257905289 0.021781008624094867 0 -0.035267596677134007 0.020403115579925322 0 -0.033992775688159116 0.020073671381208521 0 -0.035583649257905289 0.021781008624094867 0 -0.0361225844323542 0.02145449913095825 0 -0.03580590681538412 0.021099265303279914 0 -0.035682945520226154 0.021636181261345852 0 -0.036260521573598298 0.020845476029832517 0 -0.03580590681538412 0.021099265303279914 0 -0.036014743578712281 0.020263722103426363 0 -0.035267596677134007 0.020403115579925322 0 -0.03583714993471851 0.019344472444758228 0 -0.034926979922357743 0.019477322294590108 0 -0.035267596677134007 0.020403115579925322 0 -0.034926979922357743 0.019477322294590108 0 -0.033992775688159116 0.020073671381208521 0 -0.035267596677134007 0.020403115579925322 0 -0.036014743578712281 0.020263722103426363 0 -0.03583714993471851 0.019344472444758228 0 -0.036465389703275453 0.019575742084385526 0 -0.036014743578712281 0.020263722103426363 0 -0.03583714993471851 0.019344472444758228 0 -0.03583714993471851 0.019344472444758228 0 -0.034926979922357743 0.019477322294590108 0 -0.035594813755813144 0.018448352770807374 0 -0.035594813755813144 0.018448352770807374 0 -0.034823930085084442 0.018549817324399233 0 -0.035286127732581045 0.017699934379312689 0 -0.034926979922357743 0.019477322294590108 0 -0.035594813755813144 0.018448352770807374 0 -0.034823930085084442 0.018549817324399233 0 -0.036726128201735042 0.018500116745443034 0 -0.035594813755813144 0.018448352770807374 0 -0.035984953299540753 0.017454987056980169 0 -0.036726128201735042 0.018500116745443034 0 -0.03583714993471851 0.019344472444758228 0 -0.035594813755813144 0.018448352770807374 0 -0.034823930085084442 0.018549817324399233 0 -0.033992775688159116 0.020073671381208521 0 -0.034488461323209908 0.017143008161491387 0 -0.03510393651071167 0.020034822973232048 0 -0.035043026403574318 0.016899963694229175 0 -0.035000002983497008 0.018316575100801286 0 -0.035665134363735279 0.018887663277241153 0 -0.03564492723498297 0.016871187233174996 0 -0.034926979922357743 0.019477322294590108 0 -0.034823930085084442 0.018549817324399233 0 -0.033992775688159116 0.020073671381208521 0 -0.03510393651071167 0.020034822973232048 0 -0.035487930355158973 0.021584297634218871 0 -0.03529882153926106 0.022791816590937358 0 -0.035319058578057873 0.022514381180967529 0 -0.035198557830374851 0.02261223186179807 0 -0.034999852838923276 0.01831699524515621 0 -0.03510393651071167 0.020034822973232048 0 -0.034999942850438462 0.018316672482486904 0 -0.035662103774803965 0.018888018516480195 0 -0.035000099683838708 0.019902499271655875 0 -0.035000099683838708 0.019902499271655875 0 -0.035648756926148169 0.020339994193193173 0 -0.034999454134504691 0.021490627025541727 0 -0.035662103774803965 0.018888018516480195 0 -0.035000099683838708 0.019902499271655875 0 -0.035648756926148169 0.020339994193193173 0 -0.035198557830374851 0.02261223186179807 0 -0.035034886739297645 0.022602952914691291 0 -0.035082874924116596 0.022452764385243327 0 -0.035319058578057873 0.022514381180967529 0 -0.035198557830374851 0.02261223186179807 0 -0.035082874924116596 0.022452764385243327 0 -0.03475452028408374 0.022352743889514103 0 -0.035034886739297645 0.022602952914691291 0 -0.035082874924116596 0.022452764385243327 0 -0.035373701917479461 0.022007575462469977 0 -0.035682945520226154 0.021636181261345852 0 -0.035583649257905289 0.021781008624094867 0 -0.035319058578057873 0.022514381180967529 0 -0.035082874924116596 0.022452764385243327 0 -0.035196376665700385 0.022309900570311448 0 -0.03475452028408374 0.022352743889514103 0 -0.035082874924116596 0.022452764385243327 0 -0.03503759193321445 0.022312727897447541 0 -0.035082874924116596 0.022452764385243327 0 -0.035196376665700385 0.022309900570311448 0 -0.03503759193321445 0.022312727897447541 0 -0.035196376665700385 0.022309900570311448 0 -0.03503759193321445 0.022312727897447541 0 -0.035177069593391945 0.022185395327825722 0 -0.035106146411516416 0.022226792191755301 0 -0.034878712204481056 0.022297442967323094 0 -0.03503759193321445 0.022312727897447541 0 -0.035106146411516416 0.022226792191755301 0 -0.03503759193321445 0.022312727897447541 0 -0.035177069593391945 0.022185395327825722 0 -0.035106146411516416 0.022226792191755301 0 -0.035177069593391945 0.022185395327825722 0 -0.035375709546774173 0.021949791485029284 0 -0.035648756926148169 0.020339994193193173 0 -0.034999454134504691 0.021490627025541727 0 -0.035375709546774173 0.021949791485029284 0 -0.035487930355158973 0.021584297634218871 0 -0.035404204229137377 0.021817822256442763 0 -0.035196376665700385 0.022309900570311448 0 -0.035177069593391945 0.022185395327825722 0 -0.035375709546774173 0.021949791485029284 0 -0.035319058578057873 0.022514381180967529 0 -0.035196376665700385 0.022309900570311448 0 -0.035375709546774173 0.021949791485029284 0 -0.027835730407869592 0.014836444092545538 0 -0.027796765243629909 0.014488482785919536 0 -0.028083367496891731 0.01456150441656392 0 -0.027835730407869592 0.014836444092545538 0 -0.027588370832052959 0.014587199075626609 0 -0.027796765243629909 0.014488482785919536 0 -0.027835730407869592 0.014836444092545538 0 -0.027820210339211296 0.015124885988302422 0 -0.027503204990387043 0.014725682559133426 0 -0.027835730407869592 0.014836444092545538 0 -0.027588370832052959 0.014587199075626609 0 -0.027503204990387043 0.014725682559133426 0 -0.027407860204319449 0.014206771474946889 0 -0.027462388554440369 0.014668662410114544 0 -0.027588370832052959 0.014587199075626609 0 -0.027313359523426631 0.014265293886360709 0 -0.027503204990387043 0.014725682559133426 0 -0.027313359523426631 0.014265293886360709 0 -0.027796765243629909 0.014488482785919536 0 -0.027712414691836135 0.014129491913634634 0 -0.027588370832052959 0.014587199075626609 0 -0.027313359523426631 0.014265293886360709 0 -0.027796765243629909 0.014488482785919536 0 -0.027796765243629909 0.014488482785919536 0 -0.028044487240900272 0.01438164209030548 0 -0.027712414691836135 0.014129491913634634 0 -0.027796765243629909 0.014488482785919536 0 -0.028044487240900272 0.01438164209030548 0 -0.028083367496891731 0.01456150441656392 0 -0.028044487240900272 0.01438164209030548 0 -0.028113140997432048 0.014296869075073155 0 -0.028042366695072964 0.014091820490465218 0 -0.028044487240900272 0.01438164209030548 0 -0.028078522137838815 0.014491487562025809 0 -0.028083367496891731 0.01456150441656392 0 -0.028090127774087585 0.014411313570331766 0 -0.028115475080545523 0.014391110278321221 0 -0.028207251813692904 0.01425781077681456 0 -0.028090127774087585 0.014411313570331766 0 -0.028115475080545523 0.014391110278321221 0 -0.028064051058312778 0.014462377775147245 0 -0.028115475080545523 0.014391110278321221 0 -0.028113140997432048 0.014296869075073155 0 -0.028207251813692904 0.01425781077681456 0 -0.028044487240900272 0.01438164209030548 0 -0.028115475080545523 0.014391110278321221 0 -0.028113140997432048 0.014296869075073155 0 -0.028044487240900272 0.01438164209030548 0 -0.028115475080545523 0.014391110278321221 0 -0.028078522137838815 0.014491487562025809 0 -0.028115475080545523 0.014391110278321221 0 -0.028064051058312778 0.014462377775147245 0 -0.028078522137838815 0.014491487562025809 0 -0.028017603652870846 0.014455483947779228 0 -0.028078522137838815 0.014491487562025809 0 -0.028019679849690504 0.014426277310709713 0 -0.028064051058312778 0.014462377775147245 0 -0.028017603652870846 0.014455483947779228 0 -0.028078522137838815 0.014491487562025809 0 -0.028078522137838815 0.014491487562025809 0 -0.028083367496891731 0.01456150441656392 0 -0.028019679849690504 0.014426277310709713 0 -0.027934309712358676 0.014422273491191816 0 -0.028017603652870846 0.014455483947779228 0 -0.028019679849690504 0.014426277310709713 0 -0.028083367496891731 0.01456150441656392 0 -0.028099006499357922 0.014396208430798332 0 -0.028019679849690504 0.014426277310709713 0 -0.027835730407869592 0.014836444092545538 0 -0.028083367496891731 0.01456150441656392 0 -0.028145569916649543 0.014964422180868754 0 -0.028096149147685209 0.014644178892064178 0 -0.028112789808766935 0.014486538845110761 0 -0.028099006499357922 0.014396208430798332 0 -0.028037641568709464 0.014346264575462456 0 -0.028089109300802148 0.01429909982098335 0 -0.02800386367766795 0.015119034270983062 0 -0.028145569916649543 0.014964422180868754 0 -0.028135303421634304 0.015227760018093712 0 -0.028112789808766935 0.014486538845110761 0 -0.028730389327929932 0.015837908549105696 0 -0.027835730407869592 0.014836444092545538 0 -0.02800386367766795 0.015119034270983062 0 -0.028145569916649543 0.014964422180868754 0 -0.02790814336878325 0.014369378186728616 0 -0.028019679849690504 0.014426277310709713 0 -0.027964104921031015 0.014332633083050661 0 -0.028099006499357922 0.014396208430798332 0 -0.028019679849690504 0.014426277310709713 0 -0.028037641568709464 0.014346264575462456 0 -0.028019679849690504 0.014426277310709713 0 -0.028037641568709464 0.014346264575462456 0 -0.027964104921031015 0.014332633083050661 0 -0.027869597322391457 0.01430095617398954 0 -0.027964104921031015 0.014332633083050661 0 -0.028013757342079438 0.014266256813962472 0 -0.028037641568709464 0.014346264575462456 0 -0.027964104921031015 0.014332633083050661 0 -0.028013477215943876 0.014292048351298766 0 -0.028615159444126272 0.013763114228913458 0 -0.026924582225024075 0.017976358434907774 0 -0.028037641568709464 0.014346264575462456 0 -0.028013477215943876 0.014292048351298766 0 -0.028089109300802148 0.01429909982098335 0 -0.026924582225024075 0.017976358434907774 0 -0.028730389327929932 0.015837908549105696 0 -0.02728860330872063 0.020067709715462009 0 -0.028770640024638403 0.017735909823061537 0 -0.027291743625896651 0.017619256563194435 0 -0.030476111435038155 0.016547171350499087 0 -0.031274363162023575 0.015852390985144092 0 -0.02975231078605647 0.015667383056103781 0 -0.028730389327929932 0.015837908549105696 0 -0.02900394671784497 0.015449198360267202 0 -0.029146636514998374 0.016615032540872512 0 -0.030476111435038155 0.016547171350499087 0 -0.02975231078605647 0.015667383056103781 0 -0.02800386367766795 0.015119034270983062 0 -0.028135303421634304 0.015227760018093712 0 -0.027903626705516993 0.015219811275250987 0 -0.027835730407869592 0.014836444092545538 0 -0.02800386367766795 0.015119034270983062 0 -0.027820210339211296 0.015124885988302422 0 -0.02800386367766795 0.015119034270983062 0 -0.027903626705516993 0.015219811275250987 0 -0.027820210339211296 0.015124885988302422 0 -0.027903626705516993 0.015219811275250987 0 -0.027820210339211296 0.015124885988302422 0 -0.027888734052751954 0.015498750820252882 0 -0.02900394671784497 0.015449198360267202 0 -0.02786331692726491 0.015468391747685037 0 -0.029146636514998374 0.016615032540872512 0 -0.02975231078605647 0.015667383056103781 0 -0.027888734052751954 0.015498750820252882 0 -0.027996240073827606 0.016711067103866797 0 -0.029146636514998374 0.016615032540872512 0 -0.027888734052751954 0.015498750820252882 0 -0.027888734052751954 0.015498750820252882 0 -0.027318538825879216 0.015804430034950367 0 -0.027361593976376573 0.01509082706983079 0 -0.027996240073827606 0.016711067103866797 0 -0.027888734052751954 0.015498750820252882 0 -0.027318538825879216 0.015804430034950367 0 -0.02680943279664947 0.016871312070806027 0 -0.027318538825879216 0.015804430034950367 0 -0.026664307977804155 0.015298107360516188 0 -0.029032638754849207 0.019188035391984076 0 -0.029290354957560112 0.018634317682187318 0 -0.027318538825879216 0.015804430034950367 0 -0.027361593976376573 0.01509082706983079 0 -0.026664307977804155 0.015298107360516188 0 -0.027361593976376573 0.01509082706983079 0 -0.026664307977804155 0.015298107360516188 0 -0.026960266882275329 0.014646922802483578 0 -0.027820210339211296 0.015124885988302422 0 -0.027888734052751954 0.015498750820252882 0 -0.027361593976376573 0.01509082706983079 0 -0.027820210339211296 0.015124885988302422 0 -0.027361593976376573 0.01509082706983079 0 -0.027503204990387043 0.014725682559133426 0 -0.032112434410340493 0.021458445665622945 0 -0.032669240574656568 0.021906179956376459 0 -0.032048944791623166 0.021773917870128685 0 -0.032669240574656568 0.021906179956376459 0 -0.032048944791623166 0.021773917870128685 0 -0.032301943957011345 0.021955686985619463 0 -0.032177120222814735 0.021611324106540264 0 -0.032604531524253064 0.021905995013956864 0 -0.032048944791623166 0.021773917870128685 0 -0.031923512497519645 0.021966165862099662 0 -0.032301943957011345 0.021955686985619463 0 -0.031235801849457963 0.021533704360351406 0 -0.032048944791623166 0.021773917870128685 0 -0.031923512497519645 0.021966165862099662 0 -0.031923512497519645 0.021966165862099662 0 -0.032301943957011345 0.021955686985619463 0 -0.03245805017364721 0.022237572153197233 0 -0.032669240574656568 0.021906179956376459 0 -0.032301943957011345 0.021955686985619463 0 -0.03261879487104026 0.022096825529535836 0 -0.03261879487104026 0.022096825529535836 0 -0.032725521458868381 0.022202916938461006 0 -0.03245805017364721 0.022237572153197233 0 -0.032301943957011345 0.021955686985619463 0 -0.03261879487104026 0.022096825529535836 0 -0.03245805017364721 0.022237572153197233 0 -0.029290354957560112 0.018634317682187318 0 -0.029623437655363152 0.018420596814839079 0 -0.026664307977804155 0.015298107360516188 0 -0.02680411405054527 0.014605250194153443 0 -0.026960266882275329 0.014646922802483578 0 -0.02680411405054527 0.014605250194153443 0 -0.026960266882275329 0.014646922802483578 0 -0.027120102949921936 0.014307114998107421 0 -0.029623437655363152 0.018420596814839079 0 -0.029898834097512348 0.018327862820770938 0 -0.032725521458868381 0.022202916938461006 0 -0.03245805017364721 0.022237572153197233 0 -0.032838319378405978 0.02230801216694268 0 -0.03245805017364721 0.022237572153197233 0 -0.032838319378405978 0.02230801216694268 0 -0.032873019758355576 0.022427245410924154 0 -0.027503204990387043 0.014725682559133426 0 -0.026960266882275329 0.014646922802483578 0 -0.027211602189884509 0.014274521116034391 0 -0.027361593976376573 0.01509082706983079 0 -0.027503204990387043 0.014725682559133426 0 -0.026960266882275329 0.014646922802483578 0 -0.026969674464617763 0.014605060181682417 0 -0.027014186935089918 0.014168369851530343 0 -0.026960266882275329 0.014646922802483578 0 -0.027211602189884509 0.014274521116034391 0 -0.026901075324668476 0.014024484705929291 0 -0.027505580751500221 0.014153292661506179 0 -0.027503204990387043 0.014725682559133426 0 -0.027211602189884509 0.014274521116034391 0 -0.027505580751500221 0.014153292661506179 0 -0.027211602189884509 0.014274521116034391 0 -0.027186788973964763 0.013787235076354494 0 -0.027211602189884509 0.014274521116034391 0 -0.026901075324668476 0.014024484705929291 0 -0.027186788973964763 0.013787235076354494 0 -0.027186788973964763 0.013787235076354494 0 -0.027110656250362641 0.013546632703745995 0 -0.026995456486748438 0.013632834274029258 0 -0.027014186935089918 0.014168369851530343 0 -0.0271031475653024 0.013811902172970294 0 -0.026901075324668476 0.014024484705929291 0 -0.027186788973964763 0.013787235076354494 0 -0.026995456486748438 0.013632834274029258 0 -0.033212066779410063 0.022482852217352075 0 -0.032838319378405978 0.02230801216694268 0 -0.032873019758355576 0.022427245410924154 0 -0.02680411405054527 0.014605250194153443 0 -0.027120102949921936 0.014307114998107421 0 -0.026929455280570225 0.014244287246134033 0 -0.026929455280570225 0.014244287246134033 0 -0.027109881444666029 0.01386341399310214 0 -0.027220235664796186 0.013973867823664133 0 -0.027120102949921936 0.014307114998107421 0 -0.026929455280570225 0.014244287246134033 0 -0.027220235664796186 0.013973867823664133 0 -0.026929455280570225 0.014244287246134033 0 -0.027038739098511417 0.013889219518466852 0 -0.027109881444666029 0.01386341399310214 0 -0.033212066779410063 0.022482852217352075 0 -0.032873019758355576 0.022427245410924154 0 -0.033228731034328537 0.022530341204818886 0 -0.029898834097512348 0.018327862820770938 0 -0.030128874754048574 0.018216016773266151 0 -0.027038739098511417 0.013889219518466852 0 -0.027109881444666029 0.01386341399310214 0 -0.027132545363531286 0.01376485273670495 0 -0.027109881444666029 0.01386341399310214 0 -0.027220235664796186 0.013973867823664133 0 -0.027151792293833979 0.013654683946652636 0 -0.027109881444666029 0.01386341399310214 0 -0.027132545363531286 0.01376485273670495 0 -0.027151792293833979 0.013654683946652636 0 -0.027132545363531286 0.01376485273670495 0 -0.027151792293833979 0.013654683946652636 0 -0.027115119431461811 0.013752714435478859 0 -0.027038739098511417 0.013889219518466852 0 -0.027132545363531286 0.01376485273670495 0 -0.02734235403951716 0.013806297833156268 0 -0.027186788973964763 0.013787235076354494 0 -0.027110656250362641 0.013546632703745995 0 -0.0271962307909345 0.013549735281689318 0 -0.027110656250362641 0.013546632703745995 0 -0.027127103420785247 0.013436227407512562 0 -0.0271962307909345 0.013549735281689318 0 -0.0271031475653024 0.013811902172970294 0 -0.027144586136841942 0.013674304320182606 0 -0.027110656250362641 0.013546632703745995 0 -0.026995456486748438 0.013632834274029258 0 -0.027151792293833979 0.013654683946652636 0 -0.027110656250362641 0.013546632703745995 0 -0.027151792293833979 0.013654683946652636 0 -0.027152280698124122 0.01353592950517477 0 -0.027110656250362641 0.013546632703745995 0 -0.027127103420785247 0.013436227407512562 0 -0.027152280698124122 0.01353592950517477 0 -0.027127103420785247 0.013436227407512562 0 -0.027050164612824477 0.013288942496877634 0 -0.027095215528622277 0.013428878384249145 0 -0.027127103420785247 0.013436227407512562 0 -0.027095215528622277 0.013428878384249145 0 -0.027152280698124122 0.01353592950517477 0 -0.027127103420785247 0.013436227407512562 0 -0.027050164612824477 0.013288942496877634 0 -0.027157666315177856 0.013433240152243044 0 -0.027142326885486723 0.012849949027381414 0 -0.026798557825944473 0.013073928478531859 0 -0.027050164612824477 0.013288942496877634 0 -0.027194797998399207 0.013403022647229309 0 -0.027157666315177856 0.013433240152243044 0 -0.027050164612824477 0.013288942496877634 0 -0.027194797998399207 0.013403022647229309 0 -0.026738659134376355 0.013059822365023328 0 -0.027194797998399207 0.013403022647229309 0 -0.027238721026216679 0.013523401095400026 0 -0.027403490014552112 0.01373011450581621 0 -0.027117785675085881 0.01218844502449694 0 -0.027169296269996063 0.012454312772199681 0 -0.027147498419965384 0.013442409103677709 0 -0.027194797998399207 0.013403022647229309 0 -0.027157666315177856 0.013433240152243044 0 -0.027238721026216679 0.013523401095400026 0 -0.027117785675085881 0.01218844502449694 0 -0.027169296269996063 0.012454312772199681 0 -0.026612774607923138 0.012099544306323822 0 -0.027127103420785247 0.013436227407512562 0 -0.027157666315177856 0.013433240152243044 0 -0.0271962307909345 0.013549735281689318 0 -0.027157666315177856 0.013433240152243044 0 -0.027238721026216679 0.013523401095400026 0 -0.0271962307909345 0.013549735281689318 0 -0.027186788973964763 0.013787235076354494 0 -0.0271962307909345 0.013549735281689318 0 -0.027403490014552112 0.01373011450581621 0 -0.027238721026216679 0.013523401095400026 0 -0.0271962307909345 0.013549735281689318 0 -0.027403490014552112 0.01373011450581621 0 -0.027169296269996063 0.012454312772199681 0 -0.027525321455513257 0.013308982742153776 0 -0.027147498419965384 0.013442409103677709 0 -0.027142326885486723 0.012849949027381414 0 -0.027281527973847808 0.013556025429970394 0 -0.027525321455513257 0.013308982742153776 0 -0.027147498419965384 0.013442409103677709 0 -0.027717722278547102 0.013731870945082034 0 -0.027147498419965384 0.013442409103677709 0 -0.027712414691836135 0.014129491913634634 0 -0.027717722278547102 0.013731870945082034 0 -0.027313359523426631 0.014265293886360709 0 -0.027147498419965384 0.013442409103677709 0 -0.027712414691836135 0.014129491913634634 0 -0.027505580751500221 0.014153292661506179 0 -0.027186788973964763 0.013787235076354494 0 -0.027403490014552112 0.01373011450581621 0 -0.027407860204319449 0.014206771474946889 0 -0.027281527973847808 0.013556025429970394 0 -0.025202603761422446 0.013694887685670032 0 -0.027430101487145697 0.012408357201548838 0 -0.028329814252374894 0.014113314097346582 0 -0.028042366695072964 0.014091820490465218 0 -0.028089491307874352 0.013445044609406537 0 -0.028090127774087585 0.014411313570331766 0 -0.028172342548324833 0.014297944136166512 0 -0.028207251813692904 0.01425781077681456 0 -0.025202603761422446 0.013694887685670032 0 -0.026366326982923412 0.013346813925347631 0 -0.028113140997432048 0.014296869075073155 0 -0.028207251813692904 0.01425781077681456 0 -0.028042366695072964 0.014091820490465218 0 -0.028329814252374894 0.014113314097346582 0 -0.028207251813692904 0.01425781077681456 0 -0.028042366695072964 0.014091820490465218 0 -0.028042366695072964 0.014091820490465218 0 -0.027717722278547102 0.013731870945082034 0 -0.028089491307874352 0.013445044609406537 0 -0.028044487240900272 0.01438164209030548 0 -0.027712414691836135 0.014129491913634634 0 -0.028042366695072964 0.014091820490465218 0 -0.027712414691836135 0.014129491913634634 0 -0.028042366695072964 0.014091820490465218 0 -0.027717722278547102 0.013731870945082034 0 -0.027169296269996063 0.012454312772199681 0 -0.027525321455513257 0.013308982742153776 0 -0.028089491307874352 0.013445044609406537 0 -0.027118785378993097 0.012404303573080668 0 -0.027430101487145697 0.012408357201548838 0 -0.026478484724889218 0.011422940964723623 0 -0.025796153652578278 0.011574192604423029 0 -0.026612774607923138 0.012099544306323822 0 -0.027525321455513257 0.013308982742153776 0 -0.027717722278547102 0.013731870945082034 0 -0.028089491307874352 0.013445044609406537 0 -0.025752241248163339 0.010865856934350545 0 -0.026478484724889218 0.011422940964723623 0 -0.025796153652578278 0.011574192604423029 0 -0.025524019734614028 0.011917416947153399 0 -0.025796153652578278 0.011574192604423029 0 -0.025968691120036344 0.012219673617638519 0 -0.025796153652578278 0.011574192604423029 0 -0.025968691120036344 0.012219673617638519 0 -0.026612774607923138 0.012099544306323822 0 -0.025524019734614028 0.011917416947153399 0 -0.025258845110826576 0.012252646185092959 0 -0.025968691120036344 0.012219673617638519 0 -0.027169296269996063 0.012454312772199681 0 -0.026478484724889218 0.011422940964723623 0 -0.026612774607923138 0.012099544306323822 0 -0.025968691120036344 0.012219673617638519 0 -0.026612774607923138 0.012099544306323822 0 -0.026487713302956503 0.012480568388351069 0 -0.027117785675085881 0.01218844502449694 0 -0.026612774607923138 0.012099544306323822 0 -0.026487713302956503 0.012480568388351069 0 -0.027117785675085881 0.01218844502449694 0 -0.026487713302956503 0.012480568388351069 0 -0.026738659134376355 0.013059822365023328 0 -0.026487713302956503 0.012480568388351069 0 -0.025805585775623349 0.012756244909118905 0 -0.026738659134376355 0.013059822365023328 0 -0.025258845110826576 0.012252646185092959 0 -0.025968691120036344 0.012219673617638519 0 -0.025805585775623349 0.012756244909118905 0 -0.025968691120036344 0.012219673617638519 0 -0.026487713302956503 0.012480568388351069 0 -0.025805585775623349 0.012756244909118905 0 -0.025805585775623349 0.012756244909118905 0 -0.026300915342855107 0.013237013578615923 0 -0.025303927621163746 0.013152476286895797 0 -0.025805585775623349 0.012756244909118905 0 -0.026738659134376355 0.013059822365023328 0 -0.026300915342855107 0.013237013578615923 0 -0.026738659134376355 0.013059822365023328 0 -0.026300915342855107 0.013237013578615923 0 -0.026921632804894881 0.013399856372485948 0 -0.026300915342855107 0.013237013578615923 0 -0.026446652576985089 0.013847355570883856 0 -0.026921632804894881 0.013399856372485948 0 -0.026300915342855107 0.013237013578615923 0 -0.026446652576985089 0.013847355570883856 0 -0.025303927621163746 0.013152476286895797 0 -0.026063414726920166 0.013483960381455008 0 -0.025357139611413879 0.013163983407405287 0 -0.025686670635124413 0.013147814266632201 0 -0.025237252589320712 0.013456370888172382 0 -0.025303927621163746 0.013152476286895797 0 -0.025686670635124413 0.013147814266632201 0 -0.025567471892189633 0.013715712213848928 0 -0.026081826831757148 0.013618978676052083 0 -0.025686670635124413 0.013147814266632201 0 -0.025237252589320712 0.013456370888172382 0 -0.025567471892189633 0.013715712213848928 0 -0.025237252589320712 0.013456370888172382 0 -0.025567471892189633 0.013715712213848928 0 -0.025055635410096439 0.013861052811263099 0 -0.0267595097953926 0.013568640611555906 0 -0.027272777185510147 0.013548458715258515 0 -0.027193674611595907 0.013772773853396111 0 -0.027046215515630911 0.013883489748000716 0 -0.027333816224271699 0.013513829346858883 0 -0.025686670635124413 0.013147814266632201 0 -0.026458483268373686 0.01327267888941417 0 -0.026081826831757148 0.013618978676052083 0 -0.026063414726920166 0.013483960381455008 0 -0.0267595097953926 0.013568640611555906 0 -0.026446652576985089 0.013847355570883856 0 -0.027046215515630911 0.013883489748000716 0 -0.027021436897959231 0.013684913324676555 0 -0.027193674611595907 0.013772773853396111 0 -0.027021436897959231 0.013684913324676555 0 -0.027160189352837431 0.01358904767042695 0 -0.027193674611595907 0.013772773853396111 0 -0.027046215515630911 0.013883489748000716 0 -0.027021436897959231 0.013684913324676555 0 -0.027021436897959231 0.013684913324676555 0 -0.027160189352837431 0.01358904767042695 0 -0.026921632804894881 0.013399856372485948 0 -0.026446652576985089 0.013847355570883856 0 -0.027021436897959231 0.013684913324676555 0 -0.026921632804894881 0.013399856372485948 0 -0.027050164612824477 0.013288942496877634 0 -0.026921632804894881 0.013399856372485948 0 -0.027095215528622277 0.013428878384249145 0 -0.027050164612824477 0.013288942496877634 0 -0.026738659134376355 0.013059822365023328 0 -0.026921632804894881 0.013399856372485948 0 -0.027160189352837431 0.01358904767042695 0 -0.026921632804894881 0.013399856372485948 0 -0.027095215528622277 0.013428878384249145 0 -0.027160189352837431 0.01358904767042695 0 -0.027095215528622277 0.013428878384249145 0 -0.027152280698124122 0.01353592950517477 0 -0.027160189352837431 0.01358904767042695 0 -0.027152280698124122 0.01353592950517477 0 -0.027179536018372131 0.013619433782880337 0 -0.027151792293833979 0.013654683946652636 0 -0.027152280698124122 0.01353592950517477 0 -0.027179536018372131 0.013619433782880337 0 -0.027179536018372131 0.013619433782880337 0 -0.027157968830712521 0.013572370960019096 0 -0.027205516185894774 0.013558734078605875 0 -0.027160189352837431 0.01358904767042695 0 -0.027179536018372131 0.013619433782880337 0 -0.027205516185894774 0.013558734078605875 0 -0.027132545363531286 0.01376485273670495 0 -0.027115119431461811 0.013752714435478859 0 -0.02734235403951716 0.013806297833156268 0 -0.027115119431461811 0.013752714435478859 0 -0.027337711262019681 0.014000392159259894 0 -0.02734235403951716 0.013806297833156268 0 -0.027151792293833979 0.013654683946652636 0 -0.027179536018372131 0.013619433782880337 0 -0.027115119431461811 0.013752714435478859 0 -0.027115119431461811 0.013752714435478859 0 -0.027042260792658517 0.013594914777148704 0 -0.027157968830712521 0.013572370960019096 0 -0.027179536018372131 0.013619433782880337 0 -0.027115119431461811 0.013752714435478859 0 -0.027157968830712521 0.013572370960019096 0 -0.027115119431461811 0.013752714435478859 0 -0.027337711262019681 0.014000392159259894 0 -0.027222311348361294 0.014243853478016467 0 -0.027108711444235763 0.01378496573828771 0 -0.027162256745043079 0.013876829083661717 0 -0.027162256745043079 0.013876829083661717 0 -0.026949343605148984 0.014339043839170259 0 -0.027042260792658517 0.013594914777148704 0 -0.027098068133455104 0.013492669662641432 0 -0.026989413613224336 0.013443848325765329 0 -0.027157968830712521 0.013572370960019096 0 -0.027098068133455104 0.013492669662641432 0 -0.027191009019854877 0.0134389526856046 0 -0.027042260792658517 0.013594914777148704 0 -0.027157968830712521 0.013572370960019096 0 -0.027098068133455104 0.013492669662641432 0 -0.027098068133455104 0.013492669662641432 0 -0.027191009019854877 0.0134389526856046 0 -0.027069822627408886 0.01337338764006674 0 -0.027098068133455104 0.013492669662641432 0 -0.027069822627408886 0.01337338764006674 0 -0.026989413613224336 0.013443848325765329 0 -0.027193674611595907 0.013772773853396111 0 -0.027160189352837431 0.01358904767042695 0 -0.027171849887933443 0.01379620331465223 0 -0.027153492504915659 0.013591256903884796 0 -0.027171684941233197 0.013674220739388137 0 -0.027157968830712521 0.013572370960019096 0 -0.027205516185894774 0.013558734078605875 0 -0.027191009019854877 0.0134389526856046 0 -0.027171684941233197 0.013674220739388137 0 -0.02693214465584251 0.013530586147355106 0 -0.027171849887933443 0.01379620331465223 0 -0.026745121569520747 0.01377727510929959 0 -0.027156755744114722 0.013661882214870871 0 -0.027193674611595907 0.013772773853396111 0 -0.027171849887933443 0.01379620331465223 0 -0.027156755744114722 0.013661882214870871 0 -0.027193674611595907 0.013772773853396111 0 -0.027156755744114722 0.013661882214870871 0 -0.027333816224271699 0.013513829346858883 0 -0.027333816224271699 0.013513829346858883 0 -0.027517843150476309 0.013496828740042009 0 -0.027285465318119591 0.013428744702566489 0 -0.027333816224271699 0.013513829346858883 0 -0.027517843150476309 0.013496828740042009 0 -0.026933057112026083 0.013602852760236596 0 -0.027285465318119591 0.013428744702566489 0 -0.027018176175538797 0.013385358347863825 0 -0.027303713201642956 0.013150711593856923 0 -0.027517843150476309 0.013496828740042009 0 -0.027285465318119591 0.013428744702566489 0 -0.027303713201642956 0.013150711593856923 0 -0.027156755744114722 0.013661882214870871 0 -0.027333816224271699 0.013513829346858883 0 -0.027285465318119591 0.013428744702566489 0 -0.027156755744114722 0.013661882214870871 0 -0.027285465318119591 0.013428744702566489 0 -0.027018176175538797 0.013385358347863825 0 -0.026745121569520747 0.01377727510929959 0 -0.027156755744114722 0.013661882214870871 0 -0.027018176175538797 0.013385358347863825 0 -0.026745121569520747 0.01377727510929959 0 -0.026598583185006106 0.013168009322903532 0 -0.027018176175538797 0.013385358347863825 0 -0.027018176175538797 0.013385358347863825 0 -0.027001051089819143 0.013019664198829349 0 -0.027303713201642956 0.013150711593856923 0 -0.026598583185006106 0.013168009322903532 0 -0.027018176175538797 0.013385358347863825 0 -0.027001051089819143 0.013019664198829349 0 -0.027001051089819143 0.013019664198829349 0 -0.026782840691832753 0.012662648607725936 0 -0.027315374438610627 0.012608730663927384 0 -0.026598583185006106 0.013168009322903532 0 -0.027001051089819143 0.013019664198829349 0 -0.026782840691832753 0.012662648607725936 0 -0.026598583185006106 0.013168009322903532 0 -0.026782840691832753 0.012662648607725936 0 -0.026325949614530664 0.012664435961327587 0 -0.026782840691832753 0.012662648607725936 0 -0.026466821791327731 0.011986211732143344 0 -0.027141915153484342 0.0120220446353555 0 -0.026782840691832753 0.012662648607725936 0 -0.026325949614530664 0.012664435961327587 0 -0.026466821791327731 0.011986211732143344 0 -0.026782840691832753 0.012662648607725936 0 -0.027315374438610627 0.012608730663927384 0 -0.027141915153484342 0.0120220446353555 0 -0.027315374438610627 0.012608730663927384 0 -0.027637566365912095 0.012686108837624588 0 -0.027760010267614814 0.012064358443533769 0 -0.027315374438610627 0.012608730663927384 0 -0.027760010267614814 0.012064358443533769 0 -0.027141915153484342 0.0120220446353555 0 -0.027637566365912095 0.012686108837624588 0 -0.028051243922562002 0.012285581422529772 0 -0.027760010267614814 0.012064358443533769 0 -0.027517843150476309 0.013496828740042009 0 -0.027637566365912095 0.012686108837624588 0 -0.027303713201642956 0.013150711593856923 0 -0.027517843150476309 0.013496828740042009 0 -0.027637566365912095 0.012686108837624588 0 -0.028051243922562002 0.012285581422529772 0 -0.027001051089819143 0.013019664198829349 0 -0.027315374438610627 0.012608730663927384 0 -0.027303713201642956 0.013150711593856923 0 -0.027315374438610627 0.012608730663927384 0 -0.027637566365912095 0.012686108837624588 0 -0.027303713201642956 0.013150711593856923 0 -0.027069822627408886 0.01337338764006674 0 -0.026989413613224336 0.013443848325765329 0 -0.026989392530574988 0.013293323908959648 0 -0.027035199664651059 0.013251898374367349 0 -0.027069822627408886 0.01337338764006674 0 -0.026989392530574988 0.013293323908959648 0 -0.027035199664651059 0.013251898374367349 0 -0.027069822627408886 0.01337338764006674 0 -0.027128487882393432 0.01327288007623293 0 -0.027191009019854877 0.0134389526856046 0 -0.027069822627408886 0.01337338764006674 0 -0.027128487882393432 0.01327288007623293 0 -0.026745121569520747 0.01377727510929959 0 -0.026598583185006106 0.013168009322903532 0 -0.025831857270573313 0.013181177800880607 0 -0.02693214465584251 0.013530586147355106 0 -0.026419627728528187 0.013569447545076498 0 -0.025831857270573313 0.013181177800880607 0 -0.026325949614530664 0.012664435961327587 0 -0.025838556005508839 0.012215836514560796 0 -0.026598583185006106 0.013168009322903532 0 -0.025831857270573313 0.013181177800880607 0 -0.026325949614530664 0.012664435961327587 0 -0.026325949614530664 0.012664435961327587 0 -0.025838556005508839 0.012215836514560796 0 -0.026466821791327731 0.011986211732143344 0 -0.026419627728528187 0.013569447545076498 0 -0.027706215400028798 0.0095632676840693761 0 -0.025831857270573313 0.013181177800880607 0 -0.025838556005508839 0.012215836514560796 0 -0.024846488182310767 0.012166717607877835 0 -0.027035199664651059 0.013251898374367349 0 -0.027128487882393432 0.01327288007623293 0 -0.027029548774800873 0.013084629536509901 0 -0.029064665483294231 0.006275992987777341 0 -0.028018971519774092 0.0076350339157597296 0 -0.029082029862466934 0.0075249827272574794 0 -0.025838556005508839 0.012215836514560796 0 -0.024846488182310767 0.012166717607877835 0 -0.025697891316505 0.010894905756940658 0 -0.027706215400028798 0.0095632676840693761 0 -0.026797122686050532 0.0092547570747400186 0 -0.025838556005508839 0.012215836514560796 0 -0.026466821791327731 0.011986211732143344 0 -0.025697891316505 0.010894905756940658 0 -0.026466821791327731 0.011986211732143344 0 -0.025697891316505 0.010894905756940658 0 -0.026892836744124619 0.011347934285796533 0 -0.025697891316505 0.010894905756940658 0 -0.026892836744124619 0.011347934285796533 0 -0.027167168555017419 0.010410742922505437 0 -0.028018971519774092 0.0076350339157597296 0 -0.0270898010266311 0.0093126145865957879 0 -0.028439212899803716 0.0085008584040597267 0 -0.025697891316505 0.010894905756940658 0 -0.027167168555017419 0.010410742922505437 0 -0.0270898010266311 0.0093126145865957879 0 -0.026797122686050532 0.0092547570747400186 0 -0.027072883092882468 0.0092851026265348465 0 -0.028018971519774092 0.0076350339157597296 0 -0.029082029862466934 0.0075249827272574794 0 -0.028439212899803716 0.0085008584040597267 0 -0.029082029862466934 0.0075249827272574794 0 -0.029422577208632835 0.008239497679786361 0 -0.028439212899803716 0.0085008584040597267 0 -0.027625637644217067 0.011308860115620795 0 -0.028227486736867081 0.011592531200064616 0 -0.028496208702534345 0.011021255819724414 0 -0.028051243922562002 0.012285581422529772 0 -0.027760010267614814 0.012064358443533769 0 -0.028227486736867081 0.011592531200064616 0 -0.027625637644217067 0.011308860115620795 0 -0.027760010267614814 0.012064358443533769 0 -0.028227486736867081 0.011592531200064616 0 -0.027625637644217067 0.011308860115620795 0 -0.027760010267614814 0.012064358443533769 0 -0.027141915153484342 0.0120220446353555 0 -0.026466821791327731 0.011986211732143344 0 -0.027141915153484342 0.0120220446353555 0 -0.026892836744124619 0.011347934285796533 0 -0.027625637644217067 0.011308860115620795 0 -0.027141915153484342 0.0120220446353555 0 -0.026892836744124619 0.011347934285796533 0 -0.027625637644217067 0.011308860115620795 0 -0.026892836744124619 0.011347934285796533 0 -0.027167168555017419 0.010410742922505437 0 -0.027167168555017419 0.010410742922505437 0 -0.027661602453203607 0.010097625683280551 0 -0.027402490803662423 0.0096417315699954369 0 -0.027167168555017419 0.010410742922505437 0 -0.027661602453203607 0.010097625683280551 0 -0.027845323306375163 0.010620025494770228 0 -0.027661602453203607 0.010097625683280551 0 -0.027845323306375163 0.010620025494770228 0 -0.028101202764440378 0.010060211630238456 0 -0.027625637644217067 0.011308860115620795 0 -0.027167168555017419 0.010410742922505437 0 -0.027845323306375163 0.010620025494770228 0 -0.027625637644217067 0.011308860115620795 0 -0.027845323306375163 0.010620025494770228 0 -0.028496208702534345 0.011021255819724414 0 -0.027845323306375163 0.010620025494770228 0 -0.028463766489436111 0.01036278825247146 0 -0.028496208702534345 0.011021255819724414 0 -0.027845323306375163 0.010620025494770228 0 -0.028463766489436111 0.01036278825247146 0 -0.028101202764440378 0.010060211630238456 0 -0.028463766489436111 0.01036278825247146 0 -0.028875045377344564 0.01053348949291171 0 -0.028857632193468642 0.010028122026334036 0 -0.028875045377344564 0.01053348949291171 0 -0.029246853963614424 0.011096480893271319 0 -0.02933080703259263 0.010173530053735506 0 -0.028875045377344564 0.01053348949291171 0 -0.02933080703259263 0.010173530053735506 0 -0.028857632193468642 0.010028122026334036 0 -0.028875045377344564 0.01053348949291171 0 -0.028496208702534345 0.011021255819724414 0 -0.029246853963614424 0.011096480893271319 0 -0.028463766489436111 0.01036278825247146 0 -0.028875045377344564 0.01053348949291171 0 -0.028496208702534345 0.011021255819724414 0 -0.028227486736867081 0.011592531200064616 0 -0.028496208702534345 0.011021255819724414 0 -0.029164231161349422 0.011652207219681684 0 -0.028496208702534345 0.011021255819724414 0 -0.029164231161349422 0.011652207219681684 0 -0.029246853963614424 0.011096480893271319 0 -0.028051243922562002 0.012285581422529772 0 -0.028227486736867081 0.011592531200064616 0 -0.029164231161349422 0.011652207219681684 0 -0.026476819226540722 0.014517716581792225 0 -0.026407291956054024 0.01445792351860525 0 -0.026450862862201746 0.01375372441601078 0 -0.026476819226540722 0.014517716581792225 0 -0.026407291956054024 0.01445792351860525 0 -0.026446382475314813 0.014186871027101186 0 -0.029164231161349422 0.011652207219681684 0 -0.029246853963614424 0.011096480893271319 0 -0.029734856487214321 0.010558987432204138 0 -0.026407291956054024 0.01445792351860525 0 -0.026450862862201746 0.01375372441601078 0 -0.026649028769239268 0.014164779528033159 0 -0.029154687779829238 0.011123487183389756 0 -0.030323636367380301 0.010001501513475326 0 -0.029246853963614424 0.011096480893271319 0 -0.029734856487214321 0.010558987432204138 0 -0.029770590723470304 0.010348220327007921 0 -0.027823474166994704 0.012998230153981246 0 -0.028099052752537886 0.012431654607591131 0 -0.029246853963614424 0.011096480893271319 0 -0.030140223251028858 0.01003370675704636 0 -0.02933080703259263 0.010173530053735506 0 -0.026450862862201746 0.01375372441601078 0 -0.026821992344666586 0.013867744308557986 0 -0.026784726961775359 0.013572497962800752 0 -0.026821992344666586 0.013867744308557986 0 -0.027010289163240511 0.013489821338796859 0 -0.026784726961775359 0.013572497962800752 0 -0.026450862862201746 0.01375372441601078 0 -0.026821992344666586 0.013867744308557986 0 -0.026649028769239268 0.014164779528033159 0 -0.026821992344666586 0.013867744308557986 0 -0.027216312202519109 0.013883520031566818 0 -0.026992392345823232 0.01442525799055891 0 -0.027216312202519109 0.013883520031566818 0 -0.027416928738049406 0.013417327607124304 0 -0.027741940232480618 0.013801690722414536 0 -0.027216312202519109 0.013883520031566818 0 -0.027010289163240511 0.013489821338796859 0 -0.027416928738049406 0.013417327607124304 0 -0.026821992344666586 0.013867744308557986 0 -0.027216312202519109 0.013883520031566818 0 -0.027010289163240511 0.013489821338796859 0 -0.026246701200925027 0.014570973195434735 0 -0.02658828962062125 0.014680539296190979 0 -0.02560972966832889 0.014729899962356914 0 -0.025263817443840913 0.014272202106135194 0 -0.024830782462413086 0.014883479490085554 0 -0.027216312202519109 0.013883520031566818 0 -0.026992392345823232 0.01442525799055891 0 -0.027851987984430858 0.014418626807713365 0 -0.026407291956054024 0.01445792351860525 0 -0.026992392345823232 0.01442525799055891 0 -0.026649028769239268 0.014164779528033159 0 -0.026821992344666586 0.013867744308557986 0 -0.026992392345823232 0.01442525799055891 0 -0.026649028769239268 0.014164779528033159 0 -0.026406828015175701 0.014484507866912974 0 -0.026246701200925027 0.014570973195434735 0 -0.026407291956054024 0.01445792351860525 0 -0.02560972966832889 0.014729899962356914 0 -0.02600604539083403 0.01412072511794406 0 -0.02560972966832889 0.014729899962356914 0 -0.02600604539083403 0.01412072511794406 0 -0.025263817443840913 0.014272202106135194 0 -0.02600604539083403 0.01412072511794406 0 -0.025263817443840913 0.014272202106135194 0 -0.025567471892189633 0.013715712213848928 0 -0.025263817443840913 0.014272202106135194 0 -0.025567471892189633 0.013715712213848928 0 -0.025055635410096439 0.013861052811263099 0 -0.02600604539083403 0.01412072511794406 0 -0.025567471892189633 0.013715712213848928 0 -0.026081826831757148 0.013618978676052083 0 -0.02600604539083403 0.01412072511794406 0 -0.026081826831757148 0.013618978676052083 0 -0.026480949890907338 0.013794857954722428 0 -0.026458483268373686 0.01327267888941417 0 -0.026081826831757148 0.013618978676052083 0 -0.026480949890907338 0.013794857954722428 0 -0.026458483268373686 0.01327267888941417 0 -0.027333816224271699 0.013513829346858883 0 -0.026933057112026083 0.013602852760236596 0 -0.027517843150476309 0.013496828740042009 0 -0.026933057112026083 0.013602852760236596 0 -0.026749068125088881 0.013908270858178492 0 -0.026458483268373686 0.01327267888941417 0 -0.026480949890907338 0.013794857954722428 0 -0.026933057112026083 0.013602852760236596 0 -0.026480949890907338 0.013794857954722428 0 -0.026933057112026083 0.013602852760236596 0 -0.026749068125088881 0.013908270858178492 0 -0.027533165021890536 0.013495168418140677 0 -0.027823474166994704 0.012998230153981246 0 -0.026476819226540722 0.014517716581792225 0 -0.026749068125088881 0.013908270858178492 0 -0.026446382475314813 0.014186871027101186 0 -0.027517843150476309 0.013496828740042009 0 -0.028051243922562002 0.012285581422529772 0 -0.029164231161349422 0.011652207219681684 0 -0.027517843150476309 0.013496828740042009 0 -0.026476819226540722 0.014517716581792225 0 -0.026749068125088881 0.013908270858178492 0 -0.02600604539083403 0.01412072511794406 0 -0.026480949890907338 0.013794857954722428 0 -0.026446382475314813 0.014186871027101186 0 -0.026407291956054024 0.01445792351860525 0 -0.02600604539083403 0.01412072511794406 0 -0.026446382475314813 0.014186871027101186 0 -0.026480949890907338 0.013794857954722428 0 -0.026749068125088881 0.013908270858178492 0 -0.026446382475314813 0.014186871027101186 0 -0.035735335398110579 0.01383911150300653 0 -0.034999605327604807 0.014445873379322198 0 -0.034999896499530683 0.012510648069825894 0 -0.035735335398110579 0.01383911150300653 0 -0.036624039232489608 0.014046287771784937 0 -0.036062319852044347 0.014635350096061827 0 -0.035735335398110579 0.01383911150300653 0 -0.036624039232489608 0.014046287771784937 0 -0.036166784940198149 0.013021404024730334 0 -0.036624039232489608 0.014046287771784937 0 -0.036916529328395273 0.013253418224089557 0 -0.036166784940198149 0.013021404024730334 0 -0.036624039232489608 0.014046287771784937 0 -0.036062319852044347 0.014635350096061827 0 -0.036637049879888861 0.015079836493713234 0 -0.036062319852044347 0.014635350096061827 0 -0.03599691275283478 0.01525754996762713 0 -0.036637049879888861 0.015079836493713234 0 -0.036062319852044347 0.014635350096061827 0 -0.03599691275283478 0.01525754996762713 0 -0.035398788906920282 0.014860263077916082 0 -0.035735335398110579 0.01383911150300653 0 -0.035398788906920282 0.014860263077916082 0 -0.034999605327604807 0.014445873379322198 0 -0.035735335398110579 0.01383911150300653 0 -0.036062319852044347 0.014635350096061827 0 -0.035398788906920282 0.014860263077916082 0 -0.035398788906920282 0.014860263077916082 0 -0.034999605327604807 0.014445873379322198 0 -0.034999961618701718 0.016380976615644721 0 -0.035398788906920282 0.014860263077916082 0 -0.034999961618701718 0.016380976615644721 0 -0.03564492723498297 0.016871187233174996 0 -0.035398788906920282 0.014860263077916082 0 -0.034488461323209908 0.017143008161491387 0 -0.035604602541280714 0.016021159676830817 0 -0.035352528433229773 0.015073447470623717 0 -0.035043026403574318 0.016899963694229175 0 -0.035000002983497008 0.018316575100801286 0 -0.034999961618701718 0.016380976615644721 0 -0.03564492723498297 0.016871187233174996 0 -0.034823930085084442 0.018549817324399233 0 -0.034488461323209908 0.017143008161491387 0 -0.035286127732581045 0.017699934379312689 0 -0.035594813755813144 0.018448352770807374 0 -0.035984953299540753 0.017454987056980169 0 -0.035286127732581045 0.017699934379312689 0 -0.035984953299540753 0.017454987056980169 0 -0.035286127732581045 0.017699934379312689 0 -0.035504742802054387 0.016940888716296267 0 -0.034488461323209908 0.017143008161491387 0 -0.035504742802054387 0.016940888716296267 0 -0.035604602541280714 0.016021159676830817 0 -0.034488461323209908 0.017143008161491387 0 -0.035286127732581045 0.017699934379312689 0 -0.035504742802054387 0.016940888716296267 0 -0.035984953299540753 0.017454987056980169 0 -0.035504742802054387 0.016940888716296267 0 -0.036239965154343315 0.016515909567766197 0 -0.035984953299540753 0.017454987056980169 0 -0.036239965154343315 0.016515909567766197 0 -0.036711746772265921 0.017127919164371619 0 -0.036239965154343315 0.016515909567766197 0 -0.035604602541280714 0.016021159676830817 0 -0.036299958609575245 0.015803184845359881 0 -0.035504742802054387 0.016940888716296267 0 -0.036239965154343315 0.016515909567766197 0 -0.035604602541280714 0.016021159676830817 0 -0.03599691275283478 0.01525754996762713 0 -0.035398788906920282 0.014860263077916082 0 -0.035604602541280714 0.016021159676830817 0 -0.03599691275283478 0.01525754996762713 0 -0.035604602541280714 0.016021159676830817 0 -0.036299958609575245 0.015803184845359881 0 -0.03599691275283478 0.01525754996762713 0 -0.036299958609575245 0.015803184845359881 0 -0.036637049879888861 0.015079836493713234 0 -0.037025549518951963 0.016202127464461001 0 -0.03749999523528743 0.015318802951809337 0 -0.036637049879888861 0.015079836493713234 0 -0.036299958609575245 0.015803184845359881 0 -0.037025549518951963 0.016202127464461001 0 -0.036637049879888861 0.015079836493713234 0 -0.037025549518951963 0.016202127464461001 0 -0.038073154955212886 0.01651946394797207 0 -0.03749999523528743 0.015318802951809337 0 -0.036239965154343315 0.016515909567766197 0 -0.036299958609575245 0.015803184845359881 0 -0.037025549518951963 0.016202127464461001 0 -0.036239965154343315 0.016515909567766197 0 -0.037025549518951963 0.016202127464461001 0 -0.036711746772265921 0.017127919164371619 0 -0.037025549518951963 0.016202127464461001 0 -0.037399772278963024 0.01754755500611296 0 -0.038073154955212886 0.01651946394797207 0 -0.037025549518951963 0.016202127464461001 0 -0.036711746772265921 0.017127919164371619 0 -0.037399772278963024 0.01754755500611296 0 -0.036726128201735042 0.018500116745443034 0 -0.035984953299540753 0.017454987056980169 0 -0.036711746772265921 0.017127919164371619 0 -0.036726128201735042 0.018500116745443034 0 -0.036711746772265921 0.017127919164371619 0 -0.037399772278963024 0.01754755500611296 0 -0.038296821612152261 0.018597995111781989 0 -0.037399772278963024 0.01754755500611296 0 -0.038073154955212886 0.01651946394797207 0 -0.038296821612152261 0.018597995111781989 0 -0.038073154955212886 0.01651946394797207 0 -0.039217998633290188 0.016527802106385318 0 -0.035774434848143584 0.020363426463898306 0 -0.036167676487391498 0.019292487898653277 0 -0.038073154955212886 0.01651946394797207 0 -0.038292624560563975 0.015567554089134072 0 -0.03749999523528743 0.015318802951809337 0 -0.038073154955212886 0.01651946394797207 0 -0.038292624560563975 0.015567554089134072 0 -0.039217998633290188 0.016527802106385318 0 -0.038021220635440681 0.014617553951931712 0 -0.038375833711279811 0.013907470675707752 0 -0.038931842815557678 0.014672407247801954 0 -0.038292624560563975 0.015567554089134072 0 -0.038021220635440681 0.014617553951931712 0 -0.038931842815557678 0.014672407247801954 0 -0.038292624560563975 0.015567554089134072 0 -0.038021220635440681 0.014617553951931712 0 -0.03749999523528743 0.015318802951809337 0 -0.03749999523528743 0.015318802951809337 0 -0.036637049879888861 0.015079836493713234 0 -0.037273166939044679 0.01445083065876872 0 -0.036624039232489608 0.014046287771784937 0 -0.036637049879888861 0.015079836493713234 0 -0.037273166939044679 0.01445083065876872 0 -0.038021220635440681 0.014617553951931712 0 -0.03749999523528743 0.015318802951809337 0 -0.037273166939044679 0.01445083065876872 0 -0.037273166939044679 0.01445083065876872 0 -0.037202043233657209 0.013809558739503382 0 -0.037713169208145027 0.013931595279600053 0 -0.036624039232489608 0.014046287771784937 0 -0.037273166939044679 0.01445083065876872 0 -0.037202043233657209 0.013809558739503382 0 -0.037202043233657209 0.013809558739503382 0 -0.03746044160701395 0.013377603284277969 0 -0.036916529328395273 0.013253418224089557 0 -0.036624039232489608 0.014046287771784937 0 -0.037202043233657209 0.013809558739503382 0 -0.036916529328395273 0.013253418224089557 0 -0.037202043233657209 0.013809558739503382 0 -0.03746044160701395 0.013377603284277969 0 -0.037713169208145027 0.013931595279600053 0 -0.03746044160701395 0.013377603284277969 0 -0.037909163676906395 0.01342229511859588 0 -0.037713169208145027 0.013931595279600053 0 -0.037909163676906395 0.01342229511859588 0 -0.038375833711279811 0.013907470675707752 0 -0.037713169208145027 0.013931595279600053 0 -0.038021220635440681 0.014617553951931712 0 -0.038375833711279811 0.013907470675707752 0 -0.037713169208145027 0.013931595279600053 0 -0.038021220635440681 0.014617553951931712 0 -0.037273166939044679 0.01445083065876872 0 -0.037713169208145027 0.013931595279600053 0 -0.039017945789890221 0.013534880426875418 0 -0.039573680347224034 0.013981539956933639 0 -0.038931842815557678 0.014672407247801954 0 -0.038375833711279811 0.013907470675707752 0 -0.039017945789890221 0.013534880426875418 0 -0.038931842815557678 0.014672407247801954 0 -0.038375833711279811 0.013907470675707752 0 -0.039017945789890221 0.013534880426875418 0 -0.03831727036552831 0.012985306304689831 0 -0.039573680347224034 0.013981539956933639 0 -0.04038786280081097 0.01365004258034005 0 -0.03957747985555693 0.013194024138634968 0 -0.039573680347224034 0.013981539956933639 0 -0.039860098321013886 0.014925107245840119 0 -0.04038786280081097 0.01365004258034005 0 -0.039017945789890221 0.013534880426875418 0 -0.039573680347224034 0.013981539956933639 0 -0.03957747985555693 0.013194024138634968 0 -0.039573680347224034 0.013981539956933639 0 -0.039860098321013886 0.014925107245840119 0 -0.038931842815557678 0.014672407247801954 0 -0.039860098321013886 0.014925107245840119 0 -0.038931842815557678 0.014672407247801954 0 -0.039217998633290188 0.016527802106385318 0 -0.038292624560563975 0.015567554089134072 0 -0.038931842815557678 0.014672407247801954 0 -0.039217998633290188 0.016527802106385318 0 -0.033163151136879371 0.022106953803391418 0 -0.033262455322366886 0.022196602191816055 0 -0.03334074449784212 0.022037911262915089 0 -0.033219766503356361 0.022210318769356637 0 -0.033163151136879371 0.022106953803391418 0 -0.033262455322366886 0.022196602191816055 0 -0.033217792375205508 0.021697320229497545 0 -0.033163151136879371 0.022106953803391418 0 -0.03334074449784212 0.022037911262915089 0 -0.036672603439616418 0.018577960253402935 0 -0.036167676487391498 0.019292487898653277 0 -0.03334074449784212 0.022037911262915089 0 -0.033547106425325227 0.02231075162477596 0 -0.03360084035106882 0.0217801069444899 0 -0.033217792375205508 0.021697320229497545 0 -0.03334074449784212 0.022037911262915089 0 -0.03360084035106882 0.0217801069444899 0 -0.033262455322366886 0.022196602191816055 0 -0.03334074449784212 0.022037911262915089 0 -0.033392611342238178 0.022370422141249891 0 -0.03334074449784212 0.022037911262915089 0 -0.033392611342238178 0.022370422141249891 0 -0.033547106425325227 0.02231075162477596 0 -0.027337711262019681 0.014000392159259894 0 -0.02734235403951716 0.013806297833156268 0 -0.027726469888654338 0.014260410483060846 0 -0.027337711262019681 0.014000392159259894 0 -0.027222311348361294 0.014243853478016467 0 -0.027726469888654338 0.014260410483060846 0 -0.030524166933022467 0.017997742513158822 0 -0.029992716596988236 0.018392209331436864 0 -0.027222311348361294 0.014243853478016467 0 -0.027726469888654338 0.014260410483060846 0 -0.027483139160885243 0.014732441200531418 0 -0.029992716596988236 0.018392209331436864 0 -0.035683026598063147 0.015786623449980476 0 -0.033217792375205508 0.021697320229497545 0 -0.03360084035106882 0.0217801069444899 0 -0.033519775741992795 0.021156990433911838 0 -0.036672603439616418 0.018577960253402935 0 -0.035683026598063147 0.015786623449980476 0 -0.027726469888654338 0.014260410483060846 0 -0.028005953903584044 0.014866412951375181 0 -0.027483139160885243 0.014732441200531418 0 -0.026989413613224336 0.013443848325765329 0 -0.02694022985334929 0.013252573970650262 0 -0.026989392530574988 0.013293323908959648 0 -0.026949343605148984 0.014339043839170259 0 -0.030632787096417726 0.012222632763568678 0 -0.028005953903584044 0.014866412951375181 0 -0.027483139160885243 0.014732441200531418 0 -0.027748453747548665 0.01520044530189358 0 -0.040173995296464038 0.012865916862492277 0 -0.040053741058827155 0.012899611882985107 0 -0.040164378872587198 0.012828876572068772 0 -0.030632787096417726 0.012222632763568678 0 -0.032059070618556243 0.010528070408096618 0 -0.030632787096417726 0.012222632763568678 0 -0.029835405036855403 0.011279722545392704 0 -0.031191000843109266 0.010742484878677983 0 -0.031368457429937345 0.010501247660310128 0 -0.031069123311047119 0.010444295872254438 0 -0.027035199664651059 0.013251898374367349 0 -0.026953716234387963 0.013234464170992033 0 -0.026989392530574988 0.013293323908959648 0 -0.026605213485609326 0.012596772095487497 0 -0.029835405036855403 0.011279722545392704 0 -0.02694022985334929 0.013252573970650262 0 -0.026953716234387963 0.013234464170992033 0 -0.026989392530574988 0.013293323908959648 0 -0.035683026598063147 0.015786623449980476 0 -0.039937198397758125 0.012577991718417945 0 -0.039965396499569081 0.01313927469968508 0 -0.040173995296464038 0.012865916862492277 0 -0.040053741058827155 0.012899611882985107 0 -0.04038786280081097 0.01365004258034005 0 -0.039937345431287893 0.012832914060668613 0 -0.03957747985555693 0.013194024138634968 0 -0.035683026598063147 0.015786623449980476 0 -0.030632787096417726 0.012222632763568678 0 -0.039937345431287893 0.012832914060668613 0 -0.040053741058827155 0.012899611882985107 0 -0.040164378872587198 0.012828876572068772 0 -0.039965396499569081 0.01313927469968508 0 -0.039937345431287893 0.012832914060668613 0 -0.040053741058827155 0.012899611882985107 0 -0.032059070618556243 0.010528070408096618 0 -0.036709668201572974 0.0090871751431839121 0 -0.03095635407978968 0.0059036073743419949 0 -0.030099766265183469 0.0053145316811664973 0 -0.032121162004802299 0.0056054542767001551 0 -0.039937345431287893 0.012832914060668613 0 -0.040164378872587198 0.012828876572068772 0 -0.039696336409256183 0.012583174089074198 0 -0.031611700660633381 0.0061479369719463052 0 -0.03095635407978968 0.0059036073743419949 0 -0.032121162004802299 0.0056054542767001551 0 -0.031611700660633381 0.0061479369719463052 0 -0.03095635407978968 0.0059036073743419949 0 -0.031053592168592568 0.0065096899572262227 0 -0.03095635407978968 0.0059036073743419949 0 -0.030413216132906783 0.0062480757163312604 0 -0.031053592168592568 0.0065096899572262227 0 -0.03095635407978968 0.0059036073743419949 0 -0.030413216132906783 0.0062480757163312604 0 -0.03028523557940014 0.0057810115302484701 0 -0.027035199664651059 0.013251898374367349 0 -0.027029548774800873 0.013084629536509901 0 -0.026947213036319754 0.013213399279771103 0 -0.030413216132906783 0.0062480757163312604 0 -0.0299075927564212 0.0061156247207281144 0 -0.029883987158016209 0.0064654568344743374 0 -0.0299075927564212 0.0061156247207281144 0 -0.03028523557940014 0.0057810115302484701 0 -0.029872998732184592 0.0057645473446176704 0 -0.030413216132906783 0.0062480757163312604 0 -0.0299075927564212 0.0061156247207281144 0 -0.03028523557940014 0.0057810115302484701 0 -0.03095635407978968 0.0059036073743419949 0 -0.03028523557940014 0.0057810115302484701 0 -0.030099766265183469 0.0053145316811664973 0 -0.03028523557940014 0.0057810115302484701 0 -0.030090005044034772 0.0053741472780503424 0 -0.029872998732184592 0.0057645473446176704 0 -0.029881757511387764 0.0053395697619989741 0 -0.030090005044034772 0.0053741472780503424 0 -0.029872998732184592 0.0057645473446176704 0 -0.029835405036855403 0.011279722545392704 0 -0.032059070618556243 0.010528070408096618 0 -0.030461527275550647 0.0065223240234819607 0 -0.032059070618556243 0.010528070408096618 0 -0.027706215400028798 0.0095632676840693761 0 -0.029835405036855403 0.011279722545392704 0 -0.029138254651294309 0.0063140608243809409 0 -0.029881757511387764 0.0053395697619989741 0 -0.029872998732184592 0.0057645473446176704 0 -0.029138254651294309 0.0063140608243809409 0 -0.0299075927564212 0.0061156247207281144 0 -0.029883987158016209 0.0064654568344743374 0 -0.029138254651294309 0.0063140608243809409 0 -0.0299075927564212 0.0061156247207281144 0 -0.029872998732184592 0.0057645473446176704 0 -0.027706215400028798 0.0095632676840693761 0 -0.028902430034680023 0.0069750563561246292 0 -0.029064665483294231 0.006275992987777341 0 -0.029082029862466934 0.0075249827272574794 0 -0.029699505307205491 0.0069550896578964832 0 -0.029138254651294309 0.0063140608243809409 0 -0.029883987158016209 0.0064654568344743374 0 -0.029699505307205491 0.0069550896578964832 0 -0.030413216132906783 0.0062480757163312604 0 -0.029883987158016209 0.0064654568344743374 0 -0.030245504382372543 0.0066810612888585658 0 -0.029883987158016209 0.0064654568344743374 0 -0.030245504382372543 0.0066810612888585658 0 -0.029699505307205491 0.0069550896578964832 0 -0.030237405284281548 0.00721007089084158 0 -0.029699505307205491 0.0069550896578964832 0 -0.029710007190294953 0.0075928687393603395 0 -0.030245504382372543 0.0066810612888585658 0 -0.030237405284281548 0.00721007089084158 0 -0.029699505307205491 0.0069550896578964832 0 -0.029082029862466934 0.0075249827272574794 0 -0.029699505307205491 0.0069550896578964832 0 -0.029710007190294953 0.0075928687393603395 0 -0.029082029862466934 0.0075249827272574794 0 -0.029710007190294953 0.0075928687393603395 0 -0.029422577208632835 0.008239497679786361 0 -0.030237405284281548 0.00721007089084158 0 -0.029710007190294953 0.0075928687393603395 0 -0.030291381594385023 0.0080568353641790463 0 -0.029710007190294953 0.0075928687393603395 0 -0.029422577208632835 0.008239497679786361 0 -0.030291381594385023 0.0080568353641790463 0 -0.030237405284281548 0.00721007089084158 0 -0.031290728825068524 0.0076979495860004712 0 -0.030291381594385023 0.0080568353641790463 0 -0.031290728825068524 0.0076979495860004712 0 -0.030291381594385023 0.0080568353641790463 0 -0.031016966405204873 0.0088081064606993411 0 -0.030237405284281548 0.00721007089084158 0 -0.031053592168592568 0.0065096899572262227 0 -0.032244539900005524 0.0067514111701069872 0 -0.030237405284281548 0.00721007089084158 0 -0.031290728825068524 0.0076979495860004712 0 -0.031746292971839458 0.0065181540567802506 0 -0.030456021364428355 0.0072180936606771225 0 -0.031719909887740455 0.0063984487722184291 0 -0.030245504382372543 0.0066810612888585658 0 -0.030237405284281548 0.00721007089084158 0 -0.031053592168592568 0.0065096899572262227 0 -0.030413216132906783 0.0062480757163312604 0 -0.030245504382372543 0.0066810612888585658 0 -0.031053592168592568 0.0065096899572262227 0 -0.031611700660633381 0.0061479369719463052 0 -0.031053592168592568 0.0065096899572262227 0 -0.032244539900005524 0.0067514111701069872 0 -0.031290728825068524 0.0076979495860004712 0 -0.031746292971839458 0.0065181540567802506 0 -0.032448645611689163 0.0074906482926170347 0 -0.031290728825068524 0.0076979495860004712 0 -0.031954420221163155 0.0083540273808636739 0 -0.031016966405204873 0.0088081064606993411 0 -0.031290728825068524 0.0076979495860004712 0 -0.032448645611689163 0.0074906482926170347 0 -0.031954420221163155 0.0083540273808636739 0 -0.032448645611689163 0.0074906482926170347 0 -0.033517036080107358 0.0074771006241740627 0 -0.032995773752416871 0.0086930701494952363 0 -0.032448645611689163 0.0074906482926170347 0 -0.032995773752416871 0.0086930701494952363 0 -0.031954420221163155 0.0083540273808636739 0 -0.032448645611689163 0.0074906482926170347 0 -0.03297433252520738 0.0068097668093168766 0 -0.033517036080107358 0.0074771006241740627 0 -0.031746292971839458 0.0065181540567802506 0 -0.03297433252520738 0.0068097668093168766 0 -0.033330174175088843 0.0059160418115552782 0 -0.031746292971839458 0.0065181540567802506 0 -0.032448645611689163 0.0074906482926170347 0 -0.03297433252520738 0.0068097668093168766 0 -0.03297433252520738 0.0068097668093168766 0 -0.033330174175088843 0.0059160418115552782 0 -0.033745579893844663 0.0066742604517528526 0 -0.038521301129960772 0.012199215894222003 0 -0.039696336409256183 0.012583174089074198 0 -0.039040955174729448 0.012892920771926461 0 -0.031719909887740455 0.0063984487722184291 0 -0.035496170386792217 0.008338623171122151 0 -0.035496170386792217 0.008338623171122151 0 -0.036709668201572974 0.0090871751431839121 0 -0.032244539900005524 0.0067514111701069872 0 -0.034331304930399584 0.006032380667649365 0 -0.032121162004802299 0.0056054542767001551 0 -0.031611700660633381 0.0061479369719463052 0 -0.032244539900005524 0.0067514111701069872 0 -0.032121162004802299 0.0056054542767001551 0 -0.039696336409256183 0.012583174089074198 0 -0.03957747985555693 0.013194024138634968 0 -0.039040955174729448 0.012892920771926461 0 -0.039937345431287893 0.012832914060668613 0 -0.039696336409256183 0.012583174089074198 0 -0.03957747985555693 0.013194024138634968 0 -0.038521301129960772 0.012199215894222003 0 -0.039040955174729448 0.012892920771926461 0 -0.03831727036552831 0.012985306304689831 0 -0.039017945789890221 0.013534880426875418 0 -0.03957747985555693 0.013194024138634968 0 -0.039040955174729448 0.012892920771926461 0 -0.039017945789890221 0.013534880426875418 0 -0.039040955174729448 0.012892920771926461 0 -0.03831727036552831 0.012985306304689831 0 -0.03831727036552831 0.012985306304689831 0 -0.037642457083246664 0.012947256831971886 0 -0.037404086500235897 0.012535475982474965 0 -0.037909163676906395 0.01342229511859588 0 -0.038375833711279811 0.013907470675707752 0 -0.03831727036552831 0.012985306304689831 0 -0.037909163676906395 0.01342229511859588 0 -0.03831727036552831 0.012985306304689831 0 -0.037642457083246664 0.012947256831971886 0 -0.03746044160701395 0.013377603284277969 0 -0.037642457083246664 0.012947256831971886 0 -0.037202366021690914 0.012809902843798165 0 -0.03746044160701395 0.013377603284277969 0 -0.037909163676906395 0.01342229511859588 0 -0.037642457083246664 0.012947256831971886 0 -0.03746044160701395 0.013377603284277969 0 -0.036916529328395273 0.013253418224089557 0 -0.037202366021690914 0.012809902843798165 0 -0.036916529328395273 0.013253418224089557 0 -0.037202366021690914 0.012809902843798165 0 -0.036822519476266087 0.012431347832300998 0 -0.037025430888058021 0.011772301429694633 0 -0.036951263434620872 0.012216090212508985 0 -0.037202366021690914 0.012809902843798165 0 -0.03738082395746728 0.012320203381313028 0 -0.036822519476266087 0.012431347832300998 0 -0.037642457083246664 0.012947256831971886 0 -0.037202366021690914 0.012809902843798165 0 -0.03738082395746728 0.012320203381313028 0 -0.03761732734131501 0.012878985380395112 0 -0.037025430888058021 0.011772301429694633 0 -0.037644682914284362 0.012092925583107495 0 -0.036522087321067695 0.011604753908732673 0 -0.036822519476266087 0.012431347832300998 0 -0.037644682914284362 0.012092925583107495 0 -0.037108615407631558 0.011021950822307461 0 -0.036522087321067695 0.011604753908732673 0 -0.037025430888058021 0.011772301429694633 0 -0.036130073279262133 0.00937849786065275 0 -0.034848013409844746 0.0078375894768935653 0 -0.036130073279262133 0.00937849786065275 0 -0.036008795788731923 0.0093960964015901774 0 -0.035921790192456893 0.0095108035041753837 0 -0.036089020768633455 0.0095432828367127201 0 -0.035496170386792217 0.008338623171122151 0 -0.037025430888058021 0.011772301429694633 0 -0.03575238969704022 0.0094724563674370103 0 -0.036008795788731923 0.0093960964015901774 0 -0.035921790192456893 0.0095108035041753837 0 -0.038521301129960772 0.012199215894222003 0 -0.03831727036552831 0.012985306304689831 0 -0.037404086500235897 0.012535475982474965 0 -0.033330174175088843 0.0059160418115552782 0 -0.034337663153250521 0.0061358151956934347 0 -0.033745579893844663 0.0066742604517528526 0 -0.035496170386792217 0.008338623171122151 0 -0.034848013409844746 0.0078375894768935653 0 -0.034337663153250521 0.0061358151956934347 0 -0.033745579893844663 0.0066742604517528526 0 -0.034385878365947503 0.0071120440950945283 0 -0.033745579893844663 0.0066742604517528526 0 -0.034385878365947503 0.0071120440950945283 0 -0.033517036080107358 0.0074771006241740627 0 -0.03297433252520738 0.0068097668093168766 0 -0.033745579893844663 0.0066742604517528526 0 -0.033517036080107358 0.0074771006241740627 0 -0.034385878365947503 0.0071120440950945283 0 -0.034285579774771209 0.0081309452451389878 0 -0.033517036080107358 0.0074771006241740627 0 -0.034285579774771209 0.0081309452451389878 0 -0.033517036080107358 0.0074771006241740627 0 -0.032995773752416871 0.0086930701494952363 0 -0.034385878365947503 0.0071120440950945283 0 -0.034285579774771209 0.0081309452451389878 0 -0.03519839138197034 0.0074206748893090625 0 -0.034285579774771209 0.0081309452451389878 0 -0.03519839138197034 0.0074206748893090625 0 -0.035344058581035988 0.0087483036878262255 0 -0.035269683171760789 0.0075030046682509639 0 -0.035472277684285854 0.0078137991324159876 0 -0.034337663153250521 0.0061358151956934347 0 -0.034385878365947503 0.0071120440950945283 0 -0.035038030377391616 0.0069316979858235614 0 -0.034385878365947503 0.0071120440950945283 0 -0.03519839138197034 0.0074206748893090625 0 -0.035038030377391616 0.0069316979858235614 0 -0.034337663153250521 0.0061358151956934347 0 -0.035038030377391616 0.0069316979858235614 0 -0.035261604168640999 0.0064074088036624177 0 -0.035038030377391616 0.0069316979858235614 0 -0.035261604168640999 0.0064074088036624177 0 -0.035592854737915368 0.0074398359442710811 0 -0.037192890057066892 0.010973416774798036 0 -0.036178849950725629 0.010795191552685457 0 -0.036458780027301414 0.0095317159708973968 0 -0.036130073279262133 0.00937849786065275 0 -0.036699178869969512 0.010722722459293531 0 -0.036130073279262133 0.00937849786065275 0 -0.035994221523778992 0.00833598310044633 0 -0.036178849950725629 0.010795191552685457 0 -0.036458780027301414 0.0095317159708973968 0 -0.03566752397903046 0.0096862232444490364 0 -0.03519839138197034 0.0074206748893090625 0 -0.035592854737915368 0.0074398359442710811 0 -0.035733278103284999 0.0073732633431385789 0 -0.035994221523778992 0.00833598310044633 0 -0.035599601719295555 0.007723424917088253 0 -0.03519839138197034 0.0074206748893090625 0 -0.035038030377391616 0.0069316979858235614 0 -0.035592854737915368 0.0074398359442710811 0 -0.036458780027301414 0.0095317159708973968 0 -0.035718092632204192 0.0089933966490888147 0 -0.035744731509094248 0.0081173312505418531 0 -0.03566752397903046 0.0096862232444490364 0 -0.034999899037959865 0.010575135969645362 0 -0.034999978348928901 0.0086397147346220279 0 -0.035718092632204192 0.0089933966490888147 0 -0.03566752397903046 0.0096862232444490364 0 -0.034999978348928901 0.0086397147346220279 0 -0.036458780027301414 0.0095317159708973968 0 -0.035718092632204192 0.0089933966490888147 0 -0.03566752397903046 0.0096862232444490364 0 -0.036178849950725629 0.010795191552685457 0 -0.03566752397903046 0.0096862232444490364 0 -0.034999899037959865 0.010575135969645362 0 -0.034999899037959865 0.010575135969645362 0 -0.035892964566522606 0.011882433599638503 0 -0.034999896499530683 0.012510648069825894 0 -0.036178849950725629 0.010795191552685457 0 -0.034999899037959865 0.010575135969645362 0 -0.035892964566522606 0.011882433599638503 0 -0.036178849950725629 0.010795191552685457 0 -0.035892964566522606 0.011882433599638503 0 -0.036522087321067695 0.011604753908732673 0 -0.037108615407631558 0.011021950822307461 0 -0.036178849950725629 0.010795191552685457 0 -0.036522087321067695 0.011604753908732673 0 -0.035892964566522606 0.011882433599638503 0 -0.036522087321067695 0.011604753908732673 0 -0.036822519476266087 0.012431347832300998 0 -0.035892964566522606 0.011882433599638503 0 -0.036822519476266087 0.012431347832300998 0 -0.036166784940198149 0.013021404024730334 0 -0.036916529328395273 0.013253418224089557 0 -0.036822519476266087 0.012431347832300998 0 -0.036166784940198149 0.013021404024730334 0 -0.035735335398110579 0.01383911150300653 0 -0.036166784940198149 0.013021404024730334 0 -0.034999896499530683 0.012510648069825894 0 -0.035892964566522606 0.011882433599638503 0 -0.036166784940198149 0.013021404024730334 0 -0.034999896499530683 0.012510648069825894 0 -0.034999929220692845 0.005379541446293038 0 -0.035536591733079916 0.0042775438722200323 0 -0.036145386585209834 0.0048009692446094269 0 -0.035536591733079916 0.0042775438722200323 0 -0.036145386585209834 0.0048009692446094269 0 -0.035891863684478671 0.0033026976364731436 0 -0.034999929220692845 0.005379541446293038 0 -0.035536591733079916 0.0042775438722200323 0 -0.034999859645499773 0.0036135121133920459 0 -0.035002726192011828 0.0053806643883934609 0 -0.033745966171569233 0.0039002119477060549 0 -0.033745966171569233 0.0039002119477060549 0 -0.03299357128302155 -0.00198624514036423 0 -0.03596116455284637 0.0056559771288488799 0 -0.03553573519813448 0.0062401953133453441 0 -0.035966741286020593 0.0066644196950803323 0 -0.033745966171569233 0.0039002119477060549 0 -0.035998756341063004 0.0091704025705846327 0 -0.034999753898545656 0.0053814914638141177 0 -0.03596116455284637 0.0056559771288488799 0 -0.03553573519813448 0.0062401953133453441 0 -0.034999753898545656 0.0053814914638141177 0 -0.03553573519813448 0.0062401953133453441 0 -0.034999935951431541 0.0067034481026305524 0 -0.035000121409779088 0.0067045108609623903 0 -0.035599601719295555 0.007723424917088253 0 -0.034999935951431541 0.0067034481026305524 0 -0.035527837779858538 0.0068901660934102306 0 -0.035460035305888496 0.007301795386206047 0 -0.03553573519813448 0.0062401953133453441 0 -0.034999935951431541 0.0067034481026305524 0 -0.035527837779858538 0.0068901660934102306 0 -0.035000001915595477 0.0067043479318206574 0 -0.035744731509094248 0.0081173312505418531 0 -0.034999978348928901 0.0086397147346220279 0 -0.035718092632204192 0.0089933966490888147 0 -0.035744731509094248 0.0081173312505418531 0 -0.034999978348928901 0.0086397147346220279 0 -0.035592854737915368 0.0074398359442710811 0 -0.035460035305888496 0.007301795386206047 0 -0.035733278103284999 0.0073732633431385789 0 -0.035527837779858538 0.0068901660934102306 0 -0.035460035305888496 0.007301795386206047 0 -0.035733278103284999 0.0073732633431385789 0 -0.035527837779858538 0.0068901660934102306 0 -0.035733278103284999 0.0073732633431385789 0 -0.035966741286020593 0.0066644196950803323 0 -0.035472277684285854 0.0078137991324159876 0 -0.035998756341063004 0.0091704025705846327 0 -0.03553573519813448 0.0062401953133453441 0 -0.035527837779858538 0.0068901660934102306 0 -0.035966741286020593 0.0066644196950803323 0 -0.035344058581035988 0.0087483036878262255 0 -0.035531920959775871 0.0099197057997940548 0 -0.034237499040613836 0.0094374951873029186 0 -0.034285579774771209 0.0081309452451389878 0 -0.035344058581035988 0.0087483036878262255 0 -0.034237499040613836 0.0094374951873029186 0 -0.034285579774771209 0.0081309452451389878 0 -0.034237499040613836 0.0094374951873029186 0 -0.032995773752416871 0.0086930701494952363 0 -0.034237499040613836 0.0094374951873029186 0 -0.033169416267654683 0.010045461736491021 0 -0.032995773752416871 0.0086930701494952363 0 -0.034237499040613836 0.0094374951873029186 0 -0.034204115038776378 0.011120468348756475 0 -0.033169416267654683 0.010045461736491021 0 -0.034204115038776378 0.011120468348756475 0 -0.032539753325162506 0.01121831047153665 0 -0.033169416267654683 0.010045461736491021 0 -0.035756944705549486 0.011025439091713626 0 -0.035531920959775871 0.0099197057997940548 0 -0.034204115038776378 0.011120468348756475 0 -0.035531920959775871 0.0099197057997940548 0 -0.034237499040613836 0.0094374951873029186 0 -0.034204115038776378 0.011120468348756475 0 -0.031716032509702063 -0.0047663710635720098 0 -0.031877024100427177 -0.0055737715638649642 0 -0.030914057278821686 -0.0051778677169726324 0 -0.033745966171569233 0.0039002119477060549 0 -0.032803916889979939 0.0031298947422647686 0 -0.030633402784837904 -0.0041744326572721669 0 -0.031716032509702063 -0.0047663710635720098 0 -0.030914057278821686 -0.0051778677169726324 0 -0.031716032509702063 -0.0047663710635720098 0 -0.032590253479478901 -0.0051825273909150938 0 -0.031877024100427177 -0.0055737715638649642 0 -0.032803916889979939 0.0031298947422647686 0 -0.032554552206642676 0.0030157275733621431 0 -0.032590253479478901 -0.0051825273909150938 0 -0.03250171742555371 -0.0059443429173235262 0 -0.031877024100427177 -0.0055737715638649642 0 -0.032554552206642676 0.0030157275733621431 0 -0.032191210734459665 0.0030478941776745879 0 -0.032590253479478901 -0.0051825273909150938 0 -0.03305943668917153 -0.0060092111380810904 0 -0.03250171742555371 -0.0059443429173235262 0 -0.032590253479478901 -0.0051825273909150938 0 -0.033393374075808301 -0.0054178582471124054 0 -0.03305943668917153 -0.0060092111380810904 0 -0.032539753325162506 0.01121831047153665 0 -0.031833057514635027 0.0097222224910830917 0 -0.030826527606843974 0.011275786932504825 0 -0.032539753325162506 0.01121831047153665 0 -0.033169416267654683 0.010045461736491021 0 -0.031833057514635027 0.0097222224910830917 0 -0.033169416267654683 0.010045461736491021 0 -0.032995773752416871 0.0086930701494952363 0 -0.031833057514635027 0.0097222224910830917 0 -0.032995773752416871 0.0086930701494952363 0 -0.031954420221163155 0.0083540273808636739 0 -0.031833057514635027 0.0097222224910830917 0 -0.031954420221163155 0.0083540273808636739 0 -0.031833057514635027 0.0097222224910830917 0 -0.031016966405204873 0.0088081064606993411 0 -0.031833057514635027 0.0097222224910830917 0 -0.030470438640204416 0.0099581886988073971 0 -0.031016966405204873 0.0088081064606993411 0 -0.030470438640204416 0.0099581886988073971 0 -0.031016966405204873 0.0088081064606993411 0 -0.030019625109236597 0.0088971146289575156 0 -0.030291381594385023 0.0080568353641790463 0 -0.031016966405204873 0.0088081064606993411 0 -0.030019625109236597 0.0088971146289575156 0 -0.029422577208632835 0.008239497679786361 0 -0.030019625109236597 0.0088971146289575156 0 -0.02898077296184948 0.0090425518787867875 0 -0.029422577208632835 0.008239497679786361 0 -0.030291381594385023 0.0080568353641790463 0 -0.030019625109236597 0.0088971146289575156 0 -0.030019625109236597 0.0088971146289575156 0 -0.02898077296184948 0.0090425518787867875 0 -0.029150664438637505 0.010179584412503717 0 -0.030470438640204416 0.0099581886988073971 0 -0.030019625109236597 0.0088971146289575156 0 -0.029150664438637505 0.010179584412503717 0 -0.029908484857973636 0.010671765342686138 0 -0.029150664438637505 0.010179584412503717 0 -0.029206822935585679 0.01125478348735132 0 -0.029908484857973636 0.010671765342686138 0 -0.030826527606843974 0.011275786932504825 0 -0.029206822935585679 0.01125478348735132 0 -0.030470438640204416 0.0099581886988073971 0 -0.029908484857973636 0.010671765342686138 0 -0.029150664438637505 0.010179584412503717 0 -0.031833057514635027 0.0097222224910830917 0 -0.030470438640204416 0.0099581886988073971 0 -0.030826527606843974 0.011275786932504825 0 -0.030470438640204416 0.0099581886988073971 0 -0.029908484857973636 0.010671765342686138 0 -0.030826527606843974 0.011275786932504825 0 -0.033393374075808301 -0.0054178582471124054 0 -0.03375183692135534 -0.0061524577438948269 0 -0.03305943668917153 -0.0060092111380810904 0 -0.033393374075808301 -0.0054178582471124054 0 -0.03375183692135534 -0.0061524577438948269 0 -0.034426557425980622 -0.0054313612861778297 0 -0.032191210734459665 0.0030478941776745879 0 -0.031423340214187565 0.0019605313595011217 0 -0.03375183692135534 -0.0061524577438948269 0 -0.034426557425980622 -0.0054313612861778297 0 -0.034437480087148226 -0.0064274713117233942 0 -0.03375183692135534 -0.0061524577438948269 0 -0.033832537227353882 -0.0069949462603543953 0 -0.034437480087148226 -0.0064274713117233942 0 -0.03375183692135534 -0.0061524577438948269 0 -0.033427957851903105 -0.0067884215110550171 0 -0.03305943668917153 -0.0060092111380810904 0 -0.03375183692135534 -0.0061524577438948269 0 -0.033427957851903105 -0.0067884215110550171 0 -0.033832537227353882 -0.0069949462603543953 0 -0.033427957851903105 -0.0067884215110550171 0 -0.033832537227353882 -0.0069949462603543953 0 -0.033710726080633933 -0.0075909430248933957 0 -0.033258036281584143 -0.0072269707088620664 0 -0.033427957851903105 -0.0067884215110550171 0 -0.033710726080633933 -0.0075909430248933957 0 -0.033832537227353882 -0.0069949462603543953 0 -0.034437480087148226 -0.0064274713117233942 0 -0.034049254384309856 -0.0077297721139025621 0 -0.033832537227353882 -0.0069949462603543953 0 -0.033710726080633933 -0.0075909430248933957 0 -0.034049254384309856 -0.0077297721139025621 0 -0.033710726080633933 -0.0075909430248933957 0 -0.033958726589112719 -0.0081458279849136624 0 -0.034049254384309856 -0.0077297721139025621 0 -0.033710726080633933 -0.0075909430248933957 0 -0.033958726589112719 -0.0081458279849136624 0 -0.033731062882294806 -0.0081239446942084556 0 -0.034091812405766204 -0.0084580827276596552 0 -0.033958726589112719 -0.0081458279849136624 0 -0.033931593199721076 -0.0083632447785999126 0 -0.033958726589112719 -0.0081458279849136624 0 -0.033931593199721076 -0.0083632447785999126 0 -0.033731062882294806 -0.0081239446942084556 0 -0.033734317268507945 -0.0084888100449479354 0 -0.033931593199721076 -0.0083632447785999126 0 -0.033731062882294806 -0.0081239446942084556 0 -0.033734317268507945 -0.0084888100449479354 0 -0.03342060990137883 -0.0083469435012096249 0 -0.033731062882294806 -0.0081239446942084556 0 -0.03342060990137883 -0.0083469435012096249 0 -0.033731062882294806 -0.0081239446942084556 0 -0.033348500312039904 -0.0078378994058639524 0 -0.033258036281584143 -0.0072269707088620664 0 -0.033710726080633933 -0.0075909430248933957 0 -0.033348500312039904 -0.0078378994058639524 0 -0.033710726080633933 -0.0075909430248933957 0 -0.033731062882294806 -0.0081239446942084556 0 -0.033348500312039904 -0.0078378994058639524 0 -0.033258036281584143 -0.0072269707088620664 0 -0.033348500312039904 -0.0078378994058639524 0 -0.03293168012149611 -0.0073462520606637563 0 -0.033348500312039904 -0.0078378994058639524 0 -0.03293168012149611 -0.0073462520606637563 0 -0.032802948005582533 -0.0079112418280645747 0 -0.03342060990137883 -0.0083469435012096249 0 -0.033348500312039904 -0.0078378994058639524 0 -0.032802948005582533 -0.0079112418280645747 0 -0.032353994964129031 -0.008447497766781227 0 -0.032802948005582533 -0.0079112418280645747 0 -0.032055316343318131 -0.0074905144806616773 0 -0.03293168012149611 -0.0073462520606637563 0 -0.032802948005582533 -0.0079112418280645747 0 -0.032421976900051601 -0.007065408592979691 0 -0.032802948005582533 -0.0079112418280645747 0 -0.032421976900051601 -0.007065408592979691 0 -0.032055316343318131 -0.0074905144806616773 0 -0.03293168012149611 -0.0073462520606637563 0 -0.032421976900051601 -0.007065408592979691 0 -0.032838790046486037 -0.0066213053740265459 0 -0.032421976900051601 -0.007065408592979691 0 -0.032838790046486037 -0.0066213053740265459 0 -0.032101534776267794 -0.0063882233262513967 0 -0.033258036281584143 -0.0072269707088620664 0 -0.033427957851903105 -0.0067884215110550171 0 -0.032838790046486037 -0.0066213053740265459 0 -0.033258036281584143 -0.0072269707088620664 0 -0.03293168012149611 -0.0073462520606637563 0 -0.032838790046486037 -0.0066213053740265459 0 -0.033427957851903105 -0.0067884215110550171 0 -0.032838790046486037 -0.0066213053740265459 0 -0.03305943668917153 -0.0060092111380810904 0 -0.032838790046486037 -0.0066213053740265459 0 -0.03305943668917153 -0.0060092111380810904 0 -0.03250171742555371 -0.0059443429173235262 0 -0.032838790046486037 -0.0066213053740265459 0 -0.03250171742555371 -0.0059443429173235262 0 -0.032101534776267794 -0.0063882233262513967 0 -0.031877024100427177 -0.0055737715638649642 0 -0.031319026846302681 -0.0060932942024380888 0 -0.032101534776267794 -0.0063882233262513967 0 -0.03250171742555371 -0.0059443429173235262 0 -0.031877024100427177 -0.0055737715638649642 0 -0.032101534776267794 -0.0063882233262513967 0 -0.031877024100427177 -0.0055737715638649642 0 -0.031319026846302681 -0.0060932942024380888 0 -0.030914057278821686 -0.0051778677169726324 0 -0.031319026846302681 -0.0060932942024380888 0 -0.031275285303150054 -0.0066298458498311886 0 -0.030861129413636473 -0.0064637057338093147 0 -0.031319026846302681 -0.0060932942024380888 0 -0.031275285303150054 -0.0066298458498311886 0 -0.031698589947167941 -0.0068308861263963374 0 -0.032421976900051601 -0.007065408592979691 0 -0.032101534776267794 -0.0063882233262513967 0 -0.031698589947167941 -0.0068308861263963374 0 -0.031319026846302681 -0.0060932942024380888 0 -0.032101534776267794 -0.0063882233262513967 0 -0.031698589947167941 -0.0068308861263963374 0 -0.032421976900051601 -0.007065408592979691 0 -0.031698589947167941 -0.0068308861263963374 0 -0.032055316343318131 -0.0074905144806616773 0 -0.031698589947167941 -0.0068308861263963374 0 -0.032055316343318131 -0.0074905144806616773 0 -0.031496170881142031 -0.0072573762157072336 0 -0.032055316343318131 -0.0074905144806616773 0 -0.03160854368468146 -0.0080618937590799522 0 -0.031496170881142031 -0.0072573762157072336 0 -0.032353994964129031 -0.008447497766781227 0 -0.032055316343318131 -0.0074905144806616773 0 -0.03160854368468146 -0.0080618937590799522 0 -0.03160854368468146 -0.0080618937590799522 0 -0.0311828808927881 -0.0076349335336497832 0 -0.031496170881142031 -0.0072573762157072336 0 -0.031042570673076871 -0.0080822744853932156 0 -0.03160854368468146 -0.0080618937590799522 0 -0.0311828808927881 -0.0076349335336497832 0 -0.0311828808927881 -0.0076349335336497832 0 -0.031496170881142031 -0.0072573762157072336 0 -0.031084815012474096 -0.0070392006663386238 0 -0.0311828808927881 -0.0076349335336497832 0 -0.031084815012474096 -0.0070392006663386238 0 -0.030852927896212919 -0.0074111603856215139 0 -0.031275285303150054 -0.0066298458498311886 0 -0.031698589947167941 -0.0068308861263963374 0 -0.031496170881142031 -0.0072573762157072336 0 -0.031275285303150054 -0.0066298458498311886 0 -0.031496170881142031 -0.0072573762157072336 0 -0.031084815012474096 -0.0070392006663386238 0 -0.031275285303150054 -0.0066298458498311886 0 -0.031084815012474096 -0.0070392006663386238 0 -0.030861129413636473 -0.0064637057338093147 0 -0.030536096078563463 -0.0067585185215849304 0 -0.030761313288737192 -0.0070330069634894979 0 -0.030861129413636473 -0.0064637057338093147 0 -0.031084815012474096 -0.0070392006663386238 0 -0.030761313288737192 -0.0070330069634894979 0 -0.030861129413636473 -0.0064637057338093147 0 -0.030536096078563463 -0.0067585185215849304 0 -0.030481644513943779 -0.0073700188234358116 0 -0.030761313288737192 -0.0070330069634894979 0 -0.030536096078563463 -0.0067585185215849304 0 -0.030322163134644108 -0.006869815146736756 0 -0.030481644513943779 -0.0073700188234358116 0 -0.030481644513943779 -0.0073700188234358116 0 -0.030761313288737192 -0.0070330069634894979 0 -0.030852927896212919 -0.0074111603856215139 0 -0.031084815012474096 -0.0070392006663386238 0 -0.030761313288737192 -0.0070330069634894979 0 -0.030852927896212919 -0.0074111603856215139 0 -0.030481644513943779 -0.0073700188234358116 0 -0.030852927896212919 -0.0074111603856215139 0 -0.030728448368506706 -0.0078469498783038383 0 -0.0311828808927881 -0.0076349335336497832 0 -0.030852927896212919 -0.0074111603856215139 0 -0.030728448368506706 -0.0078469498783038383 0 -0.030481644513943779 -0.0073700188234358116 0 -0.030344336292848436 -0.0077947850426487676 0 -0.030728448368506706 -0.0078469498783038383 0 -0.030566485725456279 -0.0082208908937902309 0 -0.030344336292848436 -0.0077947850426487676 0 -0.030100335163647102 -0.0080785133372143353 0 -0.030566485725456279 -0.0082208908937902309 0 -0.030344336292848436 -0.0077947850426487676 0 -0.030728448368506706 -0.0078469498783038383 0 -0.030566485725456279 -0.0082208908937902309 0 -0.031042570673076871 -0.0080822744853932156 0 -0.030728448368506706 -0.0078469498783038383 0 -0.031042570673076871 -0.0080822744853932156 0 -0.0311828808927881 -0.0076349335336497832 0 -0.030728448368506706 -0.0078469498783038383 0 -0.033409276734852347 -0.0031754785060752987 0 -0.032946678715948752 -0.0021652734061195652 0 -0.029792263361464996 -0.0085761389150332025 0 -0.030100335163647102 -0.0080785133372143353 0 -0.029922003540827524 -0.0074411914906329923 0 -0.030618328583308142 -0.0062113782894913745 0 -0.030413959343054211 -0.0061052708478988747 0 -0.030456505146211548 -0.006143980798704052 0 -0.032284418662213571 -0.0060649619893964144 0 -0.029911049959542892 -0.0071332619926451875 0 -0.035163182023844004 -0.0004389893522002357 0 -0.034999947624435077 8.0284865349036492e-05 0 -0.035566305412884781 0.0014965443595444685 0 -0.030344336292848436 -0.0077947850426487676 0 -0.030100335163647102 -0.0080785133372143353 0 -0.029922003540827524 -0.0074411914906329923 0 -0.030481644513943779 -0.0073700188234358116 0 -0.030344336292848436 -0.0077947850426487676 0 -0.029922003540827524 -0.0074411914906329923 0 -0.029911049959542892 -0.0071332619926451875 0 -0.030413848172337773 -0.0057762436045464341 0 -0.030413959343054211 -0.0061052708478988747 0 -0.030456505146211548 -0.006143980798704052 0 -0.030336008044598788 -0.0058628184922186553 0 -0.030322163134644108 -0.006869815146736756 0 -0.029922003540827524 -0.0074411914906329923 0 -0.030336008044598788 -0.0058628184922186553 0 -0.034999947624435077 8.0284865349036492e-05 0 -0.035000001766234926 0.0018470916092165862 0 -0.035566305412884781 0.0014965443595444685 0 -0.030322163134644108 -0.006869815146736756 0 -0.030481644513943779 -0.0073700188234358116 0 -0.029922003540827524 -0.0074411914906329923 0 -0.035000001766234926 0.0018470916092165862 0 -0.035566305412884781 0.0014965443595444685 0 -0.035891863684478671 0.0033026976364731436 0 -0.030413959343054211 -0.0061052708478988747 0 -0.030336008044598788 -0.0058628184922186553 0 -0.030297967290987337 -0.0057005048230357501 0 -0.035000001766234926 0.0018470916092165862 0 -0.034999859645499773 0.0036135121133920459 0 -0.035891863684478671 0.0033026976364731436 0 -0.032946678715948752 -0.0021652734061195652 0 -0.03299357128302155 -0.00198624514036423 0 -0.030536096078563463 -0.0067585185215849304 0 -0.030322163134644108 -0.006869815146736756 0 -0.030336008044598788 -0.0058628184922186553 0 -0.030536096078563463 -0.0067585185215849304 0 -0.030336008044598788 -0.0058628184922186553 0 -0.030861129413636473 -0.0064637057338093147 0 -0.031319026846302681 -0.0060932942024380888 0 -0.030861129413636473 -0.0064637057338093147 0 -0.030725744241499587 -0.0058734177248336303 0 -0.030336008044598788 -0.0058628184922186553 0 -0.030725744241499587 -0.0058734177248336303 0 -0.030297967290987337 -0.0057005048230357501 0 -0.030336008044598788 -0.0058628184922186553 0 -0.030861129413636473 -0.0064637057338093147 0 -0.030725744241499587 -0.0058734177248336303 0 -0.030633402784837904 -0.0041744326572721669 0 -0.030914057278821686 -0.0051778677169726324 0 -0.030297967290987337 -0.0057005048230357501 0 -0.030725744241499587 -0.0058734177248336303 0 -0.030914057278821686 -0.0051778677169726324 0 -0.030297967290987337 -0.0057005048230357501 0 -0.031319026846302681 -0.0060932942024380888 0 -0.030725744241499587 -0.0058734177248336303 0 -0.030914057278821686 -0.0051778677169726324 0 -0.035536591733079916 0.0042775438722200323 0 -0.034999859645499773 0.0036135121133920459 0 -0.035891863684478671 0.0033026976364731436 0 -0.029873482583912148 0.008211588669397819 0 -0.028678058958547397 0.0073726358039645952 0 -0.029208039856839216 0.008539822869382126 0 -0.028566179768933834 0.0064826083098273981 0 -0.028152656333314742 0.0019392377979960767 0 -0.027007706783929258 0.0044593257008735884 0 -0.026667606056732983 0.0041586940973867637 0 -0.027043683680208611 0.0041832762800071413 0 -0.028535258059194813 0.0081490294976073688 0 -0.028678058958547397 0.0073726358039645952 0 -0.029208039856839216 0.008539822869382126 0 -0.028535258059194813 0.0081490294976073688 0 -0.028362888797988522 0.0073760880516812637 0 -0.028678058958547397 0.0073726358039645952 0 -0.027677512853326581 -0.0064427774734979034 0 -0.02783947821341435 -0.0063321341701197461 0 -0.027242362950516009 -0.0060899269195840468 0 -0.02783947821341435 -0.0063321341701197461 0 -0.027242362950516009 -0.0060899269195840468 0 -0.0273152658557347 -0.0055182190929214253 0 -0.028045383812803221 0.0035143343835769662 0 -0.028152656333314742 0.0019392377979960767 0 -0.028152656333314742 0.0019392377979960767 0 -0.028751521109369464 -0.0021047020357664553 0 -0.030125581186536656 0.0018891910030151182 0 -0.027540213034637506 0.0019186220853008894 0 -0.029359697957069143 0.003150264948393682 0 -0.028045383812803221 0.0035143343835769662 0 -0.028751521109369464 -0.0021047020357664553 0 -0.026654147204276883 -0.0065055834610015517 0 -0.027242362950516009 -0.0060899269195840468 0 -0.026706914223970771 -0.0056498260930748761 0 -0.027677512853326581 -0.0064427774734979034 0 -0.026654147204276883 -0.0065055834610015517 0 -0.027242362950516009 -0.0060899269195840468 0 -0.028152656333314742 0.0019392377979960767 0 -0.026601973065050761 -0.0014193543125033011 0 -0.026654147204276883 -0.0065055834610015517 0 -0.025514672216918555 -0.006572805338009107 0 -0.025995476924330397 -0.0058772542784343079 0 -0.026601973065050761 -0.0014193543125033011 0 -0.026675288872377412 -0.0015473959038069347 0 -0.027043683680208611 0.0041832762800071413 0 -0.027429798348284139 0.0041951238844356656 0 -0.027290136790933322 0.0044127901657116733 0 -0.025514672216918555 -0.006572805338009107 0 -0.025995476924330397 -0.0058772542784343079 0 -0.024963823927003876 -0.0061104580954853905 0 -0.027429798348284139 0.0041951238844356656 0 -0.027290136790933322 0.0044127901657116733 0 -0.027594851628387269 0.0044730348499612722 0 -0.027290136790933322 0.0044127901657116733 0 -0.027354659778223642 0.0047885858335432619 0 -0.027594851628387269 0.0044730348499612722 0 -0.027007706783929258 0.0044593257008735884 0 -0.027290136790933322 0.0044127901657116733 0 -0.027354659778223642 0.0047885858335432619 0 -0.027007706783929258 0.0044593257008735884 0 -0.027043683680208611 0.0041832762800071413 0 -0.027290136790933322 0.0044127901657116733 0 -0.028566179768933834 0.0064826083098273981 0 -0.028301560023820289 0.0097525416964333311 0 -0.029873482583912148 0.008211588669397819 0 -0.030184809700087481 0.0089138669605627087 0 -0.030983388430145458 0.009101100903898084 0 -0.030184809700087481 0.0089138669605627087 0 -0.030983388430145458 0.009101100903898084 0 -0.030321642939939306 0.0093354598366935885 0 -0.030184809700087481 0.0089138669605627087 0 -0.030321642939939306 0.0093354598366935885 0 -0.029653020520546455 0.0092700920405416453 0 -0.026701738018304354 0.012519077707815393 0 -0.027485866188543571 0.012954017983449711 0 -0.027800349811835549 0.012359614399641646 0 -0.026701738018304354 0.012519077707815393 0 -0.027491902380600484 0.011594553140483884 0 -0.027800349811835549 0.012359614399641646 0 -0.028301560023820289 0.0097525416964333311 0 -0.027481798593989991 0.0083684629613222511 0 -0.028301560023820289 0.0097525416964333311 0 -0.027546140374699817 0.012696773354937864 0 -0.027019866809222678 0.012737623955049737 0 -0.027129683119499624 0.013072573157720637 0 -0.027485866188543571 0.012954017983449711 0 -0.027129683119499624 0.013072573157720637 0 -0.027416928738049406 0.013417327607124304 0 -0.027485866188543571 0.012954017983449711 0 -0.027019866809222678 0.012737623955049737 0 -0.027129683119499624 0.013072573157720637 0 -0.026878710038293036 0.013325153355920475 0 -0.027129683119499624 0.013072573157720637 0 -0.027010289163240511 0.013489821338796859 0 -0.027416928738049406 0.013417327607124304 0 -0.027129683119499624 0.013072573157720637 0 -0.027010289163240511 0.013489821338796859 0 -0.026878710038293036 0.013325153355920475 0 -0.028099052752537886 0.012431654607591131 0 -0.028301560023820289 0.0097525416964333311 0 -0.028301560023820289 0.0097525416964333311 0 -0.030323636367380301 0.010001501513475326 0 -0.026450862862201746 0.01375372441601078 0 -0.027019866809222678 0.012737623955049737 0 -0.026878710038293036 0.013325153355920475 0 -0.029734856487214321 0.010558987432204138 0 -0.030188116214999988 0.0096916665838124357 0 -0.029770590723470304 0.010348220327007921 0 -0.030983388430145458 0.009101100903898084 0 -0.030321642939939306 0.0093354598366935885 0 -0.030140223251028858 0.01003370675704636 0 -0.030321642939939306 0.0093354598366935885 0 -0.030140223251028858 0.01003370675704636 0 -0.029947685831172532 0.0095975027555073693 0 -0.026450862862201746 0.01375372441601078 0 -0.026878710038293036 0.013325153355920475 0 -0.026784726961775359 0.013572497962800752 0 -0.027010289163240511 0.013489821338796859 0 -0.026878710038293036 0.013325153355920475 0 -0.026784726961775359 0.013572497962800752 0 -0.030140223251028858 0.01003370675704636 0 -0.029674656828904345 0.0097523876161123534 0 -0.029947685831172532 0.0095975027555073693 0 -0.030140223251028858 0.01003370675704636 0 -0.029674656828904345 0.0097523876161123534 0 -0.02933080703259263 0.010173530053735506 0 -0.029674656828904345 0.0097523876161123534 0 -0.02933080703259263 0.010173530053735506 0 -0.029204093797610818 0.0096541698413399098 0 -0.029204093797610818 0.0096541698413399098 0 -0.029653020520546455 0.0092700920405416453 0 -0.029006382557867177 0.0091707493124992372 0 -0.029674656828904345 0.0097523876161123534 0 -0.029204093797610818 0.0096541698413399098 0 -0.029653020520546455 0.0092700920405416453 0 -0.029674656828904345 0.0097523876161123534 0 -0.029947685831172532 0.0095975027555073693 0 -0.029653020520546455 0.0092700920405416453 0 -0.030321642939939306 0.0093354598366935885 0 -0.029947685831172532 0.0095975027555073693 0 -0.029653020520546455 0.0092700920405416453 0 -0.030184809700087481 0.0089138669605627087 0 -0.029653020520546455 0.0092700920405416453 0 -0.029208039856839216 0.008539822869382126 0 -0.029873482583912148 0.008211588669397819 0 -0.030184809700087481 0.0089138669605627087 0 -0.029208039856839216 0.008539822869382126 0 -0.029653020520546455 0.0092700920405416453 0 -0.029208039856839216 0.008539822869382126 0 -0.029006382557867177 0.0091707493124992372 0 -0.028535258059194813 0.0081490294976073688 0 -0.028694205887711051 0.0087545027664234307 0 -0.028223200984076477 0.0086898284660457386 0 -0.028694205887711051 0.0087545027664234307 0 -0.028446044736360337 0.009183474441974631 0 -0.028223200984076477 0.0086898284660457386 0 -0.028535258059194813 0.0081490294976073688 0 -0.029208039856839216 0.008539822869382126 0 -0.028694205887711051 0.0087545027664234307 0 -0.029208039856839216 0.008539822869382126 0 -0.028694205887711051 0.0087545027664234307 0 -0.029006382557867177 0.0091707493124992372 0 -0.028694205887711051 0.0087545027664234307 0 -0.029006382557867177 0.0091707493124992372 0 -0.028446044736360337 0.009183474441974631 0 -0.029006382557867177 0.0091707493124992372 0 -0.028446044736360337 0.009183474441974631 0 -0.028698781401210679 0.0095814917964778812 0 -0.028446044736360337 0.009183474441974631 0 -0.028698781401210679 0.0095814917964778812 0 -0.02820684749991733 0.0095879832444383181 0 -0.028698781401210679 0.0095814917964778812 0 -0.028478319068020206 0.0098984482252594697 0 -0.02820684749991733 0.0095879832444383181 0 -0.029204093797610818 0.0096541698413399098 0 -0.029006382557867177 0.0091707493124992372 0 -0.028698781401210679 0.0095814917964778812 0 -0.02933080703259263 0.010173530053735506 0 -0.029204093797610818 0.0096541698413399098 0 -0.028857632193468642 0.010028122026334036 0 -0.029204093797610818 0.0096541698413399098 0 -0.028698781401210679 0.0095814917964778812 0 -0.028857632193468642 0.010028122026334036 0 -0.028463766489436111 0.01036278825247146 0 -0.028478319068020206 0.0098984482252594697 0 -0.028101202764440378 0.010060211630238456 0 -0.028463766489436111 0.01036278825247146 0 -0.028857632193468642 0.010028122026334036 0 -0.028478319068020206 0.0098984482252594697 0 -0.028698781401210679 0.0095814917964778812 0 -0.028857632193468642 0.010028122026334036 0 -0.028478319068020206 0.0098984482252594697 0 -0.028101202764440378 0.010060211630238456 0 -0.02820684749991733 0.0095879832444383181 0 -0.027787034229707196 0.0097738078638462383 0 -0.028478319068020206 0.0098984482252594697 0 -0.028101202764440378 0.010060211630238456 0 -0.02820684749991733 0.0095879832444383181 0 -0.02820684749991733 0.0095879832444383181 0 -0.027712148811838953 0.0094772847454889144 0 -0.027941784850653666 0.0091242681965482027 0 -0.027712148811838953 0.0094772847454889144 0 -0.027787034229707196 0.0097738078638462383 0 -0.027402490803662423 0.0096417315699954369 0 -0.02820684749991733 0.0095879832444383181 0 -0.027712148811838953 0.0094772847454889144 0 -0.027787034229707196 0.0097738078638462383 0 -0.027661602453203607 0.010097625683280551 0 -0.028101202764440378 0.010060211630238456 0 -0.027787034229707196 0.0097738078638462383 0 -0.027661602453203607 0.010097625683280551 0 -0.027787034229707196 0.0097738078638462383 0 -0.027402490803662423 0.0096417315699954369 0 -0.0270898010266311 0.0093126145865957879 0 -0.027347103753763112 0.0093776938006146157 0 -0.02744268561755922 0.0094468170274826409 0 -0.027167168555017419 0.010410742922505437 0 -0.027402490803662423 0.0096417315699954369 0 -0.0270898010266311 0.0093126145865957879 0 -0.027402490803662423 0.0096417315699954369 0 -0.0270898010266311 0.0093126145865957879 0 -0.027347103753763112 0.0093776938006146157 0 -0.027712148811838953 0.0094772847454889144 0 -0.027402490803662423 0.0096417315699954369 0 -0.027347103753763112 0.0093776938006146157 0 -0.027347103753763112 0.0093776938006146157 0 -0.02744268561755922 0.0094468170274826409 0 -0.027374860725687223 0.0093974889118323048 0 -0.02744268561755922 0.0094468170274826409 0 -0.027374860725687223 0.0093974889118323048 0 -0.027622145979833507 0.0096572570802346755 0 -0.027347103753763112 0.0093776938006146157 0 -0.027941784850653666 0.0091242681965482027 0 -0.027804386127306319 0.0083722417300577008 0 -0.027519981188828809 0.0090597530410700903 0 -0.02733955974344084 0.0095557508417902434 0 -0.027347103753763112 0.0093776938006146157 0 -0.027374860725687223 0.0093974889118323048 0 -0.027494326154458851 0.0092894992787052235 0 -0.028223200984076477 0.0086898284660457386 0 -0.027941784850653666 0.0091242681965482027 0 -0.027804386127306319 0.0083722417300577008 0 -0.028446044736360337 0.009183474441974631 0 -0.02820684749991733 0.0095879832444383181 0 -0.027941784850653666 0.0091242681965482027 0 -0.028446044736360337 0.009183474441974631 0 -0.028223200984076477 0.0086898284660457386 0 -0.027941784850653666 0.0091242681965482027 0 -0.027712148811838953 0.0094772847454889144 0 -0.027347103753763112 0.0093776938006146157 0 -0.027941784850653666 0.0091242681965482027 0 -0.029422577208632835 0.008239497679786361 0 -0.02898077296184948 0.0090425518787867875 0 -0.028439212899803716 0.0085008584040597267 0 -0.02898077296184948 0.0090425518787867875 0 -0.028439212899803716 0.0085008584040597267 0 -0.028066342578371262 0.0092284392935372307 0 -0.02898077296184948 0.0090425518787867875 0 -0.028066342578371262 0.0092284392935372307 0 -0.028211464574496678 0.0095385395985424556 0 -0.0270898010266311 0.0093126145865957879 0 -0.028439212899803716 0.0085008584040597267 0 -0.028066342578371262 0.0092284392935372307 0 -0.0270898010266311 0.0093126145865957879 0 -0.028066342578371262 0.0092284392935372307 0 -0.027726252673618355 0.009519528348015012 0 -0.0270898010266311 0.0093126145865957879 0 -0.02744268561755922 0.0094468170274826409 0 -0.027726252673618355 0.009519528348015012 0 -0.027726252673618355 0.009519528348015012 0 -0.028057669750902195 0.0097817769887992012 0 -0.027622145979833507 0.0096572570802346755 0 -0.02744268561755922 0.0094468170274826409 0 -0.027726252673618355 0.009519528348015012 0 -0.027622145979833507 0.0096572570802346755 0 -0.027726252673618355 0.009519528348015012 0 -0.028211464574496678 0.0095385395985424556 0 -0.028057669750902195 0.0097817769887992012 0 -0.028066342578371262 0.0092284392935372307 0 -0.027726252673618355 0.009519528348015012 0 -0.028211464574496678 0.0095385395985424556 0 -0.02898077296184948 0.0090425518787867875 0 -0.028211464574496678 0.0095385395985424556 0 -0.028538709660870555 0.0097149189265502717 0 -0.028953037656062584 0.008455904405954005 0 -0.028754483824671061 0.011616789498187121 0 -0.028211464574496678 0.0095385395985424556 0 -0.028538709660870555 0.0097149189265502717 0 -0.028057669750902195 0.0097817769887992012 0 -0.028538709660870555 0.0097149189265502717 0 -0.028057669750902195 0.0097817769887992012 0 -0.028471881912708361 0.010095815726591966 0 -0.028754483824671061 0.011616789498187121 0 -0.031423340214187565 0.0019605313595011217 0 -0.028057669750902195 0.0097817769887992012 0 -0.027793482508858477 0.010042969016982624 0 -0.028471881912708361 0.010095815726591966 0 -0.028057669750902195 0.0097817769887992012 0 -0.027793482508858477 0.010042969016982624 0 -0.027622145979833507 0.0096572570802346755 0 -0.033518694602872004 -0.0078328575773042256 0 -0.033828832857515687 -0.007695600193122697 0 -0.033532644532247621 -0.0076522859907654298 0 -0.033518694602872004 -0.0078328575773042256 0 -0.033345567156457069 -0.0076334226770161002 0 -0.033532644532247621 -0.0076522859907654298 0 -0.031423340214187565 0.0019605313595011217 0 -0.03427432443547871 -0.0088247526119950587 0 -0.033518694602872004 -0.0078328575773042256 0 -0.033846535283974688 -0.0077700132375717436 0 -0.033828832857515687 -0.007695600193122697 0 -0.030706188154021756 0.00076626009129064599 0 -0.031423340214187565 0.0019605313595011217 0 -0.02774124949242332 0.0088688160381791628 0 -0.027494326154458851 0.0092894992787052235 0 -0.027498881320807217 0.0088954585116225761 0 -0.026458121487735735 0.011920210708837165 0 -0.029563353173219689 0.0034013752803724912 0 -0.027374860725687223 0.0093974889118323048 0 -0.027494326154458851 0.0092894992787052235 0 -0.027498881320807217 0.0088954585116225761 0 -0.028535258059194813 0.0081490294976073688 0 -0.028362888797988522 0.0073760880516812637 0 -0.027804386127306319 0.0083722417300577008 0 -0.028045383812803221 0.0035143343835769662 0 -0.02733955974344084 0.0095557508417902434 0 -0.028535258059194813 0.0081490294976073688 0 -0.028223200984076477 0.0086898284660457386 0 -0.027804386127306319 0.0083722417300577008 0 -0.027374860725687223 0.0093974889118323048 0 -0.027470854340324469 0.0097908144839961783 0 -0.027175744903623286 0.0099711038998935124 0 -0.027374860725687223 0.0093974889118323048 0 -0.027622145979833507 0.0096572570802346755 0 -0.027470854340324469 0.0097908144839961783 0 -0.027793482508858477 0.010042969016982624 0 -0.027622145979833507 0.0096572570802346755 0 -0.027470854340324469 0.0097908144839961783 0 -0.027793482508858477 0.010042969016982624 0 -0.027470854340324469 0.0097908144839961783 0 -0.027175744903623286 0.0099711038998935124 0 -0.030706188154021756 0.00076626009129064599 0 -0.029563353173219689 0.0034013752803724912 0 -0.033518694602872004 -0.0078328575773042256 0 -0.033142113085940325 -0.0077056677912426125 0 -0.033345567156457069 -0.0076334226770161002 0 -0.033518694602872004 -0.0078328575773042256 0 -0.033142113085940325 -0.0077056677912426125 0 -0.032921735324529335 -0.0078178188821596932 0 -0.033142113085940325 -0.0077056677912426125 0 -0.033087694218525671 -0.0075438700516449464 0 -0.033345567156457069 -0.0076334226770161002 0 -0.033142113085940325 -0.0077056677912426125 0 -0.032863084654585997 -0.0076451335556646672 0 -0.033087694218525671 -0.0075438700516449464 0 -0.033142113085940325 -0.0077056677912426125 0 -0.032921735324529335 -0.0078178188821596932 0 -0.032863084654585997 -0.0076451335556646672 0 -0.028045383812803221 0.0035143343835769662 0 -0.029563353173219689 0.0034013752803724912 0 -0.029430004412438229 -0.00056814996003736362 0 -0.029449253140860381 -0.00059071032481891942 0 -0.029445127729301829 -0.00062471439261105419 0 -0.029462651584571637 -0.00057740336019531052 0 -0.029430004412438229 -0.00056814996003736362 0 -0.029449253140860381 -0.00059071032481891942 0 -0.029462651584571637 -0.00057740336019531052 0 -0.029468758418025483 -0.00059087540532797229 0 -0.029449253140860381 -0.00059071032481891942 0 -0.029468758418025483 -0.00059087540532797229 0 -0.029449253140860381 -0.00059071032481891942 0 -0.029445127729301829 -0.00062471439261105419 0 -0.028241855902185708 -0.0068037726740837242 0 -0.02866443068697629 -0.0065245798110863187 0 -0.028214286789995682 -0.0062110305694585508 0 -0.028751521109369464 -0.0021047020357664553 0 -0.030843045176689281 -0.0060523525375616796 0 -0.029563353173219689 0.0034013752803724912 0 -0.030843045176689281 -0.0060523525375616796 0 -0.032838157844172433 -0.0076971993093254707 0 -0.032948508356832301 -0.0073436147171721073 0 -0.032694192184801962 -0.0073048667812273737 0 -0.030843045176689281 -0.0060523525375616796 0 -0.030416168901420824 -0.0062391822205807752 0 -0.02866443068697629 -0.0065245798110863187 0 -0.028214286789995682 -0.0062110305694585508 0 -0.028365305104750094 -0.0056783249592235654 0 -0.032838157844172433 -0.0076971993093254707 0 -0.032948508356832301 -0.0073436147171721073 0 -0.033087694218525671 -0.0075438700516449464 0 -0.030843045176689281 -0.0060523525375616796 0 -0.032809986944985062 -0.0069683806689026257 0 -0.032948508356832301 -0.0073436147171721073 0 -0.033087694218525671 -0.0075438700516449464 0 -0.03344072390164822 -0.0073380737585241867 0 -0.033087694218525671 -0.0075438700516449464 0 -0.033345567156457069 -0.0076334226770161002 0 -0.03344072390164822 -0.0073380737585241867 0 -0.034016746895188708 -0.0083752392021405799 0 -0.033965287770579992 -0.0080165424519523625 0 -0.033924975081642376 -0.0083269594908968996 0 -0.032948508356832301 -0.0073436147171721073 0 -0.032997805639539662 -0.0071036000086790538 0 -0.03344072390164822 -0.0073380737585241867 0 -0.033701733517625204 -0.0077894411044039311 0 -0.033636895851995148 -0.0076634659938290359 0 -0.033701733517625204 -0.0077894411044039311 0 -0.031726516388766453 -0.0079920400631889339 0 -0.032997805639539662 -0.0071036000086790538 0 -0.032541918216989263 -0.006906649638099934 0 -0.032694192184801962 -0.0073048667812273737 0 -0.034016746895188708 -0.0083752392021405799 0 -0.033982367486954317 -0.0084992214189142396 0 -0.033684260798790423 -0.0086564482529286075 0 -0.032948508356832301 -0.0073436147171721073 0 -0.032997805639539662 -0.0071036000086790538 0 -0.032694192184801962 -0.0073048667812273737 0 -0.033846535283974688 -0.0077700132375717436 0 -0.033845700399237379 -0.0077478418833050308 0 -0.033828832857515687 -0.007695600193122697 0 -0.033845700399237379 -0.0077478418833050308 0 -0.033828832857515687 -0.007695600193122697 0 -0.033880608837604562 -0.0078006055347619209 0 -0.033828832857515687 -0.007695600193122697 0 -0.033880608837604562 -0.0078006055347619209 0 -0.033905970279700152 -0.0079377746799968972 0 -0.033828832857515687 -0.007695600193122697 0 -0.033532644532247621 -0.0076522859907654298 0 -0.03344072390164822 -0.0073380737585241867 0 -0.033828832857515687 -0.007695600193122697 0 -0.033965287770579992 -0.0080165424519523625 0 -0.033905970279700152 -0.0079377746799968972 0 -0.033809135872910373 -0.0076949431442908727 0 -0.033636895851995148 -0.0076634659938290359 0 -0.033345567156457069 -0.0076334226770161002 0 -0.033532644532247621 -0.0076522859907654298 0 -0.03344072390164822 -0.0073380737585241867 0 -0.033965287770579992 -0.0080165424519523625 0 -0.033905970279700152 -0.0079377746799968972 0 -0.033924975081642376 -0.0083269594908968996 0 -0.033905970279700152 -0.0079377746799968972 0 -0.034049254384309856 -0.0077297721139025621 0 -0.033945754943382346 -0.0081863297961813786 0 -0.03427432443547871 -0.0088247526119950587 0 -0.034058104721306229 -0.0069724435802739357 0 -0.033845700399237379 -0.0077478418833050308 0 -0.033880608837604562 -0.0078006055347619209 0 -0.034049254384309856 -0.0077297721139025621 0 -0.033880608837604562 -0.0078006055347619209 0 -0.033905970279700152 -0.0079377746799968972 0 -0.034049254384309856 -0.0077297721139025621 0 -0.033958726589112719 -0.0081458279849136624 0 -0.034049254384309856 -0.0077297721139025621 0 -0.033945754943382346 -0.0081863297961813786 0 -0.033945754943382346 -0.0081863297961813786 0 -0.033831269343354356 -0.0085495310008049854 0 -0.033924975081642376 -0.0083269594908968996 0 -0.033905970279700152 -0.0079377746799968972 0 -0.033945754943382346 -0.0081863297961813786 0 -0.033924975081642376 -0.0083269594908968996 0 -0.033739528911945003 -0.0093214133585583364 0 -0.033831269343354356 -0.0085495310008049854 0 -0.0338956848659933 -0.0087997737259899629 0 -0.034091812405766204 -0.0084580827276596552 0 -0.033958726589112719 -0.0081458279849136624 0 -0.033945754943382346 -0.0081863297961813786 0 -0.034091812405766204 -0.0084580827276596552 0 -0.033945754943382346 -0.0081863297961813786 0 -0.033831269343354356 -0.0085495310008049854 0 -0.033795201547420391 -0.0089440218454522255 0 -0.033856399457452203 -0.0085777733335757125 0 -0.033982367486954317 -0.0084992214189142396 0 -0.033607574653058192 -0.0082201601491599871 0 -0.033610503454739704 -0.0084936848587013544 0 -0.033982367486954317 -0.0084992214189142396 0 -0.033924975081642376 -0.0083269594908968996 0 -0.0338956848659933 -0.0087997737259899629 0 -0.034016746895188708 -0.0083752392021405799 0 -0.033982367486954317 -0.0084992214189142396 0 -0.033924975081642376 -0.0083269594908968996 0 -0.033831269343354356 -0.0085495310008049854 0 -0.033924975081642376 -0.0083269594908968996 0 -0.0338956848659933 -0.0087997737259899629 0 -0.03372803732467957 -0.0095176692968460107 0 -0.0338956848659933 -0.0087997737259899629 0 -0.03435246071283491 -0.0089223354771861985 0 -0.03399530385025825 -0.0085804872569426576 0 -0.034030346853824223 -0.0084168724988820543 0 -0.033982367486954317 -0.0084992214189142396 0 -0.0338956848659933 -0.0087997737259899629 0 -0.03435246071283491 -0.0089223354771861985 0 -0.032168564011765287 -0.0078072399898763151 0 -0.033607574653058192 -0.0082201601491599871 0 -0.033159901366679928 -0.0085058159642115629 0 -0.032228253772018538 -0.007724446239093111 0 -0.033192553196029657 -0.0098810422451853161 0 -0.033607574653058192 -0.0082201601491599871 0 -0.033159901366679928 -0.0085058159642115629 0 -0.033610503454739704 -0.0084936848587013544 0 -0.032168564011765287 -0.0078072399898763151 0 -0.032904550501759312 -0.010373434038286118 0 -0.031334901597861516 -0.0097562222988702013 0 -0.030710667867697876 -0.0084976321698912501 0 -0.031334901597861516 -0.0097562222988702013 0 -0.029934813560191439 -0.0094141060806046985 0 -0.032168564011765287 -0.0078072399898763151 0 -0.030710667867697876 -0.0084976321698912501 0 -0.031334901597861516 -0.0097562222988702013 0 -0.032904550501759312 -0.010373434038286118 0 -0.031334901597861516 -0.0097562222988702013 0 -0.032072681158744093 -0.01093193017354478 0 -0.031334901597861516 -0.0097562222988702013 0 -0.030882291689768953 -0.010593140061219737 0 -0.032072681158744093 -0.01093193017354478 0 -0.031334901597861516 -0.0097562222988702013 0 -0.030271407584668918 -0.010098805153157977 0 -0.029934813560191439 -0.0094141060806046985 0 -0.031334901597861516 -0.0097562222988702013 0 -0.030882291689768953 -0.010593140061219737 0 -0.030271407584668918 -0.010098805153157977 0 -0.031389584894658068 -0.011649117326645995 0 -0.032072681158744093 -0.01093193017354478 0 -0.033653689951181842 -0.012614264554123981 0 -0.027069970855586149 -0.0043700160200552699 0 -0.027382751495676105 -0.0047395751707678419 0 -0.028040956220379911 -0.0047507589681879438 0 -0.027069970855586149 -0.0043700160200552699 0 -0.026847028629281112 -0.0047021798347734942 0 -0.026336122364080013 -0.0041157894152237789 0 -0.030882291689768953 -0.010593140061219737 0 -0.031389584894658068 -0.011649117326645995 0 -0.029322908126525618 -0.010526071028738303 0 -0.030882291689768953 -0.010593140061219737 0 -0.031389584894658068 -0.011649117326645995 0 -0.032072681158744093 -0.01093193017354478 0 -0.027069970855586149 -0.0043700160200552699 0 -0.027382751495676105 -0.0047395751707678419 0 -0.026847028629281112 -0.0047021798347734942 0 -0.033192553196029657 -0.0098810422451853161 0 -0.031726516388766453 -0.0079920400631889339 0 -0.032904550501759312 -0.010373434038286118 0 -0.032072681158744093 -0.01093193017354478 0 -0.033653689951181842 -0.012614264554123981 0 -0.033159901366679928 -0.0085058159642115629 0 -0.033610503454739704 -0.0084936848587013544 0 -0.033684260798790423 -0.0086564482529286075 0 -0.029124567882168224 -0.0079758205514176301 0 -0.031726516388766453 -0.0079920400631889339 0 -0.033982367486954317 -0.0084992214189142396 0 -0.033610503454739704 -0.0084936848587013544 0 -0.033684260798790423 -0.0086564482529286075 0 -0.028040956220379911 -0.0047507589681879438 0 -0.027581654265100786 -0.0051390343231626952 0 -0.028365305104750094 -0.0056783249592235654 0 -0.031726516388766453 -0.0079920400631889339 0 -0.030416168901420824 -0.0062391822205807752 0 -0.027581654265100786 -0.0051390343231626952 0 -0.028365305104750094 -0.0056783249592235654 0 -0.027577946693541425 -0.0058282962904150793 0 -0.027382751495676105 -0.0047395751707678419 0 -0.028040956220379911 -0.0047507589681879438 0 -0.027581654265100786 -0.0051390343231626952 0 -0.026847028629281112 -0.0047021798347734942 0 -0.027581654265100786 -0.0051390343231626952 0 -0.027577946693541425 -0.0058282962904150793 0 -0.026847028629281112 -0.0047021798347734942 0 -0.0273152658557347 -0.0055182190929214253 0 -0.026622910812814263 -0.0050332093371153628 0 -0.026769708094870701 -0.0044677400412326037 0 -0.02759459657743487 -0.0064579910484136886 0 -0.027382751495676105 -0.0047395751707678419 0 -0.026847028629281112 -0.0047021798347734942 0 -0.027581654265100786 -0.0051390343231626952 0 -0.026706914223970771 -0.0056498260930748761 0 -0.0273152658557347 -0.0055182190929214253 0 -0.026622910812814263 -0.0050332093371153628 0 -0.027242362950516009 -0.0060899269195840468 0 -0.026706914223970771 -0.0056498260930748761 0 -0.0273152658557347 -0.0055182190929214253 0 -0.028241855902185708 -0.0068037726740837242 0 -0.028214286789995682 -0.0062110305694585508 0 -0.027577946693541425 -0.0058282962904150793 0 -0.028751521109369464 -0.0021047020357664553 0 -0.02759459657743487 -0.0064579910484136886 0 -0.028214286789995682 -0.0062110305694585508 0 -0.028365305104750094 -0.0056783249592235654 0 -0.027577946693541425 -0.0058282962904150793 0 -0.025453938300465686 -0.0053780436469429687 0 -0.025995476924330397 -0.0058772542784343079 0 -0.024963823927003876 -0.0061104580954853905 0 -0.025453938300465686 -0.0053780436469429687 0 -0.025995476924330397 -0.0058772542784343079 0 -0.026119868245812319 -0.0053714800480436312 0 -0.026654147204276883 -0.0065055834610015517 0 -0.026706914223970771 -0.0056498260930748761 0 -0.025995476924330397 -0.0058772542784343079 0 -0.026706914223970771 -0.0056498260930748761 0 -0.026119868245812319 -0.0053714800480436312 0 -0.026622910812814263 -0.0050332093371153628 0 -0.026706914223970771 -0.0056498260930748761 0 -0.025995476924330397 -0.0058772542784343079 0 -0.026119868245812319 -0.0053714800480436312 0 -0.026622910812814263 -0.0050332093371153628 0 -0.025769555575297247 -0.0048818188246578164 0 -0.025511599020086487 -0.0040372864937580893 0 -0.026119868245812319 -0.0053714800480436312 0 -0.026622910812814263 -0.0050332093371153628 0 -0.025769555575297247 -0.0048818188246578164 0 -0.025453938300465686 -0.0053780436469429687 0 -0.026119868245812319 -0.0053714800480436312 0 -0.025769555575297247 -0.0048818188246578164 0 -0.025453938300465686 -0.0053780436469429687 0 -0.025769555575297247 -0.0048818188246578164 0 -0.025128723605579217 -0.0047947361683472684 0 -0.025769555575297247 -0.0048818188246578164 0 -0.025128723605579217 -0.0047947361683472684 0 -0.025511599020086487 -0.0040372864937580893 0 -0.024457009020848401 -0.0056113320366988411 0 -0.027459430035998204 -0.0080607267726734069 0 -0.031389584894658068 -0.011649117326645995 0 -0.029322908126525618 -0.010526071028738303 0 -0.02895607527707374 -0.010664375980242488 0 -0.026901101854528459 -0.0046014683896141353 0 -0.024457009020848401 -0.0056113320366988411 0 -0.026847028629281112 -0.0047021798347734942 0 -0.026622910812814263 -0.0050332093371153628 0 -0.026336122364080013 -0.0041157894152237789 0 -0.026622910812814263 -0.0050332093371153628 0 -0.025792813376989895 -0.0043206653494860065 0 -0.026336122364080013 -0.0041157894152237789 0 -0.029124567882168224 -0.0079758205514176301 0 -0.027459430035998204 -0.0080607267726734069 0 -0.02966330706970784 -0.009978313665334148 0 -0.028773578132989201 -0.0095495223792328669 0 -0.029934813560191439 -0.0094141060806046985 0 -0.030882291689768953 -0.010593140061219737 0 -0.030271407584668918 -0.010098805153157977 0 -0.029322908126525618 -0.010526071028738303 0 -0.030271407584668918 -0.010098805153157977 0 -0.02966330706970784 -0.009978313665334148 0 -0.029934813560191439 -0.0094141060806046985 0 -0.030271407584668918 -0.010098805153157977 0 -0.029322908126525618 -0.010526071028738303 0 -0.02966330706970784 -0.009978313665334148 0 -0.027713270926001038 -0.0081945298652933585 0 -0.027459430035998204 -0.0080607267726734069 0 -0.029322908126525618 -0.010526071028738303 0 -0.02966330706970784 -0.009978313665334148 0 -0.028773578132989201 -0.0095495223792328669 0 -0.029322908126525618 -0.010526071028738303 0 -0.028947582514575049 -0.010674533749826595 0 -0.028773578132989201 -0.0095495223792328669 0 -0.029521492169734851 -0.0084087473550345411 0 -0.028101461314322042 -0.0083716153729607445 0 -0.028773578132989201 -0.0095495223792328669 0 -0.029521492169734851 -0.0084087473550345411 0 -0.028773578132989201 -0.0095495223792328669 0 -0.029934813560191439 -0.0094141060806046985 0 -0.029521492169734851 -0.0084087473550345411 0 -0.030710667867697876 -0.0084976321698912501 0 -0.029934813560191439 -0.0094141060806046985 0 -0.025098810109188987 -0.0081541391592887726 0 -0.026253705601026859 -0.0077351725538656489 0 -0.024524569416896853 -0.0069685024821233973 0 -0.028101461314322042 -0.0083716153729607445 0 -0.028773578132989201 -0.0095495223792328669 0 -0.025918085001578998 -0.0094224918796079402 0 -0.028947582514575049 -0.010674533749826595 0 -0.028773578132989201 -0.0095495223792328669 0 -0.025918085001578998 -0.0094224918796079402 0 -0.027459430035998204 -0.0080607267726734069 0 -0.025392758650679578 -0.0083481045876185357 0 -0.024457009020848401 -0.0056113320366988411 0 -0.022261339773209855 -0.0066456721735666906 0 -0.025098810109188987 -0.0081541391592887726 0 -0.024524569416896853 -0.0069685024821233973 0 -0.023952131969726457 -0.0071794684007200496 0 -0.022809206206020626 -0.0062266317782650096 0 -0.024524569416896853 -0.0069685024821233973 0 -0.023952131969726457 -0.0071794684007200496 0 -0.022546673426912477 -0.0070801448038451198 0 -0.025392758650679578 -0.0083481045876185357 0 -0.022546673426912477 -0.0070801448038451198 0 -0.022261339773209855 -0.0066456721735666906 0 -0.021213944591284558 -0.0066589531687278819 0 -0.020911391359005573 -0.0062787426260648635 0 -0.021324120304663029 -0.0061809219385671049 0 -0.021213944591284558 -0.0066589531687278819 0 -0.021528320517255391 -0.0064395563508210206 0 -0.021324120304663029 -0.0061809219385671049 0 -0.021528320517255391 -0.0064395563508210206 0 -0.021324120304663029 -0.0061809219385671049 0 -0.021713359650140398 -0.0062302198928818426 0 -0.021324120304663029 -0.0061809219385671049 0 -0.021713359650140398 -0.0062302198928818426 0 -0.021534373514273033 -0.0058616865717141123 0 -0.021135091751255455 -0.0057589293102865971 0 -0.021534373514273033 -0.0058616865717141123 0 -0.021700623735632002 -0.00553504978038358 0 -0.021324120304663029 -0.0061809219385671049 0 -0.021135091751255455 -0.0057589293102865971 0 -0.021534373514273033 -0.0058616865717141123 0 -0.024457009020848401 -0.0056113320366988411 0 -0.022491061812345205 -0.0050917417919613414 0 -0.020911391359005573 -0.0062787426260648635 0 -0.021324120304663029 -0.0061809219385671049 0 -0.021135091751255455 -0.0057589293102865971 0 -0.020620972686115593 -0.0059820221353566851 0 -0.020911391359005573 -0.0062787426260648635 0 -0.021135091751255455 -0.0057589293102865971 0 -0.025128723605579217 -0.0047947361683472684 0 -0.025511599020086487 -0.0040372864937580893 0 -0.024352740771731676 -0.0044585691161927359 0 -0.022036977868119478 -0.0066310917815846715 0 -0.021918232275714315 -0.0060417436144567637 0 -0.022366479338822801 -0.0062862262097803379 0 -0.022036977868119478 -0.0066310917815846715 0 -0.021713359650140398 -0.0062302198928818426 0 -0.021918232275714315 -0.0060417436144567637 0 -0.02184080183791591 -0.0066438347365081465 0 -0.022036977868119478 -0.0066310917815846715 0 -0.021713359650140398 -0.0062302198928818426 0 -0.02184080183791591 -0.0066438347365081465 0 -0.021528320517255391 -0.0064395563508210206 0 -0.021713359650140398 -0.0062302198928818426 0 -0.021713359650140398 -0.0062302198928818426 0 -0.021534373514273033 -0.0058616865717141123 0 -0.021760808589755806 -0.0059304720428499077 0 -0.021534373514273033 -0.0058616865717141123 0 -0.021718184084518651 -0.0057349886110403996 0 -0.021700623735632002 -0.00553504978038358 0 -0.021534373514273033 -0.0058616865717141123 0 -0.021718184084518651 -0.0057349886110403996 0 -0.021760808589755806 -0.0059304720428499077 0 -0.021718184084518651 -0.0057349886110403996 0 -0.02183670442939091 -0.0057301097778727208 0 -0.02177908456324814 -0.0056322734985624805 0 -0.021718184084518651 -0.0057349886110403996 0 -0.021760808589755806 -0.0059304720428499077 0 -0.02183670442939091 -0.0057301097778727208 0 -0.021760808589755806 -0.0059304720428499077 0 -0.021918232275714315 -0.0060417436144567637 0 -0.02183670442939091 -0.0057301097778727208 0 -0.021713359650140398 -0.0062302198928818426 0 -0.021760808589755806 -0.0059304720428499077 0 -0.021918232275714315 -0.0060417436144567637 0 -0.021936416809082471 -0.0057447414948696152 0 -0.021896498538731698 -0.0053940023318038433 0 -0.022366479338822801 -0.0062862262097803379 0 -0.021918232275714315 -0.0060417436144567637 0 -0.021936416809082471 -0.0057447414948696152 0 -0.022366479338822801 -0.0062862262097803379 0 -0.021918232275714315 -0.0060417436144567637 0 -0.02183670442939091 -0.0057301097778727208 0 -0.021936416809082471 -0.0057447414948696152 0 -0.02183670442939091 -0.0057301097778727208 0 -0.021936416809082471 -0.0057447414948696152 0 -0.021850746433916449 -0.0055428960557464659 0 -0.021899136430607646 -0.0055424199616775352 0 -0.021850746433916449 -0.0055428960557464659 0 -0.021700623735632002 -0.00553504978038358 0 -0.021912571218211288 -0.0055090629700675258 0 -0.022464937428318631 -0.0052424603802043133 0 -0.021899136430607646 -0.0055424199616775352 0 -0.022652985013571332 -0.0052588827240018805 0 -0.023139546081686262 -0.0049332345561897565 0 -0.021899136430607646 -0.0055424199616775352 0 -0.021850746433916449 -0.0055428960557464659 0 -0.021896498538731698 -0.0053940023318038433 0 -0.021936416809082471 -0.0057447414948696152 0 -0.021850746433916449 -0.0055428960557464659 0 -0.021896498538731698 -0.0053940023318038433 0 -0.02183670442939091 -0.0057301097778727208 0 -0.021850746433916449 -0.0055428960557464659 0 -0.02177908456324814 -0.0056322734985624805 0 -0.022652985013571332 -0.0052588827240018805 0 -0.023139546081686262 -0.0049332345561897565 0 -0.023510433537056893 -0.0059224555555913968 0 -0.021850746433916449 -0.0055428960557464659 0 -0.02177908456324814 -0.0056322734985624805 0 -0.021700623735632002 -0.00553504978038358 0 -0.021718184084518651 -0.0057349886110403996 0 -0.02177908456324814 -0.0056322734985624805 0 -0.021700623735632002 -0.00553504978038358 0 -0.022652985013571332 -0.0052588827240018805 0 -0.023269626761695372 -0.0059869828534559787 0 -0.022233102526271659 -0.0060705198044591884 0 -0.02242330113402892 -0.00489911202222969 0 -0.023868082162025937 -0.0071992298716820292 0 -0.021899136430607646 -0.0055424199616775352 0 -0.022652985013571332 -0.0052588827240018805 0 -0.022233102526271659 -0.0060705198044591884 0 -0.021899136430607646 -0.0055424199616775352 0 -0.022233102526271659 -0.0060705198044591884 0 -0.021440167078204463 -0.0060050502859070216 0 -0.025453938300465686 -0.0053780436469429687 0 -0.025128723605579217 -0.0047947361683472684 0 -0.024510090444281003 -0.0054861358239123061 0 -0.025128723605579217 -0.0047947361683472684 0 -0.024352740771731676 -0.0044585691161927359 0 -0.024510090444281003 -0.0054861358239123061 0 -0.022491061812345205 -0.0050917417919613414 0 -0.022464937428318631 -0.0052424603802043133 0 -0.024352740771731676 -0.0044585691161927359 0 -0.02387706960992422 -0.0052057352734238551 0 -0.024510090444281003 -0.0054861358239123061 0 -0.024352740771731676 -0.0044585691161927359 0 -0.023139546081686262 -0.0049332345561897565 0 -0.02387706960992422 -0.0052057352734238551 0 -0.023139546081686262 -0.0049332345561897565 0 -0.023510433537056893 -0.0059224555555913968 0 -0.02387706960992422 -0.0052057352734238551 0 -0.023510433537056893 -0.0059224555555913968 0 -0.024510090444281003 -0.0054861358239123061 0 -0.024331457525723285 -0.006488890535050253 0 -0.023510433537056893 -0.0059224555555913968 0 -0.02387706960992422 -0.0052057352734238551 0 -0.024510090444281003 -0.0054861358239123061 0 -0.024510090444281003 -0.0054861358239123061 0 -0.024963823927003876 -0.0061104580954853905 0 -0.024331457525723285 -0.006488890535050253 0 -0.025453938300465686 -0.0053780436469429687 0 -0.024510090444281003 -0.0054861358239123061 0 -0.024963823927003876 -0.0061104580954853905 0 -0.025514672216918555 -0.006572805338009107 0 -0.024963823927003876 -0.0061104580954853905 0 -0.024311514267506815 -0.0065830090119402577 0 -0.026675288872377412 -0.0015473959038069347 0 -0.025300860732278628 0.0028455186918276659 0 -0.024963823927003876 -0.0061104580954853905 0 -0.024331457525723285 -0.006488890535050253 0 -0.024311514267506815 -0.0065830090119402577 0 -0.027429798348284139 0.0041951238844356656 0 -0.027594851628387269 0.0044730348499612722 0 -0.027794274608594374 0.0041957111278105915 0 -0.027491902380600484 0.011594553140483884 0 -0.028270520868652935 0.010614395798006418 0 -0.028544143518628426 0.012165586978861576 0 -0.027481798593989991 0.0083684629613222511 0 -0.025300860732278628 0.0028455186918276659 0 -0.022737646425465913 0.012035772062483109 0 -0.022360587708886586 0.01161204114603454 0 -0.022533295019611238 0.012541185605253732 0 -0.025300860732278628 0.0028455186918276659 0 -0.02570624063477242 0.01411760846836279 0 -0.025300860732278628 0.0028455186918276659 0 -0.022492377083269691 0.0024622449510744195 0 -0.023269626761695372 -0.0059869828534559787 0 -0.023921027361593607 -0.0065376038302727086 0 -0.022698304308067376 -0.0066607897385737328 0 -0.023510433537056893 -0.0059224555555913968 0 -0.024331457525723285 -0.006488890535050253 0 -0.02431494507384133 -0.0065769287276348483 0 -0.022737646425465913 0.012035772062483109 0 -0.022360587708886586 0.01161204114603454 0 -0.023261058297587917 0.011676734467899089 0 -0.025042703224923892 0.0014099820786998105 0 -0.025300860732278628 0.0028455186918276659 0 -0.023868082162025937 -0.0071992298716820292 0 -0.025300860732278628 0.0028455186918276659 0 -0.023269626761695372 -0.0059869828534559787 0 -0.022233102526271659 -0.0060705198044591884 0 -0.022698304308067376 -0.0066607897385737328 0 -0.022492377083269691 0.0024622449510744195 0 -0.022728799689633809 0.002526106310244284 0 -0.022233102526271659 -0.0060705198044591884 0 -0.022698304308067376 -0.0066607897385737328 0 -0.021405727678420285 -0.0067666525750435368 0 -0.023261058297587917 0.011676734467899089 0 -0.023810880560021248 0.012257841753187889 0 -0.024038609382139177 0.011708597260128425 0 -0.023261058297587917 0.011676734467899089 0 -0.023302715050977051 0.012530032353686674 0 -0.023810880560021248 0.012257841753187889 0 -0.022737646425465913 0.012035772062483109 0 -0.023302715050977051 0.012530032353686674 0 -0.022533295019611238 0.012541185605253732 0 -0.022737646425465913 0.012035772062483109 0 -0.023261058297587917 0.011676734467899089 0 -0.023302715050977051 0.012530032353686674 0 -0.023302715050977051 0.012530032353686674 0 -0.023170016380451491 0.01308215912902605 0 -0.022533295019611238 0.012541185605253732 0 -0.023302715050977051 0.012530032353686674 0 -0.023732645554742381 0.013305784852873094 0 -0.023810880560021248 0.012257841753187889 0 -0.023732645554742381 0.013305784852873094 0 -0.023170016380451491 0.01308215912902605 0 -0.023352318958471056 0.013671644517456295 0 -0.023302715050977051 0.012530032353686674 0 -0.023732645554742381 0.013305784852873094 0 -0.023170016380451491 0.01308215912902605 0 -0.023170016380451491 0.01308215912902605 0 -0.022758852511230353 0.013403402779425569 0 -0.023352318958471056 0.013671644517456295 0 -0.023170016380451491 0.01308215912902605 0 -0.022758852511230353 0.013403402779425569 0 -0.022533295019611238 0.012541185605253732 0 -0.025742506613075932 0.013057591439492609 0 -0.02570624063477242 0.01411760846836279 0 -0.028642871368828596 0.01338822871319776 0 -0.027985591221388193 0.013193999985988728 0 -0.028544143518628426 0.012165586978861576 0 -0.027985591221388193 0.013193999985988728 0 -0.027485866188543571 0.012954017983449711 0 -0.027800349811835549 0.012359614399641646 0 -0.027416928738049406 0.013417327607124304 0 -0.027985591221388193 0.013193999985988728 0 -0.027485866188543571 0.012954017983449711 0 -0.027416928738049406 0.013417327607124304 0 -0.027985591221388193 0.013193999985988728 0 -0.027741940232480618 0.013801690722414536 0 -0.027491902380600484 0.011594553140483884 0 -0.027800349811835549 0.012359614399641646 0 -0.028544143518628426 0.012165586978861576 0 -0.027985591221388193 0.013193999985988728 0 -0.027800349811835549 0.012359614399641646 0 -0.028544143518628426 0.012165586978861576 0 -0.025217293532173526 0.012474047025292272 0 -0.024803011898890403 0.013288793830544675 0 -0.024313845093532998 0.012594588210680385 0 -0.023195283642367635 0.017164614402964781 0 -0.023588078145818189 0.014389784773781255 0 -0.021206422696962896 0.017938695795490161 0 -0.022216234500975193 0.016277793368101975 0 -0.020531728528352406 0.015791320039933068 0 -0.024803011898890403 0.013288793830544675 0 -0.024313845093532998 0.012594588210680385 0 -0.024213242537986398 0.013466618783832667 0 -0.023732645554742381 0.013305784852873094 0 -0.024313845093532998 0.012594588210680385 0 -0.024213242537986398 0.013466618783832667 0 -0.023732645554742381 0.013305784852873094 0 -0.024313845093532998 0.012594588210680385 0 -0.023810880560021248 0.012257841753187889 0 -0.024313845093532998 0.012594588210680385 0 -0.024038609382139177 0.011708597260128425 0 -0.024813923978830383 0.011686907826259871 0 -0.024313845093532998 0.012594588210680385 0 -0.023810880560021248 0.012257841753187889 0 -0.024038609382139177 0.011708597260128425 0 -0.022728799689633809 0.002526106310244284 0 -0.022863491725147109 0.0020487538622969747 0 -0.021405727678420285 -0.0067666525750435368 0 -0.020073072178806394 -0.0068091329662109661 0 -0.020771733286807606 -0.0062177021112583431 0 -0.025217293532173526 0.012474047025292272 0 -0.024313845093532998 0.012594588210680385 0 -0.024813923978830383 0.011686907826259871 0 -0.023195283642367635 0.017164614402964781 0 -0.020228679709873677 0.0054944774271871635 0 -0.025217293532173526 0.012474047025292272 0 -0.024813923978830383 0.011686907826259871 0 -0.025601224554394727 0.011642623119033451 0 -0.022863491725147109 0.0020487538622969747 0 -0.020228679709873677 0.0054944774271871635 0 -0.020073072178806394 -0.0068091329662109661 0 -0.019267356029420875 -0.0059374946170993514 0 -0.01874753865714331 -0.0067653952257460915 0 -0.020073072178806394 -0.0068091329662109661 0 -0.020133242530921372 -0.0059568779552487093 0 -0.020771733286807606 -0.0062177021112583431 0 -0.020073072178806394 -0.0068091329662109661 0 -0.019267356029420875 -0.0059374946170993514 0 -0.020133242530921372 -0.0059568779552487093 0 -0.020133242530921372 -0.0059568779552487093 0 -0.019806817465131132 -0.0051275813077498499 0 -0.02079999354944382 -0.005588677363282564 0 -0.019267356029420875 -0.0059374946170993514 0 -0.020133242530921372 -0.0059568779552487093 0 -0.019806817465131132 -0.0051275813077498499 0 -0.019267356029420875 -0.0059374946170993514 0 -0.019806817465131132 -0.0051275813077498499 0 -0.018716025547479007 -0.0052129558487776194 0 -0.022233102526271659 -0.0060705198044591884 0 -0.021405727678420285 -0.0067666525750435368 0 -0.021440167078204463 -0.0060050502859070216 0 -0.021405727678420285 -0.0067666525750435368 0 -0.021440167078204463 -0.0060050502859070216 0 -0.020771733286807606 -0.0062177021112583431 0 -0.021899136430607646 -0.0055424199616775352 0 -0.021440167078204463 -0.0060050502859070216 0 -0.021491588588323098 -0.0055504832541234429 0 -0.021440167078204463 -0.0060050502859070216 0 -0.02079999354944382 -0.005588677363282564 0 -0.021491588588323098 -0.0055504832541234429 0 -0.020133242530921372 -0.0059568779552487093 0 -0.020771733286807606 -0.0062177021112583431 0 -0.02079999354944382 -0.005588677363282564 0 -0.021440167078204463 -0.0060050502859070216 0 -0.020771733286807606 -0.0062177021112583431 0 -0.02079999354944382 -0.005588677363282564 0 -0.02079999354944382 -0.005588677363282564 0 -0.021250034407248871 -0.0051479426939790235 0 -0.020739527303293346 -0.0047616021710919281 0 -0.019806817465131132 -0.0051275813077498499 0 -0.02079999354944382 -0.005588677363282564 0 -0.020739527303293346 -0.0047616021710919281 0 -0.02079999354944382 -0.005588677363282564 0 -0.021491588588323098 -0.0055504832541234429 0 -0.021250034407248871 -0.0051479426939790235 0 -0.021491588588323098 -0.0055504832541234429 0 -0.021250034407248871 -0.0051479426939790235 0 -0.021896498538731698 -0.0053940023318038433 0 -0.021899136430607646 -0.0055424199616775352 0 -0.021491588588323098 -0.0055504832541234429 0 -0.021896498538731698 -0.0053940023318038433 0 -0.021927698250764859 -0.0053937699184743674 0 -0.021995392071409697 -0.0052352448795194607 0 -0.021250034407248871 -0.0051479426939790235 0 -0.020739527303293346 -0.0047616021710919281 0 -0.021669731857686534 -0.0040555353764017248 0 -0.021250034407248871 -0.0051479426939790235 0 -0.021896498538731698 -0.0053940023318038433 0 -0.021669731857686534 -0.0040555353764017248 0 -0.020739527303293346 -0.0047616021710919281 0 -0.020811495107986126 -0.0039977943206407317 0 -0.020057516555145042 -0.0044631365785806681 0 -0.020090020247084447 -0.0035192085606616462 0 -0.020811495107986126 -0.0039977943206407317 0 -0.020057516555145042 -0.0044631365785806681 0 -0.020739527303293346 -0.0047616021710919281 0 -0.020811495107986126 -0.0039977943206407317 0 -0.021669731857686534 -0.0040555353764017248 0 -0.020840180072288925 -0.0032502361735925809 0 -0.020811495107986126 -0.0039977943206407317 0 -0.021669731857686534 -0.0040555353764017248 0 -0.019114857961155054 -0.0027867688240826921 0 -0.019093910910223454 -0.0043484151263222474 0 -0.018023682752772718 -0.0040696404273839106 0 -0.019806817465131132 -0.0051275813077498499 0 -0.019093910910223454 -0.0043484151263222474 0 -0.018716025547479007 -0.0052129558487776194 0 -0.019806817465131132 -0.0051275813077498499 0 -0.020057516555145042 -0.0044631365785806681 0 -0.019093910910223454 -0.0043484151263222474 0 -0.019806817465131132 -0.0051275813077498499 0 -0.020739527303293346 -0.0047616021710919281 0 -0.020057516555145042 -0.0044631365785806681 0 -0.020090020247084447 -0.0035192085606616462 0 -0.020057516555145042 -0.0044631365785806681 0 -0.019093910910223454 -0.0043484151263222474 0 -0.019093910910223454 -0.0043484151263222474 0 -0.018023682752772718 -0.0040696404273839106 0 -0.018174681801825607 -0.004676627236318281 0 -0.017310447071917506 -0.0041126698731916954 0 -0.018023682752772718 -0.0040696404273839106 0 -0.01756460758075928 -0.0045582420899038939 0 -0.019093910910223454 -0.0043484151263222474 0 -0.018174681801825607 -0.004676627236318281 0 -0.018716025547479007 -0.0052129558487776194 0 -0.01756460758075928 -0.0045582420899038939 0 -0.017362788887878688 -0.0049074457854917349 0 -0.017760466125151211 -0.0051952538499271039 0 -0.018174681801825607 -0.004676627236318281 0 -0.01756460758075928 -0.0045582420899038939 0 -0.017760466125151211 -0.0051952538499271039 0 -0.018023682752772718 -0.0040696404273839106 0 -0.018174681801825607 -0.004676627236318281 0 -0.01756460758075928 -0.0045582420899038939 0 -0.017310447071917506 -0.0041126698731916954 0 -0.01756460758075928 -0.0045582420899038939 0 -0.017050962395130452 -0.0046043336441399388 0 -0.017310447071917506 -0.0041126698731916954 0 -0.016884352245645572 -0.0043313621223270453 0 -0.017050962395130452 -0.0046043336441399388 0 -0.016884352245645572 -0.0043313621223270453 0 -0.017050962395130452 -0.0046043336441399388 0 -0.016553367442607093 -0.004532324683530679 0 -0.016636655625868857 -0.0048418516470605157 0 -0.017050962395130452 -0.0046043336441399388 0 -0.016553367442607093 -0.004532324683530679 0 -0.016636655625868857 -0.0048418516470605157 0 -0.017050962395130452 -0.0046043336441399388 0 -0.01704383848125891 -0.0051327872424661511 0 -0.01756460758075928 -0.0045582420899038939 0 -0.017050962395130452 -0.0046043336441399388 0 -0.017362788887878688 -0.0049074457854917349 0 -0.017050962395130452 -0.0046043336441399388 0 -0.017362788887878688 -0.0049074457854917349 0 -0.01704383848125891 -0.0051327872424661511 0 -0.017362788887878688 -0.0049074457854917349 0 -0.01704383848125891 -0.0051327872424661511 0 -0.017520022081122858 -0.0054356584487611328 0 -0.016636655625868857 -0.0048418516470605157 0 -0.01704383848125891 -0.0051327872424661511 0 -0.016187280765877162 -0.0053033430380477961 0 -0.017094640538807448 -0.0056180726927023521 0 -0.016187280765877162 -0.0053033430380477961 0 -0.016725775042626484 -0.0062377614867395901 0 -0.01704383848125891 -0.0051327872424661511 0 -0.017094640538807448 -0.0056180726927023521 0 -0.016187280765877162 -0.0053033430380477961 0 -0.017094640538807448 -0.0056180726927023521 0 -0.017520022081122858 -0.0054356584487611328 0 -0.017598123150203499 -0.005850227333270782 0 -0.01704383848125891 -0.0051327872424661511 0 -0.017094640538807448 -0.0056180726927023521 0 -0.017520022081122858 -0.0054356584487611328 0 -0.017520022081122858 -0.0054356584487611328 0 -0.017948893992326329 -0.0054867029021180994 0 -0.017760466125151211 -0.0051952538499271039 0 -0.018763415631629241 -0.0074431363617074248 0 -0.017474821955141273 -0.0046730533408251788 0 -0.017520022081122858 -0.0054356584487611328 0 -0.017948893992326329 -0.0054867029021180994 0 -0.017598123150203499 -0.005850227333270782 0 -0.019267356029420875 -0.0059374946170993514 0 -0.018253208523199258 -0.0060346663259500362 0 -0.01874753865714331 -0.0067653952257460915 0 -0.019267356029420875 -0.0059374946170993514 0 -0.018253208523199258 -0.0060346663259500362 0 -0.018716025547479007 -0.0052129558487776194 0 -0.018174681801825607 -0.004676627236318281 0 -0.018716025547479007 -0.0052129558487776194 0 -0.017760466125151211 -0.0051952538499271039 0 -0.018253208523199258 -0.0060346663259500362 0 -0.018716025547479007 -0.0052129558487776194 0 -0.017760466125151211 -0.0051952538499271039 0 -0.017362788887878688 -0.0049074457854917349 0 -0.017520022081122858 -0.0054356584487611328 0 -0.017760466125151211 -0.0051952538499271039 0 -0.0078775790512833274 -0.0063205151377592377 0 -0.0080045489863303666 -0.006347794706689054 0 -0.0079895577797932348 -0.0060608788599432247 0 -0.0078775790512833274 -0.0063205151377592377 0 -0.0077010633819218199 -0.0063256772902606203 0 -0.0079895577797932348 -0.0060608788599432247 0 -0.0080056392496644681 -0.0065618430328595184 0 -0.0080045489863303666 -0.006347794706689054 0 -0.0078815796555466409 -0.0064889167621593347 0 -0.0078291316046716353 -0.00666100824628044 0 -0.0080056392496644681 -0.0065618430328595184 0 -0.0078815796555466409 -0.0064889167621593347 0 -0.0078775790512833274 -0.0063205151377592377 0 -0.0080045489863303666 -0.006347794706689054 0 -0.0078815796555466409 -0.0064889167621593347 0 -0.0097435170014377008 -0.0091726436308126307 0 -0.0098551285961741772 -0.0091961741610653083 0 -0.0098775520371544301 -0.0091870531993024068 0 -0.0078775790512833274 -0.0063205151377592377 0 -0.0078815796555466409 -0.0064889167621593347 0 -0.0077010633819218199 -0.0063256772902606203 0 -0.0078291316046716353 -0.00666100824628044 0 -0.0078815796555466409 -0.0064889167621593347 0 -0.0077010633819218199 -0.0063256772902606203 0 -0.0085530350894573084 -0.0082618567017351228 0 -0.010783078276240095 -0.005663312771963659 0 -0.010783078276240095 -0.005663312771963659 0 -0.012622998808097637 -0.0066588058643613042 0 -0.013143435331401556 -0.0015663210338345949 0 -0.013792619113312256 -0.0025681097951354087 0 -0.0130363040761992 -0.0036586790767477177 0 -0.010783078276240095 -0.005663312771963659 0 -0.0094580390656855001 -0.0045630603357219622 0 -0.013792619113312256 -0.0025681097951354087 0 -0.013823467189575602 -0.00091333283329007517 0 -0.015008963493241654 -0.0030421058963018954 0 -0.013143435331401556 -0.0015663210338345949 0 -0.013792619113312256 -0.0025681097951354087 0 -0.013823467189575602 -0.00091333283329007517 0 -0.016063383112377174 -0.0044897142360237948 0 -0.016553367442607093 -0.004532324683530679 0 -0.016262436188481246 -0.0049035877922837586 0 -0.012622998808097637 -0.0066588058643613042 0 -0.015711671085534923 -0.0033555397933094692 0 -0.014464396716617344 -0.0071933985694950259 0 -0.012622998808097637 -0.0066588058643613042 0 -0.016622033608123699 -0.004079794113891937 0 -0.016063383112377174 -0.0044897142360237948 0 -0.016553367442607093 -0.004532324683530679 0 -0.016622033608123699 -0.004079794113891937 0 -0.016884352245645572 -0.0043313621223270453 0 -0.016553367442607093 -0.004532324683530679 0 -0.016636655625868857 -0.0048418516470605157 0 -0.016553367442607093 -0.004532324683530679 0 -0.016262436188481246 -0.0049035877922837586 0 -0.016636655625868857 -0.0048418516470605157 0 -0.016187280765877162 -0.0053033430380477961 0 -0.016262436188481246 -0.0049035877922837586 0 -0.016216266204679395 -0.0054442565641346138 0 -0.015711671085534923 -0.0033555397933094692 0 -0.014248574431568387 -0.0049222664717565789 0 -0.012657430795426406 -0.0052491113838977373 0 -0.01439508368780475 -0.0067710298535659441 0 -0.016187280765877162 -0.0053033430380477961 0 -0.014248574431568387 -0.0049222664717565789 0 -0.01439508368780475 -0.0067710298535659441 0 -0.014248574431568387 -0.0049222664717565789 0 -0.015008963493241654 -0.0030421058963018954 0 -0.0130363040761992 -0.0036586790767477177 0 -0.013792619113312256 -0.0025681097951354087 0 -0.015008963493241654 -0.0030421058963018954 0 -0.0130363040761992 -0.0036586790767477177 0 -0.016187280765877162 -0.0053033430380477961 0 -0.014248574431568387 -0.0049222664717565789 0 -0.015008963493241654 -0.0030421058963018954 0 -0.0085602710116203726 -0.0059496132411956306 0 -0.010906817633334918 -0.0036229899726312543 0 -0.011122435037437605 -0.0069540244383481387 0 -0.012657430795426406 -0.0052491113838977373 0 -0.010906817633334918 -0.0036229899726312543 0 -0.011122435037437605 -0.0069540244383481387 0 -0.013143435331401556 -0.0015663210338345949 0 -0.0130363040761992 -0.0036586790767477177 0 -0.010906817633334918 -0.0036229899726312543 0 -0.0130363040761992 -0.0036586790767477177 0 -0.012657430795426406 -0.0052491113838977373 0 -0.010906817633334918 -0.0036229899726312543 0 -0.014248574431568387 -0.0049222664717565789 0 -0.0130363040761992 -0.0036586790767477177 0 -0.012657430795426406 -0.0052491113838977373 0 -0.0099262815488911985 0.017881921358944924 0 -0.010754359529588722 0.019465583881880053 0 -0.011435993199768625 0.018130629055123974 0 -0.012657430795426406 -0.0052491113838977373 0 -0.011122435037437605 -0.0069540244383481387 0 -0.01439508368780475 -0.0067710298535659441 0 -0.010754359529588722 0.019465583881880053 0 -0.011435993199768625 0.018130629055123974 0 -0.013045883935678159 0.01977171037912788 0 -0.010965508400685907 0.0062741031292393957 0 -0.013692686765230484 0.0065091226136165829 0 -0.011435993199768625 0.018130629055123974 0 -0.013045883935678159 0.01977171037912788 0 -0.012832557521258064 0.017443564307805203 0 -0.013045883935678159 0.01977171037912788 0 -0.015079707499567612 0.019087512448216624 0 -0.012832557521258064 0.017443564307805203 0 -0.013045883935678159 0.01977171037912788 0 -0.015079707499567612 0.019087512448216624 0 -0.015555354034970759 0.019884597340485668 0 -0.016187280765877162 -0.0053033430380477961 0 -0.01439508368780475 -0.0067710298535659441 0 -0.016725775042626484 -0.0062377614867395901 0 -0.013692686765230484 0.0065091226136165829 0 -0.016160547060963006 0.0067844054909716161 0 -0.015079707499567612 0.019087512448216624 0 -0.014960270053285952 0.018252709301988523 0 -0.013507183914077186 0.01833867168917773 0 -0.014969651611068627 0.019038112574496877 0 -0.013184492308990834 0.017907445205999468 0 -0.014960270053285952 0.018252709301988523 0 -0.014574620148851004 0.017387819949003475 0 -0.015731440065685887 0.01778027733265912 0 -0.014960270053285952 0.018252709301988523 0 -0.014574620148851004 0.017387819949003475 0 -0.013507183914077186 0.01833867168917773 0 -0.014574620148851004 0.017387819949003475 0 -0.015636776206041345 0.016819532982555906 0 -0.014366507788690674 0.016231353284124891 0 -0.014574620148851004 0.017387819949003475 0 -0.015731440065685887 0.01778027733265912 0 -0.015636776206041345 0.016819532982555906 0 -0.014574620148851004 0.017387819949003475 0 -0.013507183914077186 0.01833867168917773 0 -0.013005317003034457 0.016531385333396174 0 -0.014574620148851004 0.017387819949003475 0 -0.013005317003034457 0.016531385333396174 0 -0.014366507788690674 0.016231353284124891 0 -0.013184492308990834 0.017907445205999468 0 -0.011197667303781191 0.016751730280159624 0 -0.011435993199768625 0.018130629055123974 0 -0.012832557521258064 0.017443564307805203 0 -0.010900691230893055 0.016379580471847031 0 -0.013507183914077186 0.01833867168917773 0 -0.011506596143099268 0.017157868544018854 0 -0.013005317003034457 0.016531385333396174 0 -0.0099262815488911985 0.017881921358944924 0 -0.011435993199768625 0.018130629055123974 0 -0.010900691230893055 0.016379580471847031 0 -0.018957622404195549 0.018688270252146765 0 -0.016836536296590824 0.018786575297216897 0 -0.018757509501746306 0.017141795186718222 0 -0.018957622404195549 0.018688270252146765 0 -0.017731380708252056 0.019865354369905393 0 -0.016836536296590824 0.018786575297216897 0 -0.021206422696962896 0.017938695795490161 0 -0.018957622404195549 0.018688270252146765 0 -0.020075221497922634 0.019750736520536542 0 -0.018763415631629241 -0.0074431363617074248 0 -0.020228679709873677 0.0054944774271871635 0 -0.017948893992326329 -0.0054867029021180994 0 -0.018134996462836568 -0.0056972243460191333 0 -0.017598123150203499 -0.005850227333270782 0 -0.018957622404195549 0.018688270252146765 0 -0.020075221497922634 0.019750736520536542 0 -0.017731380708252056 0.019865354369905393 0 -0.020228679709873677 0.0054944774271871635 0 -0.017393073609243425 0.0072057010967322725 0 -0.017393073609243425 0.0072057010967322725 0 -0.016160547060963006 0.0067844054909716161 0 -0.017094640538807448 -0.0056180726927023521 0 -0.017598123150203499 -0.005850227333270782 0 -0.016725775042626484 -0.0062377614867395901 0 -0.017731380708252056 0.019865354369905393 0 -0.015555354034970759 0.019884597340485668 0 -0.016208256078585215 0.019203043066717301 0 -0.015079707499567612 0.019087512448216624 0 -0.014960270053285952 0.018252709301988523 0 -0.015892111459578119 0.018508085102946381 0 -0.015079707499567612 0.019087512448216624 0 -0.016208256078585215 0.019203043066717301 0 -0.015892111459578119 0.018508085102946381 0 -0.015079707499567612 0.019087512448216624 0 -0.015555354034970759 0.019884597340485668 0 -0.016208256078585215 0.019203043066717301 0 -0.016208256078585215 0.019203043066717301 0 -0.015892111459578119 0.018508085102946381 0 -0.016836536296590824 0.018786575297216897 0 -0.017731380708252056 0.019865354369905393 0 -0.016208256078585215 0.019203043066717301 0 -0.016836536296590824 0.018786575297216897 0 -0.015892111459578119 0.018508085102946381 0 -0.016836536296590824 0.018786575297216897 0 -0.016955393236891655 0.017839977445732451 0 -0.016836536296590824 0.018786575297216897 0 -0.016955393236891655 0.017839977445732451 0 -0.017852525037333786 0.017758279689247088 0 -0.015892111459578119 0.018508085102946381 0 -0.016955393236891655 0.017839977445732451 0 -0.015731440065685887 0.01778027733265912 0 -0.014960270053285952 0.018252709301988523 0 -0.015892111459578119 0.018508085102946381 0 -0.015731440065685887 0.01778027733265912 0 -0.015731440065685887 0.01778027733265912 0 -0.015636776206041345 0.016819532982555906 0 -0.016980964506764569 0.016870707514637998 0 -0.016955393236891655 0.017839977445732451 0 -0.015731440065685887 0.01778027733265912 0 -0.016980964506764569 0.016870707514637998 0 -0.016955393236891655 0.017839977445732451 0 -0.017852525037333786 0.017758279689247088 0 -0.016980964506764569 0.016870707514637998 0 -0.017852525037333786 0.017758279689247088 0 -0.017879628250788891 0.016687761970591776 0 -0.018616435943817271 0.017165082097078555 0 -0.021206422696962896 0.017938695795490161 0 -0.018957622404195549 0.018688270252146765 0 -0.018757509501746306 0.017141795186718222 0 -0.017852525037333786 0.017758279689247088 0 -0.017879628250788891 0.016687761970591776 0 -0.016980964506764569 0.016870707514637998 0 -0.021206422696962896 0.017938695795490161 0 -0.018757509501746306 0.017141795186718222 0 -0.020531728528352406 0.015791320039933068 0 -0.01690012999165702 0.01872853279983647 0 -0.018284798247324464 0.017480423207960546 0 -0.018284798247324464 0.017480423207960546 0 -0.019576876309759798 0.016484193401429321 0 -0.017879628250788891 0.016687761970591776 0 -0.016980964506764569 0.016870707514637998 0 -0.01745786125128522 0.016254544152855016 0 -0.017879628250788891 0.016687761970591776 0 -0.018616435943817271 0.017165082097078555 0 -0.018598731036408848 0.016527774763660994 0 -0.017879628250788891 0.016687761970591776 0 -0.018180700707950779 0.016045881827067891 0 -0.018598731036408848 0.016527774763660994 0 -0.017879628250788891 0.016687761970591776 0 -0.01745786125128522 0.016254544152855016 0 -0.018180700707950779 0.016045881827067891 0 -0.016980964506764569 0.016870707514637998 0 -0.01690947621015558 0.016496978444174994 0 -0.01745786125128522 0.016254544152855016 0 -0.015636776206041345 0.016819532982555906 0 -0.016980964506764569 0.016870707514637998 0 -0.01597471585256624 0.015078750357234822 0 -0.016960998300441673 0.016794963323750193 0 -0.016437297440677394 0.015816013812158781 0 -0.015636776206041345 0.016819532982555906 0 -0.01597471585256624 0.015078750357234822 0 -0.014366507788690674 0.016231353284124891 0 -0.01745786125128522 0.016254544152855016 0 -0.01742897926795272 0.015680997224864501 0 -0.016555652997190848 0.01603808961876884 0 -0.01690947621015558 0.016496978444174994 0 -0.01745786125128522 0.016254544152855016 0 -0.016555652997190848 0.01603808961876884 0 -0.016437297440677394 0.015816013812158781 0 -0.015752634717460402 0.014775155309981343 0 -0.01742897926795272 0.015680997224864501 0 -0.016555652997190848 0.01603808961876884 0 -0.016777431655837817 0.015367404938471271 0 -0.01742897926795272 0.015680997224864501 0 -0.018117408830979558 0.015506073060352926 0 -0.018180700707950779 0.016045881827067891 0 -0.018117408830979558 0.015506073060352926 0 -0.018180700707950779 0.016045881827067891 0 -0.018693329897168372 0.015318705980988013 0 -0.01745786125128522 0.016254544152855016 0 -0.01742897926795272 0.015680997224864501 0 -0.018180700707950779 0.016045881827067891 0 -0.011471333254863911 0.015339167878287761 0 -0.011815705117104218 0.01411070819249364 0 -0.010491433395676344 0.014158023318852719 0 -0.0094757276261045065 0.015623349532337584 0 -0.011471333254863911 0.015339167878287761 0 -0.010491433395676344 0.014158023318852719 0 -0.0095684930983870164 0.015674083446587966 0 -0.011197667303781191 0.016751730280159624 0 -0.0094757276261045065 0.015623349532337584 0 -0.011506596143099268 0.017157868544018854 0 -0.011471333254863911 0.015339167878287761 0 -0.011506596143099268 0.017157868544018854 0 -0.011471333254863911 0.015339167878287761 0 -0.013005317003034457 0.016531385333396174 0 -0.011471333254863911 0.015339167878287761 0 -0.012780713085405489 0.014881472520368687 0 -0.013005317003034457 0.016531385333396174 0 -0.011471333254863911 0.015339167878287761 0 -0.012780713085405489 0.014881472520368687 0 -0.011815705117104218 0.01411070819249364 0 -0.012780713085405489 0.014881472520368687 0 -0.014366507788690674 0.016231353284124891 0 -0.014368630243181104 0.014826575587847923 0 -0.012780713085405489 0.014881472520368687 0 -0.014368630243181104 0.014826575587847923 0 -0.013025264237022891 0.013394545432848402 0 -0.012780713085405489 0.014881472520368687 0 -0.013005317003034457 0.016531385333396174 0 -0.014366507788690674 0.016231353284124891 0 -0.01597471585256624 0.015078750357234822 0 -0.014368630243181104 0.014826575587847923 0 -0.014968534340700328 0.013535385162005593 0 -0.01597471585256624 0.015078750357234822 0 -0.014366507788690674 0.016231353284124891 0 -0.014368630243181104 0.014826575587847923 0 -0.014368630243181104 0.014826575587847923 0 -0.014968534340700328 0.013535385162005593 0 -0.013025264237022891 0.013394545432848402 0 -0.016555652997190848 0.01603808961876884 0 -0.016084858529651847 0.015480837045450247 0 -0.016777431655837817 0.015367404938471271 0 -0.015752634717460402 0.014775155309981343 0 -0.015051228437981254 0.013829274581770544 0 -0.014968534340700328 0.013535385162005593 0 -0.013025264237022891 0.013394545432848402 0 -0.013977054929806118 0.012090948462207596 0 -0.013025264237022891 0.013394545432848402 0 -0.012116894432011227 0.01170025902377185 0 -0.013977054929806118 0.012090948462207596 0 -0.013025264237022891 0.013394545432848402 0 -0.011815705117104218 0.01411070819249364 0 -0.011290982122275563 0.012807451634274816 0 -0.012780713085405489 0.014881472520368687 0 -0.013025264237022891 0.013394545432848402 0 -0.011815705117104218 0.01411070819249364 0 -0.013025264237022891 0.013394545432848402 0 -0.011290982122275563 0.012807451634274816 0 -0.012116894432011227 0.01170025902377185 0 -0.010171798571999855 0.012144410164044155 0 -0.011290982122275563 0.012807451634274816 0 -0.011019316321349535 0.011900866639691881 0 -0.010271218021044408 0.012063418334891792 0 -0.011114038592095254 0.012725282829768196 0 -0.01002056778871765 0.013196323812439265 0 -0.011290982122275563 0.012807451634274816 0 -0.010491433395676344 0.014158023318852719 0 -0.011815705117104218 0.01411070819249364 0 -0.011290982122275563 0.012807451634274816 0 -0.010491433395676344 0.014158023318852719 0 -0.010996168910532811 0.01103198349536497 0 -0.012116894432011227 0.01170025902377185 0 -0.011901963817331333 0.010527629936170194 0 -0.010996168910532811 0.01103198349536497 0 -0.011901963817331333 0.010527629936170194 0 -0.01095993054847887 0.0099844165561478303 0 -0.010318853853220492 0.011500728931751853 0 -0.010996168910532811 0.01103198349536497 0 -0.011019316321349535 0.011900866639691881 0 -0.010996168910532811 0.01103198349536497 0 -0.011019316321349535 0.011900866639691881 0 -0.012116894432011227 0.01170025902377185 0 -0.011290982122275563 0.012807451634274816 0 -0.011019316321349535 0.011900866639691881 0 -0.012116894432011227 0.01170025902377185 0 -0.012116894432011227 0.01170025902377185 0 -0.011901963817331333 0.010527629936170194 0 -0.013058316487247227 0.010725953229090734 0 -0.011901963817331333 0.010527629936170194 0 -0.013058316487247227 0.010725953229090734 0 -0.012223658758199538 0.0093833939942306026 0 -0.015578183796308072 0.014879766854814258 0 -0.016477978790571265 0.014736054552209582 0 -0.015705833962278117 0.014441792538563987 0 -0.014254882126214704 0.012583828880055319 0 -0.015051228437981254 0.013829274581770544 0 -0.012116894432011227 0.01170025902377185 0 -0.013058316487247227 0.010725953229090734 0 -0.013977054929806118 0.012090948462207596 0 -0.016084858529651847 0.015480837045450247 0 -0.016477978790571265 0.014736054552209582 0 -0.016777431655837817 0.015367404938471271 0 -0.015578183796308072 0.014879766854814258 0 -0.016084858529651847 0.015480837045450247 0 -0.016477978790571265 0.014736054552209582 0 -0.016477978790571265 0.014736054552209582 0 -0.016102794215133043 0.01420066853152401 0 -0.015705833962278117 0.014441792538563987 0 -0.016477978790571265 0.014736054552209582 0 -0.016102794215133043 0.01420066853152401 0 -0.016794016054605367 0.014098739770490228 0 -0.016102794215133043 0.01420066853152401 0 -0.016168458762116259 0.013787093717106574 0 -0.016794016054605367 0.014098739770490228 0 -0.016168458762116259 0.013787093717106574 0 -0.015807963129114234 0.013936022813629623 0 -0.015861184088380241 0.013680457896924729 0 -0.016102794215133043 0.01420066853152401 0 -0.016168458762116259 0.013787093717106574 0 -0.015807963129114234 0.013936022813629623 0 -0.016102794215133043 0.01420066853152401 0 -0.015807963129114234 0.013936022813629623 0 -0.015663269584474657 0.014192911236925013 0 -0.015528917082738753 0.013593250435943234 0 -0.015807963129114234 0.013936022813629623 0 -0.015861184088380241 0.013680457896924729 0 -0.015528917082738753 0.013593250435943234 0 -0.015807963129114234 0.013936022813629623 0 -0.015405585034264955 0.013970641332760634 0 -0.015528917082738753 0.013593250435943234 0 -0.015405585034264955 0.013970641332760634 0 -0.015153173561174947 0.013763261597068409 0 -0.015405585034264955 0.013970641332760634 0 -0.015663269584474657 0.014192911236925013 0 -0.015254137838806612 0.014234492195986811 0 -0.015807963129114234 0.013936022813629623 0 -0.015405585034264955 0.013970641332760634 0 -0.015663269584474657 0.014192911236925013 0 -0.015663269584474657 0.014192911236925013 0 -0.015705833962278117 0.014441792538563987 0 -0.015254137838806612 0.014234492195986811 0 -0.015578183796308072 0.014879766854814258 0 -0.015705833962278117 0.014441792538563987 0 -0.01507874151124837 0.014304158704049934 0 -0.016102794215133043 0.01420066853152401 0 -0.015663269584474657 0.014192911236925013 0 -0.015705833962278117 0.014441792538563987 0 -0.015705833962278117 0.014441792538563987 0 -0.01507874151124837 0.014304158704049934 0 -0.015254137838806612 0.014234492195986811 0 -0.014254882126214704 0.012583828880055319 0 -0.013691091001148837 0.012995737023858492 0 -0.013691091001148837 0.012995737023858492 0 -0.014546914210838721 0.014192487900855859 0 -0.014953725231578067 0.014424169638015938 0 -0.015015535574039798 0.014207672284450348 0 -0.014775020441860021 0.014193932574892728 0 -0.014953725231578067 0.014424169638015938 0 -0.015254137838806612 0.014234492195986811 0 -0.015015535574039798 0.014207672284450348 0 -0.013691091001148837 0.012995737023858492 0 -0.014522795047140886 0.013285865787476283 0 -0.015405585034264955 0.013970641332760634 0 -0.015254137838806612 0.014234492195986811 0 -0.015075577724498539 0.014019484845388282 0 -0.015254137838806612 0.014234492195986811 0 -0.015015535574039798 0.014207672284450348 0 -0.015075577724498539 0.014019484845388282 0 -0.015405585034264955 0.013970641332760634 0 -0.015075577724498539 0.014019484845388282 0 -0.015153173561174947 0.013763261597068409 0 -0.015071927726034726 0.013475881051893309 0 -0.015153173561174947 0.013763261597068409 0 -0.014772021670856563 0.013759052496829413 0 -0.015075577724498539 0.014019484845388282 0 -0.015153173561174947 0.013763261597068409 0 -0.014772021670856563 0.013759052496829413 0 -0.015075577724498539 0.014019484845388282 0 -0.014772021670856563 0.013759052496829413 0 -0.014775020441860021 0.014193932574892728 0 -0.015015535574039798 0.014207672284450348 0 -0.015075577724498539 0.014019484845388282 0 -0.014775020441860021 0.014193932574892728 0 -0.013845113910964301 0.013961128287644805 0 -0.01434185205923102 0.014044259775674899 0 -0.01408554920340176 0.014898426249919149 0 -0.014772021670856563 0.013759052496829413 0 -0.014775020441860021 0.014193932574892728 0 -0.01434185205923102 0.014044259775674899 0 -0.014216202230243256 0.013473898387899747 0 -0.014772021670856563 0.013759052496829413 0 -0.01434185205923102 0.014044259775674899 0 -0.013845113910964301 0.013961128287644805 0 -0.014216202230243256 0.013473898387899747 0 -0.01434185205923102 0.014044259775674899 0 -0.011901963817331333 0.010527629936170194 0 -0.012223658758199538 0.0093833939942306026 0 -0.01095993054847887 0.0099844165561478303 0 -0.014937485830758513 0.014471237634883716 0 -0.014775020441860021 0.014193932574892728 0 -0.01408554920340176 0.014898426249919149 0 -0.013691091001148837 0.012995737023858492 0 -0.01293805229259839 0.01215643062669973 0 -0.014775020441860021 0.014193932574892728 0 -0.01434185205923102 0.014044259775674899 0 -0.01408554920340176 0.014898426249919149 0 -0.018149389977281081 0.015016489487881963 0 -0.018014794197821364 0.014572407454997867 0 -0.018128171373264276 0.015013028117422812 0 -0.018474157306131018 0.014875536314278657 0 -0.018531255534365711 0.014882501119402489 0 -0.018128171373264276 0.015013028117422812 0 -0.018672860836764237 0.014986791062361339 0 -0.018531255534365711 0.014882501119402489 0 -0.018128171373264276 0.015013028117422812 0 -0.018672860836764237 0.014986791062361339 0 -0.018693329897168372 0.015318705980988013 0 -0.018117408830979558 0.015506073060352926 0 -0.018128171373264276 0.015013028117422812 0 -0.018693329897168372 0.015318705980988013 0 -0.01742897926795272 0.015680997224864501 0 -0.018117408830979558 0.015506073060352926 0 -0.018128171373264276 0.015013028117422812 0 -0.01742897926795272 0.015680997224864501 0 -0.018128171373264276 0.015013028117422812 0 -0.017211092221773944 0.01488065958065444 0 -0.01742897926795272 0.015680997224864501 0 -0.016777431655837817 0.015367404938471271 0 -0.017211092221773944 0.01488065958065444 0 -0.016477978790571265 0.014736054552209582 0 -0.016777431655837817 0.015367404938471271 0 -0.017211092221773944 0.01488065958065444 0 -0.016477978790571265 0.014736054552209582 0 -0.017211092221773944 0.01488065958065444 0 -0.016794016054605367 0.014098739770490228 0 -0.018128171373264276 0.015013028117422812 0 -0.017211092221773944 0.01488065958065444 0 -0.017559433482552494 0.014253919913207725 0 -0.017211092221773944 0.01488065958065444 0 -0.017559433482552494 0.014253919913207725 0 -0.016794016054605367 0.014098739770490228 0 -0.016496554318205799 0.013343518319004299 0 -0.016168458762116259 0.013787093717106574 0 -0.016794016054605367 0.014098739770490228 0 -0.017109883511578838 0.013561328251471851 0 -0.016496554318205799 0.013343518319004299 0 -0.016794016054605367 0.014098739770490228 0 -0.017837103068958037 0.014336950711109546 0 -0.018014794197821364 0.014572407454997867 0 -0.017109883511578838 0.013561328251471851 0 -0.017559433482552494 0.014253919913207725 0 -0.016794016054605367 0.014098739770490228 0 -0.018584445299159154 0.014884947996489933 0 -0.018474157306131018 0.014875536314278657 0 -0.018616086990501494 0.014856482460893746 0 -0.018474157306131018 0.014875536314278657 0 -0.018531255534365711 0.014882501119402489 0 -0.018616086990501494 0.014856482460893746 0 -0.018531255534365711 0.014882501119402489 0 -0.018616086990501494 0.014856482460893746 0 -0.018835510461235497 0.01487993481866828 0 -0.018672860836764237 0.014986791062361339 0 -0.018531255534365711 0.014882501119402489 0 -0.018835510461235497 0.01487993481866828 0 -0.018616086990501494 0.014856482460893746 0 -0.018899903720769485 0.014857520482724563 0 -0.018835510461235497 0.01487993481866828 0 -0.018899903720769485 0.014857520482724563 0 -0.018835510461235497 0.01487993481866828 0 -0.019127936011151352 0.014921855280047164 0 -0.018835510461235497 0.01487993481866828 0 -0.019133684545548698 0.015017701530571567 0 -0.019127936011151352 0.014921855280047164 0 -0.018672860836764237 0.014986791062361339 0 -0.018835510461235497 0.01487993481866828 0 -0.019133684545548698 0.015017701530571567 0 -0.019133684545548698 0.015017701530571567 0 -0.018693329897168372 0.015318705980988013 0 -0.019597969379792728 0.015176952858558202 0 -0.018672860836764237 0.014986791062361339 0 -0.019133684545548698 0.015017701530571567 0 -0.018693329897168372 0.015318705980988013 0 -0.021650803064996414 0.013359002834391944 0 -0.02336721194691261 0.014294499987992704 0 -0.021660776034790056 0.014729210923304984 0 -0.021650803064996414 0.013359002834391944 0 -0.023433150132499511 0.013414658977324329 0 -0.02336721194691261 0.014294499987992704 0 -0.0204505886087058 0.014269121950654169 0 -0.019630956863889749 0.015141130992229093 0 -0.021650803064996414 0.013359002834391944 0 -0.019597969379792728 0.015176952858558202 0 -0.021660776034790056 0.014729210923304984 0 -0.019133684545548698 0.015017701530571567 0 -0.019299939110276072 0.015032200745877418 0 -0.019597969379792728 0.015176952858558202 0 -0.019133684545548698 0.015017701530571567 0 -0.019299939110276072 0.015032200745877418 0 -0.019127936011151352 0.014921855280047164 0 -0.021650803064996414 0.013359002834391944 0 -0.023119742677879206 0.012768163727019447 0 -0.023433150132499511 0.013414658977324329 0 -0.0204505886087058 0.014269121950654169 0 -0.02117411867055578 0.013869276824486089 0 -0.019299939110276072 0.015032200745877418 0 -0.019127936011151352 0.014921855280047164 0 -0.019288472083153919 0.014941066846861447 0 -0.019127936011151352 0.014921855280047164 0 -0.019233614984364041 0.014852973158376082 0 -0.019288472083153919 0.014941066846861447 0 -0.019074492257681888 0.014821582633303798 0 -0.019127936011151352 0.014921855280047164 0 -0.019233614984364041 0.014852973158376082 0 -0.019074492257681888 0.014821582633303798 0 -0.018899903720769485 0.014857520482724563 0 -0.019127936011151352 0.014921855280047164 0 -0.019233614984364041 0.014852973158376082 0 -0.019355193332572077 0.014826659461876878 0 -0.019288472083153919 0.014941066846861447 0 -0.023916310821925649 0.012505942622968887 0 -0.024811489019027751 0.01279364616089145 0 -0.024170569344555134 0.01317476391249991 0 -0.021608203234414404 0.013681666258842743 0 -0.02117411867055578 0.013869276824486089 0 -0.023916310821925649 0.012505942622968887 0 -0.023119742677879206 0.012768163727019447 0 -0.024170569344555134 0.01317476391249991 0 -0.025805585775623349 0.012756244909118905 0 -0.024811489019027751 0.01279364616089145 0 -0.025303927621163746 0.013152476286895797 0 -0.024531886354140643 0.012156453598663368 0 -0.023916310821925649 0.012505942622968887 0 -0.024811489019027751 0.01279364616089145 0 -0.024811489019027751 0.01279364616089145 0 -0.024857681455862757 0.013314984328527932 0 -0.024170569344555134 0.01317476391249991 0 -0.024811489019027751 0.01279364616089145 0 -0.025303927621163746 0.013152476286895797 0 -0.024857681455862757 0.013314984328527932 0 -0.025237252589320712 0.013456370888172382 0 -0.025303927621163746 0.013152476286895797 0 -0.024857681455862757 0.013314984328527932 0 -0.024857681455862757 0.013314984328527932 0 -0.02462423210251137 0.01373810882054315 0 -0.024170569344555134 0.01317476391249991 0 -0.02462423210251137 0.01373810882054315 0 -0.024170569344555134 0.01317476391249991 0 -0.02398346376944974 0.013790621841964026 0 -0.02462423210251137 0.01373810882054315 0 -0.02398346376944974 0.013790621841964026 0 -0.024190251027024139 0.01405181726770093 0 -0.025237252589320712 0.013456370888172382 0 -0.024857681455862757 0.013314984328527932 0 -0.02462423210251137 0.01373810882054315 0 -0.025237252589320712 0.013456370888172382 0 -0.02462423210251137 0.01373810882054315 0 -0.025055635410096439 0.013861052811263099 0 -0.023119742677879206 0.012768163727019447 0 -0.023433150132499511 0.013414658977324329 0 -0.024170569344555134 0.01317476391249991 0 -0.023433150132499511 0.013414658977324329 0 -0.024170569344555134 0.01317476391249991 0 -0.02398346376944974 0.013790621841964026 0 -0.02398346376944974 0.013790621841964026 0 -0.02336721194691261 0.014294499987992704 0 -0.023770586007938126 0.014213535798509008 0 -0.023433150132499511 0.013414658977324329 0 -0.02398346376944974 0.013790621841964026 0 -0.02336721194691261 0.014294499987992704 0 -0.02336721194691261 0.014294499987992704 0 -0.023548469927643017 0.014350457404588972 0 -0.023514901030798046 0.014375542470120128 0 -0.02336721194691261 0.014294499987992704 0 -0.023770586007938126 0.014213535798509008 0 -0.023548469927643017 0.014350457404588972 0 -0.02398346376944974 0.013790621841964026 0 -0.023770586007938126 0.014213535798509008 0 -0.024190251027024139 0.01405181726770093 0 -0.023770586007938126 0.014213535798509008 0 -0.024190251027024139 0.01405181726770093 0 -0.02400429868344205 0.014285298296051503 0 -0.023770586007938126 0.014213535798509008 0 -0.023672748775196414 0.014362692722264156 0 -0.02400429868344205 0.014285298296051503 0 -0.023770586007938126 0.014213535798509008 0 -0.023672748775196414 0.014362692722264156 0 -0.023548469927643017 0.014350457404588972 0 -0.023672748775196414 0.014362692722264156 0 -0.02375230357012293 0.014480134749140783 0 -0.02400429868344205 0.014285298296051503 0 -0.023672748775196414 0.014362692722264156 0 -0.02375230357012293 0.014480134749140783 0 -0.023585689694942159 0.014374069417354906 0 -0.023672748775196414 0.014362692722264156 0 -0.023590772938002529 0.014349808553940911 0 -0.023585689694942159 0.014374069417354906 0 -0.023590772938002529 0.014349808553940911 0 -0.02359588542622278 0.014331758716803564 0 -0.02363333181031876 0.014233719282209612 0 -0.023590772938002529 0.014349808553940911 0 -0.02359588542622278 0.014331758716803564 0 -0.023548469927643017 0.014350457404588972 0 -0.02359588542622278 0.014331758716803564 0 -0.023548469927643017 0.014350457404588972 0 -0.023514901030798046 0.014375542470120128 0 -0.023672748775196414 0.014362692722264156 0 -0.023590772938002529 0.014349808553940911 0 -0.023548469927643017 0.014350457404588972 0 -0.025263817443840913 0.014272202106135194 0 -0.025055635410096439 0.013861052811263099 0 -0.024615975075196476 0.014208458859763984 0 -0.02462423210251137 0.01373810882054315 0 -0.025055635410096439 0.013861052811263099 0 -0.024615975075196476 0.014208458859763984 0 -0.02462423210251137 0.01373810882054315 0 -0.024190251027024139 0.01405181726770093 0 -0.024615975075196476 0.014208458859763984 0 -0.024190251027024139 0.01405181726770093 0 -0.02400429868344205 0.014285298296051503 0 -0.024615975075196476 0.014208458859763984 0 -0.02400429868344205 0.014285298296051503 0 -0.024251036854879081 0.014532314642563025 0 -0.024615975075196476 0.014208458859763984 0 -0.02375230357012293 0.014480134749140783 0 -0.02400429868344205 0.014285298296051503 0 -0.024251036854879081 0.014532314642563025 0 -0.025263817443840913 0.014272202106135194 0 -0.024615975075196476 0.014208458859763984 0 -0.024830782462413086 0.014883479490085554 0 -0.024251036854879081 0.014532314642563025 0 -0.024615975075196476 0.014208458859763984 0 -0.024830782462413086 0.014883479490085554 0 -0.02658828962062125 0.014680539296190979 0 -0.02511450975085491 0.014179514647718879 0 -0.027851987984430858 0.014418626807713365 0 -0.028301621069671087 0.013971595942847087 0 -0.028763568879133661 0.014376738568891701 0 -0.024251036854879081 0.014532314642563025 0 -0.024830782462413086 0.014883479490085554 0 -0.023911999859770203 0.014990952601133154 0 -0.02375230357012293 0.014480134749140783 0 -0.024251036854879081 0.014532314642563025 0 -0.023911999859770203 0.014990952601133154 0 -0.028642871368828596 0.01338822871319776 0 -0.028301621069671087 0.013971595942847087 0 -0.028763568879133661 0.014376738568891701 0 -0.025742506613075932 0.013057591439492609 0 -0.02511450975085491 0.014179514647718879 0 -0.028642871368828596 0.01338822871319776 0 -0.027985591221388193 0.013193999985988728 0 -0.028301621069671087 0.013971595942847087 0 -0.027851987984430858 0.014418626807713365 0 -0.028301621069671087 0.013971595942847087 0 -0.027741940232480618 0.013801690722414536 0 -0.027216312202519109 0.013883520031566818 0 -0.027851987984430858 0.014418626807713365 0 -0.027741940232480618 0.013801690722414536 0 -0.027985591221388193 0.013193999985988728 0 -0.028301621069671087 0.013971595942847087 0 -0.027741940232480618 0.013801690722414536 0 -0.023575355725246473 0.014192725969840517 0 -0.023462085838240141 0.013983735499883356 0 -0.023674900125205806 0.013974749276007706 0 -0.023575355725246473 0.014192725969840517 0 -0.02363333181031876 0.014233719282209612 0 -0.023674900125205806 0.013974749276007706 0 -0.02363333181031876 0.014233719282209612 0 -0.023674900125205806 0.013974749276007706 0 -0.0237535490363068 0.014204661038338342 0 -0.02359588542622278 0.014331758716803564 0 -0.02363333181031876 0.014233719282209612 0 -0.0237535490363068 0.014204661038338342 0 -0.023590772938002529 0.014349808553940911 0 -0.023575355725246473 0.014192725969840517 0 -0.02363333181031876 0.014233719282209612 0 -0.023590772938002529 0.014349808553940911 0 -0.023575355725246473 0.014192725969840517 0 -0.023585689694942159 0.014374069417354906 0 -0.023575355725246473 0.014192725969840517 0 -0.023585689694942159 0.014374069417354906 0 -0.02341810902735169 0.0142556864792919 0 -0.024181937352164069 0.014419306368876107 0 -0.02511450975085491 0.014179514647718879 0 -0.02375230357012293 0.014480134749140783 0 -0.023497505179396635 0.014310596450660559 0 -0.02341810902735169 0.0142556864792919 0 -0.02375230357012293 0.014480134749140783 0 -0.023585689694942159 0.014374069417354906 0 -0.02341810902735169 0.0142556864792919 0 -0.023106685084912836 0.014243503244211848 0 -0.02341810902735169 0.0142556864792919 0 -0.023462085838240141 0.013983735499883356 0 -0.02511450975085491 0.014179514647718879 0 -0.023523859299130204 0.014270387403171979 0 -0.023575355725246473 0.014192725969840517 0 -0.02341810902735169 0.0142556864792919 0 -0.023462085838240141 0.013983735499883356 0 -0.023106685084912836 0.014243503244211848 0 -0.023462085838240141 0.013983735499883356 0 -0.023352318958471056 0.013671644517456295 0 -0.022758852511230353 0.013403402779425569 0 -0.023106685084912836 0.014243503244211848 0 -0.023352318958471056 0.013671644517456295 0 -0.023732645554742381 0.013305784852873094 0 -0.023352318958471056 0.013671644517456295 0 -0.023674900125205806 0.013974749276007706 0 -0.023732645554742381 0.013305784852873094 0 -0.023674900125205806 0.013974749276007706 0 -0.023920884176044054 0.013827984170808725 0 -0.023462085838240141 0.013983735499883356 0 -0.023352318958471056 0.013671644517456295 0 -0.023674900125205806 0.013974749276007706 0 -0.023732645554742381 0.013305784852873094 0 -0.023920884176044054 0.013827984170808725 0 -0.024213242537986398 0.013466618783832667 0 -0.023920884176044054 0.013827984170808725 0 -0.02425954173129247 0.014062101983266583 0 -0.024213242537986398 0.013466618783832667 0 -0.023674900125205806 0.013974749276007706 0 -0.023920884176044054 0.013827984170808725 0 -0.0237535490363068 0.014204661038338342 0 -0.023920884176044054 0.013827984170808725 0 -0.0237535490363068 0.014204661038338342 0 -0.02425954173129247 0.014062101983266583 0 -0.0237535490363068 0.014204661038338342 0 -0.02425954173129247 0.014062101983266583 0 -0.023514901030798046 0.014375542470120128 0 -0.023012377792538508 0.01497518176057174 0 -0.022126542513420149 0.014769953616409049 0 -0.023319664743222293 0.014339707249293912 0 -0.024803011898890403 0.013288793830544675 0 -0.02425954173129247 0.014062101983266583 0 -0.024213242537986398 0.013466618783832667 0 -0.023588078145818189 0.014389784773781255 0 -0.023596384388263066 0.014588777731272743 0 -0.022216234500975193 0.016277793368101975 0 -0.020531728528352406 0.015791320039933068 0 -0.022126542513420149 0.014769953616409049 0 -0.022216234500975193 0.016277793368101975 0 -0.023012377792538508 0.01497518176057174 0 -0.022126542513420149 0.014769953616409049 0 -0.019576876309759798 0.016484193401429321 0 -0.02080103565419229 0.015789275598404626 0 -0.018616435943817271 0.017165082097078555 0 -0.018598731036408848 0.016527774763660994 0 -0.01944547800789027 0.01676749183754243 0 -0.018598731036408848 0.016527774763660994 0 -0.01944547800789027 0.01676749183754243 0 -0.018971949168915512 0.015945643340352419 0 -0.01944547800789027 0.01676749183754243 0 -0.019797422771182079 0.016038845648489009 0 -0.018971949168915512 0.015945643340352419 0 -0.018180700707950779 0.016045881827067891 0 -0.018598731036408848 0.016527774763660994 0 -0.018971949168915512 0.015945643340352419 0 -0.018693329897168372 0.015318705980988013 0 -0.018971949168915512 0.015945643340352419 0 -0.019597969379792728 0.015176952858558202 0 -0.018180700707950779 0.016045881827067891 0 -0.018693329897168372 0.015318705980988013 0 -0.018971949168915512 0.015945643340352419 0 -0.019797422771182079 0.016038845648489009 0 -0.018971949168915512 0.015945643340352419 0 -0.019597969379792728 0.015176952858558202 0 -0.019797422771182079 0.016038845648489009 0 -0.019597969379792728 0.015176952858558202 0 -0.02045544736538947 0.015608892007437009 0 -0.019597969379792728 0.015176952858558202 0 -0.02045544736538947 0.015608892007437009 0 -0.021660776034790056 0.014729210923304984 0 -0.02045544736538947 0.015608892007437009 0 -0.021660776034790056 0.014729210923304984 0 -0.021028348562972917 0.01622810795316508 0 -0.023318440262680654 0.014337671238909069 0 -0.022168995202684026 0.015234412250131236 0 -0.02336721194691261 0.014294499987992704 0 -0.021660776034790056 0.014729210923304984 0 -0.021028348562972917 0.01622810795316508 0 -0.02336721194691261 0.014294499987992704 0 -0.023514901030798046 0.014375542470120128 0 -0.023319664743222293 0.014339707249293912 0 -0.023596384388263066 0.014588777731272743 0 -0.023574725189799018 0.014329692750133892 0 -0.023012377792538508 0.01497518176057174 0 -0.023514901030798046 0.014375542470120128 0 -0.023319664743222293 0.014339707249293912 0 -0.02359588542622278 0.014331758716803564 0 -0.0237535490363068 0.014204661038338342 0 -0.023514901030798046 0.014375542470120128 0 -0.01944547800789027 0.01676749183754243 0 -0.019797422771182079 0.016038845648489009 0 -0.021028348562972917 0.01622810795316508 0 -0.02080103565419229 0.015789275598404626 0 -0.022168995202684026 0.015234412250131236 0 -0.019797422771182079 0.016038845648489009 0 -0.02045544736538947 0.015608892007437009 0 -0.021028348562972917 0.01622810795316508 0 
</DataArray>
</PointData>
<CellData Scalars="region_id,cross_section_updated," Vectors="" Tensors="stress,">
<DataArray type="Float64" Name="region_id" format="ascii">
5 5 5 6 5 5 5 5 6 5 5 6 5 5 5 5 5 5 5 5 5 5 5 5 5 5 5 5 5 5 5 5 5 5 5 6 5 5 5 5 5 5 5 5 5 5 5 5 5 5 5 5 5 5 5 5 5 5 6 5 5 5 5 5 5 5 5 5 6 5 5 5 6 6 5 5 6 5 5 6 5 5 5 6 5 6 6 5 5 5 5 6 5 5 5 5 5 5 5 5 6 5 5 5 5 5 5 5 6 5 5 5 6 5 5 6 5 5 6 5 5 5 5 5 5 5 5 5 6 5 5 5 5 5 5 5 5 5 5 5 5 5 5 6 5 5 5 5 5 5 5 5 5 5 5 5 5 5 5 5 5 5 5 5 5 5 5 6 5 5 6 5 5 5 5 5 5 5 5 5 5 5 5 5 5 5 5 5 5 5 5 5 5 5 5 5 5 5 5 5 5 5 5 5 5 5 5 5 5 5 5 5 5 5 5 5 6 5 5 5 5 5 5 5 5 5 5 6 5 5 6 5 5 6 5 5 6 5 5 5 6 6 5 5 6 5 6 5 5 5 5 6 5 6 5 5 6 5 6 5 5 5 5 5 5 5 6 5 5 5 5 6 6 5 5 5 6 5 5 5 5 5 6 6 5 5 6 5 5 5 5 6 5 5 5 5 6 5 5 5 5 5 6 5 5 6 5 5 5 6 5 5 5 5 5 5 5 5 5 5 5 5 5 5 5 5 5 5 5 5 5 5 5 5 5 5 5 5 5 5 5 5 5 5 5 5 5 5 5 5 5 5 5 5 5 5 5 5 5 5 5 5 5 5 5 5 5 5 5 5 5 5 5 6 5 5 5 6 5 5 5 5 5 5 5 5 5 5 6 5 5 5 5 5 5 5 5 5 5 5 5 5 5 5 5 5 6 5 5 5 5 5 5 5 5 5 5 5 5 5 5 6 5 5 5 6 5 5 5 5 5 5 5 5 5 5 5 5 5 5 5 5 6 5 5 5 6 5 5 6 5 5 5 5 5 5 5 5 5 5 5 6 5 5 5 5 6 5 5 5 5 5 6 5 5 5 5 6 5 5 5 5 5 5 5 5 5 5 5 5 5 5 5 5 5 5 5 5 5 5 5 5 5 5 5 5 5 5 5 5 5 5 5 5 5 5 6 5 6 5 5 5 5 5 5 5 5 5 5 5 5 5 5 6 5 5 5 5 5 5 6 5 5 5 5 5 5 5 6 5 5 5 5 5 5 5 5 5 5 5 5 5 5 5 5 6 5 5 5 5 5 5 6 5 5 5 5 5 5 5 5 5 5 5 5 5 5 5 5 5 6 5 5 5 6 5 5 5 5 5 5 5 5 5 5 5 5 5 5 5 5 5 5 5 5 5 5 5 5 5 5 5 5 5 5 5 5 5 5 5 5 5 5 5 5 5 5 5 5 5 5 5 5 5 5 5 5 5 5 5 5 5 6 5 6 5 6 6 5 5 5 5 5 5 5 5 5 5 6 5 5 6 6 5 5 5 5 6 5 5 6 5 5 5 5 5 5 5 5 5 5 6 6 5 6 5 6 5 5 5 5 5 5 5 5 6 6 6 5 5 5 5 5 5 5 5 5 5 5 5 5 5 5 5 5 5 5 5 5 5 5 5 5 5 5 5 5 5 5 5 5 5 5 5 5 5 5 5 6 5 5 5 5 5 5 5 5 5 6 5 5 5 6 5 6 5 5 5 5 6 5 5 5 5 6 5 5 5 5 5 5 5 6 6 5 5 5 6 5 5 5 5 6 5 5 5 5 5 5 6 5 5 5 5 5 6 5 5 5 5 5 5 5 5 5 5 5 5 6 5 5 5 5 6 5 5 5 5 5 5 5 5 5 5 6 5 5 5 5 5 5 5 5 5 5 5 5 5 5 5 5 5 5 5 6 5 5 5 6 5 5 5 5 5 5 6 5 5 6 5 5 5 5 5 5 5 5 5 5 5 5 6 6 5 5 5 5 5 5 6 5 5 5 5 5 5 5 5 5 5 5 5 5 5 5 5 6 5 5 5 5 5 5 5 5 5 5 5 5 5 6 5 5 6 5 5 5 6 5 5 5 5 5 5 6 5 5 5 5 5 5 5 5 6 5 5 5 5 5 5 6 5 5 5 5 5 5 5 5 5 5 5 5 5 5 5 6 5 5 5 5 5 5 5 5 5 5 5 5 5 5 5 5 5 5 5 5 5 5 5 5 5 5 5 6 5 6 5 6 6 5 5 5 5 5 5 5 5 5 5 5 5 6 5 6 5 6 6 5 6 6 5 5 5 5 6 6 5 6 6 5 5 6 5 5 6 5 5 5 5 5 5 5 5 6 5 5 6 5 5 5 5 6 5 5 5 5 6 5 6 5 5 5 5 5 6 5 5 5 5 5 5 6 5 5 6 5 5 5 5 5 5 5 5 5 6 5 5 6 5 5 5 5 6 5 5 6 5 5 5 5 5 5 5 5 5 5 5 5 5 5 5 5 5 6 5 5 5 6 5 5 5 5 5 5 6 5 5 5 6 5 5 5 5 5 5 5 5 5 5 5 5 5 5 5 5 5 6 5 5 5 5 6 5 5 6 5 5 5 5 5 6 5 5 5 5 5 6 5 5 6 6 5 5 5 5 5 5 5 6 5 5 5 5 5 5 5 6 5 5 5 5 5 5 5 5 5 5 5 5 5 5 5 5 5 5 5 5 5 5 6 6 5 5 5 5 6 5 5 5 5 5 5 5 5 5 5 5 5 6 5 6 5 5 5 5 5 5 5 5 6 5 5 5 5 6 5 5 5 5 5 5 6 5 5 5 5 6 5 6 5 5 5 5 6 5 5 5 6 5 5 5 5 5 5 5 5 5 6 5 5 5 5 6 5 5 5 6 5 5 5 6 5 6 5 5 5 5 5 5 5 5 5 5 5 6 6 5 5 5 5 5 6 5 5 5 5 5 5 5 5 5 5 5 5 5 5 5 5 6 5 5 5 5 6 5 5 5 5 5 5 5 5 5 6 5 5 5 5 5 5 5 6 5 5 5 5 5 5 5 5 6 5 6 6 5 5 5 5 5 5 5 5 5 5 5 5 5 5 5 5 5 5 5 5 5 6 5 5 5 5 5 5 5 5 5 5 6 5 5 6 5 5 5 6 5 5 5 5 5 6 6 5 5 6 5 5 5 5 5 6 5 5 5 6 6 5 5 5 6 5 5 6 6 5 5 5 5 5 5 5 5 5 5 5 5 5 5 5 6 5 5 5 5 5 6 5 5 5 5 6 5 5 5 5 5 5 6 5 5 5 6 5 5 6 6 5 5 5 5 5 5 5 5 6 5 5 5 5 5 5 6 5 5 5 5 5 5 5 5 5 5 5 5 5 5 5 5 5 5 5 5 5 5 5 5 5 5 5 5 5 5 5 5 5 5 6 5 5 6 5 5 5 5 5 5 5 5 5 5 5 5 5 5 5 5 6 5 5 5 5 5 5 5 5 5 5 6 5 5 5 5 5 6 5 5 5 5 5 6 5 5 6 5 5 6 5 5 6 5 5 6 5 5 5 5 5 5 5 5 5 5 5 5 5 5 5 5 5 5 6 5 5 5 5 5 5 5 5 5 6 5 5 5 5 5 6 6 5 5 5 5 5 5 5 5 5 5 5 5 5 5 5 6 5 5 5 5 5 5 5 5 5 5 5 5 5 6 5 5 5 5 5 5 6 5 5 5 5 6 5 5 5 6 5 5 5 5 5 6 5 5 5 5 5 5 5 5 5 5 5 5 5 5 5 5 5 5 5 5 5 5 6 5 5 5 5 6 5 5 5 5 5 5 5 5 5 6 5 5 5 5 5 5 5 5 5 5 6 5 5 5 5 5 6 5 5 5 5 5 5 5 5 6 5 5 6 5 5 5 5 5 5 6 5 5 5 5 5 5 5 5 5 5 6 6 5 5 5 6 5 6 5 5 6 5 5 5 5 5 6 5 6 5 5 6 6 6 5 6 5 5 5 6 5 5 6 5 6 5 5 5 6 5 6 5 5 5 5 6 5 5 5 6 5 5 6 6 6 5 6 5 6 6 5 5 5 5 6 5 5 5 5 5 5 5 5 6 5 6 5 5 5 5 5 5 5 5 5 5 5 5 5 5 6 5 6 5 5 5 5 5 5 5 5 5 6 5 5 6 5 5 5 5 5 5 5 6 5 5 6 5 6 5 6 5 6 5 5 5 5 6 5 6 5 5 5 5 5 5 5 5 5 5 5 5 5 5 5 5 5 5 5 5 5 5 5 5 5 5 5 5 5 6 5 5 5 5 5 5 5 5 5 5 5 6 5 5 6 5 5 5 6 5 5 5 5 6 6 5 5 6 5 5 5 5 5 5 6 5 5 5 5 5 5 5 6 5 5 5 5 5 5 5 6 5 5 5 6 5 5 5 5 5 5 6 5 5 5 5 6 5 5 5 6 5 5 5 5 5 5 5 5 5 5 5 5 5 5 5 5 5 5 5 5 5 5 5 6 5 5 5 5 5 6 5 5 5 5 5 5 5 5 5 5 5 5 5 5 5 5 5 5 5 5 5 5 5 5 5 5 5 5 5 5 5 5 5 5 5 5 5 5 5 5 5 5 5 5 5 5 5 5 6 5 5 5 6 5 5 5 5 6 5 5 5 5 6 5 5 5 5 5 5 5 5 5 5 6 5 5 5 6 5 6 5 5 5 5 5 5 5 5 5 5 5 5 5 5 5 6 5 5 6 6 5 5 5 5 5 6 5 5 6 5 5 5 5 5 5 5 5 5 5 5 5 5 5 5 5 5 5 5 5 5 5 5 5 5 5 5 5 5 5 5 5 5 5 5 5 5 5 5 5 5 6 5 5 5 5 5 5 5 5 5 5 5 5 5 5 5 5 5 5 5 5 5 5 5 5 5 5 5 5 5 5 5 5 5 5 5 6 5 5 5 5 5 5 5 5 5 5 5 6 5 5 5 6 5 6 6 6 6 5 5 5 5 5 5 5 5 5 5 6 5 5 5 6 5 5 5 5 5 5 5 5 5 5 5 5 5 5 5 6 5 6 5 5 6 5 5 6 5 6 6 5 5 6 5 5 5 5 5 5 5 5 5 5 5 5 5 5 5 6 5 5 5 5 5 5 5 6 5 5 5 5 5 5 5 6 5 5 5 5 6 6 5 5 5 5 5 5 5 5 5 5 5 5 5 5 5 5 5 5 5 6 5 5 5 5 5 5 5 5 5 6 5 5 5 5 5 5 6 5 5 5 5 5 5 5 5 5 5 5 5 5 5 5 5 5 5 5 5 5 5 5 5 5 5 5 5 5 5 5 5 6 5 5 5 5 6 5 5 5 5 5 5 5 5 5 5 5 5 5 5 5 5 5 5 5 5 5 5 5 5 5 5 5 5 5 5 5 5 5 5 5 6 5 5 5 5 6 5 5 5 5 5 5 5 6 5 5 5 5 5 5 5 5 5 5 5 5 5 5 5 5 5 6 5 5 5 5 5 5 5 5 5 5 5 5 5 5 5 5 5 5 5 5 5 5 5 6 5 6 5 5 5 5 5 5 5 5 6 5 6 5 5 5 6 5 5 5 5 5 5 5 6 5 5 6 5 5 5 6 5 5 5 5 5 5 5 5 5 5 5 5 5 5 5 5 5 5 6 5 5 5 5 5 5 5 5 5 5 5 5 5 6 5 5 5 5 5 5 5 5 5 5 5 5 5 5 5 5 5 5 5 5 5 6 5 5 6 5 5 5 5 5 5 5 5 6 5 6 6 5 5 5 5 5 5 5 5 6 5 5 5 5 5 5 5 5 5 5 6 5 5 6 5 6 5 6 5 6 6 5 5 6 6 5 5 5 5 5 5 5 5 5 6 5 5 5 5 6 5 5 5 5 5 5 6 5 5 6 5 6 5 5 6 5 6 5 6 5 5 6 5 6 5 5 5 5 5 6 6 5 6 5 5 5 5 6 5 5 5 5 5 5 5 6 5 5 5 6 5 5 5 6 5 5 5 5 5 5 5 5 5 6 5 5 6 6 5 5 5 5 5 5 5 6 5 5 5 5 5 5 5 5 5 5 5 5 5 5 5 5 5 5 5 5 5 5 5 5 5 5 5 5 5 5 5 5 5 5 5 5 5 5 5 5 5 5 5 5 5 5 5 5 5 5 5 5 5 5 5 5 5 5 5 5 5 5 5 5 5 5 5 5 5 5 6 5 5 6 5 5 5 5 5 6 5 5 5 5 5 5 5 5 5 5 5 5 5 5 5 5 5 5 5 5 5 5 5 5 5 5 5 5 5 5 5 5 5 5 5 5 5 5 5 5 5 6 5 6 5 5 5 6 5 5 5 5 5 5 6 5 6 5 5 5 5 5 5 5 5 5 5 5 6 5 5 5 5 5 5 5 5 5 5 5 5 5 5 5 5 5 6 5 5 5 5 5 5 5 5 5 5 6 5 6 5 5 5 5 5 5 5 5 5 5 5 5 5 5 5 5 6 5 5 5 5 5 5 5 5 5 5 5 5 5 5 5 5 5 5 5 5 5 6 5 5 5 5 5 6 5 5 5 6 5 5 6 5 5 5 5 5 6 5 5 5 5 5 5 6 5 5 5 5 5 5 5 6 6 5 5 5 5 5 5 5 5 6 5 5 5 5 5 5 5 5 5 5 5 6 5 5 5 5 5 6 5 6 5 5 5 6 5 5 5 6 6 5 5 5 5 6 5 6 5 5 5 5 6 5 5 5 5 5 5 5 6 5 5 5 6 5 5 5 5 5 5 5 5 5 5 5 5 5 5 5 5 5 5 5 5 5 5 6 5 5 5 6 5 5 6 5 5 5 5 5 5 5 5 5 5 5 5 5 5 5 5 5 5 5 5 6 5 5 5 6 5 5 5 5 5 5 5 5 5 5 5 5 5 5 5 5 5 5 5 5 5 5 5 6 5 6 5 5 5 5 5 5 6 5 5 5 5 5 5 5 5 5 5 5 5 5 5 5 5 5 5 5 5 5 5 5 5 5 5 5 5 5 6 5 5 5 5 5 5 5 5 5 5 5 6 5 5 5 5 6 5 6 5 6 6 5 5 5 5 5 5 5 5 5 5 5 5 5 5 5 5 5 5 5 5 5 5 5 5 5 5 5 5 5 5 5 5 5 6 5 5 6 5 5 6 5 5 6 6 6 5 5 6 5 5 6 5 6 5 5 5 5 6 5 5 5 5 6 5 5 5 5 5 6 5 5 5 5 5 5 5 6 6 5 5 5 5 5 5 5 5 5 5 5 6 5 5 5 5 5 6 5 5 5 5 5 5 6 5 5 5 5 5 5 6 5 5 5 5 5 5 5 5 5 5 5 5 6 5 5 5 5 5 5 6 5 5 6 5 6 5 5 5 6 5 5 6 5 5 5 5 5 6 5 5 5 5 5 5 5 5 5 5 6 5 5 5 5 5 5 6 5 5 5 5 5 5 5 5 5 5 5 5 5 5 5 5 5 5 6 5 5 5 5 5 5 5 5 6 5 5 5 5 5 5 5 5 6 5 5 5 5 6 6 5 5 5 5 5 5 5 6 5 6 5 5 5 5 5 6 5 6 6 5 5 5 6 5 6 6 5 5 5 6 5 6 5 5 5 5 5 5 5 5 6 5 5 6 5 5 6 6 5 5 6 5 6 6 5 6 5 6 5 5 6 6 6 5 5 5 6 5 5 6 5 5 5 5 5 5 5 6 5 5 5 6 6 5 6 5 5 5 5 5 5 5 5 5 5 6 5 5 6 5 5 6 5 5 5 6 6 6 5 5 6 5 6 5 5 5 5 5 5 5 5 6 5 5 5 5 5 5 5 5 5 5 5 5 5 5 5 5 6 5 5 5 5 5 5 5 6 5 5 5 5 6 5 5 6 5 5 6 6 5 5 5 5 5 5 5 5 5 6 5 6 5 6 5 6 6 5 6 5 5 5 6 5 5 5 5 5 5 6 5 5 5 5 5 5 5 5 5 5 6 6 5 5 5 5 5 5 5 5 5 5 6 5 5 5 5 5 5 5 5 5 5 5 5 5 5 5 5 5 5 5 5 6 5 5 5 5 5 6 5 5 5 5 5 5 5 5 5 5 5 5 5 5 5 5 5 5 5 5 6 5 5 5 5 6 5 5 6 5 5 6 6 5 6 5 5 6 5 5 5 5 5 5 5 5 5 5 5 5 5 5 5 5 5 5 5 5 5 5 5 5 5 5 5 5 5 5 5 5 5 5 5 6 5 5 5 5 6 5 5 5 5 5 5 6 6 5 5 5 6 5 6 5 6 5 5 5 5 5 5 5 5 5 5 5 5 5 5 6 5 5 5 5 6 5 5 6 6 5 5 5 6 5 5 5 5 5 6 5 5 6 5 5 6 5 5 5 6 5 5 6 5 5 5 5 5 5 5 5 6 5 5 6 6 5 5 6 5 5 5 5 6 5 5 5 5 5 5 5 5 5 5 5 5 5 5 5 5 6 5 5 5 5 6 5 5 5 5 5 6 6 5 6 5 6 5 5 6 5 5 5 5 5 6 5 5 6 5 5 5 5 5 5 5 5 5 5 6 5 5 5 6 5 5 5 5 6 5 6 5 5 5 5 5 5 5 6 5 5 5 5 5 5 5 5 5 5 5 5 6 5 5 5 5 5 5 5 5 5 5 6 5 6 5 5 6 5 5 5 5 6 5 6 5 6 5 5 5 6 5 6 5 5 6 6 5 5 5 6 6 5 6 5 5 5 5 5 6 5 5 5 5 5 5 6 5 5 5 5 6 5 5 6 5 6 5 5 5 5 5 5 5 5 5 5 5 5 5 5 5 5 5 5 5 5 5 5 5 5 5 5 5 5 5 5 5 5 5 5 5 5 5 5 5 6 5 5 5 5 5 5 5 5 5 6 5 5 5 6 5 5 5 5 5 5 5 5 5 5 5 5 5 5 5 5 5 5 5 5 5 5 5 5 5 5 5 5 5 5 5 6 5 6 5 5 5 5 5 5 5 5 5 5 5 5 5 5 5 5 5 5 5 5 5 5 5 5 5 5 5 5 5 5 5 5 5 5 6 5 5 6 5 5 6 5 6 5 5 6 5 5 6 6 5 5 5 5 5 6 5 5 5 5 5 6 5 5 5 5 5 5 5 5 5 5 5 5 5 5 5 5 5 5 5 5 5 5 5 5 5 5 5 5 5 5 6 5 5 5 5 5 6 5 5 5 5 5 5 5 6 5 5 6 5 5 5 6 6 6 5 5 5 5 6 6 5 5 6 6 5 5 6 5 5 5 6 5 5 6 5 6 5 5 5 5 5 5 5 5 6 6 5 6 5 5 5 5 5 6 5 6 5 6 5 5 5 6 6 5 6 6 5 5 5 5 6 6 5 6 5 6 5 5 5 5 5 5 5 5 5 6 6 5 5 5 5 5 5 5 6 5 5 5 5 6 5 5 5 5 5 5 5 5 5 5 5 5 5 5 6 5 6 6 5 5 5 5 6 5 5 5 6 5 5 5 5 6 6 5 5 6 5 5 6 5 5 5 5 5 6 5 5 5 5 5 5 6 5 6 5 5 5 6 5 5 5 5 5 5 5 5 5 5 5 5 5 5 5 5 5 5 5 5 5 5 5 5 5 5 5 5 5 5 5 5 5 5 5 5 6 6 5 5 5 5 5 5 5 5 5 5 5 5 5 6 5 5 6 5 5 6 5 5 6 5 5 5 5 5 6 5 6 5 5 5 5 5 5 5 5 5 5 5 5 5 5 6 5 5 5 6 5 6 5 5 5 5 5 5 5 5 5 5 5 5 5 5 5 5 5 5 5 5 5 5 5 6 5 5 5 5 5 5 5 5 5 5 5 5 5 5 5 5 5 5 5 5 5 5 6 6 5 5 5 5 5 5 5 5 5 5 5 5 6 5 5 5 5 5 5 5 5 5 6 5 5 5 5 6 5 5 6 5 5 5 5 5 5 5 5 6 5 6 5 5 5 5 5 5 5 5 5 5 5 5 5 6 5 5 5 5 5 5 5 5 5 5 5 5 5 5 5 5 5 5 5 5 6 5 5 5 5 5 5 6 5 5 5 5 5 5 5 5 5 5 5 5 5 5 5 5 5 5 5 5 5 5 5 5 5 5 5 5 6 5 6 5 5 5 5 5 5 5 6 5 5 5 5 6 6 5 6 5 5 5 5 6 5 5 5 5 5 5 5 5 5 6 5 6 6 5 5 5 5 5 5 5 5 5 5 6 5 5 5 5 5 5 5 5 5 5 5 6 5 6 5 5 5 5 5 5 6 5 6 5 5 5 5 5 5 5 5 5 5 5 6 5 5 6 6 5 5 5 5 6 5 6 6 5 5 5 5 6 5 6 5 5 5 5 5 5 5 5 5 5 5 5 5 5 5 5 5 5 5 5 5 6 5 6 5 6 5 6 5 5 5 5 5 5 5 5 5 5 5 5 5 5 5 5 5 5 5 5 5 5 5 5 5 5 5 5 5 5 5 5 5 5 5 5 5 5 5 5 5 5 5 5 5 5 5 5 5 5 5 5 5 5 5 5 5 5 6 5 5 5 5 5 5 5 5 6 5 5 5 5 5 5 6 5 5 5 5 5 5 5 5 5 5 5 6 5 5 5 5 5 5 5 6 6 5 5 6 5 5 5 6 6 6 6 5 5 5 5 5 5 6 5 5 5 5 6 5 5 5 6 5 5 6 6 5 5 5 5 5 5 5 6 5 5 5 5 5 5 5 5 5 5 5 5 5 6 5 5 5 5 5 5 6 5 5 5 5 5 5 5 6 5 5 5 5 5 5 5 5 6 5 5 5 6 5 5 6 5 6 5 5 5 5 5 5 5 5 5 5 6 5 6 5 6 5 5 5 5 5 5 6 5 5 5 5 5 5 6 5 5 5 5 5 5 5 5 5 5 5 5 5 6 6 5 5 5 5 6 5 5 5 6 5 5 6 5 5 6 5 5 5 5 5 6 5 5 5 5 5 6 5 5 5 5 5 6 5 6 5 6 5 5 5 5 5 5 5 5 5 5 6 5 5 5 5 5 5 5 5 5 5 5 5 5 5 6 5 5 5 5 5 6 5 5 6 5 5 5 6 5 5 5 6 5 5 5 5 5 5 5 5 5 5 5 5 5 5 6 5 5 5 5 5 5 5 5 5 5 5 5 5 5 5 5 5 5 5 5 5 5 5 6 6 6 5 5 5 5 6 5 5 5 5 5 5 5 5 5 5 5 5 5 5 5 5 5 5 5 5 5 5 5 5 5 5 5 5 5 5 5 5 5 5 5 5 5 5 6 6 5 5 6 5 5 5 5 5 6 5 5 5 5 6 5 5 5 5 5 6 5 6 5 5 5 6 5 6 5 5 6 6 5 5 5 5 5 5 5 6 5 5 5 5 6 5 5 5 5 5 5 6 5 5 5 5 5 5 5 5 5 6 5 5 5 5 5 5 5 5 5 5 5 5 5 5 5 5 5 6 5 5 5 5 5 5 6 5 5 5 5 5 5 5 6 5 5 5 5 6 5 5 5 5 5 6 5 5 5 5 5 5 6 5 5 6 5 5 5 5 6 5 5 5 5 6 5 5 5 5 5 5 5 5 5 5 5 5 5 5 5 5 5 5 5 5 5 5 5 5 5 5 6 5 5 5 5 6 5 5 5 5 5 5 6 6 5 5 5 5 5 5 5 5 5 6 6 5 5 5 5 5 6 5 5 5 5 5 5 6 5 5 5 6 5 5 6 5 5 6 6 5 5 5 6 6 5 5 5 6 5 5 5 5 5 5 5 5 5 5 5 5 5 5 5 5 5 5 5 5 5 6 5 5 5 5 5 6 6 5 6 5 5 5 6 5 5 5 5 5 5 5 5 5 5 5 5 5 5 5 5 5 5 5 5 5 5 5 5 5 5 5 5 5 5 5 6 5 5 6 5 5 5 5 5 5 5 5 5 5 5 5 5 5 5 5 5 5 5 6 6 5 6 5 5 5 5 5 5 5 5 5 5 5 5 5 5 5 6 5 6 6 5 5 6 5 6 5 6 5 5 5 6 5 5 5 6 6 6 5 5 5 6 5 5 6 5 5 5 6 5 5 5 5 6 5 5 5 5 6 5 5 5 6 6 6 5 5 5 5 5 5 5 5 5 6 5 5 5 5 5 5 5 5 5 5 5 5 5 5 5 5 5 5 6 5 5 5 5 6 5 5 5 5 5 5 5 5 5 6 5 5 5 5 5 5 5 5 5 5 5 5 5 5 5 5 5 5 5 5 6 5 5 5 5 6 5 6 5 5 5 5 5 5 5 5 6 5 5 5 5 5 5 5 5 5 5 5 5 5 5 5 5 5 5 5 5 5 6 5 5 6 5 5 5 5 5 5 5 5 5 5 5 5 5 5 5 5 5 5 5 5 6 5 5 5 5 6 6 5 5 5 5 5 5 5 5 6 5 5 6 5 6 5 5 5 6 6 5 5 6 6 5 5 5 5 6 5 6 5 5 5 5 5 5 5 5 5 5 5 5 5 5 5 5 5 6 5 5 5 6 5 5 5 5 5 6 5 5 5 5 5 5 5 5 6 5 5 5 6 5 5 5 5 5 6 5 6 6 6 5 5 5 5 6 5 5 5 6 5 5 5 5 6 6 5 5 6 5 6 5 6 5 5 5 5 5 5 5 5 5 5 5 6 5 5 6 5 6 6 5 6 6 5 5 6 5 5 5 6 5 6 5 5 5 6 5 5 6 5 6 5 5 5 5 5 5 5 5 5 5 5 5 5 5 5 5 5 5 5 5 5 5 5 5 5 5 5 5 5 6 5 5 5 5 5 6 6 6 5 5 5 5 6 5 5 5 5 5 5 5 5 5 5 5 5 5 5 5 5 5 5 5 5 5 5 5 5 5 5 5 5 5 5 5 5 5 5 5 5 5 5 5 5 6 5 5 5 5 6 5 5 5 5 5 5 5 5 5 5 5 6 6 5 5 5 5 5 5 6 5 6 5 5 5 5 5 5 5 5 5 5 5 5 5 5 5 5 5 5 5 5 6 5 5 5 5 6 6 5 6 5 5 5 5 5 5 5 5 5 5 5 5 5 5 5 5 5 5 5 5 5 5 5 5 6 5 5 5 5 5 5 5 5 5 5 5 5 5 5 5 5 5 5 5 5 5 5 5 5 5 5 5 5 6 5 5 5 5 5 5 5 5 5 5 5 5 6 5 5 5 5 5 5 6 5 5 5 5 6 6 6 5 5 5 5 5 5 5 5 5 5 6 5 5 5 5 5 5 5 5 5 5 5 5 5 5 5 6 5 5 5 5 6 5 5 5 6 5 5 5 5 5 5 5 6 5 5 5 6 5 5 5 5 5 6 6 5 5 5 6 6 5 5 5 5 6 5 6 5 6 5 6 5 5 6 6 5 6 5 5 6 5 5 6 5 5 6 5 6 5 6 5 5 6 5 5 6 5 6 6 5 6 5 5 5 6 5 5 5 5 5 5 5 5 5 5 5 6 5 5 5 5 5 5 5 5 5 5 5 5 5 5 5 5 5 5 6 5 5 5 6 5 5 6 5 6 5 5 5 6 5 6 5 6 5 5 6 5 5 5 5 5 6 5 6 5 5 5 5 5 5 5 5 5 5 6 5 6 5 5 5 5 6 5 5 6 5 6 6 5 5 5 5 5 5 6 5 5 6 5 5 5 5 6 5 5 5 6 6 5 5 5 6 5 6 5 5 5 5 5 5 5 5 5 6 5 5 6 5 5 5 5 5 5 5 5 5 5 5 5 5 5 5 5 5 5 5 5 5 5 5 5 5 5 5 5 5 5 5 5 5 5 5 5 5 5 5 5 5 5 5 5 5 5 5 5 5 5 5 5 5 5 5 5 5 5 5 5 5 5 5 5 5 5 5 5 5 5 5 5 5 5 5 5 5 5 5 5 5 5 5 5 5 5 5 6 5 5 5 5 5 5 5 5 5 6 5 6 5 5 5 5 5 5 5 5 5 5 5 5 5 5 5 5 5 5 5 5 5 5 5 5 5 5 5 5 5 5 5 5 5 5 5 5 5 5 5 5 5 5 5 5 5 5 5 5 6 5 5 5 6 5 6 5 6 5 5 5 5 5 5 5 5 5 5 5 5 5 5 6 6 6 5 5 6 5 5 5 5 5 5 5 5 6 5 6 5 6 5 5 5 6 5 5 5 5 6 5 5 5 5 5 5 5 5 5 5 5 5 5 5 5 5 5 5 5 5 6 5 5 6 5 5 5 5 5 5 5 5 5 5 6 6 5 5 5 5 5 5 5 5 5 5 5 5 5 5 6 5 5 5 5 6 5 5 5 5 5 5 5 5 5 5 5 6 5 5 5 5 5 5 5 5 5 5 5 5 5 5 5 5 5 5 5 5 6 5 5 5 5 5 6 6 5 5 5 5 5 5 5 5 5 5 5 5 5 5 5 5 5 6 6 5 6 5 5 5 5 5 5 5 5 5 6 5 6 5 6 5 5 6 6 6 5 5 6 5 5 6 5 6 5 5 5 5 5 5 6 5 5 5 5 6 5 5 5 5 5 5 5 5 5 5 5 5 5 5 5 5 5 5 5 5 5 5 5 5 5 5 5 5 5 5 5 5 5 5 5 5 5 5 5 5 5 5 5 5 6 5 5 5 6 5 5 5 5 5 5 5 5 5 5 5 5 5 5 5 5 5 5 5 6 5 5 5 5 6 5 5 5 5 5 5 5 5 5 5 6 5 5 5 5 6 6 6 5 5 6 5 5 6 5 5 5 5 5 5 5 5 5 6 5 5 5 5 5 6 5 5 5 5 5 6 5 5 5 5 5 5 6 6 5 5 6 5 5 6 5 5 5 6 5 5 5 5 5 5 6 5 6 6 5 5 5 5 5 5 5 6 6 5 5 5 5 5 5 6 5 5 6 5 5 5 5 5 5 5 5 5 5 6 5 6 5 5 5 5 6 5 5 5 5 5 5 5 5 5 5 5 5 6 5 5 5 5 5 6 5 5 5 5 6 5 5 5 6 5 6 5 5 6 5 6 5 5 5 6 6 6 5 6 5 6 6 5 6 5 6 5 6 5 6 5 5 5 6 5 5 6 6 5 5 5 6 6 6 6 5 5 5 6 5 6 6 5 6 5 5 5 6 5 5 5 5 6 5 5 5 6 6 5 5 5 5 5 5 6 5 5 5 5 5 5 5 5 5 5 5 5 5 5 5 5 5 5 5 5 5 5 5 5 6 6 5 5 5 5 5 5 5 6 6 5 6 5 5 5 6 5 5 5 5 5 5 5 5 5 6 6 5 5 6 5 5 5 6 5 5 5 5 6 5 5 5 5 5 6 6 5 5 6 5 5 6 5 5 6 5 5 5 5 5 5 6 5 6 5 5 6 5 6 5 6 5 5 5 6 5 6 5 6 5 5 6 5 5 6 5 6 6 5 5 6 6 5 6 5 5 5 5 5 5 6 6 5 5 5 5 5 6 5 5 5 5 6 5 5 6 5 5 5 5 5 6 5 5 5 5 5 5 5 5 5 5 5 5 5 5 5 6 5 5 5 5 5 5 5 5 6 5 6 5 5 5 5 5 6 5 6 5 5 6 5 5 6 5 5 6 5 5 5 5 5 5 5 5 6 5 5 5 5 5 5 5 5 5 5 5 5 5 5 5 6 5 5 5 5 5 5 5 6 5 5 6 5 5 5 5 6 5 5 5 5 5 5 5 5 5 5 5 5 5 6 5 5 5 5 6 5 5 5 5 5 5 6 6 5 5 5 5 5 6 5 6 5 5 5 5 5 5 6 5 5 6 5 5 5 5 5 5 5 5 5 6 5 5 5 5 6 5 5 5 5 5 5 5 5 6 5 6 5 5 6 5 5 6 5 5 5 5 5 5 5 5 5 5 6 5 5 5 5 5 5 5 5 5 5 5 5 5 5 5 5 5 5 5 5 5 5 5 5 5 5 5 5 5 5 5 5 5 5 5 5 5 5 5 5 5 5 5 5 5 5 5 5 5 5 6 5 5 6 6 5 6 5 5 5 6 5 5 5 5 5 5 5 5 5 5 5 5 6 5 6 5 5 5 5 5 5 5 5 5 5 5 5 5 5 5 5 5 5 5 5 5 5 5 5 5 5 5 5 5 5 6 5 5 5 5 5 5 6 5 5 6 5 5 5 6 5 5 6 5 5 5 6 6 6 5 5 6 5 6 6 5 5 6 5 5 6 5 5 6 5 6 5 6 6 5 5 6 6 6 5 5 5 5 5 5 5 5 5 6 5 5 5 5 5 5 5 5 5 5 5 5 6 6 6 5 6 5 6 6 5 5 5 6 6 6 5 5 5 5 6 6 6 5 5 5 5 5 5 5 6 5 6 5 5 6 5 6 5 5 5 5 5 5 5 5 5 6 5 5 5 5 5 5 5 5 5 5 5 5 5 5 5 5 5 5 5 5 5 5 5 5 5 5 6 5 5 5 5 5 5 5 5 5 5 5 5 5 5 5 5 5 5 5 5 5 6 5 5 5 5 5 5 6 5 5 6 5 5 6 5 5 5 5 5 5 6 5 5 5 5 5 5 5 5 6 5 5 5 5 6 5 5 5 5 5 5 5 5 5 5 5 5 5 5 5 5 5 5 5 5 5 5 5 5 5 5 5 5 5 5 5 5 5 5 5 5 5 5 5 5 5 5 5 5 5 5 5 5 5 5 5 5 5 5 6 5 5 5 6 5 5 5 5 5 5 5 5 5 5 5 6 5 5 5 6 5 5 5 5 5 5 5 5 5 5 5 6 5 5 5 5 5 6 6 5 5 5 5 5 6 5 5 5 5 5 5 5 5 5 5 5 5 5 5 5 5 5 5 5 6 5 5 5 5 6 6 5 5 5 5 5 5 6 5 5 5 5 5 5 5 6 5 5 5 5 5 5 6 6 5 5 5 6 5 6 5 5 5 5 5 5 5 5 5 6 5 5 5 5 5 5 5 5 5 5 6 5 5 5 5 5 5 5 5 5 5 5 5 5 5 5 6 6 5 5 5 5 6 5 5 6 5 5 5 5 5 5 5 5 5 5 5 5 5 5 6 5 5 5 5 5 5 6 5 5 5 5 5 5 5 5 5 5 5 5 5 5 5 5 5 6 5 5 5 5 5 5 5 5 6 5 5 5 5 5 5 5 5 5 5 5 6 5 5 5 5 6 5 5 5 5 5 5 5 5 6 5 5 5 5 6 5 6 6 5 6 5 5 6 5 5 5 5 5 5 5 5 5 5 5 5 5 5 5 5 6 6 5 5 5 5 5 5 5 6 5 5 6 6 5 5 5 5 6 6 5 5 6 5 5 6 5 5 5 5 5 5 6 6 5 5 5 5 5 5 6 5 5 6 5 5 5 5 5 5 6 5 5 5 6 6 6 6 6 5 5 5 6 5 5 5 5 6 5 5 5 5 5 5 5 5 5 5 5 5 5 5 5 5 5 5 5 5 5 5 6 5 5 5 5 5 5 5 5 5 6 5 5 5 6 5 5 6 5 5 5 5 5 5 5 5 5 5 5 5 5 5 5 6 5 6 5 5 5 5 5 6 5 5 5 5 6 5 6 5 5 5 5 5 5 5 5 5 5 5 5 5 6 5 5 5 5 5 5 5 5 5 5 5 5 5 5 5 5 5 5 5 5 5 5 5 5 6 5 6 5 6 5 5 5 5 5 5 5 5 5 5 6 5 6 5 5 5 5 6 5 5 5 5 6 5 5 5 5 5 6 5 5 6 5 5 5 5 5 5 5 5 5 5 6 5 6 5 5 5 5 5 5 5 5 5 5 5 5 5 5 5 5 5 5 5 5 5 5 5 5 5 5 5 5 5 5 5 5 5 5 6 5 6 5 5 6 5 5 5 5 6 5 5 5 5 5 5 5 5 5 5 5 5 5 5 5 5 5 5 5 5 6 5 5 5 5 5 5 5 5 5 5 5 5 5 5 5 5 5 5 6 6 5 6 5 5 5 5 5 5 5 5 5 5 5 5 5 5 5 5 5 5 5 5 5 5 5 5 5 5 5 5 6 5 5 5 5 5 5 6 5 5 6 5 6 5 5 6 5 5 5 5 5 5 5 5 6 5 5 5 5 6 5 5 5 5 6 5 6 5 5 5 5 5 6 5 5 5 5 5 5 6 6 5 5 5 5 5 6 5 6 5 5 5 5 5 5 5 5 5 5 5 5 5 5 5 5 5 5 5 5 6 5 5 5 5 5 5 6 5 5 5 6 6 5 5 5 5 5 5 5 5 5 5 5 5 5 5 5 5 5 5 5 5 5 5 5 5 5 5 6 5 5 5 5 6 5 5 6 5 5 5 5 5 5 5 5 5 5 5 6 5 5 5 5 5 5 5 5 5 5 5 5 5 5 5 5 5 5 5 6 5 6 5 5 5 6 5 5 5 6 5 5 5 6 6 5 5 5 6 5 5 5 6 5 5 6 5 6 5 5 5 6 5 6 5 5 6 6 6 6 5 5 5 6 6 6 6 5 5 5 5 5 6 5 5 6 5 5 5 5 6 5 5 6 5 5 6 5 5 5 5 5 6 5 5 5 5 6 5 5 5 5 5 5 5 5 5 5 5 5 5 6 5 5 5 5 5 5 6 5 6 5 6 5 5 5 5 5 5 5 5 5 5 5 5 5 6 5 5 5 5 5 5 5 5 5 5 5 5 5 5 5 5 5 5 5 5 5 5 5 6 5 5 5 5 5 5 5 5 5 5 5 6 5 5 5 5 5 5 5 5 6 5 5 5 5 5 5 5 5 5 5 5 5 5 5 5 6 5 5 5 5 5 6 5 6 5 5 5 6 6 5 6 5 5 6 5 5 5 5 5 5 6 5 5 5 6 5 5 5 5 5 5 5 6 6 5 5 6 5 6 5 5 5 6 5 5 6 5 5 6 6 6 5 5 6 5 5 5 5 5 5 5 6 5 5 5 5 6 5 5 5 5 5 5 5 6 5 5 5 5 5 6 5 5 5 6 5 5 5 5 6 6 6 5 5 6 6 5 6 5 5 5 5 6 5 5 5 5 5 5 6 6 5 5 5 5 5 5 6 5 5 5 5 5 5 6 5 6 5 5 5 6 5 5 5 6 5 5 5 5 6 5 6 5 5 5 5 6 5 5 6 5 5 6 5 5 5 5 6 5 5 5 5 5 5 5 5 6 5 5 5 5 5 5 5 5 5 5 5 5 5 5 5 5 5 5 5 5 6 5 5 5 5 5 5 5 6 5 6 5 5 5 5 5 5 5 5 5 6 5 6 5 6 5 5 5 6 5 5 5 5 5 5 5 5 6 5 5 5 5 5 5 6 5 5 5 5 6 5 5 5 5 5 5 5 5 5 5 6 6 5 5 5 5 5 5 5 5 5 5 5 5 5 5 5 5 5 5 5 5 5 5 5 5 5 5 5 6 5 5 5 5 5 5 5 5 5 5 5 6 5 5 5 5 5 6 6 5 5 5 5 5 5 5 5 5 5 5 5 5 6 5 5 5 5 5 5 5 5 5 6 5 5 6 5 6 5 5 5 5 5 5 6 5 6 5 6 5 5 6 5 5 5 5 6 5 5 5 5 5 5 5 5 5 5 5 5 6 5 5 5 6 5 5 5 5 5 5 5 5 5 6 5 5 5 5 6 5 5 5 5 5 5 6 5 5 5 5 5 5 5 5 5 5 5 5 5 5 5 5 5 5 5 5 5 5 6 5 5 5 5 5 6 5 5 6 5 5 5 5 5 6 6 5 5 5 5 5 5 5 6 5 5 5 5 6 5 5 5 5 5 5 5 6 5 5 5 6 5 6 5 5 6 5 5 6 6 5 6 5 5 5 6 5 6 5 6 5 5 5 5 5 5 6 6 5 5 5 5 5 5 5 5 5 5 6 6 5 5 5 5 5 5 5 5 6 6 5 5 6 5 6 5 5 5 5 5 5 5 6 5 6 5 5 5 5 5 5 6 5 5 5 6 5 5 5 5 5 6 5 5 5 5 5 5 5 5 5 5 6 6 5 5 6 5 5 5 6 5 5 6 5 5 5 5 5 5 5 5 6 5 5 5 5 5 5 5 5 5 5 5 5 5 5 5 5 5 5 5 5 6 5 6 6 5 5 5 6 5 6 5 5 5 5 5 5 5 6 5 5 5 5 6 5 5 5 5 5 6 5 5 5 5 6 5 6 5 5 5 5 6 5 5 5 5 6 5 5 5 5 5 5 5 5 5 5 6 5 5 5 5 5 5 5 5 5 5 5 5 5 5 5 5 5 5 5 5 5 5 5 5 5 5 5 5 5 5 5 5 5 6 5 5 6 5 5 5 6 6 6 5 6 6 6 5 5 5 6 6 5 5 5 5 5 5 6 5 5 6 5 6 5 5 5 5 5 6 5 5 5 5 5 5 5 5 5 5 5 5 5 5 5 5 5 5 5 5 5 5 6 5 5 6 5 5 6 5 5 5 5 6 5 6 5 5 6 5 5 5 5 5 6 5 5 5 5 5 5 5 6 5 5 5 5 5 6 5 5 6 5 6 5 5 5 5 5 5 5 5 5 6 6 6 5 5 6 5 5 5 5 5 5 5 5 5 5 6 5 5 5 5 5 5 5 5 5 6 5 5 5 5 5 6 5 6 5 5 5 5 5 5 6 6 5 5 5 5 5 5 6 5 5 5 5 5 5 5 5 6 5 5 6 6 5 5 5 5 5 5 5 5 5 5 5 6 5 5 5 5 5 5 5 5 5 5 5 5 5 5 5 5 5 5 6 5 5 5 5 5 5 5 5 5 6 5 5 5 6 6 5 5 6 5 5 5 5 5 5 5 5 5 5 5 5 5 5 5 5 5 5 5 6 5 5 5 6 5 5 5 5 5 5 6 5 5 5 5 6 5 5 5 5 6 5 5 5 5 5 5 5 5 5 5 5 5 5 6 5 5 5 5 5 5 5 6 6 5 5 5 6 6 5 5 6 6 6 5 5 5 6 5 5 5 5 5 5 6 5 5 6 5 5 6 5 5 6 5 6 6 5 5 5 5 5 6 5 6 5 5 6 5 5 5 6 5 5 5 5 5 5 5 5 5 5 5 5 6 5 6 5 5 5 5 6 6 5 6 5 5 5 6 5 5 5 6 5 5 5 6 5 6 5 5 6 6 5 5 6 5 5 5 5 6 5 5 5 5 5 6 5 6 6 5 5 5 5 5 6 5 5 6 6 6 5 6 5 6 5 5 5 6 5 5 5 5 6 5 5 5 6 5 5 5 5 5 5 5 6 5 5 6 5 5 5 6 5 5 5 6 5 6 5 5 5 5 6 5 5 5 5 5 5 5 5 5 5 5 5 5 5 5 5 6 5 5 5 5 5 6 5 5 6 5 5 5 6 6 6 5 5 5 5 6 5 5 5 5 6 5 5 5 6 5 5 5 6 5 5 5 5 6 5 5 5 5 5 5 6 5 5 5 5 5 6 5 5 5 5 5 5 5 5 6 5 5 6 5 5 5 5 5 6 5 5 5 5 5 5 5 5 5 6 5 5 5 6 5 5 5 5 5 5 5 6 6 5 5 5 5 5 6 5 5 5 5 5 5 6 5 5 5 6 5 5 5 5 6 5 5 5 5 5 5 5 5 5 5 5 5 5 5 5 5 5 5 5 5 5 5 5 5 5 5 6 6 5 5 6 5 5 6 5 5 5 5 5 5 5 5 5 5 5 6 5 5 5 6 5 5 5 5 6 6 5 5 6 5 5 5 5 5 5 5 5 6 5 5 5 5 5 6 6 5 5 5 5 5 5 5 6 5 5 5 5 5 5 5 5 5 5 5 5 5 6 5 5 5 5 6 5 6 5 5 5 5 5 5 5 5 5 5 5 6 5 5 5 5 5 5 5 5 5 5 6 5 5 5 5 6 5 5 5 5 5 5 5 5 5 5 5 5 5 5 5 5 5 5 5 5 5 6 5 5 5 5 5 6 5 5 6 5 5 5 5 5 5 5 5 5 5 5 5 5 5 5 6 5 5 5 5 5 5 5 6 5 5 5 5 5 5 5 5 5 6 5 5 5 5 5 5 5 5 5 6 5 5 5 5 5 5 6 5 5 5 5 6 5 5 5 5 5 5 5 5 5 5 5 5 5 5 5 6 5 5 6 5 6 5 5 5 5 5 5 5 5 5 5 5 5 5 5 5 6 5 5 5 5 5 5 6 5 5 5 5 5 5 5 5 5 5 5 5 5 5 5 5 5 5 5 6 5 5 6 5 5 5 5 5 5 6 5 6 5 5 6 5 5 5 5 5 6 5 5 5 5 5 6 5 5 5 5 5 5 6 5 5 5 5 5 5 6 5 5 6 5 5 5 5 6 5 5 5 5 5 6 5 5 5 5 5 5 5 6 5 5 5 5 5 5 5 6 5 5 5 5 5 5 6 5 5 5 5 5 5 5 5 5 5 5 6 5 5 5 5 6 6 5 5 6 5 5 5 5 5 5 6 5 5 5 5 5 5 5 5 5 5 5 5 5 5 5 5 5 5 6 5 5 5 5 6 5 5 6 5 5 5 5 5 5 5 5 5 5 5 5 5 5 5 5 5 5 5 6 6 5 5 5 5 5 5 6 5 6 5 5 5 5 5 5 5 5 5 5 5 5 5 5 5 5 5 5 5 5 5 5 5 5 5 5 5 5 5 5 5 6 5 5 5 6 5 5 5 5 6 5 5 5 5 5 6 5 5 5 5 5 5 5 5 5 5 5 5 5 5 5 5 5 5 5 5 5 5 5 5 5 5 5 5 6 5 6 5 5 5 5 5 5 5 5 6 5 5 5 5 6 5 5 5 5 5 5 5 5 5 5 5 6 5 5 5 5 5 5 5 5 5 5 5 5 5 5 5 5 5 5 6 5 5 5 5 5 5 5 5 5 5 5 5 5 5 5 5 5 5 5 5 5 5 5 5 6 5 5 5 5 5 5 5 5 5 5 5 5 5 5 5 5 5 5 5 5 5 5 5 5 5 5 5 5 5 6 5 5 5 5 5 5 6 5 6 5 6 5 5 6 5 5 6 6 5 5 6 5 6 5 5 6 5 5 6 5 5 5 5 5 5 5 5 5 5 5 5 5 6 6 6 5 5 5 6 5 5 5 5 5 5 5 5 5 5 5 5 5 5 6 5 5 5 5 5 5 5 5 5 5 5 5 5 6 6 5 5 5 5 5 5 5 5 5 5 5 5 5 5 6 5 5 6 5 5 6 6 5 6 5 5 5 6 5 5 5 5 5 5 5 6 5 5 5 5 5 6 6 5 5 6 5 5 5 5 5 5 5 5 5 5 5 5 5 5 5 5 5 5 6 6 5 6 5 5 6 5 5 5 5 5 5 5 6 5 5 5 5 5 5 5 5 5 5 6 5 5 6 5 6 5 5 5 5 5 5 5 5 5 5 5 5 5 5 5 5 5 5 5 5 5 6 5 5 5 5 5 5 5 5 5 5 5 5 5 5 5 5 5 5 5 5 5 5 5 5 5 5 5 5 5 5 5 5 5 5 5 5 5 5 5 5 5 5 5 5 5 5 5 5 5 5 5 5 5 5 5 5 5 5 5 5 5 6 5 5 6 5 5 5 6 5 5 5 5 5 5 5 6 5 5 5 5 5 5 5 5 5 5 6 5 5 5 5 5 6 6 5 6 5 5 6 5 6 5 5 5 5 5 5 6 5 5 5 5 5 6 6 5 5 5 5 5 6 6 5 5 5 5 5 5 5 5 5 5 5 5 5 5 5 5 5 5 5 5 5 5 5 5 5 5 5 5 5 5 5 5 5 5 5 5 5 5 5 5 5 5 5 5 6 5 5 5 5 5 5 5 5 5 5 5 5 5 5 5 5 6 5 5 6 5 5 5 5 6 5 6 5 6 5 5 6 5 5 5 5 5 6 5 5 5 5 5 6 5 5 5 5 5 6 6 5 6 5 5 6 5 5 5 5 6 6 5 5 5 5 5 5 5 5 6 5 5 5 6 5 5 5 5 5 5 5 5 6 5 5 5 5 5 6 5 5 6 5 5 5 5 5 5 5 5 5 5 5 5 5 5 6 5 5 6 5 5 6 5 5 5 5 6 5 5 5 5 6 5 5 5 5 5 5 5 5 5 5 5 6 5 6 5 5 6 5 5 5 5 6 5 5 5 5 5 5 5 5 6 6 5 5 6 6 5 5 5 5 5 5 6 5 5 5 5 5 5 5 5 5 5 5 5 5 5 5 5 5 5 5 6 5 5 5 5 5 5 5 5 6 5 5 5 5 6 5 5 5 5 5 5 5 5 6 5 5 5 6 5 6 6 5 5 5 6 6 5 6 5 5 5 5 5 5 5 5 5 5 5 6 5 5 5 5 5 5 5 6 5 5 5 5 5 5 6 5 5 6 5 6 5 5 5 5 5 5 5 5 5 5 5 5 5 5 5 5 5 6 5 5 5 5 5 5 5 5 5 5 5 5 5 5 5 5 5 5 5 5 5 5 5 5 5 5 5 5 5 5 5 6 5 5 5 5 5 5 5 5 5 5 5 5 5 5 6 6 5 6 5 5 5 6 6 5 5 5 5 6 5 5 5 5 5 5 5 5 5 5 5 5 5 6 5 5 5 5 6 5 6 5 5 5 5 5 5 6 5 5 5 5 5 5 6 5 5 6 6 5 5 5 5 5 5 5 5 5 5 5 5 5 5 5 5 5 5 6 6 5 5 5 5 5 5 6 5 5 5 6 5 5 5 5 5 5 6 5 5 5 5 5 5 5 5 5 5 5 6 5 5 5 5 5 5 6 5 5 5 5 5 5 5 5 5 5 6 5 5 5 5 5 5 5 5 5 5 5 5 5 5 5 5 5 5 6 6 5 5 6 5 5 5 5 5 5 5 5 5 5 5 5 5 6 5 6 5 5 5 5 5 5 5 5 5 5 5 5 5 6 5 5 5 5 5 5 5 5 5 5 5 5 5 6 5 5 5 5 6 5 5 5 5 5 5 6 5 5 5 5 5 5 5 5 5 5 5 5 5 5 5 5 5 5 5 5 5 5 5 5 5 5 5 5 5 5 5 5 5 5 5 5 6 5 5 5 5 6 5 5 5 5 5 5 5 5 5 5 5 6 5 5 5 6 5 5 5 5 5 5 5 5 5 5 5 5 5 6 5 5 6 5 5 5 5 5 5 5 5 5 5 6 5 5 6 5 5 5 6 5 
</DataArray>
<DataArray type="Float64" Name="stress" NumberOfComponents="9" format="ascii">
-1.8257029842461634 1436.2243003215626 0 1436.2243003215626 -613.70888786858995 0 0 0 0 -264.73873302495485 1633.7228291829379 0 1633.7228291829379 -31.223694181215251 0 0 0 0 -4390.0692653679725 3338.5230306700541 0 3338.5230306700541 6.5817375159825326 0 0 0 0 -5.0198968393055594 9.2834811596983258 0 9.2834811596983258 -8.2400841667452482 0 0 0 0 -266.95308575940362 1686.1768909212406 0 1686.1768909212406 545.58882834490214 0 0 0 0 -2197.9068397449082 1969.8330029535791 0 1969.8330029535791 -3091.0943462278083 0 0 0 0 -3498.6794073645433 1066.6507981215545 0 1066.6507981215545 546.78657284804649 0 0 0 0 -4195.881034457052 2898.3766963123198 0 2898.3766963123198 -1488.8287365181241 0 0 0 0 -6.7306127478365596 12.157844608186906 0 12.157844608186906 -12.600606311703245 0 0 0 0 2357.5937327075953 414.82746542422319 0 414.82746542422319 -1054.5420038774355 0 0 0 0 471.45987632801916 1295.6761621956393 0 1295.6761621956393 304.46088809747016 0 0 0 0 -10.0052416667382 20.407030259904715 0 20.407030259904715 -21.803391760983288 0 0 0 0 -563.34088287009217 323.20326148138702 0 323.20326148138702 303.02500450253319 0 0 0 0 -2097.1848737476012 1179.4234510825718 0 1179.4234510825718 779.36850072978996 0 0 0 0 -311.01665912158933 554.29818449093 0 554.29818449093 590.28998346596745 0 0 0 0 1479.6197621960491 1267.8853094985861 0 1267.8853094985861 -0.081243469307082705 0 0 0 0 -247.96160581414006 944.48924029713089 0 944.48924029713089 199.53646514091452 0 0 0 0 -1113.1760712892647 1643.9637783608487 0 1643.9637783608487 282.27164192090277 0 0 0 0 -1147.1820767159879 1929.403790125245 0 1929.403790125245 -192.02144592470722 0 0 0 0 -1007.6720606956733 1588.6494268279566 0 1588.6494268279566 0.99737693650240544 0 0 0 0 -682.08634755985986 1720.6147990117643 0 1720.6147990117643 -204.81607868408901 0 0 0 0 -477.26702324698272 1514.559172942787 0 1514.559172942787 -0.22866664636967471 0 0 0 0 -722.14961945161485 1623.8695393519156 0 1623.8695393519156 -0.27236277125171843 0 0 0 0 -301.08614321741334 1604.4181768723429 0 1604.4181768723429 -454.60042879830144 0 0 0 0 151.66456841321633 1347.1000349358001 0 1347.1000349358001 -639.12944739044906 0 0 0 0 -106.49009312913768 1482.4250784171854 0 1482.4250784171854 -398.95358900995052 0 0 0 0 -423.4298336613283 1929.0942237766358 0 1929.0942237766358 -847.13156877207803 0 0 0 0 -576.79510643886169 1800.839575111102 0 1800.839575111102 -395.06423779102624 0 0 0 0 -108.04328420189267 1995.9539554427975 0 1995.9539554427975 -1566.5959785136729 0 0 0 0 255.86552127604955 1400.1718119650614 0 1400.1718119650614 -759.24663229285761 0 0 0 0 80.603722555413697 1287.8747941546426 0 1287.8747941546426 -386.92592560643971 0 0 0 0 -1145.5397918516974 2035.7087850221214 0 2035.7087850221214 -710.37532964244019 0 0 0 0 -1833.4821076964672 2324.5917128417541 0 2324.5917128417541 -338.31085150534636 0 0 0 0 -1185.1821371945989 2173.7036121272758 0 2173.7036121272758 -623.24665836220083 0 0 0 0 -3099.0088784325199 3063.5690523538869 0 3063.5690523538869 -1241.384235010315 0 0 0 0 -2.6726007378684642 -2.3245427524956881 0 -2.3245427524956881 -23.062862253546712 0 0 0 0 349.86696292899433 2238.8971344709425 0 2238.8971344709425 -3798.494327747394 0 0 0 0 482.35746016183111 -489.6422272709533 0 -489.6422272709533 -532.44427014805842 0 0 0 0 410.38174987760431 599.07821431178309 0 599.07821431178309 -3318.5294114507597 0 0 0 0 -60.736749102990871 1749.1155812717225 0 1749.1155812717225 -2159.0372640152345 0 0 0 0 280.65116014189698 1088.2443546364011 0 1088.2443546364011 -892.05984395208361 0 0 0 0 126.15610252771876 80.433078186120838 0 80.433078186120838 -760.27291115814296 0 0 0 0 30.426143475357094 -61.065099500257929 0 -61.065099500257929 188.10459424403234 0 0 0 0 -152.8169488231506 257.59333378659358 0 257.59333378659358 921.10644511556893 0 0 0 0 114.31454290796228 541.61261603657397 0 541.61261603657397 -297.1844915773836 0 0 0 0 237.05438439772115 402.5228021964358 0 402.5228021964358 -420.98012455820572 0 0 0 0 -139.47134911733156 456.06218885909038 0 456.06218885909038 43.788499258240336 0 0 0 0 530.71514081718487 862.00464387978718 0 862.00464387978718 -460.03377948202251 0 0 0 0 281.27437373464636 926.58224787599465 0 926.58224787599465 154.28183826601889 0 0 0 0 293.51670172806189 1111.0924849005532 0 1111.0924849005532 -865.86707278560789 0 0 0 0 256.19712061525206 759.38997018435475 0 759.38997018435475 85.443844304420054 0 0 0 0 227.28290358241065 94.656298455687647 0 94.656298455687647 1097.3108572247002 0 0 0 0 232.78079908109794 455.95199260538357 0 455.95199260538357 300.26120194412215 0 0 0 0 107.84718571230223 283.67094567294237 0 283.67094567294237 167.36890448405757 0 0 0 0 -124.51179076949484 686.70435032453679 0 686.70435032453679 2256.7541603918944 0 0 0 0 442.1201642723754 908.25701866540476 0 908.25701866540476 175.30456821269036 0 0 0 0 588.88885518132884 1133.8510814740876 0 1133.8510814740876 1024.8546088749717 0 0 0 0 476.85104268072701 499.63369120334164 0 499.63369120334164 529.65350401384057 0 0 0 0 6.6331606199653947 6.894797194066598 0 6.894797194066598 0.78039629291263513 0 0 0 0 403.22362679621438 271.69906978504878 0 271.69906978504878 -996.63752096494136 0 0 0 0 -47.854080201272154 396.96249291600543 0 396.96249291600543 -173.30562473504688 0 0 0 0 270.20948882048833 801.44200009346241 0 801.44200009346241 -286.60885195006267 0 0 0 0 172.25056840195793 244.98957343986513 0 244.98957343986513 -387.16929444482957 0 0 0 0 -161.53854899630824 -348.06956517504295 0 -348.06956517504295 -70.374507756867388 0 0 0 0 -80.641726132569602 85.001157995153335 0 85.001157995153335 -341.68896905200381 0 0 0 0 -63.222833693522261 33.290052514901618 0 33.290052514901618 -626.69186164574057 0 0 0 0 -289.20989483423182 247.82328022184083 0 247.82328022184083 592.33050695918791 0 0 0 0 142.45556162706634 190.2223544883891 0 190.2223544883891 -987.93223102885531 0 0 0 0 -2.0487976217817732 4.6279517055489805 0 4.6279517055489805 -0.9259235568287707 0 0 0 0 49.277598571454291 424.93403670503903 0 424.93403670503903 -712.94316840174724 0 0 0 0 25.984959030844038 249.38423088111449 0 249.38423088111449 250.60094145261974 0 0 0 0 30.875025682726118 140.28820350061687 0 140.28820350061687 -204.51851365390758 0 0 0 0 32.509596984302163 20.202946764214573 0 20.202946764214573 -16.833123517809462 0 0 0 0 19.314687972539218 13.293411471260441 0 13.293411471260441 2.4329566416100397 0 0 0 0 -77.72435679238697 8.5143243981074193 0 8.5143243981074193 141.43471699247311 0 0 0 0 -5.2863188939809334 90.907224818154646 0 90.907224818154646 -332.8681250205118 0 0 0 0 -3.823588171515155 6.2201477394887092 0 6.2201477394887092 1.0522597776650073 0 0 0 0 -38.22217643399199 107.71101342842303 0 107.71101342842303 -336.67433855672425 0 0 0 0 -32.671358234874788 46.068304156899103 0 46.068304156899103 -115.63242676879327 0 0 0 0 -0.14212351880303231 15.453588270301395 0 15.453588270301395 -20.590043945029947 0 0 0 0 1.3316638188553043 27.037933793260891 0 27.037933793260891 -195.96244211684098 0 0 0 0 61.919149493482109 2.8216514990344876 0 2.8216514990344876 -165.65810598539247 0 0 0 0 -0.42344974953812198 961.40243617606575 0 961.40243617606575 -1122.6134708073805 0 0 0 0 19.361400611136247 20.465487130414118 0 20.465487130414118 -92.407900795882199 0 0 0 0 -19.971925722667947 59.408624387957389 0 59.408624387957389 -60.768055184733385 0 0 0 0 18.067443903771348 19.781314778171605 0 19.781314778171605 -73.299608278925348 0 0 0 0 -5.3630981101388784 11.122628782537646 0 11.122628782537646 -23.936431876991715 0 0 0 0 -52.27172604540101 21.355434840766975 0 21.355434840766975 -95.381851041151094 0 0 0 0 -1715.8844871815745 1912.6159399532407 0 1912.6159399532407 -2105.6937005183281 0 0 0 0 -1304.6189919585886 2073.0621350686633 0 2073.0621350686633 -2177.6788058512757 0 0 0 0 -529.56070538399217 -135.84168719925947 0 -135.84168719925947 -50.506142936566903 0 0 0 0 -10.962344477451438 11.068441448435266 0 11.068441448435266 -21.938691341142501 0 0 0 0 -119.05145701351285 -235.67837272298493 0 -235.67837272298493 -360.85155797093466 0 0 0 0 -1800.747218124714 258.48473153250598 0 258.48473153250598 154.02548704497167 0 0 0 0 -341.57820613362856 1638.9893763683867 0 1638.9893763683867 -2467.8682280967987 0 0 0 0 -1274.1678879410247 1819.7381579611695 0 1819.7381579611695 -2287.0610063030617 0 0 0 0 337.23824636488098 1143.9979852741853 0 1143.9979852741853 -2503.7292251108884 0 0 0 0 -321.40777853051986 2797.1433225183937 0 2797.1433225183937 -3111.2064536392427 0 0 0 0 -4328.7018271004199 4285.1442549518833 0 4285.1442549518833 -4100.3101660931607 0 0 0 0 -2149.9640657574782 3148.5303173179491 0 3148.5303173179491 -4605.8421331400386 0 0 0 0 5.9783366739193866 -5.347651930950974 0 -5.347651930950974 -64.351336526068565 0 0 0 0 449.21639122927445 125.410309179264 0 125.410309179264 -78.000492582999868 0 0 0 0 -2446.1818287766764 2123.4542736952799 0 2123.4542736952799 -1993.9746025379573 0 0 0 0 -1779.4687167277734 1915.9713239847479 0 1915.9713239847479 -2123.2788639911741 0 0 0 0 -2201.3635564363794 2386.708902033628 0 2386.708902033628 -2618.408523858503 0 0 0 0 -2522.9294432301103 2378.9014056483502 0 2378.9014056483502 -1994.130298562086 0 0 0 0 -2283.7075103772077 2393.7727054007264 0 2393.7727054007264 -1993.6345447544591 0 0 0 0 -202.89085349439847 155.46249976550462 0 155.46249976550462 -93.322358344885288 0 0 0 0 -6.6307724247883044 17.573653691545914 0 17.573653691545914 -17.161872065969135 0 0 0 0 204.38150239786228 126.65341689894194 0 126.65341689894194 -50.002622680709464 0 0 0 0 -574.0322465946374 782.36847414703516 0 782.36847414703516 -671.50544016779168 0 0 0 0 -234.21340325357232 146.12191267499293 0 146.12191267499293 -46.587242620589677 0 0 0 0 -1.2384444396011247 2.5291436076048228 0 2.5291436076048228 -0.36733027328342871 0 0 0 0 -1056.8125241877278 425.37571903246862 0 425.37571903246862 -122.53569249911379 0 0 0 0 607.15226775902374 283.7517385779156 0 283.7517385779156 66.713535651331767 0 0 0 0 -2.9442594472288661 9.2712138180550738 0 9.2712138180550738 -12.200108178110611 0 0 0 0 461.92054021399235 323.73715891457687 0 323.73715891457687 126.38865381963933 0 0 0 0 925.63700697246986 444.21998581722437 0 444.21998581722437 -0.48939192286343314 0 0 0 0 -2.5217613114330248 3.347988360227518 0 3.347988360227518 -4.2476765245489219 0 0 0 0 -2952.9632381866304 498.37592724775186 0 498.37592724775186 96.885630970471539 0 0 0 0 -1560.1216261764639 1295.5474701984058 0 1295.5474701984058 -0.23504799182410352 0 0 0 0 -1072.8508547989841 471.85415438752534 0 471.85415438752534 18.46891841031902 0 0 0 0 -1207.6985749110772 903.63208700997347 0 903.63208700997347 -126.99028071432258 0 0 0 0 -804.64866640407126 1069.5840882786506 0 1069.5840882786506 -276.08747114126163 0 0 0 0 -627.14121190615697 918.16644549576449 0 918.16644549576449 -344.29614447831409 0 0 0 0 -1351.4487953881035 944.60923722053849 0 944.60923722053849 -271.65309567842905 0 0 0 0 -771.49175753285817 1434.2258001026348 0 1434.2258001026348 -1.7008502602548106 0 0 0 0 -380.51236742122092 1026.4795599429181 0 1026.4795599429181 -611.79854395123402 0 0 0 0 -1.602047998292079 3.7669406663663381 0 3.7669406663663381 4.1818932975971848 0 0 0 0 -621.80380706236247 882.17850465014453 0 882.17850465014453 -670.59711610579689 0 0 0 0 -746.13067427426722 683.35510769835309 0 683.35510769835309 -490.31042202377284 0 0 0 0 -787.38459504400089 716.59309130989277 0 716.59309130989277 6.1944617557310266 0 0 0 0 -739.66115960910975 761.39585898382211 0 761.39585898382211 -27.474837793663028 0 0 0 0 -800.37737216500682 887.48012633231701 0 887.48012633231701 -349.73128970603284 0 0 0 0 -808.41205214358342 711.60536885188776 0 711.60536885188776 -48.164266175343073 0 0 0 0 -812.83569971839461 777.26526703931449 0 777.26526703931449 214.80560351646272 0 0 0 0 -917.7660962490736 909.67185561429505 0 909.67185561429505 456.055756715592 0 0 0 0 -701.26148370101873 953.34260290426027 0 953.34260290426027 434.49261812337136 0 0 0 0 -718.2928168134822 824.33117246973416 0 824.33117246973416 33.355372803014689 0 0 0 0 -1026.1374566786399 1050.7174534406004 0 1050.7174534406004 387.74673293876185 0 0 0 0 -937.98641756057987 638.43700576446645 0 638.43700576446645 2.8671313778759213 0 0 0 0 -223.70785194067867 925.26826131471171 0 925.26826131471171 156.77293210144853 0 0 0 0 -267.56094479728927 1022.7890521216395 0 1022.7890521216395 286.10186680549668 0 0 0 0 -1.0527186508592763 3.4688776154511345 0 3.4688776154511345 4.3033672260711455 0 0 0 0 -1164.3665601419125 885.09886821517648 0 885.09886821517648 -1.0144613786760601 0 0 0 0 -832.73818516706524 670.65312956186244 0 670.65312956186244 -518.88561224535806 0 0 0 0 -88.363203135173535 1127.8413351861709 0 1127.8413351861709 -650.21271395169606 0 0 0 0 -185.01666819918319 1471.0943928556408 0 1471.0943928556408 -318.88251402790775 0 0 0 0 -247.12914969259145 1215.8476028032019 0 1215.8476028032019 -404.19768563668913 0 0 0 0 -452.81639356766027 1155.7458178352863 0 1155.7458178352863 -0.32750605842011282 0 0 0 0 4.2037773941119667 974.19947749796847 0 974.19947749796847 119.22835438172478 0 0 0 0 -193.93022197700884 1376.7307609970012 0 1376.7307609970012 -234.98753593873698 0 0 0 0 -38.356662415135361 1049.8860414257761 0 1049.8860414257761 -13.716782377334312 0 0 0 0 99.532695540197892 868.79780088412372 0 868.79780088412372 -96.392142061980849 0 0 0 0 373.76850010901398 549.04376144689741 0 549.04376144689741 246.00240821027546 0 0 0 0 7.5183007821979118 706.92718319269625 0 706.92718319269625 344.78737559872388 0 0 0 0 -219.22787500218692 803.10103874492779 0 803.10103874492779 381.47024780721404 0 0 0 0 -335.94173632211459 660.39944500334968 0 660.39944500334968 762.41964408461354 0 0 0 0 53.052462549792835 627.7098823741544 0 627.7098823741544 477.53219018915843 0 0 0 0 36.847506308367883 766.38788570465113 0 766.38788570465113 592.56711455471668 0 0 0 0 539.4228959749521 471.74291882118359 0 471.74291882118359 727.03974460001336 0 0 0 0 112.92948823576444 996.75513208357734 0 996.75513208357734 928.95356700378761 0 0 0 0 44.551701492775464 663.79350432410138 0 663.79350432410138 226.64132425308344 0 0 0 0 388.0072045330744 1075.227345837804 0 1075.227345837804 101.29868390638148 0 0 0 0 -241.5988929433297 196.77772954383727 0 196.77772954383727 -32.324373641822604 0 0 0 0 -222.53528210468357 220.72756856275373 0 220.72756856275373 -251.1007325801038 0 0 0 0 -213.28241537031863 59.492526850110153 0 59.492526850110153 -47.256049216455722 0 0 0 0 -7.7424773504674818 5.3820616175810798 0 5.3820616175810798 11.548284994416349 0 0 0 0 296.73981451481814 930.15223769309523 0 930.15223769309523 593.00511368582374 0 0 0 0 -617.18852832544508 686.65505463518639 0 686.65505463518639 908.48179102959693 0 0 0 0 -7.4783795228120766 8.9838133473534469 0 8.9838133473534469 -12.639865349793951 0 0 0 0 165.81907940858218 260.66979612369323 0 260.66979612369323 1047.6867315062409 0 0 0 0 15.048188231812674 840.42123601511412 0 840.42123601511412 679.28364765171136 0 0 0 0 51.192351151184994 805.0518752625394 0 805.0518752625394 500.54086850976455 0 0 0 0 -578.23075678941677 638.78977089725959 0 638.78977089725959 650.75767434771114 0 0 0 0 -750.0402460860787 1124.1698037119095 0 1124.1698037119095 404.09548957263178 0 0 0 0 -546.69493145837623 948.08523855504609 0 948.08523855504609 -446.20406779987206 0 0 0 0 -562.72862918551618 946.81666181401124 0 946.81666181401124 317.73230033418804 0 0 0 0 -489.64715192721633 637.87281611550134 0 637.87281611550134 -240.18166162636771 0 0 0 0 -699.41804114218394 781.94928844149035 0 781.94928844149035 384.88966666276974 0 0 0 0 -727.38387416232581 842.14322395668569 0 842.14322395668569 660.5532999682473 0 0 0 0 -507.79728451660048 788.47275005885604 0 788.47275005885604 646.01515474368534 0 0 0 0 -497.22628937574336 723.88670366842416 0 723.88670366842416 632.97929796975586 0 0 0 0 -365.86339077620141 750.52806202342435 0 750.52806202342435 602.64064951849286 0 0 0 0 -775.64460540800792 976.83898730106739 0 976.83898730106739 591.67434623849113 0 0 0 0 -718.26327897088777 917.19446957873151 0 917.19446957873151 588.00562220042048 0 0 0 0 -833.05405203686678 1063.5740902247562 0 1063.5740902247562 734.36557276184612 0 0 0 0 -749.96405507270538 812.48151236205013 0 812.48151236205013 817.48736503849432 0 0 0 0 -654.53188937201048 971.56124044385797 0 971.56124044385797 278.58978113336343 0 0 0 0 -744.90477854559867 1095.9060771592776 0 1095.9060771592776 1078.4944912250212 0 0 0 0 -249.22032260149717 675.96835618554178 0 675.96835618554178 899.02478990318195 0 0 0 0 -697.5041504777937 825.08750384498535 0 825.08750384498535 802.07764736755053 0 0 0 0 -699.41061642366731 768.95343792942117 0 768.95343792942117 1064.6779446893779 0 0 0 0 -456.14879631497024 490.8456089682295 0 490.8456089682295 957.477275592144 0 0 0 0 -721.1840778508049 750.59236940284609 0 750.59236940284609 697.40338147556758 0 0 0 0 -712.65192263535573 708.70481646171538 0 708.70481646171538 899.05348352887086 0 0 0 0 -788.97567778067605 855.57350720109389 0 855.57350720109389 789.93183098174632 0 0 0 0 -696.65103954670485 734.97692422803084 0 734.97692422803084 707.2263004489505 0 0 0 0 -547.36551651395712 624.29188528770464 0 624.29188528770464 238.73145067732548 0 0 0 0 -309.44930264419236 331.76412896999682 0 331.76412896999682 -244.28097678854829 0 0 0 0 -479.90279976921374 710.15435105549568 0 710.15435105549568 170.16338278105832 0 0 0 0 -268.74996140980511 187.25730740118888 0 187.25730740118888 250.90855209466827 0 0 0 0 -282.247356113141 427.61305593050201 0 427.61305593050201 -34.963933114086103 0 0 0 0 -371.89043059566757 541.66209794989118 0 541.66209794989118 391.62576690850256 0 0 0 0 -523.15654109709067 507.62321749150215 0 507.62321749150215 721.85371643015242 0 0 0 0 -584.34782095409173 682.97079451711033 0 682.97079451711033 677.49791162712791 0 0 0 0 -275.17987031905795 645.38407955385628 0 645.38407955385628 859.47569683861093 0 0 0 0 -81.717276911593217 519.73725039533019 0 519.73725039533019 626.94603505617124 0 0 0 0 -115.81904640913126 493.07004447537474 0 493.07004447537474 983.55305889240117 0 0 0 0 -292.19888738430745 320.00719421486428 0 320.00719421486428 871.70627639445411 0 0 0 0 102.23369014947093 109.21866781265271 0 109.21866781265271 -149.12979790484678 0 0 0 0 25.964992473440361 213.06982176545716 0 213.06982176545716 412.36842278906988 0 0 0 0 -196.33555177894596 450.29623778501264 0 450.29623778501264 209.67105704834103 0 0 0 0 413.58893092422295 580.04266447164628 0 580.04266447164628 749.15584391492303 0 0 0 0 1091.5142342875479 61.588162407482741 0 61.588162407482741 -54.995631231518928 0 0 0 0 -665.53766832592373 287.0747600151808 0 287.0747600151808 518.30412992722268 0 0 0 0 -14.826858865430225 12.326755554793095 0 12.326755554793095 -5.8002064040448431 0 0 0 0 -3.4091556108905934 206.72822809994977 0 206.72822809994977 751.25557258320623 0 0 0 0 447.90024644407094 624.50216400281352 0 624.50216400281352 443.14624951626865 0 0 0 0 264.24743764651794 320.43822554453436 0 320.43822554453436 1711.0562805709051 0 0 0 0 216.69062300489168 560.73667524060875 0 560.73667524060875 857.02856259116379 0 0 0 0 296.87521788272716 1150.4969746170691 0 1150.4969746170691 1681.0327868438326 0 0 0 0 -212.71609021603217 461.16699962261919 0 461.16699962261919 1367.8902110604686 0 0 0 0 262.04423776219483 800.52686919330154 0 800.52686919330154 1006.3454336209397 0 0 0 0 -237.637042198995 762.14509135101252 0 762.14509135101252 1135.2934038389067 0 0 0 0 -393.38264534244081 624.48926477602799 0 624.48926477602799 1420.4148042074958 0 0 0 0 321.99679532616574 802.74012596664397 0 802.74012596664397 969.21430087911722 0 0 0 0 -0.39594304623977905 9.1758771672147645 0 9.1758771672147645 -1.4357897980268888 0 0 0 0 499.80525723757455 500.14704786751099 0 500.14704786751099 487.20315163628766 0 0 0 0 1389.5248661987898 1127.6174833897057 0 1127.6174833897057 811.18906301720563 0 0 0 0 -2.7401024794852482 1.9989001832529851 0 1.9989001832529851 15.877538712609976 0 0 0 0 8.5240393276399118 273.3824665189386 0 273.3824665189386 -130.37449026337538 0 0 0 0 186.80403788438707 80.540430493711028 0 80.540430493711028 -598.0420616125266 0 0 0 0 -86.306481084570095 42.252741650553531 0 42.252741650553531 17.2534889374462 0 0 0 0 -171.04977427931044 487.0339375232852 0 487.0339375232852 41.088331359118456 0 0 0 0 -154.75119991162501 246.88044639665532 0 246.88044639665532 -86.015396581489767 0 0 0 0 -60.481810244432836 96.852578229801637 0 96.852578229801637 6.0708942986377963 0 0 0 0 -105.70099828904495 99.990293445880525 0 99.990293445880525 212.03520518398727 0 0 0 0 -69.887189542383567 322.33361205646952 0 322.33361205646952 -261.74604542334419 0 0 0 0 -123.43472062643559 127.97558903635945 0 127.97558903635945 255.58547628735533 0 0 0 0 -11.619692776507151 104.16078785430861 0 104.16078785430861 -71.768848868063429 0 0 0 0 -92.157707288857466 214.93244048816865 0 214.93244048816865 10.706900368170912 0 0 0 0 45.780987144447863 114.09349249142542 0 114.09349249142542 -278.33711919846644 0 0 0 0 6.7582159830199089 76.448611702042399 0 76.448611702042399 -229.63518735265825 0 0 0 0 18.493660277726676 37.598168512654581 0 37.598168512654581 -86.818951792365965 0 0 0 0 -144.6027233428249 131.9438412900854 0 131.9438412900854 -73.3167241509218 0 0 0 0 63.361355049846523 55.636510946862586 0 55.636510946862586 20.973269003391039 0 0 0 0 46.564189025676285 251.44636522185448 0 251.44636522185448 -382.92809301245143 0 0 0 0 18.287959807130392 -56.158489678709884 0 -56.158489678709884 -162.60465695114181 0 0 0 0 168.96515133342473 -92.74273485566664 0 -92.74273485566664 -179.96002324765868 0 0 0 0 234.83698810778151 -4.7751652639490203 0 -4.7751652639490203 -81.282282511529047 0 0 0 0 34.009226991161967 18.61095462769697 0 18.61095462769697 -54.484355466461921 0 0 0 0 525.39209781342652 -240.32029919054185 0 -240.32029919054185 17.94775611491059 0 0 0 0 -11.491143201973557 14.486001693676712 0 14.486001693676712 -4.1794506359065338 0 0 0 0 -146.04682029684045 93.903226794191141 0 93.903226794191141 -65.511273805925157 0 0 0 0 -113.10788452081033 421.22705410677008 0 421.22705410677008 -266.35618659339889 0 0 0 0 -70.426334322767758 20.071099531589624 0 20.071099531589624 24.176260510366703 0 0 0 0 -67.894594098383095 69.724719650770567 0 69.724719650770567 -111.74003656328568 0 0 0 0 -54.987734814357964 20.056901748139239 0 20.056901748139239 27.047448391320003 0 0 0 0 -103.41966773278546 55.696181042418175 0 55.696181042418175 -25.296288508136058 0 0 0 0 -241.75026787707611 70.667466846294701 0 70.667466846294701 -380.14231202220253 0 0 0 0 -149.63947145812563 428.99529857597372 0 428.99529857597372 -659.23143025275203 0 0 0 0 -248.95569700770284 411.92787799978396 0 411.92787799978396 -387.06820488484664 0 0 0 0 -132.77098597033182 73.406283414311474 0 73.406283414311474 -46.736219190963311 0 0 0 0 -34.868045752402395 59.263659726544574 0 59.263659726544574 -55.931757104139251 0 0 0 0 -106.80018840471894 87.987808982146817 0 87.987808982146817 -53.191370774788084 0 0 0 0 3.8484723834570502 71.494870964998597 0 71.494870964998597 47.413500349978079 0 0 0 0 -144.75429140718188 242.72223226560891 0 242.72223226560891 -36.878206091605534 0 0 0 0 -287.35739051653945 231.20402727794863 0 231.20402727794863 1.7269189141661627 0 0 0 0 -281.58605193637777 124.71660456975223 0 124.71660456975223 14.684555198174991 0 0 0 0 -298.473944959449 195.72100611661517 0 195.72100611661517 -109.17959946433024 0 0 0 0 -79.454708744351933 72.789685357316358 0 72.789685357316358 -18.908310946862386 0 0 0 0 -0.13239297816602402 42.168778253774349 0 42.168778253774349 -23.410779820442031 0 0 0 0 -238.59720399667276 179.30374118302279 0 179.30374118302279 -0.099444290492101572 0 0 0 0 -43.880885754595511 65.309406094391306 0 65.309406094391306 46.051725100784097 0 0 0 0 -298.55172783689341 73.158673803020065 0 73.158673803020065 174.41773678841855 0 0 0 0 -84.212876990319501 57.657831864144981 0 57.657831864144981 -12.745247301950215 0 0 0 0 -423.19864584502648 140.80976963188732 0 140.80976963188732 164.25882044212267 0 0 0 0 -251.68658180898638 163.94744525462738 0 163.94744525462738 166.68139337685352 0 0 0 0 -357.71007100577117 250.9021312831137 0 250.9021312831137 308.39170702897536 0 0 0 0 -335.49343083318672 227.03369822705281 0 227.03369822705281 218.86209891758654 0 0 0 0 -398.83679153981211 212.71384326314728 0 212.71384326314728 282.23980310689512 0 0 0 0 -88.465437536660147 47.357582178351919 0 47.357582178351919 -19.013443382705695 0 0 0 0 -25.451249942830827 14.494414012032379 0 14.494414012032379 -8.7995303688257991 0 0 0 0 -1235.7219202886045 116.57938118681341 0 116.57938118681341 358.68576448725071 0 0 0 0 -55.623341108395834 -28.075183815126366 0 -28.075183815126366 -93.017054858777556 0 0 0 0 -2.2211353926289803 5.1056780193673603 0 5.1056780193673603 -20.066415908328835 0 0 0 0 -64.863997551387001 32.632758008257952 0 32.632758008257952 -50.066644211881794 0 0 0 0 -66.828379793645581 46.813250621868065 0 46.813250621868065 -28.410629978498037 0 0 0 0 -80.338546236074762 16.369603467246634 0 16.369603467246634 -18.237119380239164 0 0 0 0 -237.44923357725929 401.64296228931926 0 401.64296228931926 -725.97073148565687 0 0 0 0 -43.324669588227948 24.868679610796733 0 24.868679610796733 15.264866586219625 0 0 0 0 -252.08504812000865 460.26899105996199 0 460.26899105996199 -800.95163127301203 0 0 0 0 -443.85638027871028 672.49175988494972 0 672.49175988494972 -256.57980303877412 0 0 0 0 -745.16747444861539 846.13241376955557 0 846.13241376955557 -760.20704912285146 0 0 0 0 -457.55406393468729 585.07333407894475 0 585.07333407894475 -532.81006538793372 0 0 0 0 -12.994283172058658 36.247557588275903 0 36.247557588275903 -88.021752124756347 0 0 0 0 -1368.7028541942782 28.482852129207458 0 28.482852129207458 -699.01358399449964 0 0 0 0 -1401.9397941401257 103.21497054499923 0 103.21497054499923 -774.52550198488461 0 0 0 0 -181.21285368846293 463.18604330344533 0 463.18604330344533 -1168.5744818880048 0 0 0 0 -531.97222050830896 595.51653816836551 0 595.51653816836551 -1518.4093121047918 0 0 0 0 -533.21744101781223 1318.5041027658826 0 1318.5041027658826 -2257.3766793883988 0 0 0 0 -11.238139969363203 41.834076258588041 0 41.834076258588041 -81.895300487061206 0 0 0 0 -669.54739458231052 280.73450925777433 0 280.73450925777433 -1661.155359152217 0 0 0 0 -286.22990334279893 88.687028323351115 0 88.687028323351115 69.444294472436013 0 0 0 0 -37.286740477685839 61.56746809586943 0 61.56746809586943 16.506047402328576 0 0 0 0 -142.33529207949687 669.75060348681836 0 669.75060348681836 -2285.7436387952184 0 0 0 0 -106.53480613557622 514.63268893067288 0 514.63268893067288 782.14416513015749 0 0 0 0 -459.43277648431831 400.50757409980542 0 400.50757409980542 -480.25000214303873 0 0 0 0 -76.818241853975678 43.291673751482321 0 43.291673751482321 -8.7276498283646333 0 0 0 0 -8.3831687042838894 238.27820739374147 0 238.27820739374147 -1299.6177128307681 0 0 0 0 -506.40554035233799 -574.65947123234218 0 -574.65947123234218 -278.68526879272395 0 0 0 0 -267.60247059068934 236.79399711784572 0 236.79399711784572 267.93754928426642 0 0 0 0 -305.14333237744722 266.89522502353429 0 266.89522502353429 271.12410480056133 0 0 0 0 -266.96763199713678 265.38974296595734 0 265.38974296595734 498.69915275213134 0 0 0 0 -58.160949525845353 509.10187720984686 0 509.10187720984686 317.68302045667588 0 0 0 0 21.094428531265294 350.50624978523865 0 350.50624978523865 322.92915744858328 0 0 0 0 -145.9524040343822 350.50458501546018 0 350.50458501546018 65.072415977323544 0 0 0 0 -247.49255300499499 368.50384036612377 0 368.50384036612377 293.54489237364396 0 0 0 0 -114.21060899822623 448.72279115077617 0 448.72279115077617 57.778255051311817 0 0 0 0 -120.16449501423631 407.28694898813592 0 407.28694898813592 -182.36303719528951 0 0 0 0 48.771895193640376 390.17365812055687 0 390.17365812055687 -225.20203362837492 0 0 0 0 148.54591053535114 599.346945231875 0 599.346945231875 -356.91018155747224 0 0 0 0 97.397311840293696 403.26791835201948 0 403.26791835201948 -571.75417800764262 0 0 0 0 200.71309804180055 605.94448682762959 0 605.94448682762959 -677.54490421965602 0 0 0 0 311.66139457846293 593.46949674760799 0 593.46949674760799 -876.94852055048977 0 0 0 0 158.20871133572655 498.29561440545513 0 498.29561440545513 -943.79355094149605 0 0 0 0 33.653972885964322 501.53450802942461 0 501.53450802942461 -781.56933623131044 0 0 0 0 100.66061913545491 408.53107244770445 0 408.53107244770445 -792.07733417287818 0 0 0 0 -92.68024112819694 365.69242377526098 0 365.69242377526098 -417.93771514582841 0 0 0 0 -253.05843879983877 158.37842660985916 0 158.37842660985916 -430.33542313564976 0 0 0 0 -96.067709784154431 315.97064910182235 0 315.97064910182235 -850.52199810367165 0 0 0 0 41.81104805781797 478.71437789235097 0 478.71437789235097 -1232.8292079835373 0 0 0 0 -137.61931995025952 332.92597162519087 0 332.92597162519087 -833.89200303578036 0 0 0 0 -101.429272829002 306.21652492633802 0 306.21652492633802 -1521.21859212243 0 0 0 0 -162.46544943054323 735.77092329592415 0 735.77092329592415 -1471.4332023111783 0 0 0 0 -150.26228167430963 609.98440975407721 0 609.98440975407721 -1013.1430221683549 0 0 0 0 -670.74193697955343 1255.7243247295628 0 1255.7243247295628 -1798.3930113394017 0 0 0 0 -2100.0000655773329 1837.2881895237078 0 1837.2881895237078 -1471.9478013501794 0 0 0 0 -1479.1662888255669 1757.3350792418496 0 1757.3350792418496 -2068.3656659685075 0 0 0 0 -233.94003326757229 638.72734125884017 0 638.72734125884017 -1717.4873292029952 0 0 0 0 -760.00094841045211 1065.2577379398062 0 1065.2577379398062 -1398.6259071631284 0 0 0 0 -286.28124175607809 617.71885961973749 0 617.71885961973749 -1211.9979438004229 0 0 0 0 -565.63235187280225 886.76831143617892 0 886.76831143617892 -1697.7019654801989 0 0 0 0 -778.45970085478621 1660.2757366404257 0 1660.2757366404257 -2916.0068539044596 0 0 0 0 -329.83207068196498 1032.5429219886719 0 1032.5429219886719 -2082.7053902214393 0 0 0 0 465.35320488800062 -464.7985388233501 0 -464.7985388233501 -2794.9838511895796 0 0 0 0 219.53424452131731 111.25534508512646 0 111.25534508512646 -802.82114085731155 0 0 0 0 -84.697334628202952 146.214823257018 0 146.214823257018 -1839.6826005074254 0 0 0 0 -240.04934978116944 240.18157789654651 0 240.18157789654651 -826.403957620234 0 0 0 0 -266.46083556351368 197.54302810144509 0 197.54302810144509 -757.91037224474712 0 0 0 0 -207.41893652078579 254.93362472944864 0 254.93362472944864 -737.56942923446331 0 0 0 0 -282.30438522975601 125.61333810276847 0 125.61333810276847 -280.11345061437169 0 0 0 0 -181.25338966753043 256.22915336481674 0 256.22915336481674 -399.65065808699001 0 0 0 0 -186.64156612305669 217.63583848043345 0 217.63583848043345 -55.839119206764735 0 0 0 0 -236.08734739835199 309.44341374488795 0 309.44341374488795 -217.38692563562654 0 0 0 0 -164.20929863958736 302.77297878536774 0 302.77297878536774 -361.07128698605084 0 0 0 0 -183.47869510794408 234.84105164156063 0 234.84105164156063 -372.98171837906193 0 0 0 0 -301.7711951588135 240.0277044038703 0 240.0277044038703 -80.032060252720839 0 0 0 0 -313.57580583801609 284.71201870511868 0 284.71201870511868 93.152962766507699 0 0 0 0 -274.31453632211924 290.85704764814727 0 290.85704764814727 94.107831131434068 0 0 0 0 -281.40177139395382 312.37000800597161 0 312.37000800597161 -57.936837958564865 0 0 0 0 -338.79694001213647 273.82328616498853 0 273.82328616498853 217.01560594131956 0 0 0 0 -289.02654439119215 242.16189915928771 0 242.16189915928771 75.07517324352375 0 0 0 0 -324.33422955931019 248.08623037951111 0 248.08623037951111 76.382033203131869 0 0 0 0 -241.07289557327022 261.1477528916912 0 261.1477528916912 -31.412914267086308 0 0 0 0 -155.0527190490393 204.68952236592304 0 204.68952236592304 5.5960783516784431 0 0 0 0 -155.25976604964671 187.9213345693388 0 187.9213345693388 -77.383506671962095 0 0 0 0 -140.02421815940761 225.64415082409687 0 225.64415082409687 -222.67780004101223 0 0 0 0 -308.93812649646134 294.66660012591456 0 294.66660012591456 -104.15763415778929 0 0 0 0 -228.32154080519103 738.2252777123249 0 738.2252777123249 -943.81763799139298 0 0 0 0 -553.24099095774 579.4712958300006 0 579.4712958300006 -344.68087185347758 0 0 0 0 -509.87256729687215 531.98972371395212 0 531.98972371395212 -383.6800523459242 0 0 0 0 8.4091497513168747 19.715353251908709 0 19.715353251908709 48.778919720451711 0 0 0 0 -122.05315483159211 222.68615060569573 0 222.68615060569573 -57.160719852443435 0 0 0 0 -159.49968509054452 259.69677125806265 0 259.69677125806265 9.3344859419012209 0 0 0 0 -8.7749266101745889 7.2136679987743264 0 7.2136679987743264 -56.760027698670456 0 0 0 0 1.5288663840100583 6.8802794284901552 0 6.8802794284901552 15.321468953677368 0 0 0 0 261.78175120448577 -96.327499492086645 0 -96.327499492086645 -395.5684880259214 0 0 0 0 -1144.4213308455692 777.80943007041242 0 777.80943007041242 -836.50499098228465 0 0 0 0 -1194.310665067067 1103.8152149883872 0 1103.8152149883872 -746.64729985759186 0 0 0 0 -675.34293327349587 1580.0437430335296 0 1580.0437430335296 -2144.1303597422084 0 0 0 0 -686.97086542948409 1269.71259922938 0 1269.71259922938 -1693.5654509815358 0 0 0 0 -2724.5721940331277 730.33471000313875 0 730.33471000313875 -522.57238423317904 0 0 0 0 -4558.1263191163307 1446.6172544579604 0 1446.6172544579604 -691.31038021701534 0 0 0 0 792.71741833030683 408.94340277611627 0 408.94340277611627 -5211.748112581874 0 0 0 0 -2473.1852981504489 2223.9040858113403 0 2223.9040858113403 -1550.8528234464029 0 0 0 0 567.83026451760088 -132.25677877559247 0 -132.25677877559247 -1168.1669375163037 0 0 0 0 2.6882868186096687 -7.1069691596322002 0 -7.1069691596322002 -43.237858265811354 0 0 0 0 -539.55626700422727 2474.9879349244438 0 2474.9879349244438 -4315.9834588040831 0 0 0 0 -2502.7762559685507 2806.492924280421 0 2806.492924280421 -2962.7570336975041 0 0 0 0 339.58638446070836 641.55080249010643 0 641.55080249010643 -3704.299800391811 0 0 0 0 -196.43984624672157 184.51609778268903 0 184.51609778268903 -1449.7908869530656 0 0 0 0 238.51742882477993 66.350666669895872 0 66.350666669895872 -1712.6304459632665 0 0 0 0 72.82893878136565 159.98192817724157 0 159.98192817724157 -976.81660146958893 0 0 0 0 -130.05056515792967 -173.87509490360389 0 -173.87509490360389 -825.49835788331984 0 0 0 0 10.303148655744735 408.12394380263868 0 408.12394380263868 -1547.0490234585741 0 0 0 0 147.96015440068732 210.7515804404793 0 210.7515804404793 -2312.0075716193824 0 0 0 0 -236.97688594525971 844.98745493379829 0 844.98745493379829 -1337.0561380047729 0 0 0 0 -255.90638487809611 710.35056232863008 0 710.35056232863008 -929.73940076222061 0 0 0 0 129.86864894447353 311.61139082099817 0 311.61139082099817 -814.27242722634401 0 0 0 0 77.529471684625605 520.32126730353048 0 520.32126730353048 -1291.7303362956955 0 0 0 0 22.481539084197721 444.73032322084327 0 444.73032322084327 -923.80392063316685 0 0 0 0 14.227130291634239 150.15464394384617 0 150.15464394384617 -263.51722671103198 0 0 0 0 131.81884902845195 210.35485500159848 0 210.35485500159848 -947.42252102074417 0 0 0 0 39.316932506761987 232.02493786131481 0 232.02493786131481 -674.67512433291995 0 0 0 0 29.837045123457727 20.450376993529716 0 20.450376993529716 17.359731407720659 0 0 0 0 57.251386266056215 318.60780989538398 0 318.60780989538398 -786.83165461437602 0 0 0 0 -110.46788119098346 318.30566084205202 0 318.30566084205202 -723.94697489278769 0 0 0 0 -42.842383828683523 429.65143923991855 0 429.65143923991855 -772.90001810913964 0 0 0 0 57.930433188172174 359.69051534042774 0 359.69051534042774 -730.8910686494055 0 0 0 0 -52.293807439349621 498.1329466004081 0 498.1329466004081 -684.01684191806999 0 0 0 0 -51.408934290491743 492.90082769087894 0 492.90082769087894 -653.98262511135545 0 0 0 0 -33.738143842041609 528.7104583246437 0 528.7104583246437 -690.17233680753998 0 0 0 0 -43.275245780489058 567.3824640936873 0 567.3824640936873 -846.86576712509486 0 0 0 0 -89.920491057593608 467.67987077500584 0 467.67987077500584 -629.95244927314434 0 0 0 0 -132.2933466233153 557.23314802570894 0 557.23314802570894 -641.18923726864887 0 0 0 0 -44.355612638071761 376.49526557807803 0 376.49526557807803 -459.00442620961985 0 0 0 0 -261.40009651033324 508.47281111648044 0 508.47281111648044 -407.77708274003089 0 0 0 0 -205.91538237661007 409.69705965989124 0 409.69705965989124 -262.06831379206415 0 0 0 0 -51.61477702898992 442.75802980535263 0 442.75802980535263 -627.0462021958665 0 0 0 0 -2.6686831820446457 9.3687155016758084 0 9.3687155016758084 2.6515184014311579 0 0 0 0 -18.471137131495198 464.97257916377112 0 464.97257916377112 -699.46831396681955 0 0 0 0 -595.06596436651307 977.82691213831276 0 977.82691213831276 542.29747648959892 0 0 0 0 -466.91174650618632 657.33701841239963 0 657.33701841239963 32.929464073953568 0 0 0 0 -6.1690104626622855 19.399372063657353 0 19.399372063657353 -4.2637237912639137 0 0 0 0 -265.90469531423878 488.46110013937869 0 488.46110013937869 -860.6433968921192 0 0 0 0 -494.66906193665636 1428.4469263906212 0 1428.4469263906212 445.59244226034934 0 0 0 0 -141.1304635917495 969.39526646136392 0 969.39526646136392 -1108.4856178045884 0 0 0 0 -128.40736328010098 1105.8586951255129 0 1105.8586951255129 -135.84897639633709 0 0 0 0 -327.75728476389486 690.64307138251024 0 690.64307138251024 676.94985195087793 0 0 0 0 -484.92942361938185 845.27554204441185 0 845.27554204441185 605.60279206041014 0 0 0 0 134.09124468223308 1233.2960753681255 0 1233.2960753681255 536.1662308157421 0 0 0 0 -0.81665771520783892 770.2620831577442 0 770.2620831577442 365.5637118525301 0 0 0 0 -166.24649196970859 746.1944412386656 0 746.1944412386656 632.83929635864479 0 0 0 0 400.16058919264469 1041.1848999691865 0 1041.1848999691865 222.46867085109261 0 0 0 0 -44.318691546184709 668.23440810969259 0 668.23440810969259 139.53486201234045 0 0 0 0 65.335897979784932 852.10797738249676 0 852.10797738249676 10.407076365270768 0 0 0 0 217.03304561259574 1180.5787553967602 0 1180.5787553967602 703.1590088545845 0 0 0 0 963.31482420347311 501.38619533449673 0 501.38619533449673 157.56786188115075 0 0 0 0 -286.77960925584193 345.73283332374922 0 345.73283332374922 -436.60264041011396 0 0 0 0 -369.56587775945081 338.70603299931463 0 338.70603299931463 -236.93040567124262 0 0 0 0 -2.7763158111928874 9.7337627659505586 0 9.7337627659505586 -22.160719981707921 0 0 0 0 -433.68158766021952 1265.8478854438181 0 1265.8478854438181 -21.524257315576051 0 0 0 0 -666.5846806870104 495.10348961420095 0 495.10348961420095 -71.372698962273716 0 0 0 0 -13.675759626261424 125.65613178693457 0 125.65613178693457 -235.44936078056344 0 0 0 0 20.210179630095837 20.122279916412424 0 20.122279916412424 -126.61082405582496 0 0 0 0 -371.4189337851858 281.10294591105412 0 281.10294591105412 -80.338326301935012 0 0 0 0 -249.09711706025701 228.77011335257703 0 228.77011335257703 -232.2768174346711 0 0 0 0 -58.556344193087511 70.898828458602736 0 70.898828458602736 22.668679970608011 0 0 0 0 -347.56842715817038 266.39963182824431 0 266.39963182824431 -597.31715341685413 0 0 0 0 1.101626362404204 102.84972495106922 0 102.84972495106922 -286.44726592335792 0 0 0 0 -548.19160043683951 -178.0061521022144 0 -178.0061521022144 -1302.379493846267 0 0 0 0 -66.046012469712878 81.826206663179619 0 81.826206663179619 -112.95470382012718 0 0 0 0 -65.512569645230542 43.424740646543796 0 43.424740646543796 -204.97871707822196 0 0 0 0 -90.205874371720711 152.54858381926169 0 152.54858381926169 -242.87275459028751 0 0 0 0 -35.814191747078439 163.7812806938673 0 163.7812806938673 -315.11091190276056 0 0 0 0 -50.257490128555219 143.5472959110557 0 143.5472959110557 -284.17126621080388 0 0 0 0 -104.30563841473486 68.896039915744041 0 68.896039915744041 -3366.722255931425 0 0 0 0 -746.6507512225071 673.04635077499552 0 673.04635077499552 -1740.9568853684104 0 0 0 0 568.18448108894518 854.84639408395014 0 854.84639408395014 -4976.123938051438 0 0 0 0 -63.707252513378762 66.149972589007433 0 66.149972589007433 32.919049133435934 0 0 0 0 -166.36286105995532 2382.6687410912491 0 2382.6687410912491 -3441.3421015351778 0 0 0 0 -101.96741685313464 357.29684587724478 0 357.29684587724478 -309.30974260735093 0 0 0 0 37.679146750611835 626.47310973195999 0 626.47310973195999 -2372.4642112521287 0 0 0 0 -153.89430011052173 162.11297067152918 0 162.11297067152918 -169.98743612061662 0 0 0 0 -52.791658479402088 64.257002203635665 0 64.257002203635665 30.89577851162575 0 0 0 0 -50.628800342103204 153.66213567072555 0 153.66213567072555 -367.13020132173551 0 0 0 0 -92.98755978247209 387.72116833514519 0 387.72116833514519 -2033.5549851086835 0 0 0 0 241.49937210287317 130.40321295554895 0 130.40321295554895 -1767.9766685280642 0 0 0 0 -355.00404704899847 515.8618837455324 0 515.8618837455324 -1763.4291892243709 0 0 0 0 84.808054432127392 642.38677872339395 0 642.38677872339395 1307.9695801155685 0 0 0 0 -50.461454020672249 34.289809611317921 0 34.289809611317921 -8.9240286649559621 0 0 0 0 -168.53868081286055 476.71422895310752 0 476.71422895310752 -1861.066467095392 0 0 0 0 70.783984160792897 286.66283714631936 0 286.66283714631936 748.54692839938798 0 0 0 0 139.41617554848926 419.48429534324532 0 419.48429534324532 362.92111186922557 0 0 0 0 -448.06425128862611 1229.6106108938038 0 1229.6106108938038 1225.5643465083558 0 0 0 0 -17.258403530408543 13.72170589267111 0 13.72170589267111 -4.8715466183069758 0 0 0 0 -407.45857338185306 511.51186069152027 0 511.51186069152027 2546.0686515655179 0 0 0 0 211.15748837651336 665.73348072174485 0 665.73348072174485 550.5659539537919 0 0 0 0 215.82124751241281 349.95390541815686 0 349.95390541815686 953.87453921583074 0 0 0 0 -217.11893334558408 664.83931524414584 0 664.83931524414584 497.72579988493089 0 0 0 0 -75.067806989318342 372.83675661619054 0 372.83675661619054 1093.3343801250103 0 0 0 0 -253.81335613830015 765.20744825943257 0 765.20744825943257 413.99268205314002 0 0 0 0 2.4944641529218643 629.39519103740713 0 629.39519103740713 305.75596959159157 0 0 0 0 98.412748697825009 695.85008038425713 0 695.85008038425713 112.44995756611024 0 0 0 0 225.51968487296836 432.25659622087915 0 432.25659622087915 334.67897864063707 0 0 0 0 254.61256229848368 513.81815100383028 0 513.81815100383028 -206.2834425351175 0 0 0 0 142.23038426111816 642.25928303199271 0 642.25928303199271 -146.85437928997271 0 0 0 0 179.73973829619354 466.7110746558792 0 466.7110746558792 4.6198344451986486 0 0 0 0 98.175381486435072 613.43204002571292 0 613.43204002571292 137.46808630704618 0 0 0 0 210.43679830770998 718.23960620418438 0 718.23960620418438 330.58664641455107 0 0 0 0 209.64921607114957 698.08042811096311 0 698.08042811096311 -157.19908749079696 0 0 0 0 228.53741233350229 485.93792813673463 0 485.93792813673463 -432.75378572775662 0 0 0 0 239.04826766568294 731.76656719827952 0 731.76656719827952 -567.82608903123582 0 0 0 0 313.46966934608645 611.62553698973352 0 611.62553698973352 -741.69106652428673 0 0 0 0 40.645622985015507 635.70993303686919 0 635.70993303686919 -147.21225090126472 0 0 0 0 91.962759640315198 641.70603755756565 0 641.70603755756565 -516.92613612801506 0 0 0 0 255.14143738453731 580.92591971384581 0 580.92591971384581 -583.52238521664549 0 0 0 0 170.20655320420337 744.76006824488286 0 744.76006824488286 -413.46117798013074 0 0 0 0 77.031510618471657 740.92067234088245 0 740.92067234088245 -671.36225735098378 0 0 0 0 154.35626453423902 700.94607237913078 0 700.94607237913078 -850.72658572203363 0 0 0 0 -77.322023561690003 610.81841400166377 0 610.81841400166377 -513.71303549162076 0 0 0 0 -24.472927083352261 642.30423074624832 0 642.30423074624832 -852.73655519373278 0 0 0 0 -198.44666313324706 585.05060744663388 0 585.05060744663388 -543.48807367544578 0 0 0 0 -11.771735297406849 544.61094995331405 0 544.61094995331405 -537.37210655791569 0 0 0 0 -47.597911119708442 602.40839348012378 0 602.40839348012378 -246.53126025822712 0 0 0 0 55.299978255250608 726.48124128355994 0 726.48124128355994 -215.73114195838116 0 0 0 0 -37.033823182435299 659.89516346959135 0 659.89516346959135 -317.66418154841085 0 0 0 0 -29.439520564032136 612.38112188621744 0 612.38112188621744 -244.87095663731452 0 0 0 0 263.09297017233621 1116.2153836353214 0 1116.2153836353214 134.03121663356433 0 0 0 0 169.95725674570531 718.5386523998327 0 718.5386523998327 -385.81441096647177 0 0 0 0 -211.89262022948242 880.71089346813824 0 880.71089346813824 608.92043637199822 0 0 0 0 -0.5358718736024457 469.76310866630956 0 469.76310866630956 -621.67947875798018 0 0 0 0 -477.85619102526107 246.30220217167152 0 246.30220217167152 -199.17040187852035 0 0 0 0 -440.6290511264524 979.77810074956506 0 979.77810074956506 224.9767873189594 0 0 0 0 3.8535949762212454 3.4664928026078883 0 3.4664928026078883 -0.74541604720036503 0 0 0 0 -218.17076617010753 275.22439687783481 0 275.22439687783481 -576.30357354330408 0 0 0 0 4.0746709455302152 3.6689546553982098 0 3.6689546553982098 -1.2528707293882348 0 0 0 0 -640.73674972112349 623.02412591281791 0 623.02412591281791 -219.09748163144104 0 0 0 0 -220.86177744483575 837.29705648481104 0 837.29705648481104 -208.85572365939743 0 0 0 0 -229.76344152744423 675.7898784793997 0 675.7898784793997 -778.86579831349081 0 0 0 0 -1.3708998426061543 970.17971627157533 0 970.17971627157533 -774.10424332383263 0 0 0 0 -53.585194905113894 779.51495828388943 0 779.51495828388943 -912.58659304986395 0 0 0 0 -24.37968819150592 866.49279507544406 0 866.49279507544406 -932.29145928077924 0 0 0 0 54.928805527903023 666.09272653248627 0 666.09272653248627 -1227.9897634339068 0 0 0 0 0.27755676385277184 937.8544969741688 0 937.8544969741688 -1243.1859711813777 0 0 0 0 -189.01090366567951 526.35243474506206 0 526.35243474506206 -903.99806117915068 0 0 0 0 -73.455624106747564 799.08884126403791 0 799.08884126403791 -1090.4037726200477 0 0 0 0 46.229092095054511 635.96343897723091 0 635.96343897723091 -1267.7013303009517 0 0 0 0 -328.80568577458325 398.44348583335523 0 398.44348583335523 -1388.6325809659393 0 0 0 0 583.10447461424155 303.11215593149836 0 303.11215593149836 -1725.0981411951288 0 0 0 0 517.20662435647682 1294.5490983418913 0 1294.5490983418913 -1000.4920937005536 0 0 0 0 -2.5781191409759572 7.8774433324059174 0 7.8774433324059174 -12.190189662465087 0 0 0 0 128.01905365852872 823.73853426306232 0 823.73853426306232 -1564.3432364986729 0 0 0 0 125.20982396029285 881.56371640483485 0 881.56371640483485 -1514.5449662879801 0 0 0 0 431.6877968454246 812.80754062805363 0 812.80754062805363 -1758.7459111266508 0 0 0 0 375.16857862574398 331.16512641877125 0 331.16512641877125 -1400.8426752778723 0 0 0 0 -0.52423561555042397 1030.5522270996553 0 1030.5522270996553 -1760.0650660932297 0 0 0 0 378.85571100060042 635.5592989718607 0 635.5592989718607 -2514.3146784577966 0 0 0 0 -3.8327172571598567 4.2930275957451265 0 4.2930275957451265 -2.4198323526085588 0 0 0 0 -56.034836762424675 306.8782943966653 0 306.8782943966653 1225.1694053659339 0 0 0 0 2.4570324463420548 646.83860624655063 0 646.83860624655063 1201.095175204282 0 0 0 0 -0.094558700584457256 622.07867967781567 0 622.07867967781567 603.017750508483 0 0 0 0 296.94150167153566 394.3984808665964 0 394.3984808665964 454.06623375102572 0 0 0 0 252.9515158389986 322.1405737271125 0 322.1405737271125 109.47384615052033 0 0 0 0 -136.14834666230308 531.30523433868802 0 531.30523433868802 412.80224378662751 0 0 0 0 23.245305136500974 920.25699878835712 0 920.25699878835712 675.76131843775875 0 0 0 0 -5.3061454702860829 9.648562890793702 0 9.648562890793702 -3.3744843062872789 0 0 0 0 -63.394199083981221 577.80470821589552 0 577.80470821589552 823.04521712325368 0 0 0 0 519.68012512285168 1206.6700567235102 0 1206.6700567235102 1842.0839806515578 0 0 0 0 143.40818270306409 331.80382518222541 0 331.80382518222541 228.3760289929196 0 0 0 0 92.774257427590783 470.8486347305261 0 470.8486347305261 -65.175407303016982 0 0 0 0 160.36423494304472 535.36349016448366 0 535.36349016448366 -197.19662437450097 0 0 0 0 -3.2856531598517904 588.1653730092421 0 588.1653730092421 96.35339414540249 0 0 0 0 90.487073908887396 650.34346985465709 0 650.34346985465709 -84.82086715393234 0 0 0 0 87.386450106161647 483.28373053369796 0 483.28373053369796 -152.61563754169765 0 0 0 0 54.129094191186596 584.74865610332927 0 584.74865610332927 -276.88646838513887 0 0 0 0 92.711997183454514 535.71101209801327 0 535.71101209801327 -736.75541988555051 0 0 0 0 156.57049768944853 399.89864511105588 0 399.89864511105588 -740.55489159097851 0 0 0 0 -52.581576264230534 562.04649617683663 0 562.04649617683663 -195.08609557849195 0 0 0 0 142.26769822242204 499.87551028402595 0 499.87551028402595 -896.50194814406314 0 0 0 0 0.25750693290319759 648.37634512545992 0 648.37634512545992 -628.75493191777423 0 0 0 0 -159.85226836592483 268.77144992161084 0 268.77144992161084 -727.7378154412786 0 0 0 0 -169.05544467582513 483.63436256685236 0 483.63436256685236 55.635911411554844 0 0 0 0 2.5491094958224494 27.22482602084736 0 27.22482602084736 -53.51521545470392 0 0 0 0 1696.6651863429724 1430.8589137538183 0 1430.8589137538183 407.86026601429876 0 0 0 0 10.969814050840796 -157.80290374376636 0 -157.80290374376636 -309.04597825920064 0 0 0 0 993.27420155254367 1199.3997576547263 0 1199.3997576547263 571.45982290035317 0 0 0 0 5.2655384502868401 -68.027281215672701 0 -68.027281215672701 -276.35158918391244 0 0 0 0 27.323127030387695 80.27181548214503 0 80.27181548214503 -122.29467314535941 0 0 0 0 1091.6673423156753 194.4379921626296 0 194.4379921626296 -28.60752670166039 0 0 0 0 13.828888364595457 27.266222816249105 0 27.266222816249105 -57.187109167095727 0 0 0 0 1050.541819813865 407.00349919083419 0 407.00349919083419 -289.4056768552764 0 0 0 0 914.94698536241776 840.40589832598562 0 840.40589832598562 -347.88881279207453 0 0 0 0 1452.5450735542981 550.9755058387309 0 550.9755058387309 -1353.3899754565518 0 0 0 0 -91.1763582919084 870.62308994354316 0 870.62308994354316 -342.69913247654404 0 0 0 0 440.41615267047018 601.13983190114959 0 601.13983190114959 -737.23656402925553 0 0 0 0 142.12794047262287 453.7322882950757 0 453.7322882950757 -361.03302035880779 0 0 0 0 183.055751881795 586.14639704690853 0 586.14639704690853 -341.92887426693005 0 0 0 0 187.08485333816498 383.85522174391917 0 383.85522174391917 140.68577866556006 0 0 0 0 711.38465969035315 405.9675346533686 0 405.9675346533686 538.21475975544308 0 0 0 0 238.50991345313378 819.82572157464165 0 819.82572157464165 191.02266363015269 0 0 0 0 121.4383796556067 618.36754077765727 0 618.36754077765727 -54.236867613093636 0 0 0 0 1127.4558894274232 543.11805925499721 0 543.11805925499721 43.969413287770294 0 0 0 0 1068.3917256538407 1097.3256318877829 0 1097.3256318877829 180.16881463305799 0 0 0 0 1049.8893672105332 2359.9010803303645 0 2359.9010803303645 1372.4433467625076 0 0 0 0 1741.2536460673682 506.68586004379176 0 506.68586004379176 693.57412613859196 0 0 0 0 701.86230976047227 1064.6538964973188 0 1064.6538964973188 2169.8258398322359 0 0 0 0 492.12910553489928 683.45473122405747 0 683.45473122405747 -846.39021009869248 0 0 0 0 -2.1775679045914558 4.3720493133302547 0 4.3720493133302547 -0.23264019578508766 0 0 0 0 709.41678909106849 1410.1903508898777 0 1410.1903508898777 300.74823670456681 0 0 0 0 1553.5510749230743 1672.6187068474064 0 1672.6187068474064 2047.9768007396633 0 0 0 0 -223.91449449019274 -300.27323015659567 0 -300.27323015659567 -595.74473703167314 0 0 0 0 -2.7076274045584228 22.271687585574313 0 22.271687585574313 -36.389277853791327 0 0 0 0 -138.75743706594221 -241.22231183024269 0 -241.22231183024269 -606.21913314845642 0 0 0 0 37.200707100695581 -69.212414415458625 0 -69.212414415458625 -226.74729594119708 0 0 0 0 -233.7954179479384 -269.89919360258637 0 -269.89919360258637 -367.53349130060087 0 0 0 0 26.683603735393262 1.5714068170746032 0 1.5714068170746032 -586.41386447729019 0 0 0 0 13.936882987371064 -123.53359129459204 0 -123.53359129459204 -317.78757841514744 0 0 0 0 51.463412926765159 -163.68215740656888 0 -163.68215740656888 -356.63292905771959 0 0 0 0 206.87457799955155 -88.289773477947165 0 -88.289773477947165 -344.62994107244594 0 0 0 0 156.92193365221465 53.542166298806478 0 53.542166298806478 -482.67546782408317 0 0 0 0 299.03070048207883 -119.88035930566184 0 -119.88035930566184 -422.15668199010906 0 0 0 0 269.23084847573045 32.803400408873131 0 32.803400408873131 -124.96473904838786 0 0 0 0 290.50035499977383 429.75945510979363 0 429.75945510979363 313.72733590887219 0 0 0 0 290.38671251667256 367.61547994773719 0 367.61547994773719 -606.77289513345022 0 0 0 0 237.37511691658801 319.80867929069245 0 319.80867929069245 -645.57886250299634 0 0 0 0 296.0321916550165 553.3491294267078 0 553.3491294267078 -967.36246710903652 0 0 0 0 416.24244237311359 704.86974878641922 0 704.86974878641922 -776.58477042226696 0 0 0 0 507.43300876016292 577.15689964061858 0 577.15689964061858 -921.57267937519646 0 0 0 0 128.60253128375916 -150.93983531136837 0 -150.93983531136837 -2361.5997313682929 0 0 0 0 -576.11312255293888 -1021.2338993981284 0 -1021.2338993981284 -1723.6264194305986 0 0 0 0 76.61441332224058 61.239184758389456 0 61.239184758389456 -889.53974759763969 0 0 0 0 226.93844178376457 231.53605463933309 0 231.53605463933309 -1204.7298544691948 0 0 0 0 -62.41129109171743 -188.90122104970214 0 -188.90122104970214 -935.31275254007051 0 0 0 0 243.15781514489208 654.61013282376007 0 654.61013282376007 -1127.9103457044912 0 0 0 0 -8.0860706921221208 567.45157467914146 0 567.45157467914146 -1041.4084953835263 0 0 0 0 10.165154669899493 418.21152296133005 0 418.21152296133005 -1326.7126453001765 0 0 0 0 -93.059473021368831 890.58209455357746 0 890.58209455357746 -1965.0620755875971 0 0 0 0 67.426380058619543 716.08003025680955 0 716.08003025680955 -1318.2689289174741 0 0 0 0 79.050597784284037 579.92744069991386 0 579.92744069991386 -1070.3198603232158 0 0 0 0 170.20642249486264 744.2484702175916 0 744.2484702175916 -1047.4973936772876 0 0 0 0 -84.295798800594639 747.33619723920674 0 747.33619723920674 -857.80682742779027 0 0 0 0 382.42493299000489 649.03763571624586 0 649.03763571624586 -898.69553683028789 0 0 0 0 349.07366036600433 734.59001975358842 0 734.59001975358842 -976.13249791441285 0 0 0 0 222.04335084519698 660.8890080612473 0 660.8890080612473 -916.45998091898218 0 0 0 0 335.49178278938052 695.95199721944664 0 695.95199721944664 -931.90720145616069 0 0 0 0 318.68144384841435 720.81532144697667 0 720.81532144697667 -866.79221318565396 0 0 0 0 403.28610437635507 672.51175938767665 0 672.51175938767665 -932.39276075740781 0 0 0 0 418.24166595531278 614.20347810769999 0 614.20347810769999 -913.36586708831601 0 0 0 0 230.79607722321816 572.95380522222695 0 572.95380522222695 -877.97450202975597 0 0 0 0 480.98138802472386 462.73912249863497 0 462.73912249863497 -816.69146774952969 0 0 0 0 142.33719166537048 524.38572761323303 0 524.38572761323303 -825.93703243251093 0 0 0 0 12.268654797633644 643.04768065872486 0 643.04768065872486 -846.12735256992892 0 0 0 0 196.96242101522512 638.87232457836944 0 638.87232457836944 -953.85147374566486 0 0 0 0 -4.4200578338350169 592.19901162864699 0 592.19901162864699 -845.51514489496185 0 0 0 0 -52.882524660002673 741.46723769232631 0 741.46723769232631 -1098.2551643072256 0 0 0 0 -301.73446744764806 703.29682841956674 0 703.29682841956674 -770.75797560814681 0 0 0 0 -347.76824553697224 742.16828190342312 0 742.16828190342312 -769.0249431435368 0 0 0 0 -2553.4170028839144 1195.6146445814011 0 1195.6146445814011 -594.49914013184025 0 0 0 0 -2367.8700331913715 630.66540859936504 0 630.66540859936504 -290.09766032514744 0 0 0 0 -1742.836216109441 1168.7064554021708 0 1168.7064554021708 -967.69952784795896 0 0 0 0 -1579.0515903993801 1167.7125772932341 0 1167.7125772932341 -968.54976751486538 0 0 0 0 -868.81034569075564 821.95913739444222 0 821.95913739444222 -949.85565457717166 0 0 0 0 -443.78433843193488 946.57079655079724 0 946.57079655079724 -1152.7913497262198 0 0 0 0 -445.0128117481363 756.58474600272166 0 756.58474600272166 -1127.664874867216 0 0 0 0 -507.18687556724763 607.78945963628212 0 607.78945963628212 -484.03654082058347 0 0 0 0 -660.3205393027747 748.99479028768837 0 748.99479028768837 -587.10251532701659 0 0 0 0 -923.03438867183286 868.68141544670652 0 868.68141544670652 -539.72540606951225 0 0 0 0 -1828.4140725853504 308.39562579051562 0 308.39562579051562 -322.96027841272007 0 0 0 0 -880.92377703542297 638.68051470421415 0 638.68051470421415 -282.93389836321876 0 0 0 0 33.454963810397814 36.321900624507293 0 36.321900624507293 -37.323083199160948 0 0 0 0 -83.312347332073841 0.45349966220965143 0 0.45349966220965143 -69.136128912679851 0 0 0 0 5.6878583543108903 7.6749759846672205 0 7.6749759846672205 -18.057811737692788 0 0 0 0 28.675419519626303 80.531391714393976 0 80.531391714393976 -80.107959138033038 0 0 0 0 20.19114608170058 22.379421454303184 0 22.379421454303184 -17.66295752493906 0 0 0 0 13.793039208147604 22.985554969086024 0 22.985554969086024 10.724931870589643 0 0 0 0 61.458216241859191 51.41625750705316 0 51.41625750705316 -36.036687612344394 0 0 0 0 -516.60921686087386 395.70939042717509 0 395.70939042717509 -305.95052440460495 0 0 0 0 -767.57032256608363 528.42868486273801 0 528.42868486273801 -223.92956662671349 0 0 0 0 -304.2730279462121 536.34955779156007 0 536.34955779156007 -622.0090108489967 0 0 0 0 -133.49605766728928 544.99579553799049 0 544.99579553799049 -653.85150579865149 0 0 0 0 -532.6972613379985 658.62384161002046 0 658.62384161002046 -515.38826052589866 0 0 0 0 -312.76607167013572 531.43221153155173 0 531.43221153155173 -517.95776896274731 0 0 0 0 -47.409718246926786 47.68490094225308 0 47.68490094225308 7.3291892995912349 0 0 0 0 -10.115932778164279 91.25837962735568 0 91.25837962735568 -166.40467206664471 0 0 0 0 -156.78918420686387 536.08632476551793 0 536.08632476551793 -629.88801252390294 0 0 0 0 14.478683171938371 12.102461674219683 0 12.102461674219683 9.6035131367064679 0 0 0 0 -15.925779258832335 74.608887416598009 0 74.608887416598009 -38.467203916086874 0 0 0 0 102.47198806554661 0.11592783319792943 0 0.11592783319792943 -44.611129331344273 0 0 0 0 -0.32005465346213668 24.034530621729402 0 24.034530621729402 41.46427645871708 0 0 0 0 15.302296888368971 23.084651781631038 0 23.084651781631038 -9.3107064406223401 0 0 0 0 9.0859885476529598 -20.111694584644283 0 -20.111694584644283 -19.34006922332992 0 0 0 0 -53.967282003635773 83.942797919662553 0 83.942797919662553 62.856715890153282 0 0 0 0 43.577818997000577 66.53245619144036 0 66.53245619144036 -18.195284442059346 0 0 0 0 -57.660416558850557 -36.288425811824709 0 -36.288425811824709 44.102880260099482 0 0 0 0 10.070445019976091 13.629630422127349 0 13.629630422127349 9.526603328157762 0 0 0 0 3043.3247398494277 957.1311248736456 0 957.1311248736456 -1143.2874176717596 0 0 0 0 -57.411600903753424 -30.864474785077618 0 -30.864474785077618 116.74879718344891 0 0 0 0 5.5191423710577396 4.7401423365831761 0 4.7401423365831761 3.4668013851196804 0 0 0 0 67.285918985173339 345.64644435055743 0 345.64644435055743 369.94242750937519 0 0 0 0 -18.17531469745154 -111.08651673620625 0 -111.08651673620625 -35.681241550344566 0 0 0 0 875.5550221586891 675.0923650396071 0 675.0923650396071 -666.97984282806283 0 0 0 0 738.97013419651375 101.7724430043877 0 101.7724430043877 -516.96355959481298 0 0 0 0 393.55853473980096 537.27923099676627 0 537.27923099676627 -706.37295015591371 0 0 0 0 -161.90850030154979 356.9126380269081 0 356.9126380269081 -583.95808690731792 0 0 0 0 -220.92011873752926 548.1498414011221 0 548.1498414011221 -31.692433393240208 0 0 0 0 587.06182831461774 400.8556587772473 0 400.8556587772473 -442.38766259280328 0 0 0 0 112.6195363384868 151.24582283877862 0 151.24582283877862 -466.73442665496259 0 0 0 0 61.075826376021723 -107.06629428658198 0 -107.06629428658198 -203.15868056501131 0 0 0 0 45.889436491203895 50.762516141145568 0 50.762516141145568 1.7009708367664018 0 0 0 0 -53.050732884330529 98.675798162217475 0 98.675798162217475 -29.951605162208033 0 0 0 0 -224.07011355561554 186.54728966944458 0 186.54728966944458 28.195443516993691 0 0 0 0 26.603911815125059 65.751651272512035 0 65.751651272512035 -22.050168040577873 0 0 0 0 -20.119501813489478 109.77363852043345 0 109.77363852043345 -32.332207767338332 0 0 0 0 17.993041044153102 51.489395400083254 0 51.489395400083254 21.101704515070111 0 0 0 0 -212.20664062425203 140.67206446524506 0 140.67206446524506 315.16186334089434 0 0 0 0 164.4474912068581 229.36473966660287 0 229.36473966660287 -126.51477133861044 0 0 0 0 -125.04795998804912 -79.277369190618629 0 -79.277369190618629 -295.79869405522186 0 0 0 0 0.7671290330181364 -13.353730170936615 0 -13.353730170936615 -722.06276710941893 0 0 0 0 373.90671305917203 290.37128198280698 0 290.37128198280698 353.03239512626897 0 0 0 0 193.08277645955968 -228.44839420419521 0 -228.44839420419521 -283.31213696210762 0 0 0 0 -140.86378643586067 -255.13967115680134 0 -255.13967115680134 176.85096058140334 0 0 0 0 255.03086411370896 221.15564697813534 0 221.15564697813534 523.43123281438602 0 0 0 0 17.282339164263476 -0.22561438123020139 0 -0.22561438123020139 -26.740360833560061 0 0 0 0 40.12170033075094 43.771500837947428 0 43.771500837947428 -27.197161934482807 0 0 0 0 23.245921104495665 40.71399635208244 0 40.71399635208244 -33.930341047426218 0 0 0 0 15.297367488310556 35.069740974904562 0 35.069740974904562 -47.298675962345442 0 0 0 0 41.800877655157819 12.415664287225809 0 12.415664287225809 472.54483079223428 0 0 0 0 16.091606124682585 85.717725938615331 0 85.717725938615331 -41.763241412823845 0 0 0 0 60.888066871440969 17.047033927578013 0 17.047033927578013 12.282900561025599 0 0 0 0 -233.2829333055488 162.37658481787184 0 162.37658481787184 30.819656220552133 0 0 0 0 7.8788903854729142 34.917263103336154 0 34.917263103336154 -31.743079891901289 0 0 0 0 -102.04946715090773 -18.133097976748104 0 -18.133097976748104 110.1614690081733 0 0 0 0 -55.138327078062503 95.385984595891387 0 95.385984595891387 -11.567465190892108 0 0 0 0 -288.36144808234531 184.19370426716341 0 184.19370426716341 39.272947955831114 0 0 0 0 -220.55649026188257 195.45062342253686 0 195.45062342253686 -8.3982034108848893 0 0 0 0 -222.78008567258075 211.45866289534752 0 211.45866289534752 8.9048735874894192 0 0 0 0 -234.6835283904129 259.72910367678696 0 259.72910367678696 -89.499236100265989 0 0 0 0 -45.257655534442165 233.15784108031221 0 233.15784108031221 -282.92943756394743 0 0 0 0 -176.57878477201302 183.08955101562424 0 183.08955101562424 -38.363680971069698 0 0 0 0 -6.3593583841065993 330.88943132109671 0 330.88943132109671 -497.9128770524585 0 0 0 0 123.84029770864436 123.10273367039008 0 123.10273367039008 -234.54104914082563 0 0 0 0 -408.84763764801028 327.4993556642039 0 327.4993556642039 -55.875275197291558 0 0 0 0 -443.65596381999785 711.60253575784463 0 711.60253575784463 -780.46566178511421 0 0 0 0 -210.88047349256522 408.13413772802051 0 408.13413772802051 -736.30791940438212 0 0 0 0 -502.0324011316261 374.30397611005901 0 374.30397611005901 -165.74013640281919 0 0 0 0 -308.66660438177496 126.96453263133117 0 126.96453263133117 -82.541493409167742 0 0 0 0 -203.92282883392181 -1.9138362148323722 0 -1.9138362148323722 51.092252331647614 0 0 0 0 -133.2169637636398 114.77757083481993 0 114.77757083481993 -90.921955908655946 0 0 0 0 -302.98393501011014 247.46335066784741 0 247.46335066784741 -7.6495116093119577 0 0 0 0 -312.68601188180764 154.0368020443957 0 154.0368020443957 -242.31845620826789 0 0 0 0 -336.09465400976478 598.83859714145365 0 598.83859714145365 -1201.2067758901835 0 0 0 0 -693.50103013232729 723.27178669092245 0 723.27178669092245 -428.92630843695224 0 0 0 0 -288.82598993038118 725.92079396118788 0 725.92079396118788 -1204.2709330743128 0 0 0 0 -644.39454554342956 530.35925204620435 0 530.35925204620435 -1199.2438731327384 0 0 0 0 -294.33953110038419 658.74512137475904 0 658.74512137475904 -1609.4286168319595 0 0 0 0 -345.37178824487046 704.21566088445547 0 704.21566088445547 -1143.8047406477053 0 0 0 0 -580.02518125630741 615.26975706755184 0 615.26975706755184 -747.02379261170199 0 0 0 0 -463.47022999713226 768.90859610290318 0 768.90859610290318 -1089.8346059677715 0 0 0 0 -579.43899444642011 770.50217665913806 0 770.50217665913806 -1371.3720643490087 0 0 0 0 -727.23645590913657 647.35078273506952 0 647.35078273506952 -1142.2846515854544 0 0 0 0 -647.64217287302381 1066.6672372470139 0 1066.6672372470139 -1372.8147324037127 0 0 0 0 -396.43329989425547 1045.9123905407359 0 1045.9123905407359 -1467.2487972741219 0 0 0 0 -225.47220511882188 740.79851015241729 0 740.79851015241729 -1162.5267043440617 0 0 0 0 -603.98694876689115 695.35910080225585 0 695.35910080225585 -781.42509863554733 0 0 0 0 -115.31833210143668 729.90015286812559 0 729.90015286812559 -850.43600360337041 0 0 0 0 19.151608638355839 16.685928896776488 0 16.685928896776488 5.4661465910139668 0 0 0 0 21.058215151977492 -249.52341990389687 0 -249.52341990389687 -944.46955725095631 0 0 0 0 -161.14817101755762 338.43767575564561 0 338.43767575564561 -451.25641188678856 0 0 0 0 366.97640485977172 -145.47957479971228 0 -145.47957479971228 -339.42085279475577 0 0 0 0 491.45071567455307 97.975755540563114 0 97.975755540563114 -622.14581404578712 0 0 0 0 883.48086264688754 -71.737663928863185 0 -71.737663928863185 -149.06321811588714 0 0 0 0 599.79676745209144 707.32905465497606 0 707.32905465497606 294.01285365172862 0 0 0 0 504.55140705683152 613.07514745071239 0 613.07514745071239 202.49573779485218 0 0 0 0 -1925.2072606850488 2023.4042087665584 0 2023.4042087665584 -69.457771230932849 0 0 0 0 82.258456355164526 208.1319427233866 0 208.1319427233866 297.72937593852112 0 0 0 0 5.9957393201881359 5.1476508652015696 0 5.1476508652015696 2.131413985380604 0 0 0 0 498.66015154650358 169.96325719458312 0 169.96325719458312 11.697782700604876 0 0 0 0 207.23780446404999 660.0376383396142 0 660.0376383396142 429.37034851453791 0 0 0 0 -2861.5161647748901 857.82979945573607 0 857.82979945573607 -880.86112434644019 0 0 0 0 5.6776725233897309 6.5403562669397388 0 6.5403562669397388 3.0309907720599654 0 0 0 0 1870.9100084689417 -1045.8565845665216 0 -1045.8565845665216 -438.61145137078711 0 0 0 0 2.5162519382959516 9.323999969502978 0 9.323999969502978 30.877156902426492 0 0 0 0 153.17678485182114 -92.063969961071052 0 -92.063969961071052 10.481475808017422 0 0 0 0 -148.98735639394727 -66.371427005731675 0 -66.371427005731675 162.77437588391331 0 0 0 0 -299.35169108089758 96.834904901043046 0 96.834904901043046 107.77008033278435 0 0 0 0 147.70568866728718 -137.25261619840421 0 -137.25261619840421 -49.30917648452305 0 0 0 0 1.3099229805914661 3.6315995331925706 0 3.6315995331925706 21.413082750826476 0 0 0 0 499.08824336896942 -227.03084771781141 0 -227.03084771781141 563.7934524885095 0 0 0 0 -619.79849316790933 302.04399951465166 0 302.04399951465166 250.66137377613632 0 0 0 0 -431.21715646122175 331.06839483079784 0 331.06839483079784 -394.81839144667902 0 0 0 0 -1863.3004841910442 1232.0383004923351 0 1232.0383004923351 -634.93707346619613 0 0 0 0 1.216124437004467 1.6708460525062492 0 1.6708460525062492 6.301855917587261 0 0 0 0 396.40981223160634 -170.31726420315135 0 -170.31726420315135 -660.41645263232931 0 0 0 0 -1270.8723026661755 -329.3977524403017 0 -329.3977524403017 -325.81198942147239 0 0 0 0 885.50539740838576 -180.06066659520366 0 -180.06066659520366 -312.30717747236122 0 0 0 0 1255.5963199204707 -471.65567364454 0 -471.65567364454 -26.448411006804236 0 0 0 0 466.20955235651854 -224.03895027794169 0 -224.03895027794169 143.70111306647595 0 0 0 0 35.292946259316523 75.321536202744028 0 75.321536202744028 -234.76482410878634 0 0 0 0 49.515526968934864 72.829277346249 0 72.829277346249 -234.54613322483783 0 0 0 0 24.380753901154407 32.643062576959295 0 32.643062576959295 0.68647360245245181 0 0 0 0 -12.19093238421209 31.484307691508761 0 31.484307691508761 -34.3590221632153 0 0 0 0 -1.2781588041034411 78.183439597129109 0 78.183439597129109 -276.88870758870689 0 0 0 0 -57.492996964021586 171.31298261937627 0 171.31298261937627 -265.48555897502229 0 0 0 0 72.461490334098926 -277.15234922749005 0 -277.15234922749005 -1240.5894478317823 0 0 0 0 -11.183854032937603 11.830574886542308 0 11.830574886542308 -13.475416522172907 0 0 0 0 83.948048805992585 2.7926296214554895 0 2.7926296214554895 -3098.8886715956796 0 0 0 0 115.14842495377525 -245.53860907079797 0 -245.53860907079797 334.04450552367052 0 0 0 0 1087.2383739954093 318.94977523449415 0 318.94977523449415 -186.76211404588503 0 0 0 0 -507.36171718835249 1875.1641649464909 0 1875.1641649464909 -3505.3697524539421 0 0 0 0 2.3870427137614314 4.1540112386069552 0 4.1540112386069552 -40.765754778480215 0 0 0 0 633.80446971060883 587.33180054389959 0 587.33180054389959 -2148.6436246178782 0 0 0 0 1069.3879924858229 -239.92146484030127 0 -239.92146484030127 -577.55845095104451 0 0 0 0 -2021.329914418704 2833.7896807356192 0 2833.7896807356192 -196.09511408759727 0 0 0 0 -2074.0945354353007 2201.027746915373 0 2201.027746915373 -2222.5715182368294 0 0 0 0 -3179.1806712643738 3403.2061582718416 0 3403.2061582718416 -728.30610688895467 0 0 0 0 -4391.0531565016136 305.15224832133026 0 305.15224832133026 -0.22855509151850129 0 0 0 0 -6.4507714450351159 53.411447252437398 0 53.411447252437398 -86.000394736007863 0 0 0 0 410.01355237154348 758.4908774931755 0 758.4908774931755 172.93013533596604 0 0 0 0 -68.52549212314625 129.90562412568488 0 129.90562412568488 29.254810715188796 0 0 0 0 12.455886181167443 142.96494092765352 0 142.96494092765352 29.845851784922161 0 0 0 0 -1059.9936345441965 538.7818686826613 0 538.7818686826613 -758.03744744105097 0 0 0 0 -96.231613484862464 174.88748649415584 0 174.88748649415584 56.276995660402463 0 0 0 0 -2.4648422136162509 18.02435901221773 0 18.02435901221773 31.630779885717729 0 0 0 0 -239.29855913667416 1093.8876016627109 0 1093.8876016627109 -1054.8014218632397 0 0 0 0 -1379.3654932559803 862.06752319120642 0 862.06752319120642 -143.01442879278329 0 0 0 0 -216.47361436710344 982.84121229099947 0 982.84121229099947 -532.21693064999999 0 0 0 0 66.012078976345947 825.63149384572171 0 825.63149384572171 -446.3662379225425 0 0 0 0 282.31694272514142 920.77164026140963 0 920.77164026140963 -1049.5860773929453 0 0 0 0 100.54164056582522 847.39068657745884 0 847.39068657745884 -1631.2966634731565 0 0 0 0 179.77403747983044 591.23429729470445 0 591.23429729470445 -905.02630284199404 0 0 0 0 -302.66700103497715 784.80206544146313 0 784.80206544146313 -1133.7159428010418 0 0 0 0 -1222.0037882817851 1944.5050373545855 0 1944.5050373545855 -2542.4726125155321 0 0 0 0 -141.04915716253163 -225.20648007677664 0 -225.20648007677664 138.64030098553849 0 0 0 0 136.26780344049621 696.17517122324716 0 696.17517122324716 -2770.043178985783 0 0 0 0 -1117.3718770524865 1377.0341115644042 0 1377.0341115644042 -1608.7654588345104 0 0 0 0 -1.7934501943622649 16.596752219372355 0 16.596752219372355 15.649006084816619 0 0 0 0 -1320.5047249363051 507.25369504192304 0 507.25369504192304 -1464.4346831295843 0 0 0 0 -533.20126146684925 597.49926428797335 0 597.49926428797335 -2061.4052284224599 0 0 0 0 -1842.9826260595364 1061.2625014960067 0 1061.2625014960067 -518.9107280792814 0 0 0 0 -1270.7349448335153 1255.8074167838786 0 1255.8074167838786 -1637.7577191246892 0 0 0 0 -13.058772539310411 2.4208931534494411 0 2.4208931534494411 22.734165418303164 0 0 0 0 -933.47058721042777 617.04239101017993 0 617.04239101017993 -715.55523432346672 0 0 0 0 -22.342285334787448 467.84895335032343 0 467.84895335032343 -1652.5721224499575 0 0 0 0 -534.48459375625498 615.79735146163603 0 615.79735146163603 -1610.1273279225134 0 0 0 0 -30.636790716017458 668.73240841405141 0 668.73240841405141 -1835.5105364596238 0 0 0 0 -216.48124542167352 1644.7743574112174 0 1644.7743574112174 -2667.7798325577824 0 0 0 0 -95.857419538442628 849.43666897270305 0 849.43666897270305 -1636.4928110709807 0 0 0 0 278.02248778214562 -16.63386944951344 0 -16.63386944951344 -882.34720354418096 0 0 0 0 -3.4029464965133229 682.51111176884297 0 682.51111176884297 -526.04031342701273 0 0 0 0 356.54161066917004 291.41975582330997 0 291.41975582330997 -101.10986443910951 0 0 0 0 -210.71435116205248 382.24096576549709 0 382.24096576549709 530.40569861430413 0 0 0 0 -10.701446006917365 56.7905837296492 0 56.7905837296492 -88.77355575094353 0 0 0 0 49.274625416350318 815.58162216067285 0 815.58162216067285 498.73555749553907 0 0 0 0 -594.38623766797537 223.61341821849237 0 223.61341821849237 316.22704346834507 0 0 0 0 -425.4406500539917 501.63615014521201 0 501.63615014521201 -692.2577535986602 0 0 0 0 -432.37691296414414 346.58188574521409 0 346.58188574521409 -14.562764487636741 0 0 0 0 -208.87036674289266 605.9772829134854 0 605.9772829134854 -1.8341033780016005 0 0 0 0 -761.35134087040205 -94.211598342883008 0 -94.211598342883008 280.14601038426918 0 0 0 0 -902.18970913095836 462.60022986893455 0 462.60022986893455 132.79903018657933 0 0 0 0 -340.03801812164602 317.62984385367599 0 317.62984385367599 344.59665030950964 0 0 0 0 -399.54053775657667 155.03090889870145 0 155.03090889870145 146.64801265610004 0 0 0 0 -209.27891325956443 72.129475220484892 0 72.129475220484892 146.25570466334466 0 0 0 0 -188.72351945651462 -43.428615293602434 0 -43.428615293602434 180.97589607143891 0 0 0 0 -69.797357504886349 129.39119370969092 0 129.39119370969092 164.84932149587257 0 0 0 0 -319.04498633844196 -338.87795194079445 0 -338.87795194079445 166.97429806781656 0 0 0 0 -232.48121516442188 -122.44205685271299 0 -122.44205685271299 -12.717668284669344 0 0 0 0 -213.21887004146265 -80.746678175043598 0 -80.746678175043598 507.35580490715074 0 0 0 0 -219.58660640506423 -39.388901834958233 0 -39.388901834958233 276.30152586381337 0 0 0 0 -332.50897627815721 -403.84570885987705 0 -403.84570885987705 525.81773181460812 0 0 0 0 -242.95408213828637 192.43270737636237 0 192.43270737636237 53.227690091953264 0 0 0 0 -242.22285896031758 130.36250655275444 0 130.36250655275444 288.62719242575986 0 0 0 0 -11.425162104560883 46.627263565018524 0 46.627263565018524 124.91745305364076 0 0 0 0 -275.49387272496824 311.07903924871425 0 311.07903924871425 208.64645113569532 0 0 0 0 -281.02094178235802 357.10934332795387 0 357.10934332795387 274.78598508887808 0 0 0 0 494.04392531679332 1105.6737607673094 0 1105.6737607673094 977.55315089657961 0 0 0 0 3.8335068371984846 2.5738556291080243 0 2.5738556291080243 17.690937831675171 0 0 0 0 262.62285487994086 568.43871556029262 0 568.43871556029262 887.37742169724152 0 0 0 0 825.70407060538491 828.67470122554914 0 828.67470122554914 594.92813173023751 0 0 0 0 217.99606632519863 587.1454236116042 0 587.1454236116042 748.80990811796801 0 0 0 0 750.57105991590652 556.27566684192152 0 556.27566684192152 677.61490619440156 0 0 0 0 381.45818233679165 278.38544903950242 0 278.38544903950242 69.957528270602779 0 0 0 0 419.87771379960759 632.01422607515633 0 632.01422607515633 452.65452213786193 0 0 0 0 -1.7451058637614096 -0.33055569857401679 0 -0.33055569857401679 1.7396350339920019 0 0 0 0 -912.37097107946465 554.26353212441245 0 554.26353212441245 281.53929937385146 0 0 0 0 -188.1769412374415 873.01232523806902 0 873.01232523806902 415.73961201188285 0 0 0 0 -13.635363891436725 61.48184039764034 0 61.48184039764034 -73.878579499721113 0 0 0 0 96.069494821334956 923.68229379641343 0 923.68229379641343 680.38729779752794 0 0 0 0 -178.185794321922 294.45247496802767 0 294.45247496802767 254.64264345608535 0 0 0 0 241.02534639042278 882.52646277200802 0 882.52646277200802 351.16329423028947 0 0 0 0 -54.728014032327337 502.84596553830488 0 502.84596553830488 487.76824903861416 0 0 0 0 -113.259677779919 312.66201981425365 0 312.66201981425365 336.60631093220218 0 0 0 0 -387.92936878656474 293.25540510218161 0 293.25540510218161 491.54130504859495 0 0 0 0 -26.383977796773252 150.03946891739088 0 150.03946891739088 501.94090984594368 0 0 0 0 -603.21204191842844 681.98871931500526 0 681.98871931500526 -530.74950062600328 0 0 0 0 -568.26026379558607 528.81738550414957 0 528.81738550414957 552.14246509445002 0 0 0 0 -696.64664162392728 637.41296712465737 0 637.41296712465737 -404.89052220144367 0 0 0 0 -470.8377554724284 499.5319681943829 0 499.5319681943829 -889.15999712221674 0 0 0 0 -426.44607510868082 356.06735285225841 0 356.06735285225841 -507.49705142301536 0 0 0 0 -4.3141422362602952 4.3950824834539901 0 4.3950824834539901 -3.4273858394798964 0 0 0 0 0.078902756927476503 12.540109878540818 0 12.540109878540818 15.151326781153784 0 0 0 0 497.12373695029237 -50.362634106617406 0 -50.362634106617406 -1143.0366355828555 0 0 0 0 -347.73336464125896 135.30200363288532 0 135.30200363288532 324.78548242544275 0 0 0 0 -961.31216408629552 789.90691391368637 0 789.90691391368637 -117.21977377520307 0 0 0 0 235.79326526695513 207.16332558247814 0 207.16332558247814 -748.02560056049697 0 0 0 0 231.74298672121949 174.39267211338665 0 174.39267211338665 -449.35641424471396 0 0 0 0 39.241766569088213 -226.56883040247703 0 -226.56883040247703 89.040572496046025 0 0 0 0 -3.9858687153872552 25.843604675315916 0 25.843604675315916 9.9786814809717246 0 0 0 0 -42.249937645618047 -39.409745505322462 0 -39.409745505322462 -126.2381685626533 0 0 0 0 167.6333101549244 789.4741400368639 0 789.4741400368639 1178.3417724178689 0 0 0 0 591.24997848468774 860.04320535492116 0 860.04320535492116 744.14235456934694 0 0 0 0 -231.96881868399214 379.37456508045216 0 379.37456508045216 805.18014523472993 0 0 0 0 85.393978962965775 305.16534453109125 0 305.16534453109125 -514.40865458147528 0 0 0 0 139.22939508256968 243.96547411479332 0 243.96547411479332 -466.45349907570926 0 0 0 0 117.50984197226353 233.31432155754737 0 233.31432155754737 -466.55381936107733 0 0 0 0 97.904549235950981 226.13931275030882 0 226.13931275030882 -355.48397866042797 0 0 0 0 33.560245774686337 302.66741151515453 0 302.66741151515453 -437.65724383965426 0 0 0 0 132.38976795043709 255.37227162269755 0 255.37227162269755 -467.09270271015703 0 0 0 0 -121.17286488748505 369.64533556396418 0 369.64533556396418 -406.37552560290351 0 0 0 0 14.569278838058381 253.87266817455611 0 253.87266817455611 -318.75525497982744 0 0 0 0 -77.64991810664651 315.39523327805 0 315.39523327805 -251.19189578819169 0 0 0 0 12.141463233172544 257.17362643090382 0 257.17362643090382 -329.88146302402856 0 0 0 0 -162.71795808034949 329.4831609538669 0 329.4831609538669 -451.13828623525296 0 0 0 0 -122.02715630860553 215.11617861158845 0 215.11617861158845 -342.49164901944459 0 0 0 0 10.676228895680197 27.398795438655597 0 27.398795438655597 7.1860181240710936 0 0 0 0 -63.733016758953454 331.05727439066322 0 331.05727439066322 -518.06785489800859 0 0 0 0 -318.26160294954025 110.28782504815899 0 110.28782504815899 -510.9861465552749 0 0 0 0 804.18855813739356 -163.98926979560201 0 -163.98926979560201 437.33078029697936 0 0 0 0 -337.8683799588689 -407.26323337397162 0 -407.26323337397162 961.90718135838688 0 0 0 0 -621.2521801009716 -81.233673208931577 0 -81.233673208931577 1456.120153039963 0 0 0 0 -917.53257967569516 -172.90713052285719 0 -172.90713052285719 1027.2285609324051 0 0 0 0 -607.57227347619482 641.73382910533837 0 641.73382910533837 1051.3046558071801 0 0 0 0 -545.92731166125486 310.66271674851237 0 310.66271674851237 193.51696182422893 0 0 0 0 -134.08999884186778 487.04485073374781 0 487.04485073374781 91.242984394877567 0 0 0 0 -329.65298714127857 822.53577558968027 0 822.53577558968027 -19.462096887825282 0 0 0 0 47.953498980175937 879.89953644391426 0 879.89953644391426 -429.47656427112815 0 0 0 0 -229.83658532737718 565.53911796579541 0 565.53911796579541 -130.68037543474929 0 0 0 0 17.457320619825623 837.03017335785626 0 837.03017335785626 151.14885854802924 0 0 0 0 0.15793000935973112 1.1243067176096702 0 1.1243067176096702 13.979314977920524 0 0 0 0 -30.59135914350918 190.81573182368811 0 190.81573182368811 55.837735248089302 0 0 0 0 -148.76395835953008 -137.45639794340605 0 -137.45639794340605 384.96103265055353 0 0 0 0 -3.5437477013392709 3.898771805699738 0 3.898771805699738 2.3515452515148283 0 0 0 0 -312.49355360072514 -132.67347089004033 0 -132.67347089004033 1071.6542664473072 0 0 0 0 -163.26491899752 -160.1166613248156 0 -160.1166613248156 594.78639395313076 0 0 0 0 802.40128566054045 624.28827331177672 0 624.28827331177672 425.65156665335871 0 0 0 0 -1.7662309680557087 5.4691685514881101 0 5.4691685514881101 3.3665831550454577 0 0 0 0 325.095278320543 75.824838026181169 0 75.824838026181169 -368.1529529542895 0 0 0 0 -1290.9859813016956 672.97480300742245 0 672.97480300742245 -327.81329695923955 0 0 0 0 -566.10409938918747 -172.03727523904126 0 -172.03727523904126 413.09502093570336 0 0 0 0 -477.14866102844826 791.08199001519461 0 791.08199001519461 -603.74890302137828 0 0 0 0 -206.39517106486892 918.43701355250232 0 918.43701355250232 -1201.6361838246685 0 0 0 0 -11.57092890975764 57.94854090726767 0 57.94854090726767 90.848917587164578 0 0 0 0 -12.707719919925239 2.5198683016824504 0 2.5198683016824504 2.5274475196961443 0 0 0 0 -450.20792029231961 928.59640466637029 0 928.59640466637029 -202.61022587938442 0 0 0 0 -174.21405928093009 31.615302298160714 0 31.615302298160714 -437.06700759767773 0 0 0 0 -182.47242174144776 633.96524289164154 0 633.96524289164154 342.55686175621031 0 0 0 0 -33.050304045333178 342.60639255836577 0 342.60639255836577 10.832153082035802 0 0 0 0 81.659349106004811 -60.972851339677618 0 -60.972851339677618 684.2139990862197 0 0 0 0 182.70192725369998 157.44055073436175 0 157.44055073436175 1089.2079244567212 0 0 0 0 78.382123375864467 223.44584383180336 0 223.44584383180336 -596.13627019598425 0 0 0 0 -636.06721983337775 -345.35190262944889 0 -345.35190262944889 -33.185372458267011 0 0 0 0 1.605933024699425 1.9046736546835632 0 1.9046736546835632 1.1373580677333663 0 0 0 0 81.503579390351661 17.83280808856216 0 17.83280808856216 935.8229600340419 0 0 0 0 467.75798339036555 472.66047017859546 0 472.66047017859546 954.07043882480866 0 0 0 0 374.35629652134958 152.03947624512875 0 152.03947624512875 290.88080089153664 0 0 0 0 413.55828248223406 328.52515111061439 0 328.52515111061439 584.58754165543724 0 0 0 0 113.55731716527953 344.18088502226601 0 344.18088502226601 382.25173934599297 0 0 0 0 350.15671009858488 527.09843591820936 0 527.09843591820936 315.6510485558756 0 0 0 0 -4.92456593323692 6.6673868324127596 0 6.6673868324127596 -4.6170781314432432 0 0 0 0 315.78725338361983 188.34557238501293 0 188.34557238501293 -4.0206105767538247 0 0 0 0 246.18000272168138 252.99600697138703 0 252.99600697138703 -7.2079596327275794 0 0 0 0 166.93979471478087 223.58567288217091 0 223.58567288217091 188.59613692969651 0 0 0 0 172.96342177208862 197.10794069923031 0 197.10794069923031 412.089334181499 0 0 0 0 248.44384212014847 605.52051315773679 0 605.52051315773679 426.39753410380217 0 0 0 0 501.14342019258766 203.59179294717251 0 203.59179294717251 168.08312221741107 0 0 0 0 535.54538005724316 556.22664749978139 0 556.22664749978139 676.72853504752857 0 0 0 0 310.26251279670396 319.46380996935113 0 319.46380996935113 166.4764520929748 0 0 0 0 285.65289441079949 696.86029817215967 0 696.86029817215967 597.67948560633522 0 0 0 0 302.4307230381819 587.73425557472001 0 587.73425557472001 -52.652635510836262 0 0 0 0 372.49892283411464 244.15462555350678 0 244.15462555350678 -255.08882385844117 0 0 0 0 -72.300781771504262 391.38626576756997 0 391.38626576756997 -300.10943405878061 0 0 0 0 410.08546697754355 595.17239868831348 0 595.17239868831348 -320.7807764495119 0 0 0 0 395.49895293578447 252.27653789676651 0 252.27653789676651 -595.26684828287762 0 0 0 0 455.27698335027162 552.91029992320364 0 552.91029992320364 -681.95050414305297 0 0 0 0 -2.8217995715152711 3.386681534846133 0 3.386681534846133 -2.0902693353145168 0 0 0 0 700.75142179547402 667.3293658591283 0 667.3293658591283 -628.8590763380671 0 0 0 0 414.16267361937207 766.2135858569527 0 766.2135858569527 -515.55321659986657 0 0 0 0 411.74114419228863 767.61838636796801 0 767.61838636796801 -461.95271664396569 0 0 0 0 108.76336196837656 765.64874300203883 0 765.64874300203883 -406.72526291946269 0 0 0 0 605.04921363294125 -97.771216521037786 0 -97.771216521037786 -190.91654243999801 0 0 0 0 444.16237641251792 476.12770675936554 0 476.12770675936554 -444.00348675547139 0 0 0 0 252.25312199704058 501.82611065409947 0 501.82611065409947 -74.773858390526584 0 0 0 0 437.43912010042459 18.780046798936382 0 18.780046798936382 -111.21540808980717 0 0 0 0 450.32885718410398 237.93305180337848 0 237.93305180337848 -564.94582655073827 0 0 0 0 126.0474250940315 207.28293823483909 0 207.28293823483909 38.591305997309973 0 0 0 0 216.94255332527973 299.6304344519649 0 299.6304344519649 107.95092733495403 0 0 0 0 156.42284509527235 188.6753562015756 0 188.6753562015756 -136.55630056951668 0 0 0 0 173.18788405550004 81.221355470806884 0 81.221355470806884 45.855295483424015 0 0 0 0 111.43685637158342 88.021753445367722 0 88.021753445367722 -129.16516875704656 0 0 0 0 153.75809785654565 214.92066900598184 0 214.92066900598184 -30.22186400107239 0 0 0 0 92.610664392988838 132.10856820798926 0 132.10856820798926 -132.14279916047417 0 0 0 0 32.447164061159128 54.01231540986555 0 54.01231540986555 -92.1982978669148 0 0 0 0 33.956236603335128 60.667100566981389 0 60.667100566981389 -108.86017457495473 0 0 0 0 97.65729686008126 52.760889186205532 0 52.760889186205532 -100.61256774806679 0 0 0 0 120.2970498794748 38.192583789914352 0 38.192583789914352 -93.912628852287526 0 0 0 0 46.680734360590577 23.047489753364061 0 23.047489753364061 -64.124397469400719 0 0 0 0 112.05887800824712 -13.949899163329974 0 -13.949899163329974 -43.453289257849974 0 0 0 0 193.65205487128333 -19.288795255101746 0 -19.288795255101746 -66.389149243295833 0 0 0 0 197.07668842513522 124.18061351828146 0 124.18061351828146 -138.80588792931485 0 0 0 0 108.21754755834991 115.44470656335716 0 115.44470656335716 -114.35085493619408 0 0 0 0 -13.273964639549376 21.872635583394114 0 21.872635583394114 -46.837913156530703 0 0 0 0 357.31343131705216 90.51368636881034 0 90.51368636881034 29.307318541261338 0 0 0 0 4.2011033387771448 11.009452319404062 0 11.009452319404062 -32.588358920469851 0 0 0 0 52.914337635404081 9.250641129894575 0 9.250641129894575 -28.071177940233611 0 0 0 0 18.734914684103742 -9.3026734305162222 0 -9.3026734305162222 -20.007502629589336 0 0 0 0 52.294734737253748 5.5397186818045157 0 5.5397186818045157 -11.888913622882683 0 0 0 0 -20.368358101159799 52.480512912600005 0 52.480512912600005 -41.000451491825586 0 0 0 0 -19.77477801332077 23.323163254349964 0 23.323163254349964 -12.706685950842829 0 0 0 0 109.13175612571649 -15.004779494858667 0 -15.004779494858667 -58.990406326825905 0 0 0 0 134.29011494584847 90.750943481754803 0 90.750943481754803 -54.252858248890334 0 0 0 0 74.243464857834624 -20.606049939084187 0 -20.606049939084187 22.669799068429711 0 0 0 0 100.68220960951294 -35.46909809200406 0 -35.46909809200406 -160.46817205028492 0 0 0 0 -16.349997857498238 19.379508511632594 0 19.379508511632594 -55.214443690128974 0 0 0 0 21.18258472418529 -0.91883159444114426 0 -0.91883159444114426 -62.519971311903646 0 0 0 0 23.3282364171464 -19.783553877416125 0 -19.783553877416125 -92.38819231357644 0 0 0 0 71.201228747930145 9.0386930404929444 0 9.0386930404929444 -91.828957531720221 0 0 0 0 60.921503122335707 14.816304427535215 0 14.816304427535215 -45.545131469258195 0 0 0 0 49.845678276600665 0.99941484234113886 0 0.99941484234113886 -22.568196430642274 0 0 0 0 62.919480868171377 -7.8823626568282634 0 -7.8823626568282634 -62.389939294400392 0 0 0 0 8.8157625837775413 -97.6435500207117 0 -97.6435500207117 -48.572442318793037 0 0 0 0 9.3703332359248748 -2.8115181819366484 0 -2.8115181819366484 -5.4037693542927343 0 0 0 0 23.427405396250833 14.699503045715574 0 14.699503045715574 -8.9641153580450919 0 0 0 0 45.330708519996875 -14.857818417491956 0 -14.857818417491956 -50.3150578214875 0 0 0 0 46.484104304370703 -17.887192752248666 0 -17.887192752248666 -19.274568546228693 0 0 0 0 21.988436034946218 -6.1765091926799016 0 -6.1765091926799016 -34.785463034793864 0 0 0 0 10.981612248575232 19.670966649939913 0 19.670966649939913 -50.855409290453039 0 0 0 0 81.445449534861837 2.2079112583323877 0 2.2079112583323877 -95.436509000740443 0 0 0 0 13.870445328874169 -8.8331529041191459 0 -8.8331529041191459 -4.9973580297529558 0 0 0 0 11.85257417131038 5.7658949927140952 0 5.7658949927140952 -34.505500394560627 0 0 0 0 85.505196266807616 -68.942642388530658 0 -68.942642388530658 -58.863690957216022 0 0 0 0 27.125651163951261 0.88873879186876081 0 0.88873879186876081 -32.325762508546177 0 0 0 0 21.823299990268424 -73.208181628201601 0 -73.208181628201601 -58.945762228499007 0 0 0 0 28.853402442851802 -7.7003277708445239 0 -7.7003277708445239 -20.518435076541209 0 0 0 0 9.4836227897176855 10.858244542941378 0 10.858244542941378 -46.515575044051715 0 0 0 0 3.6321871027299721 2.701990821578093 0 2.701990821578093 -24.023631911580431 0 0 0 0 62.649071015126538 -87.870584194783987 0 -87.870584194783987 -167.59023563858864 0 0 0 0 4.4960380760461192 -0.54730639724652974 0 -0.54730639724652974 -3.0618512869623942 0 0 0 0 12.220958375006902 13.999526305356937 0 13.999526305356937 -56.369187662393948 0 0 0 0 0.064905223640380427 42.266689073388079 0 42.266689073388079 -38.182576459833399 0 0 0 0 66.047364053098136 -11.017951967969566 0 -11.017951967969566 -22.196318017507451 0 0 0 0 13.572686083065037 3.6827858228621153 0 3.6827858228621153 -15.675257941808482 0 0 0 0 39.277047201729147 49.852883527912127 0 49.852883527912127 -99.89731029667746 0 0 0 0 -22.342466257206979 53.388760020764039 0 53.388760020764039 -64.721183445461065 0 0 0 0 17.382477132024917 9.7023162102216816 0 9.7023162102216816 -50.84993002028601 0 0 0 0 93.85010750409856 -2.8763762091275566 0 -2.8763762091275566 -101.97871131983629 0 0 0 0 -44.085881304563372 7.9836020047587226 0 7.9836020047587226 -36.231933731254685 0 0 0 0 12.139942577399779 66.87307724330276 0 66.87307724330276 5.4520014022973555 0 0 0 0 -0.45366184675367549 186.44027229247149 0 186.44027229247149 -115.98360688357934 0 0 0 0 67.45389637232438 -0.32212726904208466 0 -0.32212726904208466 -16.895228846988175 0 0 0 0 93.743523233453743 -17.594625349542184 0 -17.594625349542184 -14.19361605150425 0 0 0 0 265.42378341656877 -75.807179847630323 0 -75.807179847630323 1.0138054550625384 0 0 0 0 -24.937466803467032 120.04710634668322 0 120.04710634668322 -150.52009153899053 0 0 0 0 15.76887915681823 0.70059295089492934 0 0.70059295089492934 -10.404789507221878 0 0 0 0 257.70546797338466 -34.185811823537733 0 -34.185811823537733 -82.923669153573428 0 0 0 0 -10.559925332320745 168.77782329107959 0 168.77782329107959 -206.97117558649552 0 0 0 0 13.176793877737339 0.61859926836152113 0 0.61859926836152113 -8.9133036784497222 0 0 0 0 36.288575340993702 17.113330485699407 0 17.113330485699407 -162.95796534285228 0 0 0 0 25.762421932726284 -28.634984126339987 0 -28.634984126339987 -88.456149899000593 0 0 0 0 1.0704767145653022 -32.405549722629075 0 -32.405549722629075 -25.962703624485584 0 0 0 0 12.729635831943597 35.279817641785485 0 35.279817641785485 -47.123615327658626 0 0 0 0 31.447961606570232 -5.81443234540221 0 -5.81443234540221 -28.179463373253142 0 0 0 0 -309.19106411980465 661.92917910881806 0 661.92917910881806 -1359.4810734871862 0 0 0 0 -68.787975983985234 623.18617655543676 0 623.18617655543676 -1458.2225779578157 0 0 0 0 -38.575736920101917 337.33798892095547 0 337.33798892095547 -864.42450747227485 0 0 0 0 -0.51630094983556774 337.75897401753446 0 337.75897401753446 -926.62096448772354 0 0 0 0 0.26393619051486894 2.4720359897956712 0 2.4720359897956712 -6.715300310653177 0 0 0 0 -401.52959766879212 803.25986645397643 0 803.25986645397643 -1055.1370047125674 0 0 0 0 0.93794344609192137 -3.1528968679972706 0 -3.1528968679972706 1.6100676946286754 0 0 0 0 -337.98341592025827 513.62442076826846 0 513.62442076826846 -1021.9312324238563 0 0 0 0 -11.465003308723681 285.30751061390765 0 285.30751061390765 -1054.4290821662696 0 0 0 0 0.48491347163508181 344.48293792058121 0 344.48293792058121 -820.9586587787162 0 0 0 0 -15.882157188920246 286.57596103276137 0 286.57596103276137 -884.88662261167701 0 0 0 0 -168.13693339980091 158.78314426030556 0 158.78314426030556 -410.43453176255025 0 0 0 0 -0.98483414467983721 0.027930758928341959 0 0.027930758928341959 -2.6418690201650517 0 0 0 0 228.14725617322256 418.12431710685996 0 418.12431710685996 -2175.466630692059 0 0 0 0 141.52356460032752 88.051506946609152 0 88.051506946609152 -1079.0411904818359 0 0 0 0 -18.229691822158202 207.85449991723635 0 207.85449991723635 -1610.0179145900693 0 0 0 0 -137.03210133897664 417.4861587438927 0 417.4861587438927 -823.85942701438034 0 0 0 0 -0.37311728016840295 545.28571392743333 0 545.28571392743333 -1577.9567761762737 0 0 0 0 -24.981177002986442 1168.0784543703544 0 1168.0784543703544 -2964.4926054970783 0 0 0 0 27.078756171994257 -4.4518895390946795 0 -4.4518895390946795 -17.19113418178388 0 0 0 0 -227.94683421852824 410.60909900510978 0 410.60909900510978 -1064.929181434718 0 0 0 0 -423.73351510403154 190.35467851293834 0 190.35467851293834 -1287.1900672822667 0 0 0 0 -4.0150511228193864 3.6350712925189654 0 3.6350712925189654 -2.4161584933623512 0 0 0 0 103.44685323201702 369.52259006725671 0 369.52259006725671 -1553.8733619357226 0 0 0 0 66.310245839646086 295.92267181475108 0 295.92267181475108 -809.14031726479152 0 0 0 0 -55.749185798165854 317.32287867155719 0 317.32287867155719 -796.26973252527387 0 0 0 0 -41.617216787690268 451.56457223577263 0 451.56457223577263 -818.92362899409636 0 0 0 0 121.42013685200436 459.1843055183067 0 459.1843055183067 -820.01933737518266 0 0 0 0 271.27127679871046 368.86719185095353 0 368.86719185095353 -923.84134273171003 0 0 0 0 -639.23881445315783 1043.4557591482444 0 1043.4557591482444 -1039.1186971287025 0 0 0 0 0.49873332188872155 545.00523588231954 0 545.00523588231954 -658.73788188758044 0 0 0 0 -1727.144363645406 924.36942577191803 0 924.36942577191803 -2883.9637193057515 0 0 0 0 -2.9198066437983812 2.85932300249398 0 2.85932300249398 -2.4424222319193198 0 0 0 0 20.916867951309541 2294.4419036598047 0 2294.4419036598047 -2010.0209909308614 0 0 0 0 1988.6439971781947 -1147.0840744856923 0 -1147.0840744856923 364.78054064180651 0 0 0 0 10.562888675125805 -0.7173389312783911 0 -0.7173389312783911 -6.7133336360250411 0 0 0 0 395.32104884081036 1563.495431216613 0 1563.495431216613 -2161.0857419252716 0 0 0 0 -54.938355455506098 2092.7290560047031 0 2092.7290560047031 -2187.9885493142938 0 0 0 0 2027.7079043245758 327.44466263265713 0 327.44466263265713 -344.99411678209071 0 0 0 0 1522.165479728792 275.89082476279418 0 275.89082476279418 -317.91138147140737 0 0 0 0 5.5854101795911504 10.705767668000675 0 10.705767668000675 -13.782797088659564 0 0 0 0 1271.5115524860666 -488.35583454769039 0 -488.35583454769039 -51.256620670748816 0 0 0 0 669.66750471104751 208.09531152238924 0 208.09531152238924 -10.010248450262225 0 0 0 0 1.5997470319214244 0.027504653317038219 0 0.027504653317038219 0.072864342464640686 0 0 0 0 -227.65346627274266 507.7100647105508 0 507.7100647105508 -872.03063346237104 0 0 0 0 2157.3768709502619 -298.77987878289423 0 -298.77987878289423 -10.726373539343513 0 0 0 0 2174.5822278065316 -317.57693762834606 0 -317.57693762834606 -127.97568985635917 0 0 0 0 2688.4023091668278 -402.84122244935861 0 -402.84122244935861 -274.46730539212876 0 0 0 0 951.03962767978737 341.78846189000888 0 341.78846189000888 -89.59855988707568 0 0 0 0 1879.7004908096278 134.66003741172972 0 134.66003741172972 -537.54406194600597 0 0 0 0 729.70444362024136 858.88130061743868 0 858.88130061743868 -925.14296600308444 0 0 0 0 394.75008479456301 824.01074962004714 0 824.01074962004714 -777.77942440290099 0 0 0 0 423.83595684240572 657.50865500860527 0 657.50865500860527 -606.52408571339038 0 0 0 0 160.9232573218178 936.40967961646675 0 936.40967961646675 -558.81815611921775 0 0 0 0 1030.6728683142137 432.62026258240712 0 432.62026258240712 -672.66817273331253 0 0 0 0 859.95860743329104 -391.18878455821141 0 -391.18878455821141 331.76950008760468 0 0 0 0 1373.7718339926359 96.400545150576363 0 96.400545150576363 -416.58279386528602 0 0 0 0 625.12069191230694 -39.322792907263647 0 -39.322792907263647 -115.91079505381822 0 0 0 0 636.35574283366441 -366.61095040147848 0 -366.61095040147848 115.48869643920079 0 0 0 0 -69.390582751380862 -90.94089665161664 0 -90.94089665161664 -18.605349731777096 0 0 0 0 45.276495803889702 401.81376950544836 0 401.81376950544836 -269.54641309754516 0 0 0 0 6.5170596760802653 -0.35241645802258859 0 -0.35241645802258859 -3.7418797743700196 0 0 0 0 2163.0058285672276 -1114.2961216692875 0 -1114.2961216692875 289.36080384485467 0 0 0 0 -112.30760323229333 471.47435360077179 0 471.47435360077179 1235.5678209347352 0 0 0 0 57.931281922959897 53.555296362070294 0 53.555296362070294 -878.93617682744707 0 0 0 0 -0.94593421837828373 4.660920229828001 0 4.660920229828001 -0.97075785234360978 0 0 0 0 -112.86605350159152 273.75344572685663 0 273.75344572685663 -379.41163694891475 0 0 0 0 102.02080679249048 157.58842546083179 0 157.58842546083179 -221.97603318660958 0 0 0 0 -103.64557671981675 -8.512981897303689 0 -8.512981897303689 -270.06727076889365 0 0 0 0 -25.40304951860162 58.643264050298967 0 58.643264050298967 -0.59622201952515752 0 0 0 0 98.604812440258684 138.6940692714561 0 138.6940692714561 -150.82476855173081 0 0 0 0 399.0317887289566 669.51797105293372 0 669.51797105293372 -29.466300111203964 0 0 0 0 -4.3376664249069847 13.637454746444861 0 13.637454746444861 0.20884735327092052 0 0 0 0 96.851222486217011 22.878553850159278 0 22.878553850159278 -278.20878981030546 0 0 0 0 -222.68928395015246 316.16196830507397 0 316.16196830507397 1102.835536931213 0 0 0 0 141.5018817891978 -7.6885500483513169 0 -7.6885500483513169 -549.82526624518232 0 0 0 0 -2.8149925749980014 10.435070625171683 0 10.435070625171683 -2.8036503350035176 0 0 0 0 29.893852698794944 115.24621107217445 0 115.24621107217445 -391.88722299798246 0 0 0 0 50.269352826580871 -74.09381307380454 0 -74.09381307380454 -273.0783499543104 0 0 0 0 105.7075780255982 281.17604729732375 0 281.17604729732375 320.70248346440349 0 0 0 0 -60.740490406511526 107.78793031425994 0 107.78793031425994 816.6723004449068 0 0 0 0 281.37592619254428 360.38237241783827 0 360.38237241783827 417.0637984929308 0 0 0 0 -10.71015538653046 254.38357322347383 0 254.38357322347383 791.65079777423671 0 0 0 0 -21.957487456049421 -7.1762165600885055 0 -7.1762165600885055 541.92850202377667 0 0 0 0 228.27244559664541 336.00387658589716 0 336.00387658589716 731.06205169114401 0 0 0 0 -137.84958520955115 -73.134448594311834 0 -73.134448594311834 428.55243229142798 0 0 0 0 -85.291895368907717 70.044351376467603 0 70.044351376467603 481.59359893471446 0 0 0 0 -5.8287482329287741 71.089095634728437 0 71.089095634728437 -186.22791776137456 0 0 0 0 -62.077501229730842 87.54337424215737 0 87.54337424215737 100.03816531391385 0 0 0 0 -24.90817296953901 -35.921536122686121 0 -35.921536122686121 304.81203092891519 0 0 0 0 48.224317757329118 -3.2583876501248596 0 -3.2583876501248596 66.735423994756275 0 0 0 0 -26.567066682260702 152.49952813033588 0 152.49952813033588 -135.43192775042917 0 0 0 0 315.34889305520846 206.58233853749971 0 206.58233853749971 740.53848551167357 0 0 0 0 141.57046291795996 130.65467151296434 0 130.65467151296434 589.13505093973254 0 0 0 0 -2.6403953143654064 2.8927882443621407 0 2.8927882443621407 1.0811290739826658 0 0 0 0 -236.98684037397834 139.76959205523508 0 139.76959205523508 732.99959023232441 0 0 0 0 -2.1112980476209486 33.413890630969036 0 33.413890630969036 856.14321972750986 0 0 0 0 -50.562597996620752 196.82983659762613 0 196.82983659762613 752.91133703790547 0 0 0 0 -73.166453834419372 109.84042240314011 0 109.84042240314011 -16.593867168598081 0 0 0 0 -25.597599378383961 38.042151198147153 0 38.042151198147153 -23.635240421408486 0 0 0 0 13.668079346709419 66.545459631797712 0 66.545459631797712 -222.94576831114492 0 0 0 0 -40.56351915689811 -70.272079859118548 0 -70.272079859118548 -62.663021226962883 0 0 0 0 -22.7742844722287 34.777745100227357 0 34.777745100227357 -13.591997156075301 0 0 0 0 5.7051483685258972 42.633000538752867 0 42.633000538752867 -87.459377359267819 0 0 0 0 -32.231902297924535 53.228274631190288 0 53.228274631190288 20.351485865357972 0 0 0 0 -30.94559385089633 56.227111458219042 0 56.227111458219042 -1.531585995995556 0 0 0 0 -0.67050112873948819 53.44037467430735 0 53.44037467430735 28.092963623446849 0 0 0 0 -8.817314022082428 116.00774861198261 0 116.00774861198261 181.97838512578252 0 0 0 0 -9.7161143950267217 6.5467270175509533 0 6.5467270175509533 -6.2528966902328991 0 0 0 0 -76.769859120700858 57.228362871569971 0 57.228362871569971 373.05028640391174 0 0 0 0 -34.091708154694061 33.511572582028748 0 33.511572582028748 37.281550753934425 0 0 0 0 -55.056145155418562 38.540230877209979 0 38.540230877209979 69.852285488716007 0 0 0 0 -42.806972909846081 54.288928163357923 0 54.288928163357923 31.206504756152231 0 0 0 0 -34.722729373114987 56.239573418412476 0 56.239573418412476 12.430359254256473 0 0 0 0 -33.68654512461778 35.713603428618811 0 35.713603428618811 -7.8555516469385305 0 0 0 0 -48.327621408207051 117.43784727691673 0 117.43784727691673 -49.68603702346536 0 0 0 0 -95.723503527573484 -104.00103220638994 0 -104.00103220638994 125.01774264998544 0 0 0 0 -3.7667264252661425 -0.13817964872848165 0 -0.13817964872848165 6.8826063953900771 0 0 0 0 -38.767618701996824 34.979024579234263 0 34.979024579234263 6.9972176122640244 0 0 0 0 -14.447638411440494 121.14710634959192 0 121.14710634959192 5.0349219470954267 0 0 0 0 -74.759018949205256 262.12913041920206 0 262.12913041920206 -304.17086903678137 0 0 0 0 -166.88562645991624 36.810592256031669 0 36.810592256031669 -42.480736769372015 0 0 0 0 -10.105401555252683 28.710514081014935 0 28.710514081014935 66.861587450959632 0 0 0 0 -27.011287594716123 54.285486888094965 0 54.285486888094965 36.623713789726025 0 0 0 0 -13.271161653441595 14.446511608613946 0 14.446511608613946 6.2700172169861617 0 0 0 0 -1.3728340945162927 53.099613754051461 0 53.099613754051461 21.675783801714715 0 0 0 0 4.6544795057717039 5.9460838223828389 0 5.9460838223828389 7.2385457044388701 0 0 0 0 11.637597428925801 79.732851797278272 0 79.732851797278272 68.161523867216829 0 0 0 0 -25.694133919565502 61.624744834645753 0 61.624744834645753 146.0171047446056 0 0 0 0 -41.540025234993891 160.9346840411547 0 160.9346840411547 297.59637321366972 0 0 0 0 -39.425742934639857 149.11731520490503 0 149.11731520490503 68.773313337191212 0 0 0 0 3.5219060695162625 122.21085586566915 0 122.21085586566915 85.554030467916164 0 0 0 0 120.28905235638013 349.58676603776348 0 349.58676603776348 -42.906460774043808 0 0 0 0 -81.283048806644729 469.07041655793046 0 469.07041655793046 273.0820642507897 0 0 0 0 0.58297789838428571 2.8469612443973134 0 2.8469612443973134 3.4241252917518779 0 0 0 0 224.6201440589175 209.60926652026683 0 209.60926652026683 -130.86171253985776 0 0 0 0 -25.363965377084241 99.295181703540948 0 99.295181703540948 577.15503782129417 0 0 0 0 242.03445300197018 279.69464743109916 0 279.69464743109916 221.02722851872386 0 0 0 0 -138.20662449005977 117.46791860539724 0 117.46791860539724 327.21140453851149 0 0 0 0 176.40067639678091 37.878993803222556 0 37.878993803222556 74.878764839893847 0 0 0 0 3.3853072291640274 -8.043370202011829 0 -8.043370202011829 85.147137239480799 0 0 0 0 17.053433491961187 134.41679863364698 0 134.41679863364698 138.18437205622467 0 0 0 0 127.4685384017539 75.785012788671338 0 75.785012788671338 61.925747285262332 0 0 0 0 -10.202747438295773 104.91000537799482 0 104.91000537799482 80.389875765513352 0 0 0 0 -2.6534981565273483 47.684270689645928 0 47.684270689645928 64.248420036137759 0 0 0 0 7.0481419920124608 30.245338436158363 0 30.245338436158363 35.962530615499418 0 0 0 0 -26.465304879871837 131.71935706463773 0 131.71935706463773 291.05906854641944 0 0 0 0 -48.18254127266664 265.40773365290352 0 265.40773365290352 265.27320822513138 0 0 0 0 -64.779963356959342 205.62346926672035 0 205.62346926672035 340.28006780669966 0 0 0 0 -66.917987091499526 221.54868424660799 0 221.54868424660799 260.30858369923226 0 0 0 0 51.088319961596426 185.90146954213014 0 185.90146954213014 175.65374626242556 0 0 0 0 -51.835378246363689 240.85721053014822 0 240.85721053014822 279.19559786062018 0 0 0 0 -80.653224640387634 92.605695565438509 0 92.605695565438509 122.78371011489435 0 0 0 0 -32.289180744372061 200.33711750635894 0 200.33711750635894 158.07403614066789 0 0 0 0 -269.69655495863663 -67.08397496627731 0 -67.08397496627731 707.7224495633418 0 0 0 0 -28.259299060038757 146.99530393359237 0 146.99530393359237 218.86581054857743 0 0 0 0 -97.635368191702582 99.191199217659232 0 99.191199217659232 19.573232800561527 0 0 0 0 0.73676769763487471 -0.33935459831580772 0 -0.33935459831580772 5.8745943136676289 0 0 0 0 8.6592007603315579 11.795171816919471 0 11.795171816919471 19.262962284470881 0 0 0 0 -297.26843041419488 153.9836015964629 0 153.9836015964629 171.50751851465429 0 0 0 0 352.34897941522286 -12.254814495605387 0 -12.254814495605387 -447.05895276003866 0 0 0 0 -114.47968676799246 8.8371795561638464 0 8.8371795561638464 -7.5500258028150711 0 0 0 0 -167.50697471164676 138.09289285540945 0 138.09289285540945 129.79552430190597 0 0 0 0 -3.8780519718947559 14.217676732874395 0 14.217676732874395 5.0687593099262074 0 0 0 0 -59.141406783626735 115.87753275153227 0 115.87753275153227 -51.129127006412091 0 0 0 0 112.11269976143194 78.000812750548903 0 78.000812750548903 -187.39385578905785 0 0 0 0 -40.548320751815481 70.710464392701397 0 70.710464392701397 -23.740950839777724 0 0 0 0 9.3744793303703773 65.051139954386599 0 65.051139954386599 -10.818634013059636 0 0 0 0 5.6124059163771562 55.377833690606622 0 55.377833690606622 32.190813784269267 0 0 0 0 -11.00427265081089 22.641773171424575 0 22.641773171424575 22.282185740412388 0 0 0 0 -20.259010021877884 48.862284777298896 0 48.862284777298896 -18.092382470222219 0 0 0 0 -23.852785650393344 83.978597687997535 0 83.978597687997535 -91.539005418455417 0 0 0 0 -52.653134160809714 91.951394311427066 0 91.951394311427066 -28.587118048889351 0 0 0 0 188.33440379875537 110.17532530622702 0 110.17532530622702 -49.077006286906226 0 0 0 0 327.55561606204719 333.07174816840052 0 333.07174816840052 -3.023364014863887 0 0 0 0 152.92215036447124 97.776613789309749 0 97.776613789309749 36.621492958051022 0 0 0 0 -29.998417127461778 35.407137164093697 0 35.407137164093697 -41.02175894259463 0 0 0 0 -67.495437122590374 39.972419357378385 0 39.972419357378385 84.547518417450192 0 0 0 0 -26.730936741591961 31.665109081813565 0 31.665109081813565 -34.372251067325273 0 0 0 0 -25.107117365506383 122.5876744633847 0 122.5876744633847 159.98733876411279 0 0 0 0 277.6725222528803 483.89077114661177 0 483.89077114661177 201.97697922570751 0 0 0 0 -161.09713185590408 110.09827211166521 0 110.09827211166521 164.1802836685456 0 0 0 0 -287.27186212223023 442.43467491082629 0 442.43467491082629 352.87474602884231 0 0 0 0 225.79378470964366 606.3818150232546 0 606.3818150232546 238.25876370737933 0 0 0 0 -286.88437224345091 -151.45139323504947 0 -151.45139323504947 -27.652398148529755 0 0 0 0 16.683392947201355 -42.486911471873555 0 -42.486911471873555 220.84909200830589 0 0 0 0 102.38003287513493 347.01540878722153 0 347.01540878722153 40.192642719876631 0 0 0 0 -20.033743996852309 23.323704905046313 0 23.323704905046313 -24.384130269638902 0 0 0 0 58.03598758247972 -81.169174220046443 0 -81.169174220046443 34.420023245305401 0 0 0 0 -166.73581891383219 364.68049034547266 0 364.68049034547266 -176.13363644916171 0 0 0 0 -453.27455140627194 134.92595845357641 0 134.92595845357641 180.9554296140559 0 0 0 0 -449.41312819283939 83.333851270435957 0 83.333851270435957 44.575210626153421 0 0 0 0 -3.4397934616617363 3.6728268403985709 0 3.6728268403985709 -6.9492236687799291 0 0 0 0 -619.89925098014646 11.757187988193436 0 11.757187988193436 132.17119145080324 0 0 0 0 -586.19823716674728 -159.88054656388886 0 -159.88054656388886 32.041995863968594 0 0 0 0 48.540158119238185 49.121725487366803 0 49.121725487366803 -39.034966532659382 0 0 0 0 -31.582072002645873 83.963702226289115 0 83.963702226289115 -125.94196557999021 0 0 0 0 -236.72368236586772 -52.167215797205245 0 -52.167215797205245 35.833159709582105 0 0 0 0 27.891518433352758 101.50599988428439 0 101.50599988428439 42.248937957424459 0 0 0 0 -8.6177906095477681 15.646182491390057 0 15.646182491390057 -10.829520350674784 0 0 0 0 -18.300998680148041 80.244503187229384 0 80.244503187229384 51.105545689591054 0 0 0 0 -17.104539831069587 50.876287786476141 0 50.876287786476141 0.54318107597100607 0 0 0 0 -63.179169175913557 67.682952605276114 0 67.682952605276114 -5.5839089413748297 0 0 0 0 -135.60092500584142 56.148305704589802 0 56.148305704589802 24.262885680694126 0 0 0 0 0.29571053914269818 3.6842710824401195 0 3.6842710824401195 31.569050866303186 0 0 0 0 -31.733978425923851 44.792357392781014 0 44.792357392781014 52.381243874621759 0 0 0 0 -0.70754915935961726 7.3251498060815265 0 7.3251498060815265 48.899052531141265 0 0 0 0 -48.561283599301532 25.091759924867347 0 25.091759924867347 33.326047154887419 0 0 0 0 -127.00349917526 -152.43001662055303 0 -152.43001662055303 -124.42714455453824 0 0 0 0 -42.837490609061206 64.050900473698221 0 64.050900473698221 42.248209158362442 0 0 0 0 20.956636554023135 50.975821462655858 0 50.975821462655858 41.787786253762533 0 0 0 0 8.4662215549074915 33.021855733162745 0 33.021855733162745 4.0756493489521981 0 0 0 0 -25.79218691339338 38.253452220088093 0 38.253452220088093 59.424893108686774 0 0 0 0 21.771115876465046 56.157441355164337 0 56.157441355164337 37.383501220849212 0 0 0 0 26.863528558526014 13.820109830749743 0 13.820109830749743 -25.179145489630173 0 0 0 0 0.57882637992275932 7.707939918643234 0 7.707939918643234 -0.8843153026693642 0 0 0 0 -48.028282532166486 -12.831701856310474 0 -12.831701856310474 -37.731003016830073 0 0 0 0 -7.7754966185748344 62.669000217991197 0 62.669000217991197 36.444866405159701 0 0 0 0 5.5011805599788204 75.388071579560346 0 75.388071579560346 -131.37213813750714 0 0 0 0 7.8531035005871672 67.594238854246214 0 67.594238854246214 32.636604688343141 0 0 0 0 -0.22199954799725674 72.225654846959515 0 72.225654846959515 38.892027872119797 0 0 0 0 12.423774081893498 77.30864489610758 0 77.30864489610758 35.118990372720873 0 0 0 0 -15.776179513675743 36.680268195819735 0 36.680268195819735 76.610201519297789 0 0 0 0 -22.949612480850192 114.96827352680702 0 114.96827352680702 117.25957025888783 0 0 0 0 23.325684383402404 53.010216899734587 0 53.010216899734587 39.246121596341254 0 0 0 0 -29.773601656398299 10.393147166008731 0 10.393147166008731 32.277028445401243 0 0 0 0 11.431901522177213 66.624040540885289 0 66.624040540885289 74.676625143347337 0 0 0 0 51.697349065769231 4.5387818242343201 0 4.5387818242343201 -25.567975913240844 0 0 0 0 12.736714019658393 66.538200035523914 0 66.538200035523914 72.677761681616175 0 0 0 0 23.765463675576029 75.752808097391608 0 75.752808097391608 65.961486042159777 0 0 0 0 -4.1995760801127346 1.552474605068916 0 1.552474605068916 -1.1729187091804469 0 0 0 0 -326.14645505532576 -149.19607079209629 0 -149.19607079209629 148.87815668827898 0 0 0 0 -322.79145192899887 105.17267581275519 0 105.17267581275519 172.95914353643821 0 0 0 0 204.14488459988206 201.3722238789087 0 201.3722238789087 -72.261753240961298 0 0 0 0 -3.25233348463982 -1.5564807063299035 0 -1.5564807063299035 0.10949631069670787 0 0 0 0 -211.14775657631253 192.94042426868054 0 192.94042426868054 -98.605498711545806 0 0 0 0 -25.904259647832532 36.626081863658158 0 36.626081863658158 2.7564418027213833 0 0 0 0 -506.69197728556173 -321.55624230721696 0 -321.55624230721696 241.58136281477709 0 0 0 0 -6.9899847862401145 8.0254728571237948 0 8.0254728571237948 2.5834678101249544 0 0 0 0 9.9128645248856628 123.62751576077062 0 123.62751576077062 226.98958718275571 0 0 0 0 15.741238411353152 24.044607411467567 0 24.044607411467567 5.9623484139491421 0 0 0 0 -433.15853013879314 38.300787982568181 0 38.300787982568181 1121.3255925530029 0 0 0 0 53.648882967449026 709.9512462117782 0 709.9512462117782 -1542.4178911226736 0 0 0 0 -145.71802979681524 214.21177330060527 0 214.21177330060527 1018.4753084554231 0 0 0 0 -134.85781582580967 2.3688215531346941 0 2.3688215531346941 -816.45102133744513 0 0 0 0 -339.62726949255739 410.7434734909657 0 410.7434734909657 -98.090010855816217 0 0 0 0 -202.564009904876 -33.086994200739355 0 -33.086994200739355 113.22826401345537 0 0 0 0 -42.155522787019436 190.80309105829292 0 190.80309105829292 -789.74406700122199 0 0 0 0 15.315985300723696 -21.13763062551152 0 -21.13763062551152 437.95867230967997 0 0 0 0 66.860132449771754 -536.78108496171865 0 -536.78108496171865 534.69026059555472 0 0 0 0 352.04579219785228 37.003644322132459 0 37.003644322132459 -205.69958833779128 0 0 0 0 40.114010198580218 222.20277172265196 0 222.20277172265196 -217.98850827114074 0 0 0 0 5.982034982642233 5.4739695176195369 0 5.4739695176195369 2.1803935346170178 0 0 0 0 2.3838950410861912 1.9871478827579097 0 1.9871478827579097 -0.59569714011391994 0 0 0 0 512.4924996167756 -411.92916928068553 0 -411.92916928068553 -1444.3723072049506 0 0 0 0 -768.1759918834432 310.47006231935848 0 310.47006231935848 281.99908217737675 0 0 0 0 -528.92290087815491 996.87416630775078 0 996.87416630775078 -557.96371856721635 0 0 0 0 1179.9378945875214 1139.6711329063728 0 1139.6711329063728 -2400.1025052878658 0 0 0 0 -41.548443725070683 702.58073982529095 0 702.58073982529095 2418.8364844035332 0 0 0 0 7.4966205871401712 10.335779625811213 0 10.335779625811213 2.3840506043802563 0 0 0 0 -159.22793264394568 937.96748323207794 0 937.96748323207794 182.60434693862044 0 0 0 0 466.7065272096861 -195.52416199648746 0 -195.52416199648746 199.74855583683893 0 0 0 0 794.09284656631644 1140.893915430559 0 1140.893915430559 653.9103730137067 0 0 0 0 614.67621586855967 315.1189790462463 0 315.1189790462463 -40.619717793957534 0 0 0 0 595.58452047131505 501.2280080200951 0 501.2280080200951 31.236597230537882 0 0 0 0 -108.39071672753926 169.2250141969198 0 169.2250141969198 206.8912147910487 0 0 0 0 -25.736129059223458 192.74304352928266 0 192.74304352928266 178.49289112290103 0 0 0 0 15.016828876774525 513.6944409489206 0 513.6944409489206 563.73815584586009 0 0 0 0 -281.95874514448224 29.793986245978886 0 29.793986245978886 155.60057937740066 0 0 0 0 -42.815797717936221 450.04706617692864 0 450.04706617692864 -213.9908056985023 0 0 0 0 -1355.3297694824287 347.32467803553664 0 347.32467803553664 923.33831969577295 0 0 0 0 -899.16981471494364 -395.96808827131463 0 -395.96808827131463 14.831343987225409 0 0 0 0 -360.82578197852126 -27.689902884587354 0 -27.689902884587354 266.76824725613915 0 0 0 0 -24.079320623917738 117.81278250440664 0 117.81278250440664 -277.14236661718905 0 0 0 0 -397.52166742295958 -118.50466008458534 0 -118.50466008458534 -14.70928873437515 0 0 0 0 -274.27807864057104 -304.42823858930387 0 -304.42823858930387 -237.29903995974018 0 0 0 0 -3.4496372619924784 0.52274460086150754 0 0.52274460086150754 10.668346088547761 0 0 0 0 -214.70519960374804 256.21457065902723 0 256.21457065902723 -159.18325522439409 0 0 0 0 -74.471077588568733 48.283661723244222 0 48.283661723244222 47.754208075319184 0 0 0 0 53.828411578782834 59.948935388238169 0 59.948935388238169 48.789984298192849 0 0 0 0 -390.45150242772434 371.7700309533102 0 371.7700309533102 -214.38381390572977 0 0 0 0 -1.6839713164819159 -0.80091418603541342 0 -0.80091418603541342 -0.38369729337796343 0 0 0 0 -218.07986351328145 -290.08459226490595 0 -290.08459226490595 484.78093840809197 0 0 0 0 -806.14419112497126 87.244028694112785 0 87.244028694112785 322.86322201049188 0 0 0 0 -835.56550549835083 80.482541283134196 0 80.482541283134196 321.3254298601496 0 0 0 0 -836.7924847443046 -67.870150000292142 0 -67.870150000292142 280.73459214727336 0 0 0 0 -513.96376890741521 -68.110752477488859 0 -68.110752477488859 275.31549105598242 0 0 0 0 62.078033156416495 203.95595566781958 0 203.95595566781958 -19.706896308001888 0 0 0 0 86.183096772612771 -285.86071387475022 0 -285.86071387475022 -131.66364264877484 0 0 0 0 -595.522468699608 130.34789068758073 0 130.34789068758073 56.042196537382551 0 0 0 0 -574.49264108222269 134.7032818291791 0 134.7032818291791 -248.95408476499142 0 0 0 0 -4.6865236056547985 5.9700112151475153 0 5.9700112151475153 -7.929167818625217 0 0 0 0 270.06431195502228 -404.89317285870857 0 -404.89317285870857 90.037900210765656 0 0 0 0 -102.14906240566415 573.68517123383936 0 573.68517123383936 794.8198476585967 0 0 0 0 1534.6909667098807 559.14096900144614 0 559.14096900144614 -842.02704105378143 0 0 0 0 109.93210862445994 -150.84601377236686 0 -150.84601377236686 1097.0889396235252 0 0 0 0 301.37980319472626 229.58997124235066 0 229.58997124235066 578.92477321890328 0 0 0 0 244.75969143434486 176.13135133579453 0 176.13135133579453 -44.278532246768009 0 0 0 0 83.416695590422023 40.246302439683859 0 40.246302439683859 17.572480283381083 0 0 0 0 -11.221064312513136 17.007308726542817 0 17.007308726542817 -27.987810273196629 0 0 0 0 49.754533285900834 166.70071948952591 0 166.70071948952591 131.3504647199199 0 0 0 0 237.06523342335322 325.26625608244001 0 325.26625608244001 136.1228583756274 0 0 0 0 106.04348967188707 180.64304184856519 0 180.64304184856519 23.759185001566038 0 0 0 0 -103.34421176003525 69.912940597067063 0 69.912940597067063 166.69988319078038 0 0 0 0 37.005638140195515 137.92136434434724 0 137.92136434434724 194.80594517806639 0 0 0 0 32.577448863718018 224.03454443309602 0 224.03454443309602 582.22675072439233 0 0 0 0 -109.49168445347459 224.074877661762 0 224.074877661762 354.52086537162904 0 0 0 0 -273.19395591603825 -37.232365233991004 0 -37.232365233991004 550.73573566960476 0 0 0 0 -12.94401781663413 -0.012611955951996379 0 -0.012611955951996379 14.557316670461333 0 0 0 0 -59.042259209199983 199.01272640406341 0 199.01272640406341 34.081218882838584 0 0 0 0 -10.951653610227964 54.2997714642717 0 54.2997714642717 150.23171496643513 0 0 0 0 -21.760423251755498 42.346225466429246 0 42.346225466429246 -21.504819227021947 0 0 0 0 98.256204616536706 114.98006064026004 0 114.98006064026004 47.436255583092134 0 0 0 0 88.47433376844856 81.374809646928043 0 81.374809646928043 31.4906676542887 0 0 0 0 255.97031992774282 47.479454266955145 0 47.479454266955145 30.543509723795921 0 0 0 0 -206.03649383150332 59.633036046943744 0 59.633036046943744 121.60625009987416 0 0 0 0 -232.6204470668381 51.692456780427165 0 51.692456780427165 103.82093078069374 0 0 0 0 -194.25672205652518 112.12501575911665 0 112.12501575911665 151.84348518913794 0 0 0 0 -126.9289197557373 44.323800173435302 0 44.323800173435302 81.743031250443892 0 0 0 0 -264.18992219911888 28.444417011156474 0 28.444417011156474 30.232857316237641 0 0 0 0 -129.79549255018537 101.98218351581511 0 101.98218351581511 29.916118227680272 0 0 0 0 -291.0647911294509 102.28576411146969 0 102.28576411146969 127.87121989244042 0 0 0 0 -281.04891243307793 92.037801581882377 0 92.037801581882377 77.321752898328668 0 0 0 0 -392.8803229619225 173.71416950101775 0 173.71416950101775 57.993623717619812 0 0 0 0 -206.61860621128289 182.12612886239003 0 182.12612886239003 -142.77791941335454 0 0 0 0 -125.43564601716935 85.796126940951581 0 85.796126940951581 -36.162902046526142 0 0 0 0 -286.217372539395 110.51428508802564 0 110.51428508802564 17.217853411995748 0 0 0 0 -197.00539735062921 52.263547774480685 0 52.263547774480685 53.190254467135674 0 0 0 0 -325.43048609713151 65.876492876514021 0 65.876492876514021 132.81346036527975 0 0 0 0 -83.180739436953445 -46.390554398925815 0 -46.390554398925815 -5.4450749760326289 0 0 0 0 -307.17272499897081 2.9163552020604584 0 2.9163552020604584 36.487871847846691 0 0 0 0 -481.77769913860175 -293.02431684730527 0 -293.02431684730527 -60.972853363953618 0 0 0 0 25.270726558643219 312.5802151656244 0 312.5802151656244 139.96902507565892 0 0 0 0 -5.0949956883353025 3.2097198431288945 0 3.2097198431288945 -4.5396558590915959 0 0 0 0 -143.71010249528626 373.41246729442173 0 373.41246729442173 129.11699495757921 0 0 0 0 -56.530361685698153 283.76493986152855 0 283.76493986152855 152.41500552786965 0 0 0 0 -43.665268951343023 -345.16483966845044 0 -345.16483966845044 -401.26044517734044 0 0 0 0 -300.71492210262659 367.6341937026009 0 367.6341937026009 208.29957757562079 0 0 0 0 -347.12286883126944 259.86473555893281 0 259.86473555893281 -39.175864580793132 0 0 0 0 -703.62115085235564 -52.129833613828851 0 -52.129833613828851 307.09870259459785 0 0 0 0 -221.25591412346694 78.495316966218525 0 78.495316966218525 109.51759693372514 0 0 0 0 62.508393195697863 346.43505939285205 0 346.43505939285205 327.3425816368981 0 0 0 0 -136.90979857226193 -93.558875920583887 0 -93.558875920583887 345.82478469088596 0 0 0 0 -36.286416862698388 -199.9256272234652 0 -199.9256272234652 90.662755510033094 0 0 0 0 -3.6435918658101514 63.686125335675513 0 63.686125335675513 62.098003218088358 0 0 0 0 336.29774910128617 14.626263347647182 0 14.626263347647182 -56.772568646218133 0 0 0 0 -275.08314160381269 1035.4185812763462 0 1035.4185812763462 -1496.0872140352803 0 0 0 0 10.965777838926272 70.176779919472608 0 70.176779919472608 71.242153256406354 0 0 0 0 -247.72708539784071 504.55638007479138 0 504.55638007479138 -1222.0643507219938 0 0 0 0 118.36660576066788 280.90201565121424 0 280.90201565121424 335.58400217836606 0 0 0 0 -44.247253784546047 -5.5904746313917713 0 -5.5904746313917713 370.74792813894237 0 0 0 0 -29.418221342490511 -10.268532015609878 0 -10.268532015609878 109.54133106381859 0 0 0 0 66.852014770891401 169.27049710694337 0 169.27049710694337 94.568557695318304 0 0 0 0 -48.549593193056353 -63.532904438510741 0 -63.532904438510741 178.56598928688618 0 0 0 0 272.6105964941853 140.96717510832514 0 140.96717510832514 28.225331553121578 0 0 0 0 -12.70635189213499 5.9128292595523817 0 5.9128292595523817 26.826485303012305 0 0 0 0 -208.55530410137726 465.37448284465972 0 465.37448284465972 147.07420469379213 0 0 0 0 11.905081646100626 22.372305487501229 0 22.372305487501229 13.740498526484949 0 0 0 0 2.4063655673590176 14.439004300420976 0 14.439004300420976 11.479515463426264 0 0 0 0 -1058.3653594409116 -1230.2848553789627 0 -1230.2848553789627 -458.48791849986446 0 0 0 0 294.92748670676156 -112.14629890792185 0 -112.14629890792185 -661.60366399459599 0 0 0 0 -7.6177031629195824 8.5472685128552186 0 8.5472685128552186 -9.4709647769763308 0 0 0 0 894.99784240566078 671.88431673901141 0 671.88431673901141 -1042.3818422686368 0 0 0 0 992.85174867830938 428.55398876150139 0 428.55398876150139 -1075.1435357308364 0 0 0 0 -427.82323053146683 147.87579351657405 0 147.87579351657405 306.20056913828012 0 0 0 0 -126.72265648013854 50.578128234588803 0 50.578128234588803 116.89084277468601 0 0 0 0 -273.71613336997689 47.209691374630893 0 47.209691374630893 346.60098802881203 0 0 0 0 -4.1902924899575282 11.959683729075223 0 11.959683729075223 2.5931797037004323 0 0 0 0 -2.1431053773230815 134.42076909849266 0 134.42076909849266 35.280619688024672 0 0 0 0 32.860053650474583 46.882233085097141 0 46.882233085097141 39.690136757209984 0 0 0 0 32.728336292415463 57.136067321748165 0 57.136067321748165 47.38208699128154 0 0 0 0 -23.472833358427124 10.873745377898686 0 10.873745377898686 28.125671747901421 0 0 0 0 23.568286191879878 32.733949055865736 0 32.733949055865736 16.766703353438757 0 0 0 0 25.661873641438433 35.098149133425977 0 35.098149133425977 38.3757620350043 0 0 0 0 -138.33214956466054 29.379494687623719 0 29.379494687623719 13.659647008196771 0 0 0 0 -22.849428286179318 24.500816059022327 0 24.500816059022327 196.20176955315401 0 0 0 0 -8.8644404280126139 0.30752941091093078 0 0.30752941091093078 6.8561569805499616 0 0 0 0 -185.16522119379079 61.073945321757492 0 61.073945321757492 2.0432543435781554 0 0 0 0 -84.804396220482886 95.796715352966203 0 95.796715352966203 10.794442915610489 0 0 0 0 -9.9291567762789441 15.843908605047169 0 15.843908605047169 -3.0440704120860147 0 0 0 0 2.054463161292972 3.7665784943046816 0 3.7665784943046816 4.2321166559236332 0 0 0 0 -2.6063279990485171 -33.28193089121487 0 -33.28193089121487 111.64266508168294 0 0 0 0 19.731793183692389 50.60679262538747 0 50.60679262538747 173.25399318977361 0 0 0 0 16.379765684941958 73.023132763521062 0 73.023132763521062 30.420901708546808 0 0 0 0 -9.4909559087100206 26.764017197992871 0 26.764017197992871 212.07448259112789 0 0 0 0 -14.291236894016038 1.392412329578292 0 1.392412329578292 230.01007263042811 0 0 0 0 111.70382197087383 117.61857820198111 0 117.61857820198111 170.0699790528306 0 0 0 0 4.969700231034949 21.117550887775906 0 21.117550887775906 186.7556160051754 0 0 0 0 41.104615281976294 61.606519865013979 0 61.606519865013979 215.23211728760361 0 0 0 0 -163.60715456947219 198.48386858529011 0 198.48386858529011 216.13737709834641 0 0 0 0 17.738940198454657 135.46036023097622 0 135.46036023097622 187.62417908365387 0 0 0 0 -78.040479318748112 83.453311823019249 0 83.453311823019249 227.03483753026558 0 0 0 0 70.566804210342525 87.15374952489401 0 87.15374952489401 240.6713198366524 0 0 0 0 -65.429010613217542 30.878130804279863 0 30.878130804279863 308.62695244721544 0 0 0 0 217.23792845610296 273.09718670328584 0 273.09718670328584 377.42689034576097 0 0 0 0 190.51476109991199 339.24251956008447 0 339.24251956008447 216.97074962660918 0 0 0 0 0.060690620653190308 2.9567033936914413 0 2.9567033936914413 2.5306629290165894 0 0 0 0 34.315891709600692 185.29204375520749 0 185.29204375520749 468.16653184022653 0 0 0 0 -48.513629450186272 83.505039380875132 0 83.505039380875132 343.21752839397232 0 0 0 0 178.79499180395214 -82.299396746166167 0 -82.299396746166167 296.10100208760923 0 0 0 0 39.559588856616756 59.736268528567962 0 59.736268528567962 870.22364470802859 0 0 0 0 -6.1436782596574631 349.44821082662384 0 349.44821082662384 1030.6831081749879 0 0 0 0 -1.4951207874575516 3.5732383167080997 0 3.5732383167080997 1.0480448963673439 0 0 0 0 -191.01813756288902 -24.535277420920465 0 -24.535277420920465 720.37510314126848 0 0 0 0 517.11716081673512 215.85529248964303 0 215.85529248964303 699.88476388872095 0 0 0 0 87.560783561944845 521.00796027387696 0 521.00796027387696 932.76617779063963 0 0 0 0 93.004885873859166 495.16775090664669 0 495.16775090664669 876.13924234115984 0 0 0 0 -2.1157980248569288 2.1340082300666836 0 2.1340082300666836 5.5371585275684723 0 0 0 0 259.96405721917108 254.31812598949182 0 254.31812598949182 -48.306885598802182 0 0 0 0 -72.218423147771318 258.45540147893121 0 258.45540147893121 884.08680121903308 0 0 0 0 352.61182447645115 589.72641029499573 0 589.72641029499573 485.97626353183841 0 0 0 0 65.373374468908878 228.81366162286031 0 228.81366162286031 216.4283509127381 0 0 0 0 310.32810270316259 97.282807283867442 0 97.282807283867442 -114.33076945748508 0 0 0 0 -68.887924857837788 13.487267582748245 0 13.487267582748245 44.441000976994474 0 0 0 0 -31.467841183523859 35.306576650857096 0 35.306576650857096 -21.619816910759322 0 0 0 0 42.716524209121417 -23.835434527401048 0 -23.835434527401048 -105.23017565273767 0 0 0 0 -24.929688399839506 27.159938055748171 0 27.159938055748171 -56.998793373932131 0 0 0 0 -48.345407124494159 76.948322306840964 0 76.948322306840964 -65.477445154065208 0 0 0 0 31.094473022694785 6.917972114332045 0 6.917972114332045 -52.125621902259979 0 0 0 0 168.62195981459809 0.024270966947369743 0 0.024270966947369743 -106.26951281561924 0 0 0 0 175.05716366622073 -30.42418723414994 0 -30.42418723414994 -101.23480791157635 0 0 0 0 -10.043047137945393 11.669655530898467 0 11.669655530898467 -12.496424062799449 0 0 0 0 7.9228305636564187 2.8490326593400734 0 2.8490326593400734 -10.872880394275853 0 0 0 0 188.8057920296269 94.341171175465206 0 94.341171175465206 -788.4474572820327 0 0 0 0 -76.370143007894512 79.855176943859988 0 79.855176943859988 -350.69151304104525 0 0 0 0 142.25382676326262 126.68289495900171 0 126.68289495900171 18.548292245326593 0 0 0 0 -104.26911665764055 128.01086498973746 0 128.01086498973746 -112.89762216762028 0 0 0 0 -111.05288694542833 247.48430674344854 0 247.48430674344854 -341.98992409310449 0 0 0 0 0.85953251214232296 19.305096238105762 0 19.305096238105762 -303.48322069838514 0 0 0 0 60.397747067851014 -114.44860043406152 0 -114.44860043406152 -124.3470172452927 0 0 0 0 433.92829171945777 120.49642364681313 0 120.49642364681313 -10.685980406848103 0 0 0 0 -3.4657691428559758 6.6179296449267326 0 6.6179296449267326 -3.9076344031288812 0 0 0 0 -39.599065314039763 136.19719761371152 0 136.19719761371152 205.35272643063945 0 0 0 0 -117.91382586402324 142.83216031521442 0 142.83216031521442 344.93682175886534 0 0 0 0 215.82054692234669 337.30984240226098 0 337.30984240226098 25.575168005223532 0 0 0 0 -156.43631610435114 79.193495856776281 0 79.193495856776281 -66.600609344195618 0 0 0 0 -51.235299814623431 220.5388907640704 0 220.5388907640704 65.916695510972204 0 0 0 0 -264.49043680612886 184.24169958004768 0 184.24169958004768 -677.91340049656719 0 0 0 0 -17.079751506019846 61.623986891748999 0 61.623986891748999 63.512481392743162 0 0 0 0 -149.07767517540196 575.30924873697677 0 575.30924873697677 -346.60588500726044 0 0 0 0 -627.236222439431 16.162346488881667 0 16.162346488881667 447.81288896327897 0 0 0 0 80.707661808191915 382.37023146921638 0 382.37023146921638 44.831509117040696 0 0 0 0 605.96031308243982 -518.99739117583522 0 -518.99739117583522 -509.00256703093328 0 0 0 0 -39.55544053765334 408.98960717318187 0 408.98960717318187 -928.79880504886387 0 0 0 0 -130.3018704477945 589.40522311081622 0 589.40522311081622 -916.98568093935319 0 0 0 0 -206.28849148526206 517.55848261927167 0 517.55848261927167 -981.93751514235919 0 0 0 0 -442.3703042986017 569.4391834385533 0 569.4391834385533 -893.49886933862581 0 0 0 0 -232.32271022625355 488.95145566723659 0 488.95145566723659 -895.05166103513329 0 0 0 0 -93.436880488763563 434.38195817377709 0 434.38195817377709 -884.55049420145951 0 0 0 0 -430.19640213772072 607.01781838985335 0 607.01781838985335 -780.01286556618652 0 0 0 0 -448.94137134714401 448.66925073725724 0 448.66925073725724 -951.01338084523013 0 0 0 0 -554.84047130832187 889.08780986413149 0 889.08780986413149 -1245.7779172592127 0 0 0 0 -388.51998461859876 679.99640480554081 0 679.99640480554081 -1229.1241785488528 0 0 0 0 -713.956015038435 915.70554289084248 0 915.70554289084248 -1137.8657492670427 0 0 0 0 -577.98978008406266 1158.7151254976161 0 1158.7151254976161 -1582.2852926601481 0 0 0 0 -488.03252300505847 890.78669253792032 0 890.78669253792032 -1602.0237541548995 0 0 0 0 -449.32292600224901 717.08203959804086 0 717.08203959804086 -1118.7418460038316 0 0 0 0 -1010.0529587125711 1455.0479105352824 0 1455.0479105352824 -1607.5190838738199 0 0 0 0 -595.14673295092507 828.28425425216483 0 828.28425425216483 -24.755430725432234 0 0 0 0 -301.59126277853647 566.62173485663152 0 566.62173485663152 -839.89684787250008 0 0 0 0 -299.97492882869847 589.14350513118188 0 589.14350513118188 -711.35857428907184 0 0 0 0 -490.83760236155649 725.5112634699617 0 725.5112634699617 -935.86678021975058 0 0 0 0 -671.41393563372549 1294.3845403777959 0 1294.3845403777959 -1197.8056346287412 0 0 0 0 -693.94467783207074 1088.0547263263215 0 1088.0547263263215 -518.9036893367811 0 0 0 0 -56.138655956798175 384.8268706657982 0 384.8268706657982 -701.99458532685821 0 0 0 0 -202.71541572519345 377.83950647409074 0 377.83950647409074 -353.9219972564897 0 0 0 0 -88.678761774906889 486.16242694770335 0 486.16242694770335 -534.64924263517605 0 0 0 0 -157.74055687994405 294.09628918210365 0 294.09628918210365 -315.09483775307308 0 0 0 0 -170.46911447834646 639.21752200082847 0 639.21752200082847 -783.55948500810337 0 0 0 0 -22.126795787306037 494.9404241558932 0 494.9404241558932 -625.69746468463563 0 0 0 0 -323.86246690521511 523.25256577584514 0 523.25256577584514 -557.90803378861528 0 0 0 0 -70.560665708500892 364.77906445851113 0 364.77906445851113 -443.99205475502822 0 0 0 0 -73.798277421865123 572.98683160718451 0 572.98683160718451 -661.17038397374563 0 0 0 0 -36.46241446443824 54.126548433069743 0 54.126548433069743 55.410147799314494 0 0 0 0 4.9329570028239687 113.80654293268026 0 113.80654293268026 -373.36913754749003 0 0 0 0 -355.1529295934015 230.58074580579523 0 230.58074580579523 -83.902597563442896 0 0 0 0 -20.271426996383212 58.040111549014838 0 58.040111549014838 61.042298234371536 0 0 0 0 -57.761864106665598 400.33493277111847 0 400.33493277111847 -897.79814543615794 0 0 0 0 34.963469506663387 467.37178953434704 0 467.37178953434704 -699.92711089298291 0 0 0 0 -38.620286570163444 389.80157075933676 0 389.80157075933676 -897.24625972585636 0 0 0 0 -94.827062704673153 455.35135576011817 0 455.35135576011817 -749.55488542720559 0 0 0 0 -189.97108474330889 306.3532326471759 0 306.3532326471759 -760.72705336983199 0 0 0 0 -237.31087912152429 982.02036721448997 0 982.02036721448997 -1574.2711226487299 0 0 0 0 -397.48661046323832 1140.112851071568 0 1140.112851071568 -1451.7675473214404 0 0 0 0 -384.79302675306826 1092.1283373072474 0 1092.1283373072474 -1398.6217247566528 0 0 0 0 -631.7906040900416 981.76850315638876 0 981.76850315638876 -1235.5012776506846 0 0 0 0 -477.08853264128993 628.51510906369185 0 628.51510906369185 -898.77432580872119 0 0 0 0 -147.16594795305355 813.90614036827901 0 813.90614036827901 -1325.881679436774 0 0 0 0 -444.49339938549383 827.95490207365947 0 827.95490207365947 -1444.1697677613265 0 0 0 0 -390.43157157870883 1067.8932858869739 0 1067.8932858869739 -1516.9897633830406 0 0 0 0 -919.27369923063816 997.61933881764708 0 997.61933881764708 -1466.0637895006112 0 0 0 0 -486.96025325812661 1058.0751687235606 0 1058.0751687235606 -1320.1343192338099 0 0 0 0 -531.60862389590329 988.65898410512091 0 988.65898410512091 -1018.0182528538935 0 0 0 0 -15.648243436395717 62.0907536835428 0 62.0907536835428 64.213799954436837 0 0 0 0 -205.55086406692863 288.02232012650165 0 288.02232012650165 241.9971167995518 0 0 0 0 -232.4710650343186 236.25585529838327 0 236.25585529838327 144.35101259825751 0 0 0 0 -489.8259350930457 490.48360308613701 0 490.48360308613701 -793.83780026155364 0 0 0 0 -441.64149797853315 935.64367383923673 0 935.64367383923673 -1222.507742580543 0 0 0 0 -68.597398047244496 530.27675425787675 0 530.27675425787675 -1192.313496810486 0 0 0 0 -524.47280685018632 785.82593269195786 0 785.82593269195786 -1532.3518799315343 0 0 0 0 -1001.7971619032469 1238.1068858747312 0 1238.1068858747312 -1591.4737880940729 0 0 0 0 -926.11779083427973 970.28997907755911 0 970.28997907755911 -1177.1356393556052 0 0 0 0 -967.56345719285719 1086.5157385467135 0 1086.5157385467135 -1890.8093106528686 0 0 0 0 -683.15857451116608 1307.473242435568 0 1307.473242435568 -2618.0857400850132 0 0 0 0 6.9501006878070086 -4.1677323056910041 0 -4.1677323056910041 -11.528577799199041 0 0 0 0 -965.20511028862529 1738.5562484992672 0 1738.5562484992672 -2345.8766988044517 0 0 0 0 -539.20801197813489 1051.5780501453974 0 1051.5780501453974 -2175.1624204760737 0 0 0 0 -31.540571626683231 98.553778077257448 0 98.553778077257448 -179.94420769597127 0 0 0 0 -26.335671555789304 78.989436703206593 0 78.989436703206593 -142.58293306678206 0 0 0 0 -653.43276568039437 1642.8032207077049 0 1642.8032207077049 -2305.4701667681074 0 0 0 0 -0.029756261350286195 1.7827394916522792 0 1.7827394916522792 -1.9473951278924915 0 0 0 0 65.076346263267624 10.416631047310148 0 10.416631047310148 -107.23734411257465 0 0 0 0 -146.99193403325626 117.83888630743604 0 117.83888630743604 -0.77506816515960963 0 0 0 0 -163.93673780870449 151.33900432958399 0 151.33900432958399 -49.940173710194358 0 0 0 0 -67.018425423608278 112.93542393890493 0 112.93542393890493 -177.32412497495898 0 0 0 0 16.421597705924796 121.01151778892381 0 121.01151778892381 -183.79002932399453 0 0 0 0 -3.0128712608271542 3.3178097648708302 0 3.3178097648708302 1.1714069624696108 0 0 0 0 -32.195745712808275 54.568588479331083 0 54.568588479331083 -89.264846559930447 0 0 0 0 -1.0521643233769282 145.71939670264101 0 145.71939670264101 -249.68896807361307 0 0 0 0 -48.069328312441371 84.052014223894346 0 84.052014223894346 -34.686454609282116 0 0 0 0 -367.62131839542417 448.29613247235102 0 448.29613247235102 1413.3802279868469 0 0 0 0 -64.796354035228433 115.84604052901159 0 115.84604052901159 -117.12682026722177 0 0 0 0 -11.136446213025181 19.24477155055682 0 19.24477155055682 -32.496482668516862 0 0 0 0 -35.766630909900414 62.109725764803443 0 62.109725764803443 -129.01487001627902 0 0 0 0 -49.664998406820814 67.7393041985124 0 67.7393041985124 -123.13915692400769 0 0 0 0 3.6786372942599996 -10.187764160352515 0 -10.187764160352515 -32.502186738401576 0 0 0 0 -532.898321796034 1626.2458683633486 0 1626.2458683633486 -2614.8999996479592 0 0 0 0 -49.83611389167595 65.911741463951103 0 65.911741463951103 -132.89257678665308 0 0 0 0 -52.822502690161272 55.093855877314901 0 55.093855877314901 -22.246549736140068 0 0 0 0 -154.91199693212548 -398.75082410460527 0 -398.75082410460527 1229.8205220348318 0 0 0 0 -766.93591296071463 100.00602214675746 0 100.00602214675746 1082.5551564868219 0 0 0 0 131.5724415616387 60.55124924879965 0 60.55124924879965 944.04680348256079 0 0 0 0 -96.42465407524287 184.58551580193307 0 184.58551580193307 997.48961723425236 0 0 0 0 -199.79119696445559 -95.334199213488318 0 -95.334199213488318 363.18596609357337 0 0 0 0 -807.83715845486586 -4.7332000763999531 0 -4.7332000763999531 413.61862271728569 0 0 0 0 -340.17080981407344 334.13173154929245 0 334.13173154929245 32.031430794479093 0 0 0 0 -1371.7822240082096 1282.1660487131594 0 1282.1660487131594 -320.47361595353141 0 0 0 0 -309.85165128369044 563.07567669130003 0 563.07567669130003 262.10897219349863 0 0 0 0 -535.31879542164097 616.94154119459563 0 616.94154119459563 680.87600696891604 0 0 0 0 -48.700532597475103 8.9387261766023585 0 8.9387261766023585 990.07789203108405 0 0 0 0 -616.18635074742633 329.53536019060266 0 329.53536019060266 500.39041741491747 0 0 0 0 136.19470364645531 684.12314957487251 0 684.12314957487251 -472.184205323887 0 0 0 0 -90.664191546471557 999.3108417787771 0 999.3108417787771 -196.50361162451736 0 0 0 0 228.77892460892326 406.805231561033 0 406.805231561033 -23.597647876435076 0 0 0 0 194.21034477156172 809.87542704512089 0 809.87542704512089 -559.14591576342355 0 0 0 0 -121.53550795422052 582.33965771134535 0 582.33965771134535 552.59152918629479 0 0 0 0 27.867151577505865 875.98317401031818 0 875.98317401031818 682.21841358004531 0 0 0 0 -57.498466975918774 86.584973330469168 0 86.584973330469168 -43.174025464496069 0 0 0 0 -285.27300376869971 788.3427367199256 0 788.3427367199256 -1748.6973841045401 0 0 0 0 -5.5306668347620871 833.50102543478715 0 833.50102543478715 -2627.552290198706 0 0 0 0 -701.64955107594142 1348.4473466422933 0 1348.4473466422933 -2496.9343072566262 0 0 0 0 -778.16488776484039 1093.4550594560715 0 1093.4550594560715 -2942.7173982081003 0 0 0 0 -1176.377656226844 1599.7687157817027 0 1599.7687157817027 -2982.9563912849117 0 0 0 0 -1174.6176997416478 1555.9245893817424 0 1555.9245893817424 -1979.5868415941659 0 0 0 0 -1110.5778646240942 1521.9952505715628 0 1521.9952505715628 -1964.399180430366 0 0 0 0 -1839.9942013967957 1962.9971841597144 0 1962.9971841597144 -1189.0390994969057 0 0 0 0 -1563.9131119377853 2059.2577003232873 0 2059.2577003232873 -1948.7379138100714 0 0 0 0 -4.2921634334013135 -0.66331866421646168 0 -0.66331866421646168 -2.022872277335054 0 0 0 0 -1757.5440117322869 1522.9971765379742 0 1522.9971765379742 -655.20306484799949 0 0 0 0 -1000.6625027197078 955.92725680590956 0 955.92725680590956 -1053.2820536423242 0 0 0 0 -96.378556488154572 1305.2924165135992 0 1305.2924165135992 -1711.5390809673991 0 0 0 0 761.95707294008753 423.36610168022162 0 423.36610168022162 -802.03686253569322 0 0 0 0 1972.9851319997397 -727.83501177616199 0 -727.83501177616199 -1293.3547526865877 0 0 0 0 -11.441889076063632 26.847043558360895 0 26.847043558360895 16.859417727020016 0 0 0 0 12.939514244548803 10.256255342733056 0 10.256255342733056 -2.0039901953558967 0 0 0 0 163.25750785940909 575.25082625249343 0 575.25082625249343 -837.327168119009 0 0 0 0 53.667812529383809 100.75561486923834 0 100.75561486923834 376.23153310899215 0 0 0 0 964.11049347510016 -436.72045714691922 0 -436.72045714691922 -233.7940667631774 0 0 0 0 3190.3893619482988 510.42355841974495 0 510.42355841974495 -3291.0074682125996 0 0 0 0 1061.5980187585228 316.39179676689673 0 316.39179676689673 -1753.8910203342984 0 0 0 0 1216.8118294049054 460.69127181665681 0 460.69127181665681 -1771.4233859558008 0 0 0 0 919.08539839892182 1416.1789586431842 0 1416.1789586431842 -2498.9560901051154 0 0 0 0 2076.8900425407919 2917.4380265150976 0 2917.4380265150976 -3770.1482214386924 0 0 0 0 -609.32427661991096 2813.7725703515462 0 2813.7725703515462 -5227.5436197551462 0 0 0 0 -115.7046821154363 58.389040502239368 0 58.389040502239368 -49.71483976196032 0 0 0 0 -105.28659494613385 383.58193013978234 0 383.58193013978234 -151.13075402263348 0 0 0 0 51.017476166220149 -97.065961655287538 0 -97.065961655287538 -85.809925929395831 0 0 0 0 -1949.3218471307191 3553.8121006881702 0 3553.8121006881702 -3635.1531113160599 0 0 0 0 63.534795266321453 254.88261009892449 0 254.88261009892449 -578.316446560857 0 0 0 0 83.396554094331805 448.72512878244015 0 448.72512878244015 -400.32652998788762 0 0 0 0 2.565697427151207 10.562013265245014 0 10.562013265245014 3.4708322497246513 0 0 0 0 -568.46798380539985 1523.49254089428 0 1523.49254089428 -4525.1884623654914 0 0 0 0 -347.02817373286234 68.960319208417786 0 68.960319208417786 444.68138480041853 0 0 0 0 151.33970436040545 218.11001775670593 0 218.11001775670593 -420.70278629936001 0 0 0 0 -456.22653237254417 486.98166725964984 0 486.98166725964984 -4352.6888410141546 0 0 0 0 -545.75362476220471 1129.1495062146569 0 1129.1495062146569 -3833.6167388526083 0 0 0 0 -762.47786928917048 586.64857923859381 0 586.64857923859381 -2755.8352822498346 0 0 0 0 -160.69336007940001 1134.0806873234687 0 1134.0806873234687 -3182.6903535659076 0 0 0 0 -2127.1643806157199 556.70466941142786 0 556.70466941142786 -3156.5851512092631 0 0 0 0 -672.67466198219336 1407.063048456097 0 1407.063048456097 -4014.8688796129427 0 0 0 0 -706.57557275562431 1273.5155835646729 0 1273.5155835646729 -3004.6546189163055 0 0 0 0 -1114.4877040580614 1696.6156813825655 0 1696.6156813825655 -4032.7456157396082 0 0 0 0 -1815.1264475721109 1268.7815016856521 0 1268.7815016856521 -3941.0829972670181 0 0 0 0 -1636.4442990715343 2929.2859727802238 0 2929.2859727802238 -3321.0313739332778 0 0 0 0 -8.1208794597986866 3.164560460278139 0 3.164560460278139 -14.374180857187994 0 0 0 0 -773.3833408622304 1528.0148743367172 0 1528.0148743367172 -3993.3302919097368 0 0 0 0 -861.38877267742646 1894.5540858723543 0 1894.5540858723543 -3018.676619375794 0 0 0 0 -1838.4340983288421 2202.1553676504409 0 2202.1553676504409 -1583.5853647285937 0 0 0 0 -668.21736890706234 1369.9107794937227 0 1369.9107794937227 -3095.3322270339413 0 0 0 0 -629.58245436020661 1838.3528861478626 0 1838.3528861478626 -5860.3678234971012 0 0 0 0 -105.38802853124798 -227.61534276634484 0 -227.61534276634484 1546.6809974526768 0 0 0 0 13.11621481355624 27.656280149823715 0 27.656280149823715 -9.4054515046269955 0 0 0 0 -82.788632760821201 215.62003820545942 0 215.62003820545942 -137.08907044278021 0 0 0 0 -241.87316831273529 -151.94621156931862 0 -151.94621156931862 149.03098577546189 0 0 0 0 -747.97502265988442 2030.7983726252496 0 2030.7983726252496 -3360.4392392071168 0 0 0 0 -1153.4511779041932 2131.861670095619 0 2131.861670095619 -1963.627815394444 0 0 0 0 -12.743242518839295 8.5534257662761775 0 8.5534257662761775 -15.278163168847769 0 0 0 0 -2067.4867188755961 772.29451536379202 0 772.29451536379202 -335.12537001230885 0 0 0 0 -443.20837218555971 -347.78379455033792 0 -347.78379455033792 2881.4380631049571 0 0 0 0 372.98639386217837 -582.07969687696459 0 -582.07969687696459 1340.2419025568088 0 0 0 0 6.85793676782734 3.247706419270969 0 3.247706419270969 7.578603570415396 0 0 0 0 73.305335240631393 489.33115072081273 0 489.33115072081273 -701.6401412046871 0 0 0 0 -20.539087422934244 -162.0499278933712 0 -162.0499278933712 1160.5912392369937 0 0 0 0 533.6708132903459 -139.13831318097073 0 -139.13831318097073 1057.2858592891571 0 0 0 0 125.23570200260474 335.90059157102769 0 335.90059157102769 410.779089471107 0 0 0 0 198.77026454354109 161.07770784528839 0 161.07770784528839 52.918153080885531 0 0 0 0 0.92459977220744349 0.78379564981426597 0 0.78379564981426597 0.84088098896572205 0 0 0 0 -261.80949160384625 126.89578035697923 0 126.89578035697923 1733.7099734855219 0 0 0 0 29.085328711706097 41.505712826590752 0 41.505712826590752 -302.89558591564128 0 0 0 0 -328.47625284638343 70.601928463242075 0 70.601928463242075 698.43875234555162 0 0 0 0 -88.541359561651916 154.65782716869762 0 154.65782716869762 590.66973295787466 0 0 0 0 -238.86980436836166 593.52258989500115 0 593.52258989500115 1625.3886673620364 0 0 0 0 -302.83622500986075 -348.1405136603712 0 -348.1405136603712 815.75270424262271 0 0 0 0 -1201.0512235264177 556.7773523163778 0 556.7773523163778 1048.8630460200075 0 0 0 0 -761.49579992287909 461.49892817738146 0 461.49892817738146 1521.0845444386432 0 0 0 0 -1175.0587088166358 1388.7827026268205 0 1388.7827026268205 424.8993801806937 0 0 0 0 -500.7282127443068 921.97557589386633 0 921.97557589386633 -476.23369597070268 0 0 0 0 -191.02009348485444 381.84901217857987 0 381.84901217857987 289.33615546382316 0 0 0 0 16.402780794807768 560.35580385450157 0 560.35580385450157 194.38405060359219 0 0 0 0 -517.78974022117836 930.95145449895062 0 930.95145449895062 372.06791771287681 0 0 0 0 -319.10063797202019 924.42234964344243 0 924.42234964344243 -197.78747532532725 0 0 0 0 -491.46018579840893 703.59784888545983 0 703.59784888545983 300.14115896894873 0 0 0 0 -372.53512756447162 542.67251247710374 0 542.67251247710374 324.44908799805853 0 0 0 0 -327.1665834680025 219.71726139366365 0 219.71726139366365 450.80345747814863 0 0 0 0 -310.44302697599051 110.59551210121936 0 110.59551210121936 99.44014202109247 0 0 0 0 -230.0344534675969 134.71927143733046 0 134.71927143733046 40.696292562970484 0 0 0 0 -252.58057486299367 164.43821060116898 0 164.43821060116898 10.255409882898675 0 0 0 0 -238.87222421736806 201.79599326093012 0 201.79599326093012 104.35887519725111 0 0 0 0 -206.15191121006865 444.04574622878135 0 444.04574622878135 -636.05680069422397 0 0 0 0 63.491030378646784 51.66699743804412 0 51.66699743804412 37.519078804416154 0 0 0 0 -338.02670137402311 755.49378817004254 0 755.49378817004254 -1784.0923429341055 0 0 0 0 -776.96382468327158 1105.8026747496883 0 1105.8026747496883 -805.22994739912974 0 0 0 0 -765.80265220936531 932.65211307957975 0 932.65211307957975 -1429.0847349081741 0 0 0 0 -179.00571340716851 363.76553288439754 0 363.76553288439754 120.06710971557186 0 0 0 0 39.794885522151901 30.006598569183225 0 30.006598569183225 9.0119738480619276 0 0 0 0 -1151.9703601622259 1779.2224868990161 0 1779.2224868990161 -628.62488614006725 0 0 0 0 319.11343911044241 487.14025252041756 0 487.14025252041756 -1786.7614618177504 0 0 0 0 -43.099558458834508 1374.1615329575288 0 1374.1615329575288 -1962.9513797871987 0 0 0 0 -149.69577087237849 777.19924027839079 0 777.19924027839079 -1101.2432082910964 0 0 0 0 5.0274115333450027 938.6864777708106 0 938.6864777708106 -946.6369503410242 0 0 0 0 -410.60363029120754 906.01690175070235 0 906.01690175070235 -909.53431788300804 0 0 0 0 84.163243523507845 513.46649675186563 0 513.46649675186563 -717.62868911095211 0 0 0 0 -593.48030947575535 972.51938038014487 0 972.51938038014487 -396.44752674398478 0 0 0 0 -246.67297940962271 332.71284106319945 0 332.71284106319945 -545.65273012252146 0 0 0 0 -15.350462701090308 43.465627653984299 0 43.465627653984299 40.638500943957361 0 0 0 0 115.21726453793462 248.19777935273669 0 248.19777935273669 -537.42858836054802 0 0 0 0 385.05546558646893 491.7266835563787 0 491.7266835563787 -719.97620699872823 0 0 0 0 567.45772302403566 506.01914332475644 0 506.01914332475644 -1090.6235688760353 0 0 0 0 499.19762871650983 215.02275954504967 0 215.02275954504967 -1806.9432828211138 0 0 0 0 -236.82432697301556 -175.56499452008575 0 -175.56499452008575 -129.75726971207769 0 0 0 0 83.541013916281372 37.296347240604518 0 37.296347240604518 -547.10487842958537 0 0 0 0 281.31078343190165 -151.40434209976956 0 -151.40434209976956 -205.88723273244977 0 0 0 0 209.52861057460541 -116.9049253979174 0 -116.9049253979174 35.712930083333049 0 0 0 0 117.82830201902834 130.34902870678343 0 130.34902870678343 -255.61026793725614 0 0 0 0 326.1566221397843 -271.80863677689558 0 -271.80863677689558 -5.3855279456547578 0 0 0 0 -7.4547072421479044 1.8089829523426886 0 1.8089829523426886 7.902489020953567 0 0 0 0 24.327837060191086 256.85624604396435 0 256.85624604396435 -1049.7321934786069 0 0 0 0 117.46577167803935 223.77261585703855 0 223.77261585703855 -413.12151144610107 0 0 0 0 -300.60308010323479 348.07268748127899 0 348.07268748127899 -409.1394307732262 0 0 0 0 -1957.8871777510903 3051.5260081340966 0 3051.5260081340966 -4849.8368504569371 0 0 0 0 -1213.2727370302819 1238.6460405876569 0 1238.6460405876569 -1238.140927037799 0 0 0 0 -24.063873032138218 35.80810295641146 0 35.80810295641146 28.390502541604747 0 0 0 0 -599.47955742134218 1432.9951844868483 0 1432.9951844868483 -2061.2183495243698 0 0 0 0 -2053.0510005571559 -217.2858343282569 0 -217.2858343282569 -988.46376624940604 0 0 0 0 77.683219029022439 -350.33340905905789 0 -350.33340905905789 -1316.673027858873 0 0 0 0 -1178.5727898021287 2296.5754051748736 0 2296.5754051748736 -607.92492269117611 0 0 0 0 -2761.9350590562681 1720.1464233321021 0 1720.1464233321021 165.73864355056139 0 0 0 0 -120.98347745347564 11.694949367218214 0 11.694949367218214 -32.64541380899027 0 0 0 0 -164.88526342618934 -295.40530429813225 0 -295.40530429813225 -519.19873817550251 0 0 0 0 -1886.5276374062014 698.17947329644812 0 698.17947329644812 -434.81589920786791 0 0 0 0 -8.6270028914400143 -3.8185975641216032 0 -3.8185975641216032 -14.613251226787412 0 0 0 0 -195.25140999611904 -46.1325316982402 0 -46.1325316982402 107.94595239160117 0 0 0 0 -248.79619497393287 -141.07396385776519 0 -141.07396385776519 13.848950274346862 0 0 0 0 -8.4356190442678098 10.73978203622076 0 10.73978203622076 -0.84748837166540625 0 0 0 0 -190.31214978446951 -38.86864501007949 0 -38.86864501007949 -113.51204858444544 0 0 0 0 -79.992092024782323 110.22774868797569 0 110.22774868797569 -8.0128442991990596 0 0 0 0 -127.04130125802476 49.869103665812872 0 49.869103665812872 10.675657094882808 0 0 0 0 -120.3680794183656 149.10853307065554 0 149.10853307065554 256.10617990326136 0 0 0 0 372.91598280207836 274.9273379361548 0 274.9273379361548 42.94872848369414 0 0 0 0 -80.249408521034638 114.83590828583692 0 114.83590828583692 37.819863364919456 0 0 0 0 -1.1082156749950514 3.5642917449452369 0 3.5642917449452369 -4.3616793679056514 0 0 0 0 -551.94378323070168 493.45994342254835 0 493.45994342254835 -632.01573481943342 0 0 0 0 -555.13821214808559 540.26758410557522 0 540.26758410557522 -866.99205544128563 0 0 0 0 574.60191869564005 1399.8464391194866 0 1399.8464391194866 -943.63647278964345 0 0 0 0 763.13834649166529 -18.628033063358544 0 -18.628033063358544 -628.1614747405547 0 0 0 0 217.45897303108359 354.61853688351403 0 354.61853688351403 -794.2433342242839 0 0 0 0 -288.7557383326639 611.98682631153497 0 611.98682631153497 -714.53116589882484 0 0 0 0 -328.80478954748105 464.63488230923031 0 464.63488230923031 -683.22942836536822 0 0 0 0 -622.423038473833 702.57961693475227 0 702.57961693475227 -640.34549183930699 0 0 0 0 -615.2005285017367 730.28521903607907 0 730.28521903607907 -776.49733585905415 0 0 0 0 -107.47137027677672 118.35947059453247 0 118.35947059453247 -123.76059329185227 0 0 0 0 1.3499750952687037 13.804204272935465 0 13.804204272935465 -22.397240650853135 0 0 0 0 -23.530699728322304 26.086151708563335 0 26.086151708563335 -32.734713818675402 0 0 0 0 -40.714395750067524 45.06378861398116 0 45.06378861398116 -26.194960199733032 0 0 0 0 -31.211235292576021 94.468923786593223 0 94.468923786593223 -135.57540358244296 0 0 0 0 -0.4472904067079071 59.714778295108772 0 59.714778295108772 -119.1807319751897 0 0 0 0 27.662112312579737 4.862754597385134 0 4.862754597385134 -64.31217751297676 0 0 0 0 -98.835699110641144 124.10404920681322 0 124.10404920681322 -148.18238436497631 0 0 0 0 -2.7906915426757166 9.4459346626959189 0 9.4459346626959189 -24.877522365735103 0 0 0 0 185.44823394934974 141.66509848049463 0 141.66509848049463 -60.42814599115809 0 0 0 0 47.505344133904146 48.904679652401683 0 48.904679652401683 -103.91817045024072 0 0 0 0 17.585660696429592 31.22468699845512 0 31.22468699845512 -71.78202502965982 0 0 0 0 -134.72725643024751 127.69537866616156 0 127.69537866616156 28.555497039811598 0 0 0 0 -83.319065647949174 116.77731612472417 0 116.77731612472417 30.866770078995614 0 0 0 0 -199.75762183584447 119.73117204502341 0 119.73117204502341 291.97368936512794 0 0 0 0 57.331677967653377 238.99843994028924 0 238.99843994028924 114.70423633440805 0 0 0 0 -54.826310791249853 76.865224489447428 0 76.865224489447428 -143.52309767659608 0 0 0 0 -15.509770120308971 20.586241863442723 0 20.586241863442723 -8.6117269833522414 0 0 0 0 -38.781687480630353 47.768958345594001 0 47.768958345594001 -59.684298327716533 0 0 0 0 3.3513535669375436 17.721188403016697 0 17.721188403016697 -55.616053094529633 0 0 0 0 73.87862834245243 76.158020353625034 0 76.158020353625034 -129.89902883590548 0 0 0 0 -27.22788042591128 45.531450147884243 0 45.531450147884243 -57.02094069487066 0 0 0 0 -19.97953483174183 38.097871683782557 0 38.097871683782557 -14.855708227356274 0 0 0 0 10.075689627130743 17.544606966179884 0 17.544606966179884 -52.052114533381825 0 0 0 0 14.402164476303327 29.832157554161554 0 29.832157554161554 -52.535825536459015 0 0 0 0 950.23190288804471 -3772.7313978105085 0 -3772.7313978105085 -5055.0834493804141 0 0 0 0 -8.1801400844318835 9.8281569440095495 0 9.8281569440095495 -5.528964197083198 0 0 0 0 -1175.119959302021 3528.4128031674663 0 3528.4128031674663 4879.220180379576 0 0 0 0 545.37106904028042 658.6510386083246 0 658.6510386083246 -612.93839187327831 0 0 0 0 321.14672407821854 -27.382369039725745 0 -27.382369039725745 -888.7267967490443 0 0 0 0 -39.610810814599148 23.841415438423354 0 23.841415438423354 -2.433699099082375 0 0 0 0 -90.745145967477583 92.073501462431523 0 92.073501462431523 21.100797904451611 0 0 0 0 -230.90820646555585 -36.36354764905991 0 -36.36354764905991 -326.3770175336067 0 0 0 0 -5.5285784956682154 14.039780659342384 0 14.039780659342384 -4.6781400048342618 0 0 0 0 -214.48346931496786 406.30204779152359 0 406.30204779152359 -350.24316479306435 0 0 0 0 -37.825156396090421 48.214590226532081 0 48.214590226532081 -17.170180359133639 0 0 0 0 -13.25126293759422 53.536112647316259 0 53.536112647316259 -17.175434062351997 0 0 0 0 -20.019902397516489 55.712013475760614 0 55.712013475760614 6.3534497033833759 0 0 0 0 -133.18204885222076 166.07670854254684 0 166.07670854254684 32.35015764911077 0 0 0 0 30.342623554084184 36.227464786265998 0 36.227464786265998 -4.1355366107316627 0 0 0 0 -109.66244601616927 167.81557436221192 0 167.81557436221192 27.188867003900668 0 0 0 0 -20.353424639127169 44.164981913980341 0 44.164981913980341 3.5632349018512404 0 0 0 0 -20.943217616404581 54.882671039838897 0 54.882671039838897 1.2474210278437567 0 0 0 0 -18.861532521001209 57.578774092980893 0 57.578774092980893 -0.37770072343300853 0 0 0 0 -19.918289374556934 56.103925658656635 0 56.103925658656635 -1.8697826586649171 0 0 0 0 16.50180466187885 21.393952485476802 0 21.393952485476802 41.899185302100705 0 0 0 0 -30.226959089697601 38.867707024051242 0 38.867707024051242 -19.336581258514595 0 0 0 0 -18.356977106012437 51.068993669969132 0 51.068993669969132 -23.187290495166963 0 0 0 0 -63.668318479947629 144.63505887922656 0 144.63505887922656 -155.70714919759757 0 0 0 0 -91.663397069074563 107.56671645831739 0 107.56671645831739 9.8702932585256349 0 0 0 0 -9.0107362487917797 19.955629165887572 0 19.955629165887572 -6.0857575349238502 0 0 0 0 -77.196868750665089 45.127967969013298 0 45.127967969013298 -59.278514536475996 0 0 0 0 -9.246816210783436 55.627769134884147 0 55.627769134884147 -6.0543799164497614 0 0 0 0 -7.9366235161633796 17.343569417445252 0 17.343569417445252 -8.5166006733069821 0 0 0 0 -10.823133006871331 30.360816057531899 0 30.360816057531899 -21.991558457471996 0 0 0 0 4.727514549588232 45.73553337346867 0 45.73553337346867 -50.972231564104035 0 0 0 0 30.800645707317017 30.063990863791332 0 30.063990863791332 -74.73944105287228 0 0 0 0 -14.529286989267064 23.884229753507412 0 23.884229753507412 15.356953096294077 0 0 0 0 -99.407861283383681 145.7761256644153 0 145.7761256644153 -116.03020871237095 0 0 0 0 -35.190565043762696 36.52877484334482 0 36.52877484334482 -2.9006080267394481 0 0 0 0 -31.44630497798498 46.496681635858181 0 46.496681635858181 -15.312581083177049 0 0 0 0 -37.632197901260952 71.075055381048514 0 71.075055381048514 -53.265126305377635 0 0 0 0 -45.936378967380733 47.414852527086623 0 47.414852527086623 65.47779622053622 0 0 0 0 -65.370717495482495 60.896645974310559 0 60.896645974310559 -9.9774616416543722 0 0 0 0 -53.627851420774277 40.615928870242897 0 40.615928870242897 -32.928624127067451 0 0 0 0 -41.153991082600584 42.011238567839598 0 42.011238567839598 1.1956724083246684 0 0 0 0 -43.425499546872743 49.951194156012207 0 49.951194156012207 -5.0855830115324352 0 0 0 0 -45.255826187121329 38.051196363959207 0 38.051196363959207 12.575818638608325 0 0 0 0 -49.396061408091555 55.832146342010674 0 55.832146342010674 13.909931162866997 0 0 0 0 -52.988785873785673 63.214277919428241 0 63.214277919428241 10.644833644102619 0 0 0 0 -33.229527920982946 52.571288087352514 0 52.571288087352514 -28.606316284618515 0 0 0 0 -37.448034565506532 53.459078996045719 0 53.459078996045719 0.66080829502334382 0 0 0 0 -15.073019766581638 53.935437272856689 0 53.935437272856689 -5.85883081692009 0 0 0 0 -22.629676360831581 55.409244332681737 0 55.409244332681737 -24.799831604792416 0 0 0 0 -26.220110158116469 41.811422628895279 0 41.811422628895279 -2.6289075473935108 0 0 0 0 -24.414240262567546 49.175575635840687 0 49.175575635840687 -5.0476958781255234 0 0 0 0 -37.065386560520921 39.193740681879589 0 39.193740681879589 -25.074632783108953 0 0 0 0 -44.772030508165471 64.789121746071032 0 64.789121746071032 16.876160697807791 0 0 0 0 -10.112725038889039 44.988488358845643 0 44.988488358845643 21.275588180767954 0 0 0 0 -37.33641768272355 55.44939793478261 0 55.44939793478261 24.719474068735508 0 0 0 0 -43.024639739554459 31.039739696549077 0 31.039739696549077 -57.952410990757926 0 0 0 0 -61.97545110935971 94.944758708013978 0 94.944758708013978 -28.298844572909729 0 0 0 0 -30.777091905180498 29.128710455188411 0 29.128710455188411 -56.970401092694374 0 0 0 0 -46.123550652254266 35.164103370338125 0 35.164103370338125 -7.3636397077243601 0 0 0 0 -43.984734870245575 70.053152935979597 0 70.053152935979597 14.997705014455278 0 0 0 0 -49.057984269792769 52.665332061224035 0 52.665332061224035 -20.025737815507455 0 0 0 0 -30.123915588605939 30.054317952510246 0 30.054317952510246 -89.335719793481985 0 0 0 0 -41.874614756901366 18.704711076125022 0 18.704711076125022 -95.195701933931559 0 0 0 0 -54.823465764244816 12.314218158579024 0 12.314218158579024 -79.830816355661227 0 0 0 0 -57.093141556088312 29.42369205819341 0 29.42369205819341 -56.964041174390331 0 0 0 0 -59.434480153656864 25.318255330566899 0 25.318255330566899 -94.319103665457078 0 0 0 0 -31.400448984729106 37.415955899436483 0 37.415955899436483 -65.534091057763789 0 0 0 0 -60.237113640202779 6.1073045267173711 0 6.1073045267173711 -100.58987265536416 0 0 0 0 -15.514342931529132 -17.142942476952186 0 -17.142942476952186 -13.848869166985025 0 0 0 0 -59.804872584832083 16.437467114836181 0 16.437467114836181 -86.181531757014454 0 0 0 0 -71.628734463228739 65.33844121034781 0 65.33844121034781 -79.058154044632829 0 0 0 0 -416.57717962467211 356.75554450970958 0 356.75554450970958 -487.97394085479254 0 0 0 0 -313.72745520676381 405.59482686423871 0 405.59482686423871 -493.5360917538419 0 0 0 0 -248.04152970842284 352.01235167507366 0 352.01235167507366 -735.41358019137988 0 0 0 0 -309.93686195607188 460.57836097510699 0 460.57836097510699 -841.59193367117223 0 0 0 0 -394.12678030233656 456.08542046428192 0 456.08542046428192 -696.61165199839525 0 0 0 0 -470.66637719075152 558.03233310182941 0 558.03233310182941 -716.50854740838986 0 0 0 0 -494.59135150106977 482.14047249511714 0 482.14047249511714 -680.58999997078354 0 0 0 0 17.208083280322889 66.474007287066541 0 66.474007287066541 -93.18848043762091 0 0 0 0 -154.94184376011708 475.80478742715422 0 475.80478742715422 -612.7246497514825 0 0 0 0 -76.517286253199245 50.776605753221702 0 50.776605753221702 -2886.385261523792 0 0 0 0 13.084991240765641 56.474219116966566 0 56.474219116966566 7.4128834981251543 0 0 0 0 156.60112724482133 850.5602712296095 0 850.5602712296095 361.34529405001012 0 0 0 0 414.71149414929823 608.49705174619885 0 608.49705174619885 -60.945538558167755 0 0 0 0 -95.722469799173268 387.45233618091152 0 387.45233618091152 560.0469753901707 0 0 0 0 -4.0773321507149376 560.49928466403799 0 560.49928466403799 192.66907852562144 0 0 0 0 -39.827064472650818 -50.133269172365544 0 -50.133269172365544 502.00052375102496 0 0 0 0 26.411862798752395 132.93862912419081 0 132.93862912419081 -519.49352751254628 0 0 0 0 -383.30365210150399 530.80632671724493 0 530.80632671724493 -729.74784775800799 0 0 0 0 -38.216281427912222 -29.692360185368315 0 -29.692360185368315 -50.138059558446514 0 0 0 0 -192.66161590675074 860.11393783951644 0 860.11393783951644 1031.5163341638399 0 0 0 0 1884.7150304335955 549.71183614153415 0 549.71183614153415 540.86793650819891 0 0 0 0 14.169030065831446 8.5420956181802978 0 8.5420956181802978 -26.793311523569173 0 0 0 0 1143.1641370388388 25.893961751149618 0 25.893961751149618 -2003.5569413976627 0 0 0 0 43.72309467258097 62.351927576037184 0 62.351927576037184 5.8374320519769753 0 0 0 0 126.64706625887084 49.384052244626218 0 49.384052244626218 -314.69638679379568 0 0 0 0 21.917426157165959 64.899969277363297 0 64.899969277363297 -102.0883596221901 0 0 0 0 -414.23722470214852 1624.8333866816974 0 1624.8333866816974 -1124.632022462436 0 0 0 0 6.1867037103981559 1.0102812226275688 0 1.0102812226275688 -24.226989609678242 0 0 0 0 -319.17423961743043 1813.8522876309289 0 1813.8522876309289 -2348.3638472073981 0 0 0 0 -184.33553676493011 269.90799311114824 0 269.90799311114824 -1145.7720989301451 0 0 0 0 86.929836148758113 123.6595331934368 0 123.6595331934368 -1106.095403714542 0 0 0 0 -664.56669416797922 779.99044294648047 0 779.99044294648047 -1102.8906763586551 0 0 0 0 -14.223899091643084 5.4681298311471096 0 5.4681298311471096 9.0981702375423907 0 0 0 0 -200.13671254843783 453.39201241778824 0 453.39201241778824 -496.97940814240428 0 0 0 0 42.775656653920159 45.339754151403483 0 45.339754151403483 36.61872117324134 0 0 0 0 -200.02898071376967 464.82212122456986 0 464.82212122456986 -528.02895474333491 0 0 0 0 -192.10780267776954 357.20170024658728 0 357.20170024658728 -362.48378552481154 0 0 0 0 -160.97476045528401 493.42838042557923 0 493.42838042557923 -533.31413567566779 0 0 0 0 -168.02150142166738 488.50471751612349 0 488.50471751612349 -514.71861917336355 0 0 0 0 -170.97905508040435 507.19841839056244 0 507.19841839056244 -531.93287455174141 0 0 0 0 -259.18400908577792 449.9283422442677 0 449.9283422442677 -491.466509832273 0 0 0 0 -201.37197062440327 499.95517406665022 0 499.95517406665022 -490.06580194126582 0 0 0 0 -279.60342711199655 486.80380157085892 0 486.80380157085892 -488.83910164764166 0 0 0 0 -292.32870936240232 438.31803899355145 0 438.31803899355145 -486.9412981334608 0 0 0 0 -232.08860686935992 576.50587781093054 0 576.50587781093054 -442.43471006923937 0 0 0 0 -138.68720411325194 493.55865622567944 0 493.55865622567944 -440.21891602510732 0 0 0 0 -238.19448619484137 505.97677892260253 0 505.97677892260253 -379.1395291430108 0 0 0 0 -195.3199843647335 547.83852340091835 0 547.83852340091835 -446.35865501352237 0 0 0 0 -126.65670330895045 436.75429834053648 0 436.75429834053648 -364.63888863974717 0 0 0 0 -38.466482382093091 390.85455031768652 0 390.85455031768652 -248.10601802256133 0 0 0 0 -178.39032196139624 468.78333439800554 0 468.78333439800554 -279.89384052398964 0 0 0 0 -125.97176094896304 461.42491271848121 0 461.42491271848121 -293.36848798784013 0 0 0 0 -221.7568479041341 624.34448061078001 0 624.34448061078001 -131.48655636463081 0 0 0 0 -258.31144066753814 492.96716177961207 0 492.96716177961207 -295.45023876687628 0 0 0 0 -134.35811905849096 152.26094296942756 0 152.26094296942756 -44.338951409699803 0 0 0 0 -184.91689631945428 224.22331446110911 0 224.22331446110911 -93.293719941902964 0 0 0 0 -14.76103129079911 319.39165828090336 0 319.39165828090336 -205.3894957047014 0 0 0 0 -214.52409254333998 361.98396874430182 0 361.98396874430182 -183.66390859897001 0 0 0 0 -224.56635090746477 500.8719016349678 0 500.8719016349678 -495.68134151303093 0 0 0 0 -193.57703667040914 379.14886148443475 0 379.14886148443475 -276.74785535316914 0 0 0 0 -369.97500795469023 460.51077807693218 0 460.51077807693218 -270.39357880431453 0 0 0 0 -338.72131303563765 367.59439041963196 0 367.59439041963196 -298.37208053021459 0 0 0 0 -265.78682779165729 220.56490889765337 0 220.56490889765337 -47.838490825903136 0 0 0 0 -433.19990311109905 403.51051406496845 0 403.51051406496845 -209.9815432017931 0 0 0 0 -18.541132840107835 11.637903846331682 0 11.637903846331682 -6.1127605743375284 0 0 0 0 -570.3397926953287 279.98821308982406 0 279.98821308982406 -173.89013776835054 0 0 0 0 -430.80699375079701 252.70103121635941 0 252.70103121635941 -186.42527728641289 0 0 0 0 -522.86131886899329 417.90608461564989 0 417.90608461564989 -459.28036244312534 0 0 0 0 -502.92053167920085 526.8809149798235 0 526.8809149798235 -451.23146956236451 0 0 0 0 -508.91923099476662 481.47490272253344 0 481.47490272253344 -697.38001029216684 0 0 0 0 -338.57200989391367 518.50412115953077 0 518.50412115953077 -601.64775094798824 0 0 0 0 -338.3448087968045 495.09227482973074 0 495.09227482973074 -491.59746042609186 0 0 0 0 -202.06792756959203 560.29756630632619 0 560.29756630632619 -632.64704486075789 0 0 0 0 -139.70241201852969 363.51991739151708 0 363.51991739151708 -586.91689936697367 0 0 0 0 -204.47826908504067 517.56479242433124 0 517.56479242433124 -764.07587557932129 0 0 0 0 -2319.8290917970089 1144.2904331226309 0 1144.2904331226309 450.2381612537356 0 0 0 0 15.532242882767452 51.176827801424537 0 51.176827801424537 -124.2893573926695 0 0 0 0 -587.10877183985281 293.82283936362182 0 293.82283936362182 -665.10082688205875 0 0 0 0 -644.93167464872568 510.56269851821708 0 510.56269851821708 -526.09913359266648 0 0 0 0 4.2876331368537741 18.669510246799334 0 18.669510246799334 -22.317062769001893 0 0 0 0 418.95554162009375 70.561926919745019 0 70.561926919745019 -708.93958912605012 0 0 0 0 -79.867903020758604 337.24445615896184 0 337.24445615896184 -146.36978436700883 0 0 0 0 59.27450864844468 -4.8478508539119503 0 -4.8478508539119503 -156.87995744201521 0 0 0 0 81.305639010268209 91.476623114016803 0 91.476623114016803 50.9790723238971 0 0 0 0 140.10444001092583 -74.247716262894755 0 -74.247716262894755 -124.10297740911483 0 0 0 0 166.83972698624439 84.964959966102015 0 84.964959966102015 12.513161959403078 0 0 0 0 348.14782443353761 284.60516887545964 0 284.60516887545964 21.924377317953258 0 0 0 0 75.016438000505786 153.93300335533058 0 153.93300335533058 326.83611086243764 0 0 0 0 17.560259075608556 50.936289172607978 0 50.936289172607978 -77.869418597881236 0 0 0 0 19.564672865613119 80.265129258935886 0 80.265129258935886 -32.114637917254583 0 0 0 0 -831.33447648347465 516.04227785444527 0 516.04227785444527 -386.6656592591753 0 0 0 0 44.869450601279823 71.960315757991339 0 71.960315757991339 -41.415017426581471 0 0 0 0 58.713681461351179 61.685937859169904 0 61.685937859169904 -76.262880926625996 0 0 0 0 -273.61054826948748 88.236072918320133 0 88.236072918320133 -6.2474630353390239 0 0 0 0 -145.88519616281701 128.3356508880388 0 128.3356508880388 17.450914470098724 0 0 0 0 -153.64252750820742 -44.89481482541305 0 -44.89481482541305 72.203848910132365 0 0 0 0 -263.20084988062445 -14.99796662105291 0 -14.99796662105291 -101.19663288173615 0 0 0 0 -511.4703844704818 240.41783895899789 0 240.41783895899789 -31.770059601025423 0 0 0 0 -899.0643438121042 138.59458031272516 0 138.59458031272516 8.8767942179729289 0 0 0 0 -4.3557148374127905 -4.8846071109203137 0 -4.8846071109203137 -4.2254110799293016 0 0 0 0 -138.39334593714011 -128.28327943239856 0 -128.28327943239856 -149.33391183253116 0 0 0 0 -565.73133800327014 585.86785802085797 0 585.86785802085797 -552.90720961669285 0 0 0 0 -1165.1264026823919 232.20705792157969 0 232.20705792157969 -123.99029380980937 0 0 0 0 413.31199631697791 936.02477161355307 0 936.02477161355307 -51.645992311532609 0 0 0 0 -129.58518449256735 119.90335200727895 0 119.90335200727895 301.06495902812458 0 0 0 0 -94.371018566511339 119.47491731530317 0 119.47491731530317 -810.83447672895272 0 0 0 0 -1133.9354858892766 529.14856786548626 0 529.14856786548626 86.119316078766133 0 0 0 0 -42.516007023126519 33.261611287188614 0 33.261611287188614 -26.955787902234817 0 0 0 0 -47.731677813535498 280.03186366018781 0 280.03186366018781 508.25649437637185 0 0 0 0 -192.26322687900392 -171.48238449259952 0 -171.48238449259952 633.75133918883512 0 0 0 0 512.14952752394674 -314.97419740357509 0 -314.97419740357509 -492.81066453963285 0 0 0 0 -1655.4027170948975 -601.9097347149509 0 -601.9097347149509 782.66199968347792 0 0 0 0 -386.40191988942388 328.69107333672582 0 328.69107333672582 -8.409490984166041 0 0 0 0 348.09076037959221 -526.36770083278861 0 -526.36770083278861 89.708428771351464 0 0 0 0 -553.57639286857011 -647.34633817223948 0 -647.34633817223948 711.95692454863456 0 0 0 0 3.2047474692197682 1.3314188844609589 0 1.3314188844609589 -2.8465016322326164 0 0 0 0 -1667.8639070005593 623.90520383269177 0 623.90520383269177 351.21484349126695 0 0 0 0 -1961.7075169389573 90.450552491398412 0 90.450552491398412 964.89424631930888 0 0 0 0 -3000.1029575272405 176.28600724393618 0 176.28600724393618 898.54213484111824 0 0 0 0 -18.445075068554004 13.806986544698042 0 13.806986544698042 -9.7159256590764755 0 0 0 0 -1499.5118113947392 -247.82109356246656 0 -247.82109356246656 260.58108395975432 0 0 0 0 -1763.5245220237412 444.36945397479576 0 444.36945397479576 354.17797972852713 0 0 0 0 -1854.2390334896431 2175.8865579820254 0 2175.8865579820254 -958.45331858022837 0 0 0 0 -912.17201268953067 1175.4633570409078 0 1175.4633570409078 -353.4131378341408 0 0 0 0 53.149007715812331 74.708978195383679 0 74.708978195383679 -46.84516913779953 0 0 0 0 52.8697695006922 60.92138608872483 0 60.92138608872483 54.960638787379139 0 0 0 0 -27.953449370185439 62.597632413453461 0 62.597632413453461 -26.505946568096874 0 0 0 0 367.3661735431524 118.7302675801111 0 118.7302675801111 -183.82547837518723 0 0 0 0 40.355181712395279 89.937053479916358 0 89.937053479916358 92.749209399349638 0 0 0 0 -125.10615756244806 -22.279131161238183 0 -22.279131161238183 269.4745939890272 0 0 0 0 -50.795028742770228 -42.217024482160923 0 -42.217024482160923 -153.61274808936287 0 0 0 0 3.8657002580861715 50.326970167670481 0 50.326970167670481 -39.238646425132856 0 0 0 0 11.816774909158994 -106.91066984464123 0 -106.91066984464123 -24.95215188380098 0 0 0 0 125.92855705012698 -7.2165381449558481 0 -7.2165381449558481 43.699756966634595 0 0 0 0 -28.102785728493473 81.01074519539543 0 81.01074519539543 -33.002260882727569 0 0 0 0 -2.564469865012458 50.578579952227201 0 50.578579952227201 -34.694813248078276 0 0 0 0 240.04567989857969 51.540664537889825 0 51.540664537889825 -403.82930291593948 0 0 0 0 -160.1126139285625 67.458898720215075 0 67.458898720215075 -53.395945302015207 0 0 0 0 -177.34753825241887 376.5271366027323 0 376.5271366027323 -780.15302239340963 0 0 0 0 -39.179639581139782 11.425364184498903 0 11.425364184498903 -149.28905131951069 0 0 0 0 -606.38968641497559 626.46537106019969 0 626.46537106019969 -316.259301163911 0 0 0 0 -707.10584381626541 423.56367878176388 0 423.56367878176388 41.696380877037882 0 0 0 0 -4100.485006502051 638.57219129239093 0 638.57219129239093 -700.88721659127623 0 0 0 0 -1006.8652321373229 1596.0585114409187 0 1596.0585114409187 -3336.0864100486797 0 0 0 0 -2942.5292363222907 2854.1835871607764 0 2854.1835871607764 -1168.2204060207878 0 0 0 0 -3968.116372586861 1637.3053146343445 0 1637.3053146343445 -237.25087285414338 0 0 0 0 -3363.7091716315917 577.11076177279756 0 577.11076177279756 635.06826415460091 0 0 0 0 -1334.1606921440252 1749.050131556316 0 1749.050131556316 -1618.2449433815345 0 0 0 0 -132.13601226813626 923.33642290363787 0 923.33642290363787 -1249.626173238823 0 0 0 0 -1360.293949711282 1421.5770290376895 0 1421.5770290376895 -1282.1372829074826 0 0 0 0 -3580.0659761096977 1966.0864208535895 0 1966.0864208535895 -1240.1774644092657 0 0 0 0 -1274.4468009087577 1537.1519877432656 0 1537.1519877432656 -1457.786953659619 0 0 0 0 -910.55126447426301 717.66063882151502 0 717.66063882151502 -784.39719788459479 0 0 0 0 -359.92344445651543 449.16500833851751 0 449.16500833851751 -875.5195413394249 0 0 0 0 -79.311048782808939 591.78427459539671 0 591.78427459539671 -1034.8113738806569 0 0 0 0 107.85123267846211 309.5287250943511 0 309.5287250943511 -1078.5798683722387 0 0 0 0 -1324.7499790985166 1285.4428707245097 0 1285.4428707245097 -866.14278726380508 0 0 0 0 -341.62197169320643 369.17007087221282 0 369.17007087221282 -620.99094546266133 0 0 0 0 -4087.6322923550833 1190.1245611576524 0 1190.1245611576524 -49.332653676268819 0 0 0 0 -6.362179081032231 7.6091380443151238 0 7.6091380443151238 2.0283919350848123 0 0 0 0 -2241.9745456674209 324.20595160302037 0 324.20595160302037 -53.748518203639833 0 0 0 0 -1050.7052237673151 299.98285441212465 0 299.98285441212465 -72.169767564642825 0 0 0 0 -1455.5537952987906 907.78920032387032 0 907.78920032387032 -23.626887876860565 0 0 0 0 -1287.0102000352126 833.19026860646409 0 833.19026860646409 7.9800158008001745 0 0 0 0 -988.96707971131036 344.88560947734732 0 344.88560947734732 -53.836547242841334 0 0 0 0 -2.4382716410275198 50.584604849543005 0 50.584604849543005 -23.803594275874559 0 0 0 0 -544.16813672136777 577.23033491118986 0 577.23033491118986 -224.51899974290427 0 0 0 0 -1235.6701704597581 979.16699010280718 0 979.16699010280718 -307.63596249573243 0 0 0 0 -1509.8953225909136 574.34046982810105 0 574.34046982810105 -83.022903187062184 0 0 0 0 -760.5865565449094 508.59104972274872 0 508.59104972274872 -103.03406414452184 0 0 0 0 420.26741945405229 213.17855970298115 0 213.17855970298115 -12.529530170240832 0 0 0 0 278.84136011895043 2.1146077573575894 0 2.1146077573575894 -48.796703599145985 0 0 0 0 83.946298832569852 44.085131538661699 0 44.085131538661699 10.299451017854153 0 0 0 0 369.70361099208367 133.28041390840372 0 133.28041390840372 -59.37489418975747 0 0 0 0 406.66640131785789 230.76891258607793 0 230.76891258607793 40.218762033691746 0 0 0 0 655.29358734590824 188.25022180295491 0 188.25022180295491 26.613678318455641 0 0 0 0 606.80660062237348 356.03670104563935 0 356.03670104563935 284.91912088182289 0 0 0 0 831.60197186190726 345.93340231166076 0 345.93340231166076 -7.1520383971073898 0 0 0 0 683.43829201555445 726.73866157046723 0 726.73866157046723 74.059457500654389 0 0 0 0 701.31168665281643 682.48744650571462 0 682.48744650571462 -68.569019445509184 0 0 0 0 308.04491792551926 799.61993401505333 0 799.61993401505333 -90.220347632464836 0 0 0 0 411.2845714180296 442.19345833798616 0 442.19345833798616 -71.278896037503728 0 0 0 0 399.31653493057274 455.82384297926183 0 455.82384297926183 -34.773375495773507 0 0 0 0 21.718452137273744 441.03140305227498 0 441.03140305227498 -66.26166402817762 0 0 0 0 251.39336413094145 799.75587877055659 0 799.75587877055659 -4.2830409320449689 0 0 0 0 -64.658149378617878 729.53896145545332 0 729.53896145545332 57.623952314985218 0 0 0 0 78.377362822664963 449.59000650826965 0 449.59000650826965 -148.47721665684367 0 0 0 0 -135.18644595641808 503.96938882878021 0 503.96938882878021 -158.740447059492 0 0 0 0 153.30290911789871 320.76622046401462 0 320.76622046401462 -140.5140621337232 0 0 0 0 -105.91105538716192 348.93481782087474 0 348.93481782087474 -135.26589409074222 0 0 0 0 99.809491485813851 116.4662824463594 0 116.4662824463594 -82.588887308607809 0 0 0 0 46.229704163020529 87.694445167807089 0 87.694445167807089 -63.44350749340083 0 0 0 0 189.31018839067929 47.45267417946161 0 47.45267417946161 -56.079932015098166 0 0 0 0 31.224933585045619 154.83414447822724 0 154.83414447822724 -60.595059157305514 0 0 0 0 200.46193135494019 199.2423387895617 0 199.2423387895617 -54.364173722366104 0 0 0 0 78.476218494135537 370.58777031166392 0 370.58777031166392 -1339.3052715564118 0 0 0 0 -8.9706268347945297 525.94446337917179 0 525.94446337917179 -757.01050352833772 0 0 0 0 -110.75152328115655 330.57334655407612 0 330.57334655407612 -838.32921930563316 0 0 0 0 -119.5020693106344 427.93346782412846 0 427.93346782412846 -980.43630922639022 0 0 0 0 10.340428680581681 -136.99354829149524 0 -136.99354829149524 -1285.5634681029114 0 0 0 0 345.48218800558243 211.64736506185 0 211.64736506185 -1022.7132936607632 0 0 0 0 121.5419727499102 300.28768022933218 0 300.28768022933218 -933.02328131098693 0 0 0 0 430.36094662236428 506.46086719987034 0 506.46086719987034 -795.82764869446692 0 0 0 0 758.29665270601254 -153.04674481592338 0 -153.04674481592338 -800.18024928559316 0 0 0 0 148.66980512902956 427.40149083678989 0 427.40149083678989 -631.73684675064578 0 0 0 0 155.9613016348012 482.16612925672962 0 482.16612925672962 -707.71461615616226 0 0 0 0 -60.081317110038071 496.66130573938062 0 496.66130573938062 -707.12996394225047 0 0 0 0 12.076277665815724 556.78847771163419 0 556.78847771163419 -638.12876368398429 0 0 0 0 -192.69633388375951 391.77493362301175 0 391.77493362301175 -631.11023279354413 0 0 0 0 -70.914850938048403 468.65309242453532 0 468.65309242453532 -582.67082715945435 0 0 0 0 780.95735076448182 634.86523521666822 0 634.86523521666822 -744.1247317024463 0 0 0 0 247.66653723337367 988.919141162507 0 988.919141162507 -850.6767875944206 0 0 0 0 1962.4781669369841 -2236.5365840867307 0 -2236.5365840867307 -506.66277822083839 0 0 0 0 -582.10967257199081 830.5689523552137 0 830.5689523552137 -454.63587664542138 0 0 0 0 5.8829285737438965 7.2201173269205583 0 7.2201173269205583 8.1182708899552551 0 0 0 0 28.207287837647527 790.86428969449844 0 790.86428969449844 -823.6861009656277 0 0 0 0 2344.0904119698744 -421.24982802548402 0 -421.24982802548402 676.18654897753731 0 0 0 0 1220.1032452303189 434.7021595205224 0 434.7021595205224 -803.04245610369981 0 0 0 0 -5.7745390199873157 -7.890710050247975 0 -7.890710050247975 -14.773143053845558 0 0 0 0 1237.1306877314623 -1067.4233990874159 0 -1067.4233990874159 567.91834986789036 0 0 0 0 -257.59149297141448 234.95872353773939 0 234.95872353773939 -1866.4605180716899 0 0 0 0 -1814.7936372728545 2423.4977360982884 0 2423.4977360982884 -2849.6912522991843 0 0 0 0 -1379.1916298348042 1539.8900764363934 0 1539.8900764363934 -1973.0180128121283 0 0 0 0 -6.7821044545700317 2.4559229426066906 0 2.4559229426066906 0.40739078154518893 0 0 0 0 -26.38116033004917 99.082648448416876 0 99.082648448416876 49.14100323231105 0 0 0 0 -1722.207345137751 1974.7877505955112 0 1974.7877505955112 -2139.5870424054947 0 0 0 0 -1487.1489424890078 1423.7146334618983 0 1423.7146334618983 -2049.1918325417064 0 0 0 0 -72.734318131275359 -432.86735757193674 0 -432.86735757193674 156.82113650842257 0 0 0 0 -13.459715087418431 -27.261662448713224 0 -27.261662448713224 -46.866445295529104 0 0 0 0 -1748.299661155582 1409.6876725530049 0 1409.6876725530049 -1719.1216429185442 0 0 0 0 618.53839404962491 -875.2056607566592 0 -875.2056607566592 43.213930955374963 0 0 0 0 590.90512047779339 -285.56997311388841 0 -285.56997311388841 -284.06948450499476 0 0 0 0 315.86850854806107 -268.14452763933878 0 -268.14452763933878 -262.83942049712641 0 0 0 0 430.18225961516146 -80.00965404168528 0 -80.00965404168528 -680.84393937582354 0 0 0 0 428.96169826514961 -28.298059340791951 0 -28.298059340791951 -1739.2003342532189 0 0 0 0 278.05876063504547 -240.6753227061854 0 -240.6753227061854 -763.14989239627175 0 0 0 0 -52.559224639335298 321.0143679438479 0 321.0143679438479 -1259.9608821719485 0 0 0 0 243.96303128729414 -563.67649379302748 0 -563.67649379302748 -1123.2508310985941 0 0 0 0 344.14855016200772 -401.20033570213764 0 -401.20033570213764 -1028.7641037555804 0 0 0 0 17.313565130549435 86.760253863227035 0 86.760253863227035 -34.461537636369471 0 0 0 0 -324.68322485632416 -443.63336381972658 0 -443.63336381972658 -707.13855386174691 0 0 0 0 249.42144483962329 -45.225578456731455 0 -45.225578456731455 -508.6852484766714 0 0 0 0 -1057.8956667153107 1248.7464773210959 0 1248.7464773210959 -2054.5623972781032 0 0 0 0 -15.903134100296668 -42.178318645944529 0 -42.178318645944529 -95.360460351230842 0 0 0 0 -1827.4235821480252 748.54185570696427 0 748.54185570696427 78.372325724354596 0 0 0 0 -10.045566235964671 1.1338381772864921 0 1.1338381772864921 -22.350931229318896 0 0 0 0 470.1946332987427 1935.9940114751953 0 1935.9940114751953 -2821.4472169728178 0 0 0 0 -842.53318513718477 394.66802210951209 0 394.66802210951209 -2428.2128135154489 0 0 0 0 -1693.8507835336968 1425.4790972612354 0 1425.4790972612354 -1827.1170613621944 0 0 0 0 -950.10548860925337 1267.7681302768106 0 1267.7681302768106 -3528.6272646197558 0 0 0 0 -755.98092429699318 958.72081255404191 0 958.72081255404191 -1922.7596247612819 0 0 0 0 -891.54760843594704 983.27616270066937 0 983.27616270066937 -1450.152302095521 0 0 0 0 29.983300661522662 629.29219064555218 0 629.29219064555218 -1528.510148175963 0 0 0 0 -940.78992647578707 1251.2126018311901 0 1251.2126018311901 -2056.529707407859 0 0 0 0 -1202.6737029914948 988.7582049526427 0 988.7582049526427 -1370.9623087286454 0 0 0 0 -405.7195684660619 1192.0224637470965 0 1192.0224637470965 -2067.2857825619285 0 0 0 0 -60.923202139572822 61.894485283992253 0 61.894485283992253 241.37367975074449 0 0 0 0 85.635184931845288 -69.459916680512833 0 -69.459916680512833 -10.655190969235264 0 0 0 0 -7.2006324799694994 14.680387022941431 0 14.680387022941431 -79.051570964733401 0 0 0 0 -593.95844242475414 398.18258933334164 0 398.18258933334164 -1041.6959468986388 0 0 0 0 -675.93418715923326 1072.677914446358 0 1072.677914446358 -1436.640196276152 0 0 0 0 -12.993218395501373 4.1306179680537412 0 4.1306179680537412 3.3895991615959673 0 0 0 0 -305.89669958168815 221.5511097965209 0 221.5511097965209 -501.56383286536584 0 0 0 0 13.08830639075677 16.271580481366982 0 16.271580481366982 -59.861594852412964 0 0 0 0 -8.0137204284578161 6.2477517943043495 0 6.2477517943043495 5.314140430098135 0 0 0 0 0.82681566529775807 -0.053852442171205439 0 -0.053852442171205439 -2.1331323272448799 0 0 0 0 -335.82389076708932 403.25587668242224 0 403.25587668242224 -229.95813379003084 0 0 0 0 -14.740467268325119 -21.225852244899215 0 -21.225852244899215 -3.1806078022345901 0 0 0 0 -253.29019696087198 114.83790526693247 0 114.83790526693247 -178.19243760424433 0 0 0 0 -339.58764234445698 115.35374235142808 0 115.35374235142808 88.369018264274928 0 0 0 0 -300.73396736524592 223.43437536106649 0 223.43437536106649 36.222236334670015 0 0 0 0 -2.9805446099427115 -2.3954571707876937 0 -2.3954571707876937 -11.3244789513532 0 0 0 0 -286.54318230332865 240.34095604833783 0 240.34095604833783 -275.97754373765929 0 0 0 0 -306.52502133427333 302.66737618533807 0 302.66737618533807 -245.14736037410512 0 0 0 0 1.5730626175238029 6.3357745887807368 0 6.3357745887807368 -0.47430830499052945 0 0 0 0 -190.84637915084022 337.05464433941233 0 337.05464433941233 -207.5827936315618 0 0 0 0 -318.35447883998859 700.21614317835702 0 700.21614317835702 -819.62276681767253 0 0 0 0 -52.413199011942197 138.76405166614859 0 138.76405166614859 -1128.1398391668627 0 0 0 0 -226.69909856921004 791.10267468263919 0 791.10267468263919 -1230.8771397299297 0 0 0 0 -275.07698980857094 578.87108909481321 0 578.87108909481321 -1710.7391323658958 0 0 0 0 -148.6085017061414 650.43471600025077 0 650.43471600025077 -1015.1385338642867 0 0 0 0 -163.65397867273714 1235.6384901066631 0 1235.6384901066631 -1030.8440043681517 0 0 0 0 -129.09545154951775 1147.690419086357 0 1147.690419086357 -1729.5787380686961 0 0 0 0 -149.35589496334433 1174.7502118995762 0 1174.7502118995762 -1763.2908277287452 0 0 0 0 90.929561628770898 1735.0509217636863 0 1735.0509217636863 -1761.1643839387552 0 0 0 0 -81.354867769470729 1842.9430218268244 0 1842.9430218268244 -792.41159670698107 0 0 0 0 -78.598511284253618 1708.6421870733684 0 1708.6421870733684 -1070.780425407982 0 0 0 0 -124.20455003961979 1638.1634792467812 0 1638.1634792467812 -1168.2319848216794 0 0 0 0 -1023.6576506634083 1846.3623759220718 0 1846.3623759220718 -1012.9502601803979 0 0 0 0 -1077.778267454436 1333.9252587897936 0 1333.9252587897936 -49.296954614052083 0 0 0 0 -799.64525507617509 1040.2593131973408 0 1040.2593131973408 -200.00732607700729 0 0 0 0 -369.18397053268563 1225.3986873809463 0 1225.3986873809463 -445.72348483611131 0 0 0 0 -404.4920051279114 1463.1306337551141 0 1463.1306337551141 -1245.7298181110964 0 0 0 0 -166.82037177338498 1557.9183729498181 0 1557.9183729498181 -1090.8356898599814 0 0 0 0 70.267572382319486 1069.4684635299491 0 1069.4684635299491 -1260.4755824923359 0 0 0 0 -918.43873767099285 2023.0217173960118 0 2023.0217173960118 -1372.1568089041994 0 0 0 0 -374.37446497128258 1405.6388129854968 0 1405.6388129854968 -1161.0558240785031 0 0 0 0 -405.94636796566192 1959.0217237795878 0 1959.0217237795878 -1311.3056919589581 0 0 0 0 111.81988994356652 1612.3863623949583 0 1612.3863623949583 -1113.1963656791049 0 0 0 0 -64.690287306733808 1732.7094901250639 0 1732.7094901250639 -428.96050867898157 0 0 0 0 -4.6452858378106612 1547.0690192535494 0 1547.0690192535494 -778.6862187004881 0 0 0 0 -121.24237481232376 1277.2146185690308 0 1277.2146185690308 -463.60702306596795 0 0 0 0 -309.36082681301923 1409.8232520705496 0 1409.8232520705496 191.55401096132118 0 0 0 0 -115.4099949151132 704.05988050799351 0 704.05988050799351 -29.147962465747696 0 0 0 0 -163.32598516033613 785.32121259054111 0 785.32121259054111 320.65929131518351 0 0 0 0 -68.372326530492501 428.22275529959006 0 428.22275529959006 879.89485962528852 0 0 0 0 70.597931539850833 466.4438562788564 0 466.4438562788564 588.55282736799563 0 0 0 0 -89.174926006358874 328.06498157518217 0 328.06498157518217 594.96842970062426 0 0 0 0 -145.92425981388806 518.70157151750755 0 518.70157151750755 215.15704486198229 0 0 0 0 1017.0986168187883 1279.4364472779198 0 1279.4364472779198 -351.85396085208777 0 0 0 0 -252.29946692797967 714.22593793361011 0 714.22593793361011 254.39605719885731 0 0 0 0 112.26398943569802 594.32520335684239 0 594.32520335684239 -514.04930168684223 0 0 0 0 -1305.8146825111617 1919.125005576585 0 1919.125005576585 -226.44260873305029 0 0 0 0 181.355815980849 217.13779648467789 0 217.13779648467789 484.28373929124791 0 0 0 0 -217.70051505662559 215.01546293729189 0 215.01546293729189 521.18373889190843 0 0 0 0 -376.23173921399939 276.95094094127853 0 276.95094094127853 497.39514543549012 0 0 0 0 -10.996036601776211 14.236389993002408 0 14.236389993002408 5.5718872819971352 0 0 0 0 -327.40366505570273 276.79553888252849 0 276.79553888252849 499.20966656967357 0 0 0 0 -234.03783073187151 351.14561785039405 0 351.14561785039405 303.39813031024096 0 0 0 0 -168.43836539552831 458.06736076568086 0 458.06736076568086 626.78746592515381 0 0 0 0 29.106785756179306 422.02378811815288 0 422.02378811815288 577.91492876305711 0 0 0 0 30.693564934525057 621.14219925180078 0 621.14219925180078 599.65023860410656 0 0 0 0 216.16509207413765 751.30032119341195 0 751.30032119341195 646.72851431637537 0 0 0 0 193.74731453983622 798.17040186005761 0 798.17040186005761 579.34448231221177 0 0 0 0 -48.725245714973425 577.18283374331077 0 577.18283374331077 592.7446926603734 0 0 0 0 -224.07770605536643 637.40002398155048 0 637.40002398155048 675.92175475716067 0 0 0 0 116.44685841024329 828.97328879794077 0 828.97328879794077 691.000428234227 0 0 0 0 -217.06911092320297 650.85240425343363 0 650.85240425343363 720.57404302342911 0 0 0 0 -137.17263624258339 580.17384409788792 0 580.17384409788792 500.80259986326564 0 0 0 0 -93.535950350269559 842.40046641216031 0 842.40046641216031 988.77809945758054 0 0 0 0 27.420460141220246 886.43901649312465 0 886.43901649312465 751.73613214064972 0 0 0 0 249.06621285871006 1530.2831481525627 0 1530.2831481525627 2101.8311296650791 0 0 0 0 43.83988673755448 892.48249682368987 0 892.48249682368987 753.08631852414692 0 0 0 0 500.13718247284123 1018.1258630012744 0 1018.1258630012744 652.25108363156323 0 0 0 0 681.62597319255656 859.21017284387563 0 859.21017284387563 404.71588946324482 0 0 0 0 390.99945015756384 539.8008973249016 0 539.8008973249016 446.54179425862094 0 0 0 0 101.10680575941205 297.14390941356123 0 297.14390941356123 756.6734651629522 0 0 0 0 366.21041375029654 707.82460266923317 0 707.82460266923317 754.1773012940248 0 0 0 0 368.84297896194039 898.65582221277873 0 898.65582221277873 923.41781853625434 0 0 0 0 377.36628179267427 805.20649497161503 0 805.20649497161503 849.32057644854649 0 0 0 0 467.22537530436966 820.66050432632619 0 820.66050432632619 607.58028623071732 0 0 0 0 342.70072429740685 661.75847753846028 0 661.75847753846028 582.85751458531013 0 0 0 0 357.78618520766031 853.6843706734071 0 853.6843706734071 597.69514034515305 0 0 0 0 250.15160508728877 407.35623549297452 0 407.35623549297452 463.83755481720436 0 0 0 0 324.76688511607063 698.30495890176098 0 698.30495890176098 641.42544145023567 0 0 0 0 460.78484308919724 748.1661830742305 0 748.1661830742305 645.9604635569558 0 0 0 0 599.92672493045393 585.32606504068826 0 585.32606504068826 487.62322658260018 0 0 0 0 1411.5017828329874 943.94486252671049 0 943.94486252671049 643.41930285280978 0 0 0 0 520.25997917729546 730.4169749696739 0 730.4169749696739 563.57560370212013 0 0 0 0 476.79749610611179 948.99224563050666 0 948.99224563050666 857.33687949812156 0 0 0 0 364.568388899399 881.63893605056001 0 881.63893605056001 1003.9901685655932 0 0 0 0 238.50950789847411 1085.3919201097451 0 1085.3919201097451 1128.9261890849302 0 0 0 0 11.629433518394734 19.569492998868014 0 19.569492998868014 -15.44477330588677 0 0 0 0 -195.00313153606839 1175.1925166304864 0 1175.1925166304864 1237.8352652385365 0 0 0 0 451.83171917077561 423.88764745272783 0 423.88764745272783 -431.7730527529493 0 0 0 0 259.40353991310985 1315.3135853168496 0 1315.3135853168496 1136.9094246469613 0 0 0 0 -119.29068584808556 154.32741592763341 0 154.32741592763341 939.61724046507152 0 0 0 0 551.32826056648628 1398.6258920994442 0 1398.6258920994442 1079.4490303723724 0 0 0 0 570.15455400968494 236.44059132073016 0 236.44059132073016 832.95377569069387 0 0 0 0 -490.07637751931907 2010.1748667660722 0 2010.1748667660722 1143.3454551908235 0 0 0 0 -44.660924270021496 239.77421539350325 0 239.77421539350325 -382.68614039410022 0 0 0 0 35.298933167123323 39.954547717490641 0 39.954547717490641 -873.30269665084779 0 0 0 0 132.61383540425595 491.12410213013936 0 491.12410213013936 1459.1644056099176 0 0 0 0 -119.7692656107356 868.67625739602954 0 868.67625739602954 2445.817231850262 0 0 0 0 0.44680431352591654 -2.6397121609353746 0 -2.6397121609353746 -11.572011027167527 0 0 0 0 -384.57658042672665 -4.6254204534125165 0 -4.6254204534125165 350.90504204462923 0 0 0 0 140.29520569041779 263.17777908993594 0 263.17777908993594 786.06278624928723 0 0 0 0 105.24731213580526 -102.91824919394276 0 -102.91824919394276 -723.61992220781394 0 0 0 0 0.53717171087433258 28.17891229455094 0 28.17891229455094 -1.097192273489739 0 0 0 0 39.487639129976742 -170.63509067133418 0 -170.63509067133418 -452.81956442342909 0 0 0 0 -7.2855636216283415 -21.990082302827432 0 -21.990082302827432 -6.027923643964165 0 0 0 0 -20.014048260992013 100.88087260785018 0 100.88087260785018 -30.879760992952953 0 0 0 0 9.3167262607981343 -10.008037526676191 0 -10.008037526676191 -42.964230114824225 0 0 0 0 -29.188638769788611 32.176440540816088 0 32.176440540816088 0.16803218318630148 0 0 0 0 -54.515294369216463 135.81181996607847 0 135.81181996607847 383.26565559940354 0 0 0 0 -17.363026174528386 256.40563733888121 0 256.40563733888121 -608.22365395025554 0 0 0 0 -111.87777532731707 214.94862716827902 0 214.94862716827902 -198.30314988648024 0 0 0 0 -26.46842270714842 31.913285515111056 0 31.913285515111056 545.65285697174841 0 0 0 0 447.93761893930787 383.73745013178268 0 383.73745013178268 213.56311197063769 0 0 0 0 592.66035262853256 648.88101200891106 0 648.88101200891106 -47.882317492854781 0 0 0 0 675.91748416794871 475.60390810329409 0 475.60390810329409 250.24383291465347 0 0 0 0 1381.3210684258665 1486.0169450410685 0 1486.0169450410685 346.79161631695024 0 0 0 0 -228.96151251863921 -224.19941730584833 0 -224.19941730584833 1966.9368116858996 0 0 0 0 -251.80498839155189 533.79971429591387 0 533.79971429591387 1818.5886429393922 0 0 0 0 19.027969460388988 16.213204229862072 0 16.213204229862072 12.071333940822626 0 0 0 0 308.30780306422093 1370.5463959282497 0 1370.5463959282497 1879.6629233487174 0 0 0 0 993.45504770377192 738.92650309346573 0 738.92650309346573 -606.8025853728177 0 0 0 0 277.90488120230839 -112.58742083845573 0 -112.58742083845573 -486.58974948135437 0 0 0 0 50.690667815268057 37.325013495571767 0 37.325013495571767 28.462500650416644 0 0 0 0 -395.82926854368088 -87.303193514544546 0 -87.303193514544546 747.79542648926144 0 0 0 0 181.1157143835444 28.775240036207833 0 28.775240036207833 -382.59236718199099 0 0 0 0 -120.55759330657747 553.46417267577635 0 553.46417267577635 904.60266028353362 0 0 0 0 36.150137422562693 692.21816068964836 0 692.21816068964836 933.78153329802808 0 0 0 0 352.36176709244319 282.8609072897234 0 282.8609072897234 238.55591596099839 0 0 0 0 485.17711416527163 297.39178442404955 0 297.39178442404955 199.64269360742765 0 0 0 0 200.86514833781985 407.40121493839251 0 407.40121493839251 388.49480800157835 0 0 0 0 270.18259902345017 561.42880714339844 0 561.42880714339844 681.22403996615321 0 0 0 0 112.33172929262219 367.98087645048508 0 367.98087645048508 402.62639793144626 0 0 0 0 226.62904054387764 80.825361398456153 0 80.825361398456153 -16.788079225851106 0 0 0 0 201.30064130183291 227.71734075358381 0 227.71734075358381 -161.09153671388049 0 0 0 0 -184.50646132736438 130.99576657924626 0 130.99576657924626 -111.16021126531996 0 0 0 0 41.034980871234438 578.27643110766803 0 578.27643110766803 -560.3899119856178 0 0 0 0 -63.893386869323876 389.82110776508489 0 389.82110776508489 -311.11235797182599 0 0 0 0 51.467593280904111 -126.04508407128742 0 -126.04508407128742 -414.48435221245938 0 0 0 0 -5.3922426602067333 18.266621855438252 0 18.266621855438252 -49.676507905400406 0 0 0 0 -95.75947291693592 245.78444630966987 0 245.78444630966987 -132.19659050638802 0 0 0 0 -60.412496527221165 34.123577721415018 0 34.123577721415018 0.6922528126366454 0 0 0 0 -299.26461536169518 195.35281494493029 0 195.35281494493029 391.75390079316276 0 0 0 0 92.809370418795879 -197.90196546577135 0 -197.90196546577135 -264.31330591555161 0 0 0 0 -33.875343949061005 91.822881593852514 0 91.822881593852514 -34.041849451781822 0 0 0 0 -88.668142015318153 102.30452443963441 0 102.30452443963441 -455.60182709515357 0 0 0 0 -17.027463560822071 -19.690798051116872 0 -19.690798051116872 108.75219291019312 0 0 0 0 -15.964104114196402 39.250826339334864 0 39.250826339334864 -19.163506118943772 0 0 0 0 -73.039380789123243 49.480228568325401 0 49.480228568325401 82.349392480566166 0 0 0 0 1.6228482109818998 5.9014702715444258 0 5.9014702715444258 7.2228180586620283 0 0 0 0 -24.008193405100414 29.875159218908955 0 29.875159218908955 -18.832793157779918 0 0 0 0 179.72947907611524 345.21190890205617 0 345.21190890205617 410.8120883096999 0 0 0 0 153.14231580438354 81.968454632456996 0 81.968454632456996 -84.274299088981934 0 0 0 0 27.12513739780718 11.503367105994727 0 11.503367105994727 -10.980887615439073 0 0 0 0 -1.5977235854443279 92.721878046570055 0 92.721878046570055 418.99448652748833 0 0 0 0 -57.94328683040294 420.89805809633981 0 420.89805809633981 1472.4430239902285 0 0 0 0 1013.3305194955246 552.92518079564979 0 552.92518079564979 694.76931606380094 0 0 0 0 522.00238222573535 1098.2825008846012 0 1098.2825008846012 1061.4773888190248 0 0 0 0 175.79787246332489 771.52876277593896 0 771.52876277593896 952.79657574131852 0 0 0 0 408.33439759204339 585.34852843806584 0 585.34852843806584 683.74315370467957 0 0 0 0 404.58978960973036 588.69716461350617 0 588.69716461350617 770.29241924572852 0 0 0 0 1102.7508313896953 707.37203475331512 0 707.37203475331512 455.38444818893913 0 0 0 0 168.99043954009539 756.42473604647967 0 756.42473604647967 921.9520291638546 0 0 0 0 75.17549272632823 865.6227479011759 0 865.6227479011759 1033.9210529609118 0 0 0 0 312.81222535146662 924.80378120821842 0 924.80378120821842 1011.5693257868697 0 0 0 0 262.02267425293394 813.518567194973 0 813.518567194973 956.8872335890901 0 0 0 0 225.30568662080987 863.90927477815058 0 863.90927477815058 985.50452564604348 0 0 0 0 258.14746038373414 746.04696952825179 0 746.04696952825179 1104.9601982246822 0 0 0 0 252.12899278924806 694.42767726129705 0 694.42767726129705 851.59274079205352 0 0 0 0 -15.006030309487386 15.97112702156214 0 15.97112702156214 -15.490951684055375 0 0 0 0 379.28091964439955 846.64265685435385 0 846.64265685435385 815.16594652588901 0 0 0 0 784.79714033026903 1239.3080099423387 0 1239.3080099423387 960.3137179838086 0 0 0 0 556.64344756908395 946.56374363314535 0 946.56374363314535 871.27548771476722 0 0 0 0 257.31997261312063 1061.3385390004987 0 1061.3385390004987 1187.4174244389287 0 0 0 0 -168.67406171216862 753.83244504522008 0 753.83244504522008 1145.7673279012088 0 0 0 0 1098.2977761891234 628.71659903752152 0 628.71659903752152 269.03232179215411 0 0 0 0 1415.8962791319791 1830.6601255879068 0 1830.6601255879068 1077.8027092984412 0 0 0 0 -4.0832973569024915 6.0223512190398054 0 6.0223512190398054 -5.5016881452386315 0 0 0 0 2317.951511373074 1340.1626378133878 0 1340.1626378133878 185.96413699595723 0 0 0 0 -18.922888329696434 270.53928231641476 0 270.53928231641476 26.598705947486451 0 0 0 0 -38.936197112678201 8.6585863280924968 0 8.6585863280924968 13.174523026216775 0 0 0 0 3.2039975037041586 -54.768665074050659 0 -54.768665074050659 -118.94226574741333 0 0 0 0 132.30288196130277 133.37113711745769 0 133.37113711745769 -53.334551097017538 0 0 0 0 112.37564443827432 446.86591848413809 0 446.86591848413809 1069.3492222915011 0 0 0 0 160.98455614746126 365.74379623253117 0 365.74379623253117 409.83008753797913 0 0 0 0 11.122699450495489 9.0857614111545786 0 9.0857614111545786 -4.0268299544248265 0 0 0 0 230.75179149083851 610.52562885757652 0 610.52562885757652 585.02875435486203 0 0 0 0 -131.10312866781169 606.50297446846162 0 606.50297446846162 1575.9019688081171 0 0 0 0 294.4123477669782 424.13841915148078 0 424.13841915148078 528.01313129776099 0 0 0 0 13.600753378448644 613.72780310619783 0 613.72780310619783 526.73824002870242 0 0 0 0 -3.9837216568408849 2.7478285030163931 0 2.7478285030163931 -0.57105556249169354 0 0 0 0 -1.2383968503898899 8.6696249730123611 0 8.6696249730123611 -3.0270343914736486 0 0 0 0 10.208219799562357 34.221439189794182 0 34.221439189794182 -304.7285909078164 0 0 0 0 -51.717177886115678 27.333651516040845 0 27.333651516040845 -209.53307920173393 0 0 0 0 25.727955891714373 260.11414260960009 0 260.11414260960009 -275.58630393561907 0 0 0 0 -29.048087450850289 284.02277787636558 0 284.02277787636558 132.49269716243725 0 0 0 0 -109.77413822080416 228.9730303567485 0 228.9730303567485 830.0807903515888 0 0 0 0 73.004601467873727 326.55896959659003 0 326.55896959659003 148.99337158715934 0 0 0 0 -370.42707389115094 367.33513902444975 0 367.33513902444975 549.96158098154046 0 0 0 0 -284.35300915072366 356.37087234306455 0 356.37087234306455 67.576361819839804 0 0 0 0 -98.94094041331482 427.46501732543402 0 427.46501732543402 73.27629922729102 0 0 0 0 -167.64265971232817 241.7133620386594 0 241.7133620386594 69.511501807303603 0 0 0 0 -52.280460004998076 41.134351652326131 0 41.134351652326131 -531.91091210895684 0 0 0 0 -503.87302898847702 542.72578193584923 0 542.72578193584923 -1088.0112133159419 0 0 0 0 -291.16547792021811 495.96973149086989 0 495.96973149086989 -449.37118434582953 0 0 0 0 -1049.7844380727474 340.6531214221759 0 340.6531214221759 -129.87348918049247 0 0 0 0 -2181.3533193610783 -326.55806367349578 0 -326.55806367349578 -393.57046706433175 0 0 0 0 -721.84917121711987 -79.609404669623473 0 -79.609404669623473 38.72330370391137 0 0 0 0 -910.43903162979404 138.81635961162829 0 138.81635961162829 19.368234159890562 0 0 0 0 -1275.7789850514346 -61.976036622188985 0 -61.976036622188985 128.59842168657633 0 0 0 0 23.020183356435155 77.823890288949769 0 77.823890288949769 229.38925396802551 0 0 0 0 -9.8792713353390127 12.012119882899785 0 12.012119882899785 7.7652519733235295 0 0 0 0 -103.77581560292674 230.03599966903494 0 230.03599966903494 89.853946750125033 0 0 0 0 -230.2276051805602 194.21518992815982 0 194.21518992815982 437.78737174378239 0 0 0 0 -101.56046506908024 229.46377261651651 0 229.46377261651651 433.14081651248853 0 0 0 0 -240.14968488127852 230.63797881910068 0 230.63797881910068 729.27997000297182 0 0 0 0 -217.29105826647719 300.30600005415909 0 300.30600005415909 819.19233009054733 0 0 0 0 323.0783390842771 251.91315823095647 0 251.91315823095647 262.77796188122011 0 0 0 0 66.06057518821035 447.94626227028493 0 447.94626227028493 710.69867842958774 0 0 0 0 1225.3972372307853 987.27972282598421 0 987.27972282598421 488.44648241036339 0 0 0 0 -2004.7806389332181 -733.40366291878308 0 -733.40366291878308 137.73800366245268 0 0 0 0 -4.6173708312789827 5.531886115756425 0 5.531886115756425 4.2505692268829307 0 0 0 0 -2331.8877024000285 -354.03513794032915 0 -354.03513794032915 1781.6527471194495 0 0 0 0 -526.24344930968073 1019.772957116802 0 1019.772957116802 1452.3055083741783 0 0 0 0 23.793168501222681 1253.0545782908302 0 1253.0545782908302 1221.8397484426678 0 0 0 0 -388.17616198042742 64.88338195806864 0 64.88338195806864 666.02166792680509 0 0 0 0 188.61022197017155 461.43477648161934 0 461.43477648161934 855.31035017130489 0 0 0 0 -826.36399356522452 286.22333436257031 0 286.22333436257031 1160.3733322154949 0 0 0 0 -6.4604512042372733 4.1832936683491653 0 4.1832936683491653 -3.2746880811117762 0 0 0 0 -1298.3894288743229 -601.95241741240238 0 -601.95241741240238 64.989782088727225 0 0 0 0 -1281.1211002291166 810.91501109831734 0 810.91501109831734 345.58385642443318 0 0 0 0 -787.79607349196158 208.09383507542225 0 208.09383507542225 955.16564665133774 0 0 0 0 -571.23057975322263 497.96254386311921 0 497.96254386311921 -390.77111166532268 0 0 0 0 -930.94181107485929 6.2687939434690634 0 6.2687939434690634 -162.52796266799123 0 0 0 0 -1314.911537811643 274.14569405871407 0 274.14569405871407 56.550663746151258 0 0 0 0 -1223.5651198913765 199.17994857717713 0 199.17994857717713 49.2047495131701 0 0 0 0 -1386.8555656948356 113.09424410984866 0 113.09424410984866 89.904769317261525 0 0 0 0 -1598.6894062081919 487.38784145875979 0 487.38784145875979 89.710816115548369 0 0 0 0 -812.58424419695802 507.47650237506605 0 507.47650237506605 -142.05809348012554 0 0 0 0 -776.23177003170713 429.73288369274087 0 429.73288369274087 -93.941841747269791 0 0 0 0 -1097.3849084980357 410.01705666342605 0 410.01705666342605 0.083226979164464865 0 0 0 0 -544.29391851177206 190.76766070374833 0 190.76766070374833 -55.832720698977937 0 0 0 0 -557.09817410822143 435.23311881947848 0 435.23311881947848 0.45479780601453967 0 0 0 0 -103.21682160880664 517.43844953181178 0 517.43844953181178 -0.044254371867282316 0 0 0 0 62.189166482432483 574.87782454620537 0 574.87782454620537 36.419952752505196 0 0 0 0 -118.89329858238852 373.18827583483653 0 373.18827583483653 177.86716634989716 0 0 0 0 -623.57221173064318 406.94016669248958 0 406.94016669248958 317.21658073752769 0 0 0 0 -93.322469904425816 390.55717523652856 0 390.55717523652856 -110.03015013960248 0 0 0 0 -595.2381432199245 610.86015597935875 0 610.86015597935875 266.39251810913265 0 0 0 0 -305.33030798665277 293.88610009533295 0 293.88610009533295 612.62940931942467 0 0 0 0 135.48553448140592 535.25127441793302 0 535.25127441793302 65.931947823206428 0 0 0 0 67.736610924413981 523.8311975575125 0 523.8311975575125 484.32658332306892 0 0 0 0 244.70499721336819 504.77852522467583 0 504.77852522467583 292.65528010275011 0 0 0 0 297.27710064239363 388.82157942952472 0 388.82157942952472 379.10788992430025 0 0 0 0 296.69487378104532 439.65594168347889 0 439.65594168347889 263.52238045731792 0 0 0 0 276.60342860630226 480.01734915126144 0 480.01734915126144 325.62423820616095 0 0 0 0 330.70858907949514 500.18309663974651 0 500.18309663974651 83.963871549494797 0 0 0 0 338.73121130787331 376.53129910271673 0 376.53129910271673 39.209621922185761 0 0 0 0 264.9435166699659 485.45780141110299 0 485.45780141110299 70.055738762297551 0 0 0 0 285.86547860867267 347.15186351519242 0 347.15186351519242 188.34301338568912 0 0 0 0 282.86398049054696 307.88191050862952 0 307.88191050862952 -285.56870178282406 0 0 0 0 2.355587411441121 2.2104303035530961 0 2.2104303035530961 -2.8734593168894662 0 0 0 0 233.02982937124034 270.66278679924653 0 270.66278679924653 0.3560233181269723 0 0 0 0 23.623752643739863 278.89212308682181 0 278.89212308682181 427.98511002668238 0 0 0 0 263.27073827046843 436.32760482718732 0 436.32760482718732 354.28126563588012 0 0 0 0 281.71962944373081 438.74916541564744 0 438.74916541564744 186.4166977567802 0 0 0 0 2.8767994261240233 2.5964543475643609 0 2.5964543475643609 -2.9745349453783945 0 0 0 0 330.49138249224052 408.6455182882637 0 408.6455182882637 194.84828758064032 0 0 0 0 381.74129907819406 541.60436418536665 0 541.60436418536665 1.4700843946193345 0 0 0 0 546.98876579594798 390.74409559539345 0 390.74409559539345 106.90328690949536 0 0 0 0 534.5401869312991 285.70582224020472 0 285.70582224020472 130.06183310732013 0 0 0 0 360.17612051007018 425.63449555547413 0 425.63449555547413 116.32070877879232 0 0 0 0 452.82669125357279 317.66340710908116 0 317.66340710908116 138.12263080576668 0 0 0 0 304.91462986631814 354.52252474081251 0 354.52252474081251 128.94218328973511 0 0 0 0 426.55236411579972 189.39025533941458 0 189.39025533941458 68.374306400539353 0 0 0 0 310.69425508916902 345.16197307786933 0 345.16197307786933 106.60718301140878 0 0 0 0 332.5307021845183 414.14429545591338 0 414.14429545591338 148.2554905981815 0 0 0 0 289.8286246636053 405.42205534958339 0 405.42205534958339 153.32835656440147 0 0 0 0 203.66095768176001 290.03417846722368 0 290.03417846722368 318.1116231175256 0 0 0 0 292.72132086868078 411.46260772563983 0 411.46260772563983 161.07074051519157 0 0 0 0 195.77626185241752 233.82130259780115 0 233.82130259780115 76.638170379650546 0 0 0 0 124.21736351225991 128.92289220266684 0 128.92289220266684 84.327121373833506 0 0 0 0 187.71821462864318 339.77129150934343 0 339.77129150934343 170.37840433338715 0 0 0 0 829.07523316799598 853.99477854066936 0 853.99477854066936 395.4082404109522 0 0 0 0 895.22721564513722 805.31765926558001 0 805.31765926558001 392.64488701823575 0 0 0 0 929.14855352169616 612.06016553130758 0 612.06016553130758 276.73278894874966 0 0 0 0 994.524317455649 596.52013212976453 0 596.52013212976453 266.26153138952213 0 0 0 0 944.44382587327345 546.78375148135092 0 546.78375148135092 285.36925430511474 0 0 0 0 872.02101513432535 760.39632796493242 0 760.39632796493242 305.78969566445448 0 0 0 0 1265.7296347549327 791.58683012398978 0 791.58683012398978 294.72045911333771 0 0 0 0 1134.1543845015403 582.33280738420945 0 582.33280738420945 282.78907463228097 0 0 0 0 579.65245919006338 811.98694505332242 0 811.98694505332242 697.49682734561065 0 0 0 0 1000.6989183768237 1030.8922012962721 0 1030.8922012962721 472.02229983129655 0 0 0 0 788.38653688844715 823.99464774825901 0 823.99464774825901 399.19188237260096 0 0 0 0 765.28464466459991 844.96065837742208 0 844.96065837742208 422.66383430402493 0 0 0 0 369.22622200646583 517.74497490070644 0 517.74497490070644 435.2966051114322 0 0 0 0 482.38581317759053 377.96127816657827 0 377.96127816657827 141.59147173930251 0 0 0 0 887.207584370326 578.38042392030184 0 578.38042392030184 163.44870294018983 0 0 0 0 219.13772129403424 398.92486243748499 0 398.92486243748499 228.9622212293616 0 0 0 0 323.84636441351722 306.03741864619224 0 306.03741864619224 240.34575101712835 0 0 0 0 127.84072472045227 -39.04144904500572 0 -39.04144904500572 -21.696837392548332 0 0 0 0 18.77680459694227 90.602615082607372 0 90.602615082607372 -36.288925424625631 0 0 0 0 -10.778941190905096 22.508752187025223 0 22.508752187025223 -23.362496061553827 0 0 0 0 66.902261188486591 122.36305034112593 0 122.36305034112593 289.64990919131378 0 0 0 0 323.68124196746248 141.97861677714172 0 141.97861677714172 51.342861390206963 0 0 0 0 1983.6515008241722 431.0317619357229 0 431.0317619357229 -126.92154715971992 0 0 0 0 235.88746009914667 301.24891674833998 0 301.24891674833998 71.752520993468352 0 0 0 0 2.2347329130590428 21.68815813530631 0 21.68815813530631 15.557555254555666 0 0 0 0 668.54113618785777 763.36965705925832 0 763.36965705925832 421.57564843149157 0 0 0 0 702.12341145876326 173.54375340160186 0 173.54375340160186 -73.140117091272259 0 0 0 0 802.47597499397557 770.16579256055047 0 770.16579256055047 389.63062746889773 0 0 0 0 999.67982133501118 1153.4141777217264 0 1153.4141777217264 1317.9427540790639 0 0 0 0 885.84479170147915 834.94531682406523 0 834.94531682406523 427.67553542972018 0 0 0 0 -201.00128949547138 -74.357715625512355 0 -74.357715625512355 1165.7231346425979 0 0 0 0 168.96587083000804 904.71144120706595 0 904.71144120706595 1434.0811985558248 0 0 0 0 2.3385215065604879 4.8579079194002048 0 4.8579079194002048 9.8524485964011319 0 0 0 0 1649.7616009774615 795.58325603132471 0 795.58325603132471 266.32640135308611 0 0 0 0 993.6881743596764 1253.1472965727589 0 1253.1472965727589 888.0747560284799 0 0 0 0 813.99806242181808 574.01126417247167 0 574.01126417247167 220.58498130404041 0 0 0 0 808.38440309702548 860.00106344972517 0 860.00106344972517 97.411467270634603 0 0 0 0 1132.4028059736747 60.664500755025074 0 60.664500755025074 970.63941576353864 0 0 0 0 922.09240621473964 443.86559611852135 0 443.86559611852135 275.69578495428141 0 0 0 0 390.50514797834057 150.05378035487229 0 150.05378035487229 212.86900979906204 0 0 0 0 678.97999519348969 316.92430905362562 0 316.92430905362562 182.74349535633519 0 0 0 0 646.5303089524059 268.31357762915286 0 268.31357762915286 684.0545221225766 0 0 0 0 738.65854429886622 815.05411650179303 0 815.05411650179303 792.74225064802158 0 0 0 0 684.37087626617358 665.31358952452865 0 665.31358952452865 393.64754236704499 0 0 0 0 678.40737585416355 469.72133057146857 0 469.72133057146857 207.54297695160494 0 0 0 0 768.85088559147698 641.26644426436542 0 641.26644426436542 301.73682219302282 0 0 0 0 923.14670066688632 435.96765691310429 0 435.96765691310429 27.013790979501209 0 0 0 0 491.77158454542973 28.62198145435309 0 28.62198145435309 -56.139760153193492 0 0 0 0 509.13867324275816 360.5523202514014 0 360.5523202514014 399.85840349532373 0 0 0 0 77.777346332917659 116.82876628389931 0 116.82876628389931 184.21984765752859 0 0 0 0 -4.0009537339813424 46.796022980056748 0 46.796022980056748 -10.938546703527436 0 0 0 0 -2063.192952656711 627.27677899541595 0 627.27677899541595 275.6904775062867 0 0 0 0 -1144.5427139807507 784.19179385207462 0 784.19179385207462 -2.0446655497216852 0 0 0 0 -1782.2944863450466 1525.9755177449988 0 1525.9755177449988 -190.86502638019738 0 0 0 0 -637.55231371845002 947.81756563536328 0 947.81756563536328 -87.512400290637743 0 0 0 0 -2842.6562867539615 2577.4362913945006 0 2577.4362913945006 -74.643760292557999 0 0 0 0 -449.25171157248406 1050.116430835973 0 1050.116430835973 -352.06849981331106 0 0 0 0 -5893.7104902059218 1156.5866327661497 0 1156.5866327661497 801.14058209182258 0 0 0 0 -2202.7493411695614 675.56527037746127 0 675.56527037746127 455.84420985900215 0 0 0 0 957.97453780875276 502.43390314657154 0 502.43390314657154 149.97855803796847 0 0 0 0 -261.98896761680226 103.62707443567342 0 103.62707443567342 16.279890825171606 0 0 0 0 -873.91023093123658 500.89929504013526 0 500.89929504013526 62.914124220085796 0 0 0 0 -724.06546440724924 755.26840571212233 0 755.26840571212233 -75.588727144902805 0 0 0 0 -440.22142576640181 260.42284552398269 0 260.42284552398269 442.01382419762376 0 0 0 0 -158.15056074682798 619.93689848786744 0 619.93689848786744 -337.03318822343863 0 0 0 0 -218.94708846111462 218.64799725683406 0 218.64799725683406 119.08439407532569 0 0 0 0 -249.07193882052525 308.40140092562069 0 308.40140092562069 409.00058488448485 0 0 0 0 -316.18332299039685 234.59774332268717 0 234.59774332268717 869.20875697358861 0 0 0 0 -212.77368773760099 258.44380687014927 0 258.44380687014927 731.67880443722242 0 0 0 0 -204.31247070241079 184.33093316631857 0 184.33093316631857 435.07940930607219 0 0 0 0 -283.40840163394387 136.19692438818311 0 136.19692438818311 728.91386368047097 0 0 0 0 -219.48380299228302 262.24223049266402 0 262.24223049266402 421.35522856321768 0 0 0 0 -126.01626701786154 -23.900395284639671 0 -23.900395284639671 789.7393512018898 0 0 0 0 -230.36681965176649 284.09958965447731 0 284.09958965447731 1442.378265845502 0 0 0 0 -12.208749902148327 2.6316109434900099 0 2.6316109434900099 13.229179952770494 0 0 0 0 -108.41589436813229 -23.906382045614009 0 -23.906382045614009 90.665710246103117 0 0 0 0 -22.476771637349003 22.197366463766357 0 22.197366463766357 -13.715011989651344 0 0 0 0 8.1639466806100245 754.59065384505448 0 754.59065384505448 1430.7607899448194 0 0 0 0 187.39079838601174 487.64178448972234 0 487.64178448972234 890.12760478357086 0 0 0 0 -314.53892768164224 54.044725040570484 0 54.044725040570484 634.96997578295122 0 0 0 0 -192.79853621766597 108.17842422946705 0 108.17842422946705 644.34362036452512 0 0 0 0 -333.40736585570994 208.77794077496219 0 208.77794077496219 879.71191118106435 0 0 0 0 897.65778536683956 558.7510840225732 0 558.7510840225732 300.41517555169412 0 0 0 0 -5612.3102858814582 661.46398708791912 0 661.46398708791912 -1999.0461803008802 0 0 0 0 -6374.0830527034341 -1223.4981400366396 0 -1223.4981400366396 33.704206529437215 0 0 0 0 -5.7267571576008001 35.181400289180694 0 35.181400289180694 -3.2069774276807266 0 0 0 0 -8.300702809698123 2154.6613393495645 0 2154.6613393495645 -188.69291168127893 0 0 0 0 -21.869777442177991 8.589028360785889 0 8.589028360785889 3.2446731517885041 0 0 0 0 583.25125993570691 25.930323218039121 0 25.930323218039121 289.74732934727217 0 0 0 0 -2262.3556409872581 -1476.6857918735768 0 -1476.6857918735768 34.491772608895047 0 0 0 0 -918.62701997858221 879.29215509136702 0 879.29215509136702 -360.83908788934059 0 0 0 0 -3.2261724648122034 13.045290176201831 0 13.045290176201831 -0.45623854002724329 0 0 0 0 3030.077609322776 1122.9268924663193 0 1122.9268924663193 10.737807529796555 0 0 0 0 -6190.4379052652594 442.78313734740323 0 442.78313734740323 1158.6302899300936 0 0 0 0 -2109.8870729604168 1385.2615007411223 0 1385.2615007411223 224.46528533402306 0 0 0 0 -1452.142681758105 -65.183342566289866 0 -65.183342566289866 594.45466493043932 0 0 0 0 -381.07657955004106 -203.73372169789218 0 -203.73372169789218 368.82668542386091 0 0 0 0 -643.28404823589517 885.18474540124589 0 885.18474540124589 357.54034829205193 0 0 0 0 -547.41348876920347 816.83308670058977 0 816.83308670058977 391.57412477262551 0 0 0 0 -18.938264103438726 12.314990178084244 0 12.314990178084244 -7.2844845489429133 0 0 0 0 -365.46636916400894 191.271498531627 0 191.271498531627 579.58457556705253 0 0 0 0 -19.249213735132798 175.62185357126145 0 175.62185357126145 69.6559443918959 0 0 0 0 -5.314539491792587 6.0965025688744916 0 6.0965025688744916 0.76306337135736158 0 0 0 0 461.3224206754403 517.53899960951094 0 517.53899960951094 259.50921387980634 0 0 0 0 -63.623731066314576 307.79612716360498 0 307.79612716360498 -197.14368512721558 0 0 0 0 -246.861049199626 -78.808323630015366 0 -78.808323630015366 45.446370203279002 0 0 0 0 -2.0781127990235433 2.3747140535417373 0 2.3747140535417373 -1.7207320829932087 0 0 0 0 -1772.6525286516326 110.63814995782013 0 110.63814995782013 162.89872890127299 0 0 0 0 821.34912027484461 330.47396082607156 0 330.47396082607156 95.991859690650017 0 0 0 0 243.45582517944786 274.68230694634985 0 274.68230694634985 302.89238336543349 0 0 0 0 205.54488701867331 411.93212027877144 0 411.93212027877144 141.50906246935483 0 0 0 0 655.89525871068327 611.92793593039096 0 611.92793593039096 59.450588586525555 0 0 0 0 922.75407138098672 624.61556138941523 0 624.61556138941523 -23.693620280158939 0 0 0 0 -622.29505664192857 305.82042119584366 0 305.82042119584366 0.092775173645350151 0 0 0 0 -362.38555974625524 667.61510880167771 0 667.61510880167771 373.98177099364693 0 0 0 0 -429.0700331435819 811.56470643797365 0 811.56470643797365 151.0763223371614 0 0 0 0 -275.87453094049488 661.3967307123894 0 661.3967307123894 182.11067495640327 0 0 0 0 -158.93167676664962 665.63479729871324 0 665.63479729871324 0.24240295774507103 0 0 0 0 201.80575472487499 429.71081760750985 0 429.71081760750985 152.24784443811222 0 0 0 0 -294.65047899786896 499.28877987028318 0 499.28877987028318 -58.350241500796983 0 0 0 0 -634.51707504158549 620.92647013730675 0 620.92647013730675 -0.3898428484753822 0 0 0 0 -773.31339572906472 866.19873393566377 0 866.19873393566377 -7.1931029192492133 0 0 0 0 -1338.0720190579887 40.825386387848994 0 40.825386387848994 -437.19796007193509 0 0 0 0 -815.21857962923059 609.66124071189915 0 609.66124071189915 -293.81666740900255 0 0 0 0 95.368516480901235 164.63774385154102 0 164.63774385154102 -102.20260992177646 0 0 0 0 -1.8867748372731512 3.2663182536612538 0 3.2663182536612538 -6.3719989537270294 0 0 0 0 -1225.7605555298051 80.510801055668708 0 80.510801055668708 140.17829011226422 0 0 0 0 -503.87867291692419 668.64551985410435 0 668.64551985410435 42.67911611191812 0 0 0 0 -230.11069773258896 965.90217076279805 0 965.90217076279805 227.29016105295887 0 0 0 0 -512.36034813238984 910.87846159037144 0 910.87846159037144 513.95899657555856 0 0 0 0 -211.23889495626554 141.35913587015165 0 141.35913587015165 20.080229700048221 0 0 0 0 200.31615845685428 474.81528873539355 0 474.81528873539355 279.39812922703277 0 0 0 0 392.24749766960599 375.58279447064797 0 375.58279447064797 305.83497427187103 0 0 0 0 703.28314410092571 1563.4190045642317 0 1563.4190045642317 848.55482710382785 0 0 0 0 -31.592400102398713 40.890405349811772 0 40.890405349811772 39.845980785423308 0 0 0 0 -28.820264375583861 68.297261626124964 0 68.297261626124964 28.156341435562354 0 0 0 0 349.70967887978259 418.92284747085796 0 418.92284747085796 146.16116737152333 0 0 0 0 46.540844528976777 14.774649011946167 0 14.774649011946167 23.683019067189889 0 0 0 0 70.826487772960945 90.259153175462416 0 90.259153175462416 45.401726625714218 0 0 0 0 -7.8863527925456562 10.575727420269502 0 10.575727420269502 -16.229322216279229 0 0 0 0 42.709851502398948 27.329571993705031 0 27.329571993705031 22.208089062478393 0 0 0 0 -34.802042717128188 46.043075677880552 0 46.043075677880552 48.82366704128799 0 0 0 0 14.804841795217897 26.565704664742043 0 26.565704664742043 30.905456565960776 0 0 0 0 7.8953393049009719 53.946892947349625 0 53.946892947349625 82.595109530506306 0 0 0 0 72.818548423610991 -11.715775880860747 0 -11.715775880860747 10.889719899030752 0 0 0 0 20.637145477728154 73.273650007235119 0 73.273650007235119 -75.231799585002591 0 0 0 0 -30.711448325816946 106.16445711626875 0 106.16445711626875 -0.27594056636735331 0 0 0 0 22.990495450028277 34.348939205061015 0 34.348939205061015 -9.4366757645620964 0 0 0 0 -60.401763497087117 13.720325941784722 0 13.720325941784722 -13.717806729924632 0 0 0 0 -19.598587962981128 47.032020652419305 0 47.032020652419305 -0.012940496323567975 0 0 0 0 -61.468823559575867 28.489857414082508 0 28.489857414082508 -44.962410407111747 0 0 0 0 -92.061201958839774 55.015294138444006 0 55.015294138444006 -24.032574315780948 0 0 0 0 -80.886494208998897 36.127724043341004 0 36.127724043341004 4.2053947468521073 0 0 0 0 -18.590010986779816 63.24005291708454 0 63.24005291708454 -19.915489441460522 0 0 0 0 -162.81616914528786 -2.9690497852207045 0 -2.9690497852207045 0.14251560837146826 0 0 0 0 -55.125339917978636 2.7823076409986243 0 2.7823076409986243 -4.8988949255144689 0 0 0 0 -66.440212449060709 16.177240668708691 0 16.177240668708691 -20.605276313959621 0 0 0 0 -23.849745979983936 54.655624678562162 0 54.655624678562162 10.604886042558064 0 0 0 0 -27.494638892984199 47.396359667200159 0 47.396359667200159 37.15991472757014 0 0 0 0 1143.8833325277683 322.28266394993807 0 322.28266394993807 -120.56488007307053 0 0 0 0 592.40102784006558 603.84396625372028 0 603.84396625372028 0.071931092687009368 0 0 0 0 1.1137456941157273 -0.10345556089447427 0 -0.10345556089447427 4.9517785675918162 0 0 0 0 4.09784293312714 21.672077007584448 0 21.672077007584448 -11.124377745007223 0 0 0 0 -103.44771055122783 10.659142006050388 0 10.659142006050388 0.0012827761165681295 0 0 0 0 4.0160548331876633 -0.57676821072176665 0 -0.57676821072176665 -2.5473612612773309 0 0 0 0 1199.3509399823515 -33.520468973427342 0 -33.520468973427342 -84.605478462937754 0 0 0 0 -8.8956913269230427 6.0400475714122877 0 6.0400475714122877 6.9820498935878277 0 0 0 0 -153.85971916295625 -66.887154909174569 0 -66.887154909174569 -26.652147552260431 0 0 0 0 -132.60170299268066 -71.945382809673902 0 -71.945382809673902 38.279081290093018 0 0 0 0 -31.854978077335545 -63.666810232665739 0 -63.666810232665739 -33.577035832393449 0 0 0 0 -179.61466027497227 -43.464973270878545 0 -43.464973270878545 27.173580422793748 0 0 0 0 -76.004520397789747 -36.030220599437598 0 -36.030220599437598 -43.846458162297495 0 0 0 0 4.4775940702566004 -1.446004927973263 0 -1.446004927973263 0.49230953701771796 0 0 0 0 3.3857767661535476 0.87829844601495921 0 0.87829844601495921 1.4584778299176264 0 0 0 0 635.36857732422504 -18.394210715137888 0 -18.394210715137888 237.2580589662557 0 0 0 0 8.6215754182317461 0.11609758884353027 0 0.11609758884353027 -2.6142206242165003 0 0 0 0 9.5744293983884212 1.9422755860784804 0 1.9422755860784804 3.2336021382333229 0 0 0 0 318.72387347413314 8.286282874760218 0 8.286282874760218 240.41853604702555 0 0 0 0 597.34015260511842 131.153238905943 0 131.153238905943 205.8298036592314 0 0 0 0 740.97822231118357 188.25010005400782 0 188.25010005400782 50.59497482230654 0 0 0 0 758.32854065920765 57.537728095514467 0 57.537728095514467 119.03846035222523 0 0 0 0 607.47457359626424 132.79393053508829 0 132.79393053508829 104.34618371870602 0 0 0 0 442.84628355901987 283.52929697700165 0 283.52929697700165 80.092864045815077 0 0 0 0 624.88992747267912 319.6027988113201 0 319.6027988113201 -12.652915983693674 0 0 0 0 27.307586774305491 12.437249908685772 0 12.437249908685772 6.7052765478583751 0 0 0 0 3.9783454737065291 -0.77291516740838517 0 -0.77291516740838517 0.15019679481076764 0 0 0 0 571.00371111690038 332.80750902364525 0 332.80750902364525 -40.333929212560179 0 0 0 0 444.96267019667175 203.94367292913375 0 203.94367292913375 -14.85975760279689 0 0 0 0 479.21778444443544 255.51587140022275 0 255.51587140022275 99.417270285717677 0 0 0 0 469.97185106534016 309.71436773801724 0 309.71436773801724 4.9368926132156048 0 0 0 0 588.27082243531186 291.14649738208391 0 291.14649738208391 111.67560632398818 0 0 0 0 573.25636651768764 313.62046071424993 0 313.62046071424993 78.405995976994745 0 0 0 0 584.50737590250355 278.27395406999858 0 278.27395406999858 48.916274264590811 0 0 0 0 658.82475087712737 164.47460559209867 0 164.47460559209867 122.1043029827415 0 0 0 0 604.82413312986318 229.99108796543442 0 229.99108796543442 58.788995877141133 0 0 0 0 -14.11027093564735 160.18444557573093 0 160.18444557573093 30.849460585704037 0 0 0 0 3.8037128454443447 -1.4402349463466777 0 -1.4402349463466777 8.2027790349118845 0 0 0 0 22.801978227123072 -0.50164829541245126 0 -0.50164829541245126 13.379502597017563 0 0 0 0 613.96950253086106 190.76825606460625 0 190.76825606460625 224.40265856828773 0 0 0 0 0.79878050827719971 -2.6043675179557866 0 -2.6043675179557866 1.4446415170824594 0 0 0 0 3.0249154915873078 -2.4347866518655792 0 -2.4347866518655792 1.773171320441179 0 0 0 0 1.4029798227577857 1.2153699856222602 0 1.2153699856222602 6.406105977835864 0 0 0 0 1.5790392141207121 -2.0650294104707427 0 -2.0650294104707427 2.1153098628856242 0 0 0 0 11.256991255358134 0.45863721631484111 0 0.45863721631484111 1.5025009510794121 0 0 0 0 -8.0337642274644168 -1.4838590184081113 0 -1.4838590184081113 3.1530392055865377 0 0 0 0 -1.1213446779622434 0.0042073765795365148 0 0.0042073765795365148 4.3034430537008461 0 0 0 0 -4.985223094124585 2.3940765132310275 0 2.3940765132310275 1.00833377991313 0 0 0 0 -221.78004526910445 -16.144483993848553 0 -16.144483993848553 16.889823900564807 0 0 0 0 -112.36519315603891 -91.50840962897928 0 -91.50840962897928 54.79753942345269 0 0 0 0 5.7883447526681158 8.5033318054020874 0 8.5033318054020874 -0.84764366081094522 0 0 0 0 -2.2120311690205376 2.6950832613219688 0 2.6950832613219688 6.6846023922811355 0 0 0 0 -37.274253425113329 14.593257197346247 0 14.593257197346247 9.2907380353426561 0 0 0 0 41.690545217510589 -18.619110444651596 0 -18.619110444651596 -9.3525115442753304 0 0 0 0 12.557743368171941 12.786069930316444 0 12.786069930316444 32.545172359823482 0 0 0 0 23.758133720315527 -21.858951532063656 0 -21.858951532063656 8.6079470717013464 0 0 0 0 631.53007291127062 221.50118761244948 0 221.50118761244948 -16.042303412046749 0 0 0 0 -67.389869388181069 56.981346583401319 0 56.981346583401319 38.644046806977713 0 0 0 0 -34.802874968426295 45.882862261605624 0 45.882862261605624 37.198300740201375 0 0 0 0 -52.61922123054137 83.011314972798573 0 83.011314972798573 84.511839008249808 0 0 0 0 144.40657993802597 64.514831634325674 0 64.514831634325674 2.2774498721555574 0 0 0 0 -1.9603747656857511 -0.47167476727501878 0 -0.47167476727501878 3.5722726027294698 0 0 0 0 -85.577517388214801 43.360106758816983 0 43.360106758816983 68.501213253639435 0 0 0 0 7.1342133398302394 -55.195924365398241 0 -55.195924365398241 8.567478997661965 0 0 0 0 37.256125544456154 48.060731590012438 0 48.060731590012438 -68.530424321390456 0 0 0 0 -41.344542411786733 67.375590359923081 0 67.375590359923081 -28.304776735094492 0 0 0 0 -2.1680910154624247 2.7600148429540781 0 2.7600148429540781 4.0888611780816291 0 0 0 0 38.675964896267033 -2.0779856539156754 0 -2.0779856539156754 -26.178933566436172 0 0 0 0 -35.470775430412687 67.592551715526497 0 67.592551715526497 -29.105601647592266 0 0 0 0 -68.790870655872709 18.11017592119606 0 18.11017592119606 15.583743842435069 0 0 0 0 -22.695526117884942 42.917969586975232 0 42.917969586975232 4.5430626088054851 0 0 0 0 -33.905798743439163 85.288650311224046 0 85.288650311224046 -19.57523146593303 0 0 0 0 -37.837512018209054 51.976115672732703 0 51.976115672732703 -97.507583608152345 0 0 0 0 0.11910489612644826 1.3042705809023687 0 1.3042705809023687 2.8344988873144814 0 0 0 0 -27.499812044993632 17.432666462525958 0 17.432666462525958 10.82542537250265 0 0 0 0 -1.3938890502382719 21.082283275958616 0 21.082283275958616 -4.26867154930369 0 0 0 0 -4.0193055243614717 16.835786484035907 0 16.835786484035907 -3.1420974751327151 0 0 0 0 35.466802496779451 10.130957088404102 0 10.130957088404102 22.587907398876268 0 0 0 0 -8.0403619379580071 20.866981224942577 0 20.866981224942577 9.3136447178346771 0 0 0 0 212.62009973078557 79.627694816881558 0 79.627694816881558 -33.441895399690111 0 0 0 0 -13.548139697240856 88.786956155498046 0 88.786956155498046 -26.860162774042692 0 0 0 0 -1.155762640794217 19.394537379585628 0 19.394537379585628 -19.542398163931125 0 0 0 0 -2.9396694267267094 22.8704047059 0 22.8704047059 -4.1006854287843453 0 0 0 0 -0.037813129967061876 15.942504030501524 0 15.942504030501524 -5.5433656104041233 0 0 0 0 -1.4877423250318316 19.934940858467598 0 19.934940858467598 -9.0593756557209417 0 0 0 0 -5.0456314726316815 14.296758140805593 0 14.296758140805593 -4.0077910939845367 0 0 0 0 -8.2688121302844593 16.094339867595409 0 16.094339867595409 -9.1871076673414791 0 0 0 0 -15.097190043258479 20.430073040888601 0 20.430073040888601 2.690767026913818 0 0 0 0 0.70048597048163685 10.18818582529903 0 10.18818582529903 10.944303348372273 0 0 0 0 -23.546345027696589 64.211623182680341 0 64.211623182680341 -23.96745153516531 0 0 0 0 -0.11272892556146985 11.960876908481769 0 11.960876908481769 0.2508221714833212 0 0 0 0 60.290278627347107 5.4655865125423588 0 5.4655865125423588 -44.77788178701303 0 0 0 0 20.853042831518906 19.52753013446636 0 19.52753013446636 25.234981708723353 0 0 0 0 29.279041128995232 39.164292920523167 0 39.164292920523167 -46.244736211869167 0 0 0 0 -18.198714358464713 16.544596814266697 0 16.544596814266697 -22.096914542053128 0 0 0 0 -19.056266988121024 -50.440036613541452 0 -50.440036613541452 -42.025290149642387 0 0 0 0 -0.50999270813120212 -0.49880373842522374 0 -0.49880373842522374 4.7433235181989062 0 0 0 0 0.51692184546162778 -0.1769798624974328 0 -0.1769798624974328 -1.070318209719801 0 0 0 0 -3.2467145400023583 62.253067167077461 0 62.253067167077461 -62.498986465070629 0 0 0 0 -0.70573238480228717 0.15472739725487372 0 0.15472739725487372 1.4753590659987026 0 0 0 0 109.40716833540318 71.591278457839508 0 71.591278457839508 -22.529540232484578 0 0 0 0 -67.019040181014134 -262.47808989663827 0 -262.47808989663827 3.601607818127377 0 0 0 0 -810.99673791407986 293.75381084661421 0 293.75381084661421 -78.259496595623204 0 0 0 0 83.628847040152323 99.717007219398511 0 99.717007219398511 27.033104920709093 0 0 0 0 -14.769385097884758 14.01086642176594 0 14.01086642176594 -7.5509060284307736 0 0 0 0 68.354520149467135 45.538655045966152 0 45.538655045966152 26.074206427263562 0 0 0 0 79.762150861537521 6.0645891628955724 0 6.0645891628955724 -99.571712718796334 0 0 0 0 -116.4469628879242 -270.87072759199509 0 -270.87072759199509 61.722517436763155 0 0 0 0 -36.640775141114318 15.501776332017471 0 15.501776332017471 300.74040749916458 0 0 0 0 -297.37895951841983 -93.399220896622865 0 -93.399220896622865 259.90802883749711 0 0 0 0 -1298.1722007078697 -13.782038088873378 0 -13.782038088873378 -23.170891720170403 0 0 0 0 -256.74537898368635 770.66835001833533 0 770.66835001833533 -1018.867907760723 0 0 0 0 -7.3144378077916059 4.992554267725211 0 4.992554267725211 -4.192518990940016 0 0 0 0 -1187.5302786142911 1203.1777895148625 0 1203.1777895148625 -908.50850130528488 0 0 0 0 -737.40196585306512 666.69292729293375 0 666.69292729293375 -757.52496045918997 0 0 0 0 145.3836179357495 247.87650466044215 0 247.87650466044215 -886.69257284724154 0 0 0 0 -1.0211606719806712 4.3970708002983656 0 4.3970708002983656 -7.8544385659089357 0 0 0 0 -587.38433703057763 387.34471005814703 0 387.34471005814703 -353.18239958080812 0 0 0 0 283.80249882198632 271.51447474445376 0 271.51447474445376 232.29550745885354 0 0 0 0 441.66851472745475 451.15798122558772 0 451.15798122558772 355.2946021284879 0 0 0 0 -2.1627649335623289 2.2794041666252127 0 2.2794041666252127 0.22458247652525642 0 0 0 0 213.82761694352894 471.80039787787246 0 471.80039787787246 450.99171774885326 0 0 0 0 542.6307467429109 598.11085649929191 0 598.11085649929191 216.23251482882188 0 0 0 0 367.866936730416 692.13798214199778 0 692.13798214199778 381.36375396813673 0 0 0 0 389.60060703671888 765.77246099463082 0 765.77246099463082 519.15839075203348 0 0 0 0 252.01759076532693 682.01812008411798 0 682.01812008411798 678.85851578551228 0 0 0 0 335.4549410172649 737.42514298250899 0 737.42514298250899 517.26517941206293 0 0 0 0 181.74349397191301 583.42291348124854 0 583.42291348124854 540.53814691542357 0 0 0 0 73.67446043534369 279.4400644698726 0 279.4400644698726 469.64889979429427 0 0 0 0 -115.25707180323116 272.57478679504129 0 272.57478679504129 599.83423710621719 0 0 0 0 -3.9790140149038451 2.1959152204349408 0 2.1959152204349408 -2.3985313143188591 0 0 0 0 99.140329320356159 -142.48141514058079 0 -142.48141514058079 137.90416280421778 0 0 0 0 -1.8536735400384714 14.107058318659256 0 14.107058318659256 -10.670986384600837 0 0 0 0 -3.8808479335550343 7.2964596047682591 0 7.2964596047682591 -1.7122899528916946 0 0 0 0 -2.928917297277327 8.7400025210777983 0 8.7400025210777983 -12.584971328280744 0 0 0 0 106.84941875774788 133.5208369022439 0 133.5208369022439 238.72218738647643 0 0 0 0 -872.72370705036883 1003.6878218937709 0 1003.6878218937709 -524.06584724342974 0 0 0 0 -540.78133781425731 602.15826402498169 0 602.15826402498169 -231.42622828079038 0 0 0 0 -468.13986869227665 790.30689311020251 0 790.30689311020251 -415.37609881693788 0 0 0 0 -76.358494974966106 167.16344494905024 0 167.16344494905024 -112.34423550838255 0 0 0 0 -131.04807856120885 620.38285120148703 0 620.38285120148703 -739.97263897642551 0 0 0 0 -1328.5047491461355 1017.345337352388 0 1017.345337352388 -873.7737738963624 0 0 0 0 0.63408374665034573 0.59778982994417262 0 0.59778982994417262 -5.1445085310123773 0 0 0 0 319.95883770950968 225.66251908095728 0 225.66251908095728 -414.12778137574787 0 0 0 0 -1247.061414129319 1029.1705955207872 0 1029.1705955207872 -958.16804034263077 0 0 0 0 -1229.2735178337498 1005.0261271318086 0 1005.0261271318086 -940.73058201099047 0 0 0 0 -1738.0519128629976 402.13502642695676 0 402.13502642695676 -942.56223666587903 0 0 0 0 -1740.8098244538569 517.02581599364203 0 517.02581599364203 -1200.1030139753566 0 0 0 0 -2084.8805147968978 729.96283735075122 0 729.96283735075122 -59.229728664970025 0 0 0 0 -1399.1766975653918 1132.0797426362842 0 1132.0797426362842 -1103.718605694834 0 0 0 0 -1405.7631733749295 853.55657162806892 0 853.55657162806892 -238.42720299099165 0 0 0 0 -1136.2350516462502 184.56562869728077 0 184.56562869728077 82.41977755717744 0 0 0 0 -863.13500702242254 856.46398059786407 0 856.46398059786407 -941.19055868698342 0 0 0 0 -1263.4255543808595 719.15791712287319 0 719.15791712287319 -435.2252414447139 0 0 0 0 -1238.3796750811744 1036.9029271200197 0 1036.9029271200197 -407.37501212838106 0 0 0 0 -1107.9443670130327 910.04193264555215 0 910.04193264555215 -110.83609869600332 0 0 0 0 -879.99168030852525 867.55608711000968 0 867.55608711000968 -372.96782695745242 0 0 0 0 -995.94398359687011 569.15681271220092 0 569.15681271220092 -56.378962229937315 0 0 0 0 -867.92236017914911 624.61639072964317 0 624.61639072964317 -37.581456662621349 0 0 0 0 -802.33175949462384 228.04372282409167 0 228.04372282409167 7.3042646445392165 0 0 0 0 -904.26488278165561 550.94055000502703 0 550.94055000502703 40.368769693188369 0 0 0 0 -379.91347870150821 441.60442086900002 0 441.60442086900002 118.60860293373116 0 0 0 0 -346.82840169070369 579.54759742047463 0 579.54759742047463 -25.568846631271299 0 0 0 0 -699.65730182209154 815.11846754397629 0 815.11846754397629 -115.10069048295554 0 0 0 0 -844.693984941694 937.67798377829604 0 937.67798377829604 -117.08269635507895 0 0 0 0 -870.23492590664682 823.24030340440368 0 823.24030340440368 1.915901109445258 0 0 0 0 -893.81722894671941 997.03217248114515 0 997.03217248114515 -245.23311923195433 0 0 0 0 -789.8702702308583 889.86919633392972 0 889.86919633392972 -168.93616767503408 0 0 0 0 -763.67564032431505 673.72095384931208 0 673.72095384931208 -80.410086635471089 0 0 0 0 -1006.7651704807663 728.8889689721882 0 728.8889689721882 -38.878251368907513 0 0 0 0 -974.33377154896561 940.56295235336438 0 940.56295235336438 -67.046505044054356 0 0 0 0 -1076.3481383334329 1002.7827571727903 0 1002.7827571727903 -243.82200287375599 0 0 0 0 -794.58008555396009 794.86479762176168 0 794.86479762176168 -134.15059044079317 0 0 0 0 -740.65019542885329 864.8417159646342 0 864.8417159646342 -76.594919025461422 0 0 0 0 -507.87118708041089 520.91476533745299 0 520.91476533745299 -31.883792764893769 0 0 0 0 -773.63994438138707 648.12141942015478 0 648.12141942015478 -304.50943644336076 0 0 0 0 41.647856558885906 137.38905562039872 0 137.38905562039872 298.5296125804889 0 0 0 0 -246.5381266285076 490.99222476301657 0 490.99222476301657 156.55699274424114 0 0 0 0 -226.58787331874555 498.67553045196109 0 498.67553045196109 34.091113299276913 0 0 0 0 -507.51447311005177 646.02943116977985 0 646.02943116977985 13.405207591044018 0 0 0 0 -633.28607080733127 817.90393346585915 0 817.90393346585915 -69.425365793751553 0 0 0 0 -505.00135341857276 666.30166878687305 0 666.30166878687305 83.348920083080884 0 0 0 0 -567.35882774900165 561.4580597095046 0 561.4580597095046 91.505951181141427 0 0 0 0 -144.12476357453306 460.29083228958916 0 460.29083228958916 6.9178343680287071 0 0 0 0 -173.12166275346317 408.15865536321508 0 408.15865536321508 159.48598869726993 0 0 0 0 156.19732252027097 458.58798570173531 0 458.58798570173531 17.440192479160032 0 0 0 0 209.6912538228753 386.01131519181217 0 386.01131519181217 31.836011319217505 0 0 0 0 133.56711611053106 280.60171718592755 0 280.60171718592755 104.81317339597081 0 0 0 0 471.2124606150137 321.87214349700844 0 321.87214349700844 3.361092976629152 0 0 0 0 31.31463420110822 478.47965941871917 0 478.47965941871917 -83.069140284977038 0 0 0 0 -471.85915436047617 617.93915951260715 0 617.93915951260715 179.77866392083524 0 0 0 0 -403.59106478181639 657.99828891602374 0 657.99828891602374 0.15696292099892162 0 0 0 0 54.131066142334021 350.90708185108815 0 350.90708185108815 197.40541876041243 0 0 0 0 -728.48956376519891 680.8777175644027 0 680.8777175644027 -102.59684511575324 0 0 0 0 -1105.757592103284 649.58145783852524 0 649.58145783852524 -28.387323535185715 0 0 0 0 -721.40220682691688 756.5366145720036 0 756.5366145720036 -143.74817210297624 0 0 0 0 -572.57602519674219 435.98973685775854 0 435.98973685775854 114.63394179699389 0 0 0 0 -840.14972148918969 645.19180416288873 0 645.19180416288873 0.018050752645649482 0 0 0 0 -840.20658909585347 645.85394732701548 0 645.85394732701548 0.30034191990125692 0 0 0 0 -1076.9955171380316 1057.5522510848532 0 1057.5522510848532 -477.43704485621856 0 0 0 0 -569.97539344901816 644.24945813338491 0 644.24945813338491 -147.67796299929614 0 0 0 0 47.050118137784011 548.37668660902273 0 548.37668660902273 -0.60805377833547913 0 0 0 0 -71.58323622444459 419.11877191087115 0 419.11877191087115 -138.59798341534042 0 0 0 0 592.45982828739216 186.90864165208768 0 186.90864165208768 -58.052651259691629 0 0 0 0 -400.48820169172905 908.19555307927294 0 908.19555307927294 -45.077124061557697 0 0 0 0 398.90426346253662 949.60438687486749 0 949.60438687486749 -216.1421461196951 0 0 0 0 -7.8384273036281229 89.85297848207847 0 89.85297848207847 217.2452791001997 0 0 0 0 541.10309162269914 311.64698464608591 0 311.64698464608591 86.006746251150616 0 0 0 0 800.88842390303216 24.584903966431739 0 24.584903966431739 184.51830392851843 0 0 0 0 1227.5154455069933 759.82819665624993 0 759.82819665624993 337.35255309641252 0 0 0 0 -1476.479560666834 804.06834375637845 0 804.06834375637845 -8.2334982704051072 0 0 0 0 -1278.6551675116425 335.71203949154733 0 335.71203949154733 -115.07687237285427 0 0 0 0 -3114.2379911597 672.02630929791849 0 672.02630929791849 146.68613825678767 0 0 0 0 -2.6570749280373143 7.1569028438401858 0 7.1569028438401858 -4.1911302641822772 0 0 0 0 2686.3409531619072 778.49809039583488 0 778.49809039583488 -319.17914096951063 0 0 0 0 -95.028414737702406 -87.089867897935619 0 -87.089867897935619 230.49844061230397 0 0 0 0 -3.8478603256320696 5.5948961149397576 0 5.5948961149397576 -4.5892533407909468 0 0 0 0 -125.08202466451621 369.80086273289635 0 369.80086273289635 344.94305966957472 0 0 0 0 84.392390798217093 72.604355147486785 0 72.604355147486785 93.917494336041273 0 0 0 0 52.148359257473203 138.63655315177311 0 138.63655315177311 0.038594369383645244 0 0 0 0 111.19772277209995 229.4662730002683 0 229.4662730002683 119.71891641984985 0 0 0 0 99.143994815665792 64.814980854462192 0 64.814980854462192 0.13050762949569616 0 0 0 0 -0.74024184993999143 2.7863417543198636 0 2.7863417543198636 -3.1720790567154609 0 0 0 0 167.27317281547585 -24.060404080366425 0 -24.060404080366425 132.22388628011686 0 0 0 0 -394.3226940652894 85.584228512350819 0 85.584228512350819 175.72917818020505 0 0 0 0 -135.92449005916569 -28.487312967787147 0 -28.487312967787147 114.73413446460472 0 0 0 0 -488.43061339013366 153.24204744959934 0 153.24204744959934 203.46745740642655 0 0 0 0 -469.14478594032698 125.40553455622285 0 125.40553455622285 222.76704748738848 0 0 0 0 -383.13735489537066 38.288791632294306 0 38.288791632294306 302.44369776196254 0 0 0 0 -839.23571682960028 75.553364376981335 0 75.553364376981335 314.54704215537822 0 0 0 0 -597.32026747919735 -157.95938885412761 0 -157.95938885412761 171.67378602026292 0 0 0 0 -47.689616665654285 270.56508012548557 0 270.56508012548557 66.525240319533623 0 0 0 0 -560.37099690977993 522.38166153290513 0 522.38166153290513 0.22198001095239306 0 0 0 0 -403.96111940951232 279.52987813500658 0 279.52987813500658 118.5010975865589 0 0 0 0 -41.013233891018899 175.29387479000434 0 175.29387479000434 115.89499529309978 0 0 0 0 -455.73156938974353 131.81653300511061 0 131.81653300511061 268.23874694400001 0 0 0 0 -116.97672447900186 -85.799546074173122 0 -85.799546074173122 77.751686780087766 0 0 0 0 -589.93254599370994 284.7175158833561 0 284.7175158833561 187.01764182320767 0 0 0 0 -773.52224541295436 52.227452321109013 0 52.227452321109013 74.591924963646306 0 0 0 0 -524.14759657843388 328.05839211017155 0 328.05839211017155 -171.68610405427171 0 0 0 0 -482.40551428416074 328.52634456200758 0 328.52634456200758 0.0070731802261434495 0 0 0 0 -500.81724101694999 291.31779334471503 0 291.31779334471503 101.43852403960773 0 0 0 0 -867.85466543216899 431.56764202611521 0 431.56764202611521 -9.0200453849320184 0 0 0 0 -390.70523419841265 604.62766831998306 0 604.62766831998306 -441.88992046756903 0 0 0 0 -211.59350969577645 417.25809351896169 0 417.25809351896169 -227.14384039046126 0 0 0 0 -371.623921050219 548.7228776086049 0 548.7228776086049 -328.9065194829891 0 0 0 0 -482.17411283439515 445.10093754077297 0 445.10093754077297 -111.5213645597687 0 0 0 0 -295.05500586712151 304.97853038273752 0 304.97853038273752 -15.010915270409896 0 0 0 0 -478.56030919422028 269.41738416717453 0 269.41738416717453 87.810688428493449 0 0 0 0 -450.47673163705622 189.94186934140453 0 189.94186934140453 206.16895164738526 0 0 0 0 -297.94794649726828 106.1458347933949 0 106.1458347933949 125.62735763615638 0 0 0 0 -441.5189620910096 261.91074072798801 0 261.91074072798801 -17.586430846422445 0 0 0 0 -290.91312313198614 163.61843309981487 0 163.61843309981487 -119.63199706442538 0 0 0 0 -283.98212221774156 293.83008205863007 0 293.83008205863007 -128.30262152294745 0 0 0 0 -211.13446462414936 406.89951532053556 0 406.89951532053556 -238.91787969293364 0 0 0 0 -92.446562552009709 369.18867314746603 0 369.18867314746603 -227.57900606049225 0 0 0 0 25.913082182065409 75.414364229160128 0 75.414364229160128 -11.137677633649218 0 0 0 0 -541.5132235480196 260.14180619491162 0 260.14180619491162 15.704179243984981 0 0 0 0 38.870393812920156 613.99291540996182 0 613.99291540996182 -498.85788496368332 0 0 0 0 -17.392691237459076 100.78333245364956 0 100.78333245364956 -391.97726740977669 0 0 0 0 -101.54159093316412 442.89573372887025 0 442.89573372887025 -493.87703331561352 0 0 0 0 -5.7392859144129034 114.88533969307173 0 114.88533969307173 11.839169177124859 0 0 0 0 17.47771004945389 108.83089957996708 0 108.83089957996708 7.5584350874705706 0 0 0 0 -9.1739695218857378 95.792377030298667 0 95.792377030298667 54.062983039264509 0 0 0 0 -0.96770163722652569 68.556912604498677 0 68.556912604498677 18.161037416209275 0 0 0 0 -190.464602035383 108.12790592655438 0 108.12790592655438 92.047388622711878 0 0 0 0 2.9463495236767869 68.436199274917001 0 68.436199274917001 27.846179584816085 0 0 0 0 -137.88594522549101 446.05985846827389 0 446.05985846827389 -438.77712329717178 0 0 0 0 25.833432087456458 329.389853588611 0 329.389853588611 -362.13151209856733 0 0 0 0 -27.152945624446147 70.462828299908324 0 70.462828299908324 111.46376029339444 0 0 0 0 -1.3948434085048618 30.54256871475792 0 30.54256871475792 109.84056868244352 0 0 0 0 -855.27494590016431 -2.0664221613187692 0 -2.0664221613187692 349.15917357675789 0 0 0 0 -79.067183326063969 135.52008926354392 0 135.52008926354392 34.336959212305374 0 0 0 0 12.519089271198027 49.832274281710852 0 49.832274281710852 -383.96352916622345 0 0 0 0 -339.71075878322881 454.60970777005423 0 454.60970777005423 -332.90444497109638 0 0 0 0 -326.71983353780524 490.56902149450616 0 490.56902149450616 -452.56653687236212 0 0 0 0 -750.1153203604772 1054.3258652385412 0 1054.3258652385412 -1185.4985833207902 0 0 0 0 6.234471152633791 24.557233364445338 0 24.557233364445338 -7.5550630513371857 0 0 0 0 -384.86715284523962 560.46748989520347 0 560.46748989520347 -1162.8107138811611 0 0 0 0 -14.510107678504568 5.7331144270638958 0 5.7331144270638958 26.195438308710266 0 0 0 0 -519.32780630894558 -665.45666149393583 0 -665.45666149393583 -1224.6085854918929 0 0 0 0 -582.59455947726383 1158.4907420441741 0 1158.4907420441741 -1851.1639242177844 0 0 0 0 -2136.4350160822723 1170.7104807070864 0 1170.7104807070864 -571.12334097587154 0 0 0 0 -1075.3773200358046 340.56680547005635 0 340.56680547005635 -132.09363138422486 0 0 0 0 -1616.615188651353 386.10396655064869 0 386.10396655064869 502.76506973610958 0 0 0 0 209.83428940449085 802.52586164353852 0 802.52586164353852 478.55534097360578 0 0 0 0 -1493.0589607868533 -580.18308144062757 0 -580.18308144062757 -145.86188497985131 0 0 0 0 196.73149709567952 901.90144137642346 0 901.90144137642346 401.9094056130416 0 0 0 0 -763.90031010879829 14.256755418682587 0 14.256755418682587 142.8362583633716 0 0 0 0 368.49807066425637 431.43521601647808 0 431.43521601647808 30.866476719224011 0 0 0 0 -350.04587211857506 675.19948801978171 0 675.19948801978171 449.40661312224984 0 0 0 0 4.5755539291658458 20.304758907925986 0 20.304758907925986 72.873669662179282 0 0 0 0 -70.764621091693698 116.17390821355002 0 116.17390821355002 -5.3019310060080898 0 0 0 0 -303.56010229021194 338.58471594421644 0 338.58471594421644 -36.794815134126111 0 0 0 0 -23.867949365554523 141.571367180435 0 141.571367180435 -18.337253231729846 0 0 0 0 -22.336341560636356 105.58813971745985 0 105.58813971745985 -5.6903515945959953 0 0 0 0 -6.5558779171915376 183.01546644993869 0 183.01546644993869 -93.087841391265101 0 0 0 0 68.600560191021941 130.94195634622884 0 130.94195634622884 -59.487834296189249 0 0 0 0 88.840467997471933 84.024035362870563 0 84.024035362870563 -41.097620982254739 0 0 0 0 14.796687922837009 97.751838444930399 0 97.751838444930399 -38.071501482976601 0 0 0 0 -741.78746814387341 449.47268171621545 0 449.47268171621545 -67.507168350755819 0 0 0 0 -604.50310191647441 45.098196461351108 0 45.098196461351108 85.467163434164831 0 0 0 0 -93.033286811722064 -23.714547499155742 0 -23.714547499155742 -33.858506230957573 0 0 0 0 -288.14901829644077 44.062686806253623 0 44.062686806253623 -9.1017505555646494 0 0 0 0 -557.5858068252237 309.52214089808695 0 309.52214089808695 28.794923802342964 0 0 0 0 -653.27377831455669 624.21371432489832 0 624.21371432489832 -186.78785025553952 0 0 0 0 -952.66086890656516 712.37898950382805 0 712.37898950382805 -73.804022240663471 0 0 0 0 -900.35233282727359 404.64848578638521 0 404.64848578638521 -63.978087843977846 0 0 0 0 -1037.2076531295461 251.54684987260407 0 251.54684987260407 4.0022838230652269 0 0 0 0 -9.0835016665019452 20.565822613171932 0 20.565822613171932 -4.0429180572707537 0 0 0 0 -889.64681070730148 422.9124909493039 0 422.9124909493039 -104.97908316466783 0 0 0 0 2495.851039469806 991.16145771527226 0 991.16145771527226 -306.65805128443753 0 0 0 0 1409.9585003037719 393.40578722446298 0 393.40578722446298 -261.36501207722176 0 0 0 0 1130.4753620712072 678.68180282792309 0 678.68180282792309 -355.98111873817834 0 0 0 0 563.52198229922942 -183.74136257428472 0 -183.74136257428472 -559.0706904039107 0 0 0 0 -94.754417116768309 1164.5541079105315 0 1164.5541079105315 -169.9043564574531 0 0 0 0 934.26821551364992 973.0329616081508 0 973.0329616081508 1845.8246927608561 0 0 0 0 924.55013836035505 600.08195672258444 0 600.08195672258444 -67.499990158612491 0 0 0 0 -5.0324260783090722 48.206106390221976 0 48.206106390221976 -115.38791490695439 0 0 0 0 2701.531567069178 904.42932059692976 0 904.42932059692976 -139.26150133438932 0 0 0 0 -4.8126079490321487 7.4080156299596815 0 7.4080156299596815 13.697719955611888 0 0 0 0 3422.6325649328937 448.58466027871691 0 448.58466027871691 -282.43635318716406 0 0 0 0 -4.753397917617157 27.831576444281154 0 27.831576444281154 2.6977860067931942 0 0 0 0 16.265757819183818 133.15770337574759 0 133.15770337574759 -95.678912031726213 0 0 0 0 248.71572465754434 560.40375385994412 0 560.40375385994412 939.84337463865086 0 0 0 0 1992.906317762287 -148.74277173650171 0 -148.74277173650171 91.444773316965438 0 0 0 0 -87.967387288281316 133.13154102059343 0 133.13154102059343 78.011943916266318 0 0 0 0 247.69111655867164 1073.7836997077975 0 1073.7836997077975 1307.7668452318903 0 0 0 0 1306.9814267296179 767.62745112813082 0 767.62745112813082 95.192684965295484 0 0 0 0 1326.3227000303013 940.09042703623709 0 940.09042703623709 481.88606729509775 0 0 0 0 2588.8346274433279 1684.1739771862485 0 1684.1739771862485 451.37521254144667 0 0 0 0 2075.9054317314876 889.59585094188515 0 889.59585094188515 12.27182301110588 0 0 0 0 1173.3728886050667 1096.4146326614136 0 1096.4146326614136 227.06217506128451 0 0 0 0 560.5909551638324 629.7149764015121 0 629.7149764015121 106.85373348733992 0 0 0 0 811.12843995042203 497.93133266583027 0 497.93133266583027 -49.952584147129528 0 0 0 0 1164.5446629762882 590.04457893653307 0 590.04457893653307 101.5198108307959 0 0 0 0 1495.5035983595153 515.68677131648292 0 515.68677131648292 -49.499708631425165 0 0 0 0 925.35662405493349 588.85093511781452 0 588.85093511781452 22.123425358207896 0 0 0 0 785.75264402668836 769.28287091120728 0 769.28287091120728 89.549558820409402 0 0 0 0 14.671973461900382 46.363280385742087 0 46.363280385742087 46.870542902858801 0 0 0 0 372.25663085140695 279.12614307358308 0 279.12614307358308 176.34244618937373 0 0 0 0 97.325314705718483 -37.872933625512815 0 -37.872933625512815 39.68363143687202 0 0 0 0 532.84541060159972 53.68939533867524 0 53.68939533867524 169.20819806742657 0 0 0 0 965.55985074036289 -50.868808238767087 0 -50.868808238767087 147.98328107690759 0 0 0 0 -6.8846880397559289 102.271146832878 0 102.271146832878 6.1250991656415863 0 0 0 0 -91.751383456685289 44.495008644022164 0 44.495008644022164 23.084771818859736 0 0 0 0 -182.54518239859499 178.38187143005052 0 178.38187143005052 -29.769212129394873 0 0 0 0 -96.594405816662402 97.020962133166904 0 97.020962133166904 -73.130566562700551 0 0 0 0 -167.81617736435146 204.12694487866247 0 204.12694487866247 -62.498151584601146 0 0 0 0 -375.02931544381772 286.76321814189396 0 286.76321814189396 -104.97766069992213 0 0 0 0 -240.64085620632977 172.68614509265171 0 172.68614509265171 -40.998993364133639 0 0 0 0 -113.83856733169523 169.4139459625585 0 169.4139459625585 -61.265333836025093 0 0 0 0 -392.09512375606937 465.65353494325245 0 465.65353494325245 -125.94648168030835 0 0 0 0 -412.05015350124995 417.8703493468347 0 417.8703493468347 -210.69783448087401 0 0 0 0 -153.88072845061106 174.2676171453495 0 174.2676171453495 -91.379045102694363 0 0 0 0 -224.56515437068083 386.46689499160857 0 386.46689499160857 -366.72361131108846 0 0 0 0 -130.95091951881204 43.902634217063678 0 43.902634217063678 101.70291826536413 0 0 0 0 -94.960452794926823 133.86621183715761 0 133.86621183715761 -122.16983314033678 0 0 0 0 -27.491289450044405 72.034803908220056 0 72.034803908220056 71.998155196546577 0 0 0 0 -62.040893699200751 84.145558516487654 0 84.145558516487654 124.32955401859363 0 0 0 0 -168.91516705712638 62.484683064714773 0 62.484683064714773 181.80958755885513 0 0 0 0 -38.317290652587978 20.279671678964149 0 20.279671678964149 17.458764726060537 0 0 0 0 -70.347123674160684 45.887606937967576 0 45.887606937967576 104.07945656805532 0 0 0 0 55.191523767269246 11.362435838214878 0 11.362435838214878 82.349440281624993 0 0 0 0 -56.877268070264108 75.572524532370153 0 75.572524532370153 -30.761274584610078 0 0 0 0 -126.67097727797227 114.81759438068184 0 114.81759438068184 251.71010844524426 0 0 0 0 419.14643912060274 167.98229458027345 0 167.98229458027345 -118.37375717781833 0 0 0 0 6.4852844356502466 55.048037463243098 0 55.048037463243098 78.1124799748398 0 0 0 0 249.00807038210041 536.46591931350122 0 536.46591931350122 153.17826503114338 0 0 0 0 665.86346879963821 928.75732813071227 0 928.75732813071227 488.75786123676517 0 0 0 0 -767.26818986060607 343.37055751463049 0 343.37055751463049 629.24681144753413 0 0 0 0 -15.21093154753521 16.856912035066642 0 16.856912035066642 20.551700644993737 0 0 0 0 -86.820326716158888 223.57499179194565 0 223.57499179194565 -201.6808266923108 0 0 0 0 -141.53320129631174 -25.277273822615825 0 -25.277273822615825 62.807961507583968 0 0 0 0 -101.93147610681845 32.641490418821235 0 32.641490418821235 24.424630840148779 0 0 0 0 -167.56845217748491 56.439431355545821 0 56.439431355545821 102.53381490071479 0 0 0 0 -258.64696414639184 304.14868399964689 0 304.14868399964689 189.84453689407383 0 0 0 0 116.92369881521154 -12.828674504045921 0 -12.828674504045921 68.318725344899576 0 0 0 0 -880.10189797480052 -36.45349358985186 0 -36.45349358985186 489.89644049457274 0 0 0 0 -356.0004708778506 448.47524162763148 0 448.47524162763148 -12.271388469689555 0 0 0 0 -107.87774493288205 21.05107291136332 0 21.05107291136332 6.1756779556642982 0 0 0 0 -7.1930882886808831 -415.30778887992346 0 -415.30778887992346 128.55894772827742 0 0 0 0 -129.16208679097781 127.80079480062705 0 127.80079480062705 111.25629605092399 0 0 0 0 -153.51562292962171 31.878947184268327 0 31.878947184268327 90.062769630094408 0 0 0 0 -104.23484000755343 57.028038806332916 0 57.028038806332916 56.833060063101584 0 0 0 0 -153.05665837243669 39.544876398496854 0 39.544876398496854 34.716124253507587 0 0 0 0 -164.29117846225796 55.577812596526201 0 55.577812596526201 79.20946029436891 0 0 0 0 -15.569544151926403 -3.8321921911849763 0 -3.8321921911849763 50.282991363390295 0 0 0 0 -118.28337205076514 22.393958748230943 0 22.393958748230943 74.086084883267176 0 0 0 0 -120.17747434161083 27.897449190160842 0 27.897449190160842 58.373014207543747 0 0 0 0 -1.8841593122360791 14.198729645659114 0 14.198729645659114 84.147433186299168 0 0 0 0 -51.197459411556792 53.366193167261372 0 53.366193167261372 61.274743014218984 0 0 0 0 -47.931194694326678 69.134282627865105 0 69.134282627865105 94.791796035366133 0 0 0 0 -158.78329517593556 73.629389429741423 0 73.629389429741423 98.838193087867694 0 0 0 0 -191.32878898277704 -22.443664485457703 0 -22.443664485457703 46.610098755598301 0 0 0 0 -20.314836698468774 63.60080427456181 0 63.60080427456181 84.943267891872267 0 0 0 0 1.5648314854668364 7.4374559890300418 0 7.4374559890300418 19.420790921824761 0 0 0 0 19.490730264740705 44.276776903949212 0 44.276776903949212 97.091485983197344 0 0 0 0 225.17333966622755 330.62802325357916 0 330.62802325357916 270.35155963539728 0 0 0 0 175.67327630118234 128.70799834319041 0 128.70799834319041 -94.535752352695908 0 0 0 0 -89.389795486018556 250.32544156366566 0 250.32544156366566 430.71285634167725 0 0 0 0 100.92232936844812 504.61941454482439 0 504.61941454482439 624.29052773321018 0 0 0 0 -822.724320573976 395.20420588182969 0 395.20420588182969 969.84552790079033 0 0 0 0 -141.14655162999043 74.982333057808319 0 74.982333057808319 -13.526215239617159 0 0 0 0 1017.610792723448 485.89389661418681 0 485.89389661418681 24.479111022908 0 0 0 0 3.1788728504333221 9.9219168664406041 0 9.9219168664406041 25.176723360777487 0 0 0 0 2764.5245103250927 1119.4715564579237 0 1119.4715564579237 -274.44998251427751 0 0 0 0 451.68078091670395 2148.4474359789201 0 2148.4474359789201 1052.8853736761521 0 0 0 0 1625.9071890731284 335.14975546321875 0 335.14975546321875 140.10941242307308 0 0 0 0 262.95672546740388 -956.74057168181025 0 -956.74057168181025 643.31596293376788 0 0 0 0 -222.3573139526161 120.47995649745826 0 120.47995649745826 264.1641752224823 0 0 0 0 -298.14525145122752 557.90872456047146 0 557.90872456047146 809.60412063972399 0 0 0 0 106.89457391517499 90.72775747473861 0 90.72775747473861 -269.35640286571288 0 0 0 0 175.58741101544001 846.34079002355429 0 846.34079002355429 558.36928085354157 0 0 0 0 426.29778755910229 1238.9249568740561 0 1238.9249568740561 1125.614603152555 0 0 0 0 406.50215893885616 530.34149873770366 0 530.34149873770366 473.64148070359079 0 0 0 0 289.39843559388828 380.87937199958469 0 380.87937199958469 442.78548163996311 0 0 0 0 -26.093277165488956 6.6854652559685661 0 6.6854652559685661 5.1662127573371208 0 0 0 0 307.21724304161035 455.03825204303394 0 455.03825204303394 719.97968044700974 0 0 0 0 415.30048536076356 641.68060018117103 0 641.68060018117103 699.89275407244713 0 0 0 0 132.5861362133146 285.57739112350828 0 285.57739112350828 482.74921422224725 0 0 0 0 -167.07290192916844 68.91410310651554 0 68.91410310651554 170.65809549645564 0 0 0 0 -125.85434138458731 133.43679872146095 0 133.43679872146095 147.87861966982018 0 0 0 0 -64.718851555467637 32.344175682384929 0 32.344175682384929 -8.8205835506172434 0 0 0 0 1725.3180208512786 1212.428071199698 0 1212.428071199698 679.79948429252545 0 0 0 0 1.4405713639715998 0.25517777438230382 0 0.25517777438230382 2.2216352337084686 0 0 0 0 -218.54327483817724 -217.82166675016106 0 -217.82166675016106 5.4696492984367069 0 0 0 0 617.44562259554004 706.82103798201933 0 706.82103798201933 451.85661662791972 0 0 0 0 -152.00985088514881 190.01756820529363 0 190.01756820529363 213.3782793197679 0 0 0 0 -72.268688564697285 36.261404279301274 0 36.261404279301274 -8.1070478363355676 0 0 0 0 -30.225030180787144 14.340563795260096 0 14.340563795260096 53.336125328365597 0 0 0 0 -72.598243025360716 34.923800245313032 0 34.923800245313032 62.46941985043668 0 0 0 0 -91.247740642378631 59.829164716022206 0 59.829164716022206 53.394532980826625 0 0 0 0 -4.1238715860464668 31.279127396385192 0 31.279127396385192 40.256125923997445 0 0 0 0 -103.36760357123552 27.72936250290374 0 27.72936250290374 11.351917620277106 0 0 0 0 -129.91589254239989 150.6454275015858 0 150.6454275015858 18.607246965213562 0 0 0 0 -213.78725318980923 144.20572101566358 0 144.20572101566358 22.765834883663047 0 0 0 0 -184.42490765804359 146.88508886263662 0 146.88508886263662 -33.137915028870339 0 0 0 0 -189.16328291852847 133.21571153405603 0 133.21571153405603 -36.302447633177508 0 0 0 0 16.974225847336299 22.066922256114083 0 22.066922256114083 30.925755735584119 0 0 0 0 -56.496327795111938 30.559669936970749 0 30.559669936970749 77.227989729151886 0 0 0 0 -11.043610708371801 3.9501820069083067 0 3.9501820069083067 5.8015503881468788 0 0 0 0 -58.102793598878634 47.681476704368833 0 47.681476704368833 31.408100960114098 0 0 0 0 17.410299729577673 -3.8204615150607424 0 -3.8204615150607424 43.690021997390431 0 0 0 0 -77.923022477192717 -39.775153407172184 0 -39.775153407172184 138.9037917567839 0 0 0 0 -147.17585858356324 189.80448776282719 0 189.80448776282719 -114.42748672344169 0 0 0 0 -4.2320829154701443 2.3910268313679808 0 2.3910268313679808 0.82421705554989444 0 0 0 0 -250.76930252189777 55.847268283294397 0 55.847268283294397 36.171021356320125 0 0 0 0 -214.07061431091643 134.8113700517597 0 134.8113700517597 148.41498169518309 0 0 0 0 -170.63701890197262 11.162650937607395 0 11.162650937607395 110.91819114609098 0 0 0 0 -39.71716992245274 23.085675486359833 0 23.085675486359833 110.69984434446087 0 0 0 0 -190.49657330117435 -31.661056527005258 0 -31.661056527005258 22.49885156712844 0 0 0 0 268.51865902926681 284.96204920666787 0 284.96204920666787 217.20091877370942 0 0 0 0 220.04607411163227 426.79006431035305 0 426.79006431035305 367.56752152185072 0 0 0 0 -25.886782263936496 15.723130810978091 0 15.723130810978091 4.5190124416174626 0 0 0 0 -29.486985027822811 25.250769101207879 0 25.250769101207879 15.40215757516853 0 0 0 0 -71.770010111176362 27.955401986437209 0 27.955401986437209 24.610336557336268 0 0 0 0 -152.33271933247508 -11.714726553800574 0 -11.714726553800574 27.673955867430777 0 0 0 0 -6.9370061655248438 -10.556312896193777 0 -10.556312896193777 27.940521806403012 0 0 0 0 -176.14673866237342 9.4347546619319473 0 9.4347546619319473 42.477024433363113 0 0 0 0 -200.36030131165103 48.645268236083211 0 48.645268236083211 60.34326388259251 0 0 0 0 -176.04971292435857 9.6407342877646443 0 9.6407342877646443 42.887295358625124 0 0 0 0 -149.71148239206877 79.710990881358157 0 79.710990881358157 31.307328381793923 0 0 0 0 -182.39183951386201 76.680126628070866 0 76.680126628070866 77.811267480850802 0 0 0 0 -239.73439767483251 83.999955903869704 0 83.999955903869704 34.023653164307689 0 0 0 0 -278.9935801573165 -10.220913861368899 0 -10.220913861368899 45.547866727225482 0 0 0 0 -195.60412700357551 12.7034199075988 0 12.7034199075988 42.911751056191861 0 0 0 0 -245.99231678838845 90.305478049350313 0 90.305478049350313 28.256829136764281 0 0 0 0 -204.55023958984165 -36.536665283689217 0 -36.536665283689217 25.64584314484091 0 0 0 0 -525.14050183904078 -137.37328080342195 0 -137.37328080342195 -2.2282311390299583 0 0 0 0 -353.95576950678242 102.26379997492768 0 102.26379997492768 27.442389810024906 0 0 0 0 -274.21702789284734 417.48351961218577 0 417.48351961218577 -313.48399539316597 0 0 0 0 -232.02200856850766 204.40091739260606 0 204.40091739260606 -91.822062559367623 0 0 0 0 -400.01601695070576 102.32844005905645 0 102.32844005905645 171.66955858668371 0 0 0 0 42.974551282054051 -27.837103385041701 0 -27.837103385041701 -468.3657663379272 0 0 0 0 -387.97568073544471 439.87255534325232 0 439.87255534325232 127.10620723420743 0 0 0 0 197.48517195348018 567.39807991447742 0 567.39807991447742 -215.77444430727337 0 0 0 0 168.76356646238747 222.83520036716982 0 222.83520036716982 159.87717478646664 0 0 0 0 385.44855867171447 523.13555517152417 0 523.13555517152417 351.90389363371651 0 0 0 0 594.17121816152576 895.35330227635859 0 895.35330227635859 507.14024738790613 0 0 0 0 102.99221951521653 689.16610189690255 0 689.16610189690255 571.61075828464527 0 0 0 0 0.5787848475453452 -0.9601460514609812 0 -0.9601460514609812 2.4427332135352344 0 0 0 0 455.63762697818976 545.04516571866407 0 545.04516571866407 533.65312374725181 0 0 0 0 460.82844744112663 448.4187097950562 0 448.4187097950562 425.11070290100179 0 0 0 0 74.21742462983218 271.58169346032082 0 271.58169346032082 781.04896602968802 0 0 0 0 -5.6955478327489235 -4.272244188556968 0 -4.272244188556968 10.828104968626178 0 0 0 0 -193.04036882804388 -20.4179517494631 0 -20.4179517494631 22.700823772452623 0 0 0 0 828.57899239455446 577.7466312309698 0 577.7466312309698 335.64434862193593 0 0 0 0 -6.5390340107782761 -1.2948825842345499 0 -1.2948825842345499 2.7735568453192059 0 0 0 0 259.59466020188074 307.24812510510674 0 307.24812510510674 819.95973467014846 0 0 0 0 585.07372058996646 375.43520180886117 0 375.43520180886117 392.42026462726062 0 0 0 0 241.76879333089369 395.20722784011741 0 395.20722784011741 400.49628951831255 0 0 0 0 187.61205849191629 223.62309135705436 0 223.62309135705436 441.88563038327266 0 0 0 0 313.71246008715286 305.55765892189811 0 305.55765892189811 212.74779881417635 0 0 0 0 245.52657834127365 318.92629192295135 0 318.92629192295135 405.14684627925089 0 0 0 0 232.62545349367315 306.60957709056675 0 306.60957709056675 213.22638641946833 0 0 0 0 299.45064255481623 321.48669067719311 0 321.48669067719311 167.13562964761513 0 0 0 0 184.97215489717018 332.15028814475227 0 332.15028814475227 202.3652893473045 0 0 0 0 179.29094322203514 238.98582772785448 0 238.98582772785448 208.6208654721886 0 0 0 0 60.466730561373879 242.23178943231324 0 242.23178943231324 317.56310894365015 0 0 0 0 133.03771722827946 326.80708676765789 0 326.80708676765789 246.98674247266536 0 0 0 0 -4.3322679036012914 195.41617149454942 0 195.41617149454942 43.406134714517975 0 0 0 0 38.061857767565471 304.22522628636943 0 304.22522628636943 201.6759327333566 0 0 0 0 -4.9756269409409128 333.88776798368917 0 333.88776798368917 337.75522100829403 0 0 0 0 -2.6040446843967402 371.63968189009756 0 371.63968189009756 415.78135339157598 0 0 0 0 83.325758756157484 388.00323178347753 0 388.00323178347753 337.07100991096195 0 0 0 0 102.36301025191142 320.86957798172079 0 320.86957798172079 463.50103807116102 0 0 0 0 9.6960409115708899 379.78088207150722 0 379.78088207150722 410.29330845854929 0 0 0 0 -7.019313644494332 409.85525251164654 0 409.85525251164654 403.89438020154194 0 0 0 0 -0.32263049712642433 1.1903532634712057 0 1.1903532634712057 2.4674258886676057 0 0 0 0 -190.63024826217725 -19.597448050728417 0 -19.597448050728417 425.87989869371449 0 0 0 0 -13.990053754690507 381.79187478257154 0 381.79187478257154 551.54742704691307 0 0 0 0 15.358260967926071 74.774346096790396 0 74.774346096790396 287.20261355190814 0 0 0 0 -26.443522553455978 17.351970733219105 0 17.351970733219105 -1.0476578875821474 0 0 0 0 111.88299233839098 270.20260985579444 0 270.20260985579444 202.75806807156187 0 0 0 0 -238.22559663607717 872.44964456878006 0 872.44964456878006 785.24480616381334 0 0 0 0 -481.78175410488802 647.041883484766 0 647.041883484766 579.23798186917702 0 0 0 0 -411.46063413562388 383.68520098609588 0 383.68520098609588 642.85786622804881 0 0 0 0 -142.81038494575841 496.87079349142732 0 496.87079349142732 276.13038847388816 0 0 0 0 -68.019566604645661 353.42647933647822 0 353.42647933647822 549.20717386780598 0 0 0 0 -76.304755505000472 704.76687779680094 0 704.76687779680094 349.72238805737288 0 0 0 0 -75.043004956218283 653.36184455228067 0 653.36184455228067 525.86925769508889 0 0 0 0 92.365559819779264 371.44732797142024 0 371.44732797142024 -174.85481322165288 0 0 0 0 -16.615684429024441 397.35963389221433 0 397.35963389221433 211.8980076174048 0 0 0 0 -25.09224926686511 398.89419001066562 0 398.89419001066562 270.53509706042792 0 0 0 0 120.70903989746967 217.29264633823186 0 217.29264633823186 -154.7041194076528 0 0 0 0 -76.731307913786623 169.35653452732004 0 169.35653452732004 -294.24464230216108 0 0 0 0 -144.42456809140003 507.73607504745087 0 507.73607504745087 -701.89319993261597 0 0 0 0 417.17304333080756 518.25583681149146 0 518.25583681149146 -270.8226897477798 0 0 0 0 158.86444999899322 463.64350601669139 0 463.64350601669139 -52.814723169212812 0 0 0 0 277.61615889264613 238.36669701190112 0 238.36669701190112 -448.18979008519091 0 0 0 0 -25.864353773642506 679.6396655079443 0 679.6396655079443 -1414.4170037110016 0 0 0 0 -230.58760189721215 111.695720186377 0 111.695720186377 169.50471383259719 0 0 0 0 -363.21564717689398 561.39702530974319 0 561.39702530974319 -797.5929286396713 0 0 0 0 -20.846339260628156 396.06291442531801 0 396.06291442531801 -1331.673668650772 0 0 0 0 32.182008556505025 -173.86113038014446 0 -173.86113038014446 223.0941964523081 0 0 0 0 -120.80342907700833 289.44018077088549 0 289.44018077088549 157.40225548539365 0 0 0 0 -0.73109423993941647 -1.1797522165630596 0 -1.1797522165630596 -2.5042233412266057 0 0 0 0 -622.64522669349526 519.54644343850305 0 519.54644343850305 -42.366073631434119 0 0 0 0 28.839187405440555 31.185905977204854 0 31.185905977204854 30.789700211824879 0 0 0 0 -552.68989593349306 568.3663287330055 0 568.3663287330055 -383.31132767748204 0 0 0 0 -534.98674983972091 802.23876426116817 0 802.23876426116817 -471.80868541410018 0 0 0 0 -320.31218865248934 620.63744472069084 0 620.63744472069084 -507.45691474179512 0 0 0 0 -338.65552303005927 496.86720379194594 0 496.86720379194594 -261.60724062808731 0 0 0 0 332.92265880355353 760.40318119184667 0 760.40318119184667 117.01789255652329 0 0 0 0 -3.0285757844717409 234.09618342879912 0 234.09618342879912 -120.07568475688458 0 0 0 0 11.345437337800869 12.389078163663299 0 12.389078163663299 11.418221096239449 0 0 0 0 1322.7656571520984 494.74672529121744 0 494.74672529121744 -138.68058984829577 0 0 0 0 421.60418828854472 1525.4877076536613 0 1525.4877076536613 1198.4913000623492 0 0 0 0 -59.237096846401982 837.30149748978874 0 837.30149748978874 443.48071932356834 0 0 0 0 -393.94255062866523 439.25150314644998 0 439.25150314644998 1420.6545881182738 0 0 0 0 533.504757314058 1796.876594727717 0 1796.876594727717 309.52755516648176 0 0 0 0 949.3305846990163 577.49064290549723 0 577.49064290549723 46.554718483588658 0 0 0 0 -459.14872447110065 1002.4672899946017 0 1002.4672899946017 -79.007792075084581 0 0 0 0 -691.35325196189649 1088.6137077016392 0 1088.6137077016392 1149.3393867721461 0 0 0 0 -235.26786319780751 568.15381892592268 0 568.15381892592268 -88.023562554059026 0 0 0 0 -344.7859850061443 899.09722633061028 0 899.09722633061028 446.78657910662878 0 0 0 0 35.427672893646104 1328.1021659207618 0 1328.1021659207618 -122.17790754026646 0 0 0 0 47.578405216198234 1258.4734197737052 0 1258.4734197737052 218.29591951815382 0 0 0 0 183.81302858233897 1140.5726943267273 0 1140.5726943267273 -173.69654825476755 0 0 0 0 391.98720034189955 1008.5639142312502 0 1008.5639142312502 -100.66128331334767 0 0 0 0 325.14054835981091 1368.6181207777427 0 1368.6181207777427 -790.59617797247483 0 0 0 0 600.73322181048593 554.9091054320379 0 554.9091054320379 -747.35289022843062 0 0 0 0 479.9916747001671 802.42371520400047 0 802.42371520400047 97.037005028803833 0 0 0 0 535.62554634698745 926.69103240810364 0 926.69103240810364 -312.198721432811 0 0 0 0 424.02242247782681 521.98002795386856 0 521.98002795386856 84.162045409088023 0 0 0 0 -319.59498584512698 529.30970271431579 0 529.30970271431579 -584.70229166190256 0 0 0 0 -978.04375222257022 430.14362065229943 0 430.14362065229943 -557.20047829115356 0 0 0 0 -271.64838254170172 654.46277959410509 0 654.46277959410509 -633.25122736218327 0 0 0 0 -225.05721852590023 1446.0952661005504 0 1446.0952661005504 -174.30636871600291 0 0 0 0 -626.77398463137342 1080.1452917180868 0 1080.1452917180868 -1133.6109051291423 0 0 0 0 -525.3832430324419 931.52064037844048 0 931.52064037844048 -1212.4842780835024 0 0 0 0 -1324.0020281748857 1000.28111526469 0 1000.28111526469 -1469.6149900225282 0 0 0 0 -2003.1984904203982 364.07759079780953 0 364.07759079780953 -926.62265451652638 0 0 0 0 -914.30886222958725 -101.7984556100273 0 -101.7984556100273 -75.339263128142193 0 0 0 0 -2775.0136105304919 -430.69460596201679 0 -430.69460596201679 -129.99054249208348 0 0 0 0 -6.1030603352379238 4.9628855256433013 0 4.9628855256433013 -5.5804937802959671 0 0 0 0 -124.65468466400989 -216.54196286616025 0 -216.54196286616025 141.39355678844731 0 0 0 0 -864.71591402949116 397.59477344239349 0 397.59477344239349 -99.497941856068792 0 0 0 0 -78.120618566289863 502.57226378190353 0 502.57226378190353 -624.35136331024114 0 0 0 0 -1107.0608347907073 1486.9131045063841 0 1486.9131045063841 -1062.5852405176556 0 0 0 0 -2375.3992118611795 952.92144948578061 0 952.92144948578061 -851.64739815189387 0 0 0 0 731.35427511588205 -336.12085098841635 0 -336.12085098841635 117.00792151372298 0 0 0 0 -1206.2699878653075 1207.4853115189471 0 1207.4853115189471 1720.5622573430301 0 0 0 0 32.416673075258586 -248.5038417798205 0 -248.5038417798205 -206.60171983137843 0 0 0 0 -135.654450348924 148.42300707145478 0 148.42300707145478 -42.719274318602402 0 0 0 0 -33.354914962965267 547.57612604719179 0 547.57612604719179 -586.57694819862081 0 0 0 0 -10.985243069317221 23.796660354237247 0 23.796660354237247 164.62819827575004 0 0 0 0 -15.26085543920393 0.4001994628006571 0 0.4001994628006571 -3.2698463162278983 0 0 0 0 46.912252131540299 25.783732623473043 0 25.783732623473043 153.32454338637035 0 0 0 0 89.510112432668393 -109.94333136174828 0 -109.94333136174828 108.51786006736802 0 0 0 0 233.53570535553081 680.94950054691435 0 680.94950054691435 -1384.424414898298 0 0 0 0 110.98737747655468 -0.34177276885020547 0 -0.34177276885020547 130.32252795922977 0 0 0 0 -8.5782115992941677 7.3847326297414462 0 7.3847326297414462 3.0879055369297816 0 0 0 0 15.927985879556218 -26.56327270460315 0 -26.56327270460315 272.79723539626139 0 0 0 0 -15.559473333885961 16.324659059341911 0 16.324659059341911 -11.708953779027354 0 0 0 0 -677.03305335545531 -9.3367073778221084 0 -9.3367073778221084 156.86920258033206 0 0 0 0 -11.484689974340499 3.9928273360081725 0 3.9928273360081725 5.205916130808987 0 0 0 0 -28.471738014002867 21.799649418619865 0 21.799649418619865 -2.3073324379913629 0 0 0 0 11.901228281767544 68.612156483519357 0 68.612156483519357 123.2093447219122 0 0 0 0 47.620762344042305 -10.727191432233667 0 -10.727191432233667 142.17079343783553 0 0 0 0 -20.273590777996105 53.544316234898361 0 53.544316234898361 28.417964885476977 0 0 0 0 18.01809978991696 56.115286510670558 0 56.115286510670558 28.488929498606012 0 0 0 0 -65.944047048347784 52.696621093324211 0 52.696621093324211 6.7571821801975602 0 0 0 0 13.729131112949574 46.72398679800699 0 46.72398679800699 7.039118887463701 0 0 0 0 -683.49128390847545 17.810514200959005 0 17.810514200959005 118.60257244005334 0 0 0 0 -510.12564520452361 293.49939676453505 0 293.49939676453505 316.78723033051938 0 0 0 0 -337.39830568393569 498.47993363751584 0 498.47993363751584 452.82104035322845 0 0 0 0 -339.12818256055903 440.10181794728851 0 440.10181794728851 402.51809031180164 0 0 0 0 -810.69010743217314 405.04392856811319 0 405.04392856811319 894.56452657548289 0 0 0 0 -1225.8470700550406 510.19481381656078 0 510.19481381656078 426.87605787305802 0 0 0 0 -1056.9706741706666 -147.84886421418923 0 -147.84886421418923 78.972943034750642 0 0 0 0 -747.83908233121656 -169.60759900513222 0 -169.60759900513222 -67.087333871504597 0 0 0 0 -1038.2210259377907 -269.2299796063453 0 -269.2299796063453 -46.848647730716038 0 0 0 0 -960.49086799070119 39.432638550140837 0 39.432638550140837 348.20493724444532 0 0 0 0 1.6619725806449424 237.47414552367991 0 237.47414552367991 -172.6688337523301 0 0 0 0 729.77478112527751 217.35519821193884 0 217.35519821193884 -515.63572386350279 0 0 0 0 -14.474075180386535 218.3462076087003 0 218.3462076087003 -170.41243727307301 0 0 0 0 1311.7766065501492 908.60662048765516 0 908.60662048765516 -182.50304160832457 0 0 0 0 594.61277847732163 667.28557690131402 0 667.28557690131402 -57.923853062136914 0 0 0 0 334.86775408369431 393.51991871654172 0 393.51991871654172 -188.05504705529893 0 0 0 0 154.04810420903959 -11.028127119381679 0 -11.028127119381679 -382.8959740391274 0 0 0 0 196.92153093828529 32.187692801977391 0 32.187692801977391 -987.66493092612654 0 0 0 0 -500.42893027794707 -267.21699639990766 0 -267.21699639990766 -125.35514739585051 0 0 0 0 -675.04132607360953 599.81542741723388 0 599.81542741723388 -213.22172159628826 0 0 0 0 338.17481935615069 633.71026836514648 0 633.71026836514648 90.918285411340548 0 0 0 0 504.05957462258812 -88.813530227569572 0 -88.813530227569572 -926.54373095290066 0 0 0 0 532.90288266537755 -272.54153337141452 0 -272.54153337141452 241.59790205338504 0 0 0 0 394.48013551879558 -203.63462610238639 0 -203.63462610238639 -236.50048792718735 0 0 0 0 297.94787706448369 300.89983690571262 0 300.89983690571262 179.19706108768878 0 0 0 0 -434.20108103976236 278.20290472413035 0 278.20290472413035 -128.41889995039674 0 0 0 0 -834.04106369204237 -399.81414135375962 0 -399.81414135375962 -95.660221671379986 0 0 0 0 -0.38680271306717628 1.1333501715342891 0 1.1333501715342891 -8.2789961804704717 0 0 0 0 -21.343733048864124 75.225717011192955 0 75.225717011192955 -40.009672083469923 0 0 0 0 -40.915880086133257 70.787619103721227 0 70.787619103721227 -27.408538648131071 0 0 0 0 11.948684285139734 14.278412347918419 0 14.278412347918419 -22.465452984259002 0 0 0 0 -8.6555378512712196 98.564838612466701 0 98.564838612466701 -28.369983079042868 0 0 0 0 142.35237436176976 75.833654019515961 0 75.833654019515961 -83.032593563257251 0 0 0 0 24.963191705789541 14.743221738887826 0 14.743221738887826 -3.0687126167006618 0 0 0 0 11.605531888606492 30.754971665650373 0 30.754971665650373 35.819493332790444 0 0 0 0 -25.348744149378035 54.872269769839477 0 54.872269769839477 -11.305304385634372 0 0 0 0 -2.6349140368456005 6.2099817197157847 0 6.2099817197157847 38.097333390349945 0 0 0 0 27.598245439714347 45.174092662895077 0 45.174092662895077 28.457791847086014 0 0 0 0 -0.046932805664312127 -1.374553525914564 0 -1.374553525914564 2.7484244174379704 0 0 0 0 -36.423638537482475 18.254797702200449 0 18.254797702200449 -90.096741643530549 0 0 0 0 344.99696817072982 -131.11497839343065 0 -131.11497839343065 -615.81017866131151 0 0 0 0 36.745866092228766 40.075758130625772 0 40.075758130625772 1.7598693007928645 0 0 0 0 31.953283180901053 39.904230542260848 0 39.904230542260848 19.85176742519252 0 0 0 0 -387.496619583344 -162.10591860833574 0 -162.10591860833574 -126.68653871928109 0 0 0 0 -5.6915938615199408 12.819569541263206 0 12.819569541263206 94.746760680435784 0 0 0 0 -38.780540068486516 127.04034681441499 0 127.04034681441499 124.4441668301879 0 0 0 0 20.858435942923506 38.99630337442585 0 38.99630337442585 -20.473851679027518 0 0 0 0 527.5237340269523 439.22770435966231 0 439.22770435966231 449.54524861924438 0 0 0 0 639.18784164791577 821.04378597100731 0 821.04378597100731 388.0972906354782 0 0 0 0 471.58219451348486 32.286687747689029 0 32.286687747689029 99.30882517225109 0 0 0 0 1093.5557720685465 948.76501731652388 0 948.76501731652388 690.87545970510473 0 0 0 0 -3.0398067856363014 5.4238356205622154 0 5.4238356205622154 2.964831994902994 0 0 0 0 1247.3928623640968 1011.7189907283755 0 1011.7189907283755 494.22319868289196 0 0 0 0 644.05959769877518 741.21575611920161 0 741.21575611920161 840.12133019516477 0 0 0 0 104.96283483039588 -37.673006858414738 0 -37.673006858414738 -162.9832480053592 0 0 0 0 422.72272761692875 813.82927319986629 0 813.82927319986629 1618.3223209559892 0 0 0 0 6.606770431540383 0.066101722733492352 0 0.066101722733492352 7.1758943206155692 0 0 0 0 1361.4368326603726 1318.7422184651514 0 1318.7422184651514 857.0116341126909 0 0 0 0 746.95728644169867 76.141933518614678 0 76.141933518614678 -192.40494780525478 0 0 0 0 140.43529732432216 -17.354655115472269 0 -17.354655115472269 -164.67765647410124 0 0 0 0 1165.9116696706624 542.50408329351922 0 542.50408329351922 497.24963947033393 0 0 0 0 4.1144764274649788 633.37355032548658 0 633.37355032548658 665.60068706968741 0 0 0 0 -2.6619942209222245 2.4908012059088946 0 2.4908012059088946 3.728720387010469 0 0 0 0 0.40167576620297041 2086.7694207618952 0 2086.7694207618952 1674.528136678724 0 0 0 0 525.4762285121833 1111.0049964819482 0 1111.0049964819482 1156.2885918900574 0 0 0 0 1061.7068110166729 832.12372166718706 0 832.12372166718706 863.84789830348018 0 0 0 0 1532.0382292092763 1601.6423115641301 0 1601.6423115641301 928.20947817448177 0 0 0 0 2891.0376220870967 2637.6570177823414 0 2637.6570177823414 -1.4313633250858402 0 0 0 0 1206.6384408077865 1143.2583612296294 0 1143.2583612296294 46.039185316501971 0 0 0 0 943.12421972659649 1581.0580645162518 0 1581.0580645162518 711.38336539716693 0 0 0 0 13.621804303631905 3.6046238492080533 0 3.6046238492080533 -0.85940732980317591 0 0 0 0 15.743940748760281 6.9934030561317684 0 6.9934030561317684 -1.3077355408780136 0 0 0 0 212.71595252255793 246.17738064525292 0 246.17738064525292 2.876946607233549 0 0 0 0 2466.4996128950297 2245.1605511039015 0 2245.1605511039015 2685.3638616776516 0 0 0 0 1144.267217514338 -462.67902087360562 0 -462.67902087360562 -366.69565942473128 0 0 0 0 803.66444256686373 1496.9627531010192 0 1496.9627531010192 2590.3440798202428 0 0 0 0 -678.41710361067089 2256.4812250768009 0 2256.4812250768009 3359.8212411515269 0 0 0 0 711.16635635704733 1022.5163829208759 0 1022.5163829208759 1003.0715343514457 0 0 0 0 1209.7050878950686 2702.9691318437835 0 2702.9691318437835 2417.7299905034888 0 0 0 0 3116.8935165232397 2288.3360892538331 0 2288.3360892538331 956.92470982758095 0 0 0 0 3557.0655903462903 1719.8281438065169 0 1719.8281438065169 1177.3959320048452 0 0 0 0 -1371.2890153723238 9.9157381852855906 0 9.9157381852855906 699.28624445883906 0 0 0 0 6778.0698442921857 2476.1891169702576 0 2476.1891169702576 224.15079057417461 0 0 0 0 1.6864146734601348 5.3747578090545005 0 5.3747578090545005 19.379535466507264 0 0 0 0 3804.25768547607 3488.5146850076271 0 3488.5146850076271 2406.7856050944247 0 0 0 0 5248.6939058674616 3449.4941791906895 0 3449.4941791906895 1445.0416562235623 0 0 0 0 -494.73977529199328 218.07869254810794 0 218.07869254810794 94.047102085634833 0 0 0 0 1680.9655100506352 1058.1539789475719 0 1058.1539789475719 445.3304556203002 0 0 0 0 -19.323198955069529 212.75547231220116 0 212.75547231220116 -162.86633799597621 0 0 0 0 -2.8407781978076727 11.040276706113559 0 11.040276706113559 58.225547372456901 0 0 0 0 4068.8828280544258 268.12742857943522 0 268.12742857943522 684.91445601405576 0 0 0 0 -302.91333991778811 347.41005082201445 0 347.41005082201445 -81.967815687326947 0 0 0 0 1538.1213694254984 1588.7841305140028 0 1588.7841305140028 911.26184996133088 0 0 0 0 992.73781852734101 1428.6200119841742 0 1428.6200119841742 1166.5726757803641 0 0 0 0 1232.6495286071149 2018.945228200595 0 2018.945228200595 1671.7444383583934 0 0 0 0 2031.2914594316535 1527.5470364027206 0 1527.5470364027206 917.33820018768893 0 0 0 0 -1.9849607582403905 4.6298614695727451 0 4.6298614695727451 2.6593020108708743 0 0 0 0 794.06777914440318 242.62588426791444 0 242.62588426791444 547.89918486544047 0 0 0 0 1637.8978376877785 915.69738522237458 0 915.69738522237458 346.77483178116381 0 0 0 0 -77.6905630708643 65.573596272064606 0 65.573596272064606 78.609073766623624 0 0 0 0 -378.1403550899995 165.03415815455082 0 165.03415815455082 45.889631368481787 0 0 0 0 89.966971176472725 200.50387044419767 0 200.50387044419767 -93.041306082948722 0 0 0 0 204.83279458434117 82.947275879712834 0 82.947275879712834 -114.49897816352313 0 0 0 0 28.555229947825239 31.304857831692601 0 31.304857831692601 -32.310435880065413 0 0 0 0 362.48384272966678 -64.068437834635461 0 -64.068437834635461 -39.534285002227989 0 0 0 0 -12.286199458458213 254.9397700074569 0 254.9397700074569 41.480560387164587 0 0 0 0 329.91786637001496 275.01507203558867 0 275.01507203558867 -120.75590072914929 0 0 0 0 29.931869049905799 220.4917481715529 0 220.4917481715529 -99.334021761227632 0 0 0 0 22.360948070883751 232.58174833770317 0 232.58174833770317 -67.829295513991383 0 0 0 0 -489.33961180808546 765.99422651014902 0 765.99422651014902 1287.162049534847 0 0 0 0 1015.2975055652787 510.3236773330209 0 510.3236773330209 102.64907906716326 0 0 0 0 512.29291042070327 -161.88646304044232 0 -161.88646304044232 235.3289564341394 0 0 0 0 381.96419317344407 303.23159646020213 0 303.23159646020213 351.06232930865372 0 0 0 0 860.22443439894414 276.78066668919928 0 276.78066668919928 8.7450073311372147 0 0 0 0 3181.7708419289193 2418.3745365366485 0 2418.3745365366485 1266.5704683444201 0 0 0 0 -53.44270273805887 10.4221936837057 0 10.4221936837057 17.731113949994324 0 0 0 0 -2.2150918977802831 -4.3291810103396529 0 -4.3291810103396529 1.1446760116559744 0 0 0 0 -122.14014594315813 87.476493253401713 0 87.476493253401713 118.36828888431774 0 0 0 0 185.99995740869781 3.2008694748219568 0 3.2008694748219568 -2.677544207038836 0 0 0 0 100.43008982621541 -101.76651026699255 0 -101.76651026699255 10.674378754501959 0 0 0 0 174.79460717865732 77.455498274961428 0 77.455498274961428 65.61129534378415 0 0 0 0 -98.571523339014675 -12.907722031406593 0 -12.907722031406593 -7.7321859497751575 0 0 0 0 96.910851965971233 -100.05002626142232 0 -100.05002626142232 -108.4935067105107 0 0 0 0 5.5506002715710707 0.40675000306386266 0 0.40675000306386266 -3.0008091423707128 0 0 0 0 10.167421671998454 61.074692357207823 0 61.074692357207823 -81.124767699955555 0 0 0 0 42.931268676009495 79.575677799177356 0 79.575677799177356 64.621304916909139 0 0 0 0 37.884323065467129 29.677968501141095 0 29.677968501141095 -23.833161031216733 0 0 0 0 49.939313928509364 71.133133804309182 0 71.133133804309182 66.677678686843137 0 0 0 0 8.7254292016831414 6.2411279182237251 0 6.2411279182237251 2.3312928810664175 0 0 0 0 55.124319146096241 70.173844964971067 0 70.173844964971067 69.457188104919624 0 0 0 0 30.354953550719074 24.761672643877318 0 24.761672643877318 -24.984558489202755 0 0 0 0 25.860243570699822 26.181728842107987 0 26.181728842107987 -22.464517736938433 0 0 0 0 6.6111904365805003 23.50955244455858 0 23.50955244455858 -11.613861586741734 0 0 0 0 -51.819070292258402 31.93922109293635 0 31.93922109293635 -123.95950486781658 0 0 0 0 -15.27358780769282 18.043847539192939 0 18.043847539192939 -169.24669707016437 0 0 0 0 0.095876771998689492 3.900456337877273 0 3.900456337877273 10.331590783191956 0 0 0 0 -127.94270871925983 -90.776135666419577 0 -90.776135666419577 -317.40352703373355 0 0 0 0 -29.349889148950751 95.706204352525674 0 95.706204352525674 -119.1167493549292 0 0 0 0 -18.616559909103671 50.195852130913408 0 50.195852130913408 -202.57138932585076 0 0 0 0 42.637201754403577 57.407626834708026 0 57.407626834708026 -31.862684145555249 0 0 0 0 27.069783539205673 81.084174099341908 0 81.084174099341908 -194.5754635727717 0 0 0 0 29.926423943834891 44.541001315888522 0 44.541001315888522 3.5247264997723207 0 0 0 0 -39.772486827750981 57.093125583716756 0 57.093125583716756 -168.47874370263889 0 0 0 0 25.201327932969434 39.986827499211358 0 39.986827499211358 13.594491365875001 0 0 0 0 73.618932077704812 53.43567181371327 0 53.43567181371327 8.4132865172141464 0 0 0 0 22.48476141080755 77.458243615408719 0 77.458243615408719 41.873873920034384 0 0 0 0 40.857290199099225 36.238333585803048 0 36.238333585803048 23.931478375900042 0 0 0 0 28.321802858743467 65.247417978622252 0 65.247417978622252 32.936745946048177 0 0 0 0 65.652490418633533 656.47917289824363 0 656.47917289824363 -176.41182024891896 0 0 0 0 233.60926184491836 -559.09522621313226 0 -559.09522621313226 -13.323023711593123 0 0 0 0 -10.60766365841846 351.86011091549881 0 351.86011091549881 -561.9211626289125 0 0 0 0 42.842126629635459 69.106996825837996 0 69.106996825837996 -19.893247995300044 0 0 0 0 36.258549126123 43.771873756311592 0 43.771873756311592 5.0352852620573572 0 0 0 0 -89.236288076237543 155.56386693024979 0 155.56386693024979 -340.80576601601933 0 0 0 0 -246.48162392320228 172.45451752261579 0 172.45451752261579 -129.9451206051308 0 0 0 0 -264.027094672987 181.86414278140728 0 181.86414278140728 -134.39286847630865 0 0 0 0 -191.12831321847625 93.7373536014602 0 93.7373536014602 -58.78588585498801 0 0 0 0 -567.0791174354672 161.30447735625057 0 161.30447735625057 9.6501466622576118 0 0 0 0 1810.0283688986237 63.168909334792261 0 63.168909334792261 -529.70447749403684 0 0 0 0 0.80077383904942323 0.71955411574722916 0 0.71955411574722916 7.6803537395586545 0 0 0 0 -322.74757018472883 278.00446967194148 0 278.00446967194148 -62.543562449209276 0 0 0 0 -362.28097529236402 14.491033117745246 0 14.491033117745246 -4.0535647246870212 0 0 0 0 -226.28715735461446 25.039251566347957 0 25.039251566347957 -16.959433507920039 0 0 0 0 -135.09104797481268 108.62632049318199 0 108.62632049318199 -71.601399607796338 0 0 0 0 -251.54671974174562 99.581525845344004 0 99.581525845344004 -2.5160078794433502 0 0 0 0 -138.94070802653732 106.06753863519407 0 106.06753863519407 -24.657138391325134 0 0 0 0 -51.104753355612047 130.44319984145113 0 130.44319984145113 -102.27323789212096 0 0 0 0 -47.674385534512112 113.24140235089726 0 113.24140235089726 -16.483663239596353 0 0 0 0 18.132325896731345 113.82546526844089 0 113.82546526844089 -33.000357834978786 0 0 0 0 19.583973329921719 128.77631311581354 0 128.77631311581354 6.5759146763448371 0 0 0 0 9.5879059811886691 70.229443718217226 0 70.229443718217226 -80.450807481945958 0 0 0 0 26.702875543451228 124.86365912540714 0 124.86365912540714 -22.065520798045327 0 0 0 0 34.109075975997257 55.076988472330413 0 55.076988472330413 -61.520902785807266 0 0 0 0 -15.202880823475425 44.924314815463731 0 44.924314815463731 -168.15268544579158 0 0 0 0 19.324391465110239 88.232593653679942 0 88.232593653679942 -120.85426700399603 0 0 0 0 -39.972402791958302 100.68723963812226 0 100.68723963812226 -94.229476548178354 0 0 0 0 -53.018668608565349 70.128043314325623 0 70.128043314325623 -93.516450683076982 0 0 0 0 -95.263086623555864 141.8703955314777 0 141.8703955314777 -215.25750791188329 0 0 0 0 1.183426607415619 -3.3270630902593723 0 -3.3270630902593723 1.9474386526097192 0 0 0 0 -305.16276642357843 91.741320136043214 0 91.741320136043214 54.71253121868358 0 0 0 0 454.82751569717948 37.06248715741458 0 37.06248715741458 -135.92573381103284 0 0 0 0 219.39275711028313 179.48876965208183 0 179.48876965208183 -135.95398030841898 0 0 0 0 211.53117858641781 122.69612959020742 0 122.69612959020742 -127.84949140410754 0 0 0 0 90.868956287333276 103.32323197835649 0 103.32323197835649 25.241643154147823 0 0 0 0 144.41100340320918 24.170962018838964 0 24.170962018838964 44.966318809791119 0 0 0 0 131.56095331256802 98.665547052631155 0 98.665547052631155 -45.960687187965959 0 0 0 0 -247.41198305495345 35.447236366055222 0 35.447236366055222 17.976085577014601 0 0 0 0 -32.129678435032702 41.318430006698122 0 41.318430006698122 -16.48171386492362 0 0 0 0 -36.952423339695088 93.830686087050708 0 93.830686087050708 -31.830900515589747 0 0 0 0 81.916989102272055 62.263114923862304 0 62.263114923862304 -92.082470458524767 0 0 0 0 18.093147329098429 74.049267620546743 0 74.049267620546743 -73.640166839399171 0 0 0 0 -55.637213190027978 49.666425063871429 0 49.666425063871429 -65.121107009283151 0 0 0 0 -99.522261678401264 -22.710066379564523 0 -22.710066379564523 83.509057612449396 0 0 0 0 -140.5241733305229 50.491888279371778 0 50.491888279371778 0.24253663196577691 0 0 0 0 -67.919016775180353 107.2094725848001 0 107.2094725848001 44.106049635272939 0 0 0 0 -66.005588617896137 116.93351690637064 0 116.93351690637064 -34.473342576267896 0 0 0 0 -21.797778200644387 42.74334085994613 0 42.74334085994613 -6.3961468457605406 0 0 0 0 -11.727703425174695 86.534784110321198 0 86.534784110321198 -71.646249497192912 0 0 0 0 -8.2683318008894275 0.61845559462017263 0 0.61845559462017263 5.0055182295618579 0 0 0 0 -118.81165620012325 221.75745090970304 0 221.75745090970304 -150.09971281205071 0 0 0 0 -5.4747564555436838 26.095803434029222 0 26.095803434029222 -178.32215666803313 0 0 0 0 -1.786183619323765 0.93430262945503273 0 0.93430262945503273 2.906537421936406 0 0 0 0 -0.76025128401640529 0.29306197231304054 0 0.29306197231304054 0.73705057300011845 0 0 0 0 -30.846482381242822 150.40787062556046 0 150.40787062556046 -92.885132764407899 0 0 0 0 -188.77241714840056 142.2995426436828 0 142.2995426436828 36.079943179720431 0 0 0 0 -248.00328023530892 193.25578171387315 0 193.25578171387315 -5.705000758433016 0 0 0 0 -113.18258556094952 171.70675909981946 0 171.70675909981946 -109.50948594226793 0 0 0 0 -215.56524624771555 61.739576832667808 0 61.739576832667808 72.891526770043129 0 0 0 0 -163.69366584459203 26.492417133500567 0 26.492417133500567 30.438495600057649 0 0 0 0 -191.18618229823551 -18.014318092082249 0 -18.014318092082249 1.6045232551987283 0 0 0 0 -5.0663977866330185 6.3097771655096153 0 6.3097771655096153 0.8759558419169764 0 0 0 0 77.616746875501121 68.242860733156704 0 68.242860733156704 -56.77932228415375 0 0 0 0 28.583148597092588 35.837855278492896 0 35.837855278492896 -1.8316738805649706 0 0 0 0 -17.513131318672094 50.651628548788722 0 50.651628548788722 -27.333709160448052 0 0 0 0 24.392198371177074 45.789450074873457 0 45.789450074873457 -49.172346725812531 0 0 0 0 -166.31601244794729 131.20154977266793 0 131.20154977266793 -52.984209728208953 0 0 0 0 -111.48157131421613 56.062964162207209 0 56.062964162207209 17.171219087613281 0 0 0 0 -19.924736954258606 34.614300718488948 0 34.614300718488948 5.7596011551795527 0 0 0 0 -13.791825836760125 11.919769673908306 0 11.919769673908306 18.818309109836548 0 0 0 0 -74.876789487199858 113.91263942302612 0 113.91263942302612 -61.863420352476169 0 0 0 0 16.606806322146689 48.161907984084664 0 48.161907984084664 -41.285032577065749 0 0 0 0 -3.2782889111285272 26.14112948433953 0 26.14112948433953 -1.5378904558942637 0 0 0 0 -164.29898224640056 26.945172938167161 0 26.945172938167161 157.27077863062732 0 0 0 0 -12.745635499086347 32.050391606680932 0 32.050391606680932 -0.4318036294716876 0 0 0 0 -18.144014529483684 32.044577106162251 0 32.044577106162251 -2.6032443935255287 0 0 0 0 4.3827233015675375 23.134165334133364 0 23.134165334133364 0.45795984002137402 0 0 0 0 -16.287035930472484 23.767252318099054 0 23.767252318099054 1.3322593531484017 0 0 0 0 -2.2315620196889725 24.521426556033532 0 24.521426556033532 -4.8970956754823192 0 0 0 0 -4.248298513539055 26.854660457032452 0 26.854660457032452 8.6618740787282604 0 0 0 0 5.0101754894421902 40.880536131197005 0 40.880536131197005 -5.5146294167061569 0 0 0 0 9.9293999291403452 45.615679624908807 0 45.615679624908807 -1.5039922644209582 0 0 0 0 9.7824638135643909 50.806704307229666 0 50.806704307229666 -27.519994461071292 0 0 0 0 14.955567342695474 29.784100635784441 0 29.784100635784441 6.1692988185849345 0 0 0 0 19.138965124031529 38.047813419754675 0 38.047813419754675 4.1237157043142361 0 0 0 0 11.015951375990483 17.031706961242008 0 17.031706961242008 -18.139169274852748 0 0 0 0 26.652455612682388 53.857920745140291 0 53.857920745140291 -6.5754685790288931 0 0 0 0 31.217133699581609 46.758284340292448 0 46.758284340292448 -11.06767183267948 0 0 0 0 20.829977418208728 55.233426032744319 0 55.233426032744319 -17.566417458248907 0 0 0 0 20.00578031373152 29.01094087601814 0 29.01094087601814 -33.075200603059784 0 0 0 0 15.60689909336179 55.767140590296549 0 55.767140590296549 3.3942841617827071 0 0 0 0 -201.17755264838343 76.687481225599186 0 76.687481225599186 -129.79248336539604 0 0 0 0 324.78859511471819 -13.216119406919461 0 -13.216119406919461 -162.90043221605447 0 0 0 0 -0.99223746464122087 27.299055521842092 0 27.299055521842092 -2.1989159932718394 0 0 0 0 27.809648436311306 28.875990476802826 0 28.875990476802826 -0.81267007992683915 0 0 0 0 51.664061022805981 41.392839272506535 0 41.392839272506535 -3.1688440564321354 0 0 0 0 141.20551918342244 155.06606879190076 0 155.06606879190076 -114.30074717202297 0 0 0 0 1.1561434347931154 5.6107566627659224 0 5.6107566627659224 -1.9724693922733536 0 0 0 0 79.302399162246729 44.567207572472398 0 44.567207572472398 -9.072084157684003 0 0 0 0 11.229484322624558 21.061902963866487 0 21.061902963866487 -8.1704938014299842 0 0 0 0 6.7172352282752144 13.336942192203281 0 13.336942192203281 -6.2756935264768572 0 0 0 0 5.6192863483216229 13.572743394422872 0 13.572743394422872 -1.4913683816105987 0 0 0 0 4.132413413215545 13.768867728820624 0 13.768867728820624 -4.7621382597717457 0 0 0 0 15.886151065526064 25.878715507598827 0 25.878715507598827 23.870539772244229 0 0 0 0 14.624469983254791 32.574381344665667 0 32.574381344665667 33.840029686960065 0 0 0 0 51.345894497644622 66.789646261997405 0 66.789646261997405 70.684025764767284 0 0 0 0 10.001310906553272 22.869685446865134 0 22.869685446865134 17.518367570833675 0 0 0 0 -2.3823016551483533 8.7013899329508604 0 8.7013899329508604 6.1109520856599602 0 0 0 0 32.700457409024239 25.642178707523271 0 25.642178707523271 24.130389968253439 0 0 0 0 10.065772166989269 23.169841019543114 0 23.169841019543114 13.512983185434734 0 0 0 0 3.5566377707873471 15.292111154354643 0 15.292111154354643 6.9161761790746823 0 0 0 0 15.379899554765558 26.617379488539797 0 26.617379488539797 22.843220802932876 0 0 0 0 5.8838023624266498 18.656411763775395 0 18.656411763775395 -1.6604245096823433 0 0 0 0 8.8611991848229081 27.854559692772455 0 27.854559692772455 25.179881339070562 0 0 0 0 6.8589729776393256 17.503594284008614 0 17.503594284008614 4.6359316422707408 0 0 0 0 8.5618827901354848 28.125651472450926 0 28.125651472450926 22.660819123512766 0 0 0 0 3.7679385692487415 10.211019945321084 0 10.211019945321084 4.5089160363539804 0 0 0 0 19.575851540022995 23.260838465430425 0 23.260838465430425 -0.084916755833546631 0 0 0 0 25.719809892412741 40.63820792788465 0 40.63820792788465 34.84241971958545 0 0 0 0 1.0702543808984046 36.234082732396928 0 36.234082732396928 15.986388331017224 0 0 0 0 15.412378553704627 13.258000143043063 0 13.258000143043063 -7.0299339598535084 0 0 0 0 5.7804903531359741 21.431422677749651 0 21.431422677749651 40.977651018140023 0 0 0 0 3.9829593645554269 7.0430262426889385 0 7.0430262426889385 -20.038703362719389 0 0 0 0 0.35607263246643583 0.78668920276074772 0 0.78668920276074772 -0.61667976592707419 0 0 0 0 7.8036777258093935 25.935134471263154 0 25.935134471263154 31.831103549557156 0 0 0 0 70.099398795180605 28.980809519664035 0 28.980809519664035 -1.2975233076649602 0 0 0 0 36.079714437801158 31.134144021831162 0 31.134144021831162 8.2522135631661513 0 0 0 0 27.167316341707192 22.496439211237885 0 22.496439211237885 -0.0076186821679584682 0 0 0 0 32.172192731793984 2.3636303711718938 0 2.3636303711718938 -10.441431939747417 0 0 0 0 -3.3125059156300267 21.616218762399512 0 21.616218762399512 -0.021379912104581355 0 0 0 0 17.507234598853756 14.419127274890343 0 14.419127274890343 0.031548068989650346 0 0 0 0 2.9993248711868432 0.61102886795569589 0 0.61102886795569589 -3.749941139227758 0 0 0 0 -28.30705873084662 -15.794446275751397 0 -15.794446275751397 7.8841062920328113 0 0 0 0 19.612517835797917 20.649580212979345 0 20.649580212979345 14.955229981147568 0 0 0 0 4.6998558265622705 12.389899678426445 0 12.389899678426445 25.998650263412856 0 0 0 0 3.5940182309053341 2.7918244269921217 0 2.7918244269921217 -1.3660662218519803 0 0 0 0 0.32384755249674413 6.0403009755285098 0 6.0403009755285098 -0.016090496881417948 0 0 0 0 13.114372035528504 16.441690530647975 0 16.441690530647975 13.479618945842958 0 0 0 0 -0.456315751822018 3.3117566470804434 0 3.3117566470804434 -2.7603740116616962 0 0 0 0 1.3101326348496514 22.77033742464846 0 22.77033742464846 17.456328939995728 0 0 0 0 12.166926251549739 21.443118764094834 0 21.443118764094834 27.622062433241808 0 0 0 0 7.5785040342452703 23.259535819008306 0 23.259535819008306 31.549134704095195 0 0 0 0 -6.9257728863158263 11.325413461858261 0 11.325413461858261 45.649415951498668 0 0 0 0 13.916955812230299 26.818666630259031 0 26.818666630259031 33.300872035149951 0 0 0 0 17.5123484491196 17.551888953952584 0 17.551888953952584 32.405179985566065 0 0 0 0 3.6061928303097375 22.724064010515576 0 22.724064010515576 30.541261199861765 0 0 0 0 8.6478353094425984 25.774070489933365 0 25.774070489933365 25.349152198330557 0 0 0 0 7.6328576839005109 14.061819342416129 0 14.061819342416129 16.482029734586831 0 0 0 0 6.0587494731880724 30.504469936757232 0 30.504469936757232 38.294129848143712 0 0 0 0 4.3487110670806572 14.930466074194541 0 14.930466074194541 20.866568649786018 0 0 0 0 1.0071787080050854 16.228921506521147 0 16.228921506521147 37.079152034886647 0 0 0 0 3.827228262409335 15.766045440497692 0 15.766045440497692 36.719800287100952 0 0 0 0 4.3172297269198054 5.094397478964396 0 5.094397478964396 6.0906110994489779 0 0 0 0 4.5225067720457446 18.720597876032116 0 18.720597876032116 16.004370787879452 0 0 0 0 11.803602179163136 20.068248343974119 0 20.068248343974119 46.570958460972179 0 0 0 0 14.033731107026554 25.084766208363874 0 25.084766208363874 -14.42293102624177 0 0 0 0 7.2865535773162264 32.872378513682634 0 32.872378513682634 -12.218397375676432 0 0 0 0 5.1861227073241025 36.867982728552306 0 36.867982728552306 -4.4414373522740789 0 0 0 0 1.1275782666925807 21.306823224091204 0 21.306823224091204 5.874436691578012 0 0 0 0 4.1967710397761095 24.412868808338885 0 24.412868808338885 8.6595865611014204 0 0 0 0 -4.6781968060966506 28.755699530990263 0 28.755699530990263 16.222149050294945 0 0 0 0 3.8126458713423972 26.690824919631666 0 26.690824919631666 22.564458236900975 0 0 0 0 -2.7312456753861625 20.090187181784131 0 20.090187181784131 63.951451249959064 0 0 0 0 -23.819774096336914 42.539760594707332 0 42.539760594707332 8.4854667482723016 0 0 0 0 -2.3626142894746067 31.531391274241571 0 31.531391274241571 12.592101179225807 0 0 0 0 -13.066541264000989 32.17273433911032 0 32.17273433911032 64.473686137600453 0 0 0 0 -4.044644970804427 31.045307819563931 0 31.045307819563931 7.0380796900981295 0 0 0 0 -12.244227150957158 26.778844195563579 0 26.778844195563579 73.38243924517883 0 0 0 0 20.934776626483654 110.23788620549021 0 110.23788620549021 133.1762361950241 0 0 0 0 24.186847414574004 81.476165898202453 0 81.476165898202453 116.06820066439104 0 0 0 0 -70.158540084688866 51.385921701017651 0 51.385921701017651 51.401001746067777 0 0 0 0 -11.977247605900629 21.82142962947546 0 21.82142962947546 64.951278108579572 0 0 0 0 6.446749276103219 51.142689548403723 0 51.142689548403723 -46.519766807032283 0 0 0 0 -55.965532022040861 -12.583978303286131 0 -12.583978303286131 38.160259522934211 0 0 0 0 3.0680229193349078 8.2608840209140908 0 8.2608840209140908 -1.2684328765171813 0 0 0 0 0.96675099425493727 2.6734019658312604 0 2.6734019658312604 -2.2699483489639931 0 0 0 0 -165.21284380471479 11.463823040561692 0 11.463823040561692 45.451573863909289 0 0 0 0 -202.38199717868702 222.12720487023034 0 222.12720487023034 -104.62398511283391 0 0 0 0 -128.05485890762066 156.8422045296611 0 156.8422045296611 -48.204995251904393 0 0 0 0 -249.82920692297466 172.84820261552886 0 172.84820261552886 -143.6222753051843 0 0 0 0 -291.16963766618574 147.41148952066578 0 147.41148952066578 0.02468185150064528 0 0 0 0 -82.423681795036828 147.10519070052396 0 147.10519070052396 -126.75034829943615 0 0 0 0 -285.32453668755625 192.86410893876746 0 192.86410893876746 33.317247442610096 0 0 0 0 -282.52168826475099 67.086034899788501 0 67.086034899788501 93.16943477554014 0 0 0 0 -243.92063807669001 230.49286546010353 0 230.49286546010353 -24.216123965423321 0 0 0 0 -297.4678160991316 216.13818629764137 0 216.13818629764137 0.033545791809149308 0 0 0 0 -338.96831341064262 283.95790652700316 0 283.95790652700316 107.86068680920289 0 0 0 0 -343.16854352482187 354.33008468933986 0 354.33008468933986 -122.32522247808811 0 0 0 0 -112.79599668443825 315.7218939388631 0 315.7218939388631 -224.88047122085118 0 0 0 0 31.206989309255732 195.86894352168019 0 195.86894352168019 -136.25315472859074 0 0 0 0 -121.26201692680479 468.92686667144881 0 468.92686667144881 -371.13447031694523 0 0 0 0 -650.6320391757763 118.68671562487725 0 118.68671562487725 164.72427303880977 0 0 0 0 -0.95124256920558992 3.728055492020701 0 3.728055492020701 -4.0012372928008801 0 0 0 0 -824.80202348335297 559.64725290708884 0 559.64725290708884 -47.01503724711074 0 0 0 0 -509.13557824026793 -29.969686507014558 0 -29.969686507014558 243.1278669520907 0 0 0 0 169.17498551767858 13.800302719173487 0 13.800302719173487 47.792000382236438 0 0 0 0 -1200.3160298797302 489.78596035003284 0 489.78596035003284 -30.88200394026353 0 0 0 0 78.683069528335182 621.50691813036974 0 621.50691813036974 -677.35726838960545 0 0 0 0 -207.5508496031689 703.44412085854856 0 703.44412085854856 -512.23925815873554 0 0 0 0 -913.81982832986978 679.66108521202113 0 679.66108521202113 -1017.1926168507198 0 0 0 0 2.006606594892915 -0.10347883976848493 0 -0.10347883976848493 -5.9636568527890859 0 0 0 0 154.58853039817768 245.65509577773628 0 245.65509577773628 -237.61950324620557 0 0 0 0 -42.572078054490703 162.65860951537252 0 162.65860951537252 -147.69432491975022 0 0 0 0 -23.400040651184099 63.610292594345083 0 63.610292594345083 187.65972174279159 0 0 0 0 135.1389088062424 -11.320083939077449 0 -11.320083939077449 1.5775593229191145 0 0 0 0 -1.1296135176881279 8.4942354026975124 0 8.4942354026975124 2.0395747571582206 0 0 0 0 -18.903030453321662 2.936773181839726 0 2.936773181839726 53.620068305288441 0 0 0 0 -18.953438389187795 2.9289216378456331 0 2.9289216378456331 303.49420883353741 0 0 0 0 -5.5662012240208298 13.206457528376205 0 13.206457528376205 14.548496807837722 0 0 0 0 146.88579002603365 -95.86412934330292 0 -95.86412934330292 156.495867383921 0 0 0 0 -43.733156988670089 34.164806286909879 0 34.164806286909879 114.62924551655306 0 0 0 0 1.9143527526880177 2.7391837884750032 0 2.7391837884750032 -6.4644065310123437 0 0 0 0 -2.8563282507265342 70.171636345435047 0 70.171636345435047 6.5501414069333492 0 0 0 0 1.7399872527166735 105.22526974033099 0 105.22526974033099 -9.2399498564045643 0 0 0 0 -1.583706653858826 88.641778691999207 0 88.641778691999207 5.5292972385941539 0 0 0 0 2.8912954234692734 83.000671814508678 0 83.000671814508678 10.694259113963199 0 0 0 0 -7.7700016162561951 90.246572303049106 0 90.246572303049106 12.631155420822324 0 0 0 0 -0.9714799842404318 77.836561366941169 0 77.836561366941169 22.338067379190761 0 0 0 0 9.7378063550067964 87.70370751763312 0 87.70370751763312 37.308004767561215 0 0 0 0 8.0939264957705745 72.939872511647991 0 72.939872511647991 24.92615089348692 0 0 0 0 -9.6548487974214368 91.347570254685706 0 91.347570254685706 28.605444455830366 0 0 0 0 6.9522628817212535 79.006791504376451 0 79.006791504376451 35.31953146054002 0 0 0 0 -9.2802710116483809 43.64917703283939 0 43.64917703283939 -19.210939311921038 0 0 0 0 -7.967053659936937 99.505249239718978 0 99.505249239718978 27.57107623507909 0 0 0 0 -0.65675515278522312 38.497409676724487 0 38.497409676724487 -10.081248460188071 0 0 0 0 -0.59487899162922986 52.172893952971208 0 52.172893952971208 23.307040288338612 0 0 0 0 -8.7591846374174196 27.889589772197922 0 27.889589772197922 9.7557396037479975 0 0 0 0 0.77724614842736628 45.442741844075499 0 45.442741844075499 21.558064079174073 0 0 0 0 5.0903894182569331 33.600970035303661 0 33.600970035303661 -31.4727387391045 0 0 0 0 -0.2353035790659419 1.8524363329180034 0 1.8524363329180034 -9.0531369916908773 0 0 0 0 44.593476032372564 82.589184765223763 0 82.589184765223763 -30.660913325962611 0 0 0 0 -8.4318452327026989 25.168951636241388 0 25.168951636241388 9.8912020544864134 0 0 0 0 12.786977613064664 31.588272125147341 0 31.588272125147341 -6.4092504683794687 0 0 0 0 -17.421996728677186 37.15786013759498 0 37.15786013759498 24.951184019657376 0 0 0 0 -10.815575130924117 29.592879985109903 0 29.592879985109903 6.0976571473438526 0 0 0 0 -9.3104514763504937 14.701943957614645 0 14.701943957614645 1.9428189957637017 0 0 0 0 0.22591146430931985 33.142569579511473 0 33.142569579511473 2.4486626805446576 0 0 0 0 -8.766060342444689 25.145125947772613 0 25.145125947772613 4.9624301525764167 0 0 0 0 -19.725981106100562 28.243301079876801 0 28.243301079876801 10.404076443606755 0 0 0 0 38.385740129146143 96.849567514334922 0 96.849567514334922 48.782107146602357 0 0 0 0 36.494665450387402 88.401488803749089 0 88.401488803749089 55.000254539918387 0 0 0 0 10.434231806386379 30.311663395928917 0 30.311663395928917 4.7379314763638831 0 0 0 0 -3.9342244294464308 14.366067263862732 0 14.366067263862732 -14.331129989827303 0 0 0 0 60.37218947072688 92.941441520604712 0 92.941441520604712 30.498043770188815 0 0 0 0 37.99206170294201 82.422572422714438 0 82.422572422714438 129.87136525446113 0 0 0 0 34.415798737285513 98.14684525913799 0 98.14684525913799 36.206292142276652 0 0 0 0 38.587665264523821 77.146492208048585 0 77.146492208048585 21.610385484978906 0 0 0 0 11.560110799327958 73.488959295777022 0 73.488959295777022 28.069273287830583 0 0 0 0 41.001725714246277 71.980635372790857 0 71.980635372790857 33.462079180852015 0 0 0 0 29.222058481973363 91.850616584473755 0 91.850616584473755 5.4732805001258384 0 0 0 0 40.258645215988508 68.743702856532764 0 68.743702856532764 -14.358626665052725 0 0 0 0 2.1386551831383258 5.64226131545729 0 5.64226131545729 3.791995263483841 0 0 0 0 87.514431575475101 82.408342882894431 0 82.408342882894431 10.073266101244371 0 0 0 0 -6.4735471493778505 9.7546673793481204 0 9.7546673793481204 -7.0101658281695904 0 0 0 0 -3.0593440473834193 6.0495789122061012 0 6.0495789122061012 -3.6340560957119976 0 0 0 0 85.95871503050148 69.134543587497319 0 69.134543587497319 34.123701991076814 0 0 0 0 45.660477785753756 91.200073992038597 0 91.200073992038597 22.151974237174727 0 0 0 0 63.394742849224713 69.351107573456829 0 69.351107573456829 10.470846363641613 0 0 0 0 41.589209183162893 89.447354814154096 0 89.447354814154096 -5.8593408144079149 0 0 0 0 81.200422221467306 106.6630984386502 0 106.6630984386502 17.546020153269637 0 0 0 0 80.225747966294875 61.555174452456413 0 61.555174452456413 -5.3819222208039719 0 0 0 0 -34.884004780891701 167.83768775824865 0 167.83768775824865 26.346379480441101 0 0 0 0 98.442777340329485 139.90290467371233 0 139.90290467371233 -55.077068944985513 0 0 0 0 177.0954593179049 61.092822158432682 0 61.092822158432682 15.129279750573914 0 0 0 0 -25.592963370378129 45.763822930894094 0 45.763822930894094 -88.311608353804331 0 0 0 0 -0.77512205761343012 0.40037590009426793 0 0.40037590009426793 0.034378552094636916 0 0 0 0 26.232331927647465 106.98498384818959 0 106.98498384818959 -41.649835507705575 0 0 0 0 32.574232696730178 85.951417979274993 0 85.951417979274993 -47.507780775260471 0 0 0 0 66.101821599877439 95.328429847038933 0 95.328429847038933 -45.397702666436089 0 0 0 0 68.427114295089268 68.724664582733567 0 68.724664582733567 -40.773246641620062 0 0 0 0 48.992894766357495 82.461295352281013 0 82.461295352281013 -46.11407558148494 0 0 0 0 56.818170607817592 86.529257484697155 0 86.529257484697155 -62.881157601426821 0 0 0 0 16.719518034893554 91.477165972042712 0 91.477165972042712 -59.466024095425382 0 0 0 0 7.661355563584948 89.930073303337849 0 89.930073303337849 -26.831713322237192 0 0 0 0 51.012295999575144 87.280900916226528 0 87.280900916226528 -74.791556596173905 0 0 0 0 13.381630869482251 66.772295264359855 0 66.772295264359855 -32.391634302504826 0 0 0 0 -40.476413451411645 111.1694870267238 0 111.1694870267238 -59.05599959634128 0 0 0 0 48.199405801904504 35.073474982582411 0 35.073474982582411 -51.359982350040809 0 0 0 0 13.247430326686299 80.446854659334349 0 80.446854659334349 -6.1362243506591767 0 0 0 0 1.2259571281465469 60.576085609303846 0 60.576085609303846 1.0472566410317086 0 0 0 0 -10.542508240105235 83.48245107816183 0 83.48245107816183 -5.7590995479986304 0 0 0 0 -19.795086771671777 61.862753169101779 0 61.862753169101779 1.4242410201404709 0 0 0 0 216.93650630051684 92.419873624757315 0 92.419873624757315 54.83817395195365 0 0 0 0 -29.125909199923626 -18.446750237615561 0 -18.446750237615561 91.898242508352268 0 0 0 0 -34.392563827750564 2.0543600158853224 0 2.0543600158853224 -62.407262640736008 0 0 0 0 145.45239581420901 215.58914569402623 0 215.58914569402623 -143.77208991769294 0 0 0 0 -1.3907940834118335 2.2685596185524162 0 2.2685596185524162 -1.5243676088014695 0 0 0 0 38.587421461306803 46.76200171574601 0 46.76200171574601 -73.27580374047011 0 0 0 0 45.238220538747555 63.653559484915604 0 63.653559484915604 -159.19234169956326 0 0 0 0 38.810568894085009 51.560041362208722 0 51.560041362208722 -24.87645280425204 0 0 0 0 -12.445430037027108 63.849766660758178 0 63.849766660758178 46.081429484882392 0 0 0 0 -427.35122283124656 149.44739550415034 0 149.44739550415034 246.91811440719175 0 0 0 0 -4.8164967725165582 4.2634505836280994 0 4.2634505836280994 -2.1305535121640418 0 0 0 0 -12.538592371780396 -152.83961375095168 0 -152.83961375095168 -35.464845458525815 0 0 0 0 73.509739772267494 -80.517661552425125 0 -80.517661552425125 19.819297171765356 0 0 0 0 96.577428452521417 -12.097142040627659 0 -12.097142040627659 141.72142735250236 0 0 0 0 87.033141426902148 84.90121006382833 0 84.90121006382833 -220.89834255691676 0 0 0 0 -389.46419147591223 167.47470493850415 0 167.47470493850415 75.146768568687548 0 0 0 0 -50.565841330033436 141.85751145557333 0 141.85751145557333 74.474092815580661 0 0 0 0 -52.926176780041715 128.1599804754951 0 128.1599804754951 157.95665453044785 0 0 0 0 269.93893721735367 207.98263848321949 0 207.98263848321949 36.432374149844691 0 0 0 0 255.84427339274043 146.13612500478121 0 146.13612500478121 342.64845705417974 0 0 0 0 291.30170712454856 59.726956738326408 0 59.726956738326408 30.37152460993093 0 0 0 0 103.88743737482582 213.35812399385759 0 213.35812399385759 339.00231279187574 0 0 0 0 623.93056737364532 419.70772147341631 0 419.70772147341631 257.57876416963882 0 0 0 0 869.72581938879739 1112.6529578476984 0 1112.6529578476984 949.59753929454382 0 0 0 0 408.5497391824174 584.17182468737155 0 584.17182468737155 371.53079540925592 0 0 0 0 567.99058466346287 403.01492726443757 0 403.01492726443757 571.0890596259851 0 0 0 0 1039.0110246155673 900.19667174333881 0 900.19667174333881 208.63696115359198 0 0 0 0 1065.0906938317421 1278.3570900068989 0 1278.3570900068989 536.53455738985213 0 0 0 0 862.68982661730843 1040.7646313533769 0 1040.7646313533769 1113.2399863486644 0 0 0 0 1012.0541826182161 1288.9943268320167 0 1288.9943268320167 1048.9471977931389 0 0 0 0 906.84761890402297 1103.8835985466285 0 1103.8835985466285 774.99945173297965 0 0 0 0 -16.180769750540605 -1.2282946764063922 0 -1.2282946764063922 14.250087349779847 0 0 0 0 876.29433680162765 969.06205766893981 0 969.06205766893981 848.38683495068108 0 0 0 0 54.70720068376977 111.22138008526235 0 111.22138008526235 -81.244930967950495 0 0 0 0 67.799521254761203 171.99675458212732 0 171.99675458212732 7.0198652273393236 0 0 0 0 8.8882719459506916 23.286100655132032 0 23.286100655132032 14.412757494319521 0 0 0 0 -8.7182394159305261 15.51593242995861 0 15.51593242995861 3.2380307868577347 0 0 0 0 938.66750230276375 1161.7673265384219 0 1161.7673265384219 1216.3174304549611 0 0 0 0 175.38179202793981 580.62869578436948 0 580.62869578436948 1691.4485119796591 0 0 0 0 -27.438668914686019 26.163035082439933 0 26.163035082439933 10.368246949480636 0 0 0 0 1178.3696441299253 955.89230761550425 0 955.89230761550425 1210.9616523962177 0 0 0 0 2304.6040433039452 1953.114645486894 0 1953.114645486894 1613.7637103522429 0 0 0 0 -0.11123938746484896 0.99027276000389364 0 0.99027276000389364 0.65039484414376147 0 0 0 0 5.6209510253728183 1.3672144670903208 0 1.3672144670903208 0.33370944028541771 0 0 0 0 -51.419868504701299 272.82612725666695 0 272.82612725666695 150.75468075159006 0 0 0 0 -4.9917776002639016 19.353981697911518 0 19.353981697911518 10.953659014115203 0 0 0 0 392.79836958965461 -382.41803056665958 0 -382.41803056665958 -106.66706513866666 0 0 0 0 146.19135561573785 -33.333348483749432 0 -33.333348483749432 72.997063304181211 0 0 0 0 14.320454540869079 9.5191315458733641 0 9.5191315458733641 3.6901269739122711 0 0 0 0 516.95225594671501 -20.536692013542051 0 -20.536692013542051 -109.51510805777798 0 0 0 0 -6.3012320507259574 83.358773822881631 0 83.358773822881631 74.159636696858797 0 0 0 0 -42.060217225720407 -1.4771384419509559 0 -1.4771384419509559 -68.707682337349979 0 0 0 0 766.09463399627566 1220.0110261390873 0 1220.0110261390873 898.24971836145232 0 0 0 0 706.94337079076649 1212.4809088801121 0 1212.4809088801121 1080.1192393022648 0 0 0 0 771.81695276137907 1234.1852554400102 0 1234.1852554400102 786.88630117785942 0 0 0 0 630.73486666208191 1106.2909693444963 0 1106.2909693444963 933.10512915330764 0 0 0 0 603.72285739824292 999.31549083445861 0 999.31549083445861 952.58318812896323 0 0 0 0 674.28143178055689 1117.493935312038 0 1117.493935312038 471.03413892519893 0 0 0 0 531.6327323205478 929.78466937085614 0 929.78466937085614 602.59550364976167 0 0 0 0 649.58934601551118 976.62148693556082 0 976.62148693556082 561.93807348457631 0 0 0 0 787.15326997762895 1083.8256791608874 0 1083.8256791608874 254.42249814888783 0 0 0 0 555.63028448502882 806.45320784233627 0 806.45320784233627 163.81311954397825 0 0 0 0 673.49557151297631 855.89316687837709 0 855.89316687837709 -23.190069990989286 0 0 0 0 556.90357606543694 930.8628247572924 0 930.8628247572924 85.611436632083496 0 0 0 0 940.69085113491747 1124.6140139016934 0 1124.6140139016934 426.32703136547934 0 0 0 0 682.29998561332468 791.16515680297744 0 791.16515680297744 188.51083523931447 0 0 0 0 167.11041038899566 391.25846792265656 0 391.25846792265656 71.788806471049611 0 0 0 0 538.23291025010258 491.20132869422378 0 491.20132869422378 -165.38249480811646 0 0 0 0 981.45608738291776 553.40312107848877 0 553.40312107848877 96.834666116898006 0 0 0 0 442.12717851436901 112.80491485296807 0 112.80491485296807 181.76280163187766 0 0 0 0 1767.7886600928905 276.61367107419937 0 276.61367107419937 -167.72897895734059 0 0 0 0 747.45409284697962 598.79099508980289 0 598.79099508980289 294.37249185866676 0 0 0 0 1413.6346507985036 1199.8592456790248 0 1199.8592456790248 664.57587455838802 0 0 0 0 1170.3344716685824 832.87390283195418 0 832.87390283195418 1155.4634969520848 0 0 0 0 767.90446810486901 974.49895697133616 0 974.49895697133616 746.71265735299676 0 0 0 0 1022.3669593836821 1292.0119409090839 0 1292.0119409090839 1018.1772663607117 0 0 0 0 1275.98589657704 941.54897753633122 0 941.54897753633122 1271.8651498886175 0 0 0 0 1086.7871802526352 1100.7707286347404 0 1100.7707286347404 1368.7073888805025 0 0 0 0 771.94010740802332 951.8783134579644 0 951.8783134579644 1374.5491365647686 0 0 0 0 2143.7365480400331 1725.7028151242121 0 1725.7028151242121 1458.1547593138675 0 0 0 0 2178.1191784358525 1011.5628794932854 0 1011.5628794932854 1138.1557793641259 0 0 0 0 1116.299132674787 965.74151089394582 0 965.74151089394582 1621.9192391217221 0 0 0 0 1405.5603996339341 822.28217010519074 0 822.28217010519074 1380.525907442061 0 0 0 0 1263.3093348850671 1185.8943753058411 0 1185.8943753058411 1832.8421276516638 0 0 0 0 5.9043432445771771 10.010473661533439 0 10.010473661533439 -11.637958460689163 0 0 0 0 825.31097846678313 1029.0466902960688 0 1029.0466902960688 1074.2277819660958 0 0 0 0 26.404919481337856 36.221830118442085 0 36.221830118442085 17.49036182371492 0 0 0 0 44.497451742237899 24.792746316939883 0 24.792746316939883 -112.24119679881551 0 0 0 0 1173.6903007075489 1028.184130080359 0 1028.184130080359 1235.8816207429045 0 0 0 0 1.2961803585716893 3.0199556204379974 0 3.0199556204379974 -4.028326311774947 0 0 0 0 48.730403308771201 128.80018872762594 0 128.80018872762594 -126.34869943371814 0 0 0 0 322.85629513474851 340.23368254781599 0 340.23368254781599 32.290517235378502 0 0 0 0 6.7947808397675544 128.69528879454992 0 128.69528879454992 67.469261304206157 0 0 0 0 -10.79623506351345 32.672487678810285 0 32.672487678810285 26.793475359147124 0 0 0 0 -4.0781638542694054 29.349721048931315 0 29.349721048931315 25.051560948195402 0 0 0 0 -74.05650355189573 66.873445907767746 0 66.873445907767746 20.206320746794518 0 0 0 0 4.2995378939701538 22.713534222770022 0 22.713534222770022 25.866244426785386 0 0 0 0 -0.44073440214673099 24.713918236356477 0 24.713918236356477 28.503263495890508 0 0 0 0 10.526525745102845 51.905548988739611 0 51.905548988739611 26.62514083689166 0 0 0 0 -17.359226088796277 31.156342598063929 0 31.156342598063929 26.336629065583111 0 0 0 0 -15.41662600122072 31.155452651219093 0 31.155452651219093 24.264849419392704 0 0 0 0 7.179650192451124 31.645881964713467 0 31.645881964713467 25.054984587278284 0 0 0 0 -14.468845628987765 31.463606789031473 0 31.463606789031473 24.36481827690659 0 0 0 0 -7.032817084762371 31.387473992576844 0 31.387473992576844 23.628170616929481 0 0 0 0 415.16720942700704 612.77542839174794 0 612.77542839174794 814.5816606508306 0 0 0 0 -0.5879883131328647 4.1757758286341868 0 4.1757758286341868 -0.42311495158048729 0 0 0 0 855.22540541057242 784.78690214839298 0 784.78690214839298 962.37034107849468 0 0 0 0 902.13237147707332 703.17655990195453 0 703.17655990195453 451.31505845245556 0 0 0 0 800.86315538271447 890.02597597867134 0 890.02597597867134 1185.8559751332214 0 0 0 0 2160.114003413204 1143.4348647599363 0 1143.4348647599363 1044.0928524945048 0 0 0 0 -22.556063738578814 47.960214402002748 0 47.960214402002748 28.945376785115513 0 0 0 0 -26.178496025895583 42.006557392443938 0 42.006557392443938 19.955909018013699 0 0 0 0 -35.210933809925336 44.096445691302506 0 44.096445691302506 23.103281253635942 0 0 0 0 -17.909705424477579 45.93187361319724 0 45.93187361319724 18.357515902913292 0 0 0 0 -17.572252496473084 46.562087176464047 0 46.562087176464047 12.751834523907746 0 0 0 0 -11.838266221187951 40.054942691345786 0 40.054942691345786 15.49376458793995 0 0 0 0 -17.901486096242706 46.423945651292797 0 46.423945651292797 27.780167537479429 0 0 0 0 -11.357638022847823 45.149298675140017 0 45.149298675140017 27.586498226548429 0 0 0 0 -11.389533750691044 44.81334437624173 0 44.81334437624173 27.210357940104586 0 0 0 0 -17.720590256065066 38.146851386733942 0 38.146851386733942 22.954613960639108 0 0 0 0 5.5956438770456174 30.556413383975425 0 30.556413383975425 26.791833409074769 0 0 0 0 -15.611380568167078 44.53742271873125 0 44.53742271873125 34.243063310532307 0 0 0 0 2.602990347193554 50.368661172164138 0 50.368661172164138 32.848244910581343 0 0 0 0 -18.182612256372522 61.211751078059024 0 61.211751078059024 39.233081268401293 0 0 0 0 26.737418358621653 80.798198059492279 0 80.798198059492279 30.619186144060222 0 0 0 0 -1.8275560213079416 36.882480428741729 0 36.882480428741729 -3.2534612594202663 0 0 0 0 6.0291523082560161 54.46227737749723 0 54.46227737749723 11.497543104691431 0 0 0 0 3.4824453715846175 63.589144815228792 0 63.589144815228792 32.343625139714277 0 0 0 0 -20.316836546230519 30.869272120982373 0 30.869272120982373 -7.6099794107611842 0 0 0 0 -7.2565924427364621 45.853729564499218 0 45.853729564499218 6.6314219437167594 0 0 0 0 -20.644287825285573 53.257839384343242 0 53.257839384343242 20.418535342352698 0 0 0 0 13.382790787432896 136.29659967829139 0 136.29659967829139 -746.20799534139223 0 0 0 0 -13.741194934127634 36.662690329296311 0 36.662690329296311 26.784297863210668 0 0 0 0 8.5002814594623217 36.013365907084562 0 36.013365907084562 27.080161173442093 0 0 0 0 25.615852966933744 54.371116340415028 0 54.371116340415028 25.951622540393146 0 0 0 0 21.44552573463443 30.970466297065286 0 30.970466297065286 14.382644771423656 0 0 0 0 3.4964519342320273 25.885286207187164 0 25.885286207187164 25.86904940621298 0 0 0 0 -51.778023504713929 3.3833257350488566 0 3.3833257350488566 20.039952633829671 0 0 0 0 -216.6997117518913 64.818214047176298 0 64.818214047176298 77.189874400522058 0 0 0 0 7.2551719014519804 23.223985359792877 0 23.223985359792877 22.646847663775247 0 0 0 0 -212.80121227565724 -69.466312931759603 0 -69.466312931759603 -3.0119664887461113 0 0 0 0 283.82422167436744 23.487575110913895 0 23.487575110913895 -532.46813923242735 0 0 0 0 -4.0089436919894013 5.3863631076297906 0 5.3863631076297906 3.9811563904944123 0 0 0 0 -173.56017857892402 500.20086836262089 0 500.20086836262089 -509.74765292549273 0 0 0 0 -101.47424187541128 562.82696226722237 0 562.82696226722237 104.72172040589794 0 0 0 0 28.254363904447928 25.362521959489044 0 25.362521959489044 3.4199838000822957 0 0 0 0 6.2885901375775575 41.531240270764101 0 41.531240270764101 16.055777430265152 0 0 0 0 -34.405234443285735 288.65762445432483 0 288.65762445432483 -270.24376812551054 0 0 0 0 227.26957739754289 13.606524309812812 0 13.606524309812812 -164.81201816138491 0 0 0 0 2.7715113867979575 4.5798000554940046 0 4.5798000554940046 -1.5975355803543039 0 0 0 0 -94.259685254190117 31.830565950891469 0 31.830565950891469 157.54423286269594 0 0 0 0 -86.858179093047511 25.937358810457226 0 25.937358810457226 162.22835267224582 0 0 0 0 -2.1017660365152153 3.5072965518653234 0 3.5072965518653234 -2.1655525053032676 0 0 0 0 -35.324307672599389 -2.6817600275026052 0 -2.6817600275026052 149.59610196569702 0 0 0 0 -88.291102330113063 66.632586895429995 0 66.632586895429995 59.329173459904268 0 0 0 0 -71.968398842527677 114.966546308342 0 114.966546308342 115.44265515204461 0 0 0 0 -129.56632377704955 49.24113465139817 0 49.24113465139817 159.70194307480961 0 0 0 0 21.844018067364232 107.58598111441825 0 107.58598111441825 62.965168166927469 0 0 0 0 41.058134443381277 0.070680664022802375 0 0.070680664022802375 47.284952157206135 0 0 0 0 -56.980456783132468 13.845822252489597 0 13.845822252489597 2.7136854681011755 0 0 0 0 -21.002855382117559 112.68664092216204 0 112.68664092216204 -30.600223879970144 0 0 0 0 -14.552837876169292 2.8230867164402866 0 2.8230867164402866 2.1842264113093393 0 0 0 0 2.3654816159541951 39.898731720510114 0 39.898731720510114 11.288932419629418 0 0 0 0 -29.344650434723007 34.376907369995024 0 34.376907369995024 62.796830047411277 0 0 0 0 12.448778270955557 4.114486455605288 0 4.114486455605288 -8.3514884225567982 0 0 0 0 -11.030627529642572 2.463954885329855 0 2.463954885329855 3.7641439384480577 0 0 0 0 -152.37282926332409 72.394247036074376 0 72.394247036074376 13.346056790353032 0 0 0 0 142.22298533066351 88.59611999362096 0 88.59611999362096 -8.5394660716629005 0 0 0 0 -52.266026553031793 49.771042160863828 0 49.771042160863828 -17.656158533872855 0 0 0 0 95.223987517598289 110.15877964842912 0 110.15877964842912 -11.675533646164695 0 0 0 0 29.436484143850976 72.885098658622155 0 72.885098658622155 11.825307297163818 0 0 0 0 72.810755714072002 77.453667057839994 0 77.453667057839994 10.079980497379438 0 0 0 0 51.11262921184607 119.84830392882213 0 119.84830392882213 9.3814020951540442 0 0 0 0 -10.235943230867264 26.843620581158632 0 26.843620581158632 -23.411229607388975 0 0 0 0 -69.77815448086767 10.509849115922407 0 10.509849115922407 161.19023729220498 0 0 0 0 -103.55363557790406 20.595473416171444 0 20.595473416171444 176.18626228781068 0 0 0 0 -8.7010967475944199 85.236438672640361 0 85.236438672640361 55.575006332432167 0 0 0 0 -43.654621438472532 124.27873099509452 0 124.27873099509452 30.558750473486725 0 0 0 0 -14.812768780568149 119.10941433557309 0 119.10941433557309 42.929971743826172 0 0 0 0 4.5033426502195653 111.64190843771212 0 111.64190843771212 33.17200174426398 0 0 0 0 2.5884774070000276 118.23754142940743 0 118.23754142940743 32.204955534900364 0 0 0 0 22.904911337984231 124.64077105268734 0 124.64077105268734 -0.1749199687037617 0 0 0 0 23.344479842635337 122.02626547805266 0 122.02626547805266 12.99616101054562 0 0 0 0 -42.049091209395556 138.27261970516702 0 138.27261970516702 2.5655924572929507 0 0 0 0 -58.87036299907777 103.29441689871601 0 103.29441689871601 -0.50912391094607301 0 0 0 0 -71.437498901432264 91.304205171998547 0 91.304205171998547 20.320736194946221 0 0 0 0 -48.969737356193946 133.73813676648933 0 133.73813676648933 14.635026350239059 0 0 0 0 -81.678679805074353 128.68933301715879 0 128.68933301715879 -26.210841470588093 0 0 0 0 -145.24123662291095 103.08865034800692 0 103.08865034800692 22.839307120651938 0 0 0 0 -128.71077776161837 76.343696986717987 0 76.343696986717987 0.010199062089668587 0 0 0 0 0.77762309338346824 5.5948355004027235 0 5.5948355004027235 30.027534454133672 0 0 0 0 -220.67646173450339 50.893625549437274 0 50.893625549437274 23.009541456623992 0 0 0 0 -217.98315758020908 39.481930945104978 0 39.481930945104978 47.575827663342352 0 0 0 0 -98.067757645258098 53.867233890654461 0 53.867233890654461 62.131669766633422 0 0 0 0 -103.16049338412995 58.762063243368175 0 58.762063243368175 85.375174083019374 0 0 0 0 -5.1532791141811174 5.1022141522915092 0 5.1022141522915092 60.075722038533655 0 0 0 0 -116.85166935250163 29.543954465189017 0 29.543954465189017 46.074574952039256 0 0 0 0 -109.86606832494726 99.019234182822402 0 99.019234182822402 53.708999068505364 0 0 0 0 -55.103331953243469 19.854631918700761 0 19.854631918700761 87.045194603386335 0 0 0 0 -113.4827999663612 20.423474629584234 0 20.423474629584234 135.27247833775618 0 0 0 0 -51.482815306684188 55.167732307077358 0 55.167732307077358 146.6141969416858 0 0 0 0 -0.68557184176017927 6.1445055577224252 0 6.1445055577224252 14.663444933328208 0 0 0 0 -27.198550087463218 8.6889278327452644 0 8.6889278327452644 58.939316780630463 0 0 0 0 -15.44405087918858 49.533518505915708 0 49.533518505915708 20.410797309261397 0 0 0 0 -6.9957170176237966 7.4114532323554556 0 7.4114532323554556 5.7369434809743893 0 0 0 0 -33.710131840154645 43.449144760234049 0 43.449144760234049 54.372219055594655 0 0 0 0 -26.611415658376757 41.563207227365382 0 41.563207227365382 2.1593803788090398 0 0 0 0 8.4832094972080085 46.105089091124682 0 46.105089091124682 1.8425522276884294 0 0 0 0 18.203259769645229 74.31712376964424 0 74.31712376964424 45.927518896678521 0 0 0 0 -3.3328024435872976 45.113828876678767 0 45.113828876678767 -12.68864849256104 0 0 0 0 -27.538160010473803 115.24844416174528 0 115.24844416174528 78.268812800495652 0 0 0 0 -24.100844743428752 104.42974899883848 0 104.42974899883848 93.041036051705305 0 0 0 0 18.349507509308751 100.85627157145791 0 100.85627157145791 41.468208173213498 0 0 0 0 0.26669435255462304 94.885148176825169 0 94.885148176825169 77.023162196906924 0 0 0 0 -20.754820636269869 56.651633251050953 0 56.651633251050953 47.896155009138965 0 0 0 0 -38.579099956813394 21.247771524932631 0 21.247771524932631 7.3050234484078658 0 0 0 0 -9.5048232556291623 46.531816365670238 0 46.531816365670238 41.60995536430346 0 0 0 0 -11.618114706319375 67.171730708428186 0 67.171730708428186 76.895854543188761 0 0 0 0 -34.651220376976141 16.453214592327441 0 16.453214592327441 -2.7147076463353983 0 0 0 0 -29.851496156567009 50.295344680238486 0 50.295344680238486 30.060873695925693 0 0 0 0 -15.205702204737463 38.962923446189961 0 38.962923446189961 32.865103723626817 0 0 0 0 -14.563148988585453 51.031676759368565 0 51.031676759368565 37.860629367591173 0 0 0 0 -3.6551578610597062 35.722375772496889 0 35.722375772496889 -8.848256473604124 0 0 0 0 -38.215340906768688 74.635039510067145 0 74.635039510067145 -2.4527079204399342 0 0 0 0 -12.710928884334862 49.732644430801884 0 49.732644430801884 21.859454517158156 0 0 0 0 -12.176087308835122 52.898781666488503 0 52.898781666488503 18.628481391722744 0 0 0 0 -49.33222085901798 35.765592386727803 0 35.765592386727803 -4.6038229726764257 0 0 0 0 -2.5419096465921029 28.915856040322979 0 28.915856040322979 76.975914382972405 0 0 0 0 4.785951486119302 30.550865897719632 0 30.550865897719632 74.699280815286329 0 0 0 0 -0.79793624171571764 2.1088456388213217 0 2.1088456388213217 2.9077963200736008 0 0 0 0 1.1698912533320254 31.022822604936664 0 31.022822604936664 75.489287472024444 0 0 0 0 -27.134990636317525 41.896069751855975 0 41.896069751855975 172.26746385002116 0 0 0 0 8.7063799934549024 79.671520594431058 0 79.671520594431058 -136.65948070369632 0 0 0 0 -0.16842278868966787 0.21394620673599718 0 0.21394620673599718 -0.051944436444962605 0 0 0 0 20.805377210286679 46.024213355798565 0 46.024213355798565 -57.000560261769351 0 0 0 0 -16.117846525252389 55.847481798136869 0 55.847481798136869 -55.124398168736661 0 0 0 0 -158.93895538782817 27.443181093141902 0 27.443181093141902 123.16081032446527 0 0 0 0 101.76028751912236 0.50444516485367785 0 0.50444516485367785 -115.08764540000266 0 0 0 0 1.0906286814758062 2.5676971438271892 0 2.5676971438271892 1.9422842270911929 0 0 0 0 -80.193432546613622 92.586272957480105 0 92.586272957480105 281.40348355800961 0 0 0 0 -33.724937049643785 15.147434616278673 0 15.147434616278673 -0.02447271587158184 0 0 0 0 -11.800015756183711 7.1165030291431322 0 7.1165030291431322 63.283421635147533 0 0 0 0 1.659745392826153 135.4205574033258 0 135.4205574033258 90.770120070445046 0 0 0 0 14.841315124227549 25.978802481760795 0 25.978802481760795 42.661381913487276 0 0 0 0 -0.052111858109128661 87.234522249338625 0 87.234522249338625 57.735251899299328 0 0 0 0 -5.5296135094540659 78.896656621524016 0 78.896656621524016 54.570851760791612 0 0 0 0 160.14400571829174 118.00472746769083 0 118.00472746769083 38.37835688789346 0 0 0 0 48.636692560656229 45.029822523039911 0 45.029822523039911 12.705166448460659 0 0 0 0 0.39449438141088677 -1.4035154529326519 0 -1.4035154529326519 1.6228063393083119 0 0 0 0 -39.612011908568093 9.5381112577961176 0 9.5381112577961176 -23.234132262907224 0 0 0 0 -134.30299656745046 -19.258098576585326 0 -19.258098576585326 76.823228250126704 0 0 0 0 -39.830589447665261 10.995965795882512 0 10.995965795882512 45.356476048094919 0 0 0 0 -11.256977607765293 36.616607992581521 0 36.616607992581521 58.904946687645861 0 0 0 0 -15.088792188631487 17.551425100176857 0 17.551425100176857 37.904580140399048 0 0 0 0 -26.244655231654178 46.321266585306148 0 46.321266585306148 54.064510401309235 0 0 0 0 -41.13577013098984 48.243374061319628 0 48.243374061319628 98.417349761541118 0 0 0 0 -70.160322823813203 48.317822819010644 0 48.317822819010644 147.65708864423505 0 0 0 0 -68.555592863325728 10.951274920618744 0 10.951274920618744 80.748541486871545 0 0 0 0 147.43721251023817 92.553753449348733 0 92.553753449348733 -93.393311028179596 0 0 0 0 -2.1564440398069564 121.20514490796631 0 121.20514490796631 126.91200372789535 0 0 0 0 46.765604438118316 83.09378170583841 0 83.09378170583841 27.541868047555909 0 0 0 0 -29.920298656001364 15.127536010090836 0 15.127536010090836 2.0640785770061143 0 0 0 0 8.7726034614024684 -0.51744205386785325 0 -0.51744205386785325 -38.710729293008626 0 0 0 0 -37.562880961282644 38.735135702576372 0 38.735135702576372 19.449216903587512 0 0 0 0 -26.101423722342588 70.407004188065912 0 70.407004188065912 42.124962861795211 0 0 0 0 -32.140096460178029 36.646317309321603 0 36.646317309321603 20.213532411959022 0 0 0 0 -21.990800711522752 57.615544832140586 0 57.615544832140586 36.903915955976117 0 0 0 0 -25.088011193125567 42.129591673990035 0 42.129591673990035 45.844160101871239 0 0 0 0 -4.0036572180470102 32.269856372826325 0 32.269856372826325 36.539012552966597 0 0 0 0 -35.10391647668439 48.778938618022949 0 48.778938618022949 2.1869594748131931 0 0 0 0 -42.29593441914767 42.047280892336858 0 42.047280892336858 32.265714831351943 0 0 0 0 12.491005443589529 51.4007411908824 0 51.4007411908824 -5.5708619340439327 0 0 0 0 -4.8272533093574452 5.7112164209171681 0 5.7112164209171681 5.7101496641038239 0 0 0 0 -67.356297309859656 33.365442430338589 0 33.365442430338589 18.966040618746774 0 0 0 0 -18.808103920072085 19.804418814752808 0 19.804418814752808 14.856861844485667 0 0 0 0 3.2457499727534014 17.489398653015087 0 17.489398653015087 13.163664260828227 0 0 0 0 5.9607340141155873 39.006058390896214 0 39.006058390896214 2.2540049188537523 0 0 0 0 -0.30202258750874478 17.13837613910357 0 17.13837613910357 13.338888335393506 0 0 0 0 124.4874385864241 9.9907759377092589 0 9.9907759377092589 15.456594250223134 0 0 0 0 -5.3608623609616188 19.105626359843882 0 19.105626359843882 33.894930266513256 0 0 0 0 0.62241245605400763 38.063111390045378 0 38.063111390045378 34.408095963633968 0 0 0 0 1.6720593604259193 33.928306426547351 0 33.928306426547351 37.836567133424978 0 0 0 0 -12.971483290493296 8.1613679543768285 0 8.1613679543768285 15.656293653095304 0 0 0 0 -2.1898926424976253 15.153736878516838 0 15.153736878516838 58.023260121961357 0 0 0 0 20.239250694335169 21.405425677280405 0 21.405425677280405 2.3855534111364598 0 0 0 0 17.63961259079224 -77.520184620207147 0 -77.520184620207147 109.84381632208533 0 0 0 0 4.335071510808973 -1.0736318229950932 0 -1.0736318229950932 -2.1171570629952328 0 0 0 0 95.598412426596042 140.62941941824465 0 140.62941941824465 -285.87741899995308 0 0 0 0 -118.69054518526536 -116.97512080104934 0 -116.97512080104934 368.50814647652442 0 0 0 0 -87.876559072639793 382.07579146339413 0 382.07579146339413 322.7931149309743 0 0 0 0 11.863391286477679 17.237475674219851 0 17.237475674219851 15.85576428399861 0 0 0 0 -38.859842927005957 78.980089960936311 0 78.980089960936311 63.505519225548596 0 0 0 0 5.9403257603300972 17.946002677492345 0 17.946002677492345 11.52873659948294 0 0 0 0 5.212815392005723 36.055046793895599 0 36.055046793895599 34.575921517309325 0 0 0 0 17.998101740282436 23.671289008583699 0 23.671289008583699 43.843453339715779 0 0 0 0 14.344358306129465 22.521486377844411 0 22.521486377844411 26.974722309587207 0 0 0 0 -1.9342561314868476 1.1800571189771318 0 1.1800571189771318 8.6469002526302603 0 0 0 0 -16.426122625678545 53.406471322210564 0 53.406471322210564 69.745856663636005 0 0 0 0 0.019572889650589786 86.242806284986727 0 86.242806284986727 -247.87284177914262 0 0 0 0 -10.366629724740051 62.02548530635795 0 62.02548530635795 -77.814823184744455 0 0 0 0 0.82772064409419954 8.8127277578481085 0 8.8127277578481085 18.889426156996706 0 0 0 0 -0.79813387967118388 -4.5220184901223988 0 -4.5220184901223988 9.9504874314106928 0 0 0 0 20.98026763627422 160.49587885577785 0 160.49587885577785 267.70144183887169 0 0 0 0 -15.598402640180666 -2.8626441269542227 0 -2.8626441269542227 22.844298832640504 0 0 0 0 37.982439243627596 104.33930534048704 0 104.33930534048704 269.42430291841447 0 0 0 0 -0.011923333365023006 6.8992838285749523 0 6.8992838285749523 25.249790969945025 0 0 0 0 2.3730718565639108 28.234167074730067 0 28.234167074730067 50.369516459788429 0 0 0 0 9.5198281555931317 37.49554092343169 0 37.49554092343169 47.489870071021869 0 0 0 0 91.265022662089905 228.6055100122976 0 228.6055100122976 260.87278204951144 0 0 0 0 -25.073158412336596 3.8796545338443877 0 3.8796545338443877 12.599460329609229 0 0 0 0 97.227528271498159 142.09606334085402 0 142.09606334085402 222.26395491717267 0 0 0 0 -0.33117049855354708 194.53032958824042 0 194.53032958824042 231.0464178325783 0 0 0 0 23.125125096048578 208.51571030276682 0 208.51571030276682 231.86868768472777 0 0 0 0 96.515166668308666 207.26184682572784 0 207.26184682572784 222.81282109459426 0 0 0 0 94.930028056900483 205.81023872882361 0 205.81023872882361 265.13030289782 0 0 0 0 51.936438027274562 234.93877044124929 0 234.93877044124929 262.28713711713499 0 0 0 0 -34.022917103895452 13.003346868424927 0 13.003346868424927 8.4848202724070632 0 0 0 0 241.94389409868745 204.52556506419933 0 204.52556506419933 123.67498074137256 0 0 0 0 144.95482673682272 255.84503726489129 0 255.84503726489129 260.34892849418975 0 0 0 0 -42.65161052744952 54.21547684827965 0 54.21547684827965 32.918431565478386 0 0 0 0 -78.604253148840144 39.984642134549176 0 39.984642134549176 28.28552847278479 0 0 0 0 2.0996366629570389 10.909689521227989 0 10.909689521227989 3.8385920273175955 0 0 0 0 199.40208843612345 327.05783309857361 0 327.05783309857361 364.70743399456478 0 0 0 0 -31.159911212453153 12.308567708510964 0 12.308567708510964 29.168389429964009 0 0 0 0 -22.023754801820871 19.461910545092778 0 19.461910545092778 17.531793810694637 0 0 0 0 -12.105013119013165 28.007461930009868 0 28.007461930009868 37.419498620030936 0 0 0 0 -24.805007405763945 7.7185796459080507 0 7.7185796459080507 39.212449322774148 0 0 0 0 136.06258321079076 103.62918373833236 0 103.62918373833236 163.84827952602063 0 0 0 0 127.68813865563152 229.90053890128274 0 229.90053890128274 242.67654284846503 0 0 0 0 250.62793966699974 277.93917576340027 0 277.93917576340027 171.76070916037133 0 0 0 0 199.54085050712456 274.65380466098577 0 274.65380466098577 219.25551774076303 0 0 0 0 309.43446919842972 143.45575887316227 0 143.45575887316227 171.31765518722204 0 0 0 0 89.800703325861832 217.80896528001904 0 217.80896528001904 272.31081139794878 0 0 0 0 209.56165682772735 257.32790310691371 0 257.32790310691371 205.65617615604424 0 0 0 0 205.80297775398139 243.49230325675671 0 243.49230325675671 198.54947991094377 0 0 0 0 199.6171287810721 314.87650663823297 0 314.87650663823297 148.93338984054571 0 0 0 0 43.131370522489306 271.32049303670647 0 271.32049303670647 221.35674715550704 0 0 0 0 471.48748365519168 237.70524016447962 0 237.70524016447962 112.27411591768032 0 0 0 0 264.41747812199173 236.9816468934514 0 236.9816468934514 185.41851237929586 0 0 0 0 344.31289746821858 308.95886140854418 0 308.95886140854418 175.58250830475299 0 0 0 0 1218.3172635449937 326.97637494978608 0 326.97637494978608 -129.90641133148165 0 0 0 0 257.95723270138842 259.38282796109706 0 259.38282796109706 213.75202921574964 0 0 0 0 432.81543689135469 197.12300757918729 0 197.12300757918729 -106.06030229429598 0 0 0 0 257.65939134545624 242.72701643438631 0 242.72701643438631 138.38283682517886 0 0 0 0 -39.598753875914554 6.869626018411509 0 6.869626018411509 -109.3709227462532 0 0 0 0 -206.67003082351584 387.24510309816833 0 387.24510309816833 182.9879922126056 0 0 0 0 25.592144617534359 132.5626264008315 0 132.5626264008315 126.98312040949531 0 0 0 0 32.438529264225508 82.120656932474958 0 82.120656932474958 -12.756159127482533 0 0 0 0 39.787947014643578 188.62254516621397 0 188.62254516621397 79.897117919841548 0 0 0 0 45.396685714582418 167.31403509434983 0 167.31403509434983 103.71301595165278 0 0 0 0 12.773153800808359 36.338538256455649 0 36.338538256455649 381.3440823274841 0 0 0 0 -69.677897058951203 90.344543927199993 0 90.344543927199993 218.13707560821058 0 0 0 0 -45.08031723491149 127.81568136765964 0 127.81568136765964 269.90020096945227 0 0 0 0 -13.26510387469898 255.03033323426644 0 255.03033323426644 102.57689259446124 0 0 0 0 -43.565959340332483 190.65903596328099 0 190.65903596328099 18.127734093788604 0 0 0 0 0.47220979194389656 212.19965087559467 0 212.19965087559467 168.01505121140508 0 0 0 0 -17.791852790222038 310.96320573294724 0 310.96320573294724 340.83784231416939 0 0 0 0 33.353068458323833 360.00407684430684 0 360.00407684430684 239.69291946410522 0 0 0 0 0.069385794718982652 276.64023089566763 0 276.64023089566763 136.11529497554875 0 0 0 0 14.333720110938884 206.97199474447189 0 206.97199474447189 433.42724809552601 0 0 0 0 41.676182379131205 224.09897065909172 0 224.09897065909172 312.83703722001883 0 0 0 0 92.486389144003624 382.7474933227677 0 382.7474933227677 -25.769181841154932 0 0 0 0 375.13424173049862 -100.05132844017135 0 -100.05132844017135 575.47425796173047 0 0 0 0 -22.057707921689143 400.32418500258063 0 400.32418500258063 589.94849230458203 0 0 0 0 -117.46005068518571 90.920672483498493 0 90.920672483498493 822.08356074610856 0 0 0 0 64.565234712179517 -252.39470157080723 0 -252.39470157080723 572.97428916502577 0 0 0 0 2.1987235928736766 2.4007651627938884 0 2.4007651627938884 1.6446745989721308 0 0 0 0 -403.97974309473648 629.90765919137357 0 629.90765919137357 -48.828710797604799 0 0 0 0 -0.41031066999130417 410.84236527504072 0 410.84236527504072 -624.91168748108976 0 0 0 0 -2.0380040467134677 5.2821223290266062 0 5.2821223290266062 78.601890073085087 0 0 0 0 127.21022305439692 -153.81355107539093 0 -153.81355107539093 251.19101938690414 0 0 0 0 -71.909192109378637 -29.608396856217951 0 -29.608396856217951 124.67566395641188 0 0 0 0 -149.17139272610075 119.08222349041171 0 119.08222349041171 155.96003727843345 0 0 0 0 -250.78284207402612 74.053079057777722 0 74.053079057777722 94.019510189165885 0 0 0 0 -168.69147737859748 92.681519779937844 0 92.681519779937844 52.478879704882274 0 0 0 0 -95.641422042797785 111.92407791808 0 111.92407791808 68.124131878706976 0 0 0 0 25.562012824629207 40.817426209118096 0 40.817426209118096 33.54878199431127 0 0 0 0 -50.98029872776533 31.670256760407938 0 31.670256760407938 18.083873871582909 0 0 0 0 -41.026737753447378 126.24499017181915 0 126.24499017181915 31.493482648016652 0 0 0 0 -42.755567315965891 121.48187573257928 0 121.48187573257928 38.736432385456283 0 0 0 0 16.146158792531139 40.556594129579636 0 40.556594129579636 33.157153877825095 0 0 0 0 -91.367352389643202 57.762205834696942 0 57.762205834696942 26.201536139298696 0 0 0 0 -61.916057897062274 106.37013492338156 0 106.37013492338156 29.008997972152429 0 0 0 0 -9.632088984537404 68.477638210242731 0 68.477638210242731 -5.3324883250897983 0 0 0 0 -26.579486343089229 93.630140653573108 0 93.630140653573108 50.741203118232079 0 0 0 0 -28.168485179277923 106.29770704604016 0 106.29770704604016 3.8329981284914538 0 0 0 0 -39.256834796629846 97.55423829096253 0 97.55423829096253 -33.035590708313975 0 0 0 0 -56.858824333059601 105.35233723602141 0 105.35233723602141 12.654671473952476 0 0 0 0 -69.743825006939005 131.68748357288132 0 131.68748357288132 -25.009420262009371 0 0 0 0 -94.062488828698406 34.5764222098951 0 34.5764222098951 -105.86888771294616 0 0 0 0 -162.40910297870869 110.89148146811931 0 110.89148146811931 28.87711202914943 0 0 0 0 -95.595748390911467 43.250532944949555 0 43.250532944949555 -7.1126003825920634 0 0 0 0 -97.938177261181409 55.518305588306248 0 55.518305588306248 39.884064208948985 0 0 0 0 -76.234020525356755 44.418115360327647 0 44.418115360327647 35.116162274905946 0 0 0 0 -93.127144703030353 43.083389509083645 0 43.083389509083645 35.667986255371943 0 0 0 0 -94.959390950229135 46.851085976657487 0 46.851085976657487 30.589970604196424 0 0 0 0 -85.428785205542226 32.853866910456418 0 32.853866910456418 33.72020219854312 0 0 0 0 -10.478753374773078 57.402868872566614 0 57.402868872566614 -8.4886093968234491 0 0 0 0 -8.1368239686853485 74.314703560128692 0 74.314703560128692 17.373145310149994 0 0 0 0 -214.88979117313283 174.02457333778148 0 174.02457333778148 -49.047956738431822 0 0 0 0 -210.71899013424991 203.64753284394828 0 203.64753284394828 39.276907668136118 0 0 0 0 -75.352466122043552 131.01132164207957 0 131.01132164207957 74.399935932742665 0 0 0 0 -145.32800505985506 106.63161096924887 0 106.63161096924887 -57.491464443824952 0 0 0 0 -151.30824805438169 94.21505815846831 0 94.21505815846831 89.995032063467079 0 0 0 0 -136.05195682408521 167.55936462743557 0 167.55936462743557 21.249711747586844 0 0 0 0 -216.57638390964712 157.73024641953089 0 157.73024641953089 65.760041600828117 0 0 0 0 -138.56495064522096 115.96264556840833 0 115.96264556840833 88.066264407432755 0 0 0 0 -57.842983448208543 211.65660649378697 0 211.65660649378697 57.190094856656287 0 0 0 0 -36.765684425830841 234.29935219040635 0 234.29935219040635 -113.63477549418167 0 0 0 0 -137.33953824121272 110.57032170553794 0 110.57032170553794 -69.163856534396473 0 0 0 0 -12.135403602238512 204.71768414639519 0 204.71768414639519 -78.114152962749358 0 0 0 0 -321.39832093636505 149.0449597787665 0 149.0449597787665 8.0815007304627215 0 0 0 0 5.7563184960207536 5.9213411379656975 0 5.9213411379656975 3.4562030843497951 0 0 0 0 151.72708913733368 111.20055481033341 0 111.20055481033341 -26.07031765364809 0 0 0 0 -10.883032833062174 -1.5592927545457087 0 -1.5592927545457087 3.6478018758180468 0 0 0 0 -34.934226663433947 96.088377522224619 0 96.088377522224619 17.690298656085361 0 0 0 0 28.966297360748285 202.30731408551219 0 202.30731408551219 0.28369781891524326 0 0 0 0 8.2685179083709954 248.34630263267991 0 248.34630263267991 -47.706788770141429 0 0 0 0 -32.391943858150626 30.826859517692355 0 30.826859517692355 35.830609174183337 0 0 0 0 -37.613731665245723 21.781377519298985 0 21.781377519298985 41.220102308318019 0 0 0 0 -52.12216804921627 23.991616127983434 0 23.991616127983434 35.253913322976587 0 0 0 0 -64.651853350107558 25.484193595184479 0 25.484193595184479 35.109411763289245 0 0 0 0 -80.783447891240939 40.038474940171 0 40.038474940171 39.989428792701801 0 0 0 0 -58.866260269132908 40.655197559255612 0 40.655197559255612 39.942474518407835 0 0 0 0 -50.727481357898796 34.262594468236784 0 34.262594468236784 46.92724326143798 0 0 0 0 -44.873873060219921 40.013859492348274 0 40.013859492348274 42.20212779258145 0 0 0 0 -83.557683197548613 70.443898966768757 0 70.443898966768757 46.794640634383541 0 0 0 0 -57.493958706269041 51.820119058495038 0 51.820119058495038 46.801320010592462 0 0 0 0 -65.241449940600432 50.081523975852178 0 50.081523975852178 46.84979914293217 0 0 0 0 -65.018941187183373 39.754173279055976 0 39.754173279055976 43.879998094591429 0 0 0 0 -84.900752213041415 56.617400738254219 0 56.617400738254219 38.978028472018195 0 0 0 0 -73.844407667405903 52.150481073120318 0 52.150481073120318 40.779317202672246 0 0 0 0 -68.975632850721013 55.114418189914431 0 55.114418189914431 42.279248329374241 0 0 0 0 -84.946818908501882 60.443053247086937 0 60.443053247086937 45.110001922002994 0 0 0 0 -76.506726671301294 70.741259745889693 0 70.741259745889693 43.637821861484554 0 0 0 0 -61.434618579572998 63.09365065023303 0 63.09365065023303 43.452427199095837 0 0 0 0 -46.71095854381565 56.761415327375289 0 56.761415327375289 46.286615629069274 0 0 0 0 -60.734685609990265 66.565900568893994 0 66.565900568893994 41.676304672306287 0 0 0 0 -48.923808857722179 41.544338104144117 0 41.544338104144117 64.726725843152963 0 0 0 0 -50.450710496501415 43.518423376284773 0 43.518423376284773 51.83774794798228 0 0 0 0 -42.745049341116101 46.97400313646358 0 46.97400313646358 53.38133906287112 0 0 0 0 -27.332296961860266 43.184854480627109 0 43.184854480627109 50.329520053986926 0 0 0 0 -40.448901408799429 34.116201809068116 0 34.116201809068116 61.726447353808908 0 0 0 0 -33.878653781663161 22.180026748290402 0 22.180026748290402 81.293553951494687 0 0 0 0 23.952002685808111 55.689695021923399 0 55.689695021923399 79.365315683098743 0 0 0 0 -13.969991340534762 49.066456841246691 0 49.066456841246691 70.164561017569213 0 0 0 0 -17.353330205762177 27.380011067893065 0 27.380011067893065 61.098348519852152 0 0 0 0 -18.147892370041518 16.915068959795462 0 16.915068959795462 42.138995734625496 0 0 0 0 -31.883800172014162 49.722971482493449 0 49.722971482493449 46.707409716313123 0 0 0 0 -13.514487113181303 36.284701791404075 0 36.284701791404075 35.022370821628286 0 0 0 0 -8.2084288459154777 -23.281522859222605 0 -23.281522859222605 110.94727802822308 0 0 0 0 -23.41724255279405 46.705951168594765 0 46.705951168594765 118.47552206477849 0 0 0 0 2.2290327968203769 0.95415213005355781 0 0.95415213005355781 -7.5890474069789917 0 0 0 0 -31.626388807490002 25.329658202528663 0 25.329658202528663 53.087042003375245 0 0 0 0 -40.855814558599377 34.61723341630568 0 34.61723341630568 60.02542222518241 0 0 0 0 -2.5974171531865409 3.6896594243317011 0 3.6896594243317011 11.252770327953542 0 0 0 0 -86.839492868311936 81.665425893697829 0 81.665425893697829 185.98691665913793 0 0 0 0 -2.4195712561205767 18.537454485502206 0 18.537454485502206 17.010811551917655 0 0 0 0 -27.302916858054232 26.695787057564303 0 26.695787057564303 39.814014076677267 0 0 0 0 -34.536369926121552 36.60040717296215 0 36.60040717296215 41.768707643845119 0 0 0 0 -28.871536746574805 14.914698009738466 0 14.914698009738466 37.845273720912793 0 0 0 0 -29.746545191039331 27.452690157486359 0 27.452690157486359 5.0732078924775124 0 0 0 0 -41.863031175918877 33.591080084486748 0 33.591080084486748 60.864089754417364 0 0 0 0 19.936179836303552 53.083388017373665 0 53.083388017373665 34.729851278857495 0 0 0 0 -0.084873220536678673 30.818801495675956 0 30.818801495675956 20.447157954556758 0 0 0 0 -15.545942176016979 24.654093493765686 0 24.654093493765686 17.503754864679649 0 0 0 0 2.9033082070745877 17.416256833364969 0 17.416256833364969 37.238739931315649 0 0 0 0 13.735764420736814 14.457617714499065 0 14.457617714499065 41.735980009500054 0 0 0 0 2.68713126462535 17.672959219766199 0 17.672959219766199 50.406104818655876 0 0 0 0 -0.59292454578098841 38.257220623621834 0 38.257220623621834 20.806075669504935 0 0 0 0 27.93411264080828 27.563085799194983 0 27.563085799194983 15.190505536394284 0 0 0 0 -76.496716416120762 -14.131717791755364 0 -14.131717791755364 86.574510476144496 0 0 0 0 160.51219243311789 106.77716645489272 0 106.77716645489272 -50.738871171546634 0 0 0 0 -0.25566355886985548 90.367520027539285 0 90.367520027539285 116.47668698739653 0 0 0 0 72.670073384913849 226.07154458672812 0 226.07154458672812 2.8827886642102385 0 0 0 0 5.7683238783138222 26.366969222714033 0 26.366969222714033 -2.1057279671877041 0 0 0 0 10.38180981677317 17.0247491663911 0 17.0247491663911 14.328581497102235 0 0 0 0 -19.80282966941013 -20.701158269552252 0 -20.701158269552252 -45.191858660222351 0 0 0 0 28.588231493224157 60.712892419454874 0 60.712892419454874 -144.45237992238253 0 0 0 0 -20.975249516675831 -61.49219513713615 0 -61.49219513713615 -147.75804388543474 0 0 0 0 64.272096572640294 100.43491365690261 0 100.43491365690261 -313.6293551227136 0 0 0 0 58.600410006562015 105.13226544337158 0 105.13226544337158 -90.496308290268644 0 0 0 0 -2.3370579197653569 69.949768293876787 0 69.949768293876787 -58.376028173515806 0 0 0 0 30.919033540936653 179.54319484189182 0 179.54319484189182 15.465750939052668 0 0 0 0 30.800335038215053 229.75145240437246 0 229.75145240437246 -63.514082470108406 0 0 0 0 40.45251294656191 243.82210361222678 0 243.82210361222678 -50.639454423668212 0 0 0 0 40.025486745988019 238.89876496788202 0 238.89876496788202 -99.177401065069716 0 0 0 0 29.288791183753347 160.26092961495806 0 160.26092961495806 -148.00608333776472 0 0 0 0 91.870202220394276 211.89960046353372 0 211.89960046353372 -271.41423522219702 0 0 0 0 67.112098786223214 231.92559868727403 0 231.92559868727403 -102.61767536527623 0 0 0 0 74.881267314834986 321.75560606248473 0 321.75560606248473 -132.21983981334415 0 0 0 0 60.81621030633687 211.90961067399621 0 211.90961067399621 -166.06386860314524 0 0 0 0 41.441641939454712 346.63912600079402 0 346.63912600079402 46.599354579040664 0 0 0 0 43.501640057977056 272.69577303275582 0 272.69577303275582 -36.783265164849581 0 0 0 0 16.485062578343786 278.30481481074821 0 278.30481481074821 -6.321379605018592 0 0 0 0 46.410015213259612 277.04523000039444 0 277.04523000039444 -63.986393953324296 0 0 0 0 -4.0126617509522475 248.64285932695202 0 248.64285932695202 -40.615812898700824 0 0 0 0 49.352854393247981 342.64915833251143 0 342.64915833251143 -73.820667980915459 0 0 0 0 57.287063056079205 264.69042574827108 0 264.69042574827108 -48.155084334560343 0 0 0 0 63.586059263434436 281.69101784067607 0 281.69101784067607 -11.747329846140929 0 0 0 0 74.819802758196602 122.82191145166871 0 122.82191145166871 -360.41931817510704 0 0 0 0 70.06970320903929 150.43537665496115 0 150.43537665496115 -205.59140435279551 0 0 0 0 86.261459679306427 301.89549154557062 0 301.89549154557062 -241.44413128794986 0 0 0 0 52.958653964626137 248.3389045439144 0 248.3389045439144 -745.46023289222649 0 0 0 0 37.932493423542837 179.99489095243712 0 179.99489095243712 -255.51610348164104 0 0 0 0 29.582885215349961 363.33156326265816 0 363.33156326265816 -271.90252078564663 0 0 0 0 -268.69267355435295 259.83039041317534 0 259.83039041317534 -269.57875449926541 0 0 0 0 -0.75766448694116661 5.3066796454970131 0 5.3066796454970131 2.2932188434314185 0 0 0 0 -0.26469520022510551 54.861128763832312 0 54.861128763832312 -527.69512450924231 0 0 0 0 -15.399618519524665 14.769920324402392 0 14.769920324402392 7.1376213265393744 0 0 0 0 -15.247537230301532 -115.61759221402099 0 -115.61759221402099 -447.28833911224865 0 0 0 0 96.172095205023652 157.1388588407026 0 157.1388588407026 -459.53113555232994 0 0 0 0 -30.395620388415409 -100.84555395931602 0 -100.84555395931602 -258.3120258891704 0 0 0 0 0.80160511121380296 -1.0778718939497267 0 -1.0778718939497267 2.3543883862774209 0 0 0 0 -33.644517284526955 40.834933139718487 0 40.834933139718487 155.48558498953207 0 0 0 0 -19.601274932574597 39.609956987356782 0 39.609956987356782 187.22702634087909 0 0 0 0 39.265778041881276 99.595664184773341 0 99.595664184773341 202.63596452630009 0 0 0 0 -21.896944768996036 12.145806483358683 0 12.145806483358683 53.065918329739361 0 0 0 0 -25.186070018040482 11.761222244747842 0 11.761222244747842 138.45253258908633 0 0 0 0 -1.5641628085868433 49.585300600359915 0 49.585300600359915 70.049095584050519 0 0 0 0 5.1595888177398592 28.546053397229116 0 28.546053397229116 -1.0122681581706274 0 0 0 0 2.9782196351018229 7.9135155314974952 0 7.9135155314974952 6.5993746881750752 0 0 0 0 2.8860607360475115 52.79857318185168 0 52.79857318185168 -6.4582602456066525 0 0 0 0 -0.084922238514991477 93.357042839503265 0 93.357042839503265 119.67610568935561 0 0 0 0 16.698247134703934 16.106989452700113 0 16.106989452700113 9.137546871111951 0 0 0 0 12.999198955512838 17.305861799508421 0 17.305861799508421 22.600029947989242 0 0 0 0 29.005194902914809 19.331737005511968 0 19.331737005511968 -5.3098456079169409 0 0 0 0 80.288617456215434 64.646981992023939 0 64.646981992023939 24.694193738658214 0 0 0 0 1.7391501834130167 13.266601357716638 0 13.266601357716638 23.998371874166736 0 0 0 0 16.638538740870047 23.326995458156176 0 23.326995458156176 23.999169681979296 0 0 0 0 -7.653945701326478 8.1597460192532196 0 8.1597460192532196 15.746725216129391 0 0 0 0 4.5513841266656527 10.941489623419329 0 10.941489623419329 15.807135786100844 0 0 0 0 25.087010480943718 26.464027844162047 0 26.464027844162047 25.123199612065946 0 0 0 0 22.0681360443632 33.758113334983136 0 33.758113334983136 38.741515049245209 0 0 0 0 19.767836980958236 24.89703196525079 0 24.89703196525079 35.015914678777335 0 0 0 0 -6.9096830991838942 9.1479617319619706 0 9.1479617319619706 24.587022420994998 0 0 0 0 8.3343976431076499 23.090214980122838 0 23.090214980122838 32.462093995094662 0 0 0 0 -0.00028684138669632375 4.6412793142080773 0 4.6412793142080773 6.1155609349953011 0 0 0 0 4.1189410395345476 5.5141307941021296 0 5.5141307941021296 -28.140692433720687 0 0 0 0 -2.9701694661313809 1.2830573021845453 0 1.2830573021845453 5.8493577573036077 0 0 0 0 5.0278781678751443 7.3670201640628221 0 7.3670201640628221 11.366708791389215 0 0 0 0 6.5139071747544222 19.178598891317961 0 19.178598891317961 3.3735982617108675 0 0 0 0 1.8066292251751292 11.514173832667439 0 11.514173832667439 63.628755677225854 0 0 0 0 2.6846145506046355 -1.9370728664983616 0 -1.9370728664983616 -0.049502262380116235 0 0 0 0 -0.0042741763027152047 26.83113758016043 0 26.83113758016043 33.117343414836796 0 0 0 0 -2.375981700806733 24.441471007775363 0 24.441471007775363 37.869434643325803 0 0 0 0 2.8406855791836279 21.231694900972798 0 21.231694900972798 16.590452088581515 0 0 0 0 -6.6762081199371437 3.0993849028895681 0 3.0993849028895681 12.737330743822739 0 0 0 0 -7.4621392553672194 22.41953219944844 0 22.41953219944844 38.720812607356493 0 0 0 0 -16.284745356766507 -14.75289220581908 0 -14.75289220581908 53.570943008674476 0 0 0 0 2.8397346402724111 3.5603697447937606 0 3.5603697447937606 5.3396001544237777 0 0 0 0 -6.0434468923376699 27.151531899684187 0 27.151531899684187 16.463682865709416 0 0 0 0 -11.780267609517267 8.6478089441470445 0 8.6478089441470445 20.524373419945761 0 0 0 0 10.219133288992452 19.062550978575018 0 19.062550978575018 20.038051757546782 0 0 0 0 -0.0038754030101699755 24.87060506364287 0 24.87060506364287 -16.807683474682563 0 0 0 0 -8.3805262678952204 8.579224208728192 0 8.579224208728192 15.991496884613298 0 0 0 0 -4.069033154140925 20.796190455934266 0 20.796190455934266 44.53404076800507 0 0 0 0 -6.7242484767339192 26.16913442817895 0 26.16913442817895 32.407985057376209 0 0 0 0 26.113044422236271 66.982656414278608 0 66.982656414278608 7.0384208203759044 0 0 0 0 16.342199001985136 44.915783271280816 0 44.915783271280816 47.556654148414964 0 0 0 0 13.029694387863856 5.9050584234501002 0 5.9050584234501002 60.679400303386501 0 0 0 0 0.68505929359393747 2.194074510374989 0 2.194074510374989 -1.745479636581706 0 0 0 0 2.7864339557613675 16.935033809502357 0 16.935033809502357 24.250371275838091 0 0 0 0 32.904319823370315 122.74586095407722 0 122.74586095407722 -18.90769917867874 0 0 0 0 -7.3220817732762953 16.546630371903994 0 16.546630371903994 28.956502569886453 0 0 0 0 -12.003556132069207 16.815178519169422 0 16.815178519169422 28.926182597147999 0 0 0 0 -10.603481839061715 18.856640988626168 0 18.856640988626168 28.754422329075169 0 0 0 0 23.567795205512084 29.520312989581726 0 29.520312989581726 34.005206623260165 0 0 0 0 1.2265241211425746 18.252932003317255 0 18.252932003317255 24.745910471363459 0 0 0 0 -8.5157657208619639 17.008383052132558 0 17.008383052132558 28.552629658108344 0 0 0 0 -7.2322983373100556 14.983353727135245 0 14.983353727135245 26.069248803674981 0 0 0 0 -28.396488467173185 38.393574976347736 0 38.393574976347736 39.926266163303808 0 0 0 0 -4.1274189435272604 18.715594761841587 0 18.715594761841587 28.747649079242592 0 0 0 0 -18.851164219253405 27.963724391058349 0 27.963724391058349 21.969033050409053 0 0 0 0 7.5731608561621897 24.871409021026039 0 24.871409021026039 25.099266639066855 0 0 0 0 -19.790206801728345 20.390280802501366 0 20.390280802501366 22.140659011667594 0 0 0 0 16.983394226641394 27.612475928559434 0 27.612475928559434 17.30949847062584 0 0 0 0 -8.4457523368182592 19.779233644047054 0 19.779233644047054 29.036499121481029 0 0 0 0 6.9653765622242645 23.02877463402438 0 23.02877463402438 15.871024787204874 0 0 0 0 1.3288880078864054 1.2583363728121242 0 1.2583363728121242 1.0123418097665535 0 0 0 0 -36.186117228789954 15.00290142394806 0 15.00290142394806 23.472971177485306 0 0 0 0 -16.99946917027097 13.271152946455189 0 13.271152946455189 35.776527844319531 0 0 0 0 -11.045369921622267 8.5361103352452687 0 8.5361103352452687 17.464685911177526 0 0 0 0 10.774023453384871 31.849062105124176 0 31.849062105124176 33.78303056221921 0 0 0 0 3.6757035925766104 30.66839340176557 0 30.66839340176557 36.304288122992148 0 0 0 0 27.743344672220701 33.479826419685196 0 33.479826419685196 27.307537463515473 0 0 0 0 9.9499634495150531 23.430250734942092 0 23.430250734942092 24.663516563428857 0 0 0 0 1.7074010543707345 10.391918896073918 0 10.391918896073918 13.15205191882194 0 0 0 0 14.509537794728715 23.644661088164384 0 23.644661088164384 30.550637719996416 0 0 0 0 -52.265036875556689 57.377060161696136 0 57.377060161696136 103.26469122550043 0 0 0 0 -7.6833076091385237 4.2202265561514238 0 4.2202265561514238 10.954848406033108 0 0 0 0 8.072024848406727 17.129268799195415 0 17.129268799195415 28.418699471934815 0 0 0 0 11.538324107858344 24.630580628937381 0 24.630580628937381 36.637377082272877 0 0 0 0 41.798917618725682 69.940121236762934 0 69.940121236762934 10.908129188406747 0 0 0 0 5.833272087671503 26.772544278239366 0 26.772544278239366 33.794952518292121 0 0 0 0 7.2933355947170639 25.425950766453752 0 25.425950766453752 39.098593959537538 0 0 0 0 7.4502431391301798 26.42493704743174 0 26.42493704743174 31.656130759874941 0 0 0 0 6.5723510395619087 26.617607396517997 0 26.617607396517997 41.527068281982793 0 0 0 0 10.888400356438069 29.293979505609968 0 29.293979505609968 15.470245730772149 0 0 0 0 8.9651282955455827 35.775004328766954 0 35.775004328766954 28.617052230227273 0 0 0 0 9.09017104406621 40.386160755081619 0 40.386160755081619 5.6394855441176333 0 0 0 0 8.8792651565308915 29.443893090581696 0 29.443893090581696 34.60936453944305 0 0 0 0 1.6939700176957047 20.560284158853733 0 20.560284158853733 16.829366635808384 0 0 0 0 5.4630618091399015 15.991297201731527 0 15.991297201731527 32.084209196916277 0 0 0 0 -13.071005676734785 16.92342185853704 0 16.92342185853704 27.582365842332365 0 0 0 0 -5.5346692573220935 28.505841711164976 0 28.505841711164976 35.065192334863241 0 0 0 0 -20.004618501363439 33.515234966500429 0 33.515234966500429 39.503095142223174 0 0 0 0 -9.1929357773042284 46.995426749221224 0 46.995426749221224 56.694484368934354 0 0 0 0 -6.5685991296340944 34.139157870886265 0 34.139157870886265 38.905804949856247 0 0 0 0 -20.403582248422026 44.51198054860015 0 44.51198054860015 31.589248393051093 0 0 0 0 -35.543897686991841 17.490351395354082 0 17.490351395354082 34.809219899580057 0 0 0 0 5.8273282448520263 6.1335553920057464 0 6.1335553920057464 4.684851306311316 0 0 0 0 -22.872486472682795 18.976869952559355 0 18.976869952559355 28.606925675965613 0 0 0 0 -28.454727556309081 28.61737221533258 0 28.61737221533258 13.596930394385708 0 0 0 0 -95.868094548262889 -21.499183767802606 0 -21.499183767802606 22.090801539831773 0 0 0 0 148.09243340862304 83.037635108397808 0 83.037635108397808 44.920796478640113 0 0 0 0 0.12490530319767856 -0.63808663832762136 0 -0.63808663832762136 -0.31619586428814728 0 0 0 0 -54.411177244459395 39.561176052633527 0 39.561176052633527 72.74676682658901 0 0 0 0 -3.8852647745079594 29.569353872106149 0 29.569353872106149 25.905591687136621 0 0 0 0 6.3600935891190602 29.047797826244278 0 29.047797826244278 73.294459236974944 0 0 0 0 1.1063519453964545 44.658305310098513 0 44.658305310098513 94.988074251639773 0 0 0 0 21.221902560384478 90.687347794405923 0 90.687347794405923 89.438119767044554 0 0 0 0 2.3696574462082935 27.557195601679268 0 27.557195601679268 76.363919283387077 0 0 0 0 -17.716417528950842 39.793866816457012 0 39.793866816457012 52.423167280379857 0 0 0 0 -21.88324005989125 61.459239815310866 0 61.459239815310866 34.163643850995868 0 0 0 0 -3.6411745909463207 31.631706419812872 0 31.631706419812872 42.157006569774239 0 0 0 0 -8.6862405425054021 36.959786467552476 0 36.959786467552476 37.889101912500337 0 0 0 0 -3.1445963533042232 46.957386945614417 0 46.957386945614417 47.853224680424319 0 0 0 0 5.8000670897017699 54.119734640371462 0 54.119734640371462 46.76668703498035 0 0 0 0 5.4300926389405504 42.052383838396054 0 42.052383838396054 38.533995999336184 0 0 0 0 151.69275433237817 323.43058011820403 0 323.43058011820403 235.75640443101292 0 0 0 0 -37.578873709287933 9.2901003782846772 0 9.2901003782846772 9.8066341349446873 0 0 0 0 161.75053021032363 181.78114176641975 0 181.78114176641975 152.46627153219742 0 0 0 0 -14.869932257765285 7.0667992756925742 0 7.0667992756925742 3.8393904068525728 0 0 0 0 -5.668290941148868 54.99609276039314 0 54.99609276039314 -16.584406841324238 0 0 0 0 -1130.4177637111425 2289.2480866051483 0 2289.2480866051483 1908.7340355544002 0 0 0 0 84.548584563621262 127.19105573690467 0 127.19105573690467 106.39222619602515 0 0 0 0 2696.9553425649938 -1526.6835658690252 0 -1526.6835658690252 -2586.5243462587241 0 0 0 0 -2868.5967471989134 106.03522601967597 0 106.03522601967597 1036.2843439508724 0 0 0 0 108.01785642662239 35.215271978281123 0 35.215271978281123 -8.4862864426241025 0 0 0 0 45.404026500982582 1675.7743589865931 0 1675.7743589865931 -1320.9626335897701 0 0 0 0 -13.979444419863285 931.82872220714489 0 931.82872220714489 1048.5938594664985 0 0 0 0 441.08098705645534 672.87192868591046 0 672.87192868591046 1055.5499425971502 0 0 0 0 74.651680352889429 63.280330509504694 0 63.280330509504694 7.7046448953711959 0 0 0 0 92.788436236198322 130.26764964503855 0 130.26764964503855 61.570683322956029 0 0 0 0 79.135789753097924 108.14858391256712 0 108.14858391256712 124.23884044950682 0 0 0 0 89.156056919506227 106.95047564452761 0 106.95047564452761 74.568142544405418 0 0 0 0 10.51476473758521 60.626094400882721 0 60.626094400882721 51.086648095362762 0 0 0 0 -27.862735263034835 15.197803805384353 0 15.197803805384353 23.178129825024229 0 0 0 0 11.233582381634506 26.618882913580222 0 26.618882913580222 34.413752879097785 0 0 0 0 -30.159685944010562 50.470945891129304 0 50.470945891129304 50.7537939951726 0 0 0 0 3.1264146895846352 45.609816086878709 0 45.609816086878709 41.32217296246381 0 0 0 0 7.1171793529439924 26.632825013620035 0 26.632825013620035 31.635300375076596 0 0 0 0 9.108186798594943 39.248090269773002 0 39.248090269773002 47.041893032990629 0 0 0 0 45.062826048146235 -29.675957709598151 0 -29.675957709598151 -8.9252142616314813 0 0 0 0 -2.9318354110491782 19.272625965852022 0 19.272625965852022 27.145462394083523 0 0 0 0 5.8766264393925667 19.165443587829941 0 19.165443587829941 61.374790090800161 0 0 0 0 10.479080118238926 55.988709085009759 0 55.988709085009759 58.206698228124878 0 0 0 0 -43.752379091107287 9.5972035582672106 0 9.5972035582672106 29.003052629297599 0 0 0 0 8.0870978809543885 6.0717812830407638 0 6.0717812830407638 43.229349208791973 0 0 0 0 8.5883941772553953 15.621645526804741 0 15.621645526804741 134.9846075426758 0 0 0 0 0.16374606909778322 3.759884056475471 0 3.759884056475471 5.8529965465457963 0 0 0 0 9.6398533271858469 29.35836876873509 0 29.35836876873509 47.50650182152458 0 0 0 0 -0.87838313104293775 14.864043364319514 0 14.864043364319514 52.128152829769533 0 0 0 0 24.407444340568873 20.146297136907947 0 20.146297136907947 51.162727713439381 0 0 0 0 10.212491082551423 13.155352050962392 0 13.155352050962392 34.590242075035349 0 0 0 0 13.759484016081842 2.5940691281875843 0 2.5940691281875843 22.713619799556909 0 0 0 0 2.6366077729035169 34.391988791438052 0 34.391988791438052 31.779500753113098 0 0 0 0 6.6489452896151136 35.035645664388994 0 35.035645664388994 24.176712582432344 0 0 0 0 24.832754022034351 23.376447747687052 0 23.376447747687052 36.350317006974365 0 0 0 0 21.172288290739971 42.573217991307985 0 42.573217991307985 25.808167704290298 0 0 0 0 7.0434683464109185 -13.479993370723378 0 -13.479993370723378 95.930094301176723 0 0 0 0 -1.7814394521119539 -1.8201777693757322 0 -1.8201777693757322 26.183991142141167 0 0 0 0 -16.770871970918961 3.5031333369843196 0 3.5031333369843196 33.43915324244881 0 0 0 0 6.2305918289762587 5.7156428389788942 0 5.7156428389788942 -2.3933427525482216 0 0 0 0 86.333672204244067 92.534704932331806 0 92.534704932331806 26.481714540408575 0 0 0 0 327.87312803027453 76.189244999215589 0 76.189244999215589 13.929780395519629 0 0 0 0 67.945671602225048 -67.620689164508804 0 -67.620689164508804 -34.12273526100762 0 0 0 0 130.95880868653694 138.93805494729077 0 138.93805494729077 65.972045813789009 0 0 0 0 178.39118268602761 173.96588897629408 0 173.96588897629408 85.90085281899519 0 0 0 0 11.564872363378527 -135.0456071184235 0 -135.0456071184235 -214.77542801534582 0 0 0 0 -104.96919610377518 178.48458949405176 0 178.48458949405176 218.49791570618981 0 0 0 0 322.20437574209063 279.97114617535408 0 279.97114617535408 62.133689975060406 0 0 0 0 77.273637457110453 165.23978290898958 0 165.23978290898958 227.32110784785618 0 0 0 0 32.469820689875633 347.51876615884976 0 347.51876615884976 236.19708362921665 0 0 0 0 638.07815516425762 57.634328958374681 0 57.634328958374681 -31.223205470676476 0 0 0 0 229.2050338719564 -0.82459297415334731 0 -0.82459297415334731 -7.5268833820500731 0 0 0 0 13.466889181989245 27.710789100325201 0 27.710789100325201 23.851866396218611 0 0 0 0 13.794735267314536 20.827691659986158 0 20.827691659986158 82.325816564436536 0 0 0 0 13.111563201702666 66.235834043123759 0 66.235834043123759 78.254228424142639 0 0 0 0 31.077841580787208 41.277543432865059 0 41.277543432865059 63.049373267356714 0 0 0 0 32.200001029181294 25.005250408576103 0 25.005250408576103 82.590682568377815 0 0 0 0 36.483661279882654 64.342671620286637 0 64.342671620286637 140.6515625048778 0 0 0 0 18.908146592235425 18.393779311634717 0 18.393779311634717 102.82176893377618 0 0 0 0 23.240910191379953 53.60526435898646 0 53.60526435898646 194.31653830730647 0 0 0 0 42.127286958653713 99.280566997418646 0 99.280566997418646 103.60339254597784 0 0 0 0 236.69139364542207 146.12388600711711 0 146.12388600711711 34.967141345019627 0 0 0 0 78.245056922198273 129.26294685457833 0 129.26294685457833 122.28226945432107 0 0 0 0 57.626381436610245 84.628496821256704 0 84.628496821256704 55.212331012342474 0 0 0 0 33.709024965588469 98.121015011056443 0 98.121015011056443 74.592156200757017 0 0 0 0 26.883944630069891 79.72685266067856 0 79.72685266067856 25.452880254160846 0 0 0 0 6.8512879062327556 101.32908317846886 0 101.32908317846886 32.191813261655625 0 0 0 0 11.87081917579053 57.411853447876638 0 57.411853447876638 31.334387022303417 0 0 0 0 40.32246273237979 80.610385142848827 0 80.610385142848827 33.314422774128616 0 0 0 0 -25.067205073457444 91.778780732995074 0 91.778780732995074 64.175939537613885 0 0 0 0 82.712663694954244 124.76471190253505 0 124.76471190253505 35.373532262921799 0 0 0 0 105.65924076348892 83.40524678883412 0 83.40524678883412 11.822073631672538 0 0 0 0 135.61095863238734 80.425236426486663 0 80.425236426486663 1.6391056663997006 0 0 0 0 66.862737576499057 40.101253799641199 0 40.101253799641199 25.948710943004698 0 0 0 0 22.711242100631353 98.40084609992482 0 98.40084609992482 34.035165426705134 0 0 0 0 1548.1135263150318 806.91031888042471 0 806.91031888042471 1125.8719874041126 0 0 0 0 -6.7100833190089588 4.2614640352497872 0 4.2614640352497872 -1.5367126314317119 0 0 0 0 -3.7038739615313432 2.5466713340607043 0 2.5466713340607043 -1.7163428524154085 0 0 0 0 208.65935740040732 134.9039495356119 0 134.9039495356119 -215.69488893648668 0 0 0 0 -112.76696639815054 10.438351130793308 0 10.438351130793308 229.17459288057216 0 0 0 0 142.00464753953565 23.717247457923804 0 23.717247457923804 5.4479842630971689 0 0 0 0 417.01952863794577 897.96261939505348 0 897.96261939505348 1398.9338371982994 0 0 0 0 1043.3564480885689 1561.2590058338283 0 1561.2590058338283 719.50876811177659 0 0 0 0 1755.6373250128454 1061.0704043534743 0 1061.0704043534743 34.17810681003175 0 0 0 0 431.9080945540627 507.01815039843859 0 507.01815039843859 386.23183271967326 0 0 0 0 912.0818635297037 1214.6826288054326 0 1214.6826288054326 553.7069060139911 0 0 0 0 831.28016162689892 1328.8621016124671 0 1328.8621016124671 394.94107612281772 0 0 0 0 589.28497732600863 979.98542009405378 0 979.98542009405378 483.33002804288117 0 0 0 0 687.16017617311445 784.05138685554448 0 784.05138685554448 799.41650322030182 0 0 0 0 808.72054687046329 1378.2200231487332 0 1378.2200231487332 668.08799339443067 0 0 0 0 590.40561693495556 1123.2410990859323 0 1123.2410990859323 1099.584256594273 0 0 0 0 5.6276326712655873 24.919761732138312 0 24.919761732138312 -1.0034066015068106 0 0 0 0 131.02806940833398 96.058181566630083 0 96.058181566630083 11.230040505684883 0 0 0 0 700.43159288866445 711.86420620758508 0 711.86420620758508 395.05723325563304 0 0 0 0 -20.364234887333438 47.461637246453222 0 47.461637246453222 22.652538781464159 0 0 0 0 3455.2730146382746 -5177.577921698994 0 -5177.577921698994 873.01695487824327 0 0 0 0 22.74362922115688 107.83101443468695 0 107.83101443468695 14.506033685713192 0 0 0 0 20.749180681921715 48.123761851790086 0 48.123761851790086 56.321644860902978 0 0 0 0 848.2421827648941 2249.3550512759321 0 2249.3550512759321 1607.5302971049496 0 0 0 0 1061.3954595683244 1192.9960636107999 0 1192.9960636107999 -1166.9783709638432 0 0 0 0 -27.059325995282578 31.189701849175862 0 31.189701849175862 16.444675498718098 0 0 0 0 235.60005855979398 175.85851713352167 0 175.85851713352167 125.10278462192582 0 0 0 0 12.276579734170809 22.595270312413049 0 22.595270312413049 -15.697992207478819 0 0 0 0 -16.826664947642712 79.143472191244655 0 79.143472191244655 37.546512975986843 0 0 0 0 -20.635165562111069 98.094281283600139 0 98.094281283600139 -53.849350054215392 0 0 0 0 46.74984136853891 85.045133890638681 0 85.045133890638681 -51.644859979366629 0 0 0 0 34.048454259933692 44.55614043014932 0 44.55614043014932 57.285559213707216 0 0 0 0 392.95000162620272 175.11667274619322 0 175.11667274619322 -345.64047806768212 0 0 0 0 27.603156409082715 50.294109030928936 0 50.294109030928936 50.611650218706913 0 0 0 0 -74.912622023781296 416.30428801396192 0 416.30428801396192 -219.22951447413288 0 0 0 0 -229.11935420339296 300.20500835834082 0 300.20500835834082 290.93100934599352 0 0 0 0 -257.42646079976839 136.40888957480638 0 136.40888957480638 101.94881525786695 0 0 0 0 -222.52732530752291 419.24197947877587 0 419.24197947877587 -144.57754798076348 0 0 0 0 -275.21450735037979 187.66513169055816 0 187.66513169055816 40.866832792016794 0 0 0 0 -88.729196748790855 201.24255188390089 0 201.24255188390089 30.328388596972218 0 0 0 0 -151.79756913255551 124.07270614986192 0 124.07270614986192 62.967317554113833 0 0 0 0 85.607931138627464 36.284559881616588 0 36.284559881616588 28.825119904620806 0 0 0 0 106.77558260583464 272.57187289818103 0 272.57187289818103 29.397660801223537 0 0 0 0 -706.49061038724903 -37.644286258189823 0 -37.644286258189823 31.631897196615682 0 0 0 0 -219.9349996996134 209.791731634803 0 209.791731634803 -10.252235952473711 0 0 0 0 188.80335121002281 406.09915016881132 0 406.09915016881132 639.07507391172112 0 0 0 0 1025.6589841908935 1742.2443950797751 0 1742.2443950797751 712.0643117053678 0 0 0 0 -15.872486227657646 -64.42326001352194 0 -64.42326001352194 965.48678549877513 0 0 0 0 9.8640950673413386 28.936794834324189 0 28.936794834324189 -9.5405269706902232 0 0 0 0 -378.84763038068922 116.76648806118101 0 116.76648806118101 61.657460192058352 0 0 0 0 11427.223635336588 2881.8572648165209 0 2881.8572648165209 -3480.1723953710316 0 0 0 0 4453.9391688469477 1962.4480305892066 0 1962.4480305892066 -3104.1658943326329 0 0 0 0 30.571222301802237 46.93275883713823 0 46.93275883713823 31.392458037222411 0 0 0 0 -60.881076739664422 1133.6996204585412 0 1133.6996204585412 4210.3165194845787 0 0 0 0 44.377384058927078 0.19146663348387705 0 0.19146663348387705 -1.2686926760357444 0 0 0 0 3857.1045376613329 -536.74435885490675 0 -536.74435885490675 -2331.5325785303066 0 0 0 0 -374.117640709228 -538.73082860052546 0 -538.73082860052546 -1458.0788636916259 0 0 0 0 4385.4280088663072 2167.611664201715 0 2167.611664201715 70.555766264762497 0 0 0 0 31.109746239766537 147.75881004840267 0 147.75881004840267 1715.7581260842562 0 0 0 0 -372.37286001149914 150.98744026188797 0 150.98744026188797 5568.7420019341807 0 0 0 0 1213.2681789231719 3586.8366705862572 0 3586.8366705862572 4111.1753161630186 0 0 0 0 3583.8548025656251 2474.5030727936964 0 2474.5030727936964 451.55017080597463 0 0 0 0 3526.7103934731203 1288.9194038741516 0 1288.9194038741516 758.70943101024022 0 0 0 0 2594.4137860980991 -2163.9936172044982 0 -2163.9936172044982 904.73672460122907 0 0 0 0 7868.5627943690633 -3362.7975263060944 0 -3362.7975263060944 1052.541335982969 0 0 0 0 10840.772407592769 5462.6799272586941 0 5462.6799272586941 1460.7438946605253 0 0 0 0 4176.2562639322714 1284.069711963908 0 1284.069711963908 -134.55887513325433 0 0 0 0 -1355.9000514083018 -2922.9665118503617 0 -2922.9665118503617 -96.912476285811863 0 0 0 0 3161.5298465245869 523.70614670636132 0 523.70614670636132 -682.01593934296397 0 0 0 0 1783.50598552476 2680.5272284298117 0 2680.5272284298117 759.13245037561865 0 0 0 0 897.10795081302058 1819.6366870495549 0 1819.6366870495549 747.11071246553911 0 0 0 0 425.38037776283454 -50.250172479136381 0 -50.250172479136381 -234.07401609754015 0 0 0 0 1001.6578446372005 1986.7761614484625 0 1986.7761614484625 440.88639504936873 0 0 0 0 208.32793108338956 1251.9937860595674 0 1251.9937860595674 -1310.5575391653983 0 0 0 0 603.40766356821405 1641.5485919993662 0 1641.5485919993662 1148.2708536820137 0 0 0 0 1076.5909692982386 1454.8566663720994 0 1454.8566663720994 -84.790343121479964 0 0 0 0 103.97342618755647 887.65490105800563 0 887.65490105800563 316.88014790737361 0 0 0 0 -1263.3853654444392 781.78253242665232 0 781.78253242665232 237.37604071151873 0 0 0 0 -3.2368036001545875 12.679141438155625 0 12.679141438155625 -8.2986513019174595 0 0 0 0 1648.2696830022032 3410.1482554424656 0 3410.1482554424656 2093.5915034983045 0 0 0 0 466.8279952416342 2005.6949848777731 0 2005.6949848777731 3050.3993490607827 0 0 0 0 1449.259836881276 2034.6758263007359 0 2034.6758263007359 625.49835744133452 0 0 0 0 1075.6683667370817 2483.72027148286 0 2483.72027148286 1387.9075577008771 0 0 0 0 1284.6943784159957 1045.739762481011 0 1045.739762481011 697.41457248672668 0 0 0 0 851.8273848988174 1288.22223786627 0 1288.22223786627 427.5818094330898 0 0 0 0 794.62208209789242 1365.8500312190008 0 1365.8500312190008 348.47072223768919 0 0 0 0 482.57068895013072 233.78431548044318 0 233.78431548044318 -38.321572058855963 0 0 0 0 589.64687284496904 1334.4363871766691 0 1334.4363871766691 2249.5043301582919 0 0 0 0 1343.7216709089407 435.31326755636837 0 435.31326755636837 2073.1546170859438 0 0 0 0 1440.0359333867236 1127.9665414623596 0 1127.9665414623596 509.40639169269707 0 0 0 0 550.64560855575837 404.75428888984607 0 404.75428888984607 470.78146375632787 0 0 0 0 828.22886149582337 1011.5288994862349 0 1011.5288994862349 811.66963421691617 0 0 0 0 677.99978965998162 374.59592329723819 0 374.59592329723819 153.59729838682688 0 0 0 0 987.49169932596124 567.75314719302696 0 567.75314719302696 -100.33464705682127 0 0 0 0 164.46352525101975 132.41405902232509 0 132.41405902232509 172.38461950389319 0 0 0 0 369.65157627666485 121.63700546712789 0 121.63700546712789 145.67447485873709 0 0 0 0 -76.728322153066983 -263.68795335257892 0 -263.68795335257892 130.49255935271503 0 0 0 0 -366.10585030827497 -47.271862930007046 0 -47.271862930007046 283.2481708919513 0 0 0 0 -791.88059193157096 -432.44743385308539 0 -432.44743385308539 320.29774943264783 0 0 0 0 -348.93289237705176 235.92359111769838 0 235.92359111769838 351.53943370757042 0 0 0 0 125.80289308826104 586.37833043842329 0 586.37833043842329 538.76716222570394 0 0 0 0 -42.363193540170215 12.764762640811028 0 12.764762640811028 9.4071881143838709 0 0 0 0 -1.0267464662374266 -0.91067083775357105 0 -0.91067083775357105 3.4617481960604835 0 0 0 0 -1118.7080070542579 -1089.731615409095 0 -1089.731615409095 -45.092125326336827 0 0 0 0 716.05480433031335 461.49098321669226 0 461.49098321669226 263.72919022510541 0 0 0 0 147.91798740823288 66.994405517238192 0 66.994405517238192 1263.4698423631489 0 0 0 0 313.19749229279114 -325.55067389970645 0 -325.55067389970645 -1902.8024159744964 0 0 0 0 -331.00039292837027 -1053.3868279078742 0 -1053.3868279078742 -1038.7357100000518 0 0 0 0 407.94841872362304 309.31165726210747 0 309.31165726210747 -114.71875540458132 0 0 0 0 -587.85003721021349 -507.93925354784005 0 -507.93925354784005 104.09322793257888 0 0 0 0 160.84101007637901 -350.94731776010565 0 -350.94731776010565 -685.34190812660381 0 0 0 0 -1302.4727200289781 -185.43288158917858 0 -185.43288158917858 627.54342878915486 0 0 0 0 -21.505445726856124 41.267883579526824 0 41.267883579526824 39.988573161368549 0 0 0 0 -7.154645783196429 46.322010446315744 0 46.322010446315744 41.748148457190837 0 0 0 0 -737.50441936549032 771.80529226255021 0 771.80529226255021 1990.6544647848932 0 0 0 0 -44.84088143200853 25.538617170471753 0 25.538617170471753 5.9611376957606126 0 0 0 0 90.063365535082994 -38.638924959504948 0 -38.638924959504948 -310.16150367831142 0 0 0 0 -706.51130624079087 480.9970324853457 0 480.9970324853457 299.24022653466091 0 0 0 0 -22.52519432875215 51.196668841220344 0 51.196668841220344 31.471700123096525 0 0 0 0 -48.399688105964742 51.716064483251103 0 51.716064483251103 31.783984804184001 0 0 0 0 -17.302407317896268 49.943526979177079 0 49.943526979177079 29.678916773220408 0 0 0 0 1064.9796419763588 660.47805735753354 0 660.47805735753354 190.11508831353785 0 0 0 0 905.71849878034845 864.47359478726867 0 864.47359478726867 289.50398877100088 0 0 0 0 774.06213726160422 669.70151784189511 0 669.70151784189511 484.22922678833129 0 0 0 0 979.09600247157505 707.56169165846222 0 707.56169165846222 449.98569535912247 0 0 0 0 -16.758308266775032 19.814164027362892 0 19.814164027362892 6.5687339287308077 0 0 0 0 990.96005617103947 708.1534095161951 0 708.1534095161951 372.50817549756903 0 0 0 0 1053.6198818097764 613.71657251756551 0 613.71657251756551 384.52305777194761 0 0 0 0 2025.9170056688308 894.75905349102686 0 894.75905349102686 156.13856823810056 0 0 0 0 -201.51006722624879 120.63786786163473 0 120.63786786163473 339.18986693071201 0 0 0 0 -11.257616171651016 2.4842413293656165 0 2.4842413293656165 12.164028171300117 0 0 0 0 486.02819983644463 250.24689722777555 0 250.24689722777555 195.19430195027235 0 0 0 0 617.88714923751104 810.39983466775448 0 810.39983466775448 346.66196910019062 0 0 0 0 -3.48310453927715 9.6859565980886089 0 9.6859565980886089 -9.5306295100390344 0 0 0 0 306.03132050643035 448.41840882779434 0 448.41840882779434 1092.1517933855175 0 0 0 0 508.3448214790551 21.214928246794443 0 21.214928246794443 645.78555249922647 0 0 0 0 1622.2038289277862 968.09190372526336 0 968.09190372526336 590.73786307665432 0 0 0 0 2347.8822657350102 842.71082405059133 0 842.71082405059133 553.31273362907814 0 0 0 0 1555.608022496046 1000.2468386074761 0 1000.2468386074761 577.82198330628307 0 0 0 0 441.11461535419494 1171.8906842203805 0 1171.8906842203805 1189.3618694991019 0 0 0 0 812.15504065599816 1123.4166801880347 0 1123.4166801880347 849.96164854615927 0 0 0 0 -1364.330932239689 -114.728720077459 0 -114.728720077459 485.74286093164119 0 0 0 0 -0.10016621395496372 0.53875619842918354 0 0.53875619842918354 -7.3176411659844689 0 0 0 0 858.71897023742895 -296.38684003796334 0 -296.38684003796334 2041.3510616404237 0 0 0 0 -7.5976365049924368 18.003817790077193 0 18.003817790077193 -15.722631219859579 0 0 0 0 -1056.077138779714 1657.2045130790211 0 1657.2045130790211 1378.286822643975 0 0 0 0 817.30214708654239 901.70272299022326 0 901.70272299022326 726.33252842799993 0 0 0 0 -801.32667710289388 480.34581859800528 0 480.34581859800528 679.05977314022311 0 0 0 0 319.94239342924993 245.8779251206397 0 245.8779251206397 397.8265843936897 0 0 0 0 307.2926428910323 73.520088416997169 0 73.520088416997169 150.55993539925839 0 0 0 0 76.744838570564752 489.94904140612562 0 489.94904140612562 190.58914993495273 0 0 0 0 264.984634053224 93.884948209706636 0 93.884948209706636 179.39507170140132 0 0 0 0 258.31163280615147 -6.9123302844163845 0 -6.9123302844163845 523.2958541053431 0 0 0 0 49.128588108782424 146.08765876276993 0 146.08765876276993 163.83941691796645 0 0 0 0 58.979860169332824 65.867635294929642 0 65.867635294929642 486.36894254246727 0 0 0 0 320.22995918061497 191.60635168096269 0 191.60635168096269 337.74490561963103 0 0 0 0 402.34113613392401 420.13611365289398 0 420.13611365289398 577.04113943391894 0 0 0 0 83.559815313928993 345.37815888940531 0 345.37815888940531 590.27832834651781 0 0 0 0 -1.0675863277972439 2.853494319688707 0 2.853494319688707 -2.6190435414344222 0 0 0 0 440.40891979614389 776.9243391176642 0 776.9243391176642 521.9215078815414 0 0 0 0 534.17506528897502 -55.395171596646833 0 -55.395171596646833 -1043.1756529788545 0 0 0 0 137.08972604430892 610.82337995195121 0 610.82337995195121 -402.78315966835362 0 0 0 0 33.265435379653354 530.80458308845846 0 530.80458308845846 -58.048454613657668 0 0 0 0 170.8138036832388 538.4712086560321 0 538.4712086560321 -534.2251661005912 0 0 0 0 -154.42529174577794 203.4519903332839 0 203.4519903332839 -531.30725927994354 0 0 0 0 137.17177982664725 483.08332382883236 0 483.08332382883236 -130.9942621201626 0 0 0 0 428.33638416748727 756.59515955292591 0 756.59515955292591 -424.11408782535 0 0 0 0 624.3827694208303 645.29192240370321 0 645.29192240370321 -361.94246104740887 0 0 0 0 576.10408560132782 909.67823201366627 0 909.67823201366627 -27.901475115562789 0 0 0 0 509.45639536879025 681.31871598641737 0 681.31871598641737 16.872177072356862 0 0 0 0 112.03149007660977 429.48430951654154 0 429.48430951654154 354.36914222255291 0 0 0 0 173.59478473685886 -15.796403776672378 0 -15.796403776672378 -146.11040523240808 0 0 0 0 735.45434728970577 647.2922430705803 0 647.2922430705803 -430.5440011217579 0 0 0 0 583.61524534079945 521.37633532633481 0 521.37633532633481 58.250732219079509 0 0 0 0 658.6219442786969 937.35291108502133 0 937.35291108502133 149.51556475443067 0 0 0 0 795.66529807150073 747.82151077232993 0 747.82151077232993 90.536571151111275 0 0 0 0 561.09883675759193 633.23431121061731 0 633.23431121061731 373.54272555511852 0 0 0 0 -30.379708352130365 77.207925129789146 0 77.207925129789146 28.383549541016691 0 0 0 0 12.469720908269665 6.036800309229875 0 6.036800309229875 14.267957699179533 0 0 0 0 31.862014024138489 53.572141867556049 0 53.572141867556049 45.382668033294237 0 0 0 0 -14.22341289101314 128.60540224389115 0 128.60540224389115 -322.40764043907984 0 0 0 0 -38.675982723608286 288.03432538794004 0 288.03432538794004 -169.5997523732658 0 0 0 0 -49.633531813633454 71.618923234047543 0 71.618923234047543 -393.7975104546349 0 0 0 0 324.72889532005502 359.93374929431593 0 359.93374929431593 -291.15070450362691 0 0 0 0 85.614159589458723 445.30056208005044 0 445.30056208005044 -58.408380356326234 0 0 0 0 52.361427338723388 135.42405471230086 0 135.42405471230086 118.59591980615369 0 0 0 0 41.069234083547528 63.558112601032349 0 63.558112601032349 71.358237474387124 0 0 0 0 -332.62286320588464 314.73538782621472 0 314.73538782621472 184.79328650007665 0 0 0 0 -37.082918276340934 37.732910095095576 0 37.732910095095576 88.585834498833719 0 0 0 0 -211.91872085894283 12.202527666206151 0 12.202527666206151 182.39570964713494 0 0 0 0 -325.6428393356764 185.87345367522721 0 185.87345367522721 101.81051739694522 0 0 0 0 -108.33441752530052 61.73517833533333 0 61.73517833533333 115.68681047583232 0 0 0 0 -96.541508032009006 64.337643406179268 0 64.337643406179268 89.932168000355887 0 0 0 0 -65.069035298554809 29.072364083061984 0 29.072364083061984 132.63363828209549 0 0 0 0 -33.008546002398361 40.639371922137798 0 40.639371922137798 132.92301440943993 0 0 0 0 -0.61516345067502698 8.3383426096843323 0 8.3383426096843323 118.97290018152853 0 0 0 0 -29.094132527752663 -2.4845153008573106 0 -2.4845153008573106 119.47835202762508 0 0 0 0 -11.567132502663299 -7.1753274273869465 0 -7.1753274273869465 118.43400375398778 0 0 0 0 -80.491827697838744 -3.5028362424436637 0 -3.5028362424436637 140.39562183477392 0 0 0 0 -16.620198160344444 -15.029244303030282 0 -15.029244303030282 235.53688640117616 0 0 0 0 -35.319070034718607 40.392502452574263 0 40.392502452574263 85.888292957919475 0 0 0 0 123.50470896080151 32.614075226276327 0 32.614075226276327 100.44997236309428 0 0 0 0 98.284914324605779 53.019711105691385 0 53.019711105691385 193.29615877379456 0 0 0 0 225.6765375402847 89.209472144835672 0 89.209472144835672 -2.3322267688345164 0 0 0 0 157.8874935284839 176.78001558311007 0 176.78001558311007 7.6977133353216232 0 0 0 0 75.689986257822966 218.10484030813313 0 218.10484030813313 63.683206327215885 0 0 0 0 -19.946592622989556 45.250112269113743 0 45.250112269113743 103.40830444159656 0 0 0 0 15.847758677089587 64.518926110118628 0 64.518926110118628 105.92823625690653 0 0 0 0 -97.773560711619211 62.171150688198395 0 62.171150688198395 106.47686605824674 0 0 0 0 -110.2990398867405 96.366545373224653 0 96.366545373224653 63.155158751294948 0 0 0 0 -76.561235969809786 25.86818545998176 0 25.86818545998176 127.84336345619522 0 0 0 0 -83.023327313328082 253.72036989597291 0 253.72036989597291 59.175994218268897 0 0 0 0 -239.91305347652815 256.40001379976457 0 256.40001379976457 68.780654738351586 0 0 0 0 291.83392976991308 -242.30641938779445 0 -242.30641938779445 34.492672715743538 0 0 0 0 -344.21456941698852 223.64010880189744 0 223.64010880189744 83.112336026111734 0 0 0 0 2.7965311569945897 3.2700584898459724 0 3.2700584898459724 1.1212672830528447 0 0 0 0 -717.59524588700151 784.55094670044491 0 784.55094670044491 878.98714826564537 0 0 0 0 -0.51608079567256482 -2.0966070911046586 0 -2.0966070911046586 0.34486873125996453 0 0 0 0 -429.45943643598002 123.44209721490915 0 123.44209721490915 149.53765964585182 0 0 0 0 -99.620572810206795 176.26302963664057 0 176.26302963664057 -341.27401348832063 0 0 0 0 -145.16111620684387 115.6183857017495 0 115.6183857017495 57.486422674468486 0 0 0 0 -159.96193519573717 165.94382937361661 0 165.94382937361661 19.645045075809321 0 0 0 0 -152.72017358170342 71.458860150300097 0 71.458860150300097 50.731669453685754 0 0 0 0 -237.69091567504438 42.720185431255231 0 42.720185431255231 -173.42174949581386 0 0 0 0 -143.2988120544469 127.93324189563646 0 127.93324189563646 90.708937276474899 0 0 0 0 3.1723843023803511 12.146659657946188 0 12.146659657946188 3.0623703168450476 0 0 0 0 251.12666426530632 -125.21110165993741 0 -125.21110165993741 -37.43976921261492 0 0 0 0 -84.821704524365487 59.489280346915621 0 59.489280346915621 82.61525564949261 0 0 0 0 34.234102313508629 51.522526717533765 0 51.522526717533765 9.4584358856336621 0 0 0 0 -92.682033924560528 28.788701215642504 0 28.788701215642504 140.40502168073726 0 0 0 0 -1.3345747985964067 0.12040763469616422 0 0.12040763469616422 0.29821000259684638 0 0 0 0 -33.572941278118257 19.4029914850924 0 19.4029914850924 24.94921464989639 0 0 0 0 14.46270248304063 24.418255007156404 0 24.418255007156404 -15.17694143501285 0 0 0 0 -0.69825947182187065 4.3639726662634075 0 4.3639726662634075 0.34958258532070374 0 0 0 0 1.4570028426242061 69.940222813427681 0 69.940222813427681 175.677774562384 0 0 0 0 -0.77862025720241945 71.391620342350507 0 71.391620342350507 175.16722602839582 0 0 0 0 59.554250733694062 147.17087243840797 0 147.17087243840797 239.58532435575034 0 0 0 0 -14.434234806656605 32.952691099097137 0 32.952691099097137 216.2982030516323 0 0 0 0 -2.7840521224324135 0.18608684101062067 0 0.18608684101062067 0.47780378595726347 0 0 0 0 42.365235731187568 62.052060225098103 0 62.052060225098103 148.18264269491192 0 0 0 0 -4.8223961694384343 22.271672075430615 0 22.271672075430615 144.89025980787119 0 0 0 0 -33.463331529164861 94.668499607581907 0 94.668499607581907 135.81425696390215 0 0 0 0 6.0148916809703223 51.708927941785078 0 51.708927941785078 144.88880971170147 0 0 0 0 -48.979729283790221 40.978636143721815 0 40.978636143721815 97.273291843339393 0 0 0 0 -33.969285775005119 8.3192808945495926 0 8.3192808945495926 141.71115871146321 0 0 0 0 27.183483480050199 26.241075640329655 0 26.241075640329655 98.023998596079764 0 0 0 0 -159.81182369800808 225.87010198390635 0 225.87010198390635 162.16706379285461 0 0 0 0 -68.099101775216695 181.52860812561994 0 181.52860812561994 -147.89941931625071 0 0 0 0 7.9821660723091554 17.697776665460509 0 17.697776665460509 -6.4758211054987527 0 0 0 0 -115.76567960600278 78.639346638436109 0 78.639346638436109 32.885440963447763 0 0 0 0 -45.056350809579286 43.3504870020368 0 43.3504870020368 -12.031794974496592 0 0 0 0 -30.695763727479786 37.480041572015509 0 37.480041572015509 2.2570562418118811 0 0 0 0 76.428858214054344 73.314206461735012 0 73.314206461735012 -51.824674247865914 0 0 0 0 -25.717719036822018 50.48328628638501 0 50.48328628638501 10.246676820417633 0 0 0 0 -108.1690893752675 99.248629986890592 0 99.248629986890592 122.87745827196704 0 0 0 0 45.255359151131415 43.8203773439418 0 43.8203773439418 -17.707329916011076 0 0 0 0 -161.62027833861066 200.22164801805775 0 200.22164801805775 -67.673773304239148 0 0 0 0 15.333966214937391 0.53863520239974605 0 0.53863520239974605 -117.29865550904651 0 0 0 0 -5.8500769724414567 49.452613062432647 0 49.452613062432647 -219.80377041597967 0 0 0 0 -66.045188449799753 160.57704083073077 0 160.57704083073077 -204.3437134255073 0 0 0 0 -52.668381902214605 109.95066905158455 0 109.95066905158455 -60.854040987498593 0 0 0 0 232.2855809292123 89.518421093949655 0 89.518421093949655 -703.50413303117966 0 0 0 0 9.0442915064446368 10.010256492612513 0 10.010256492612513 11.689777292203871 0 0 0 0 -349.58166713452374 224.76890220844507 0 224.76890220844507 -65.816503813519375 0 0 0 0 -209.3024965399527 169.17219963482057 0 169.17219963482057 -65.965659138280898 0 0 0 0 -208.88649762436398 185.90227812353987 0 185.90227812353987 -160.68520002740115 0 0 0 0 -287.72098320708028 225.32980973967642 0 225.32980973967642 -178.66614932354423 0 0 0 0 -297.24912572509493 210.71442862942058 0 210.71442862942058 -159.4564426568686 0 0 0 0 -300.4072165635298 188.04136256901256 0 188.04136256901256 -188.12049011895942 0 0 0 0 -211.85590568023326 163.06914759727078 0 163.06914759727078 -41.408432854601415 0 0 0 0 -285.97037262431695 191.95458024086838 0 191.95458024086838 20.756345964298816 0 0 0 0 -308.86324841112946 207.391172419957 0 207.391172419957 -61.657485789241036 0 0 0 0 -119.65644668175082 88.152990066500934 0 88.152990066500934 77.843258136304939 0 0 0 0 -45.362698169436044 145.98753609406322 0 145.98753609406322 -675.70067546979408 0 0 0 0 -5.2165900151654512 8.9045482098418347 0 8.9045482098418347 31.370981319121881 0 0 0 0 -31.393046814628178 93.232286337988626 0 93.232286337988626 55.179982196725177 0 0 0 0 -6.2403327344752313 41.158700676834201 0 41.158700676834201 76.270236688424632 0 0 0 0 -105.45813967480353 148.18421366668917 0 148.18421366668917 -78.843296815284702 0 0 0 0 -202.87103880333598 164.83507704425756 0 164.83507704425756 -13.904465202118445 0 0 0 0 -95.764754952360818 108.79235408984459 0 108.79235408984459 4.9165771660336759 0 0 0 0 -351.88330130229633 99.241011206164785 0 99.241011206164785 12.254254583909642 0 0 0 0 -151.15695855527883 83.219959030277096 0 83.219959030277096 -129.21198137191823 0 0 0 0 -81.319065673014848 214.23353406440583 0 214.23353406440583 -76.466043201042339 0 0 0 0 4.896974137613114 30.515133461388015 0 30.515133461388015 18.107609652394132 0 0 0 0 -63.466434417293385 53.745509507136603 0 53.745509507136603 77.501691525329079 0 0 0 0 -25.312849938020534 18.695113512835576 0 18.695113512835576 71.958138708278838 0 0 0 0 -62.65831075249298 55.679018255908886 0 55.679018255908886 77.845164665988705 0 0 0 0 -63.037461623459421 56.435486309129601 0 56.435486309129601 77.984579579075216 0 0 0 0 -45.915868986405258 51.061416456741426 0 51.061416456741426 60.553145132005739 0 0 0 0 -47.413006399059668 57.40560383043703 0 57.40560383043703 61.408345851868944 0 0 0 0 -59.185718636224919 46.974726765174637 0 46.974726765174637 64.402773651243479 0 0 0 0 -66.716845561211812 53.008137956523569 0 53.008137956523569 78.878362584101524 0 0 0 0 -64.279607393487822 50.84495646947471 0 50.84495646947471 69.716980058270565 0 0 0 0 -65.639026001357706 50.096869862274616 0 50.096869862274616 52.212489925404952 0 0 0 0 -69.486525638625608 61.771839466200618 0 61.771839466200618 61.2176738585149 0 0 0 0 -24.138297731715284 66.062480362294082 0 66.062480362294082 34.926600145399789 0 0 0 0 -71.923553310800344 54.863528558002145 0 54.863528558002145 49.351134623921098 0 0 0 0 -32.238571704669866 43.111667993470377 0 43.111667993470377 21.66332126244906 0 0 0 0 55.114363167918782 62.631953147763852 0 62.631953147763852 7.9999119005005923 0 0 0 0 -68.280313012859551 36.786931108741555 0 36.786931108741555 15.798952500510495 0 0 0 0 -10.387469889124446 60.57030190942433 0 60.57030190942433 15.453391283625578 0 0 0 0 12.601797369914991 95.936379408286143 0 95.936379408286143 28.399213296132018 0 0 0 0 -62.239014437258447 41.81162771651816 0 41.81162771651816 65.359309637686238 0 0 0 0 -14.423551796266111 39.381269974597672 0 39.381269974597672 64.930588503768377 0 0 0 0 -2.3818319678975968 93.416973696206696 0 93.416973696206696 -61.066205022711074 0 0 0 0 -29.455191571687465 134.56276358829382 0 134.56276358829382 -21.198493625648553 0 0 0 0 -35.393007928315399 75.423681844412386 0 75.423681844412386 -33.655228295256791 0 0 0 0 -112.27935140038608 70.099427268723957 0 70.099427268723957 -6.1746560126775876 0 0 0 0 -39.920106370053134 43.5393584000456 0 43.5393584000456 47.260598714631769 0 0 0 0 -73.198584889698068 25.431558529058236 0 25.431558529058236 57.462748974603372 0 0 0 0 -40.848401711509723 101.91091321031126 0 101.91091321031126 -7.5157474727966473 0 0 0 0 -162.47342629335617 178.96971152962942 0 178.96971152962942 49.871279808692634 0 0 0 0 -287.19060058063042 105.49073811012204 0 105.49073811012204 74.164459681294829 0 0 0 0 44.001233149159816 -8.5049542375491001 0 -8.5049542375491001 97.450289618169336 0 0 0 0 5.9764976050267329 8.5448553872119817 0 8.5448553872119817 8.5337208700738643 0 0 0 0 -0.6160616555607703 280.66969550873546 0 280.66969550873546 8.7414735004131217 0 0 0 0 -12.361262849148446 45.899219277977267 0 45.899219277977267 26.945289924781918 0 0 0 0 313.18013252154196 -230.87899331019435 0 -230.87899331019435 -98.461151310075365 0 0 0 0 402.90663199882511 140.34667931877448 0 140.34667931877448 -417.3065138450329 0 0 0 0 -225.26481955488816 452.89019619523242 0 452.89019619523242 -309.92545766194235 0 0 0 0 -21.346329335819973 54.875835067644402 0 54.875835067644402 58.41059396113269 0 0 0 0 -21.346329335822247 54.875835067678508 0 54.875835067678508 58.410593961103586 0 0 0 0 -37.732872554679489 87.300305314201978 0 87.300305314201978 64.522266246895015 0 0 0 0 -107.05897162971814 100.72693633659946 0 100.72693633659946 69.482941182024661 0 0 0 0 -50.524341163533791 67.68656192086155 0 67.68656192086155 52.749817426039954 0 0 0 0 -55.773498147440478 71.973925612057428 0 71.973925612057428 49.490433964674594 0 0 0 0 -24.452770903319106 49.546838638153531 0 49.546838638153531 55.435387735771656 0 0 0 0 -66.571090414814535 61.684401496495411 0 61.684401496495411 58.869420054412331 0 0 0 0 -47.633799582145002 52.821631650811469 0 52.821631650811469 62.869200277378695 0 0 0 0 -45.756047440278053 39.638428247792035 0 39.638428247792035 49.160519392193237 0 0 0 0 -2.6915184727167798 32.034072440755153 0 32.034072440755153 44.604534330683236 0 0 0 0 -26.175610247399163 56.403725029314955 0 56.403725029314955 57.89263527719595 0 0 0 0 -23.715599229501095 45.534463641008188 0 45.534463641008188 52.301751901839452 0 0 0 0 -29.099744904291583 43.816077398929338 0 43.816077398929338 59.984673828927043 0 0 0 0 -21.346329335810879 54.875835067668959 0 54.875835067668959 58.410593961096311 0 0 0 0 -39.547681697502412 54.606671636802275 0 54.606671636802275 59.128305251513666 0 0 0 0 -106.58508169122706 115.93030566559901 0 115.93030566559901 90.30360332949931 0 0 0 0 -19.237290634919191 55.109846454295621 0 55.109846454295621 17.497196856042137 0 0 0 0 -31.326908971082212 40.325490217339429 0 40.325490217339429 16.060352965721322 0 0 0 0 -6.2430462235670348 61.878697841295434 0 61.878697841295434 23.812248508300399 0 0 0 0 -27.20604564921598 45.792861109252847 0 45.792861109252847 -11.118130929656267 0 0 0 0 -84.238699623849243 85.421001210281247 0 85.421001210281247 76.903102108121857 0 0 0 0 53.021425260477443 64.993348614433543 0 64.993348614433543 -41.69764627230618 0 0 0 0 -25.66138398494877 133.15090128045813 0 133.15090128045813 -130.75459028539262 0 0 0 0 59.849328261082498 39.935733323189737 0 39.935733323189737 8.2627255952653904 0 0 0 0 54.796777847926023 108.44539896525293 0 108.44539896525293 -23.668517658348719 0 0 0 0 75.199156017030418 176.56786179780511 0 176.56786179780511 -30.779518931616622 0 0 0 0 36.069229753185937 164.39719265887834 0 164.39719265887834 -79.554641374743369 0 0 0 0 -28.769924332562368 137.40638899284386 0 137.40638899284386 -66.36321333473461 0 0 0 0 -81.084296830205858 157.03154144727159 0 157.03154144727159 -40.461244013251417 0 0 0 0 -80.426969453394122 113.00095475490525 0 113.00095475490525 -13.499343705079809 0 0 0 0 -158.46422021580656 144.60020484118286 0 144.60020484118286 29.755883397963771 0 0 0 0 -163.44244394290013 169.96313152617677 0 169.96313152617677 -52.58295258423459 0 0 0 0 -167.49966901942889 119.57119030026433 0 119.57119030026433 -38.247780294070253 0 0 0 0 -129.26123940959951 141.43898660457489 0 141.43898660457489 -80.860069749713148 0 0 0 0 -189.52262146605062 167.69019881948043 0 167.69019881948043 -91.95307581529778 0 0 0 0 -128.32073643803596 173.57945809950616 0 173.57945809950616 -126.87979435752641 0 0 0 0 -20.875678104595863 68.080050509001012 0 68.080050509001012 -237.5528869519112 0 0 0 0 -155.04173064108545 139.29744552642933 0 139.29744552642933 -139.9552607880687 0 0 0 0 -152.38921103024404 142.28223108663951 0 142.28223108663951 -202.16087518450513 0 0 0 0 -82.174070231873884 146.68170904198632 0 146.68170904198632 -67.966792246123077 0 0 0 0 -83.118870591722953 153.65797878615558 0 153.65797878615558 -118.13016117543521 0 0 0 0 59.666744120222575 147.88040766026097 0 147.88040766026097 -128.80284271256096 0 0 0 0 42.262332092715951 162.70838972121783 0 162.70838972121783 -94.4412947148885 0 0 0 0 -27.86627499385213 164.64761185735915 0 164.64761185735915 -93.192023841082118 0 0 0 0 -95.718842993672297 63.92035700037377 0 63.92035700037377 23.574154916532279 0 0 0 0 -26.35928643666557 97.04995176457669 0 97.04995176457669 -17.070411631444586 0 0 0 0 -40.84241664424917 29.087954787319177 0 29.087954787319177 7.5669313707730907 0 0 0 0 4.1867619162258052 71.61086816380157 0 71.61086816380157 40.782084922939248 0 0 0 0 -25.799317638969114 37.122031202972721 0 37.122031202972721 53.384502054723271 0 0 0 0 -35.98645601653152 56.511330337929394 0 56.511330337929394 38.889087008617935 0 0 0 0 -58.817310798371182 39.716707107862021 0 39.716707107862021 28.31212935342046 0 0 0 0 -127.19122587761376 77.298964963105391 0 77.298964963105391 51.139912422433554 0 0 0 0 -119.1160120635468 75.327081264422304 0 75.327081264422304 30.669491325010313 0 0 0 0 -158.12930537767897 90.63198831333284 0 90.63198831333284 67.850328331958735 0 0 0 0 -140.74731445641191 119.7241437846933 0 119.7241437846933 20.092590317086433 0 0 0 0 -186.57787152574383 71.652873964390892 0 71.652873964390892 -5.8278213701632922 0 0 0 0 -193.00789227273708 144.19468379463433 0 144.19468379463433 8.6382457601030183 0 0 0 0 -183.23797918944183 93.336443699248775 0 93.336443699248775 27.086555046133071 0 0 0 0 -201.84070495282504 56.519891631454811 0 56.519891631454811 -10.30985703795676 0 0 0 0 -102.01896749782463 47.869093478686409 0 47.869093478686409 -10.198667194832524 0 0 0 0 -179.90467268412976 108.21588245500789 0 108.21588245500789 -44.162495350232348 0 0 0 0 -243.50738445464958 49.951095071737655 0 49.951095071737655 -88.060711138306942 0 0 0 0 -244.43596614895068 174.17116339108179 0 174.17116339108179 -76.4079010545247 0 0 0 0 -197.34137681057564 132.62487623575726 0 132.62487623575726 -128.38134088052902 0 0 0 0 -336.22409785247874 186.38374051553546 0 186.38374051553546 -148.39520439641637 0 0 0 0 -267.67980822893878 83.713085287883587 0 83.713085287883587 -239.09579788969131 0 0 0 0 -414.93954732418933 15.018478521204088 0 15.018478521204088 -260.19778745590156 0 0 0 0 -449.90986976066779 226.53727035576594 0 226.53727035576594 -225.12513855236466 0 0 0 0 -18.325276393177774 143.06596906863342 0 143.06596906863342 -378.40800828061674 0 0 0 0 -177.32035936063585 -38.397545804305992 0 -38.397545804305992 -325.91530866993708 0 0 0 0 -328.69023821602605 100.61184635828977 0 100.61184635828977 -113.91283456121528 0 0 0 0 38.032224876442342 93.583151184760936 0 93.583151184760936 -284.0646511081577 0 0 0 0 93.141158416830876 188.20032234757673 0 188.20032234757673 -282.19668344065587 0 0 0 0 -69.336260346910422 33.632711793932685 0 33.632711793932685 -110.50573188738053 0 0 0 0 -126.91106705667698 66.436064245013768 0 66.436064245013768 -111.47781068582844 0 0 0 0 -9.3969196651632956 66.664376626686135 0 66.664376626686135 35.970521749746695 0 0 0 0 100.28572099502344 157.99517587948503 0 157.99517587948503 -58.757773601755616 0 0 0 0 34.607006416574563 137.08282083788674 0 137.08282083788674 -63.17573878577241 0 0 0 0 159.83364485140919 305.5021437013711 0 305.5021437013711 -166.47264281457319 0 0 0 0 -1.8513944842698038 96.506634624206526 0 96.506634624206526 234.35093294201579 0 0 0 0 93.755120494156472 187.97681257873137 0 187.97681257873137 -316.76325979483954 0 0 0 0 117.6322302512217 427.12922950834945 0 427.12922950834945 -518.88043526045726 0 0 0 0 -4.933673842807039 5.3134089725558589 0 5.3134089725558589 6.8975764792180509 0 0 0 0 204.86009768063013 587.32803265158691 0 587.32803265158691 -352.03073482637188 0 0 0 0 268.86563172904789 243.81641223813131 0 243.81641223813131 -500.05463916947338 0 0 0 0 -46.337250024407695 84.275235217559384 0 84.275235217559384 -357.99639254507201 0 0 0 0 -349.8568143081211 -21.894370633555809 0 -21.894370633555809 -564.12347624344329 0 0 0 0 -196.18556806408014 -67.038262955364189 0 -67.038262955364189 -607.41495059442241 0 0 0 0 -1327.3700776336336 75.271717557974625 0 75.271717557974625 -477.6202959537186 0 0 0 0 -321.46422802717461 182.74788255117346 0 182.74788255117346 -470.81517000899476 0 0 0 0 430.63792389020091 357.16198115926818 0 357.16198115926818 -647.17034714383772 0 0 0 0 2.5022672358656424 3.8483874430917027 0 3.8483874430917027 0.2575274572025279 0 0 0 0 46.298859068832826 47.821222757869236 0 47.821222757869236 34.755494327282804 0 0 0 0 58.302536263312504 40.00451387089106 0 40.00451387089106 38.508826313806821 0 0 0 0 55.014984780245868 -28.530194762068732 0 -28.530194762068732 -35.573885924732167 0 0 0 0 114.87926559139714 19.369842373693416 0 19.369842373693416 -10.199391475292941 0 0 0 0 34.28987048038698 76.093106553696657 0 76.093106553696657 76.718769498977053 0 0 0 0 93.597543035262788 97.345779350292105 0 97.345779350292105 -40.525594467078918 0 0 0 0 2.8257108735497631 34.256902236896856 0 34.256902236896856 12.235575058145635 0 0 0 0 -233.49427498085424 -96.145423016252607 0 -96.145423016252607 -174.89115233096891 0 0 0 0 -331.78383382102038 236.4584746956798 0 236.4584746956798 -90.62877950337861 0 0 0 0 -185.16174096331815 103.09102395307673 0 103.09102395307673 27.072708450816208 0 0 0 0 -42.321154435958306 -2.3260109472439581 0 -2.3260109472439581 35.395768490667251 0 0 0 0 -44.54530947447347 109.73309208409592 0 109.73309208409592 37.467363848356399 0 0 0 0 113.91587132897985 109.47614311597863 0 109.47614311597863 34.109198294927182 0 0 0 0 17.35821922418836 39.249189797923918 0 39.249189797923918 54.782461027924001 0 0 0 0 43.847457321255206 24.938159451958654 0 24.938159451958654 39.984004224303135 0 0 0 0 49.132249278634845 55.989432783855591 0 55.989432783855591 58.25947215342967 0 0 0 0 -93.211092559518875 60.95604539134456 0 60.95604539134456 76.930856110539025 0 0 0 0 -95.028139309870312 24.924173879359842 0 24.924173879359842 29.348686322854746 0 0 0 0 4.2078553790850606 -1.700101238363203 0 -1.700101238363203 -3.2555565055793387 0 0 0 0 -315.81897326005856 -36.17622463695443 0 -36.17622463695443 56.851301420681921 0 0 0 0 -120.60858613574237 89.695099765785017 0 89.695099765785017 23.096458318035729 0 0 0 0 -162.79970187157232 73.12093958490027 0 73.12093958490027 148.14532107818195 0 0 0 0 -26.918347917875508 128.65378912834331 0 128.65378912834331 123.75162141939927 0 0 0 0 -23.671656348800752 94.528936034246726 0 94.528936034246726 -105.25585013018281 0 0 0 0 -96.191235405101907 105.63745846967868 0 105.63745846967868 122.57015735951336 0 0 0 0 -42.280429266611463 75.066217272811173 0 75.066217272811173 65.757443733509717 0 0 0 0 -49.533572550964095 60.456319509382013 0 60.456319509382013 -23.957543705006756 0 0 0 0 -43.189568446322127 40.351108734712923 0 40.351108734712923 -8.5284382694869194 0 0 0 0 -21.458182647700596 55.632710059471719 0 55.632710059471719 5.0519675895538967 0 0 0 0 137.66588066861732 66.428211365477182 0 66.428211365477182 -136.2004041456039 0 0 0 0 9.1025675410672022 8.3338548461996496 0 8.3338548461996496 7.865824349579384 0 0 0 0 -107.3844423699411 22.93159004929521 0 22.93159004929521 69.878790302916968 0 0 0 0 -30.537344041687902 48.441893101189635 0 48.441893101189635 2.2136378009890905 0 0 0 0 -64.921588663375587 35.737088153712648 0 35.737088153712648 56.004609238279954 0 0 0 0 -26.825872092479301 54.518149570689502 0 54.518149570689502 -0.88289052999939699 0 0 0 0 -37.739069690103044 29.364823719838341 0 29.364823719838341 12.253550475007188 0 0 0 0 -15.179005953722942 48.653864490008843 0 48.653864490008843 -14.910874777943604 0 0 0 0 -18.250764175308632 73.344589445610069 0 73.344589445610069 -6.4597423060326662 0 0 0 0 71.478250438580289 80.002364283005591 0 80.002364283005591 -24.593964993248846 0 0 0 0 131.96039243147607 24.413673277158523 0 24.413673277158523 -122.40856092754984 0 0 0 0 -64.992308097211207 65.756353881713039 0 65.756353881713039 10.561258432615432 0 0 0 0 -48.694977863167878 41.952539309750136 0 41.952539309750136 -27.754340983356087 0 0 0 0 79.543645083307638 87.885251010120555 0 87.885251010120555 22.662862496828893 0 0 0 0 -44.751969180342712 51.431853590301216 0 51.431853590301216 6.5670052214409225 0 0 0 0 -8.1584186140983093 10.184845439923908 0 10.184845439923908 -13.329280363747849 0 0 0 0 -56.201695624855347 38.58967729487631 0 38.58967729487631 18.539295160124311 0 0 0 0 -57.247172716164641 57.893078668836097 0 57.893078668836097 22.799563908411073 0 0 0 0 -34.186029910022626 33.645195018816594 0 33.645195018816594 19.63552224922023 0 0 0 0 -23.399427137555904 129.0909274816222 0 129.0909274816222 -184.31116897589163 0 0 0 0 -1.2377738743375346 0.50619695980651436 0 0.50619695980651436 1.7841324799047555 0 0 0 0 -26.940955502512224 7.1349360749372863 0 7.1349360749372863 110.01748106679406 0 0 0 0 -66.224406011546307 104.92174602539944 0 104.92174602539944 -63.720276362553705 0 0 0 0 -61.095086409432952 52.834208404343485 0 52.834208404343485 -32.200979586330504 0 0 0 0 -26.008122961467762 50.065383943456546 0 50.065383943456546 9.2353773719501895 0 0 0 0 -50.664685401038696 110.7427668670623 0 110.7427668670623 -28.122727780435525 0 0 0 0 -55.112777126312722 31.797819408206124 0 31.797819408206124 -109.09956023386803 0 0 0 0 -3.8308103314198547 12.263251504120866 0 12.263251504120866 -12.677149658850452 0 0 0 0 -42.769752083186461 59.966770574281185 0 59.966770574281185 -20.590082963210254 0 0 0 0 -1.9372557958849939 129.56578927898045 0 129.56578927898045 -51.335000382775434 0 0 0 0 27.874293183675036 120.40850902342027 0 120.40850902342027 45.170926351278467 0 0 0 0 -150.34273434926581 103.4302404007758 0 103.4302404007758 48.53700541950252 0 0 0 0 -19.4151339397431 172.78921528905175 0 172.78921528905175 -1.7621687677064983 0 0 0 0 -67.172022987506352 99.861571763028223 0 99.861571763028223 297.9094636089676 0 0 0 0 -14.990887433108583 119.27408720547214 0 119.27408720547214 20.277185390104933 0 0 0 0 5.3955501863893005 90.290892652482853 0 90.290892652482853 29.121771014710248 0 0 0 0 -9.9665465918887719 6.3463518029740555 0 6.3463518029740555 7.5252626666533793 0 0 0 0 24.489665730005072 92.275827638931332 0 92.275827638931332 -14.988091390512636 0 0 0 0 23.674166820579558 161.30009373555458 0 161.30009373555458 -151.89141013391782 0 0 0 0 55.311314538826991 158.83109463160508 0 158.83109463160508 -154.39238167184112 0 0 0 0 -20.47599525511032 144.9278784641574 0 144.9278784641574 -195.90280298627022 0 0 0 0 -140.51095931251075 236.04411950984263 0 236.04411950984263 -121.96132448306344 0 0 0 0 9.0514990296287579 133.18467119713569 0 133.18467119713569 -56.653330195689705 0 0 0 0 -85.302589699946111 270.52895083103158 0 270.52895083103158 -231.31966812343035 0 0 0 0 16.899749217700446 99.389867011359456 0 99.389867011359456 -71.653565302118295 0 0 0 0 47.997160192622687 144.35664362079206 0 144.35664362079206 -119.03755470037868 0 0 0 0 -7.5104576777084731 190.98427937150518 0 190.98427937150518 -158.19189194340652 0 0 0 0 -52.128231521768612 142.82194510818954 0 142.82194510818954 -58.945064283899683 0 0 0 0 -62.451746107173676 -53.069802665276711 0 -53.069802665276711 6.4749561006906333 0 0 0 0 58.907390911233961 101.8697366590286 0 101.8697366590286 -423.37154374313104 0 0 0 0 -0.71757598676512657 4.9028336919224245 0 4.9028336919224245 -4.0437110805170029 0 0 0 0 34.988819339807378 69.11822545649602 0 69.11822545649602 -209.64358422414512 0 0 0 0 -291.69392783970397 142.28528246830115 0 142.28528246830115 106.13964784755171 0 0 0 0 -194.06866460992569 -211.25583803845643 0 -211.25583803845643 -180.95773636533886 0 0 0 0 -59.897393161074433 326.4802823308155 0 326.4802823308155 -62.834054865677899 0 0 0 0 -58.755498974671355 104.89144889885233 0 104.89144889885233 86.949662148377001 0 0 0 0 -38.740537405763462 52.732256373070413 0 52.732256373070413 12.856897894820577 0 0 0 0 -20.656179584191165 52.03680535424057 0 52.03680535424057 23.046949916106236 0 0 0 0 -24.554083325303509 5.9511263058880104 0 5.9511263058880104 96.868682646648267 0 0 0 0 25.048217628660495 102.70344045888214 0 102.70344045888214 -24.218347544265271 0 0 0 0 9.8086911618156591 70.215053678947697 0 70.215053678947697 103.86733319614359 0 0 0 0 30.98892219820118 101.74087925835192 0 101.74087925835192 10.972161247515828 0 0 0 0 51.071620302343945 131.11631616872546 0 131.11631616872546 62.727033640803711 0 0 0 0 22.171323058384587 148.15585489823025 0 148.15585489823025 143.63544574672414 0 0 0 0 27.124557830989943 97.169747602372809 0 97.169747602372809 72.199347191955894 0 0 0 0 -23.050876402984983 23.960055339068532 0 23.960055339068532 -22.111724089859514 0 0 0 0 30.247419398024249 95.187420234454066 0 95.187420234454066 90.174478167151392 0 0 0 0 -61.533792342022934 62.572076421452948 0 62.572076421452948 100.27594900708209 0 0 0 0 -37.790437747440592 119.96191384784106 0 119.96191384784106 81.548437382334669 0 0 0 0 -42.553264131893229 47.384056326064638 0 47.384056326064638 82.056789397967805 0 0 0 0 -39.871205963041575 50.316505641880212 0 50.316505641880212 84.228788785163488 0 0 0 0 -32.989690760798112 73.640546546661426 0 73.640546546661426 82.61088244698152 0 0 0 0 2.6751825051760534 94.352796193697941 0 94.352796193697941 97.099179592308815 0 0 0 0 -15.113366890062025 110.04407599459319 0 110.04407599459319 153.24870803137674 0 0 0 0 -27.891349804586014 28.874286581280074 0 28.874286581280074 -26.867026959091632 0 0 0 0 -32.885836169472896 95.965084476545599 0 95.965084476545599 107.17001347323639 0 0 0 0 -20.07935466580966 62.485311119206926 0 62.485311119206926 82.863513357828197 0 0 0 0 -42.131465580459917 201.15625965388608 0 201.15625965388608 60.428669311317208 0 0 0 0 -33.765130871397815 41.973503398333307 0 41.973503398333307 -6.8197553807608813 0 0 0 0 24.646344222594053 -71.124260711789248 0 -71.124260711789248 99.215684103386593 0 0 0 0 -89.201209282156924 271.04394301856428 0 271.04394301856428 418.53867965501559 0 0 0 0 2.3004920361685208 -3.0574841545314513 0 -3.0574841545314513 -0.24683368542364104 0 0 0 0 27.836919825655059 47.47658040195347 0 47.47658040195347 -115.4256649021554 0 0 0 0 6.6933577585769228 13.272615280870575 0 13.272615280870575 5.4714394840776297 0 0 0 0 3.5922064474434592 98.987031162985659 0 98.987031162985659 130.82020080080298 0 0 0 0 64.973877427917614 77.55289734656435 0 77.55289734656435 -10.267283582063101 0 0 0 0 38.701801596376754 42.621714077598881 0 42.621714077598881 117.56226436495854 0 0 0 0 31.961153759007175 106.91364713585062 0 106.91364713585062 80.535100356239127 0 0 0 0 827.14087453397224 583.63311741137568 0 583.63311741137568 95.585257621984056 0 0 0 0 -132.57314765705814 257.34821959361125 0 257.34821959361125 284.6400915102713 0 0 0 0 1177.6308589434775 552.34159543711212 0 552.34159543711212 -396.8725035383145 0 0 0 0 2868.4470456832642 981.30472904130329 0 981.30472904130329 -330.47629673842312 0 0 0 0 -10.483081008806039 70.32775074482015 0 70.32775074482015 81.234756473262678 0 0 0 0 -152.56096591897949 179.10859189621988 0 179.10859189621988 -9.1479233218028355 0 0 0 0 -39.713902715120042 46.282554227422395 0 46.282554227422395 34.337317143532999 0 0 0 0 370.37402047943033 505.42802246165502 0 505.42802246165502 483.13198067039048 0 0 0 0 38.415963711787981 22.43888796284385 0 22.43888796284385 5.8502964516549074 0 0 0 0 1410.0723205927789 -336.75822486020843 0 -336.75822486020843 -597.31868843860866 0 0 0 0 14.705146932416312 -2.3183335114245978 0 -2.3183335114245978 1.1046124443837864 0 0 0 0 1012.819638506131 1856.4800984534304 0 1856.4800984534304 2692.6412822133425 0 0 0 0 3026.6215988555778 143.70673444393833 0 143.70673444393833 1280.9087579527986 0 0 0 0 1857.3857361796254 2104.051279011408 0 2104.051279011408 489.61693024316992 0 0 0 0 105.55113592877751 187.50933088546117 0 187.50933088546117 731.05688249698142 0 0 0 0 48.405747384404094 87.526286876398444 0 87.526286876398444 0.37374506330525037 0 0 0 0 47.015278494596714 96.627014844674704 0 96.627014844674704 19.415219203562856 0 0 0 0 2.299134827109242 13.207899238319868 0 13.207899238319868 -5.5220356616497668 0 0 0 0 2445.9672728963196 719.59463777925157 0 719.59463777925157 -50.326922800479224 0 0 0 0 1069.2402182886435 398.19708689993422 0 398.19708689993422 -116.56851576001282 0 0 0 0 768.02640599031292 1450.1828640240001 0 1450.1828640240001 273.37063722682069 0 0 0 0 1455.6696542266436 1246.1036551905345 0 1246.1036551905345 277.22524583630729 0 0 0 0 1753.5715861015633 1466.9889762113853 0 1466.9889762113853 420.34527738549514 0 0 0 0 627.41493273571336 993.23499075621669 0 993.23499075621669 1316.0454836847093 0 0 0 0 -1.9908461446929806 12.383950973361422 0 12.383950973361422 13.223503298839788 0 0 0 0 -138.65744566350622 77.983023446076913 0 77.983023446076913 1020.7205527436308 0 0 0 0 489.95859631823259 1414.2271773244829 0 1414.2271773244829 1752.0451718822915 0 0 0 0 1287.7177874030021 1849.4700777719117 0 1849.4700777719117 1181.0627830120793 0 0 0 0 2398.2625650501359 1074.3056354635719 0 1074.3056354635719 492.52842935446824 0 0 0 0 872.87079963082215 611.85623354178824 0 611.85623354178824 376.86377846122468 0 0 0 0 1166.4002541803129 1316.403502615497 0 1316.403502615497 795.30021389636386 0 0 0 0 985.1498456064146 -125.48357770252915 0 -125.48357770252915 823.13575706833035 0 0 0 0 465.84973686313606 -410.66878086209726 0 -410.66878086209726 -39.884123254276801 0 0 0 0 698.76497041886614 445.03621862 0 445.03621862 53.904360968816036 0 0 0 0 594.21325770338626 184.0904816884487 0 184.0904816884487 15.545456912885129 0 0 0 0 -566.19360849820077 60.996987371837349 0 60.996987371837349 532.95551440849704 0 0 0 0 49.504427681938978 109.11577528966154 0 109.11577528966154 95.794436400352424 0 0 0 0 36.784999796207558 85.832932465405975 0 85.832932465405975 58.558139639935689 0 0 0 0 -46.198253933953211 36.740031298676485 0 36.740031298676485 52.906113022564895 0 0 0 0 -2.6228578903906055 33.128364990029667 0 33.128364990029667 -11.8206923688264 0 0 0 0 25.675009138736641 148.38222359932479 0 148.38222359932479 112.28136564897432 0 0 0 0 34.415086970358971 88.32688793424677 0 88.32688793424677 32.101003296334966 0 0 0 0 -51.386613701382885 99.887125923065469 0 99.887125923065469 37.566413017586456 0 0 0 0 9.624138429746381 105.05172588413188 0 105.05172588413188 97.624524780733736 0 0 0 0 10.043961120696082 29.38825363338357 0 29.38825363338357 -9.1496551432824731 0 0 0 0 77.454954539542086 106.15931137809821 0 106.15931137809821 15.358661905163899 0 0 0 0 27.343648391237366 76.383965582966994 0 76.383965582966994 74.92033829580032 0 0 0 0 54.501093155478884 115.47617442799128 0 115.47617442799128 12.688386330872163 0 0 0 0 -30.677507321722871 40.134521872335654 0 40.134521872335654 34.225414160256648 0 0 0 0 85.846840586476901 60.975207160636728 0 60.975207160636728 -9.5807413847469434 0 0 0 0 83.281464184379729 57.081108276520354 0 57.081108276520354 -13.288830474108181 0 0 0 0 71.072891167391305 55.316062714071819 0 55.316062714071819 0.95230315924313302 0 0 0 0 204.04785309005092 180.16380860958634 0 180.16380860958634 -55.380633977829348 0 0 0 0 86.283532669534907 57.181175693533987 0 57.181175693533987 -16.406409851200806 0 0 0 0 23.098338650732824 46.211309456858999 0 46.211309456858999 -39.952888875989402 0 0 0 0 79.74400140142825 39.969395842701488 0 39.969395842701488 -37.333509397307353 0 0 0 0 85.662089613972057 28.980114943411991 0 28.980114943411991 -25.725374165436733 0 0 0 0 82.376886333158836 50.599652258374817 0 50.599652258374817 -1.8160741255269386 0 0 0 0 79.682276205156086 39.641647601179102 0 39.641647601179102 -44.557115326291751 0 0 0 0 253.85221734805964 21.997740262369007 0 21.997740262369007 -145.64237221882649 0 0 0 0 11.556924570336829 37.551424557978734 0 37.551424557978734 -35.374686217202338 0 0 0 0 61.874777596764034 35.529043927757812 0 35.529043927757812 -31.627787669103782 0 0 0 0 232.53199514587686 118.51490251005043 0 118.51490251005043 -41.977500015134865 0 0 0 0 -166.51334230271459 222.40654853527667 0 222.40654853527667 44.279596860935271 0 0 0 0 97.113437236810569 40.936439204119779 0 40.936439204119779 -23.375475354153537 0 0 0 0 235.82831423667085 116.74273307394287 0 116.74273307394287 -3.4964059160283796 0 0 0 0 -0.89209343624881399 3.5326218249838348 0 3.5326218249838348 -16.694957439269814 0 0 0 0 222.63145540114783 111.92726873782431 0 111.92726873782431 0.67987100098616793 0 0 0 0 214.37445924662461 116.85278235341775 0 116.85278235341775 45.244214031310548 0 0 0 0 531.62053971308342 128.5256986480872 0 128.5256986480872 15.211813738022101 0 0 0 0 110.11127263910021 12.455913746917304 0 12.455913746917304 28.36859237805038 0 0 0 0 183.13366681429034 48.55579266451241 0 48.55579266451241 58.830309147931985 0 0 0 0 7.8040271953128126 13.764394905371091 0 13.764394905371091 -19.088302792447152 0 0 0 0 197.33489270228893 98.484473780961707 0 98.484473780961707 -12.854320884864137 0 0 0 0 4.8215032793477235 15.59743167954251 0 15.59743167954251 6.643495466267396 0 0 0 0 116.48349551713909 51.050394959598634 0 51.050394959598634 -0.97228504232771229 0 0 0 0 -6.9567968195834737 16.528712237301264 0 16.528712237301264 7.4479347636556916 0 0 0 0 152.17345568149176 110.91747168038273 0 110.91747168038273 25.618549713097309 0 0 0 0 298.32425135986523 839.41267625764112 0 839.41267625764112 372.2210713043678 0 0 0 0 800.92965632319647 684.20639512306184 0 684.20639512306184 521.94022362508258 0 0 0 0 737.5551329603768 290.02911081636739 0 290.02911081636739 -424.37332032024278 0 0 0 0 1140.7543555271986 1297.8457848704566 0 1297.8457848704566 1118.7235210342969 0 0 0 0 1024.1223290133057 724.00462841633816 0 724.00462841633816 371.59021681936792 0 0 0 0 2013.0015758070076 969.08717915402485 0 969.08717915402485 740.34136869079157 0 0 0 0 794.77432594510901 460.64258436958698 0 460.64258436958698 545.45677558857096 0 0 0 0 -4567.016165706591 -2108.4300324302944 0 -2108.4300324302944 454.22294173017872 0 0 0 0 2461.1549391448643 2305.4700045085847 0 2305.4700045085847 976.13917591655627 0 0 0 0 -5.7160896745957643 3.2200743847342039 0 3.2200743847342039 7.0980871454368 0 0 0 0 -4284.7855437841936 -781.11400236266854 0 -781.11400236266854 433.2760514651618 0 0 0 0 403.36255334576708 1690.8151119704235 0 1690.8151119704235 1889.9209628250028 0 0 0 0 -906.66637988777802 -262.7802775909804 0 -262.7802775909804 -375.17559594938211 0 0 0 0 -1329.3240290794856 267.75879644568067 0 267.75879644568067 722.03912146345101 0 0 0 0 -214.67697892688739 805.59845056323684 0 805.59845056323684 364.86706171720652 0 0 0 0 -741.35609202506021 257.91792318764783 0 257.91792318764783 131.08317974707825 0 0 0 0 527.75814148380596 112.01195107733838 0 112.01195107733838 71.678783417022714 0 0 0 0 228.10018411770579 340.1274134671894 0 340.1274134671894 69.514203727005224 0 0 0 0 631.50617562983825 657.27069403544806 0 657.27069403544806 318.54841776023386 0 0 0 0 221.06252169791696 94.704193294588549 0 94.704193294588549 -7.7499195987111307 0 0 0 0 11.090611007166444 464.17071236694937 0 464.17071236694937 11.116862431930713 0 0 0 0 -408.57333404794917 388.82659810604491 0 388.82659810604491 158.03309784777957 0 0 0 0 -243.35381983719708 449.7147402505052 0 449.7147402505052 -114.76062845829711 0 0 0 0 -194.36453625509603 301.6837224859446 0 301.6837224859446 -64.368358932099 0 0 0 0 -1.97049773402901 7.6670665301127201 0 7.6670665301127201 3.1286641798856012 0 0 0 0 -225.42894892668119 -261.55263184000182 0 -261.55263184000182 12.880961961175444 0 0 0 0 0.0085158440731603544 8.3100014767030004 0 8.3100014767030004 29.603069970136858 0 0 0 0 206.24725712841609 256.87061338242654 0 256.87061338242654 -471.95277675064597 0 0 0 0 98.035033737221966 445.96664048240928 0 445.96664048240928 147.90113131325512 0 0 0 0 -161.78833951399429 -46.438508816371211 0 -46.438508816371211 24.636096850300291 0 0 0 0 4.9998835011242022 31.337019301118332 0 31.337019301118332 63.035738330361205 0 0 0 0 -439.92612228788857 96.797784045326921 0 96.797784045326921 49.902126884167956 0 0 0 0 -0.005621973832603544 8.2728275042104542 0 8.2728275042104542 29.633278949913347 0 0 0 0 1.9938821058636336 -2.4208038858202627 0 -2.4208038858202627 5.7307126145898994 0 0 0 0 165.72297939585405 368.68443278827908 0 368.68443278827908 717.35696959061352 0 0 0 0 170.95347766744089 409.32522269553283 0 409.32522269553283 975.38970933769633 0 0 0 0 -780.23656608063902 53.904278817466547 0 53.904278817466547 132.40304790006121 0 0 0 0 -5.7153700232051676 -5.9912079531088693 0 -5.9912079531088693 51.825487770828886 0 0 0 0 -717.72227133518027 243.29641988670483 0 243.29641988670483 131.73824103725565 0 0 0 0 1086.7709360399531 1659.8754364602557 0 1659.8754364602557 1334.0157841188047 0 0 0 0 565.49373942222155 539.96677464298955 0 539.96677464298955 758.00191623213186 0 0 0 0 -3.361114857966129 -3.3323703954943653 0 -3.3323703954943653 17.080570387162112 0 0 0 0 -0.34570446826579099 547.84892961202138 0 547.84892961202138 900.81254984168481 0 0 0 0 218.64812823344982 738.07478028868172 0 738.07478028868172 986.21619913892573 0 0 0 0 0.1034303823753225 695.38167495991229 0 695.38167495991229 325.96667660774983 0 0 0 0 -49.264951892415411 372.74942918524903 0 372.74942918524903 1053.0660417401086 0 0 0 0 -150.65102150573512 358.49322893629142 0 358.49322893629142 69.634434141497877 0 0 0 0 -138.06789791639312 702.72794246515241 0 702.72794246515241 -255.76257336522031 0 0 0 0 -455.73987094244512 571.89266823254911 0 571.89266823254911 351.2270997941705 0 0 0 0 56.150366398640472 862.47290847655563 0 862.47290847655563 467.05129993908122 0 0 0 0 -664.84963757140213 752.54961277889379 0 752.54961277889379 1837.2592097101151 0 0 0 0 -1284.1720588144235 741.78727636931035 0 741.78727636931035 45.651478751700779 0 0 0 0 -1924.6635863492847 576.17695223729788 0 576.17695223729788 383.54627546064148 0 0 0 0 -653.57739174076414 270.06676235111809 0 270.06676235111809 160.53238057239287 0 0 0 0 -1181.2462142800214 606.99894040395884 0 606.99894040395884 400.24543719981375 0 0 0 0 798.13915749764419 1100.5089801222312 0 1100.5089801222312 980.50202012342925 0 0 0 0 -24.160302083088823 11.027400598301739 0 11.027400598301739 18.616477909519048 0 0 0 0 -1975.138646071573 11.134396209659826 0 11.134396209659826 187.69064577745303 0 0 0 0 1069.7934588093049 1283.8998307666989 0 1283.8998307666989 932.89078439347213 0 0 0 0 952.12833162132301 991.2558100499773 0 991.2558100499773 1038.2661158180999 0 0 0 0 850.58318151568528 1365.2443099652301 0 1365.2443099652301 1024.2070864115485 0 0 0 0 589.44822176056914 1250.9681748420699 0 1250.9681748420699 1163.2354827578965 0 0 0 0 86.258702444232767 -422.31266399700326 0 -422.31266399700326 212.64630385873897 0 0 0 0 -964.14647201895423 485.88987351698779 0 485.88987351698779 -139.15239739040226 0 0 0 0 763.54782443749718 1199.8244013412077 0 1199.8244013412077 796.7317841972399 0 0 0 0 542.70161433666362 918.57161312420794 0 918.57161312420794 527.08507013857889 0 0 0 0 789.22368936607381 945.78653496925472 0 945.78653496925472 -113.14315187001193 0 0 0 0 468.75098743167473 991.52523937430306 0 991.52523937430306 1027.0084182224673 0 0 0 0 764.13846381555777 1195.1898327607196 0 1195.1898327607196 426.66490807724767 0 0 0 0 764.13846381552867 1195.1898327606359 0 1195.1898327606359 426.66490807739319 0 0 0 0 764.13846381555777 1195.1898327608214 0 1195.1898327608214 426.66490807720402 0 0 0 0 -1325.4719950954022 176.79833547879025 0 176.79833547879025 -280.26592746467577 0 0 0 0 -408.17857305383222 799.7267485404077 0 799.7267485404077 -3.4352680902738939 0 0 0 0 -1206.9039106291602 406.88153513379802 0 406.88153513379802 -6.559534223182709 0 0 0 0 -1204.8488607802719 616.79049198782377 0 616.79049198782377 204.98257567718974 0 0 0 0 -868.29745434672805 542.80165191769265 0 542.80165191769265 -181.17510701466381 0 0 0 0 -860.08829790077289 574.10707799233569 0 574.10707799233569 -63.047348638312542 0 0 0 0 -853.98643039667513 632.89294578883892 0 632.89294578883892 -91.474465507359128 0 0 0 0 -854.55810503903194 646.17111375906825 0 646.17111375906825 -59.081256245877512 0 0 0 0 -41.32152491020679 22.565460697068374 0 22.565460697068374 28.536005904126796 0 0 0 0 -6.6128151394601105 7.8546789743251537 0 7.8546789743251537 13.15471264862132 0 0 0 0 -9.9127161926057568 37.519562025927712 0 37.519562025927712 -0.62365205718593586 0 0 0 0 15.188200076511038 43.601190632351205 0 43.601190632351205 32.905016223073503 0 0 0 0 -92.080487003928283 43.285506210946551 0 43.285506210946551 32.62291893093834 0 0 0 0 -28.787518908752645 -48.196228734631632 0 -48.196228734631632 90.908509198910906 0 0 0 0 -26.674588518808378 15.866058222977529 0 15.866058222977529 25.072660947149416 0 0 0 0 -491.66080577780667 831.45736263578874 0 831.45736263578874 -549.5854034857548 0 0 0 0 1.5403159170483036 5.3205849205997851 0 5.3205849205997851 8.457755078397355 0 0 0 0 -335.66516200789192 392.74492782120433 0 392.74492782120433 -540.31059407007524 0 0 0 0 -0.0085856937493995825 604.46337124678246 0 604.46337124678246 -408.93778858896985 0 0 0 0 -372.25714008642535 484.13637993412976 0 484.13637993412976 -456.73350780879628 0 0 0 0 37.015607947686476 205.4471499295978 0 205.4471499295978 268.07548002219119 0 0 0 0 178.23173420256035 290.94153155240929 0 290.94153155240929 183.18707858948619 0 0 0 0 300.62323964190728 207.03804326359023 0 207.03804326359023 218.16603470864356 0 0 0 0 82.650446998946791 184.76006980647799 0 184.76006980647799 196.31978287606762 0 0 0 0 227.80382551120283 257.14300172040748 0 257.14300172040748 73.729398979041434 0 0 0 0 98.899091459496503 190.71365994054213 0 190.71365994054213 38.308593608082447 0 0 0 0 -86.429935068887744 214.41737375020966 0 214.41737375020966 182.88010545913858 0 0 0 0 -52.338733675973344 180.72677121542802 0 180.72677121542802 100.05514361435417 0 0 0 0 -177.44484869547057 214.07073664869677 0 214.07073664869677 92.007288619483006 0 0 0 0 -217.82349801855042 43.278153924183243 0 43.278153924183243 97.620144910019008 0 0 0 0 -44.155290898013845 123.51202470684257 0 123.51202470684257 125.49715968815144 0 0 0 0 -110.91629019472541 92.51915388474572 0 92.51915388474572 114.89340338853071 0 0 0 0 -122.46176730853915 157.5748372076423 0 157.5748372076423 153.7957233962079 0 0 0 0 -64.608780878672519 184.88246432804044 0 184.88246432804044 161.57035434184945 0 0 0 0 -35.251162832439149 193.88099837178015 0 193.88099837178015 133.06983220420079 0 0 0 0 36.274504869064572 230.25611083526383 0 230.25611083526383 157.94001649368147 0 0 0 0 -13.117568540683351 265.7482309600382 0 265.7482309600382 200.08126019108749 0 0 0 0 56.294673365765107 326.40494402621425 0 326.40494402621425 187.31883744901279 0 0 0 0 39.924693409700012 277.02850832052354 0 277.02850832052354 164.40467122255359 0 0 0 0 44.607447847244202 263.63457050448778 0 263.63457050448778 59.854754438711097 0 0 0 0 20.265718260818858 149.74853786724998 0 149.74853786724998 96.860888352719485 0 0 0 0 20.724979071458392 239.29644327345159 0 239.29644327345159 158.93799340385158 0 0 0 0 1.8424749645641896 199.23725227914838 0 199.23725227914838 75.833034450362902 0 0 0 0 67.212403553714921 137.58097077345155 0 137.58097077345155 83.18771489453502 0 0 0 0 90.711146318569263 234.4347857507455 0 234.4347857507455 -10.808204908040352 0 0 0 0 105.56356388854482 197.26228424021974 0 197.26228424021974 73.696832432015071 0 0 0 0 102.40586108582687 136.48878085000615 0 136.48878085000615 53.356396583767491 0 0 0 0 101.5045387650203 132.59545587826869 0 132.59545587826869 82.591162612628068 0 0 0 0 217.3783217421892 279.11458970170497 0 279.11458970170497 -281.4334679424137 0 0 0 0 266.47493663792375 155.20303096315183 0 155.20303096315183 21.851498223659291 0 0 0 0 109.97876958134657 476.27353817755647 0 476.27353817755647 -65.427271027496317 0 0 0 0 110.68935704628461 494.36281567346032 0 494.36281567346032 365.55403520775144 0 0 0 0 58.955711607868579 317.92483301034372 0 317.92483301034372 245.68759415710156 0 0 0 0 112.11826326849223 226.79409322665015 0 226.79409322665015 396.80341041637439 0 0 0 0 289.95984656783094 -614.6182625068177 0 -614.6182625068177 -766.77702041713928 0 0 0 0 -4.242053035924565 4.9276600288992256 0 4.9276600288992256 -5.6406466288150909 0 0 0 0 27.884308793081555 70.990609256800767 0 70.990609256800767 -51.897203808072319 0 0 0 0 -173.17643760265764 74.636436404296546 0 74.636436404296546 -33.974510773470683 0 0 0 0 10.86224134303302 126.65863404575794 0 126.65863404575794 -25.24664147097792 0 0 0 0 47.227837846715289 66.152872519037103 0 66.152872519037103 -57.751491546664965 0 0 0 0 23.89291735808365 85.552857928338199 0 85.552857928338199 77.873967558767617 0 0 0 0 35.531967745002589 149.31529309841062 0 149.31529309841062 -91.953816410328727 0 0 0 0 32.148931878146868 27.188145821652142 0 27.188145821652142 -177.92352836130158 0 0 0 0 -120.52372253953854 -204.53423293578817 0 -204.53423293578817 -295.32881384667508 0 0 0 0 96.128714938711255 -0.1667748363543069 0 -0.1667748363543069 -329.66519715220056 0 0 0 0 -26.19039154296177 37.795357396374129 0 37.795357396374129 -3.9708324956084198 0 0 0 0 -62.080715491520095 36.32356688247819 0 36.32356688247819 9.8391686297850924 0 0 0 0 -52.586093731191795 57.263283517073432 0 57.263283517073432 -5.8541364856537257 0 0 0 0 27.109649194451777 77.907982545970299 0 77.907982545970299 2.8115932162036188 0 0 0 0 -31.757402704060951 37.082022969516402 0 37.082022969516402 9.8125702497007978 0 0 0 0 -30.971379462435493 41.547686605559178 0 41.547686605559178 35.871442519174266 0 0 0 0 18.256598108452181 66.353611994058156 0 66.353611994058156 22.906491809439103 0 0 0 0 60.210680675209005 122.48157636953874 0 122.48157636953874 99.483216197868387 0 0 0 0 13.472820008140843 59.985655968826904 0 59.985655968826904 -21.873808485688642 0 0 0 0 136.64117429883072 47.677318569802082 0 47.677318569802082 -84.590392479294678 0 0 0 0 92.402628091274892 107.86176185835211 0 107.86176185835211 101.31266238804528 0 0 0 0 0.23198213571609294 0.47281539787266524 0 0.47281539787266524 -8.6918094177362057 0 0 0 0 116.86778833857261 96.001555651761009 0 96.001555651761009 -58.177886085752107 0 0 0 0 16.707782043276897 55.272229917237595 0 55.272229917237595 -38.717598336630118 0 0 0 0 111.50874918464217 35.716204717386063 0 35.716204717386063 -88.837102237972431 0 0 0 0 -27.314486093850064 56.167468770494452 0 56.167468770494452 52.88253380000242 0 0 0 0 -18.852994608667359 76.687083272263408 0 76.687083272263408 44.686759435004205 0 0 0 0 -17.821771118626749 50.449900294157942 0 50.449900294157942 -24.740945976512322 0 0 0 0 -61.892137890935373 74.9572075368269 0 74.9572075368269 4.9537874409716096 0 0 0 0 20.229972313035272 41.574640655446643 0 41.574640655446643 -34.871706729032908 0 0 0 0 33.783539922296086 75.342304823072482 0 75.342304823072482 14.980156753881602 0 0 0 0 6.525077064643483 82.298183554201387 0 82.298183554201387 45.773808051162632 0 0 0 0 -1.7543504155200753 7.7872775582136597 0 7.7872775582136597 7.8691897946499409 0 0 0 0 -14.634235542795516 14.405394795286895 0 14.405394795286895 13.914141265058646 0 0 0 0 -6.5356039603063891 17.674034830557503 0 17.674034830557503 -110.51282874439494 0 0 0 0 -24.853494998953238 62.780721645271115 0 62.780721645271115 -30.377831101533957 0 0 0 0 104.49987091180674 97.610232601007738 0 97.610232601007738 -58.171945775888162 0 0 0 0 76.936117942839701 92.088264298945433 0 92.088264298945433 -50.664483297834522 0 0 0 0 -19.793758818670085 -12.551018445188674 0 -12.551018445188674 -71.822176519257482 0 0 0 0 -62.747988858214285 -97.355323284467886 0 -97.355323284467886 -170.9380392410817 0 0 0 0 -53.19467669891219 19.220722258298338 0 19.220722258298338 -90.709616013009509 0 0 0 0 -10.107359613843292 15.626113893181113 0 15.626113893181113 -19.602421034080464 0 0 0 0 325.69014216838679 435.76671215499641 0 435.76671215499641 352.18737048453477 0 0 0 0 -87.3673110479358 -5.2011180351764779 0 -5.2011180351764779 -114.53270257373515 0 0 0 0 12.969643458483006 -5.2577490799158113 0 -5.2577490799158113 -172.37552223332023 0 0 0 0 322.85161113649565 398.7595507001588 0 398.7595507001588 319.508489070824 0 0 0 0 -17.602184145065621 26.223850674079046 0 26.223850674079046 -33.03745046611013 0 0 0 0 186.07899051487311 210.59430320774845 0 210.59430320774845 261.02906604661985 0 0 0 0 102.57171910270426 166.83671107517512 0 166.83671107517512 275.707428784488 0 0 0 0 238.45487315044238 136.19834743925458 0 136.19834743925458 -48.549991199135548 0 0 0 0 190.30880810788494 119.23667270026635 0 119.23667270026635 15.876574064372107 0 0 0 0 177.02800355106956 440.16140014941629 0 440.16140014941629 471.04859188014962 0 0 0 0 -43.143123026375349 -16.77718666677174 0 -16.77718666677174 -132.88864780980657 0 0 0 0 -24.945300207805637 37.282666711762374 0 37.282666711762374 -42.792789880354491 0 0 0 0 183.17547714874399 43.403681130312179 0 43.403681130312179 -29.813275183318183 0 0 0 0 -17.127651308359418 373.87896733469097 0 373.87896733469097 -405.23735910733376 0 0 0 0 31.115229115999568 -23.770347451085854 0 -23.770347451085854 -471.61283445659501 0 0 0 0 47.837904456077013 173.73684412200237 0 173.73684412200237 -805.24883309980214 0 0 0 0 -87.907292148291162 529.04912327780039 0 529.04912327780039 -775.540899855303 0 0 0 0 100.23123507799136 -8.0983545045569372 0 -8.0983545045569372 -300.02809272277227 0 0 0 0 114.19118876644643 103.59542405627144 0 103.59542405627144 -51.781417685298948 0 0 0 0 78.267953167683117 200.4844500889194 0 200.4844500889194 -36.161416785416804 0 0 0 0 125.14461269095045 210.6891860651449 0 210.6891860651449 -423.22451726807049 0 0 0 0 -0.334574186659367 -1.2536513864340293 0 -1.2536513864340293 -0.25168078727549137 0 0 0 0 79.773233015954702 79.054952903621597 0 79.054952903621597 -407.01381669842522 0 0 0 0 -26.083434579460118 175.17745400659624 0 175.17745400659624 64.674059191667766 0 0 0 0 103.2489273582737 -6.05516412860743 0 -6.05516412860743 -94.11268533373368 0 0 0 0 98.538026823698544 -38.669387127411937 0 -38.669387127411937 -272.26629629977106 0 0 0 0 137.57169302623061 44.996244299160026 0 44.996244299160026 -30.652952865674479 0 0 0 0 161.7177496508375 145.75841144727019 0 145.75841144727019 -102.59189791916765 0 0 0 0 -69.428708029102381 261.50430463983503 0 261.50430463983503 8.5970611040684162 0 0 0 0 119.7218891897644 77.902129253583553 0 77.902129253583553 -170.80805699611665 0 0 0 0 157.34256338996101 94.462511763093062 0 94.462511763093062 61.707944057314307 0 0 0 0 -377.5142387136051 425.39485105125641 0 425.39485105125641 -181.44226928493299 0 0 0 0 -66.152444883447515 158.45725073324866 0 158.45725073324866 -5.2445564171794103 0 0 0 0 64.023529862231044 98.576743222787627 0 98.576743222787627 -162.581724714968 0 0 0 0 72.283394231249986 100.30649671745778 0 100.30649671745778 -717.43549011478171 0 0 0 0 -242.54875661208007 -297.19308729645127 0 -297.19308729645127 -237.55850059659133 0 0 0 0 -228.06441143676381 491.99904134323407 0 491.99904134323407 -526.65469219798979 0 0 0 0 -151.94561876198452 -58.597313341426343 0 -58.597313341426343 146.71784592924814 0 0 0 0 44.918860067522928 146.36066317673613 0 146.36066317673613 -144.97871691207547 0 0 0 0 -1.4339437987562498 -0.11304239554198148 0 -0.11304239554198148 0.0077248117824666451 0 0 0 0 -18.262936981047915 57.805014254729031 0 57.805014254729031 83.381853725080873 0 0 0 0 -42.517731265880911 223.45936352159242 0 223.45936352159242 341.85788038512692 0 0 0 0 973.89923249042431 375.74566190969199 0 375.74566190969199 507.59375671717771 0 0 0 0 -0.017434803995342918 330.43466183320561 0 330.43466183320561 536.03694413317135 0 0 0 0 247.01529170763672 341.86214201926487 0 341.86214201926487 159.98483051746734 0 0 0 0 8.5940935587475451 616.08811019947461 0 616.08811019947461 271.48923570681654 0 0 0 0 -1.136714479726213 0.40067413860097645 0 0.40067413860097645 0.27420255261047188 0 0 0 0 -193.82408113975634 298.78923747465888 0 298.78923747465888 -148.16838592034765 0 0 0 0 -35.696586041077353 256.71965035368339 0 256.71965035368339 -141.66652140668884 0 0 0 0 158.57979985338 341.58257264709391 0 341.58257264709391 -521.03903261433879 0 0 0 0 -42.621606598365815 313.9691347907501 0 313.9691347907501 -203.02228955454848 0 0 0 0 462.21271535862411 545.81603111539152 0 545.81603111539152 -248.44172177626933 0 0 0 0 -306.41134007688834 882.92265715006943 0 882.92265715006943 832.22467910227715 0 0 0 0 456.97123743254207 836.56303088669301 0 836.56303088669301 -1301.9577257481433 0 0 0 0 4.5001458326095953 5.9600172075143689 0 5.9600172075143689 2.8222100759857085 0 0 0 0 -581.96387174985239 1410.1584366891111 0 1410.1584366891111 935.98893849758315 0 0 0 0 -1306.1277521614775 -192.73046352964593 0 -192.73046352964593 2247.0267605269473 0 0 0 0 -29.181430168493648 792.51162904765806 0 792.51162904765806 -1.9402163640188519 0 0 0 0 508.99787960489073 53.656412352363986 0 53.656412352363986 291.37888112491055 0 0 0 0 13.413835696824973 17.928411677298953 0 17.928411677298953 8.6573522644653451 0 0 0 0 80.267237256704902 197.2495475407195 0 197.2495475407195 454.08069870223699 0 0 0 0 18.146567216759649 83.997029289846978 0 83.997029289846978 256.96688642496883 0 0 0 0 308.4357956741751 322.9751595044072 0 322.9751595044072 504.57506094207201 0 0 0 0 387.87664335259433 309.89602437823487 0 309.89602437823487 159.06751209132926 0 0 0 0 131.1821324096145 276.79410941364767 0 276.79410941364767 293.61165341555898 0 0 0 0 -1.6625864491309992 3.7030863381621373 0 3.7030863381621373 -8.8097710202304143 0 0 0 0 376.24252110448424 209.9388355279516 0 209.9388355279516 287.71823737133445 0 0 0 0 -705.26759591694281 217.35356446353398 0 217.35356446353398 191.57506071629177 0 0 0 0 -49.232771295840848 28.464230102297734 0 28.464230102297734 -79.479322608487564 0 0 0 0 -165.56679108442995 177.04720073773933 0 177.04720073773933 -139.69477838730381 0 0 0 0 177.67164727481577 174.81417184828024 0 174.81417184828024 90.57899599492157 0 0 0 0 280.80327696429413 202.04897541061655 0 202.04897541061655 97.620744944200851 0 0 0 0 -4.0470208828258372 12.766567747495628 0 12.766567747495628 -24.305779546756071 0 0 0 0 191.78448557336196 174.60014628479985 0 174.60014628479985 84.956629376159981 0 0 0 0 178.26846390748779 154.7076933169883 0 154.7076933169883 103.14163855745574 0 0 0 0 10.440252900671641 8.7660552798303115 0 8.7660552798303115 -20.238384333111156 0 0 0 0 13.573162712543933 -17.085087615327211 0 -17.085087615327211 -130.845947433525 0 0 0 0 35.381952884485486 36.065474440298203 0 36.065474440298203 -55.19187903238344 0 0 0 0 -15.229365108793445 19.026924698075163 0 19.026924698075163 -174.34069401436136 0 0 0 0 -5.3870686098935039 59.391967069026578 0 59.391967069026578 43.483106835818035 0 0 0 0 -19.889511485177305 10.123947164466756 0 10.123947164466756 -2.6906397958539685 0 0 0 0 -5.1464746723459029 57.381498839291453 0 57.381498839291453 51.659611981012858 0 0 0 0 -350.02095351013566 18.006592159985303 0 18.006592159985303 94.146572091704002 0 0 0 0 -36.262836783442708 13.82836513955408 0 13.82836513955408 40.119775902800029 0 0 0 0 93.023471226549646 14.233895354809647 0 14.233895354809647 -941.0960065593099 0 0 0 0 -7.7186332455066413 2.4100969968542643 0 2.4100969968542643 -1.5324057129178499 0 0 0 0 -34.946705480775734 33.549369489854143 0 33.549369489854143 -403.13122907710203 0 0 0 0 -85.820889584355882 78.700762724263768 0 78.700762724263768 -147.44462576878141 0 0 0 0 -147.82049049135458 63.122530758890207 0 63.122530758890207 95.363389285972517 0 0 0 0 -96.229111949769504 88.150788322929657 0 88.150788322929657 98.717112830832775 0 0 0 0 -71.075470703410247 94.326359937113011 0 94.326359937113011 -43.971597385847417 0 0 0 0 -80.521000990287575 137.83882004407496 0 137.83882004407496 134.11769327760703 0 0 0 0 -14.448569846592363 111.33344352891436 0 111.33344352891436 82.566383661091095 0 0 0 0 -14.51538258405526 99.640791500452906 0 99.640791500452906 86.719143490376155 0 0 0 0 -72.739615971643616 54.32364021538524 0 54.32364021538524 124.28038536860549 0 0 0 0 31.381054587700419 67.374532098103373 0 67.374532098103373 109.38445534168568 0 0 0 0 -11.458650796743314 148.97161528318975 0 148.97161528318975 227.26560002107726 0 0 0 0 53.619195512662372 156.71951424626604 0 156.71951424626604 139.50878806262335 0 0 0 0 101.8912230020569 215.06712265046008 0 215.06712265046008 150.68525035999482 0 0 0 0 177.7339184286252 174.80246491087746 0 174.80246491087746 88.917762858822243 0 0 0 0 136.14686659266226 183.83747815121023 0 183.83747815121023 92.241043312562397 0 0 0 0 119.57387389457654 161.87904703183085 0 161.87904703183085 99.717059602757217 0 0 0 0 112.42055975765288 204.0416623486235 0 204.0416623486235 93.820519952256291 0 0 0 0 65.041955138600315 192.96198668751458 0 192.96198668751458 123.425964970942 0 0 0 0 -15.52317952158046 171.42468415994153 0 171.42468415994153 118.64986605435843 0 0 0 0 31.769974171476861 156.19414564345789 0 156.19414564345789 93.041166999246343 0 0 0 0 35.946222074329853 186.35829077924427 0 186.35829077924427 101.78522056074144 0 0 0 0 23.981624312229997 166.34807094431198 0 166.34807094431198 105.02235786532401 0 0 0 0 28.144302819870063 155.43140476087137 0 155.43140476087137 119.71125370683421 0 0 0 0 -51.618746121788718 123.28497164265718 0 123.28497164265718 77.377427720333799 0 0 0 0 -10.598750731373002 169.89053601346677 0 169.89053601346677 95.607479777241679 0 0 0 0 -119.70359980676585 160.06644670939568 0 160.06644670939568 104.19733847080352 0 0 0 0 45.879351216695746 71.706617500923727 0 71.706617500923727 95.384831010851144 0 0 0 0 -83.474283631909202 147.72339384689985 0 147.72339384689985 77.619501628258149 0 0 0 0 -100.62230200878366 93.503113311999186 0 93.503113311999186 92.22040545733762 0 0 0 0 -165.40178354734689 149.01808521052862 0 149.01808521052862 148.91345169214765 0 0 0 0 -146.42702979966998 68.669407211167709 0 68.669407211167709 127.23512615310028 0 0 0 0 32.614023321484837 86.470831024722003 0 86.470831024722003 113.00344360944968 0 0 0 0 -26.482088759221369 93.042395392258186 0 93.042395392258186 131.35563608836492 0 0 0 0 -80.73892613388125 105.68908188701607 0 105.68908188701607 130.7902747575572 0 0 0 0 -74.239189693190383 108.44635459114215 0 108.44635459114215 60.502814241321175 0 0 0 0 -22.729950347624253 184.51431727572344 0 184.51431727572344 92.366619778935274 0 0 0 0 -93.645743023327668 134.47009057801915 0 134.47009057801915 144.90733068832196 0 0 0 0 45.516585576595389 154.51463900471572 0 154.51463900471572 156.10695887672773 0 0 0 0 -0.65072239982364621 42.755420829815932 0 42.755420829815932 15.417316302877168 0 0 0 0 -18.302742521505557 59.020034911528171 0 59.020034911528171 -17.627916883264277 0 0 0 0 -13.889572867195966 160.65220013750513 0 160.65220013750513 156.42718478981988 0 0 0 0 -14.354044798505583 69.46234610342708 0 69.46234610342708 13.88451945844281 0 0 0 0 -9.3303549179399852 53.156243710116541 0 53.156243710116541 15.423461323742231 0 0 0 0 -2.465721399828908 154.03531995832964 0 154.03531995832964 82.847715198236983 0 0 0 0 48.882782490034288 141.68021411066093 0 141.68021411066093 45.178753835294629 0 0 0 0 49.236299134923684 145.26331910178851 0 145.26331910178851 81.320757584486273 0 0 0 0 55.50208725171251 143.45534718379349 0 143.45534718379349 28.665235014530481 0 0 0 0 122.93643751011496 180.68641801429112 0 180.68641801429112 141.72181677105254 0 0 0 0 84.883301887786729 168.84328998632554 0 168.84328998632554 53.009570914990036 0 0 0 0 -8.9616059404429294 35.616975114241882 0 35.616975114241882 -36.996233042504485 0 0 0 0 -4.1151537501774662 10.73540080091152 0 10.73540080091152 9.9145339155637942 0 0 0 0 -11.65074131023357 67.087730637867935 0 67.087730637867935 30.641574588124058 0 0 0 0 -36.251097543381547 93.277939809544478 0 93.277939809544478 2.9870175609212311 0 0 0 0 -162.31649984614887 134.01454043960257 0 134.01454043960257 147.26546081094421 0 0 0 0 -10.392216536100022 45.164193086442538 0 45.164193086442538 19.167417667616974 0 0 0 0 45.690271713724542 150.44106490819104 0 150.44106490819104 70.793791759584565 0 0 0 0 -41.336567641356822 31.651242098126126 0 31.651242098126126 -6.879239787458971 0 0 0 0 20.591709292399173 155.08293788152514 0 155.08293788152514 56.412624752992997 0 0 0 0 15.773112956747354 75.84820193136693 0 75.84820193136693 53.299113133340143 0 0 0 0 85.956935307443928 85.948092884107609 0 85.948092884107609 23.931435175771185 0 0 0 0 28.868938762912876 32.150716896707308 0 32.150716896707308 20.825658240588382 0 0 0 0 81.632399341285691 56.081154489433175 0 56.081154489433175 17.271815726620844 0 0 0 0 35.086247873223328 33.988000013647252 0 33.988000013647252 13.255738757752624 0 0 0 0 -34.520857914202807 45.23330751838126 0 45.23330751838126 -4.2764361730528719 0 0 0 0 -31.888995786875967 164.57251267209358 0 164.57251267209358 -16.539752899661835 0 0 0 0 -126.8821565527287 90.023963685351191 0 90.023963685351191 86.234298026916804 0 0 0 0 72.840901095760273 148.16466104597566 0 148.16466104597566 -1.2643279480689671 0 0 0 0 -8.2003748868455837 29.733401627302523 0 29.733401627302523 29.23789347461593 0 0 0 0 27.386102660853794 38.918579481425695 0 38.918579481425695 49.146201372317591 0 0 0 0 -44.632296187782231 128.37674339496152 0 128.37674339496152 -147.10815501480829 0 0 0 0 0.89685100556927821 7.8304469740670584 0 7.8304469740670584 6.466615088687945 0 0 0 0 -74.176595265202195 99.613443541691595 0 99.613443541691595 28.200339400100347 0 0 0 0 4.04276708497855 15.693902662707842 0 15.693902662707842 42.600665102057974 0 0 0 0 -9.722908476854192 30.041700718841632 0 30.041700718841632 19.254651989161687 0 0 0 0 0.99992713094639285 32.775304825360223 0 32.775304825360223 5.7522769883670719 0 0 0 0 -59.558563407330439 89.546458748569421 0 89.546458748569421 2.1821380361943739 0 0 0 0 -35.042679048483478 39.925544056011859 0 39.925544056011859 13.728894403306185 0 0 0 0 -18.501109370812628 47.376041524294124 0 47.376041524294124 17.605965688793731 0 0 0 0 -21.86445294388519 31.353649158644004 0 31.353649158644004 13.237460032407402 0 0 0 0 -16.616917755030954 36.687670949223104 0 36.687670949223104 -0.50801517014061659 0 0 0 0 -0.48623015046268847 51.95335625935877 0 51.95335625935877 33.140554704601527 0 0 0 0 -57.830414236639626 127.93768083995383 0 127.93768083995383 144.44082166698354 0 0 0 0 -44.272808901043391 75.972643808985595 0 75.972643808985595 182.29418458465079 0 0 0 0 -48.111593082015219 28.89533293886376 0 28.89533293886376 24.498680908963337 0 0 0 0 -109.06931593778427 142.44167217747599 0 142.44167217747599 142.46346981723036 0 0 0 0 -5.5515176159788098 68.294823914759036 0 68.294823914759036 54.623547726398101 0 0 0 0 -7.5168279596500724 72.564106020578038 0 72.564106020578038 71.410624765077955 0 0 0 0 -8.1511415465583923 70.714433123939671 0 70.714433123939671 66.019208705900382 0 0 0 0 1.3616813126700436 65.48296010242484 0 65.48296010242484 48.203637365280883 0 0 0 0 3.945158244695449 71.241920572312665 0 71.241920572312665 61.205846597695199 0 0 0 0 7.4216662608032493 82.530083034056588 0 82.530083034056588 69.628672124596051 0 0 0 0 -28.16790156326897 87.54357338110276 0 87.54357338110276 85.22382025796469 0 0 0 0 -13.621290865747596 96.427784781626542 0 96.427784781626542 82.829866582160321 0 0 0 0 -46.932290113574254 114.3410060556489 0 114.3410060556489 103.15359627822181 0 0 0 0 -6.1914885231958579 134.9742399968236 0 134.9742399968236 112.3894251427846 0 0 0 0 -20.325115101245501 95.770929445010552 0 95.770929445010552 89.923477900680155 0 0 0 0 -57.38083962664723 78.173364663613029 0 78.173364663613029 91.262769792588188 0 0 0 0 -60.433624536084153 79.078125843036105 0 79.078125843036105 105.74196859452059 0 0 0 0 -39.785508896221927 49.000292060343781 0 49.000292060343781 56.641630109341349 0 0 0 0 -4.754119163825635 52.239372569172701 0 52.239372569172701 39.224706264147244 0 0 0 0 4.3803968353604432 51.683180329055176 0 51.683180329055176 44.985956212090969 0 0 0 0 4.3264870818038617 65.157697458111215 0 65.157697458111215 48.002297435028595 0 0 0 0 -4.2051644877594754 57.034525105449575 0 57.034525105449575 41.715665045601781 0 0 0 0 17.937824153155816 30.795617461582879 0 30.795617461582879 -10.652015038358513 0 0 0 0 5.6974238783634519 50.485080649326846 0 50.485080649326846 34.248370219778735 0 0 0 0 -11.049847387328684 21.336980442454504 0 21.336980442454504 -6.8441202143957867 0 0 0 0 6.5803164716335232 46.344506156525313 0 46.344506156525313 16.347752913541626 0 0 0 0 12.208103603119525 66.875583176231885 0 66.875583176231885 22.289514244883321 0 0 0 0 8.8770156096798019 69.384284120344091 0 69.384284120344091 32.757083993696142 0 0 0 0 4.2633053791723796 62.614125633088406 0 62.614125633088406 43.729120809759479 0 0 0 0 47.795474559035938 2.9322199219895992 0 2.9322199219895992 -130.03303312468051 0 0 0 0 4.9132553605987326 3.7077520559525681 0 3.7077520559525681 -12.3716715404708 0 0 0 0 4.4381225494780185 21.217899011526882 0 21.217899011526882 -29.732543137601567 0 0 0 0 15.636220125570617 33.536649848116213 0 33.536649848116213 -3.810158194435644 0 0 0 0 21.805202574236922 17.941671649891305 0 17.941671649891305 -25.744039510289724 0 0 0 0 5.1415599214287795 70.185574346782232 0 70.185574346782232 59.07095003357972 0 0 0 0 14.329051771623199 76.394530347875843 0 76.394530347875843 46.15258307348995 0 0 0 0 104.23325022374593 101.05415031912707 0 101.05415031912707 19.737333295001008 0 0 0 0 -38.35814113948237 27.795102526909858 0 27.795102526909858 3.9346897047955736 0 0 0 0 115.83805014757672 -6.2449190628831275 0 -6.2449190628831275 -51.395116059895372 0 0 0 0 5.8908797834046709 70.136970434177783 0 70.136970434177783 47.608370643556555 0 0 0 0 2.0965453464923485 69.822887673552032 0 69.822887673552032 62.576782184914919 0 0 0 0 9.1063958962715787 77.585793428483157 0 77.585793428483157 66.232992230798118 0 0 0 0 6.1887809490021937 70.292005174213045 0 70.292005174213045 59.041079194794293 0 0 0 0 10.42099649571901 71.451458353945782 0 71.451458353945782 54.404903617032687 0 0 0 0 5.4041417496919166 70.758448598324321 0 70.758448598324321 59.173659319687431 0 0 0 0 7.0641073216784207 80.702442382651498 0 80.702442382651498 42.768296251277206 0 0 0 0 14.861013163848838 131.8320348265479 0 131.8320348265479 -212.48517694222392 0 0 0 0 -53.003879743326252 63.001460306579247 0 63.001460306579247 37.84345622418914 0 0 0 0 16.362056909973035 73.560679024973069 0 73.560679024973069 49.91860233785701 0 0 0 0 4.2675391975990351 78.793002401209378 0 78.793002401209378 61.190192307394682 0 0 0 0 47.358333197104912 111.73766311684449 0 111.73766311684449 39.907018551932197 0 0 0 0 45.966558448939395 122.06215485019493 0 122.06215485019493 69.434723348225816 0 0 0 0 40.330683062697062 116.19821781197243 0 116.19821781197243 96.497692496835953 0 0 0 0 32.518855519125282 98.860850644981838 0 98.860850644981838 70.680057024859707 0 0 0 0 25.116612543759402 97.542060700769071 0 97.542060700769071 74.945003100208851 0 0 0 0 32.120065145072658 93.028053595262463 0 93.028053595262463 66.400978596240748 0 0 0 0 13.627665901150976 78.039211163530126 0 78.039211163530126 61.717638523477945 0 0 0 0 18.076461438923616 95.486512889765436 0 95.486512889765436 79.83349695513607 0 0 0 0 4.3950132620924478 83.211349594004332 0 83.211349594004332 70.919100702682044 0 0 0 0 7.0376333939140636 107.37904174023879 0 107.37904174023879 87.76541085485951 0 0 0 0 30.645252889922176 111.07778233141289 0 111.07778233141289 77.520531846530503 0 0 0 0 18.555316135672911 140.32769032198121 0 140.32769032198121 82.485457659655367 0 0 0 0 64.709256637875569 140.31464685808896 0 140.31464685808896 80.663256093335804 0 0 0 0 31.448541756391222 117.31266283651848 0 117.31266283651848 85.263435663131531 0 0 0 0 40.027831836674522 112.77280338467244 0 112.77280338467244 86.455117470017285 0 0 0 0 54.951689234900186 131.97186376158788 0 131.97186376158788 92.158565081481356 0 0 0 0 60.171901018688288 116.7998273831945 0 116.7998273831945 125.95571726787603 0 0 0 0 48.991957256153455 136.27179062146024 0 136.27179062146024 130.80680081085302 0 0 0 0 55.015460718351235 142.58364137088574 0 142.58364137088574 129.7659998130257 0 0 0 0 20.072444751033945 72.95094660295257 0 72.95094660295257 -51.523098851341821 0 0 0 0 37.021863548916372 151.85323578050884 0 151.85323578050884 157.38907599470622 0 0 0 0 -1.3352139322259973 152.30845903045702 0 152.30845903045702 158.21065495282528 0 0 0 0 -0.089428546603982362 35.965673138633591 0 35.965673138633591 27.577946701220412 0 0 0 0 138.66633689589435 194.65650281859416 0 194.65650281859416 89.434790104707645 0 0 0 0 58.947993340547328 164.14256487991224 0 164.14256487991224 94.43786876933882 0 0 0 0 59.65967682158589 146.35640825027076 0 146.35640825027076 104.13876942973002 0 0 0 0 42.922581129675564 124.7852380247532 0 124.7852380247532 79.285185719199944 0 0 0 0 37.784954155283231 119.37286196842979 0 119.37286196842979 87.57409469531558 0 0 0 0 30.164072294373909 104.14196925553551 0 104.14196925553551 53.643970799064846 0 0 0 0 13.192190729130743 165.54524485643196 0 165.54524485643196 55.918880507401354 0 0 0 0 -13.012556805453642 93.874372453807155 0 93.874372453807155 198.58530660661927 0 0 0 0 -33.078715350124185 156.18890334474781 0 156.18890334474781 56.164395904219418 0 0 0 0 33.81700679240339 105.74529113211429 0 105.74529113211429 -43.087130392945255 0 0 0 0 12.846123590779825 114.14456378925388 0 114.14456378925388 94.610231023558299 0 0 0 0 48.032569055803833 115.21040942555192 0 115.21040942555192 94.622943929960002 0 0 0 0 36.402654064571834 99.035298538135976 0 99.035298538135976 84.359971476762439 0 0 0 0 34.825180997085226 142.8712404962971 0 142.8712404962971 95.563526008671033 0 0 0 0 74.898990641061573 137.52384458983579 0 137.52384458983579 58.110496090870583 0 0 0 0 43.466078787140759 165.28495807603758 0 165.28495807603758 123.141972921454 0 0 0 0 55.491171896077049 131.12374281989469 0 131.12374281989469 83.398199309114716 0 0 0 0 103.3830289258683 162.15529981639429 0 162.15529981639429 81.584281737406855 0 0 0 0 -32.093002997628446 116.74725880469941 0 116.74725880469941 85.170632820838364 0 0 0 0 -1.6744800451366686 31.721069472240039 0 31.721069472240039 -0.71870183587395786 0 0 0 0 34.796276540699374 57.10609781526577 0 57.10609781526577 -50.832104608664267 0 0 0 0 95.247764584193192 107.20176065433225 0 107.20176065433225 -30.578316730934603 0 0 0 0 29.273145034238475 67.394867959419571 0 67.394867959419571 -33.689786419215594 0 0 0 0 -91.033903389739407 64.967574463951678 0 64.967574463951678 -15.676109191761498 0 0 0 0 52.615336102515357 131.51440584839474 0 131.51440584839474 0.26295941177522764 0 0 0 0 182.95810339780246 304.88918062878656 0 304.88918062878656 44.547154292642517 0 0 0 0 293.10869569761985 192.82563459999619 0 192.82563459999619 101.39028825047899 0 0 0 0 115.36275122907409 145.48336060029214 0 145.48336060029214 94.975806287937303 0 0 0 0 127.27236432849463 174.9657092941743 0 174.9657092941743 97.395945665917679 0 0 0 0 79.493414212015523 192.11180078201141 0 192.11180078201141 151.52532508567674 0 0 0 0 58.751397985752192 168.30763692058281 0 168.30763692058281 128.59640776251763 0 0 0 0 44.611282351254431 136.02864498821145 0 136.02864498821145 63.389797298990743 0 0 0 0 55.394763862977015 156.12776031598696 0 156.12776031598696 70.145865647609753 0 0 0 0 111.99065882856075 170.07169787344355 0 170.07169787344355 50.953061929274554 0 0 0 0 83.77703497004245 137.88395704210279 0 137.88395704210279 21.678523501526797 0 0 0 0 94.619138842200982 143.02256906654475 0 143.02256906654475 69.684209618815657 0 0 0 0 6.8844941611096147 25.754864658883889 0 25.754864658883889 13.203964913482196 0 0 0 0 -87.684814847278176 69.890381746314233 0 69.890381746314233 14.06380549086316 0 0 0 0 -9.1916643526926425 13.944126262461076 0 13.944126262461076 16.535330848765483 0 0 0 0 -27.628011004977452 51.528874867737613 0 51.528874867737613 13.401079188129188 0 0 0 0 -21.083822661869618 30.23414004736231 0 30.23414004736231 13.747971114891612 0 0 0 0 0.31593008374850484 26.675708187158847 0 26.675708187158847 -4.1575835871013993 0 0 0 0 -20.488134486957279 47.365805151101085 0 47.365805151101085 25.425456785509596 0 0 0 0 -17.818614944157162 49.311126553431677 0 49.311126553431677 20.718897861734149 0 0 0 0 3.1447465539810722 20.841620728678961 0 20.841620728678961 -16.380330514961599 0 0 0 0 29.746954401001858 51.356549288409951 0 51.356549288409951 12.442899890396802 0 0 0 0 26.194869425491618 58.332950639741668 0 58.332950639741668 71.706302208510181 0 0 0 0 74.408041352759028 178.33784183178068 0 178.33784183178068 50.718511862437481 0 0 0 0 4.5683257695549031 19.043788979190978 0 19.043788979190978 16.250578420922579 0 0 0 0 -24.895923222352394 100.7141358861536 0 100.7141358861536 96.535944929084508 0 0 0 0 75.884274186283619 36.851210814354999 0 36.851210814354999 20.222514891080209 0 0 0 0 -32.510871953381866 93.266280565861962 0 93.266280565861962 90.751301647222135 0 0 0 0 35.865859500465561 69.611392554690042 0 69.611392554690042 15.247666917916661 0 0 0 0 -20.428018756483652 49.808429469692783 0 49.808429469692783 18.312954734938103 0 0 0 0 -12.749487929948373 36.716144836624153 0 36.716144836624153 7.6024692272185348 0 0 0 0 10.603333827450115 42.12703919125488 0 42.12703919125488 13.014825667720288 0 0 0 0 13.734825671511022 56.630049120782019 0 56.630049120782019 20.081288891424663 0 0 0 0 -22.813474368047935 78.566629010556511 0 78.566629010556511 10.673251424467281 0 0 0 0 -2.8553818789558534 -4.6445222159062354 0 -4.6445222159062354 2.5693021896650947 0 0 0 0 8.5781364189733722 56.409407945524435 0 56.409407945524435 84.052808168067713 0 0 0 0 42.915937328772998 100.79211227555061 0 100.79211227555061 43.807830380370433 0 0 0 0 31.733863548173758 130.31199321674285 0 130.31199321674285 69.047105902733165 0 0 0 0 31.47000416254005 64.747711225645418 0 64.747711225645418 39.394607833126145 0 0 0 0 25.133018664197152 127.70947252678161 0 127.70947252678161 110.90688112688804 0 0 0 0 305.24096626790515 111.20543154709048 0 111.20543154709048 -53.811751842763442 0 0 0 0 11.505955852226554 34.668749564273888 0 34.668749564273888 14.769688881155176 0 0 0 0 -27.579056702320884 124.59722138020834 0 124.59722138020834 70.788357647710654 0 0 0 0 -36.195377224342792 131.90831805269409 0 131.90831805269409 80.888298811792083 0 0 0 0 6.220238699635388 153.38582637282525 0 153.38582637282525 81.411056187896975 0 0 0 0 -15.61936856694528 82.505829746644977 0 82.505829746644977 -36.773847677579866 0 0 0 0 -14.403819445926274 50.200982708585798 0 50.200982708585798 83.889585212785278 0 0 0 0 -22.902837237783388 87.525263833917052 0 87.525263833917052 -40.281147650581261 0 0 0 0 182.73117333679329 196.92609509200156 0 196.92609509200156 3.5148531265513157 0 0 0 0 134.43939725507153 31.72420237694314 0 31.72420237694314 -10.447206483251648 0 0 0 0 -24.309734797155091 74.777011235087613 0 74.777011235087613 -50.331336518492549 0 0 0 0 24.343217055911737 133.34343106805227 0 133.34343106805227 20.538745943242247 0 0 0 0 -500.72773885577044 423.58186678578204 0 423.58186678578204 55.960506950126728 0 0 0 0 388.08487600897206 203.96272821779712 0 203.96272821779712 78.618313452403527 0 0 0 0 342.45608362121129 163.26909198451904 0 163.26909198451904 42.908964103280141 0 0 0 0 2.9122653198921853 2.392857009501455 0 2.392857009501455 -1.7667695609808902 0 0 0 0 -269.43234971286802 98.530378394014406 0 98.530378394014406 -2.6342505379143404 0 0 0 0 -1154.0005091039056 16.732985483657103 0 16.732985483657103 18.598061510027037 0 0 0 0 242.18877675250405 186.66704709810438 0 186.66704709810438 140.3584299501963 0 0 0 0 0.37085402440592574 0.96616596540870603 0 0.96616596540870603 0.34982287869610218 0 0 0 0 -2.8158208760078551 7.9253578393599327 0 7.9253578393599327 5.2541960180302567 0 0 0 0 4.8581445411258457 0.0037771315709136388 0 0.0037771315709136388 -13.023653421588563 0 0 0 0 -374.24117652241694 60.080169703105639 0 60.080169703105639 77.930473207539762 0 0 0 0 38.713639567929931 27.272155389138788 0 27.272155389138788 11.232812270667637 0 0 0 0 -229.80488066549606 19.847157349237932 0 19.847157349237932 12.040920277679106 0 0 0 0 66.816966356182093 202.32327545576845 0 202.32327545576845 193.66051256633364 0 0 0 0 314.82278559404585 471.09121574831261 0 471.09121574831261 2.333988966918696 0 0 0 0 157.30482160077554 92.057442656271633 0 92.057442656271633 51.791455697799393 0 0 0 0 63.712413808862038 86.059280413832312 0 86.059280413832312 135.79538713717739 0 0 0 0 67.644799763456831 60.117636812923593 0 60.117636812923593 8.5605666707415367 0 0 0 0 37.381626169287301 41.300600925206709 0 41.300600925206709 44.522173260178533 0 0 0 0 -29.458582715167992 76.89087631334715 0 76.89087631334715 -46.149998640573912 0 0 0 0 38.802927634962543 58.726439224981732 0 58.726439224981732 45.921261003211839 0 0 0 0 45.038038704935616 96.226236861190841 0 96.226236861190841 65.685573887341889 0 0 0 0 33.612343288588818 60.019472135922115 0 60.019472135922115 4.2556001578632277 0 0 0 0 47.302987448148997 125.97277569950074 0 125.97277569950074 119.97209721455329 0 0 0 0 3.4107454621823763 173.78040753537653 0 173.78040753537653 87.177386195657164 0 0 0 0 104.55285465823374 240.437838205964 0 240.437838205964 228.26378770354859 0 0 0 0 81.712025525804165 44.717576891289355 0 44.717576891289355 306.52570097000853 0 0 0 0 -109.12602553809916 191.33623152887776 0 191.33623152887776 211.67607863709418 0 0 0 0 33.620083329253248 205.87989295069383 0 205.87989295069383 175.40099084643771 0 0 0 0 -48.426489205711277 144.56825750635471 0 144.56825750635471 93.224436829905244 0 0 0 0 31.169613366301292 213.43371903575235 0 213.43371903575235 152.78756289176454 0 0 0 0 -63.949031653223301 144.87118492591708 0 144.87118492591708 190.15251124451606 0 0 0 0 24.812078715497933 -221.53956670750722 0 -221.53956670750722 477.59001106879441 0 0 0 0 -135.59095569392514 42.977909075525531 0 42.977909075525531 55.783528773912622 0 0 0 0 -178.87225901172496 237.60503241343304 0 237.60503241343304 -167.51928762127136 0 0 0 0 -152.19927754288642 139.2431559331053 0 139.2431559331053 191.11270784044734 0 0 0 0 -487.00526168185604 133.38908313749243 0 133.38908313749243 884.56316564765075 0 0 0 0 77.447995167457563 586.23310954618955 0 586.23310954618955 -859.96803373426701 0 0 0 0 10.643188361914664 5.0451670463401932 0 5.0451670463401932 -1.0202383665422041 0 0 0 0 171.25598972008993 123.40873747586375 0 123.40873747586375 -157.53411087337918 0 0 0 0 -15.461337468947477 27.086340194392051 0 27.086340194392051 -175.39046293536012 0 0 0 0 172.38130923201425 187.63944779001758 0 187.63944779001758 -106.69953151905065 0 0 0 0 340.73613397897589 211.21715652639978 0 211.21715652639978 -292.72119045071349 0 0 0 0 7.0577267416789855 5.3992201301645473 0 5.3992201301645473 -0.62516886166650698 0 0 0 0 -17.938059788446481 65.589334420927116 0 65.589334420927116 -325.98000263254835 0 0 0 0 -61.169784000638174 67.447701535719716 0 67.447701535719716 -248.48041923074561 0 0 0 0 19.05040149486058 -2.2507317217023228 0 -2.2507317217023228 -527.11929696415064 0 0 0 0 -29.777782340906924 132.36169482406331 0 132.36169482406331 -219.75905961470835 0 0 0 0 -31.592284375985869 41.071982960794472 0 41.071982960794472 -196.88111457214472 0 0 0 0 68.470942362955611 211.0528799290023 0 211.0528799290023 -325.77401446773638 0 0 0 0 37.574028199898748 106.29308092708652 0 106.29308092708652 -136.22061883135757 0 0 0 0 73.487319620206108 64.486179794990676 0 64.486179794990676 -93.498630031182984 0 0 0 0 77.328299161354153 271.49991003938703 0 271.49991003938703 23.131100099153628 0 0 0 0 2.3221501085009493 2.719717557657134 0 2.719717557657134 -0.1683937996047955 0 0 0 0 -15.55611999143548 376.75314515253376 0 376.75314515253376 -815.96356186138473 0 0 0 0 -6.1025577846430679 390.31977149539125 0 390.31977149539125 827.99056176458544 0 0 0 0 269.20565886103213 280.87424865959474 0 280.87424865959474 -400.74455045539798 0 0 0 0 84.009711192411487 813.82218534108688 0 813.82218534108688 124.38070804988092 0 0 0 0 -16.757388149792405 327.56555896088321 0 327.56555896088321 143.51254771534877 0 0 0 0 -88.31068383328693 166.42420764716371 0 166.42420764716371 192.07254701772217 0 0 0 0 167.61902346339116 212.08258587057207 0 212.08258587057207 146.82868767059699 0 0 0 0 233.82659148612811 458.61213833714464 0 458.61213833714464 208.49294099761573 0 0 0 0 -124.90993188430275 196.05355713871359 0 196.05355713871359 168.72903475862768 0 0 0 0 -123.25827946474419 118.82096771513898 0 118.82096771513898 218.55577580092086 0 0 0 0 -166.81371111583667 73.474140848025854 0 73.474140848025854 214.74655627255561 0 0 0 0 -200.83971137915069 127.9830139140031 0 127.9830139140031 221.74416931580345 0 0 0 0 -73.94444262344723 187.4573128194524 0 187.4573128194524 208.20443411306769 0 0 0 0 -77.399377356990954 110.94369484257186 0 110.94369484257186 210.22583351554567 0 0 0 0 -56.567447074217853 100.59740172389138 0 100.59740172389138 194.48869336466123 0 0 0 0 5.3489704779874501 126.67892954038007 0 126.67892954038007 159.70817003562843 0 0 0 0 -5.2911159187869998 151.35156227050356 0 151.35156227050356 161.5234130018971 0 0 0 0 58.468216403132828 185.62132097556241 0 185.62132097556241 175.0743843909604 0 0 0 0 61.641619836239101 207.48640384805947 0 207.48640384805947 183.26861870334687 0 0 0 0 220.47563009372357 236.35308514950157 0 236.35308514950157 140.17866834059532 0 0 0 0 -5.2716877129869317 5.7746579989593716 0 5.7746579989593716 -5.1003148709355273 0 0 0 0 -403.07461537583686 11.720472341110508 0 11.720472341110508 163.89269649065136 0 0 0 0 364.89234270146017 301.04960240837636 0 301.04960240837636 133.26017282310568 0 0 0 0 219.03658044765177 237.32421826238942 0 237.32421826238942 241.97014788421075 0 0 0 0 -252.95711200987898 234.57284063283441 0 234.57284063283441 183.64773838393921 0 0 0 0 0.98018152083729426 1.7034835845871328 0 1.7034835845871328 12.919415606808521 0 0 0 0 730.15412368449961 -443.0648982225166 0 -443.0648982225166 -913.98698561397214 0 0 0 0 -2.4345038666399441 3.5000511787379072 0 3.5000511787379072 1.4812981128987701 0 0 0 0 666.19629199376641 354.67247782163213 0 354.67247782163213 -256.14428211925042 0 0 0 0 -324.46249898093038 -627.93334087181938 0 -627.93334087181938 2040.6154688334209 0 0 0 0 -1875.541669649607 656.74572082997474 0 656.74572082997474 388.29203540881281 0 0 0 0 -660.58523397813224 1240.759877869521 0 1240.759877869521 137.59166524225111 0 0 0 0 596.4213525026571 276.90345546103799 0 276.90345546103799 -521.85920652192181 0 0 0 0 323.62194683672544 227.98495512702539 0 227.98495512702539 -92.023295684884943 0 0 0 0 432.03119878040309 72.039161720780612 0 72.039161720780612 130.5660048902746 0 0 0 0 250.41801711993367 433.22514242920988 0 433.22514242920988 -159.34686731762986 0 0 0 0 5.8383211366393111 1.4406008066926752 0 1.4406008066926752 0.090898530569705427 0 0 0 0 -82.820738149158387 513.99925305395573 0 513.99925305395573 999.26222354743368 0 0 0 0 418.90824451109438 766.60580303637653 0 766.60580303637653 393.38045813309327 0 0 0 0 939.09202048922521 -248.87124917033361 0 -248.87124917033361 -750.12923801177385 0 0 0 0 99.822931949846634 23.460525738684964 0 23.460525738684964 40.493782338140591 0 0 0 0 111.20045929607477 90.078521855375584 0 90.078521855375584 420.80464302387554 0 0 0 0 128.11173529921689 313.24415670583403 0 313.24415670583403 443.53476131011121 0 0 0 0 133.2146264344434 287.36964570444411 0 287.36964570444411 35.482156286823738 0 0 0 0 139.18401083207027 206.4094878647993 0 206.4094878647993 -69.9075550896805 0 0 0 0 464.82505282032253 414.74015410343054 0 414.74015410343054 -160.6023529815393 0 0 0 0 375.36891894860173 571.44824414995901 0 571.44824414995901 -59.336430762892633 0 0 0 0 141.34137821577673 293.13319597006085 0 293.13319597006085 -20.749789132743899 0 0 0 0 -227.1701070172162 360.82078120033475 0 360.82078120033475 68.054881911571101 0 0 0 0 139.17385842198837 597.21051948740751 0 597.21051948740751 171.27043480557586 0 0 0 0 -240.19079712830944 197.07119420536037 0 197.07119420536037 -4.3058974690793548 0 0 0 0 -383.33827430239626 -106.76099749775494 0 -106.76099749775494 101.02456375683869 0 0 0 0 -637.25233269606179 -131.69661972345966 0 -131.69661972345966 121.60030876119345 0 0 0 0 -416.35734285336184 -102.50099251022857 0 -102.50099251022857 113.02751703258582 0 0 0 0 302.36725298818283 18.742556088804122 0 18.742556088804122 -355.0187795241909 0 0 0 0 -414.42206579110871 271.55057882814492 0 271.55057882814492 549.07304774623117 0 0 0 0 -492.82743666854731 -52.290123113309164 0 -52.290123113309164 133.82998103951468 0 0 0 0 -86.52672383555705 75.836819559751348 0 75.836819559751348 -209.0827435727615 0 0 0 0 -6.6085044724591153 0.81738320793400732 0 0.81738320793400732 0.29801589790961813 0 0 0 0 -348.09476211978108 -84.688316467321783 0 -84.688316467321783 85.878641116997642 0 0 0 0 -438.34658185411843 178.78824007466937 0 178.78824007466937 -80.155166674903739 0 0 0 0 -11.651450890217427 14.240749631559837 0 14.240749631559837 -16.319851613731942 0 0 0 0 -45.132479411590822 169.147768557885 0 169.147768557885 -59.065366662458473 0 0 0 0 -20.735827697384138 32.228976490867353 0 32.228976490867353 -40.925825720920329 0 0 0 0 168.57278201430927 64.237004608886764 0 64.237004608886764 35.532102659024531 0 0 0 0 194.04138435575078 299.41081030991882 0 299.41081030991882 121.75237849219707 0 0 0 0 34.461796212863192 70.286389094657352 0 70.286389094657352 186.11057735306986 0 0 0 0 69.107657932039729 141.232712821512 0 141.232712821512 -5.1879414926115714 0 0 0 0 -47.724438058674423 121.17489982230472 0 121.17489982230472 -130.05801031038754 0 0 0 0 -6.771081293856696 37.664380065740261 0 37.664380065740261 23.043239772516245 0 0 0 0 -253.07819029134043 122.63729422862434 0 122.63729422862434 -84.886461653505648 0 0 0 0 -123.25726172301529 32.432102021564333 0 32.432102021564333 -22.533335429207 0 0 0 0 -100.5831858303809 112.07182618182742 0 112.07182618182742 -5.7471447042989894 0 0 0 0 -86.475756629422904 70.451515927060427 0 70.451515927060427 75.07141097632848 0 0 0 0 0.16550146841109381 150.12053416872732 0 150.12053416872732 46.026874361632508 0 0 0 0 76.562718597353523 244.99071999030821 0 244.99071999030821 165.56868375390695 0 0 0 0 -9.6417226835510519 120.74910773990268 0 120.74910773990268 124.79172896542514 0 0 0 0 -74.878786498823047 44.912710414473622 0 44.912710414473622 78.415178438284784 0 0 0 0 -45.669739659799234 153.35235966996788 0 153.35235966996788 97.250998057443212 0 0 0 0 16.393549368125605 74.118675568131948 0 74.118675568131948 133.44641714627915 0 0 0 0 118.58169346735849 176.44518072436631 0 176.44518072436631 105.5493526484172 0 0 0 0 63.319162221044053 18.369116635230057 0 18.369116635230057 -39.019602260776082 0 0 0 0 -20.61522816972569 19.256720511572709 0 19.256720511572709 -16.490128165836527 0 0 0 0 -32.189211319044489 -43.521958827296658 0 -43.521958827296658 27.407035454500146 0 0 0 0 9.6718244172475352 209.18159138238082 0 209.18159138238082 214.79985857765314 0 0 0 0 36.921236434500315 31.089247703217552 0 31.089247703217552 42.906656322234085 0 0 0 0 -268.60940660230335 -20.849109735443335 0 -20.849109735443335 53.134423171275557 0 0 0 0 -16.113767478278913 13.059461630468343 0 13.059461630468343 39.141468051916256 0 0 0 0 5.8570107165208753 8.2555796048046215 0 8.2555796048046215 5.9718439648375785 0 0 0 0 -571.17219436550295 -144.69138551562537 0 -144.69138551562537 13.012026912043439 0 0 0 0 -289.05862165044709 191.20897495300869 0 191.20897495300869 -152.03905814758764 0 0 0 0 -209.49419113136173 86.920408201526698 0 86.920408201526698 87.650180383563566 0 0 0 0 -189.88265249512062 -58.917518017553732 0 -58.917518017553732 50.067712968179876 0 0 0 0 -94.017481425224105 95.067685326561332 0 95.067685326561332 138.74754540750382 0 0 0 0 -78.723181798938754 -8.6144919003884013 0 -8.6144919003884013 16.0441312189987 0 0 0 0 54.553952876675794 66.265002066445049 0 66.265002066445049 54.760895285569859 0 0 0 0 -88.500759826192734 14.624038374418546 0 14.624038374418546 123.15718721526423 0 0 0 0 -27.331390746732708 6.6161253255407573 0 6.6161253255407573 51.48813587767593 0 0 0 0 -65.431113773234756 113.94122230528387 0 113.94122230528387 186.20554332857228 0 0 0 0 -22.762549295485542 41.804115501393426 0 41.804115501393426 35.264739913929589 0 0 0 0 -23.093994450169617 23.600502101625576 0 23.600502101625576 -15.624719750485093 0 0 0 0 -13.984776797471568 89.122509947800836 0 89.122509947800836 71.734785736747426 0 0 0 0 -37.191248187049894 16.292273027240551 0 16.292273027240551 -5.7573760652734336 0 0 0 0 -105.86236415224994 0.16275076963211177 0 0.16275076963211177 107.81622121392502 0 0 0 0 -22.153813184500223 41.212972446220192 0 41.212972446220192 33.745692576174406 0 0 0 0 87.034318324587275 310.16945254293705 0 310.16945254293705 250.64795063943893 0 0 0 0 -7.6026035057058738 -1.2758950980699737 0 -1.2758950980699737 5.8370150818795992 0 0 0 0 -29.97411740319199 29.245884511416357 0 29.245884511416357 -5.1794493026863151 0 0 0 0 -19.143153203132215 40.586749132477962 0 40.586749132477962 29.002599115112389 0 0 0 0 -86.145342180854641 41.801437369940686 0 41.801437369940686 55.956429602607386 0 0 0 0 -3.7802584223204541 -0.0090270949832849112 0 -0.0090270949832849112 0.67880162212783901 0 0 0 0 -11.297784526227584 9.055968515621359 0 9.055968515621359 -6.0149675056174186 0 0 0 0 322.9863107770343 -3.4293806850046167 0 -3.4293806850046167 -247.42308902427703 0 0 0 0 -94.021803262525282 36.621294420798222 0 36.621294420798222 204.70635482496436 0 0 0 0 8.9272758467777749 18.587020078191927 0 18.587020078191927 194.07206323500759 0 0 0 0 -85.931099750278008 49.822672568151575 0 49.822672568151575 221.13148624374298 0 0 0 0 -6.4557401430082564 4.8782713040105712 0 4.8782713040105712 -1.0719525497640419 0 0 0 0 28.303348147657744 30.72159679343531 0 30.72159679343531 -30.893740509211057 0 0 0 0 -28.439188773892795 10.623048246437978 0 10.623048246437978 3.9728642507774765 0 0 0 0 -3.0307396758489631 133.03320686509869 0 133.03320686509869 276.52049811790494 0 0 0 0 71.86490610873625 92.604008542391966 0 92.604008542391966 178.69782450059938 0 0 0 0 13.905306684281641 94.590614620843553 0 94.590614620843553 135.8213503085899 0 0 0 0 6.1488153103437071 50.669832042805865 0 50.669832042805865 220.83354234356011 0 0 0 0 -34.948231030897659 56.077632093505599 0 56.077632093505599 200.93163066933448 0 0 0 0 0.55223043300702557 39.392252063511478 0 39.392252063511478 133.30677607614052 0 0 0 0 -53.542575089591992 58.990642235621635 0 58.990642235621635 198.08482678198925 0 0 0 0 -32.610020497057121 57.01569274520989 0 57.01569274520989 197.71038101782233 0 0 0 0 26.277926259601827 90.457534793524246 0 90.457534793524246 94.000814159709989 0 0 0 0 16.880023588759286 107.88199663357591 0 107.88199663357591 132.94908523954473 0 0 0 0 42.560785258976011 144.03103664981154 0 144.03103664981154 88.431498885220208 0 0 0 0 -61.979790875041999 218.70675863207316 0 218.70675863207316 125.07816514004298 0 0 0 0 36.505321941845978 208.60489163977036 0 208.60489163977036 -58.331453196516449 0 0 0 0 23.766630235077173 27.715502134704366 0 27.715502134704366 -57.588285931885032 0 0 0 0 -148.78001790997951 26.987420342917176 0 26.987420342917176 129.02870589494341 0 0 0 0 -8.3909453985343134 24.740985129061301 0 24.740985129061301 195.45981851811575 0 0 0 0 -52.464404288673904 276.87400173550714 0 276.87400173550714 -223.69487699957608 0 0 0 0 -37.17445918110203 22.62722092409113 0 22.62722092409113 -2.309668859120098 0 0 0 0 -20.498589209886632 154.06951228231492 0 154.06951228231492 106.93141254361763 0 0 0 0 -10.353059617325926 114.38738333013498 0 114.38738333013498 220.58897552512099 0 0 0 0 65.449348547346744 211.57211330666814 0 211.57211330666814 -52.656717635167297 0 0 0 0 -8.6873780598912305 2.657407589919373 0 2.657407589919373 -1.028556763916022 0 0 0 0 21.238446342664247 3.276513587032241 0 3.276513587032241 -128.46544272309256 0 0 0 0 12.055943911480426 97.849331697419984 0 97.849331697419984 -52.9039908598279 0 0 0 0 -45.519863976931447 -0.9473417744247854 0 -0.9473417744247854 -130.72612444159404 0 0 0 0 -25.388992658597999 142.80321707774783 0 142.80321707774783 256.7201153204096 0 0 0 0 97.541778931919907 -80.779349368876865 0 -80.779349368876865 -457.34710531444489 0 0 0 0 -2.9800650737447612 0.75867031501174154 0 0.75867031501174154 -0.087008313123249081 0 0 0 0 68.369678587310773 84.393816567717295 0 84.393816567717295 165.35703873884268 0 0 0 0 23.9483219821891 117.61033384900929 0 117.61033384900929 142.82827904422084 0 0 0 0 29.567335627027205 109.05151347043193 0 109.05151347043193 150.30981249853721 0 0 0 0 51.951716794878394 130.99121405980713 0 130.99121405980713 178.90472078908351 0 0 0 0 49.926206191963388 133.83119662952629 0 133.83119662952629 101.40923517795454 0 0 0 0 45.374837580644453 101.6250177198981 0 101.6250177198981 142.64450084998498 0 0 0 0 36.682759563956097 109.14673413343007 0 109.14673413343007 137.89089752876316 0 0 0 0 -733.09815149202677 439.28144855845312 0 439.28144855845312 251.00689504663751 0 0 0 0 17.950763265316912 74.051134564912644 0 74.051134564912644 -53.362749751492501 0 0 0 0 317.65925397329829 33.494450070276798 0 33.494450070276798 -200.68449763651006 0 0 0 0 60.071303501646696 116.43237597562984 0 116.43237597562984 232.95346656765105 0 0 0 0 189.57631797239139 -4.7742830119932478 0 -4.7742830119932478 132.35073089248908 0 0 0 0 16.579795130917603 73.127491713855363 0 73.127491713855363 -52.708677523869 0 0 0 0 0.51419153073038615 181.23406575352055 0 181.23406575352055 127.61664806351655 0 0 0 0 31.964328080918676 123.9601414513636 0 123.9601414513636 144.5085705760066 0 0 0 0 -23.912312810552976 54.379478129673771 0 54.379478129673771 -8.4444603982046829 0 0 0 0 1.382706783242611 57.625616777051619 0 57.625616777051619 3.9145206771612848 0 0 0 0 1.3952835914979005 57.964411422892226 0 57.964411422892226 -7.6656072454461537 0 0 0 0 -21.972268672854252 35.116286691848856 0 35.116286691848856 -13.189770901358827 0 0 0 0 -25.362671161954495 48.380670631934663 0 48.380670631934663 -26.024576504598372 0 0 0 0 -25.001027506548702 33.829031818317979 0 33.829031818317979 6.7980848116226298 0 0 0 0 13.681474344314253 40.322104721603978 0 40.322104721603978 -16.446211309395675 0 0 0 0 4.7054838412896345 15.586526985189828 0 15.586526985189828 -2.2340942831693447 0 0 0 0 -29.329947401412937 48.565363199104468 0 48.565363199104468 -10.554536116689633 0 0 0 0 -36.814987901845598 42.912302660355635 0 42.912302660355635 -12.234233707769818 0 0 0 0 -27.276286231324775 48.244740098589318 0 48.244740098589318 -23.569104830570836 0 0 0 0 -21.792010791235953 33.647457468116045 0 33.647457468116045 -23.993798516991546 0 0 0 0 -19.380936367592845 39.197852917055286 0 39.197852917055286 -0.17199368354430788 0 0 0 0 -45.18169266555924 54.495283862670476 0 54.495283862670476 45.07774468572461 0 0 0 0 -14.39428968507309 7.641600287930487 0 7.641600287930487 59.272883977857418 0 0 0 0 -13.580683902011515 61.56098093696346 0 61.56098093696346 36.500495516171213 0 0 0 0 2.2967178541105326 5.0454945999547647 0 5.0454945999547647 10.573976072283543 0 0 0 0 -47.268909735648776 49.510588235727482 0 49.510588235727482 45.62355462762207 0 0 0 0 -2.4322486924025952 43.514583751803002 0 43.514583751803002 39.717813685510919 0 0 0 0 17.572005864954917 64.799537282537131 0 64.799537282537131 33.251438076185877 0 0 0 0 18.934375923608172 63.744819434458805 0 63.744819434458805 12.138784461829346 0 0 0 0 -28.263307278492302 27.773944472131106 0 27.773944472131106 15.443477835540207 0 0 0 0 -32.506127745731682 31.531322085390507 0 31.531322085390507 16.816917980252242 0 0 0 0 4.0129465601203265 32.242673770480906 0 32.242673770480906 42.081758782383986 0 0 0 0 -11.67166247300338 38.672973299762816 0 38.672973299762816 -1.6342599241454197 0 0 0 0 -22.09256686011183 32.310866834463411 0 32.310866834463411 23.825066844654529 0 0 0 0 -10.126204542990308 38.217275226881611 0 38.217275226881611 -3.4512002533301711 0 0 0 0 28.976653030839586 49.784443267010282 0 49.784443267010282 -7.7583252263004852 0 0 0 0 2.0036924390806234 56.014148625195958 0 56.014148625195958 49.246703249101493 0 0 0 0 -9.0696916505780685 31.440779566598529 0 31.440779566598529 11.368159768893925 0 0 0 0 52.879841601370572 108.87748699441363 0 108.87748699441363 72.924240556341829 0 0 0 0 4.0486980608620797 88.485497278856201 0 88.485497278856201 82.290729976084549 0 0 0 0 -13.446033061776689 111.83651264292712 0 111.83651264292712 81.861988187501993 0 0 0 0 30.62679821751226 117.41934782389581 0 117.41934782389581 57.870796811126638 0 0 0 0 -20.639112085744273 44.143909981445177 0 44.143909981445177 25.371971785527421 0 0 0 0 56.720575860843383 129.00145081489063 0 129.00145081489063 94.464684511342057 0 0 0 0 56.766720867575941 132.30394433414085 0 132.30394433414085 81.856832423669402 0 0 0 0 33.308652183040977 106.58533331378203 0 106.58533331378203 90.394648127845358 0 0 0 0 48.606640189863128 98.389135386837097 0 98.389135386837097 77.921673021359311 0 0 0 0 48.030062626774452 92.843475419587776 0 92.843475419587776 146.90184735667208 0 0 0 0 24.706107679761772 104.14482421673893 0 104.14482421673893 95.854227775984327 0 0 0 0 -6.2858285138984797 13.730461456076064 0 13.730461456076064 -2.9807134560995721 0 0 0 0 52.98998465837758 43.615769273765181 0 43.615769273765181 -16.835155826560367 0 0 0 0 -9.5183786065113054 46.616033870906904 0 46.616033870906904 1.7728284719196381 0 0 0 0 -29.727172584095801 28.347761434767328 0 28.347761434767328 1.9076639883261919 0 0 0 0 -44.680801617254474 31.607775762151505 0 31.607775762151505 70.185780437721405 0 0 0 0 24.879155245577387 43.579731650605332 0 43.579731650605332 -10.788529017235451 0 0 0 0 -18.484708582901529 32.681256960056871 0 32.681256960056871 15.509083785136696 0 0 0 0 11.584629723678518 45.958542893597041 0 45.958542893597041 32.151872397196712 0 0 0 0 -6.6822278090160321 38.243923619454108 0 38.243923619454108 0.19350894153333087 0 0 0 0 -0.10300048875902945 16.53275452763274 0 16.53275452763274 1.1105888687233101 0 0 0 0 71.674498631313327 88.656664162270317 0 88.656664162270317 -38.916341141884914 0 0 0 0 22.835386473067047 48.820712817052481 0 48.820712817052481 -2.2343275787734456 0 0 0 0 -21.834175690036755 27.149414035004305 0 27.149414035004305 -8.7249347600149747 0 0 0 0 -15.506497616792331 32.36762717104375 0 32.36762717104375 12.15511328608045 0 0 0 0 45.994023468761952 97.6549488751225 0 97.6549488751225 -11.189581364460537 0 0 0 0 -11.933615598989491 32.122418085391473 0 32.122418085391473 29.458627167059603 0 0 0 0 -31.439632137470738 24.541231415653126 0 24.541231415653126 4.263940351052625 0 0 0 0 12.325084014326421 56.662746938346572 0 56.662746938346572 24.268584027970064 0 0 0 0 -23.797843766098527 9.7830381129766515 0 9.7830381129766515 7.1714373664629818 0 0 0 0 -4.9310313958048937 15.349369073253911 0 15.349369073253911 4.2709042286278418 0 0 0 0 -5.3079936471531255 18.02173464680709 0 18.02173464680709 -0.82444355637198896 0 0 0 0 -11.399895082262447 26.529767829710181 0 26.529767829710181 13.569202476310238 0 0 0 0 -12.876534859473391 19.136478177643156 0 19.136478177643156 -1.3200531784323282 0 0 0 0 0.11450778042626553 39.835120701890446 0 39.835120701890446 2.8330258363239409 0 0 0 0 8.6280212668061722 30.550437437344954 0 30.550437437344954 5.5132195093101473 0 0 0 0 8.5109274032316193 8.3436638634269471 0 8.3436638634269471 -6.1381823616740974 0 0 0 0 2.527842529809277 8.5574027821494383 0 8.5574027821494383 -8.7049313506431645 0 0 0 0 -1.5932225378847988 1.5287361155527215 0 1.5287361155527215 -1.2409306462374872 0 0 0 0 2.9787450812541465 11.26383565964511 0 11.26383565964511 -86.418323654543201 0 0 0 0 500.56084376460058 -226.79583628497312 0 -226.79583628497312 -370.37015986160077 0 0 0 0 -14.066264278902963 61.787403622490274 0 61.787403622490274 -68.376004071615171 0 0 0 0 5.1577502625514171 19.024637779647492 0 19.024637779647492 -22.114490312502312 0 0 0 0 0.17699840481509455 52.148010652283119 0 52.148010652283119 -4.4685100802471425 0 0 0 0 20.949435707938392 55.289314815430771 0 55.289314815430771 -24.35197660691847 0 0 0 0 -1.9194073717198989 38.789441057396289 0 38.789441057396289 -25.13236386164499 0 0 0 0 -26.184784352333736 47.610882385646619 0 47.610882385646619 -16.184572634094366 0 0 0 0 -29.361162759036233 53.196917749402928 0 53.196917749402928 -13.256555091793416 0 0 0 0 -29.020127409004999 45.017676018630027 0 45.017676018630027 3.4380507154564839 0 0 0 0 4.9367365578145836 36.711078289581565 0 36.711078289581565 -8.4463621254690224 0 0 0 0 -46.89774150057201 38.479015178112604 0 38.479015178112604 2.5979457552011809 0 0 0 0 -31.771994069924403 34.957841811510662 0 34.957841811510662 0.30655598441080656 0 0 0 0 -46.545750898934784 50.840163774344546 0 50.840163774344546 -2.4844654528878891 0 0 0 0 -30.613856011135795 50.052520991507208 0 50.052520991507208 -4.0345328454641276 0 0 0 0 -32.405649215252197 39.120426639714424 0 39.120426639714424 -5.9400353023447678 0 0 0 0 -61.744565023480391 40.02053919291393 0 40.02053919291393 -3.4561890770455648 0 0 0 0 -30.481515286709509 271.17136431669996 0 271.17136431669996 1.4143865137411922 0 0 0 0 -5.0689613012473274 84.304046172215294 0 84.304046172215294 -81.467327433092578 0 0 0 0 -57.112237787077902 69.409285080986592 0 69.409285080986592 -20.523124499934966 0 0 0 0 -36.788527386073838 425.86502284387188 0 425.86502284387188 530.35555279587788 0 0 0 0 -290.08026674167922 -12.456958649938315 0 -12.456958649938315 757.1038091775481 0 0 0 0 -163.48818843310619 -201.36388863520915 0 -201.36388863520915 70.351167181048368 0 0 0 0 193.5941085519662 501.38921894450687 0 501.38921894450687 544.92335658571028 0 0 0 0 332.15699798366404 328.6117494903101 0 328.6117494903101 126.28034614082935 0 0 0 0 475.38941570173847 478.3076954527296 0 478.3076954527296 243.47444198842641 0 0 0 0 -67.39840389276651 306.33908619646536 0 306.33908619646536 403.52700086486948 0 0 0 0 136.37456601768645 230.92005236627301 0 230.92005236627301 86.743309906980357 0 0 0 0 -310.29799950858433 173.2993021657785 0 173.2993021657785 500.23636184030374 0 0 0 0 2.7984841438500254 5.054808335595574 0 5.054808335595574 8.1177139069476496 0 0 0 0 532.90381043129878 125.90608027141172 0 125.90608027141172 10.668901989545702 0 0 0 0 -44.484292850858765 16.109041072733817 0 16.109041072733817 56.664663020892476 0 0 0 0 -35.173401478264168 33.588675585841884 0 33.588675585841884 35.261265643141087 0 0 0 0 -42.552377450749191 45.273750364171065 0 45.273750364171065 45.798593426297884 0 0 0 0 -44.739939345505263 7.065799189163954 0 7.065799189163954 61.469492590769732 0 0 0 0 -38.000391308643287 11.622762624830363 0 11.622762624830363 16.387045088293377 0 0 0 0 -37.610063020954719 12.887986704602767 0 12.887986704602767 19.526987116139161 0 0 0 0 -7.2723953824388303 6.2175830282977564 0 6.2175830282977564 -0.5452692075671095 0 0 0 0 -39.766911899176193 -129.56656476484932 0 -129.56656476484932 -147.95504708473163 0 0 0 0 -100.87856909701804 34.658397161241737 0 34.658397161241737 86.173474743812221 0 0 0 0 -108.28947032175347 33.086327768070987 0 33.086327768070987 137.61978430280578 0 0 0 0 -183.65549269709663 2.8763034517869528 0 2.8763034517869528 76.708525854781328 0 0 0 0 -4.2235811071540681 0.32675017221531988 0 0.32675017221531988 0.92124585214088484 0 0 0 0 -156.15485732496018 90.492204900234356 0 90.492204900234356 331.53627477202099 0 0 0 0 -15.880851548641658 207.31632119434107 0 207.31632119434107 235.55536552533522 0 0 0 0 -47.856819140938114 177.27108176941465 0 177.27108176941465 210.98146650851413 0 0 0 0 133.05182327658986 223.21375316623926 0 223.21375316623926 93.32382094946297 0 0 0 0 -20.697017028458049 120.25784812045271 0 120.25784812045271 118.88190399861924 0 0 0 0 -45.131979933925322 96.97472642259163 0 96.97472642259163 165.09540997680415 0 0 0 0 -21.762750502566632 55.492529979673236 0 55.492529979673236 91.992850815749989 0 0 0 0 -28.647211996503756 47.441624579321797 0 47.441624579321797 82.578180434098613 0 0 0 0 10.699817256947426 133.06439415384011 0 133.06439415384011 122.55404475035721 0 0 0 0 31.562347247254365 70.394876156949977 0 70.394876156949977 58.852714413555077 0 0 0 0 70.249330519603973 150.22584829324114 0 150.22584829324114 42.178515373383561 0 0 0 0 93.665792422289087 193.08256022675687 0 193.08256022675687 87.617324053720949 0 0 0 0 142.12226735003787 125.45555641383908 0 125.45555641383908 -11.888458640749377 0 0 0 0 112.81497792239679 138.94910605168479 0 138.94910605168479 43.273784962557556 0 0 0 0 119.02329488025862 149.6181439410484 0 149.6181439410484 -17.947719501848042 0 0 0 0 88.445732245323597 107.2241066084307 0 107.2241066084307 2.6382296774499991 0 0 0 0 105.92035497150573 70.519148748742737 0 70.519148748742737 34.606279238456409 0 0 0 0 60.736739034651691 35.714469857257427 0 35.714469857257427 -58.464476184361956 0 0 0 0 -90.889635011779319 22.978238706906268 0 22.978238706906268 40.896180573308811 0 0 0 0 290.44508976932775 135.35761381090924 0 135.35761381090924 -18.991840356764442 0 0 0 0 103.98774539188162 -43.523308984938922 0 -43.523308984938922 -56.147602391472901 0 0 0 0 124.085616818782 163.70402264607219 0 163.70402264607219 16.147341401961967 0 0 0 0 239.31823819375859 244.13396625752148 0 244.13396625752148 49.810333685854857 0 0 0 0 154.41777151341375 181.4438681416832 0 181.4438681416832 4.2907866982168343 0 0 0 0 152.37521124512023 146.83627923018594 0 146.83627923018594 -18.318826152841211 0 0 0 0 15.132164901424403 105.36715672180162 0 105.36715672180162 -9.1642112836786964 0 0 0 0 30.03689658807707 81.912380698572633 0 81.912380698572633 -6.5711725827059126 0 0 0 0 -40.400705908370583 72.988253962390445 0 72.988253962390445 11.064649710264348 0 0 0 0 -69.251161011416116 89.483565637854554 0 89.483565637854554 39.520356723842269 0 0 0 0 19.312841583043337 91.570312542808097 0 91.570312542808097 -6.0076292957164696 0 0 0 0 104.85051750229832 173.23012482254944 0 173.23012482254944 2.0276052141161927 0 0 0 0 47.822619247684997 132.75429296624907 0 132.75429296624907 -6.6777048162239225 0 0 0 0 -91.60870063389666 32.76423052269547 0 32.76423052269547 5.3183459248684812 0 0 0 0 -31.269289417910841 213.67606272776356 0 213.67606272776356 62.516869518876774 0 0 0 0 -149.3500312814158 53.404118684814421 0 53.404118684814421 24.031118074151891 0 0 0 0 118.96012014152802 38.580963520969362 0 38.580963520969362 12.429350486603653 0 0 0 0 164.94619675467402 87.082027093207216 0 87.082027093207216 7.8486174582840249 0 0 0 0 143.68201895189122 119.10113949952301 0 119.10113949952301 -36.488253520456055 0 0 0 0 284.04160339151349 89.07527184279752 0 89.07527184279752 -32.758286034116736 0 0 0 0 144.81082483370301 223.0189879790023 0 223.0189879790023 -4.9102216973587929 0 0 0 0 15.909362341658717 16.65245209691961 0 16.65245209691961 15.455227813018894 0 0 0 0 447.68617403352346 -18.124166146100379 0 -18.124166146100379 -23.783480004580269 0 0 0 0 178.54982722430213 22.922740931067892 0 22.922740931067892 12.0930515446762 0 0 0 0 285.04775437739954 110.45251076119803 0 110.45251076119803 94.537788535502841 0 0 0 0 353.87269930580806 120.07183308292497 0 120.07183308292497 -81.068216359280996 0 0 0 0 4.8228930386947511 5.1095608374840609 0 5.1095608374840609 5.9717325292654664 0 0 0 0 -487.18778293151445 289.42005999763933 0 289.42005999763933 -115.29850489187811 0 0 0 0 1543.0700554804462 -420.38586104214937 0 -420.38586104214937 -269.86575797119076 0 0 0 0 -263.79433014545975 215.57524089722301 0 215.57524089722301 -182.38581019827325 0 0 0 0 -483.76041704853742 310.31833097773688 0 310.31833097773688 -15.618968352462616 0 0 0 0 -224.53294278617341 -51.526957336049236 0 -51.526957336049236 -46.150602652754969 0 0 0 0 -743.03735549844487 -174.94670069806182 0 -174.94670069806182 -16.816465871377659 0 0 0 0 -411.74888394229492 192.14239963438376 0 192.14239963438376 81.742447970779722 0 0 0 0 137.04918486049792 434.75859844392744 0 434.75859844392744 -66.063126688275588 0 0 0 0 763.0970303041704 753.68388977757604 0 753.68388977757604 -397.19508303991461 0 0 0 0 -840.27078524756871 587.40054888111626 0 587.40054888111626 -12.924092462568296 0 0 0 0 707.32475288416754 557.5389048303964 0 557.5389048303964 -1086.8876631385065 0 0 0 0 -8.2149437136074823 8.8453100453095175 0 8.8453100453095175 -12.058185510553102 0 0 0 0 -0.8137891384181728 134.98867616818731 0 134.98867616818731 3.0982336510838815 0 0 0 0 -1184.5529853023399 553.08150581986774 0 553.08150581986774 352.87575827535147 0 0 0 0 45.553444583447344 88.248365524677865 0 88.248365524677865 -471.2008910776276 0 0 0 0 -80.634426834280021 112.8913581013403 0 112.8913581013403 -138.57055479811606 0 0 0 0 -19.088249200969585 -500.23777420439365 0 -500.23777420439365 -711.96378593185182 0 0 0 0 178.06935938986135 -12.68206610908419 0 -12.68206610908419 344.16465034700013 0 0 0 0 16.886771794488595 157.82533441281703 0 157.82533441281703 -469.27789368847061 0 0 0 0 -5.0130173761668715 131.95518335929347 0 131.95518335929347 2.8534250006551964 0 0 0 0 1376.4680853935133 -277.87825392584273 0 -277.87825392584273 53.10622503054401 0 0 0 0 -8.0045918942899519 130.68051190685509 0 130.68051190685509 2.7307234578996296 0 0 0 0 -298.86275089806441 385.41203004368435 0 385.41203004368435 -28.824024750592798 0 0 0 0 34.614994501655019 153.06625758312748 0 153.06625758312748 -514.77626538068944 0 0 0 0 -40.871660061911825 203.80485741798475 0 203.80485741798475 -219.27659511585807 0 0 0 0 36.992890166437064 179.32496057555727 0 179.32496057555727 -213.10032257797866 0 0 0 0 -90.643637119204868 220.16916260390099 0 220.16916260390099 -13.131787891783461 0 0 0 0 59.605908658606495 269.66496382817422 0 269.66496382817422 -29.94567026218283 0 0 0 0 90.179844326565217 160.64949807177618 0 160.64949807177618 -1.384265775824133 0 0 0 0 -9.9947593360266183 239.39693040357633 0 239.39693040357633 40.802889815844537 0 0 0 0 -5.7359187707243109 237.16546960119013 0 237.16546960119013 -10.203676781030481 0 0 0 0 -172.58071495103013 331.73070296050719 0 331.73070296050719 267.38428253088205 0 0 0 0 -50.8670110413168 50.874430671192385 0 50.874430671192385 162.34500712016234 0 0 0 0 -72.830709217894764 206.35871449456863 0 206.35871449456863 -118.1162818816083 0 0 0 0 59.895012991566546 -0.48425973372468434 0 -0.48425973372468434 8.8550977273516764 0 0 0 0 -7.9881512195579489 -34.421262201611171 0 -34.421262201611171 61.427029141788807 0 0 0 0 66.977490836161451 -41.786031492923939 0 -41.786031492923939 62.139493758560093 0 0 0 0 226.24291573695336 39.253560254652257 0 39.253560254652257 29.135635115898367 0 0 0 0 191.1879177172068 138.4696886998936 0 138.4696886998936 38.734326412231894 0 0 0 0 156.96190114353158 208.21554690089761 0 208.21554690089761 5.9955632743731258 0 0 0 0 87.818353131067852 119.93986343618235 0 119.93986343618235 56.15674009653776 0 0 0 0 74.578879680659156 195.93379393754003 0 195.93379393754003 201.71406685817055 0 0 0 0 0.3429326383381408 3.8663639251649471 0 3.8663639251649471 -0.03961006940468792 0 0 0 0 48.438812772346864 2.7041610126107116 0 2.7041610126107116 23.645175870475214 0 0 0 0 28.825330990512157 88.569625269483367 0 88.569625269483367 -670.46532472187005 0 0 0 0 -24.66583167734143 103.49402971177733 0 103.49402971177733 -428.90130149836841 0 0 0 0 -68.646102003038322 197.23886068016145 0 197.23886068016145 245.01959411867605 0 0 0 0 -11.80764323352188 128.72605683736893 0 128.72605683736893 2.7680941449501955 0 0 0 0 0.25846459997486448 6.3474871844466634 0 6.3474871844466634 -0.016442304747256387 0 0 0 0 11.944244672288733 95.823570955048126 0 95.823570955048126 -508.98945556288891 0 0 0 0 -11.016830515834698 126.30235271812873 0 126.30235271812873 4.7206268921250789 0 0 0 0 -153.67462306265907 153.20638633667022 0 153.20638633667022 441.04414739662025 0 0 0 0 -18.44163459366996 86.2084572507556 0 86.2084572507556 -329.20193793535145 0 0 0 0 5.3986797289717288 68.105736411186626 0 68.105736411186626 169.89157348753542 0 0 0 0 -90.571134436313514 277.00772229228824 0 277.00772229228824 -3.140147836840697 0 0 0 0 50.645748082733462 206.86167960952207 0 206.86167960952207 -38.948115940849675 0 0 0 0 -30.182573512184717 229.78574036297232 0 229.78574036297232 -39.922930764092598 0 0 0 0 4.7810099137823272 253.30570909366634 0 253.30570909366634 -283.92059249430531 0 0 0 0 -235.5771999790195 392.74774090902611 0 392.74774090902611 -266.98192977911458 0 0 0 0 -62.982688446188604 201.94317962710966 0 201.94317962710966 -69.877317879829207 0 0 0 0 -57.212535049959115 359.01793210396954 0 359.01793210396954 -158.1869873590349 0 0 0 0 9.0981514138984494 133.42564175745429 0 133.42564175745429 -75.054584755866017 0 0 0 0 -64.732379401912112 312.91240341621688 0 312.91240341621688 -174.39265818003196 0 0 0 0 2.1709209113832912 199.55121714117968 0 199.55121714117968 -241.38897084694509 0 0 0 0 -283.77952441625894 389.46105459953424 0 389.46105459953424 -210.6944396634608 0 0 0 0 -217.45684565948477 229.41951460704718 0 229.41951460704718 -178.60741744022926 0 0 0 0 -123.59336855605397 223.47923937178984 0 223.47923937178984 -203.44363250676997 0 0 0 0 -129.89570896735108 152.78902784468772 0 152.78902784468772 -255.69097549252547 0 0 0 0 -171.77491148770787 240.37362185347229 0 240.37362185347229 -190.9548712974356 0 0 0 0 -221.69388844472269 210.03377827597797 0 210.03377827597797 -204.64373265637823 0 0 0 0 -88.437003576009374 121.49885797692423 0 121.49885797692423 -237.33849193248898 0 0 0 0 -158.94762782290491 93.15199786366793 0 93.15199786366793 -231.46274435089981 0 0 0 0 -217.37510359484315 80.227371491130413 0 80.227371491130413 -195.76090563895923 0 0 0 0 92.468453006860727 32.087496553776873 0 32.087496553776873 33.843894359506521 0 0 0 0 97.434738804116932 59.198951839266556 0 59.198951839266556 23.684819626371791 0 0 0 0 21.130117587175459 27.997381293608068 0 27.997381293608068 27.042114794702332 0 0 0 0 226.64093711418036 37.841724242641249 0 37.841724242641249 -778.92753219034421 0 0 0 0 -168.29131263531417 482.22312100661202 0 482.22312100661202 -704.13542604261784 0 0 0 0 34.101658569230494 239.5146750017484 0 239.5146750017484 -415.48075856558444 0 0 0 0 20.533299241606073 71.328382183673966 0 71.328382183673966 -355.15598073661886 0 0 0 0 32.483751315009613 210.78753435122417 0 210.78753435122417 -275.95604921977292 0 0 0 0 19.093014836778821 152.08420426668545 0 152.08420426668545 -377.31417605680144 0 0 0 0 -7.7763075949551421 213.61112699086061 0 213.61112699086061 -249.18655432489049 0 0 0 0 -61.813897776381054 50.099758688116708 0 50.099758688116708 -228.35015538412335 0 0 0 0 -54.036642483571995 64.8737740996512 0 64.8737740996512 -240.97408132317287 0 0 0 0 -115.15557652721691 14.220179404663213 0 14.220179404663213 -142.90121886666566 0 0 0 0 -30.813916156035702 10.233907347052991 0 10.233907347052991 -112.93165448647324 0 0 0 0 19.163074099318692 58.543549445557801 0 58.543549445557801 -257.63650490338114 0 0 0 0 12.851427608267841 -9.7234945436557609 0 -9.7234945436557609 -34.694199127870661 0 0 0 0 -24.752976144076456 37.327779051204743 0 37.327779051204743 178.90478178863691 0 0 0 0 37.935859021444116 87.918370003025416 0 87.918370003025416 -352.64977697670838 0 0 0 0 47.209150612326994 25.662444723719091 0 25.662444723719091 -285.98064780769346 0 0 0 0 70.178030918074001 -18.81254498580347 0 -18.81254498580347 -262.09760529541927 0 0 0 0 81.678288614392841 -171.94584518152078 0 -171.94584518152078 -332.81257835411816 0 0 0 0 123.97843821100921 303.0698824540093 0 303.0698824540093 -608.53997311981584 0 0 0 0 -607.31418148271359 385.93043050336109 0 385.93043050336109 -225.31932305393639 0 0 0 0 -119.24050551416821 608.00925664791066 0 608.00925664791066 -350.49842908110259 0 0 0 0 -205.8337847148166 157.25993595334421 0 157.25993595334421 -220.22368750517489 0 0 0 0 0.31941527565231809 395.22126954726809 0 395.22126954726809 -717.39485175816662 0 0 0 0 176.0696036793116 155.17574269188663 0 155.17574269188663 -391.14773485888145 0 0 0 0 96.006192337284887 996.08741595708307 0 996.08741595708307 -554.01617423519383 0 0 0 0 -276.64337146875323 880.55025674253739 0 880.55025674253739 -788.92319772264818 0 0 0 0 -559.07853539823077 -330.45580552742558 0 -330.45580552742558 -1397.2587207891847 0 0 0 0 -1376.6576075302985 22.414165320300526 0 22.414165320300526 -739.65208104353951 0 0 0 0 -4.2642157154383176 5.4247456052590053 0 5.4247456052590053 -7.2977079132647553 0 0 0 0 -670.30154970192507 -163.83539239506172 0 -163.83539239506172 91.785553921625251 0 0 0 0 82.422378882856606 387.08818215759675 0 387.08818215759675 -769.5940319199035 0 0 0 0 -1041.2930972097261 69.172991007031669 0 69.172991007031669 -44.102825987301912 0 0 0 0 -732.88065000718802 625.62023952137133 0 625.62023952137133 -969.48967649051701 0 0 0 0 -556.25594644610374 474.15212800828226 0 474.15212800828226 -242.59249319921219 0 0 0 0 -90.999135996297809 95.570323065850971 0 95.570323065850971 -907.22209693391233 0 0 0 0 -567.64007336255281 191.26583728441437 0 191.26583728441437 -182.72276142134433 0 0 0 0 -43.04956098236903 659.22487727094017 0 659.22487727094017 81.282753023684563 0 0 0 0 -117.58803805644129 -5.723272866469415 0 -5.723272866469415 54.219301381183755 0 0 0 0 -236.2626154236344 -110.49871135319805 0 -110.49871135319805 -172.60044910863871 0 0 0 0 664.68718669380769 58.558971747233954 0 58.558971747233954 -420.60344304620412 0 0 0 0 -292.84350305558655 78.810449253916886 0 78.810449253916886 -768.61489496879403 0 0 0 0 1.3066583195607495 0.75452429034761082 0 0.75452429034761082 -4.1395033976749644 0 0 0 0 -228.438643505649 -581.5920048424905 0 -581.5920048424905 -761.73426629241192 0 0 0 0 -79.81152588833038 -53.754040130832436 0 -53.754040130832436 -32.588379893491947 0 0 0 0 -4.5848775887620832 -28.280507558451063 0 -28.280507558451063 -62.717671555077686 0 0 0 0 -42.669077496369482 -5.5413351558217983 0 -5.5413351558217983 146.96637710680079 0 0 0 0 102.75536275324203 150.51168328131098 0 150.51168328131098 130.9089588353454 0 0 0 0 -23.98426423319961 -341.18338668509296 0 -341.18338668509296 -336.11235561979447 0 0 0 0 0.74330125291334159 2.962407535116018 0 2.962407535116018 -11.926753148980119 0 0 0 0 58.277475738167141 120.94214732330329 0 120.94214732330329 123.20541538743191 0 0 0 0 192.59756104140558 353.47838666368625 0 353.47838666368625 192.84646186105238 0 0 0 0 45.863292082553471 25.915177860083531 0 25.915177860083531 96.256940267418031 0 0 0 0 6.2911003105567715 287.72628849645116 0 287.72628849645116 321.99375501593022 0 0 0 0 -2.7009419326459274 3.8260019157975833 0 3.8260019157975833 -5.1384207008208449 0 0 0 0 -3.1880615108293195 30.514113460701701 0 30.514113460701701 17.395351120519816 0 0 0 0 -3.9781042219485103 15.609070226965638 0 15.609070226965638 26.205129177566125 0 0 0 0 -937.92935752173435 141.5436900208515 0 141.5436900208515 1050.5068254481303 0 0 0 0 25.320851855636278 41.41711375911359 0 41.41711375911359 170.46247188350753 0 0 0 0 -38.537756705271164 13.206637571752026 0 13.206637571752026 273.98878264024097 0 0 0 0 14.130507769400083 -8.1771731740591349 0 -8.1771731740591349 -24.920534470937127 0 0 0 0 -24.781300769154996 22.464059645174075 0 22.464059645174075 132.28494006664187 0 0 0 0 -15.128553842129804 -35.509510988005786 0 -35.509510988005786 223.17208981531076 0 0 0 0 10.285538189526051 197.11331482158857 0 197.11331482158857 173.46842186915546 0 0 0 0 -171.93417328086957 93.525337804945138 0 93.525337804945138 135.67230570147876 0 0 0 0 -143.24517872108663 23.439100886145752 0 23.439100886145752 133.81083609453253 0 0 0 0 -105.79716543976792 -88.602728285537523 0 -88.602728285537523 -67.571232686976145 0 0 0 0 1.0337075237225435 -1.1154961674323189 0 -1.1154961674323189 -7.3241689094043068 0 0 0 0 -547.87261369284715 -14.804944322537835 0 -14.804944322537835 -65.214708678820898 0 0 0 0 -223.75547210423792 -58.167680180329626 0 -58.167680180329626 51.15301188441299 0 0 0 0 -229.11123951152695 209.03062048984248 0 209.03062048984248 -13.601519644058499 0 0 0 0 -243.23135079528325 140.44927166852332 0 140.44927166852332 -60.59174156669178 0 0 0 0 849.33590767206033 666.09307494025052 0 666.09307494025052 -613.07450339883871 0 0 0 0 1174.8631296914878 -664.28226945741153 0 -664.28226945741153 -475.53628507790563 0 0 0 0 -41.661218703022541 188.50592441206936 0 188.50592441206936 -290.86354316879078 0 0 0 0 77.078877714712235 -83.311887918684079 0 -83.311887918684079 -27.481984763289802 0 0 0 0 584.38915658508768 -197.21427478895566 0 -197.21427478895566 -55.486394748113526 0 0 0 0 330.96651279254797 -1550.534824357459 0 -1550.534824357459 -77.646196417685132 0 0 0 0 -390.48389279274397 33.67148046785951 0 33.67148046785951 330.4731676114352 0 0 0 0 -634.229884814873 -560.97706443344941 0 -560.97706443344941 169.89911500606831 0 0 0 0 41.171453687216399 3.055516194286156 0 3.055516194286156 -123.21763620008824 0 0 0 0 53.065389429226343 33.334733596660953 0 33.334733596660953 -47.577627381473576 0 0 0 0 15.034281646409681 50.437406405720594 0 50.437406405720594 -208.30902907657219 0 0 0 0 29.415795485703832 0.57043804264375808 0 0.57043804264375808 -1.0275090463696959 0 0 0 0 155.98189404527875 364.71869391010841 0 364.71869391010841 402.45721483608168 0 0 0 0 222.13286371905269 68.79354376394167 0 68.79354376394167 53.690334346834788 0 0 0 0 54.881277260745719 79.05636690785559 0 79.05636690785559 -188.62359368459602 0 0 0 0 66.615172161591545 -5.3556064560552841 0 -5.3556064560552841 -458.20392684884155 0 0 0 0 10.165092089801483 2.1833748902630994 0 2.1833748902630994 -1.0576565821998631 0 0 0 0 284.77077148313947 619.94070421485048 0 619.94070421485048 846.47033806546278 0 0 0 0 252.92742873019006 103.93275781420562 0 103.93275781420562 -210.86311190534252 0 0 0 0 27.040712137776609 -62.513652555750014 0 -62.513652555750014 -253.996192413877 0 0 0 0 7.0449882954258349 24.579914143765073 0 24.579914143765073 5.2815146314580375 0 0 0 0 139.15335784142007 91.935340152198478 0 91.935340152198478 -196.30380752998826 0 0 0 0 54.109747314016204 128.2950611259057 0 128.2950611259057 -169.08363417236251 0 0 0 0 226.85737131367478 135.27290087792881 0 135.27290087792881 -172.00795614319941 0 0 0 0 121.50549637824133 82.471154511202258 0 82.471154511202258 52.259186170798785 0 0 0 0 -40.844221688799735 125.61348607183936 0 125.61348607183936 226.37880739985212 0 0 0 0 134.63438512139874 385.38909424549274 0 385.38909424549274 294.90105641936498 0 0 0 0 -147.87970206184764 204.85464350726761 0 204.85464350726761 722.41001326195874 0 0 0 0 23.552844903653536 15.845634046825641 0 15.845634046825641 -31.139342542129214 0 0 0 0 -85.36628411015954 166.64826527974856 0 166.64826527974856 438.79824834750252 0 0 0 0 91.171241493833804 125.91208293395903 0 125.91208293395903 441.85955602832837 0 0 0 0 304.42294680660962 224.63330540994866 0 224.63330540994866 -545.31243345780968 0 0 0 0 -0.31532575178279387 6.518659300671878 0 6.518659300671878 -0.64137032822784779 0 0 0 0 180.4056730115808 -119.85998821064459 0 -119.85998821064459 -894.33133916581266 0 0 0 0 32.858207280900388 97.940661096867188 0 97.940661096867188 0.59056252013033372 0 0 0 0 8.5424021493854525 104.67245275713503 0 104.67245275713503 21.350003605715756 0 0 0 0 77.442780652199872 113.25547986771744 0 113.25547986771744 1.434104211639351 0 0 0 0 129.20862425646192 99.522244288032198 0 99.522244288032198 -100.77870311188235 0 0 0 0 58.723334271739873 57.279357851404534 0 57.279357851404534 13.572861928974742 0 0 0 0 27.115408493007955 63.08039230181592 0 63.08039230181592 9.4737331587088747 0 0 0 0 25.007131667065551 59.40284741479536 0 59.40284741479536 24.728324435463946 0 0 0 0 24.994292629125994 88.726874156166559 0 88.726874156166559 -34.757404011331346 0 0 0 0 63.10459087354684 120.78140314312532 0 120.78140314312532 26.234972977246599 0 0 0 0 44.198628795003941 58.036611949245831 0 58.036611949245831 36.118330541306975 0 0 0 0 4.38462312874465 37.300220009567923 0 37.300220009567923 -21.912862054216898 0 0 0 0 255.75355625293741 118.05229322628657 0 118.05229322628657 -68.361594038760359 0 0 0 0 230.83182021277025 347.34753236414326 0 347.34753236414326 255.07616935934857 0 0 0 0 -1.0203178242372815 79.300938538770424 0 79.300938538770424 49.294112312563811 0 0 0 0 -18.524788021510176 191.81614913332305 0 191.81614913332305 346.52920055826689 0 0 0 0 48.503359619904252 57.208379665410256 0 57.208379665410256 -6.4462955286411265 0 0 0 0 77.198599659586762 101.30321333415077 0 101.30321333415077 35.559045608887573 0 0 0 0 -4.2979362404289247 37.490526174868357 0 37.490526174868357 -6.5614880255113448 0 0 0 0 84.459165998668141 140.17789851142174 0 140.17789851142174 94.661469153727012 0 0 0 0 58.269428786170543 70.926714509972498 0 70.926714509972498 -12.112486684272625 0 0 0 0 78.928710097710791 114.26096680277988 0 114.26096680277988 93.100382145297772 0 0 0 0 0.22971986054710669 8.3181164278223036 0 8.3181164278223036 -15.042288358992733 0 0 0 0 33.690840918796312 56.873405671345608 0 56.873405671345608 0.22364475364884129 0 0 0 0 36.752053538986729 82.945522846761378 0 82.945522846761378 4.0138592956973298 0 0 0 0 -8.94814361091729 37.396134361623709 0 37.396134361623709 -10.386604218367182 0 0 0 0 49.548049357263537 58.577890461655642 0 58.577890461655642 23.080147664956527 0 0 0 0 117.08513044288702 99.219163876947277 0 99.219163876947277 -30.472801456715388 0 0 0 0 17.832254420070505 43.309331792092848 0 43.309331792092848 -45.612127440111621 0 0 0 0 87.327700752573037 145.44394252629536 0 145.44394252629536 40.998719992912811 0 0 0 0 60.946633425268374 89.756422858112273 0 89.756422858112273 55.489143952443555 0 0 0 0 56.75712487647214 82.784772111458324 0 82.784772111458324 44.615450092283055 0 0 0 0 86.689476824962185 100.37057260981237 0 100.37057260981237 -133.0173170056878 0 0 0 0 36.727878484330176 181.17439344259401 0 181.17439344259401 56.588626112104976 0 0 0 0 17.006610415555855 13.838450074762019 0 13.838450074762019 8.666566973071383 0 0 0 0 121.45731290407275 78.404126714696758 0 78.404126714696758 -84.094534516316344 0 0 0 0 -13.657728402475186 77.393451853537044 0 77.393451853537044 22.493749825403938 0 0 0 0 0.33436466866709225 42.749875094945047 0 42.749875094945047 -33.823260147978274 0 0 0 0 3.8889368967538758 96.057251146983617 0 96.057251146983617 -340.8917008779265 0 0 0 0 -1.2716126211771375 6.5001259358174082 0 6.5001259358174082 1.0158843064044945 0 0 0 0 -60.713765269460055 -7.4577045023570463 0 -7.4577045023570463 296.85066193050079 0 0 0 0 -6.0669822031670684 124.84653444422301 0 124.84653444422301 -8.0697244479842478 0 0 0 0 -9.5183864830455605 75.619820443303979 0 75.619820443303979 -215.51352839900937 0 0 0 0 23.813293681188952 85.063651590000518 0 85.063651590000518 36.86201560330403 0 0 0 0 35.60458915146863 68.367251362677223 0 68.367251362677223 -9.8750416894828277 0 0 0 0 115.61556697765388 86.246872969304036 0 86.246872969304036 128.88324965070206 0 0 0 0 43.919593507503578 96.898328229371145 0 96.898328229371145 88.980128240251361 0 0 0 0 36.65814879350669 50.397696446784522 0 50.397696446784522 -26.006770349826063 0 0 0 0 26.952108280396715 98.164270142729947 0 98.164270142729947 8.5932466451558867 0 0 0 0 -27.74608754986938 34.758161302188704 0 34.758161302188704 14.213955602205246 0 0 0 0 -8.2857849449901657 63.609707205310421 0 63.609707205310421 -54.735003793111687 0 0 0 0 -9.6425800856976878 95.680057815301552 0 95.680057815301552 -163.43420234986479 0 0 0 0 -3.6093532084306954 12.355206938383503 0 12.355206938383503 -3.9848966969117043 0 0 0 0 -9.9834723940662116 49.052255280257668 0 49.052255280257668 17.746723008267963 0 0 0 0 57.750865565478307 83.083242276887177 0 83.083242276887177 -23.553224739323696 0 0 0 0 -18.720979782117752 36.650948822347345 0 36.650948822347345 2.5870414407472708 0 0 0 0 -26.245254622424724 29.590191734562506 0 29.590191734562506 -14.428140151765774 0 0 0 0 -8.5096186366669144 60.590301600488601 0 60.590301600488601 11.594139483182516 0 0 0 0 25.466497203874269 62.358698216739867 0 62.358698216739867 -4.3318108602034044 0 0 0 0 -13.133708958763236 83.155130138653476 0 83.155130138653476 9.5914897487746202 0 0 0 0 -13.855724900439327 88.42091353484193 0 88.42091353484193 57.428852866403759 0 0 0 0 -32.357738302054258 50.903387503247359 0 50.903387503247359 32.639539017436618 0 0 0 0 -25.725613200750786 7.6148605639725702 0 7.6148605639725702 81.419700175523758 0 0 0 0 -34.473649332787318 -4.6765295735895052 0 -4.6765295735895052 64.15066342307091 0 0 0 0 -133.20656392908404 27.346461215924137 0 27.346461215924137 85.92679724990694 0 0 0 0 -97.323979706688078 10.146682919306841 0 10.146682919306841 76.231133534864057 0 0 0 0 -301.82099571195158 107.20872405301634 0 107.20872405301634 61.421306396354339 0 0 0 0 21.122175432353743 57.222672103194782 0 57.222672103194782 38.671477019404847 0 0 0 0 -1.3009710522605098 3.4212739599805921 0 3.4212739599805921 -0.48753137085336107 0 0 0 0 -303.97678476462534 96.949250604086046 0 96.949250604086046 44.859307158774754 0 0 0 0 -5.9428964655307936 73.930871797419968 0 73.930871797419968 29.227020392481791 0 0 0 0 -128.74607860624519 120.39999974619604 0 120.39999974619604 75.033871226452902 0 0 0 0 -12.324182410310186 176.46689107099155 0 176.46689107099155 52.966927312227199 0 0 0 0 72.768181093486419 107.07073522741484 0 107.07073522741484 16.243336609381004 0 0 0 0 2.0550641771729943 107.71387814408399 0 107.71387814408399 59.95076821668772 0 0 0 0 164.32500699677144 162.29051002339838 0 162.29051002339838 78.091906044421194 0 0 0 0 -74.251184323974798 -99.198912053565437 0 -99.198912053565437 122.54364605908631 0 0 0 0 53.253030780850054 25.387176448817627 0 25.387176448817627 18.737514702399494 0 0 0 0 220.58932149178833 8.7892202310176799 0 8.7892202310176799 39.645914508975693 0 0 0 0 50.692257746651308 68.890531881916104 0 68.890531881916104 46.444150430987065 0 0 0 0 279.95665267276758 -16.545966195204528 0 -16.545966195204528 -87.438495468886686 0 0 0 0 109.74174794094051 -140.71401656651869 0 -140.71401656651869 2.3072107420302927 0 0 0 0 137.17091096654963 65.8823435981285 0 65.8823435981285 236.37316047569038 0 0 0 0 456.56636568093353 142.60934874595841 0 142.60934874595841 11.590348952748172 0 0 0 0 114.06291399387936 27.01794063220359 0 27.01794063220359 158.51315225491999 0 0 0 0 391.62194367565496 335.11834720249135 0 335.11834720249135 204.43974542905926 0 0 0 0 311.36836131716905 319.09870826373663 0 319.09870826373663 312.7684249899612 0 0 0 0 0.33539694695426925 1.0408213358731757 0 1.0408213358731757 -1.7211117111546343 0 0 0 0 -508.12415490237254 85.245968081580941 0 85.245968081580941 -3.5146004615962738 0 0 0 0 22.865423770879715 51.938355822021549 0 51.938355822021549 19.36264069815843 0 0 0 0 -1.3064382509473944 108.14441135770903 0 108.14441135770903 186.18335618533456 0 0 0 0 0.44268090287406353 1.8473440373419781 0 1.8473440373419781 1.1608684410373655 0 0 0 0 -45.217990929841051 -48.839655604775999 0 -48.839655604775999 63.555624326159887 0 0 0 0 2.0146282689502186 24.206351716784411 0 24.206351716784411 -11.307510733910021 0 0 0 0 9.6031265939086126 20.622694586693612 0 20.622694586693612 11.259305356747461 0 0 0 0 36.831874285720914 58.334134428907419 0 58.334134428907419 1.9908477030403446 0 0 0 0 13.608809424555357 41.50980401057322 0 41.50980401057322 56.839319308373504 0 0 0 0 -4.2853460745800476 60.772853088878037 0 60.772853088878037 29.279575354790722 0 0 0 0 -13.249974754900876 9.8614479133830173 0 9.8614479133830173 -32.464394370883383 0 0 0 0 66.88611593575996 265.69559041368757 0 265.69559041368757 6.9201106190812425 0 0 0 0 3.1091301088706733 15.354237148211469 0 15.354237148211469 -30.916116247079145 0 0 0 0 -26.085519215030899 83.722513254501337 0 83.722513254501337 20.306276358605828 0 0 0 0 7.1115949766363364 48.821066936925376 0 48.821066936925376 22.43050918888656 0 0 0 0 -63.977875751086685 78.009592171874829 0 78.009592171874829 83.047729172321851 0 0 0 0 -5.614735635085367 40.194434062983021 0 40.194434062983021 56.549130102834866 0 0 0 0 73.012888257613668 110.20624537872482 0 110.20624537872482 34.761013745970558 0 0 0 0 107.49528467031803 42.160088381839159 0 42.160088381839159 -16.292039658377689 0 0 0 0 -4.2783470794078813 5.9602180298524203 0 5.9602180298524203 -4.7102793382220227 0 0 0 0 -79.470762153987366 -19.231347916434061 0 -19.231347916434061 63.917274738196284 0 0 0 0 -89.715595712557842 5.9774787763417407 0 5.9774787763417407 82.839094763727189 0 0 0 0 -62.378956502069741 47.547606711479602 0 47.547606711479602 89.346614681773644 0 0 0 0 1.0819676064438681 -8.0982913503430609 0 -8.0982913503430609 96.867809077644779 0 0 0 0 -67.911999107949669 55.837007551141141 0 55.837007551141141 55.019848625754094 0 0 0 0 -30.312484554820923 5.2796092499017462 0 5.2796092499017462 12.046046835489051 0 0 0 0 -339.8431945954012 236.21747389514803 0 236.21747389514803 -112.30748426285572 0 0 0 0 -7.8553330233455556 46.438625378345627 0 46.438625378345627 30.601328304034354 0 0 0 0 -2.5993919874936182 63.303601636060193 0 63.303601636060193 6.881194310815772 0 0 0 0 62.916765660812871 72.70031329032463 0 72.70031329032463 182.37590267644555 0 0 0 0 62.452033110439515 80.450648574649222 0 80.450648574649222 53.156439714191947 0 0 0 0 33.694391934441228 160.1975874018317 0 160.1975874018317 84.174772312529967 0 0 0 0 120.809186595965 207.40382419002708 0 207.40382419002708 134.55012080174129 0 0 0 0 121.44551173238733 83.774780269485291 0 83.774780269485291 15.918224402827036 0 0 0 0 220.46411918107333 91.469917554706626 0 91.469917554706626 37.078030753400526 0 0 0 0 -2.2734447852199082 102.1915357409307 0 102.1915357409307 36.951310591612128 0 0 0 0 67.186154877876106 206.69434263908988 0 206.69434263908988 141.83596544706961 0 0 0 0 -25.975230059797468 120.60432239378861 0 120.60432239378861 241.21650936025981 0 0 0 0 -8.1439271468697143 8.0096102717761255 0 8.0096102717761255 -1.0633782034526718 0 0 0 0 -28.529943626723252 89.166911736712791 0 89.166911736712791 105.70395729153825 0 0 0 0 -32.710621041706489 49.185190488411926 0 49.185190488411926 14.591156332849494 0 0 0 0 41.792816652599868 146.00401549425078 0 146.00401549425078 -3.2013452432511258 0 0 0 0 75.397134658743198 132.72276382170185 0 132.72276382170185 -2.1288412087014876 0 0 0 0 -16.304596717681648 42.949500109833025 0 42.949500109833025 48.650737856456544 0 0 0 0 -154.1646970416341 110.1020662980136 0 110.1020662980136 34.531579135902575 0 0 0 0 22.249986272158232 52.722850509396338 0 52.722850509396338 34.310241544441624 0 0 0 0 -45.701100561986095 140.55174110007647 0 140.55174110007647 -30.840857537579723 0 0 0 0 3.9684723738155299 69.25787545950152 0 69.25787545950152 33.304474284261232 0 0 0 0 7.1959682306986865 5.909627227670839 0 5.909627227670839 3.4629364918301491 0 0 0 0 -6.6395229625551337 78.591181461323231 0 78.591181461323231 41.991826508150552 0 0 0 0 -18.857881362044495 38.137391460020424 0 38.137391460020424 8.384010283528653 0 0 0 0 11.476537353474242 59.488211706995202 0 59.488211706995202 46.718208454073022 0 0 0 0 -43.801009889302804 118.93349490824767 0 118.93349490824767 31.124748901900603 0 0 0 0 -27.119215025213634 114.64384649107524 0 114.64384649107524 -3.5419017552048899 0 0 0 0 -1.8566331427573459 114.77407156978734 0 114.77407156978734 -5.4252441598473524 0 0 0 0 -0.8937443799918583 124.13561822561405 0 124.13561822561405 6.9769324600056279 0 0 0 0 28.300958337002157 139.64026477524021 0 139.64026477524021 -18.335370202257764 0 0 0 0 51.391444089582365 71.158405321984901 0 71.158405321984901 -13.490757103827491 0 0 0 0 -17.000517008777763 49.292261116982587 0 49.292261116982587 -26.444568005134329 0 0 0 0 2.3185864732331538 79.101609570374421 0 79.101609570374421 20.489914418096305 0 0 0 0 4.8842212387789914 72.113122178227059 0 72.113122178227059 31.295483372006856 0 0 0 0 3.090047322327834 58.029143276169748 0 58.029143276169748 9.7889732258555853 0 0 0 0 126.02164625960722 102.04491541208336 0 102.04491541208336 9.7891851266394951 0 0 0 0 78.309287527299603 69.260057132967631 0 69.260057132967631 -1.381988240776991 0 0 0 0 10.24233277980602 62.894050655766478 0 62.894050655766478 19.919439234101446 0 0 0 0 255.45522421886562 86.543895160924876 0 86.543895160924876 -17.029120122344466 0 0 0 0 -24.82809616687998 32.570912045934762 0 32.570912045934762 -11.315358083169684 0 0 0 0 50.896467218975886 147.82956832438504 0 147.82956832438504 -4.5860961410799064 0 0 0 0 65.35337159550545 91.026561650596705 0 91.026561650596705 32.431452122575138 0 0 0 0 56.262660682972637 82.90274199860869 0 82.90274199860869 -144.81226927557145 0 0 0 0 2.056397162120291 20.767371322840276 0 20.767371322840276 -36.085753895954383 0 0 0 0 -28.776743141655793 26.368928058417971 0 26.368928058417971 -3.0914334536822139 0 0 0 0 15.174537759743544 127.20196018564457 0 127.20196018564457 3.0708410605147947 0 0 0 0 81.278306375352258 144.26110881351269 0 144.26110881351269 35.601574375876226 0 0 0 0 30.758078695809672 177.20218124451276 0 177.20218124451276 31.249729811461293 0 0 0 0 25.041547595621612 8.767871617049444 0 8.767871617049444 12.559365080773716 0 0 0 0 707.06506305852599 199.59791113662504 0 199.59791113662504 -551.3370478147408 0 0 0 0 81.980245975875107 66.855199282077081 0 66.855199282077081 43.842049770390531 0 0 0 0 962.01617759703367 560.00196758484526 0 560.00196758484526 -459.66240599899902 0 0 0 0 -239.92328856121821 148.91556469788156 0 148.91556469788156 93.905056934512686 0 0 0 0 -214.60502983623883 322.61729249673954 0 322.61729249673954 -31.981525942930602 0 0 0 0 325.80189425628123 741.61305929713853 0 741.61305929713853 89.212543983565411 0 0 0 0 -386.64358821978385 -407.32619779967354 0 -407.32619779967354 -119.44622064122814 0 0 0 0 139.92453985488828 -481.59286430233624 0 -481.59286430233624 -762.94518753295415 0 0 0 0 400.75309855103114 -67.495918142347364 0 -67.495918142347364 -745.66913397220196 0 0 0 0 602.82475917436022 169.42823135310755 0 169.42823135310755 -546.77554045605939 0 0 0 0 -227.30535866280843 -373.80120035433356 0 -373.80120035433356 -770.98607860834454 0 0 0 0 -9.8941520957051523 12.065754827313022 0 12.065754827313022 -10.341439989876761 0 0 0 0 -700.76886172721424 -161.37706719651032 0 -161.37706719651032 113.05751639299524 0 0 0 0 -56.577490814059274 -610.7259824124485 0 -610.7259824124485 -794.44568448854261 0 0 0 0 -5.5704387432381068 5.674204352145793 0 5.674204352145793 1.8746185875628498 0 0 0 0 -792.61154981220534 216.92187244120578 0 216.92187244120578 795.09902969226823 0 0 0 0 1071.1349613386701 -99.884952207459719 0 -99.884952207459719 -1132.3734701766225 0 0 0 0 491.98015717239468 561.04432904857094 0 561.04432904857094 -127.86217856942676 0 0 0 0 56.05523195148271 237.52530219239998 0 237.52530219239998 -139.07079502700435 0 0 0 0 135.13093780635245 244.43568199125002 0 244.43568199125002 -139.74863226868911 0 0 0 0 203.69217511983879 237.85012110962998 0 237.85012110962998 -489.97045619049459 0 0 0 0 -21.353950267133769 -39.079207275703084 0 -39.079207275703084 -314.78676185916265 0 0 0 0 54.977908901433693 81.763586815890449 0 81.763586815890449 -144.95790963487525 0 0 0 0 108.07791086548241 133.30028906266671 0 133.30028906266671 -234.12320374365663 0 0 0 0 111.5508624449576 207.16563413850963 0 207.16563413850963 -190.76446795341326 0 0 0 0 84.491762791629299 184.10564975542366 0 184.10564975542366 -127.60636333262664 0 0 0 0 70.494727601937484 200.09759564624983 0 200.09759564624983 -117.61911635234719 0 0 0 0 79.741607338408357 181.47300195050775 0 181.47300195050775 -91.172931567940395 0 0 0 0 53.033500956269563 191.11725761275193 0 191.11725761275193 -77.851801056822296 0 0 0 0 51.199526496464387 202.0297702968528 0 202.0297702968528 -87.290095939507978 0 0 0 0 17.735909538867418 199.68134044175531 0 199.68134044175531 -43.995713800948579 0 0 0 0 71.078096850054862 209.27370010902814 0 209.27370010902814 -87.238496507925447 0 0 0 0 -186.73767400553334 309.05405710206833 0 309.05405710206833 29.894415465241764 0 0 0 0 66.621190612830105 268.4270283504593 0 268.4270283504593 -67.787649377656635 0 0 0 0 -123.97593357175356 352.07481897203252 0 352.07481897203252 -11.56000045069959 0 0 0 0 -0.55790248131961562 388.54636506875977 0 388.54636506875977 -13.591431992696016 0 0 0 0 -17.560317288764054 246.37054711638484 0 246.37054711638484 -71.344293687190657 0 0 0 0 -22.53256255746237 253.99230944925512 0 253.99230944925512 -14.270741195883602 0 0 0 0 -52.197749566301354 171.65693497846951 0 171.65693497846951 19.568681830569403 0 0 0 0 -156.01400701324746 230.28461875439098 0 230.28461875439098 1.3195381824625656 0 0 0 0 -120.30241866139113 154.39903517172206 0 154.39903517172206 49.490461968409363 0 0 0 0 -22.68386877985904 147.59504161255609 0 147.59504161255609 27.0863268871326 0 0 0 0 -53.440026241034502 172.531472455943 0 172.531472455943 19.752026239322731 0 0 0 0 -15.877984346429002 185.85577213250508 0 185.85577213250508 12.418097955989651 0 0 0 0 51.393140889384085 162.75894462152792 0 162.75894462152792 -0.25465480396451312 0 0 0 0 26.593749721347194 173.36161617851758 0 173.36161617851758 -2.3343178732320666 0 0 0 0 60.783442634230596 177.69772496170481 0 177.69772496170481 -51.461165765365877 0 0 0 0 -32.143784790139762 212.26215016188871 0 212.26215016188871 -38.005155799066415 0 0 0 0 27.420375489193248 168.68754566177086 0 168.68754566177086 -6.1503514393989462 0 0 0 0 99.81130348683655 164.99266143654677 0 164.99266143654677 -62.134386688063387 0 0 0 0 80.437359628165723 147.95319114701124 0 147.95319114701124 -6.9028183107438963 0 0 0 0 110.64903801192122 142.42116019348032 0 142.42116019348032 -16.135783031764731 0 0 0 0 179.96380112508632 115.68319214523945 0 115.68319214523945 -35.006485351041192 0 0 0 0 130.77993616035383 167.42089063455933 0 167.42089063455933 -89.359255164017668 0 0 0 0 142.04492826313799 166.25311018421053 0 166.25311018421053 -90.920453454134986 0 0 0 0 125.82973455851607 183.68233122421952 0 183.68233122421952 -113.19471004605293 0 0 0 0 118.55047591773291 223.93905889333473 0 223.93905889333473 -130.45164407411357 0 0 0 0 103.72746182121045 187.2333854323515 0 187.2333854323515 -110.31156202306011 0 0 0 0 97.848109521990409 166.06749761852552 0 166.06749761852552 -62.439874520823651 0 0 0 0 73.416240932550863 168.60184202741948 0 168.60184202741948 -55.530553392360162 0 0 0 0 90.060677309425955 181.2036599269195 0 181.2036599269195 -91.858763660304248 0 0 0 0 82.577398866560543 188.93992949379026 0 188.93992949379026 -96.093856095176307 0 0 0 0 97.028977269073948 174.60033952360391 0 174.60033952360391 -114.26988784690911 0 0 0 0 90.899899321542762 190.27472534624394 0 190.27472534624394 -140.04752828512574 0 0 0 0 95.704130444530165 142.70412954743369 0 142.70412954743369 -150.78816046748034 0 0 0 0 88.065834662691486 149.75660494266049 0 149.75660494266049 -92.370883150812006 0 0 0 0 31.158665853770799 131.15731348349073 0 131.15731348349073 -98.344755283585982 0 0 0 0 61.705932049611874 176.06526858524012 0 176.06526858524012 -116.8207855290384 0 0 0 0 67.792521774052148 211.97038587718271 0 211.97038587718271 -88.456256566947559 0 0 0 0 103.71393592313507 189.26691944352933 0 189.26691944352933 -113.23321549218963 0 0 0 0 67.270960839858162 234.08641120698303 0 234.08641120698303 -107.28927552333334 0 0 0 0 35.261731751874322 309.98512634047074 0 309.98512634047074 -70.568454196123639 0 0 0 0 32.37022353438806 291.15676142545999 0 291.15676142545999 -136.04439665743848 0 0 0 0 -14.139315088509647 204.42279879695707 0 204.42279879695707 32.820145468169358 0 0 0 0 -11.312789876628813 196.30889964995004 0 196.30889964995004 -71.139059309658478 0 0 0 0 -93.398737108269415 162.44723094136862 0 162.44723094136862 37.229664008993495 0 0 0 0 -100.08098173852886 137.76290089271788 0 137.76290089271788 127.12581189937191 0 0 0 0 -152.39153988900398 227.16833902250755 0 227.16833902250755 227.94374663493363 0 0 0 0 -146.00847135690856 311.62818976827839 0 311.62818976827839 -46.52748010045616 0 0 0 0 310.3761175588279 391.69839018474522 0 391.69839018474522 -262.21505754339159 0 0 0 0 -26.134286203100146 450.14807286506584 0 450.14807286506584 -175.72054596763337 0 0 0 0 -11.06436748476699 447.23479673324618 0 447.23479673324618 -175.36320762612741 0 0 0 0 107.29776515367848 425.06035738457285 0 425.06035738457285 -352.78317732477444 0 0 0 0 142.18455512083165 297.22037896237453 0 297.22037896237453 -183.91940020427865 0 0 0 0 -15.040269561930472 369.03014532189081 0 369.03014532189081 -124.66946968185948 0 0 0 0 140.39819879629067 265.00111309450585 0 265.00111309450585 -135.21182905694241 0 0 0 0 102.65523808041326 329.55143743134977 0 329.55143743134977 -204.12834780906269 0 0 0 0 103.88493078648025 232.81307226611534 0 232.81307226611534 -134.94659958643024 0 0 0 0 167.96474328961631 207.94027102869586 0 207.94027102869586 -148.6882867117165 0 0 0 0 224.79240712033425 267.00444418830739 0 267.00444418830739 -230.37500852654921 0 0 0 0 176.64286666281259 188.86698880982294 0 188.86698880982294 -121.35544946970185 0 0 0 0 197.97753243771149 172.6841657551995 0 172.6841657551995 -133.58223477310094 0 0 0 0 283.95234396938031 225.56437150062993 0 225.56437150062993 -192.79866908934127 0 0 0 0 231.87045271157331 287.97374783782288 0 287.97374783782288 -246.90628041850869 0 0 0 0 192.15584863141703 426.77945126602208 0 426.77945126602208 -324.0845922161825 0 0 0 0 177.32957990741124 267.97803029912757 0 267.97803029912757 -184.68835297599071 0 0 0 0 426.68608542552829 100.17145477636222 0 100.17145477636222 -83.445351116490201 0 0 0 0 285.42273223638216 79.050324551637573 0 79.050324551637573 -48.221098458889173 0 0 0 0 291.96399883480262 -4.6434190891886828 0 -4.6434190891886828 129.59759312629467 0 0 0 0 179.86994257588231 121.56453106872505 0 121.56453106872505 3.764962544417358 0 0 0 0 125.52410106291791 96.756159542288515 0 96.756159542288515 264.09764865647594 0 0 0 0 110.48943417787814 214.9833123737335 0 214.9833123737335 221.261871844079 0 0 0 0 -10.252016459509147 38.707427708229496 0 38.707427708229496 -42.271024676067555 0 0 0 0 189.9157930717156 258.87796107346367 0 258.87796107346367 110.35327992327075 0 0 0 0 -148.86923742828242 288.04108703952897 0 288.04108703952897 -93.199008675175719 0 0 0 0 -162.41218968237365 388.60010161926266 0 388.60010161926266 -345.78963497754012 0 0 0 0 112.51865461025591 206.83037720707944 0 206.83037720707944 90.918340969546989 0 0 0 0 105.6366234888701 225.98729690659093 0 225.98729690659093 109.5242714217311 0 0 0 0 180.5514509152963 162.27806479829451 0 162.27806479829451 -11.805585456459085 0 0 0 0 81.793881546836928 257.3097978510923 0 257.3097978510923 82.366605980118038 0 0 0 0 89.143511776310334 87.440973435775959 0 87.440973435775959 8.9328615356935188 0 0 0 0 135.81884635831375 215.90605984180729 0 215.90605984180729 14.773656057484914 0 0 0 0 121.88556227187055 103.84137850767681 0 103.84137850767681 60.708576401859077 0 0 0 0 114.76434220097144 194.42803296702914 0 194.42803296702914 -6.617627241415903 0 0 0 0 38.079213595970153 33.238361183834769 0 33.238361183834769 -28.611212207429134 0 0 0 0 -91.100475015875418 202.69333214641665 0 202.69333214641665 84.527296389191179 0 0 0 0 109.44494606388616 213.60015738770016 0 213.60015738770016 21.026698847956141 0 0 0 0 66.983652756156516 167.26430841657566 0 167.26430841657566 78.719605385063915 0 0 0 0 51.490223955523106 169.43114347637311 0 169.43114347637311 102.41773890709737 0 0 0 0 64.811718348850263 147.7084545904072 0 147.7084545904072 78.837790387813584 0 0 0 0 68.788113907663501 164.08461550633365 0 164.08461550633365 98.455328213633038 0 0 0 0 76.997283024524222 173.34990331843437 0 173.34990331843437 82.129674343625084 0 0 0 0 78.029972313028566 192.11627751767992 0 192.11627751767992 136.53804616403067 0 0 0 0 104.54163763637189 159.52450158633292 0 159.52450158633292 107.32063424753142 0 0 0 0 89.831572286377195 145.91347953758668 0 145.91347953758668 114.0678996341012 0 0 0 0 95.767938214467904 132.99966753936133 0 132.99966753936133 63.199301342334365 0 0 0 0 95.444209654146107 131.89149155314954 0 131.89149155314954 123.62115274951793 0 0 0 0 178.45741481970617 84.794515066158965 0 84.794515066158965 39.566617515549297 0 0 0 0 128.8171150029666 141.17695882912085 0 141.17695882912085 -5.8937632870365633 0 0 0 0 130.76249851545435 125.11294097361679 0 125.11294097361679 -8.901663935626857 0 0 0 0 74.538024937995942 153.06204197849729 0 153.06204197849729 48.446803302009357 0 0 0 0 73.755709937875508 142.76160541460558 0 142.76160541460558 35.142346383727272 0 0 0 0 51.052468263456831 167.17573341268871 0 167.17573341268871 14.218892460208735 0 0 0 0 40.854663553761299 161.31278704376314 0 161.31278704376314 71.135701860359404 0 0 0 0 -10.458850555485697 168.07809436586103 0 168.07809436586103 64.084930751414504 0 0 0 0 20.647589323358261 147.49767688426073 0 147.49767688426073 75.58098547240661 0 0 0 0 15.98428662752849 156.37316470380756 0 156.37316470380756 87.073243057151558 0 0 0 0 40.876886127830574 152.16552460710625 0 152.16552460710625 53.48416700353846 0 0 0 0 19.505979245674098 166.20825086449622 0 166.20825086449622 46.104566686728504 0 0 0 0 20.836551435328147 156.186722723809 0 156.186722723809 36.093345812289044 0 0 0 0 -42.872598637099145 154.89679342719319 0 154.89679342719319 59.203804506600136 0 0 0 0 -81.745422972489905 78.579820498925983 0 78.579820498925983 69.251519757381175 0 0 0 0 -135.42985089170907 99.596928917999321 0 99.596928917999321 77.650076664576773 0 0 0 0 -26.336332271428546 137.69615524017718 0 137.69615524017718 48.142813032522099 0 0 0 0 27.866964085478685 86.654131757415598 0 86.654131757415598 69.73679351125611 0 0 0 0 -19.060807487225247 103.71273186653343 0 103.71273186653343 87.448024480429012 0 0 0 0 55.125727737206034 109.15672020288184 0 109.15672020288184 86.75954233930679 0 0 0 0 -2.9003202659660019 138.27453133775271 0 138.27453133775271 66.075964639050653 0 0 0 0 -10.983798129291245 148.84896230725826 0 148.84896230725826 83.655849696428049 0 0 0 0 9.8564357772338553 153.64475778412088 0 153.64475778412088 92.796057437255513 0 0 0 0 17.251641674854909 129.12800224873354 0 129.12800224873354 90.667048222341691 0 0 0 0 8.0707184231287101 127.32610688758723 0 127.32610688758723 109.10920291836374 0 0 0 0 58.535252630768809 131.41991749880253 0 131.41991749880253 103.77718044194626 0 0 0 0 51.171339116917807 102.34615582530387 0 102.34615582530387 97.844487163354643 0 0 0 0 84.456483353933436 86.002094453608152 0 86.002094453608152 97.725823695014697 0 0 0 0 20.596717848689877 138.78874732994882 0 138.78874732994882 106.75197004759684 0 0 0 0 33.332664956105873 153.26347473870555 0 153.26347473870555 86.945835606611126 0 0 0 0 40.774048876548477 148.26816345358384 0 148.26816345358384 82.453345067129703 0 0 0 0 61.072861991175159 136.2401402275791 0 136.2401402275791 12.566262615117012 0 0 0 0 68.90353339594003 162.64431360955859 0 162.64431360955859 83.923821497097379 0 0 0 0 56.647793006959546 126.29776870238857 0 126.29776870238857 81.202716423766105 0 0 0 0 143.70093136947253 197.47376616706606 0 197.47376616706606 28.470235697721364 0 0 0 0 65.973691305873217 119.97924505132687 0 119.97924505132687 123.9160088240169 0 0 0 0 103.27829506032809 89.261927451885754 0 89.261927451885754 66.004151971879423 0 0 0 0 43.792922777385684 103.52507114926993 0 103.52507114926993 116.59406582840165 0 0 0 0 -455.56083246031631 118.13156070603873 0 118.13156070603873 124.15499445334717 0 0 0 0 186.5901754475999 118.57628658678004 0 118.57628658678004 -15.482298441762396 0 0 0 0 13.836911056511255 15.881633296225289 0 15.881633296225289 -0.53547119582287905 0 0 0 0 -358.96434037611471 182.90311414057942 0 182.90311414057942 -55.218726642153342 0 0 0 0 -18.512503543619061 11.388976230078214 0 11.388976230078214 24.758655437592722 0 0 0 0 -170.77086476424302 -17.007625575948623 0 -17.007625575948623 320.18467281589983 0 0 0 0 22.212085159534766 65.995302863817784 0 65.995302863817784 96.726953657383831 0 0 0 0 219.94356924612657 95.67538190203777 0 95.67538190203777 45.941411912383046 0 0 0 0 -31.6860001005698 33.02905797042331 0 33.02905797042331 53.038942140177824 0 0 0 0 132.37279357700027 133.47919566667406 0 133.47919566667406 99.824041357613169 0 0 0 0 -87.519113887363346 20.865053163957782 0 20.865053163957782 69.367388281854801 0 0 0 0 71.579963223688537 -6.6823666136187967 0 -6.6823666136187967 56.968473172164522 0 0 0 0 109.28020834973722 65.017927801600308 0 65.017927801600308 66.820752326981165 0 0 0 0 36.291996197658591 -5.3789696646854281 0 -5.3789696646854281 57.068515529826982 0 0 0 0 -26.838338418921921 38.310775744903367 0 38.310775744903367 65.183075130305951 0 0 0 0 -256.02640569704818 230.23398370866198 0 230.23398370866198 143.32153888093308 0 0 0 0 -96.660663561953697 263.39056221175997 0 263.39056221175997 -132.48542591158184 0 0 0 0 -167.17373167947517 226.56849255476845 0 226.56849255476845 45.503217447956558 0 0 0 0 -155.97878879841937 59.308650221202697 0 59.308650221202697 72.228063223621575 0 0 0 0 124.52656140918771 111.63890121708391 0 111.63890121708391 19.279493577152607 0 0 0 0 -24.082430664056119 59.362155363909551 0 59.362155363909551 3.7911726052116137 0 0 0 0 7.1914535958034698 9.1397501314171592 0 9.1397501314171592 1.3751963935886238 0 0 0 0 26.134640415373006 35.020933729706371 0 35.020933729706371 24.596529840613414 0 0 0 0 18.393647860412099 37.051148187234702 0 37.051148187234702 47.579047388854093 0 0 0 0 126.62810492221706 78.542809996244614 0 78.542809996244614 -130.33464985306637 0 0 0 0 -115.58143609269609 -173.73222414875636 0 -173.73222414875636 140.94613038023817 0 0 0 0 -7.8286437766506793 3.9113154342686869 0 3.9113154342686869 13.847873135200231 0 0 0 0 -99.777122696970764 220.06301485211588 0 220.06301485211588 -132.65750560456945 0 0 0 0 -124.82449053600067 308.5222322797199 0 308.5222322797199 -98.424501514222356 0 0 0 0 -96.994782722631498 98.932941917293647 0 98.932941917293647 -54.645487644567766 0 0 0 0 -84.715886923932885 94.121109815470845 0 94.121109815470845 22.100187916854338 0 0 0 0 -124.95185985585795 125.02332372748242 0 125.02332372748242 32.566538089209644 0 0 0 0 -134.19741990095281 119.23582408392031 0 119.23582408392031 109.77830365028058 0 0 0 0 -111.188692939254 67.71056880976721 0 67.71056880976721 120.4862585958108 0 0 0 0 -102.2084227407031 58.333966533893545 0 58.333966533893545 69.996092521600076 0 0 0 0 -3.7268325730987462 43.377223282664652 0 43.377223282664652 35.859846106241434 0 0 0 0 -35.032837768821992 19.048431739167427 0 19.048431739167427 30.723297373042442 0 0 0 0 40.86153522099093 51.728788275724312 0 51.728788275724312 -0.45811362113562382 0 0 0 0 100.1828483943209 105.66644389823705 0 105.66644389823705 26.849618729186659 0 0 0 0 18.28158961820796 35.546204748470842 0 35.546204748470842 35.265575538620567 0 0 0 0 24.874043169047582 75.382567407432362 0 75.382567407432362 -18.079237512982218 0 0 0 0 31.656230956992658 85.269932655934099 0 85.269932655934099 -3.8822124069847632 0 0 0 0 255.69354727478458 -245.42631692358555 0 -245.42631692358555 195.65434950895724 0 0 0 0 3.172594570456992 13.354958520352394 0 13.354958520352394 3.8072399760627604 0 0 0 0 22.670991012028026 66.886474963463115 0 66.886474963463115 3.6969419789966196 0 0 0 0 -136.45434820787341 85.31812559676473 0 85.31812559676473 82.863108614499652 0 0 0 0 -465.13357122534217 469.97882699208276 0 469.97882699208276 101.2978369355842 0 0 0 0 -710.53870934398219 741.34640521735128 0 741.34640521735128 24.807094781834166 0 0 0 0 -1.3522685460301749 3.5232465498348073 0 3.5232465498348073 -9.2787079297023638 0 0 0 0 243.82880613276211 64.268890267394454 0 64.268890267394454 -30.663288545525575 0 0 0 0 -1061.7700925337303 1384.2625479333583 0 1384.2625479333583 -1035.7595568039178 0 0 0 0 -203.7909839531203 713.29250293815858 0 713.29250293815858 -429.38244963322359 0 0 0 0 -262.95179732613178 682.03538094581018 0 682.03538094581018 11.872719841834623 0 0 0 0 -5483.3674073908915 485.42293490818702 0 485.42293490818702 1705.5036277197069 0 0 0 0 -1168.284391921854 -622.69515763795789 0 -622.69515763795789 1262.376130689634 0 0 0 0 -783.0239989042384 1303.3017213623098 0 1303.3017213623098 -725.22542476211675 0 0 0 0 67.084181875685317 31.396788260739413 0 31.396788260739413 31.267959167555091 0 0 0 0 -58.792205915258819 672.49504944041837 0 672.49504944041837 -474.25917649717303 0 0 0 0 -23.504539260999081 37.672305607964518 0 37.672305607964518 -9.3665383552761341 0 0 0 0 15.91738605008868 92.067332393649849 0 92.067332393649849 21.355083892878611 0 0 0 0 78.421619526016002 68.430732539854944 0 68.430732539854944 -16.419809114682721 0 0 0 0 73.051892259261876 57.721454208367504 0 57.721454208367504 16.982648617367886 0 0 0 0 -46.277464590858472 124.14213049607497 0 124.14213049607497 62.475167415235774 0 0 0 0 53.348732462813643 126.77716546319698 0 126.77716546319698 59.517583158856723 0 0 0 0 2.8852516968031523 90.187443529457596 0 90.187443529457596 108.96685780672124 0 0 0 0 140.76413026962655 131.33884578533616 0 131.33884578533616 19.528128332327469 0 0 0 0 53.196362313582426 128.59531034282463 0 128.59531034282463 42.541951946433983 0 0 0 0 433.03242571955707 80.135639882224496 0 80.135639882224496 -26.074821054073254 0 0 0 0 -1288.6850425038992 -193.04682352433156 0 -193.04682352433156 198.79963645795942 0 0 0 0 -6.2302029857781527 8.954370795427586 0 8.954370795427586 -20.51593135059278 0 0 0 0 -1187.7474285396565 -90.481607131179771 0 -90.481607131179771 136.82880305094295 0 0 0 0 -177.62625315683363 335.05322304338915 0 335.05322304338915 -95.33678119684555 0 0 0 0 -1.0942479477036127 2.8775002622821519 0 2.8775002622821519 -2.963029415211281 0 0 0 0 -58.451060792478529 29.721975818029023 0 29.721975818029023 -409.29516818990669 0 0 0 0 160.46544538860053 259.31351022719173 0 259.31351022719173 -78.370967994953389 0 0 0 0 -79.47086936030064 121.89056925674959 0 121.89056925674959 9.3039056232860275 0 0 0 0 -0.97913056248944486 119.42497442121385 0 119.42497442121385 9.3749499013529203 0 0 0 0 -58.223160600911797 88.532216154853813 0 88.532216154853813 0.73496335021991399 0 0 0 0 32.926649283708684 86.406176200187474 0 86.406176200187474 0.4133371778880246 0 0 0 0 -15.421964109112196 84.874851753367693 0 84.874851753367693 62.951918834631215 0 0 0 0 11.714008830297644 107.59568282721739 0 107.59568282721739 131.38974376310944 0 0 0 0 47.004197808350909 153.19102607415334 0 153.19102607415334 133.62003090468352 0 0 0 0 26.278839523951319 159.15291435769177 0 159.15291435769177 305.43093822406809 0 0 0 0 54.449280982416106 53.998296827197514 0 53.998296827197514 48.586446371527984 0 0 0 0 -11.499726344580923 2.3652448295758859 0 2.3652448295758859 15.119074526902381 0 0 0 0 -398.97721984723103 147.10985250914382 0 147.10985250914382 409.77083455675165 0 0 0 0 138.5071013266006 185.45173318547313 0 185.45173318547313 132.21757160307607 0 0 0 0 105.97685029464674 66.754569605061988 0 66.754569605061988 9.4407428684935439 0 0 0 0 -45.812761841089468 309.41945722361743 0 309.41945722361743 213.99066758752451 0 0 0 0 26.697739362602533 77.28038953876603 0 77.28038953876603 45.821442175918492 0 0 0 0 64.296296296537548 69.142365067338687 0 69.142365067338687 18.128320773976156 0 0 0 0 32.484726484894054 10.200049855306133 0 10.200049855306133 8.660573180008214 0 0 0 0 -9.7668249380512862 24.503714709142514 0 24.503714709142514 18.15202274065814 0 0 0 0 3.6544779498563003 45.030003991938429 0 45.030003991938429 11.057946979573899 0 0 0 0 20.122448048679871 31.07157663108228 0 31.07157663108228 -0.44313749596767593 0 0 0 0 -12.146422889228234 47.446601248797379 0 47.446601248797379 -3.0380049909726949 0 0 0 0 -12.918577564327279 12.660176109711756 0 12.660176109711756 24.318003490581759 0 0 0 0 -27.570326863235096 35.607238252676325 0 35.607238252676325 -0.75599830100327381 0 0 0 0 -7.6008010248187929 -12.463350122998236 0 -12.463350122998236 22.975362110344577 0 0 0 0 40.858689048464399 39.858051275123103 0 39.858051275123103 39.282975746548232 0 0 0 0 -2.4149762480365098 6.1847156089861528 0 6.1847156089861528 -15.835827275746851 0 0 0 0 73.158902154767929 127.13004264900519 0 127.13004264900519 35.107710717566079 0 0 0 0 -178.61822899820982 484.51227052003378 0 484.51227052003378 -284.1730041403207 0 0 0 0 -8.8592023330729717 8.6055564825364854 0 8.6055564825364854 137.90426326161833 0 0 0 0 -0.095290855946208453 0.96137898160593238 0 0.96137898160593238 2.864431756757682 0 0 0 0 -11.414171160341425 34.487087198936024 0 34.487087198936024 -12.768145305090002 0 0 0 0 -97.909980562713827 103.10731064373249 0 103.10731064373249 -361.70844404137461 0 0 0 0 1.8791499493490846 -341.18980173468299 0 -341.18980173468299 -280.99583830029587 0 0 0 0 -436.50461792487067 362.85558079055227 0 362.85558079055227 -74.406941895824275 0 0 0 0 -355.87282813494494 109.74707921262416 0 109.74707921262416 -234.40860523478477 0 0 0 0 -92.606457441139355 302.71314420516865 0 302.71314420516865 -92.972980983759044 0 0 0 0 -38.651502331838856 146.75241559580445 0 146.75241559580445 -331.49792917695595 0 0 0 0 -184.88088328324739 333.18501498188925 0 333.18501498188925 -110.56905536136765 0 0 0 0 -277.73021086543122 207.28503415061277 0 207.28503415061277 66.872637671520351 0 0 0 0 -194.03551276792314 230.04136784757429 0 230.04136784757429 172.89278418618778 0 0 0 0 -108.82333413961715 217.77061617267464 0 217.77061617267464 43.875090633460786 0 0 0 0 13.317563226394197 5.5144270705876721 0 5.5144270705876721 -2.9624204584178528 0 0 0 0 89.856617306060798 330.99210549844429 0 330.99210549844429 -469.49328418829828 0 0 0 0 -167.21155421897492 256.04236058070092 0 256.04236058070092 -7.2277700510749128 0 0 0 0 -170.56202420638374 328.63170064568385 0 328.63170064568385 -125.45925631627324 0 0 0 0 -106.57462525510346 172.46646745283215 0 172.46646745283215 -89.113924540462904 0 0 0 0 -136.21762848292929 233.54831290207221 0 233.54831290207221 -21.614310255710734 0 0 0 0 -167.91325704894734 242.51259531408868 0 242.51259531408868 92.515604512911523 0 0 0 0 -141.21788273512357 229.91181484530534 0 229.91181484530534 146.0141478044925 0 0 0 0 -94.734263518870648 105.27780399323819 0 105.27780399323819 157.84626312062028 0 0 0 0 285.8349125545501 -69.383868295699358 0 -69.383868295699358 -408.91915522892668 0 0 0 0 -101.94680191113537 166.14338879824209 0 166.14338879824209 43.376189465532661 0 0 0 0 -168.32542326992007 284.2347259881426 0 284.2347259881426 40.006447127118008 0 0 0 0 -92.006903200461238 145.99270830638852 0 145.99270830638852 11.167033539961267 0 0 0 0 -104.63049544850765 101.63693803225033 0 101.63693803225033 179.07438932482182 0 0 0 0 -144.14415484146048 190.34386639452714 0 190.34386639452714 92.932784916760284 0 0 0 0 -149.66230082556649 207.4358845288516 0 207.4358845288516 116.56269982744561 0 0 0 0 -44.231346089614817 48.433806847759115 0 48.433806847759115 171.09174267147318 0 0 0 0 -77.623668774295766 19.60952613248628 0 19.60952613248628 371.69711428286973 0 0 0 0 -120.08079726839787 82.857345057273051 0 82.857345057273051 247.43296173377894 0 0 0 0 60.960104408055486 -41.253244493469538 0 -41.253244493469538 159.66313237888244 0 0 0 0 29.410642901413667 -111.69560068934516 0 -111.69560068934516 308.6104658332406 0 0 0 0 17.364009778778701 11.705091981825234 0 11.705091981825234 5.1120764852469733 0 0 0 0 -68.491625436769027 18.613857963195187 0 18.613857963195187 298.6697984757775 0 0 0 0 3.1291782002881519 7.8061676452271058 0 7.8061676452271058 171.51144366114386 0 0 0 0 -78.569879677284916 28.426559286992415 0 28.426559286992415 205.5639842408782 0 0 0 0 -58.413187281961655 70.276649351755623 0 70.276649351755623 78.415759030249319 0 0 0 0 -47.750818933441678 67.694735347824462 0 67.694735347824462 111.73731918213889 0 0 0 0 62.668383372421609 28.6724186878849 0 28.6724186878849 13.083947256054664 0 0 0 0 12.811739454743579 2.1259293995687614 0 2.1259293995687614 -1.3068740878909892 0 0 0 0 878.62959276464676 270.53382117074398 0 270.53382117074398 -584.30034514539147 0 0 0 0 688.85093632904864 -109.74275896977633 0 -109.74275896977633 -1346.0451559365647 0 0 0 0 50.513034560971391 -59.136266134213656 0 -59.136266134213656 269.98543433955638 0 0 0 0 122.01017671497902 217.32146538382221 0 217.32146538382221 318.05015380236364 0 0 0 0 88.479508237135406 -115.86357775619763 0 -115.86357775619763 354.02848905751307 0 0 0 0 -33.91550384054608 -46.475390236744715 0 -46.475390236744715 471.07121159452436 0 0 0 0 626.32598384808341 385.21495059186054 0 385.21495059186054 450.14619071316702 0 0 0 0 124.83015653461393 22.946706536056809 0 22.946706536056809 850.7959686993272 0 0 0 0 53.991075662673666 290.96978024021519 0 290.96978024021519 -107.35738215958554 0 0 0 0 358.47098550025385 23.370549984560057 0 23.370549984560057 107.75202724323026 0 0 0 0 66.93384360275013 149.9290099002319 0 149.9290099002319 201.15689662245495 0 0 0 0 -127.36353607445108 100.97111991435668 0 100.97111991435668 274.90862991918402 0 0 0 0 378.39141132136979 -101.88628590998997 0 -101.88628590998997 27.327975859603612 0 0 0 0 450.58133342748761 80.257699030520598 0 80.257699030520598 -173.9609689895151 0 0 0 0 336.29679297647272 20.462018811049347 0 20.462018811049347 -151.15920017258759 0 0 0 0 387.48626740832879 143.59044091151736 0 143.59044091151736 50.9019833900511 0 0 0 0 24.791742598882138 3.4041760953850826 0 3.4041760953850826 12.548601210022753 0 0 0 0 -38.113014107263538 31.297088447104965 0 31.297088447104965 41.965493049657198 0 0 0 0 -23.89382897664817 47.065000818423087 0 47.065000818423087 27.639683728983073 0 0 0 0 50.711153772486796 59.948557917243306 0 59.948557917243306 108.21785399801047 0 0 0 0 -4.9339945833862533 -5.444826762743844 0 -5.444826762743844 5.2867146987908882 0 0 0 0 145.13233605109872 -148.69545876244592 0 -148.69545876244592 43.707565841828909 0 0 0 0 -68.786371996953676 95.417765971105837 0 95.417765971105837 96.811997622531635 0 0 0 0 69.034598395357534 54.086106156424648 0 54.086106156424648 22.410663755708811 0 0 0 0 47.748687327681637 65.417811259695554 0 65.417811259695554 16.460168003803119 0 0 0 0 44.137656845838137 82.070180434417125 0 82.070180434417125 28.56967283504855 0 0 0 0 33.202041193540936 86.829721207635885 0 86.829721207635885 26.914362558423818 0 0 0 0 19.92141583022476 79.285777144856183 0 79.285777144856183 36.836710255702201 0 0 0 0 -80.561673043821202 39.713090790303454 0 39.713090790303454 27.851117253827397 0 0 0 0 -41.706204575904849 24.714837146999344 0 24.714837146999344 25.745135667724753 0 0 0 0 2.3731360172532696 54.256363703085299 0 54.256363703085299 30.771379489403643 0 0 0 0 -29.588325783162873 6.3984627490081039 0 6.3984627490081039 69.926749067897617 0 0 0 0 -37.218051429160056 19.165048380366613 0 19.165048380366613 29.882469628340097 0 0 0 0 -55.525951180745324 33.09538544739371 0 33.09538544739371 55.030017250111996 0 0 0 0 0.58755692901389445 10.965352097023292 0 10.965352097023292 1.7067322175428075 0 0 0 0 38.185652284124444 65.738705038467742 0 65.738705038467742 43.947596849298861 0 0 0 0 20.98399051065644 91.330088982707821 0 91.330088982707821 46.37138985141064 0 0 0 0 30.518495787905437 57.804111056100766 0 57.804111056100766 35.263460490039684 0 0 0 0 59.316383188926238 61.011796184229532 0 61.011796184229532 18.365614572554506 0 0 0 0 5.5928688766101686 11.320200060884872 0 11.320200060884872 3.5107040735121586 0 0 0 0 153.20465676024469 173.55519532466133 0 173.55519532466133 41.050112952252675 0 0 0 0 41.363722805119323 18.669855831434688 0 18.669855831434688 54.024127663400577 0 0 0 0 11.116927624190236 3.5387954218257534 0 3.5387954218257534 3.4899966097948578 0 0 0 0 187.73886789570679 -2.0346986185177229 0 -2.0346986185177229 170.70995235529699 0 0 0 0 119.19773342786357 37.088430304735084 0 37.088430304735084 22.781910069556034 0 0 0 0 73.17846943932031 39.296983693560492 0 39.296983693560492 7.6967498749198455 0 0 0 0 37.218305047732429 50.088496539694461 0 50.088496539694461 26.574174435489113 0 0 0 0 25.677123193500123 39.98126868371245 0 39.98126868371245 40.918368529923697 0 0 0 0 157.82171302763163 91.974030310397211 0 91.974030310397211 77.855218431599496 0 0 0 0 -8.6040391105993876 -28.425325974432894 0 -28.425325974432894 126.13415989252826 0 0 0 0 -52.632337403862039 84.51821353352716 0 84.51821353352716 218.93910883097851 0 0 0 0 -59.164109613317123 53.882062394053719 0 53.882062394053719 75.525397822915693 0 0 0 0 955.52262916516793 102.55327999643305 0 102.55327999643305 -87.805672439761111 0 0 0 0 -202.64497475440658 -230.02005174193619 0 -230.02005174193619 644.564193841632 0 0 0 0 12.118984094860746 11.264480771642326 0 11.264480771642326 15.21849934787106 0 0 0 0 154.78927914695305 141.32085462346731 0 141.32085462346731 69.204422955343034 0 0 0 0 185.01507654233137 92.924090323984274 0 92.924090323984274 -24.84713948753415 0 0 0 0 -259.10228122773515 -31.17442517399104 0 -31.17442517399104 21.066139751434093 0 0 0 0 132.27619133473581 71.011976064477494 0 71.011976064477494 76.442317923021619 0 0 0 0 102.58140709668716 48.243587073191186 0 48.243587073191186 20.109201617590408 0 0 0 0 97.214092055830406 42.267534309969051 0 42.267534309969051 77.882517776819896 0 0 0 0 -305.49316701216412 389.62779217684147 0 389.62779217684147 -11.624592819136979 0 0 0 0 -369.37241705454471 335.02502160554286 0 335.02502160554286 652.88033546817258 0 0 0 0 71.352100159268048 -2.1784713021500011 0 -2.1784713021500011 154.98479165785102 0 0 0 0 69.686648177818824 9.3227168998296293 0 9.3227168998296293 171.8081894085808 0 0 0 0 46.656895593361696 25.380267278829706 0 25.380267278829706 203.84532284065426 0 0 0 0 113.2668472775149 87.031281827978091 0 87.031281827978091 199.97397505368281 0 0 0 0 34.033828598745458 41.943936530333303 0 41.943936530333303 190.03347669402137 0 0 0 0 28.623196896748595 58.69590037296075 0 58.69590037296075 188.48321867582126 0 0 0 0 29.381506531037303 36.438074814959691 0 36.438074814959691 144.41476006212906 0 0 0 0 28.497009560793686 42.719881372578129 0 42.719881372578129 324.51445399814111 0 0 0 0 -3.4931854780197682 69.490086883692129 0 69.490086883692129 287.49780736901448 0 0 0 0 -11.376558498612667 120.89402513182176 0 120.89402513182176 1.9658866364261485 0 0 0 0 63.265324641412008 116.94547659882301 0 116.94547659882301 258.95582563151402 0 0 0 0 193.49747604438016 166.85207007487952 0 166.85207007487952 167.25459239324846 0 0 0 0 70.899393863626756 22.822602076994372 0 22.822602076994372 179.35605875780675 0 0 0 0 22.408642253856669 130.29539484188717 0 130.29539484188717 79.292577884698403 0 0 0 0 -23.040090802318446 182.36373681120676 0 182.36373681120676 76.338361493697448 0 0 0 0 95.625071901802585 255.81455164207728 0 255.81455164207728 100.32566877136196 0 0 0 0 -195.10881055677237 299.9782607671109 0 299.9782607671109 38.424816120023024 0 0 0 0 -117.17256710668516 84.736979266068374 0 84.736979266068374 69.466438450603164 0 0 0 0 15.258512106051057 125.85251294841146 0 125.85251294841146 -107.9498673368762 0 0 0 0 -99.183096672216379 346.1645621857806 0 346.1645621857806 -110.25554987471696 0 0 0 0 71.509355985390357 112.16809630109128 0 112.16809630109128 75.901262525258062 0 0 0 0 127.22191746755379 196.54126337070375 0 196.54126337070375 193.36969730213241 0 0 0 0 16.712431168896728 153.51172519566171 0 153.51172519566171 107.77104582857373 0 0 0 0 114.59385227960229 230.78687696353154 0 230.78687696353154 -1.366223429215097 0 0 0 0 151.81862178826759 148.81077186878701 0 148.81077186878701 39.04604382366233 0 0 0 0 241.22649672471744 224.18166576859221 0 224.18166576859221 99.106380987439479 0 0 0 0 168.57292227165453 147.86771259665329 0 147.86771259665329 167.9697991454741 0 0 0 0 355.25648445656407 152.96485262113492 0 152.96485262113492 101.47445055209027 0 0 0 0 318.70874500843092 100.32342856057494 0 100.32342856057494 25.755885795682843 0 0 0 0 173.80037257637377 121.22720251898863 0 121.22720251898863 22.746805968556146 0 0 0 0 84.444793062395547 -69.201510346840223 0 -69.201510346840223 18.367169780263794 0 0 0 0 -113.81676965316274 -75.171554297234252 0 -75.171554297234252 129.53435740530767 0 0 0 0 -144.21521198888149 -71.042187659595584 0 -71.042187659595584 120.68048733359319 0 0 0 0 -58.061563495393784 -19.652235414127063 0 -19.652235414127063 96.007594207701914 0 0 0 0 94.48021659771257 -255.54471582906081 0 -255.54471582906081 185.19645038680756 0 0 0 0 433.33171536959753 -39.422023530700244 0 -39.422023530700244 18.25631690681621 0 0 0 0 1211.5725262657488 -830.72936714091338 0 -830.72936714091338 476.52468554842199 0 0 0 0 -164.288978365199 -50.062979184582218 0 -50.062979184582218 204.85400181280966 0 0 0 0 -426.46444790056239 85.684757855437056 0 85.684757855437056 135.00895593721361 0 0 0 0 -179.48460688020441 -85.503775080775085 0 -85.503775080775085 124.24644912334043 0 0 0 0 -34.198445069820991 -50.493958927018866 0 -50.493958927018866 214.55832684983761 0 0 0 0 1.124791703215692 10.722628247922927 0 10.722628247922927 8.2303522524842165 0 0 0 0 -886.84367152048435 1179.1807053886441 0 1179.1807053886441 -513.271993227856 0 0 0 0 1763.7043015934214 1087.3082545668331 0 1087.3082545668331 -2195.7134265529676 0 0 0 0 -990.60980550659804 76.362791364078703 0 76.362791364078703 1535.095013461214 0 0 0 0 21.209497142915893 8.1138452076723624 0 8.1138452076723624 3.979441537620211 0 0 0 0 187.9000335206365 258.89444629455829 0 258.89444629455829 890.98900179327029 0 0 0 0 -349.35249763608499 -700.62041901038174 0 -700.62041901038174 686.2535880252035 0 0 0 0 75.465929989448341 -27.467785138822364 0 -27.467785138822364 199.56884578758581 0 0 0 0 22.679173312862076 -1.3614383939093386 0 -1.3614383939093386 565.47150405799039 0 0 0 0 354.45608019168139 357.9103480026406 0 357.9103480026406 385.53425120798056 0 0 0 0 479.93698716913241 109.24406248499145 0 109.24406248499145 116.75571827020576 0 0 0 0 1088.7932043356609 544.5232069267297 0 544.5232069267297 397.4260645332979 0 0 0 0 -128.94086465412693 255.50312825721539 0 255.50312825721539 -220.20347868887256 0 0 0 0 -70.784773104067426 212.39524397668356 0 212.39524397668356 -200.69228773280156 0 0 0 0 0.035323744465131313 243.96748005327845 0 243.96748005327845 -267.27492377780436 0 0 0 0 -55.94395241093298 278.74776171553822 0 278.74776171553822 -274.12655787280528 0 0 0 0 -34.129352647432825 233.75758812335152 0 233.75758812335152 -255.96047843527685 0 0 0 0 -294.60684977882192 348.62441120621043 0 348.62441120621043 -261.57122641198976 0 0 0 0 -118.79917526309146 248.59781206792104 0 248.59781206792104 -275.69111300936947 0 0 0 0 -308.06551734817913 249.92460427197148 0 249.92460427197148 -253.98152625990042 0 0 0 0 -268.68667743417245 387.56862689542959 0 387.56862689542959 -374.56445608259673 0 0 0 0 -447.44242341410427 211.19335992352353 0 211.19335992352353 -201.30148298624408 0 0 0 0 -488.24727552293916 295.15762475504744 0 295.15762475504744 -168.38313845647099 0 0 0 0 637.92145845104096 96.986439959724521 0 96.986439959724521 -880.85267546369869 0 0 0 0 1.5895617029816549 2.8979536044849681 0 2.8979536044849681 -46.427643482593552 0 0 0 0 -623.82141415744263 2095.10591666451 0 2095.10591666451 3292.3155141528114 0 0 0 0 -1004.1615679741371 139.38214240225716 0 139.38214240225716 -12.733147714148799 0 0 0 0 -785.84655867324909 46.512364390742732 0 46.512364390742732 -272.811889284465 0 0 0 0 336.11823366093449 -104.44139523622289 0 -104.44139523622289 -219.21311107321526 0 0 0 0 8.6259894190071122 6.0708773829466054 0 6.0708773829466054 -3.5980994267671633 0 0 0 0 -51.546120800470817 -74.798779663404275 0 -74.798779663404275 296.55766302598931 0 0 0 0 -274.01401635701768 134.61450204633366 0 134.61450204633366 -93.300535726433736 0 0 0 0 -173.49381079344312 86.483941613803836 0 86.483941613803836 -81.833443891560819 0 0 0 0 -115.66198823490413 227.7473058040141 0 227.7473058040141 -180.85196347267629 0 0 0 0 -223.30302695892169 213.39919910594836 0 213.39919910594836 -160.98237342016728 0 0 0 0 -98.774036318209255 154.90534570701129 0 154.90534570701129 -134.30440528399777 0 0 0 0 -106.35167840524446 151.44647722042373 0 151.44647722042373 -135.14358908756549 0 0 0 0 -56.99404344514187 134.70072110975707 0 134.70072110975707 -178.04545923196929 0 0 0 0 -71.552423167362576 89.569499960960457 0 89.569499960960457 -75.174669729649395 0 0 0 0 88.440778418633272 133.4079360527503 0 133.4079360527503 -30.195679817479686 0 0 0 0 3.4162135897951629 7.278766191148776 0 7.278766191148776 -50.091969517474539 0 0 0 0 157.10484300059761 57.031182153299596 0 57.031182153299596 -48.084095532249194 0 0 0 0 -136.22638645181723 91.728835895147313 0 91.728835895147313 -111.65352072175483 0 0 0 0 40.966746197489556 52.454430168181716 0 52.454430168181716 -24.876868058730906 0 0 0 0 -125.64517064193569 70.528117162476065 0 70.528117162476065 -70.771993275579007 0 0 0 0 1.7057640390859774 2.4980073840060335 0 2.4980073840060335 -9.2601010725052308 0 0 0 0 -15.050368130941479 15.766941697212715 0 15.766941697212715 3.4594019932317566 0 0 0 0 13.156389755431519 23.789154054972137 0 23.789154054972137 -16.184856569769224 0 0 0 0 -1.4141390599543229 29.086464736683411 0 29.086464736683411 -4.8382498305873014 0 0 0 0 -4.1297725239419378 29.637829388206228 0 29.637829388206228 0.90053278525192582 0 0 0 0 -0.13956157762872579 14.697016774240012 0 14.697016774240012 -11.157665739570085 0 0 0 0 -1.1311359340179479 27.263905850737501 0 27.263905850737501 -2.1026758808948216 0 0 0 0 18.364243779557 8.6015559202087388 0 8.6015559202087388 -66.435034045061911 0 0 0 0 0.12869260673113558 -0.29161311639473908 0 -0.29161311639473908 -1.0607187698282234 0 0 0 0 -39.14719789029914 70.620921435584023 0 70.620921435584023 -118.30915655332865 0 0 0 0 -9.2949743667850271 40.643509637004172 0 40.643509637004172 -95.748722669250128 0 0 0 0 -55.309727727319114 88.783034987951396 0 88.783034987951396 -86.759667245529272 0 0 0 0 -53.597192330169491 38.876186652280012 0 38.876186652280012 22.558175284415483 0 0 0 0 -10.951634858586658 124.84764630254386 0 124.84764630254386 -387.5981368203702 0 0 0 0 -7.0431604339391924 81.209849196408868 0 81.209849196408868 -121.54253283308208 0 0 0 0 -116.62975306735461 191.65769046772448 0 191.65769046772448 -155.63862856009655 0 0 0 0 -0.17610747334401822 209.2504935301904 0 209.2504935301904 -263.97676104863058 0 0 0 0 -72.310206735695829 226.23666644278592 0 226.23666644278592 -265.59008323736271 0 0 0 0 -0.24357617315627067 -2.3688390396287993 0 -2.3688390396287993 -0.02918803351189303 0 0 0 0 0.078219622446340509 108.38759602709979 0 108.38759602709979 91.977199197539449 0 0 0 0 -67.679641069145873 17.079885105483299 0 17.079885105483299 315.97426694484892 0 0 0 0 40.6461852647044 15.409566217761039 0 15.409566217761039 61.595777123742664 0 0 0 0 -105.12043654633453 80.99235632019645 0 80.99235632019645 49.270045491566634 0 0 0 0 8.0483838221844053 -9.6227553364001324 0 -9.6227553364001324 -66.676283371935824 0 0 0 0 4.6585475623121511 1.9345647800233934 0 1.9345647800233934 1.7231980274392882 0 0 0 0 -0.046697792651864634 112.82925778706399 0 112.82925778706399 -159.78684118646379 0 0 0 0 54.02673946658615 -535.00681122064611 0 -535.00681122064611 786.84499269802745 0 0 0 0 351.09136231220327 25.809096910012158 0 25.809096910012158 185.19376792404501 0 0 0 0 -426.92088838985364 -96.305475995124425 0 -96.305475995124425 238.22055011410976 0 0 0 0 188.25863212414879 440.01100983050452 0 440.01100983050452 -147.26222372647612 0 0 0 0 2.7314555488743792 2.6810585238594626 0 2.6810585238594626 1.798389725038765 0 0 0 0 202.00841097011289 27.934135003237429 0 27.934135003237429 -274.27760621449102 0 0 0 0 -103.17462033391348 185.02348776537633 0 185.02348776537633 882.24739948941669 0 0 0 0 0.69654167503039466 682.96558845262018 0 682.96558845262018 204.06416393991708 0 0 0 0 -82.972325180613552 295.51655360997847 0 295.51655360997847 -231.43193721062562 0 0 0 0 -83.539905282028485 420.75508480133794 0 420.75508480133794 -337.31896290931218 0 0 0 0 -143.37356645229738 -11.025955338351764 0 -11.025955338351764 11.432375061743642 0 0 0 0 11.945915872713016 39.2754552508882 0 39.2754552508882 64.198935958218684 0 0 0 0 3.5376013514649287 4.7860757166645271 0 4.7860757166645271 5.0672912014524716 0 0 0 0 -18.292210021492792 259.94490159230202 0 259.94490159230202 -24.160926568836278 0 0 0 0 -203.85996167871053 331.78804710616845 0 331.78804710616845 265.89941512286441 0 0 0 0 19.147755937332761 44.241888135956003 0 44.241888135956003 68.462710229986172 0 0 0 0 -28.966198474590783 127.59560138029701 0 127.59560138029701 -530.06928005503141 0 0 0 0 -183.95988311433757 -54.720891662402792 0 -54.720891662402792 11.23184348837168 0 0 0 0 1.9115038521165957 2.1599038297193829 0 2.1599038297193829 2.2322878552827539 0 0 0 0 66.549974199500866 190.51406481689526 0 190.51406481689526 -150.42257425710659 0 0 0 0 14.364604404687498 -63.702285789894077 0 -63.702285789894077 259.76908945437708 0 0 0 0 19.616909438089351 -202.52130354957853 0 -202.52130354957853 -76.663861077211209 0 0 0 0 12.196000881185398 9.4458974649737684 0 9.4458974649737684 7.321998972413394 0 0 0 0 -154.56041638464376 -152.73107082815329 0 -152.73107082815329 533.10056160451506 0 0 0 0 16.658390551659977 177.91300956051236 0 177.91300956051236 -222.75599395592781 0 0 0 0 307.91342413955135 -453.92793172669917 0 -453.92793172669917 -0.236865435148502 0 0 0 0 45.259289293680922 83.298589162012831 0 83.298589162012831 122.5333191978502 0 0 0 0 -58.721370272833155 114.51068197055838 0 114.51068197055838 124.98608936340315 0 0 0 0 -344.42526352575078 308.15778013353975 0 308.15778013353975 271.20397650041377 0 0 0 0 13.946985927965216 18.253434592653889 0 18.253434592653889 15.65870443721591 0 0 0 0 -19.248722463957165 10.653313848821426 0 10.653313848821426 10.877567510932749 0 0 0 0 -0.43448244648634216 5.3782845960350016 0 5.3782845960350016 1.4851716018187915 0 0 0 0 6.3177315624800201 34.271797682825422 0 34.271797682825422 40.337541466128009 0 0 0 0 105.95632471240242 201.71037361642698 0 201.71037361642698 312.7234681399147 0 0 0 0 -3.506055794598069 69.426714710142278 0 69.426714710142278 38.894693480282967 0 0 0 0 -333.69553547790565 -152.02204232313829 0 -152.02204232313829 458.83969170408864 0 0 0 0 -26.926369919237914 73.627439989047616 0 73.627439989047616 33.607794123015992 0 0 0 0 2.82681736300583 26.898883767078587 0 26.898883767078587 69.179792896295112 0 0 0 0 7.9395978744432796 40.952791380686904 0 40.952791380686904 34.48558390335802 0 0 0 0 5.8334007888479391 79.676698843460144 0 79.676698843460144 -0.83913828721688333 0 0 0 0 -2.017017544531825 32.636237875772196 0 32.636237875772196 70.093870706286225 0 0 0 0 -1.0623502063372712 1.8616272538676668 0 1.8616272538676668 -0.93951524247494689 0 0 0 0 -84.009492734556261 162.26581474717386 0 162.26581474717386 -234.14710349220695 0 0 0 0 -74.678417599836393 391.0681964387577 0 391.0681964387577 282.94225395515969 0 0 0 0 -325.65251172607532 498.37224974689161 0 498.37224974689161 -202.10404070277582 0 0 0 0 49.993688239963376 90.326277168922388 0 90.326277168922388 -522.71649194628299 0 0 0 0 -41.826015766317141 402.17697524259711 0 402.17697524259711 -93.54135762435908 0 0 0 0 -8.1803603027074132 328.05772246553533 0 328.05772246553533 -427.79579076485243 0 0 0 0 23.144609936152079 53.309238480339218 0 53.309238480339218 76.434522497076259 0 0 0 0 105.05890766371886 265.52768380960464 0 265.52768380960464 -126.85533114249029 0 0 0 0 -44.253124682843918 355.63796087031278 0 355.63796087031278 -191.32320578795043 0 0 0 0 0.20209538281464745 31.102365144390205 0 31.102365144390205 11.346361328181175 0 0 0 0 -197.76987308313255 177.60110183843426 0 177.60110183843426 83.039718346968584 0 0 0 0 -564.03294578124769 314.52836801212652 0 314.52836801212652 107.21286307407718 0 0 0 0 -186.83312270467286 514.45128319405012 0 514.45128319405012 -559.78415920594853 0 0 0 0 -33.316582137602381 230.92538588784009 0 230.92538588784009 -36.220244699012028 0 0 0 0 -63.001139001702541 400.40333025594919 0 400.40333025594919 -22.560691660546581 0 0 0 0 75.011405432473111 101.20569570592943 0 101.20569570592943 140.89257967613594 0 0 0 0 42.996898386350949 246.29465981687827 0 246.29465981687827 -311.00481387646141 0 0 0 0 52.462202869530302 -62.821297604728898 0 -62.821297604728898 -163.95552168881841 0 0 0 0 85.528724839983624 13.17337832481644 0 13.17337832481644 -25.481481347596855 0 0 0 0 -217.70747814430797 385.58472499209529 0 385.58472499209529 -98.371477725386285 0 0 0 0 0.75115344696342845 0.97349282877644328 0 0.97349282877644328 -6.8609824737873879 0 0 0 0 58.934178673967835 -19.924891383068825 0 -19.924891383068825 -457.3500289585354 0 0 0 0 14.573690670680527 39.458041845232813 0 39.458041845232813 -31.103664487715399 0 0 0 0 19.573951649355877 55.710028234598212 0 55.710028234598212 -28.101864740792735 0 0 0 0 98.860002497691312 35.648181792734249 0 35.648181792734249 -47.707131061491964 0 0 0 0 93.101599899076973 18.055036617697624 0 18.055036617697624 -91.84753577103038 0 0 0 0 129.32357561864774 73.154870289567043 0 73.154870289567043 -86.943565310748681 0 0 0 0 4.2100647738281509 15.513453992996531 0 15.513453992996531 -9.5166111675710567 0 0 0 0 40.258845906879287 41.782430340676001 0 41.782430340676001 -75.075761761247122 0 0 0 0 95.316335096282273 119.1544427933718 0 119.1544427933718 22.507304408802156 0 0 0 0 25.674045169551391 24.512006120457954 0 24.512006120457954 -36.58847049002361 0 0 0 0 76.420502185195801 15.029240649664644 0 15.029240649664644 -67.853337116972398 0 0 0 0 -12.845719010219909 61.393072103379382 0 61.393072103379382 -55.910716896742088 0 0 0 0 -14.523098832753021 8.1572756029581797 0 8.1572756029581797 -225.19903166823133 0 0 0 0 -19.498580292129191 179.9045109896615 0 179.9045109896615 -173.28983504574808 0 0 0 0 -108.74961019620241 165.73138620093869 0 165.73138620093869 -44.359361412563885 0 0 0 0 -19.196965931434534 145.80398720257654 0 145.80398720257654 -97.16854640510428 0 0 0 0 5.7245718244521413 129.20919319122186 0 129.20919319122186 -108.10916165281014 0 0 0 0 -35.010296044678398 115.86814958074228 0 115.86814958074228 50.266418631668785 0 0 0 0 -33.198242309008492 105.23413553190767 0 105.23413553190767 -54.535322701784025 0 0 0 0 8.2240999425856387 50.694066176062847 0 50.694066176062847 43.052734297133803 0 0 0 0 13.351590787657187 116.69088576436116 0 116.69088576436116 -59.013676071543159 0 0 0 0 -25.424998365575448 107.54841401451267 0 107.54841401451267 -55.949545683568431 0 0 0 0 -5.5293957070243778 148.22288028291223 0 148.22288028291223 -140.18156387745694 0 0 0 0 5.8204968118225224 0.38425080334855011 0 0.38425080334855011 -33.631328253919492 0 0 0 0 -114.27794108726084 155.920105240868 0 155.920105240868 -79.39381676667108 0 0 0 0 -24.206132080773386 69.303994055365564 0 69.303994055365564 -1.2476438102374157 0 0 0 0 15.048409966097097 94.430974075903578 0 94.430974075903578 -15.155118655079605 0 0 0 0 24.630589894019067 83.155831324987957 0 83.155831324987957 -7.6741785471464823 0 0 0 0 -195.75309507874772 158.1827043989033 0 158.1827043989033 293.16098289524962 0 0 0 0 143.5972378248407 -1.8911853882018477 0 -1.8911853882018477 -63.633474701578962 0 0 0 0 -1.009276020395248 3.8479829181308816 0 3.8479829181308816 31.305942864673206 0 0 0 0 -10.880375937831559 94.029370103691861 0 94.029370103691861 -13.01242319970288 0 0 0 0 23.689474806800717 94.917203265080389 0 94.917203265080389 -8.2098002460003272 0 0 0 0 -15.113624969613738 87.595958914220319 0 87.595958914220319 44.229793836373574 0 0 0 0 3.8378479765507905 83.982489629592081 0 83.982489629592081 20.736478520955917 0 0 0 0 7.8066431722108973 111.38722010977278 0 111.38722010977278 30.990124892089625 0 0 0 0 -1.1718314572121926 45.663422310330134 0 45.663422310330134 -1.7270042296016666 0 0 0 0 10.609068730111176 64.39745660842982 0 64.39745660842982 -0.92814545439614449 0 0 0 0 11.392106038376369 86.325327078257942 0 86.325327078257942 -2.090183870648616 0 0 0 0 0.40315081705580269 57.963519747827561 0 57.963519747827561 36.823326757535639 0 0 0 0 17.875970645502093 70.208749415676721 0 70.208749415676721 -24.450745274763904 0 0 0 0 8.5484109515526825 51.533067994436067 0 51.533067994436067 -17.296270584236396 0 0 0 0 10.481288236333057 28.432788000569417 0 28.432788000569417 4.8102674638066674 0 0 0 0 4.7712589059374295 46.081355355618143 0 46.081355355618143 -24.607361507303722 0 0 0 0 19.615489717223682 41.359253799091675 0 41.359253799091675 51.861231003218563 0 0 0 0 3.6741569846915922 44.091053993572743 0 44.091053993572743 24.521815498409797 0 0 0 0 19.732257177924055 45.729875632343756 0 45.729875632343756 29.932711572749639 0 0 0 0 14.026514477800731 49.781556653136803 0 49.781556653136803 -17.243238062134488 0 0 0 0 7.9213777686818503 51.029409236049105 0 51.029409236049105 -35.510630819393555 0 0 0 0 8.6114108381817402 32.442954604681887 0 32.442954604681887 -32.255483784995739 0 0 0 0 -18.031841021438595 68.566455451611546 0 68.566455451611546 -70.315827418144181 0 0 0 0 13.824853683414233 44.185997409734668 0 44.185997409734668 15.149006951874867 0 0 0 0 25.94462523625694 28.628702339050662 0 28.628702339050662 -17.614212345938725 0 0 0 0 50.402006299671484 36.79564976797883 0 36.79564976797883 45.150729059561854 0 0 0 0 13.405595626781803 44.358708454050145 0 44.358708454050145 -14.005595200050077 0 0 0 0 24.098504674941069 86.76520437002182 0 86.76520437002182 -17.353049382507379 0 0 0 0 -3.5151080883362056 29.055256238067031 0 29.055256238067031 16.503290939298616 0 0 0 0 -25.837745432858355 69.884229836039594 0 69.884229836039594 63.054466899367981 0 0 0 0 5.0362803875394206 6.184789954000415 0 6.184789954000415 1.4042403201434865 0 0 0 0 49.154900321620516 32.387823873723391 0 32.387823873723391 62.009319986798801 0 0 0 0 15.813513517340766 42.304255061343184 0 42.304255061343184 19.503155477734854 0 0 0 0 1.5583825073554181 99.803046277167596 0 99.803046277167596 39.086747729717899 0 0 0 0 13.270932347280905 72.372726599276575 0 72.372726599276575 -6.254203054251775 0 0 0 0 -6.2621745641445159 68.172046778373897 0 68.172046778373897 -8.7841209408052237 0 0 0 0 6.6555734349308864 50.944132885803924 0 50.944132885803924 8.1242925985699941 0 0 0 0 -6.1303062377992319 62.973810027772743 0 62.973810027772743 -30.513235723095022 0 0 0 0 -41.196271316963248 55.247377765537749 0 55.247377765537749 -41.37929984062248 0 0 0 0 -14.063444661474307 66.2238547775342 0 66.2238547775342 81.873126446580926 0 0 0 0 -3.7853444502469529 39.022673641118985 0 39.022673641118985 45.975083224940015 0 0 0 0 33.447446251491783 53.080803708984604 0 53.080803708984604 -33.105460246219081 0 0 0 0 0.28753901776508428 42.664914189253977 0 42.664914189253977 37.291519912456351 0 0 0 0 3.2103774361894466 31.855972947215832 0 31.855972947215832 82.421093741152163 0 0 0 0 -7.0238394076885129 39.195753983356965 0 39.195753983356965 5.9693987398564339 0 0 0 0 -4.0000496447459 25.930549036070929 0 25.930549036070929 23.195164965925784 0 0 0 0 2.0539694869877394 39.668367398048019 0 39.668367398048019 -8.2006810130205512 0 0 0 0 8.7353325631221423 40.478328406901127 0 40.478328406901127 27.314468860690923 0 0 0 0 -37.370153499767184 8.6674245336835156 0 8.6674245336835156 12.452929684315677 0 0 0 0 -5.1329754198959563 32.920935288861074 0 32.920935288861074 -1.9492734691411897 0 0 0 0 -6.8878222177154385 30.429224512499786 0 30.429224512499786 15.461623002034685 0 0 0 0 -5.2415917196244664 33.070262415169481 0 33.070262415169481 24.761095022860314 0 0 0 0 0.94524213683325797 50.239966501585513 0 50.239966501585513 25.827593684600345 0 0 0 0 -8.2286717419712829 30.327801418774584 0 30.327801418774584 17.460585426512324 0 0 0 0 4.4151233933887681 35.87979747827049 0 35.87979747827049 18.799605015172823 0 0 0 0 -30.255173299534363 57.822126839915654 0 57.822126839915654 29.361746415481321 0 0 0 0 -9.051028257904548 31.588242625364131 0 31.588242625364131 6.4403309464182001 0 0 0 0 -11.12856679270044 65.334358763178898 0 65.334358763178898 8.8382316086790524 0 0 0 0 35.593567106785486 38.734311081552733 0 38.734311081552733 8.814776197905303 0 0 0 0 47.982736673089676 57.4684840767477 0 57.4684840767477 -128.63332485040155 0 0 0 0 1.5708481537088232 2.4810964369498514 0 2.4810964369498514 -10.911417777867712 0 0 0 0 -16.916825020831311 107.20791641160395 0 107.20791641160395 139.85714699897653 0 0 0 0 -6.192474139495971 46.780723720083415 0 46.780723720083415 39.318703332799487 0 0 0 0 53.411218021064997 125.41200218724043 0 125.41200218724043 46.348237631253596 0 0 0 0 46.494848353177076 49.682133814127155 0 49.682133814127155 -99.420856957003707 0 0 0 0 9.6900025197629702 34.588348227218368 0 34.588348227218368 -35.066794517464238 0 0 0 0 33.589996354770847 43.792097217023183 0 43.792097217023183 32.639384171343409 0 0 0 0 61.507138360593672 3.0351550626101016 0 3.0351550626101016 -152.62514684193593 0 0 0 0 -5.6602297607751098 -35.223972325125942 0 -35.223972325125942 -124.80131816600624 0 0 0 0 -7.3503631442408732 25.921163043248612 0 25.921163043248612 20.107148435962046 0 0 0 0 29.74318144597288 19.21176084208836 0 19.21176084208836 -37.888523339936796 0 0 0 0 45.779984377659275 69.619462315185956 0 69.619462315185956 29.561551102238809 0 0 0 0 35.510443355378811 69.818853629079968 0 69.818853629079968 48.908093362420914 0 0 0 0 47.270271134853829 51.557263361028163 0 51.557263361028163 6.2746889594691311 0 0 0 0 -128.26336973014986 -136.10708158731723 0 -136.10708158731723 -156.81087532016682 0 0 0 0 70.33324640878709 -130.0920277551586 0 -130.0920277551586 -378.47205324597599 0 0 0 0 67.212841420521727 -86.539776774276106 0 -86.539776774276106 -350.70101939072265 0 0 0 0 8.628382640749976 7.0184838218437733 0 7.0184838218437733 -10.605595174838868 0 0 0 0 -262.3078805666737 -295.07775748851418 0 -295.07775748851418 -310.73860036450787 0 0 0 0 141.51987515539804 35.247846441219735 0 35.247846441219735 -248.13239082148357 0 0 0 0 37.823747180402279 -57.519029491035326 0 -57.519029491035326 -219.46434889791999 0 0 0 0 87.394569890529965 -51.105280324936757 0 -51.105280324936757 -218.89627959061181 0 0 0 0 166.40812351832574 -22.283928674529307 0 -22.283928674529307 -342.57356451061059 0 0 0 0 180.64326176763279 56.360584266098158 0 56.360584266098158 -239.08719050330546 0 0 0 0 136.87765707363724 88.288408316726418 0 88.288408316726418 -205.24915205324214 0 0 0 0 133.78650015624589 94.379000188917416 0 94.379000188917416 -181.03185495280195 0 0 0 0 145.97134722072224 104.93428165286605 0 104.93428165286605 -209.47976468791603 0 0 0 0 149.90656926928204 101.61965951587626 0 101.61965951587626 -230.08011432371859 0 0 0 0 115.87507584382547 162.99344618926261 0 162.99344618926261 -218.73513479441317 0 0 0 0 135.67002982085978 150.44425018122638 0 150.44425018122638 -212.29712888733047 0 0 0 0 123.82111009155051 216.36297042972001 0 216.36297042972001 -305.45952017479431 0 0 0 0 118.26884087888902 184.81593990075908 0 184.81593990075908 -255.84874263107486 0 0 0 0 -64.851728799170814 259.20287701147026 0 259.20287701147026 -180.35284746522666 0 0 0 0 29.408010120474501 178.07767677199445 0 178.07767677199445 -163.4557186339116 0 0 0 0 20.07892248826829 111.41853621246628 0 111.41853621246628 -87.535798828335828 0 0 0 0 67.17303069170157 121.7795150199745 0 121.7795150199745 -85.694244067533873 0 0 0 0 29.363380797934042 178.42991635160911 0 178.42991635160911 -114.89340160928259 0 0 0 0 -62.075147720577661 162.80330783595855 0 162.80330783595855 -46.210797331609683 0 0 0 0 -1.0987070109404158 113.56920279746555 0 113.56920279746555 -41.443892362523002 0 0 0 0 33.883724680767045 75.158953282019866 0 75.158953282019866 -110.65860326055554 0 0 0 0 64.670436900883942 107.38808031089866 0 107.38808031089866 -165.40116153506096 0 0 0 0 -137.3107552263391 251.06392215028609 0 251.06392215028609 108.50950457806903 0 0 0 0 45.798625617295471 43.517734650748977 0 43.517734650748977 29.686366795305204 0 0 0 0 5.4250109933543911 24.192590016980887 0 24.192590016980887 11.278848956756676 0 0 0 0 -58.982085422438104 54.913988225729554 0 54.913988225729554 -62.361732816440053 0 0 0 0 -19.367787075923843 94.003736933773325 0 94.003736933773325 -47.125637141725747 0 0 0 0 -15.516785993531812 67.721688662320958 0 67.721688662320958 -31.679001094031264 0 0 0 0 -46.664720077984384 71.611114618701322 0 71.611114618701322 -31.837067546111939 0 0 0 0 -3.4506341555243125 87.652003617648006 0 87.652003617648006 -49.004120251862332 0 0 0 0 -20.638606327818707 87.955818956703297 0 87.955818956703297 -34.748792897880776 0 0 0 0 -44.529138893041818 82.90990322000107 0 82.90990322000107 -45.43018009327352 0 0 0 0 87.95837996621249 52.229353662809103 0 52.229353662809103 -19.433099383459876 0 0 0 0 16.04932511729956 36.58391218268477 0 36.58391218268477 13.504410934396134 0 0 0 0 12.705548052792437 49.445238121523289 0 49.445238121523289 3.4049833214621685 0 0 0 0 -17.888202835237053 37.2457662011183 0 37.2457662011183 26.305694818573109 0 0 0 0 -137.0652072160301 163.68980292396009 0 163.68980292396009 -45.634638385017752 0 0 0 0 -47.262692983844317 99.034984198544407 0 99.034984198544407 -2.9101033409078809 0 0 0 0 -82.283604968492 67.249747086820207 0 67.249747086820207 -65.295452648861101 0 0 0 0 16.157721460023893 -0.64366747302156568 0 -0.64366747302156568 -13.87754527699704 0 0 0 0 -60.336407415190479 194.14393628815742 0 194.14393628815742 -55.76492321331898 0 0 0 0 -436.25564021861646 434.79532219966495 0 434.79532219966495 -206.49325943301665 0 0 0 0 82.624314806002076 419.60693208925659 0 419.60693208925659 -563.2489567931043 0 0 0 0 -430.15943828597665 32.365309401415288 0 32.365309401415288 72.591450350788364 0 0 0 0 178.86603782035854 170.5465070773862 0 170.5465070773862 54.281709856331872 0 0 0 0 229.15899699882721 53.183418983695447 0 53.183418983695447 116.25442700474377 0 0 0 0 134.09738705304335 160.09567987987248 0 160.09567987987248 -2.0449298718158389 0 0 0 0 -74.9458969409161 -275.03957368054171 0 -275.03957368054171 59.002747763312072 0 0 0 0 -293.22798268912447 462.94742891046189 0 462.94742891046189 134.95540871603066 0 0 0 0 7.2982722325902785 7.1987186977576414 0 7.1987186977576414 7.0048211594720584 0 0 0 0 -0.096124297642361967 2.9299191629583703 0 2.9299191629583703 3.8768082314172005 0 0 0 0 -42.872204276973207 59.702598011866939 0 59.702598011866939 -111.93096769530439 0 0 0 0 -30.780491003037241 72.218692991713851 0 72.218692991713851 -115.56721069223568 0 0 0 0 14.344300065602724 14.693134965431966 0 14.693134965431966 16.370498050383091 0 0 0 0 11.654884362673329 82.426146353758668 0 82.426146353758668 -60.793561192495389 0 0 0 0 -31.956475634547132 90.962728640229557 0 90.962728640229557 -40.93679645685188 0 0 0 0 -20.959226802224293 79.654352764118812 0 79.654352764118812 -110.57209120473271 0 0 0 0 22.047883690327296 28.652755688343191 0 28.652755688343191 20.943412553689299 0 0 0 0 -84.484578810242056 75.365425127223716 0 75.365425127223716 13.412116140116268 0 0 0 0 -18.821730232346454 41.762657650815527 0 41.762657650815527 -27.098879695515279 0 0 0 0 -9.2579699807683937 107.25250703912934 0 107.25250703912934 -60.895292435037845 0 0 0 0 -69.412241858546622 132.65650478955649 0 132.65650478955649 -45.742854208721837 0 0 0 0 -9.6202704537377741 42.815708639487326 0 42.815708639487326 1.3043196207801542 0 0 0 0 -222.54960693084286 -4.3511640525575785 0 -4.3511640525575785 106.07877825086689 0 0 0 0 35.233189610297359 126.46496964770552 0 126.46496964770552 -95.169413270024961 0 0 0 0 13.82264865306206 49.546402349634718 0 49.546402349634718 -11.318937383035106 0 0 0 0 10.433482893931796 95.01505082435051 0 95.01505082435051 71.422230325905147 0 0 0 0 151.00718679315833 130.39200467102637 0 130.39200467102637 -391.53146944746186 0 0 0 0 1.7468017441727994 8.9851276748844455 0 8.9851276748844455 2.6274817155190533 0 0 0 0 -17.086843677092304 53.491951026541685 0 53.491951026541685 -10.914469690848447 0 0 0 0 -38.572229953366332 111.58375337929101 0 111.58375337929101 -114.73530616238594 0 0 0 0 13.072199868736789 69.3771220147446 0 69.3771220147446 -24.036984330819905 0 0 0 0 -11.128445263856449 65.598491368893164 0 65.598491368893164 -7.8555172536768874 0 0 0 0 -2.5828784151817672 43.783451534658525 0 43.783451534658525 99.423289089070749 0 0 0 0 10.661194739626808 73.474444538367607 0 73.474444538367607 -20.52567022475705 0 0 0 0 27.954871182554584 32.877987382053817 0 32.877987382053817 -47.952981613326763 0 0 0 0 -1.0303560493266559 74.869208785223236 0 74.869208785223236 -28.425202730155434 0 0 0 0 -14.692689518349653 80.004978672932339 0 80.004978672932339 0.10760304480936611 0 0 0 0 -5.1232085755583512 48.835311834139837 0 48.835311834139837 -10.636433379921865 0 0 0 0 -1.498974441215978 80.712349896413798 0 80.712349896413798 -45.300953258596564 0 0 0 0 -8.7936776982387528 74.344347948765062 0 74.344347948765062 -24.920698520014412 0 0 0 0 -8.9387038752465742 85.510491373956029 0 85.510491373956029 -14.598519615276018 0 0 0 0 4.3958149804675486 71.857022219704959 0 71.857022219704959 -13.656222348821757 0 0 0 0 14.166499235434458 63.656659175670939 0 63.656659175670939 -20.13903073963229 0 0 0 0 0.79926163482741686 70.756584498321899 0 70.756584498321899 -23.630933197200648 0 0 0 0 19.582178232429719 43.648598176193417 0 43.648598176193417 -13.599127882591787 0 0 0 0 19.494008729438065 69.805256476494833 0 69.805256476494833 -20.970273459683085 0 0 0 0 9.8389683827472822 53.077997245844109 0 53.077997245844109 -6.8266127791495492 0 0 0 0 10.845592381607275 80.693235370115872 0 80.693235370115872 4.4057996840710985 0 0 0 0 47.282387258252129 98.814237854301609 0 98.814237854301609 102.85532737266476 0 0 0 0 17.838375309946741 40.045662770600138 0 40.045662770600138 -22.255579731505755 0 0 0 0 18.535364097973797 82.191462073202274 0 82.191462073202274 -10.796243294811575 0 0 0 0 -1.1600071040365378 50.288431940456249 0 50.288431940456249 0.4463606422872175 0 0 0 0 12.24170731123013 66.551060035437331 0 66.551060035437331 -16.249617658184434 0 0 0 0 9.4584510676352807 33.910947597310738 0 33.910947597310738 -34.558156100725441 0 0 0 0 11.033168789901538 39.802899363872825 0 39.802899363872825 -51.50407995758745 0 0 0 0 16.113975522981491 54.831713294757719 0 54.831713294757719 12.797751274812981 0 0 0 0 10.056413129699649 72.943564296137993 0 72.943564296137993 -13.984642986186373 0 0 0 0 6.1743238232512851 54.39011389986608 0 54.39011389986608 -4.518997856549742 0 0 0 0 17.413255039864453 58.072618081479959 0 58.072618081479959 -6.6091190491169982 0 0 0 0 24.07866103616368 50.259688060345638 0 50.259688060345638 4.110503377243548 0 0 0 0 81.505262806313112 93.996477266133297 0 93.996477266133297 71.207237698916288 0 0 0 0 49.208425682136976 58.508990156895273 0 58.508990156895273 -52.656441387439337 0 0 0 0 90.368953356679413 93.902190070035431 0 93.902190070035431 15.135915350110736 0 0 0 0 62.103256089729257 107.45606878277613 0 107.45606878277613 69.211139414692298 0 0 0 0 35.415679441045341 50.509373167597751 0 50.509373167597751 -22.174039532013463 0 0 0 0 -37.810585446830373 81.511676071138027 0 81.511676071138027 47.293720543220843 0 0 0 0 49.129168973267952 69.979010254282628 0 69.979010254282628 34.485761197364809 0 0 0 0 -15.022783753797583 85.557835838453357 0 85.557835838453357 8.22448213440763 0 0 0 0 17.870177932898514 49.47852528124713 0 49.47852528124713 -3.9691739686240908 0 0 0 0 3.1350865057947459 82.096412423126878 0 82.096412423126878 -2.2344757997740885 0 0 0 0 1.3008064275786282 79.683333992381975 0 79.683333992381975 4.3273024011960786 0 0 0 0 25.967676632018993 71.244599487032247 0 71.244599487032247 -7.1180072945055883 0 0 0 0 92.864348578616045 76.426236944418633 0 76.426236944418633 57.53045558926533 0 0 0 0 -9.8252724359788317 75.617863680618612 0 75.617863680618612 -19.323463759647879 0 0 0 0 24.572623552344794 63.877667400764544 0 63.877667400764544 -44.678339547102439 0 0 0 0 136.96475889317207 122.61714991279314 0 122.61714991279314 -23.593943243584363 0 0 0 0 -2.2974876051306623 46.306452141794082 0 46.306452141794082 -16.283209647980854 0 0 0 0 49.486367813544348 75.409211206257169 0 75.409211206257169 -84.953660472638148 0 0 0 0 18.440052717749495 141.70007671164785 0 141.70007671164785 76.364389576271151 0 0 0 0 29.233299163788615 82.923430794412525 0 82.923430794412525 -33.98695864866022 0 0 0 0 27.493100768202567 53.905432890940574 0 53.905432890940574 -21.943833991252177 0 0 0 0 31.585344970917504 49.256210729710347 0 49.256210729710347 -22.443210304132663 0 0 0 0 74.525653801727458 84.358751418378233 0 84.358751418378233 83.248896939316182 0 0 0 0 -8.5473260962332915 26.053676931766731 0 26.053676931766731 -19.332173279404074 0 0 0 0 -12.889361058388673 42.606361080363016 0 42.606361080363016 -1.7868140425982624 0 0 0 0 60.011256196292379 104.88378971980183 0 104.88378971980183 40.657568383398029 0 0 0 0 48.837954800779698 152.49623554687787 0 152.49623554687787 59.500442976004706 0 0 0 0 -2.8172289869894271 126.71292151578346 0 126.71292151578346 36.712244475209445 0 0 0 0 -51.285392494406551 191.23963546714731 0 191.23963546714731 41.609271410461588 0 0 0 0 78.821493170456961 112.15298249409534 0 112.15298249409534 65.395305482241383 0 0 0 0 -4.8624128148683496 2.8870824303470499 0 2.8870824303470499 19.575476373510611 0 0 0 0 97.595599475840572 91.309869252680073 0 91.309869252680073 51.46766881574149 0 0 0 0 1.4237645415687439 2.5197600926567247 0 2.5197600926567247 -6.6743597852037055 0 0 0 0 21.458452033562935 56.320662231861206 0 56.320662231861206 -22.532269017549879 0 0 0 0 20.296104546090646 60.14932426769883 0 60.14932426769883 -17.202755795773555 0 0 0 0 9.0542247542051548 35.747836433746755 0 35.747836433746755 -18.672791581612088 0 0 0 0 -16.082009601072059 53.979388480427588 0 53.979388480427588 -7.2721079678558453 0 0 0 0 23.247350703706616 49.811700486079644 0 49.811700486079644 -21.401943716859023 0 0 0 0 15.273707038335914 19.580342023210022 0 19.580342023210022 -12.728895496316614 0 0 0 0 56.743018631648738 33.851271131372414 0 33.851271131372414 -0.4250649504156172 0 0 0 0 18.973479993641376 60.973319231821733 0 60.973319231821733 -17.186427136661223 0 0 0 0 22.022410639749978 38.114239292390721 0 38.114239292390721 8.633897428320779 0 0 0 0 128.30770403022325 30.055461130041294 0 30.055461130041294 -34.609865794176585 0 0 0 0 56.300147717105574 97.964362332946621 0 97.964362332946621 85.535151228137693 0 0 0 0 1.3400227683330002 0.61808987862930564 0 0.61808987862930564 -0.41238936907193846 0 0 0 0 4.5001626001903787 28.497793183923932 0 28.497793183923932 -37.461263775153384 0 0 0 0 132.39914406837488 50.15105760455117 0 50.15105760455117 -85.17516254824659 0 0 0 0 0.013570433300628792 130.15573022848639 0 130.15573022848639 -117.98357117632986 0 0 0 0 -61.649702800503292 68.353973610810499 0 68.353973610810499 -6.1881748989144398 0 0 0 0 144.81853038599365 -41.628366507006831 0 -41.628366507006831 -28.790547077529482 0 0 0 0 -39.784318140948017 -56.032718987076805 0 -56.032718987076805 43.799483599614177 0 0 0 0 14.383373986260267 5.2645946752318196 0 5.2645946752318196 13.870981085136009 0 0 0 0 -101.20317034943582 279.04165689431102 0 279.04165689431102 -398.77274220304389 0 0 0 0 -28.622685888149135 -28.262209397150627 0 -28.262209397150627 -420.09229781855902 0 0 0 0 52.412890431907726 73.204808297003183 0 73.204808297003183 -248.93048862126216 0 0 0 0 5.2152707908335287 198.68020227502666 0 198.68020227502666 -185.05007264246706 0 0 0 0 55.254120717800106 122.86943102757141 0 122.86943102757141 -41.575336443955166 0 0 0 0 -7.8901828020680114 25.307703100430444 0 25.307703100430444 -37.390055589163239 0 0 0 0 61.011313836017507 -38.102404060427943 0 -38.102404060427943 -13.080191051692054 0 0 0 0 -43.895027430146001 -14.164594763075002 0 -14.164594763075002 -77.740665999956036 0 0 0 0 -0.43919074480058384 4.432927099915446 0 4.432927099915446 -7.1394856036678789 0 0 0 0 54.949130471264652 137.34363471102915 0 137.34363471102915 96.1714821758178 0 0 0 0 4.3369376991940953 114.70520653096901 0 114.70520653096901 87.580037523453939 0 0 0 0 -3.5866760188000626 112.67176589481187 0 112.67176589481187 106.48664907231432 0 0 0 0 19.652502913639182 63.067970035441249 0 63.067970035441249 120.83502456428687 0 0 0 0 34.887001370436337 124.70998591491298 0 124.70998591491298 74.7716047177164 0 0 0 0 19.53004215791475 58.619147005554282 0 58.619147005554282 -18.236865390994353 0 0 0 0 30.257885152470408 -27.752197219117079 0 -27.752197219117079 -36.986552553469664 0 0 0 0 10.896964041821775 84.502860278284061 0 84.502860278284061 120.91624847067578 0 0 0 0 -10.726777757010467 11.276971952621238 0 11.276971952621238 -13.514231648145383 0 0 0 0 53.466675226532971 89.965877235201333 0 89.965877235201333 118.98896381522263 0 0 0 0 0.2393844407359893 2.8514851824270977 0 2.8514851824270977 -8.0811629794190853 0 0 0 0 1.8784668040025281 85.688974492699344 0 85.688974492699344 159.9086768305242 0 0 0 0 11.495440338530898 35.289585183843883 0 35.289585183843883 -114.23728916143045 0 0 0 0 38.900989401881816 109.22778162573741 0 109.22778162573741 46.2319218073917 0 0 0 0 -29.187489963724147 11.479934331911181 0 11.479934331911181 63.843786691960304 0 0 0 0 5.8663264690494543 77.749122806765968 0 77.749122806765968 29.749061615217215 0 0 0 0 -5.6766004374571821 32.766992806127107 0 32.766992806127107 -20.225042075485064 0 0 0 0 -20.241871790029109 77.483412346052319 0 77.483412346052319 82.795262056470619 0 0 0 0 -0.88130317527864577 1.3029122793231238 0 1.3029122793231238 9.1795242983544156 0 0 0 0 6.3099199751522974 50.956945379018066 0 50.956945379018066 -1.5400037415415682 0 0 0 0 -11.56861171714263 40.736973929465194 0 40.736973929465194 42.045489668495065 0 0 0 0 2.8897638843050402 32.636333381375429 0 32.636333381375429 1.2438125898388215 0 0 0 0 -12.431781103659887 35.305038604979927 0 35.305038604979927 16.969218337738312 0 0 0 0 16.923357561230659 69.799719131438906 0 69.799719131438906 123.54532664801263 0 0 0 0 -6.1240418483951373 12.460514965042581 0 12.460514965042581 3.2325252125291191 0 0 0 0 7.5930084191495553 53.681763576023513 0 53.681763576023513 108.9757028949607 0 0 0 0 -1.3399597551615443 73.004773919119543 0 73.004773919119543 151.651305092857 0 0 0 0 2.6947051728587823 37.254465308963034 0 37.254465308963034 51.742542567727938 0 0 0 0 -42.141162253999937 90.949875323677588 0 90.949875323677588 -97.17290099132515 0 0 0 0 -61.676836469530826 104.821655127751 0 104.821655127751 -103.99975887008623 0 0 0 0 -33.400950095368898 -16.859780767423217 0 -16.859780767423217 -6.6962659232085571 0 0 0 0 -86.661585887195542 122.18636204941868 0 122.18636204941868 -4.3906237430055626 0 0 0 0 -113.21107846977611 195.06402119190534 0 195.06402119190534 -193.45490887566848 0 0 0 0 -56.757339955554926 96.041860066517984 0 96.041860066517984 -116.16185329117798 0 0 0 0 -42.934209740204096 82.600222031372141 0 82.600222031372141 -18.411442998738494 0 0 0 0 147.10506415867712 57.463652479325901 0 57.463652479325901 12.587977288207185 0 0 0 0 0.13221059893645304 1.8134816382621324 0 1.8134816382621324 3.1252320068535226 0 0 0 0 48.777984340616968 -6.597451196057591 0 -6.597451196057591 -5.8981989831772808 0 0 0 0 -185.65817807683197 -78.517061687750356 0 -78.517061687750356 124.57314699965457 0 0 0 0 -132.00854561103188 347.16788331799034 0 347.16788331799034 103.07258085971807 0 0 0 0 -129.48918143969058 157.75349532349901 0 157.75349532349901 145.02026792994548 0 0 0 0 -150.69412974714942 248.74154970330255 0 248.74154970330255 -69.023478887276724 0 0 0 0 -153.45502551927348 241.79968554122388 0 241.79968554122388 -42.860469912101507 0 0 0 0 -185.84348399436567 274.28700454881255 0 274.28700454881255 -87.164597478669748 0 0 0 0 -111.7232730245596 303.19122637338023 0 303.19122637338023 -145.27001317104805 0 0 0 0 43.990402762439771 109.26798692445527 0 109.26798692445527 -166.44518829226399 0 0 0 0 41.361149457734427 187.06873430097403 0 187.06873430097403 -505.96402902921545 0 0 0 0 -132.86882559877267 523.95220431242069 0 523.95220431242069 -285.51001312395601 0 0 0 0 120.07352244812319 25.22122402495097 0 25.22122402495097 -68.654937340150354 0 0 0 0 92.556838230440917 9.9776062179971632 0 9.9776062179971632 -57.627954427153099 0 0 0 0 75.51116212161287 103.04455481495825 0 103.04455481495825 -97.391404747100751 0 0 0 0 2.5045460140972864 149.40113661396208 0 149.40113661396208 -46.565590690020258 0 0 0 0 -0.013090786340759664 34.223182989190505 0 34.223182989190505 -4.6659381610801631 0 0 0 0 -17.72995154043565 32.836215429152617 0 32.836215429152617 41.065577511311858 0 0 0 0 -85.623808863820159 208.36292820101517 0 208.36292820101517 -16.410344230826013 0 0 0 0 -189.36305614864978 267.94435944308498 0 267.94435944308498 -19.533193652942373 0 0 0 0 -154.61601219774457 275.95941975860842 0 275.95941975860842 -87.390886573819444 0 0 0 0 -196.35046974504075 223.88147266037049 0 223.88147266037049 -104.73919994709649 0 0 0 0 -322.77028776835868 88.853235193333603 0 88.853235193333603 209.28076380061975 0 0 0 0 -382.99947312180302 71.09731277415267 0 71.09731277415267 -234.05006249861617 0 0 0 0 7.6880546869071793 16.312885289745651 0 16.312885289745651 -6.2588598311914403 0 0 0 0 91.501172116053567 36.038106216597953 0 36.038106216597953 -53.809452300799421 0 0 0 0 -46.610847562911658 366.82274521138743 0 366.82274521138743 324.53726181105958 0 0 0 0 55.049154239487237 0.49211117919509206 0 0.49211117919509206 -5.1731289589108496 0 0 0 0 363.32662833670111 180.42379225252444 0 180.42379225252444 -765.21289849899767 0 0 0 0 132.87009644336649 -85.666107768192887 0 -85.666107768192887 -17.913747897899157 0 0 0 0 456.95786547172611 -46.658117279119324 0 -46.658117279119324 -424.70023986537853 0 0 0 0 -55.740829268917878 238.47255554520189 0 238.47255554520189 -190.67816908373425 0 0 0 0 12.476024394844933 -1.358284393869674 0 -1.358284393869674 -6.3830180502688236 0 0 0 0 -988.96736266386142 510.95342626469028 0 510.95342626469028 -68.387006421871774 0 0 0 0 -106.88265730491548 287.97832466933323 0 287.97832466933323 -343.36227937971853 0 0 0 0 -525.61333024353371 305.30117421849354 0 305.30117421849354 -141.09444368778713 0 0 0 0 -341.81406211433932 327.79936361132422 0 327.79936361132422 -173.50438178439799 0 0 0 0 -558.61035441920103 92.963950691948412 0 92.963950691948412 -153.63387266991776 0 0 0 0 -320.94600007401277 1036.2758518698929 0 1036.2758518698929 -598.7417301487003 0 0 0 0 386.96827157038206 911.48199103433763 0 911.48199103433763 -1101.7162372047314 0 0 0 0 -172.83169060498585 287.53059515306632 0 287.53059515306632 -330.58455272043648 0 0 0 0 605.64266310741368 3.5696138795028673 0 3.5696138795028673 -540.21552401446752 0 0 0 0 -25.936186526378151 45.149788887007162 0 45.149788887007162 133.620219593824 0 0 0 0 -25.980653663717021 28.708346426514254 0 28.708346426514254 234.02375838430817 0 0 0 0 -20.153882376107504 111.83414989352241 0 111.83414989352241 197.62023848651006 0 0 0 0 -0.47713009041035548 76.703693180537812 0 76.703693180537812 251.66513001082626 0 0 0 0 -4.6276872431923124 10.5507526712572 0 10.5507526712572 -1.6129835273388395 0 0 0 0 18.708635181668797 66.373234180460713 0 66.373234180460713 265.75070555023376 0 0 0 0 -500.31421369337477 62.025599019601941 0 62.025599019601941 -765.90792367251561 0 0 0 0 155.07877028809889 39.769805399660981 0 39.769805399660981 248.51963835959032 0 0 0 0 220.86992772634585 191.55210054276722 0 191.55210054276722 12.088514660877991 0 0 0 0 69.647468310874672 78.187516766416124 0 78.187516766416124 2.731991990077562 0 0 0 0 70.448837019901475 122.19402143943171 0 122.19402143943171 -8.1647344349876221 0 0 0 0 53.683391346154167 131.03024661211748 0 131.03024661211748 26.350158651461243 0 0 0 0 86.883853765335516 132.5572725140255 0 132.5572725140255 -2.2656388852974487 0 0 0 0 70.664215391545895 67.802417057099774 0 67.802417057099774 -6.9876475090313761 0 0 0 0 -7.0741886436553614 89.402884246113899 0 89.402884246113899 136.51829057514988 0 0 0 0 87.791909342795407 76.37192901790695 0 76.37192901790695 -50.315958162217441 0 0 0 0 28.55926155414258 74.816333701198687 0 74.816333701198687 14.166748836361601 0 0 0 0 -0.79490359508500319 48.306455649188884 0 48.306455649188884 10.26086853117587 0 0 0 0 43.158058527283629 49.784013807207884 0 49.784013807207884 -29.813074556121137 0 0 0 0 -20.521924137188762 63.305275907936448 0 63.305275907936448 81.850307200948635 0 0 0 0 3.5138402111842879 72.713302976857449 0 72.713302976857449 -56.038280909702735 0 0 0 0 -13.283003373282554 107.01854494050713 0 107.01854494050713 -54.084216943958381 0 0 0 0 -20.852829488256248 94.072628731188161 0 94.072628731188161 -17.99676404256752 0 0 0 0 8.2513665047057003 25.199268386809052 0 25.199268386809052 6.8542251726616286 0 0 0 0 -195.55704530926596 214.30019940412785 0 214.30019940412785 -105.20493013002852 0 0 0 0 3.0402556930942808 6.8771153347893232 0 6.8771153347893232 9.2430762467675862 0 0 0 0 0.2078116396223777 119.19239669180024 0 119.19239669180024 -105.00071821389429 0 0 0 0 -70.237775606365176 80.814765016646561 0 80.814765016646561 -50.850806228540023 0 0 0 0 -24.151224410095892 31.248936152678652 0 31.248936152678652 18.51255571980073 0 0 0 0 74.902866062075191 -93.695761330254754 0 -93.695761330254754 -74.031482519250858 0 0 0 0 -674.87618422801825 214.07695914017859 0 214.07695914017859 246.61717268921711 0 0 0 0 60.272936582136026 65.852963500703481 0 65.852963500703481 -188.19258683343287 0 0 0 0 2.6164809587343001 5.4879895908060377 0 5.4879895908060377 1.8740718416957378 0 0 0 0 427.960375125469 18.886371645139661 0 18.886371645139661 64.194083138438145 0 0 0 0 1036.6441323439503 86.338680807954006 0 86.338680807954006 -260.64933400789596 0 0 0 0 -18.183912413754697 31.777476142853729 0 31.777476142853729 -50.650706690905395 0 0 0 0 -195.06564814234298 -13.356231635454606 0 -13.356231635454606 18.46683997154696 0 0 0 0 -160.34532235244842 337.6770481758449 0 337.6770481758449 133.10306815514923 0 0 0 0 12.497314081472723 139.70941752608542 0 139.70941752608542 47.32401131617371 0 0 0 0 94.744418329806649 110.11914906940001 0 110.11914906940001 18.57327046959108 0 0 0 0 290.27344363963493 81.538446597856819 0 81.538446597856819 -8.4063181093401909 0 0 0 0 111.37082716595614 150.37020086636949 0 150.37020086636949 60.4056595143702 0 0 0 0 1.6472813173240866 156.83082373136131 0 156.83082373136131 11.448417446442818 0 0 0 0 45.067346512172662 110.48898842848939 0 110.48898842848939 13.415636184258119 0 0 0 0 40.990374183809763 104.33050742966952 0 104.33050742966952 28.109126981136797 0 0 0 0 -23.289049831115776 37.135143509008039 0 37.135143509008039 -57.87111061024163 0 0 0 0 -196.98978830211126 -605.28211300102339 0 -605.28211300102339 242.31642521848698 0 0 0 0 567.96216759907111 481.69590702333517 0 481.69590702333517 -191.51156470225033 0 0 0 0 162.10708989778504 746.08693803485949 0 746.08693803485949 513.00448709617194 0 0 0 0 -261.89543646292486 107.02664272378763 0 107.02664272378763 503.77249791666691 0 0 0 0 5.0996650167271582 5.0055358491575248 0 5.0055358491575248 5.0992734241860092 0 0 0 0 -101.10041386936791 124.29323675724663 0 124.29323675724663 662.88846653209112 0 0 0 0 -39.006276222164161 0.70095453441535938 0 0.70095453441535938 577.98983439629956 0 0 0 0 -39.087989425268461 11.013740842565312 0 11.013740842565312 134.31369699857169 0 0 0 0 20.676490577626851 403.62499835170672 0 403.62499835170672 -514.96792299618392 0 0 0 0 262.81843433163158 203.88025509012914 0 203.88025509012914 -493.65555391810994 0 0 0 0 36.857410751021234 -48.339364248091442 0 -48.339364248091442 -452.23215859945685 0 0 0 0 490.91210396550741 102.81802940176749 0 102.81802940176749 -456.02406115976191 0 0 0 0 249.42264340025577 455.67250818667526 0 455.67250818667526 170.17603768112167 0 0 0 0 -8.1760952037998322 64.267341604417723 0 64.267341604417723 -62.519982132960138 0 0 0 0 26.368222969580529 157.21292182319303 0 157.21292182319303 -72.349435640389856 0 0 0 0 66.714606288404241 60.516497158090118 0 60.516497158090118 5.0836279161977984 0 0 0 0 -46.832870498546981 70.785006397927646 0 70.785006397927646 -122.51192939485918 0 0 0 0 -266.13355464382039 92.498479132969806 0 92.498479132969806 -109.96906227792351 0 0 0 0 9.2849463335325311 62.919481111834294 0 62.919481111834294 -82.141943176675028 0 0 0 0 42.432598676823545 575.37693870888688 0 575.37693870888688 -511.68759763361595 0 0 0 0 -7.6716921170154819 223.01340095123714 0 223.01340095123714 -154.24224989207869 0 0 0 0 96.192411768740754 83.94020108798091 0 83.94020108798091 23.669824510200385 0 0 0 0 5.1652217776791076 318.31006717980563 0 318.31006717980563 -274.234287393454 0 0 0 0 11.309878464320718 166.20663300033266 0 166.20663300033266 -71.522236729826545 0 0 0 0 -31.125102651669295 227.50681274454837 0 227.50681274454837 -79.959949912321463 0 0 0 0 33.577411191563442 141.90124188233676 0 141.90124188233676 -2.5827515424971352 0 0 0 0 33.266157788209966 201.42686244696961 0 201.42686244696961 -16.398639106573683 0 0 0 0 -110.66082247566737 259.57213591608524 0 259.57213591608524 -22.865337986921077 0 0 0 0 50.172300721736974 183.78175665553135 0 183.78175665553135 -5.3268628940422786 0 0 0 0 336.61941157644105 538.20877895116428 0 538.20877895116428 -31.060519018152263 0 0 0 0 285.90550747643647 186.57470950473362 0 186.57470950473362 -131.44637480038 0 0 0 0 -1873.1965627610261 1861.5777206337516 0 1861.5777206337516 2052.8756975055439 0 0 0 0 93.616832465989049 63.480600826122895 0 63.480600826122895 39.011617611923498 0 0 0 0 -109.00632984337153 455.35875884646521 0 455.35875884646521 -262.09947060170816 0 0 0 0 -74.166550929447112 381.45051802871603 0 381.45051802871603 -18.672578080746462 0 0 0 0 -22.444835015827266 265.7554672007318 0 265.7554672007318 -69.27974960579013 0 0 0 0 -113.31471065430378 314.16163732070709 0 314.16163732070709 -125.8061352831719 0 0 0 0 -1576.6240892642818 -1145.2485676725337 0 -1145.2485676725337 -674.95120508759283 0 0 0 0 -177.16820464917691 214.71767896488018 0 214.71767896488018 -194.65567822544836 0 0 0 0 -283.47534623509273 255.62319544738421 0 255.62319544738421 -19.972952326934319 0 0 0 0 -255.82519715573289 262.34814056121104 0 262.34814056121104 1.5651545141008683 0 0 0 0 -249.42344415059779 305.59347846038872 0 305.59347846038872 25.802054010913707 0 0 0 0 -272.68670175458101 289.10601385393966 0 289.10601385393966 21.380565256869886 0 0 0 0 -250.54717991341022 305.12687028216897 0 305.12687028216897 -10.326799293514341 0 0 0 0 -269.21072157290473 280.04508834141598 0 280.04508834141598 104.72386013306095 0 0 0 0 -252.93138405529317 272.30804910736333 0 272.30804910736333 65.281645873154048 0 0 0 0 -262.36280733055901 304.38336086993513 0 304.38336086993513 39.752490049111657 0 0 0 0 -262.58825996099063 284.50909243107094 0 284.50909243107094 60.432811456848867 0 0 0 0 -293.30482230600319 242.37411782809068 0 242.37411782809068 96.816943774807442 0 0 0 0 -259.89348757786502 302.80445108682034 0 302.80445108682034 193.85606811865 0 0 0 0 -258.2460076374191 283.54226495170587 0 283.54226495170587 126.7324840084184 0 0 0 0 -255.99601208078093 291.55967978091212 0 291.55967978091212 65.664703516376903 0 0 0 0 -197.30160227182205 321.42437777626037 0 321.42437777626037 50.954915363632608 0 0 0 0 -199.75928332059266 327.35159161356205 0 327.35159161356205 148.62376015362679 0 0 0 0 -199.40133201764547 263.8774506959453 0 263.8774506959453 150.40362146249595 0 0 0 0 -197.9932410880574 284.21808171818702 0 284.21808171818702 117.41250047009817 0 0 0 0 -78.815394392280723 403.1644792693296 0 403.1644792693296 305.77651357147261 0 0 0 0 -77.20556011905137 49.025189529158524 0 49.025189529158524 359.98901663047582 0 0 0 0 -338.45212028981769 252.28743030207988 0 252.28743030207988 236.14615656173555 0 0 0 0 -315.77198579916148 99.607810415822314 0 99.607810415822314 134.90334574798908 0 0 0 0 -367.64834089151918 216.49549209459474 0 216.49549209459474 194.38889429863775 0 0 0 0 107.06557726995379 485.19534771185135 0 485.19534771185135 905.07282556332939 0 0 0 0 723.18980453292897 613.40253716064035 0 613.40253716064035 434.31855093179911 0 0 0 0 518.47768719220767 -99.638423137475911 0 -99.638423137475911 593.1958418119284 0 0 0 0 95.293218685219472 242.73437071476656 0 242.73437071476656 328.16952657329966 0 0 0 0 255.62869382961071 578.93738950650004 0 578.93738950650004 670.66139572003976 0 0 0 0 104.78655662428355 288.14613407698926 0 288.14613407698926 112.15280405755038 0 0 0 0 139.59966757440998 432.26237574736297 0 432.26237574736297 101.7011452966899 0 0 0 0 287.95364011632046 225.03750240999216 0 225.03750240999216 -90.612448335530644 0 0 0 0 790.47533008032769 391.25996145517274 0 391.25996145517274 -79.417075931327417 0 0 0 0 609.11445878912855 34.378929472150048 0 34.378929472150048 -152.48438871378312 0 0 0 0 194.88243645586772 -15.894185231620213 0 -15.894185231620213 -103.60378159739776 0 0 0 0 366.70833935452902 3.7303091946923814 0 3.7303091946923814 -161.49577412792132 0 0 0 0 221.0544789659034 46.627425175989629 0 46.627425175989629 -141.9632849145828 0 0 0 0 195.05648253685649 125.38153131599393 0 125.38153131599393 -194.17101806867868 0 0 0 0 57.244987307109113 56.139945338458347 0 56.139945338458347 -142.28337846806971 0 0 0 0 64.912259587974404 219.37809830838523 0 219.37809830838523 -141.3102568238013 0 0 0 0 142.16490903852537 347.2251129872966 0 347.2251129872966 -161.60606000792177 0 0 0 0 340.32767788873753 233.37005725054041 0 233.37005725054041 -141.06135399952473 0 0 0 0 -151.64844149809505 262.11700599592859 0 262.11700599592859 -160.17864363848639 0 0 0 0 49.958086144994013 175.99070021054649 0 175.99070021054649 -211.79224659468673 0 0 0 0 20.125778239846113 59.75669738745637 0 59.75669738745637 -124.73466655374978 0 0 0 0 73.00713871998596 260.05901978407201 0 260.05901978407201 33.401355556954513 0 0 0 0 -4.9959673187581473 38.797245246102548 0 38.797245246102548 -90.355895262618418 0 0 0 0 65.310559462785022 152.61100015971897 0 152.61100015971897 100.85981684212311 0 0 0 0 24.803223855051328 78.378772404321353 0 78.378772404321353 121.05545550783791 0 0 0 0 -3.4588205046811993 -2.9525156140009194 0 -2.9525156140009194 4.3728073033592949 0 0 0 0 -10.015792717360895 22.998680778740422 0 22.998680778740422 6.2508761287062384 0 0 0 0 76.800923882190546 73.154116275996785 0 73.154116275996785 -45.08045379196119 0 0 0 0 4.863707362991093 35.276661735056599 0 35.276661735056599 -58.70608610417699 0 0 0 0 34.849098940409021 38.684287054224114 0 38.684287054224114 -16.414600473886821 0 0 0 0 -22.014719756738486 35.926856439295079 0 35.926856439295079 -127.98465321630647 0 0 0 0 53.805882350818138 46.453122778846591 0 46.453122778846591 -39.420104011835065 0 0 0 0 12.160004908757827 19.926634699259566 0 19.926634699259566 -47.163262180561219 0 0 0 0 70.716405537474202 37.842335966735845 0 37.842335966735845 -119.42717495036413 0 0 0 0 20.357993304845877 22.76632230944233 0 22.76632230944233 -100.0992763046379 0 0 0 0 -33.372026597120566 28.585984281577112 0 28.585984281577112 -95.346194548998028 0 0 0 0 42.688031942583621 -23.53218217594258 0 -23.53218217594258 -86.043879414908588 0 0 0 0 191.7804312583321 -10.537428102456033 0 -10.537428102456033 -96.095889434131095 0 0 0 0 321.96210246029659 -77.494207382856985 0 -77.494207382856985 -91.309634834702592 0 0 0 0 -14.442110630363459 -69.654890505131334 0 -69.654890505131334 -44.967023430755944 0 0 0 0 -107.40101464639883 -38.430719342606608 0 -38.430719342606608 -31.083544072927907 0 0 0 0 -77.975364708690904 -216.42005201264874 0 -216.42005201264874 133.32501422869973 0 0 0 0 -158.47457012641826 69.735643087595236 0 69.735643087595236 -41.768319401599001 0 0 0 0 -49.76048884759075 55.669397184596164 0 55.669397184596164 -76.248719414346851 0 0 0 0 -61.073861578537617 34.104404878278729 0 34.104404878278729 -62.642187639139593 0 0 0 0 18.71940776467315 -5.76189467596231 0 -5.76189467596231 -33.601806765689901 0 0 0 0 9.3245691969641484 16.377362251951126 0 16.377362251951126 -73.554825323590194 0 0 0 0 0.34421274812794422 25.611257247523383 0 25.611257247523383 -19.297508800739379 0 0 0 0 186.48398336966056 -6.2783548118313774 0 -6.2783548118313774 -143.4854041281651 0 0 0 0 -39.541592451712859 75.267604116083021 0 75.267604116083021 -148.50426493280975 0 0 0 0 8.7973364628269337 18.800499024800956 0 18.800499024800956 -72.658690168784233 0 0 0 0 -75.475597044322058 117.09817456845485 0 117.09817456845485 -136.28066986506747 0 0 0 0 8.8221698988490971 23.271890602896747 0 23.271890602896747 -63.007501984277042 0 0 0 0 -172.81839148234576 70.821879489580169 0 70.821879489580169 -126.6960473912186 0 0 0 0 63.786401317367563 101.7946140524582 0 101.7946140524582 -125.1779873012274 0 0 0 0 9.4676681593118701 5.477050873596454 0 5.477050873596454 -62.944243042409653 0 0 0 0 85.231695660331752 -117.25723148672841 0 -117.25723148672841 -93.160473803960485 0 0 0 0 93.833690173603827 33.980799897166435 0 33.980799897166435 -22.779079250060022 0 0 0 0 25.412723415749497 204.28464611339587 0 204.28464611339587 291.30682030192111 0 0 0 0 -9.9868699459475465 -26.456496864848305 0 -26.456496864848305 52.222520862473175 0 0 0 0 64.828692333074287 92.512555260385852 0 92.512555260385852 142.36608305876143 0 0 0 0 74.432557803702366 37.470516882814991 0 37.470516882814991 6.5957782166078687 0 0 0 0 73.931672036007512 39.122533084708266 0 39.122533084708266 15.2554224942578 0 0 0 0 80.241666497080587 45.148762806435116 0 45.148762806435116 0.080946976377163082 0 0 0 0 85.617457801650744 53.827129281358793 0 53.827129281358793 11.768480802842532 0 0 0 0 71.873398263182025 163.99531993587152 0 163.99531993587152 50.534412238310324 0 0 0 0 -13.534496548993047 48.733927407854935 0 48.733927407854935 185.78882976964815 0 0 0 0 23.420080522308126 101.59959037334193 0 101.59959037334193 -32.102227588999085 0 0 0 0 103.14577230595751 60.931435731530655 0 60.931435731530655 -99.872650442383019 0 0 0 0 61.539140354667325 162.08542364442837 0 162.08542364442837 80.424427674093749 0 0 0 0 87.666632289096015 148.98095056167222 0 148.98095056167222 -68.864886654788279 0 0 0 0 196.80793521396117 281.17606924273423 0 281.17606924273423 83.276087626286881 0 0 0 0 161.94341349588649 154.48083646433952 0 154.48083646433952 37.586537641996983 0 0 0 0 16.894211028731661 150.80663751666725 0 150.80663751666725 74.410318880982231 0 0 0 0 89.495733855830622 328.61371671969391 0 328.61371671969391 253.12410759789054 0 0 0 0 59.643142968023312 291.05029054016632 0 291.05029054016632 206.16588538250653 0 0 0 0 42.182020401480258 366.87078788496729 0 366.87078788496729 486.95538614627731 0 0 0 0 -23.136874873220222 112.59823948345729 0 112.59823948345729 880.63738990364072 0 0 0 0 8.0479934999073635 4.2650544482917212 0 4.2650544482917212 -5.4993873309518051 0 0 0 0 65.556559848344477 343.20740842350278 0 343.20740842350278 440.2007033181726 0 0 0 0 -91.422381037235027 -98.613951626000926 0 -98.613951626000926 391.27047977590701 0 0 0 0 -115.35580522575765 81.940128411108162 0 81.940128411108162 594.00359873377602 0 0 0 0 -1.4455099444021471 64.892020826198859 0 64.892020826198859 207.35237059392966 0 0 0 0 -22.212512762343977 1.1645543394843116 0 1.1645543394843116 246.06422598430072 0 0 0 0 4.1573203504958656 321.99487311394114 0 321.99487311394114 -327.85449133023212 0 0 0 0 -10.555176538655815 53.718859842482075 0 53.718859842482075 -81.003631498619455 0 0 0 0 -9.2324510071775876 269.16837068401219 0 269.16837068401219 -193.76297604423598 0 0 0 0 -52.377780298498692 121.99464137027098 0 121.99464137027098 -142.66161671794544 0 0 0 0 -5.4866579547785932 7.000492390401746 0 7.000492390401746 -4.0796711869995193 0 0 0 0 53.685565120104002 87.941485545481555 0 87.941485545481555 55.026052213463117 0 0 0 0 18.466783232215676 147.66004860592511 0 147.66004860592511 52.58242416207213 0 0 0 0 -56.750250774050073 140.84813694952027 0 140.84813694952027 -168.51486017582283 0 0 0 0 -11.742464361683517 17.26354038660088 0 17.26354038660088 -11.979095934670397 0 0 0 0 -211.95489693147829 -6.6571791593742091 0 -6.6571791593742091 -88.667409649937326 0 0 0 0 37.192986897662195 108.13736447987321 0 108.13736447987321 -69.48228621907765 0 0 0 0 -6.6386566494276025 47.750578018373432 0 47.750578018373432 -40.689265740426947 0 0 0 0 12.719854042792576 51.579524598677381 0 51.579524598677381 -11.146336518751923 0 0 0 0 0.16101178881945089 137.51100058657175 0 137.51100058657175 -87.236255437717773 0 0 0 0 -7.81982120612156 146.82935571791495 0 146.82935571791495 -174.24802730508964 0 0 0 0 -23.504147805680915 60.01072524172659 0 60.01072524172659 -14.585369248734253 0 0 0 0 19.078674482323379 50.6879195561567 0 50.6879195561567 -70.960522258117322 0 0 0 0 -0.38844890952330502 55.282435935494675 0 55.282435935494675 -68.411818229611271 0 0 0 0 25.163620556872047 56.738231712954075 0 56.738231712954075 -40.33359061848023 0 0 0 0 -3.5991736777941696 64.469234179938212 0 64.469234179938212 -121.79534053623502 0 0 0 0 -2.5250588555349864 51.100588067759475 0 51.100588067759475 -38.02249708349791 0 0 0 0 19.661922897925251 54.916974472565926 0 54.916974472565926 -57.796631068573333 0 0 0 0 -12.509465134294288 37.319129257668266 0 37.319129257668266 -26.4996999788187 0 0 0 0 -4.4283986894734539 31.532522551036124 0 31.532522551036124 -20.779446277419396 0 0 0 0 2.4319147983333096 19.813596391089959 0 19.813596391089959 -16.95757595869145 0 0 0 0 9.9460125794284977 59.474398371035932 0 59.474398371035932 -31.803829505886824 0 0 0 0 7.9280899297731935 36.456244734331761 0 36.456244734331761 -60.138776519654911 0 0 0 0 0.97975728195160627 43.637137205398176 0 43.637137205398176 -58.452578830881976 0 0 0 0 14.79094020233606 52.62426430429332 0 52.62426430429332 -58.246327574201587 0 0 0 0 -0.93532253191858672 23.708101755378266 0 23.708101755378266 -39.630205969340921 0 0 0 0 27.565788361942396 22.689677833150199 0 22.689677833150199 -66.191131559578935 0 0 0 0 27.681557139265351 23.132449949887814 0 23.132449949887814 -69.15971000972786 0 0 0 0 15.814476977974351 15.155202617805621 0 15.155202617805621 -47.212261054624889 0 0 0 0 13.461524099766393 47.906798865224118 0 47.906798865224118 -65.635781117307488 0 0 0 0 4.8351167372004511 36.637215448304119 0 36.637215448304119 -59.216578113665548 0 0 0 0 21.617955684574554 24.475896925287088 0 24.475896925287088 -54.641066111566033 0 0 0 0 25.604823686230304 32.195408218426614 0 32.195408218426614 -45.325856893840694 0 0 0 0 17.837333379999535 33.291091936582347 0 33.291091936582347 -91.505782010369131 0 0 0 0 -21.503130418481305 72.115964386233827 0 72.115964386233827 -114.04175211938127 0 0 0 0 42.461348092969274 14.564546542300377 0 14.564546542300377 -36.439819954364793 0 0 0 0 32.595502292634819 16.986592664702876 0 16.986592664702876 -60.949361398693469 0 0 0 0 25.530028676145086 25.439259245728607 0 25.439259245728607 -71.854888683648682 0 0 0 0 -0.037217909936316573 40.493328363179302 0 40.493328363179302 -51.532930067270627 0 0 0 0 -5.3001402137451805 61.245519824748044 0 61.245519824748044 -109.52002250605437 0 0 0 0 8.9272648321930319 71.645054664870258 0 71.645054664870258 -120.3679054400709 0 0 0 0 9.5723347668244969 70.394688543477969 0 70.394688543477969 -119.69452642649412 0 0 0 0 21.300506830084487 77.079233627271606 0 77.079233627271606 -120.5699354877579 0 0 0 0 13.341403510828968 86.327822853036196 0 86.327822853036196 -119.89972584282805 0 0 0 0 -4.4232203057908919 64.908133293229184 0 64.908133293229184 -118.13298885190306 0 0 0 0 -2.9780313718656544 75.399574967985245 0 75.399574967985245 -115.86406227483167 0 0 0 0 56.177178097655997 120.79239313792641 0 120.79239313792641 -96.007238877637974 0 0 0 0 101.73519486220903 80.957275368826231 0 80.957275368826231 -163.91914460468979 0 0 0 0 4.6821248840865337 38.191343889148612 0 38.191343889148612 -40.484233113487846 0 0 0 0 71.850149647158105 51.86766826234998 0 51.86766826234998 -187.19090745678113 0 0 0 0 25.024329519932508 71.571490391670523 0 71.571490391670523 -132.86203029248281 0 0 0 0 52.006382914551068 87.82563439905789 0 87.82563439905789 -129.82953998322773 0 0 0 0 14.87376081047114 57.318855958932545 0 57.318855958932545 -129.80871635721269 0 0 0 0 28.152674963319441 36.545022568330751 0 36.545022568330751 -146.83695070037356 0 0 0 0 28.198957515298389 45.21758651847631 0 45.21758651847631 -135.80968864542956 0 0 0 0 -12.000568836956518 20.928635249678337 0 20.928635249678337 -111.13938136199431 0 0 0 0 14.647186711983522 60.09661870860873 0 60.09661870860873 -110.46272473475256 0 0 0 0 -6.4922496601648163 36.503531855189067 0 36.503531855189067 -67.757880594152084 0 0 0 0 8.5579275155323558 71.193276833590062 0 71.193276833590062 -97.205505691817962 0 0 0 0 13.875780576418038 55.916164185677189 0 55.916164185677189 -34.738887901243288 0 0 0 0 -15.522062479314627 53.843898651779455 0 53.843898651779455 -52.657533940277062 0 0 0 0 13.395769566590104 45.006548602584225 0 45.006548602584225 -34.449734724964522 0 0 0 0 -5.7135379122204313 34.315555246276091 0 34.315555246276091 -16.072438782601857 0 0 0 0 9.6165386214286173 27.055930668036268 0 27.055930668036268 -22.501058335640408 0 0 0 0 14.466551977151539 62.74910393232858 0 62.74910393232858 -115.82710500679241 0 0 0 0 -2.3409659327583654 60.468101678949424 0 60.468101678949424 -21.052302319554414 0 0 0 0 53.155038609911571 57.494523042587389 0 57.494523042587389 -45.891346865289961 0 0 0 0 30.413513863773687 39.598908563156058 0 39.598908563156058 -47.14839032471258 0 0 0 0 34.887714252584438 15.769065263206897 0 15.769065263206897 -33.94403532581569 0 0 0 0 10.862453000387177 34.102180383662926 0 34.102180383662926 -56.583225039594254 0 0 0 0 9.6690987656475045 61.905728854260815 0 61.905728854260815 -109.54207318033878 0 0 0 0 -31.751398586959112 51.301588622925919 0 51.301588622925919 -39.892387002881151 0 0 0 0 10.029669707589164 25.672275081014874 0 25.672275081014874 -37.814567423023846 0 0 0 0 -18.280049720457953 40.518541503881352 0 40.518541503881352 -21.725911983524412 0 0 0 0 19.581511974383012 33.26900742372797 0 33.26900742372797 -25.787866394319053 0 0 0 0 24.970996358126285 37.65321391573525 0 37.65321391573525 -37.883356643687875 0 0 0 0 32.349373400393233 56.599186565461423 0 56.599186565461423 -18.929965287563391 0 0 0 0 92.742631439970864 -12.612690857560665 0 -12.612690857560665 -68.086421489537315 0 0 0 0 54.247140107287123 91.615197324323162 0 91.615197324323162 12.988536144373938 0 0 0 0 12.271531305351715 5.2103382234865485 0 5.2103382234865485 -8.1764597142175575 0 0 0 0 9.2341475772573034 43.349512850301153 0 43.349512850301153 -38.984125623379299 0 0 0 0 33.411136640917732 27.705433499450862 0 27.705433499450862 -10.534453794202491 0 0 0 0 -89.306864345038775 121.44638962313184 0 121.44638962313184 -35.468414758710423 0 0 0 0 2.2202871281365333 76.707400176661963 0 76.707400176661963 -54.319829887674132 0 0 0 0 1.5404004377487581 60.710706238056446 0 60.710706238056446 -50.800802051460778 0 0 0 0 14.245878997739055 65.9972997941004 0 65.9972997941004 -50.525274643398006 0 0 0 0 8.9303917735087452 56.047030642443133 0 56.047030642443133 -56.932146642815496 0 0 0 0 1.1544093866104959 60.880003791644413 0 60.880003791644413 -10.301321447077498 0 0 0 0 4.013963473655167 57.103004354070436 0 57.103004354070436 -22.4428499184869 0 0 0 0 10.551446541805802 46.700360803708691 0 46.700360803708691 -14.520955587966995 0 0 0 0 46.243460284735193 50.959766058025707 0 50.959766058025707 -34.134986902434321 0 0 0 0 17.805170330639555 39.373504588270336 0 39.373504588270336 -13.863865521295546 0 0 0 0 12.635212085460807 49.677335731037147 0 49.677335731037147 -16.597900776614551 0 0 0 0 70.618726084030641 80.713129589470554 0 80.713129589470554 -24.541151283570798 0 0 0 0 5.0647285667508619 44.317152302403883 0 44.317152302403883 -23.94970560365141 0 0 0 0 63.175145385859651 34.337996660198769 0 34.337996660198769 -45.203277692576194 0 0 0 0 15.622915799261108 35.766883325492984 0 35.766883325492984 -31.441683171377981 0 0 0 0 39.664517427765531 113.48993317066925 0 113.48993317066925 0.65950573986629024 0 0 0 0 59.605887242199969 158.87246015902929 0 158.87246015902929 -72.168376616784371 0 0 0 0 82.246508090844145 127.42197106512322 0 127.42197106512322 -29.530253827342676 0 0 0 0 61.807571834913688 163.1877204158518 0 163.1877204158518 -34.537918220225038 0 0 0 0 98.18829910364002 106.0071607692953 0 106.0071607692953 -6.9354356598923914 0 0 0 0 69.256461948039941 137.69823978763452 0 137.69823978763452 17.2566145061719 0 0 0 0 86.363699033128796 132.0893070503007 0 132.0893070503007 -50.600622021360323 0 0 0 0 167.82424328158959 135.44003441247332 0 135.44003441247332 -52.96789346272999 0 0 0 0 174.6589405235427 28.631113450872363 0 28.631113450872363 -83.151562055776594 0 0 0 0 -5.9587253356042993 26.204537569961531 0 26.204537569961531 1.5715126017147263 0 0 0 0 88.085819295083638 133.58407343925501 0 133.58407343925501 -1.2128644587355666 0 0 0 0 41.750634821044514 110.93298335756845 0 110.93298335756845 -58.575785607492435 0 0 0 0 88.377599513481073 129.87580688264597 0 129.87580688264597 -67.612155840033665 0 0 0 0 51.08034449290426 39.262359486230707 0 39.262359486230707 -100.18742978628143 0 0 0 0 52.223094779110397 98.016431494143035 0 98.016431494143035 -92.605291139625479 0 0 0 0 25.367428254103288 12.758118458274112 0 12.758118458274112 -39.05942331127153 0 0 0 0 83.342451430653455 68.054557499111979 0 68.054557499111979 -65.923191253969435 0 0 0 0 134.65609342342941 87.085981714866648 0 87.085981714866648 -11.402091820637906 0 0 0 0 140.88714116463962 57.779554829692643 0 57.779554829692643 -84.806954570092785 0 0 0 0 84.371844754001359 75.912187283465755 0 75.912187283465755 -7.6605792475329508 0 0 0 0 106.14905104729405 78.533127791786683 0 78.533127791786683 -83.378923096475773 0 0 0 0 -0.86015905714884866 -57.227385627784315 0 -57.227385627784315 -190.3689915939467 0 0 0 0 -6.362091251052334 -40.893203482992249 0 -40.893203482992249 -125.83420664974255 0 0 0 0 37.161279498919612 56.890318628473324 0 56.890318628473324 -119.81423888472909 0 0 0 0 17.664611929125385 28.870730101218214 0 28.870730101218214 -184.88056072781455 0 0 0 0 14.683898543880787 -47.727548998151178 0 -47.727548998151178 -249.78293617538293 0 0 0 0 34.302319559690659 -10.819377260952024 0 -10.819377260952024 -238.93759887068882 0 0 0 0 16.984980898021604 13.897862542999064 0 13.897862542999064 -271.4645645791752 0 0 0 0 41.390236978666508 164.53949674746764 0 164.53949674746764 -235.44335622384096 0 0 0 0 13.86351318663219 125.22868790742359 0 125.22868790742359 -287.68654768831948 0 0 0 0 19.753059868933633 105.72418993600877 0 105.72418993600877 -157.96964032619053 0 0 0 0 14.917693726558355 95.331981758776237 0 95.331981758776237 -179.62545832668548 0 0 0 0 31.887343289257842 78.543187228147872 0 78.543187228147872 -103.85309015771782 0 0 0 0 14.278904551712913 23.980738878701231 0 23.980738878701231 -166.191483982926 0 0 0 0 -352.79231688698928 -196.26124318868824 0 -196.26124318868824 431.57685841920465 0 0 0 0 53.418882780517379 -73.556633811647316 0 -73.556633811647316 -197.42178715964837 0 0 0 0 -2.1280955508973989 2.7296918757739732 0 2.7296918757739732 -3.1552975263216467 0 0 0 0 -7.0230182991654146 299.7889259606236 0 299.7889259606236 -561.04467888801628 0 0 0 0 123.2515872485601 43.787019694651462 0 43.787019694651462 -506.98472789801599 0 0 0 0 -348.16316511917648 418.25350161017741 0 418.25350161017741 -228.36589312265278 0 0 0 0 -143.19684835552471 255.33434177017625 0 255.33434177017625 -125.69497163430788 0 0 0 0 -158.36167456592375 316.45691816741601 0 316.45691816741601 -61.186041938835842 0 0 0 0 -4.342480797378812 142.51501159089094 0 142.51501159089094 -88.717512471965165 0 0 0 0 11.178942598431604 149.70199129330285 0 149.70199129330285 -101.13493122218642 0 0 0 0 -25.330621310713468 182.51932889013551 0 182.51932889013551 -157.97590938699614 0 0 0 0 -7.9081836513360031 196.61942671014549 0 196.61942671014549 -254.0892856046994 0 0 0 0 -142.41028315149833 308.4707815523775 0 308.4707815523775 -134.818642773389 0 0 0 0 -92.811323199857725 227.70409020059378 0 227.70409020059378 -41.863184805239143 0 0 0 0 -34.55628662838717 134.48169387002054 0 134.48169387002054 -3.3199493060092209 0 0 0 0 -89.930209778307471 218.98237834679458 0 218.98237834679458 -81.795340409901655 0 0 0 0 -223.50324197091686 107.16586014700624 0 107.16586014700624 6.7291896102397004 0 0 0 0 -181.64025014178696 242.34404505436123 0 242.34404505436123 141.20624081302958 0 0 0 0 -126.39880655126763 318.06022609808133 0 318.06022609808133 -5.8210511388533632 0 0 0 0 -106.24044191177381 696.61264919134192 0 696.61264919134192 213.99778702070762 0 0 0 0 -1167.6638627674547 -122.40092026545244 0 -122.40092026545244 91.773001111039775 0 0 0 0 -776.1055779811868 289.28896217262081 0 289.28896217262081 143.45588399831968 0 0 0 0 -231.58747280544776 -36.026006235708337 0 -36.026006235708337 58.129171723019681 0 0 0 0 1050.1231173464039 180.65217158263113 0 180.65217158263113 -370.88414311128145 0 0 0 0 53.59761472030236 35.460926978152855 0 35.460926978152855 20.690300365609119 0 0 0 0 26.634302235141149 294.58768607100319 0 294.58768607100319 -16.41436081584834 0 0 0 0 -165.75574072948075 281.71950645301149 0 281.71950645301149 -17.077906514750794 0 0 0 0 -107.37339528217854 -420.48098655868671 0 -420.48098655868671 435.65519555150604 0 0 0 0 -192.2927722868717 622.67226382947661 0 622.67226382947661 -103.07106041346924 0 0 0 0 109.94517010072013 343.22083024467793 0 343.22083024467793 -514.01146560923371 0 0 0 0 -2487.0709939123772 -908.24002379032027 0 -908.24002379032027 479.62754522703472 0 0 0 0 44.822258127173711 33.707623104828258 0 33.707623104828258 22.229847864612722 0 0 0 0 260.88707587454701 -202.65363633712332 0 -202.65363633712332 -686.27147271825015 0 0 0 0 345.68474466225598 44.274876332441636 0 44.274876332441636 -759.41376891985055 0 0 0 0 -15.569867671259857 12.025444175619377 0 12.025444175619377 -10.303617783066485 0 0 0 0 -1950.2525116673642 832.53124447392474 0 832.53124447392474 349.43107054757274 0 0 0 0 199.45494598249206 4011.6276817749094 0 4011.6276817749094 -544.78762165771332 0 0 0 0 -3.0320769563147749 -6.1676698449334424 0 -6.1676698449334424 -3.7632074740604935 0 0 0 0 754.27673815235903 -86.397720086577465 0 -86.397720086577465 -449.65249916577159 0 0 0 0 424.13577948743477 100.44747259842552 0 100.44747259842552 -468.88409614701231 0 0 0 0 354.35915259150715 -15.635406504070488 0 -15.635406504070488 -407.59742397627269 0 0 0 0 627.82518312544562 99.639202653659595 0 99.639202653659595 -539.15729585874942 0 0 0 0 478.27998597486294 -104.59334370684519 0 -104.59334370684519 -35.01576369900431 0 0 0 0 -1092.8512681468928 609.61321003697412 0 609.61321003697412 -382.37996527117866 0 0 0 0 -2.3678692219283093 -6.0603940334626714 0 -6.0603940334626714 -0.76736410323299253 0 0 0 0 -840.47742934621419 840.8015757537305 0 840.8015757537305 -268.36939985606296 0 0 0 0 447.10799606604269 -0.31056593274479383 0 -0.31056593274479383 -233.95002936059609 0 0 0 0 324.57898225070676 167.88938953192701 0 167.88938953192701 -421.721081985208 0 0 0 0 169.23555253444647 56.538601144668064 0 56.538601144668064 -118.58527274202788 0 0 0 0 201.25241713455762 -7.1709741405647947 0 -7.1709741405647947 51.517336681630695 0 0 0 0 148.39365583308972 100.13826695090756 0 100.13826695090756 -118.63860337376536 0 0 0 0 174.61927123606438 -252.53075547205481 0 -252.53075547205481 -394.21417023825052 0 0 0 0 105.55584008678125 96.168733936551689 0 96.168733936551689 -6.5398279282380827 0 0 0 0 -11.445797495924282 5.7684159502813372 0 5.7684159502813372 -5.1373741183824535 0 0 0 0 94.708622495905729 88.016230511202593 0 88.016230511202593 44.457744037793873 0 0 0 0 117.13902808364946 94.93990101394229 0 94.93990101394229 -2.4259999178175349 0 0 0 0 104.80155249519157 82.90332449759444 0 82.90332449759444 -35.02896238406538 0 0 0 0 76.533678888532449 102.07171719372855 0 102.07171719372855 -1.518907696561655 0 0 0 0 -35.761551668606245 40.405487896435289 0 40.405487896435289 -29.121329647933152 0 0 0 0 128.68831249454524 200.44621819585154 0 200.44621819585154 -3.6681396869171294 0 0 0 0 163.48615931451786 13.201686447318934 0 13.201686447318934 -26.78754597169609 0 0 0 0 263.37244575260058 24.49628249050167 0 24.49628249050167 -330.83455880555266 0 0 0 0 -389.17561209374981 366.16687222073961 0 366.16687222073961 86.04967896224116 0 0 0 0 145.24966862180736 189.13036817769535 0 189.13036817769535 -22.620416336163544 0 0 0 0 147.05222899728687 176.39772261997496 0 176.39772261997496 -59.28041224025219 0 0 0 0 197.07689147189376 254.10438348544994 0 254.10438348544994 11.098044017940992 0 0 0 0 126.18690691181109 197.89466760569485 0 197.89466760569485 53.759359898605908 0 0 0 0 169.84521041801781 325.9943188722973 0 325.9943188722973 268.62343949589558 0 0 0 0 111.86611500683648 200.66068603315944 0 200.66068603315944 112.77040731244779 0 0 0 0 85.246991251769941 143.88699767434628 0 143.88699767434628 2.8352091605847818 0 0 0 0 78.541722050344106 142.66469742422487 0 142.66469742422487 43.60886838179772 0 0 0 0 72.105339071174967 125.88380705464442 0 125.88380705464442 1.1047085047248402 0 0 0 0 83.729269999690587 113.38819366123062 0 113.38819366123062 9.0235037222200845 0 0 0 0 100.82430430340173 122.73281551776745 0 122.73281551776745 -11.347513965672988 0 0 0 0 128.67242212889687 123.85142447290491 0 123.85142447290491 -100.263359092256 0 0 0 0 129.99386275962752 124.8087817148953 0 124.8087817148953 -123.19244710014027 0 0 0 0 112.81098073621979 101.22250784563221 0 101.22250784563221 -2.1280806225222477 0 0 0 0 165.15447048688657 120.86465769837014 0 120.86465769837014 -300.495650178098 0 0 0 0 135.55737649034563 98.389921150934242 0 98.389921150934242 -135.80108932574512 0 0 0 0 166.24865177183528 126.22149854694726 0 126.22149854694726 -225.35149235171593 0 0 0 0 167.10982951331243 153.61891980536166 0 153.61891980536166 -148.12411179440096 0 0 0 0 189.07398359337094 124.33027496479917 0 124.33027496479917 -208.80893696675776 0 0 0 0 190.56208014785079 146.21558205610563 0 146.21558205610563 -156.06942815419461 0 0 0 0 232.84924061899073 188.7591125128456 0 188.7591125128456 -157.31916679256392 0 0 0 0 218.19257589423796 126.65912753658631 0 126.65912753658631 -222.69347458467382 0 0 0 0 180.93248268392927 75.231809550976322 0 75.231809550976322 -267.99589841084526 0 0 0 0 263.11293476822902 139.32285803760169 0 139.32285803760169 -251.13394453641376 0 0 0 0 184.46817061642651 24.594719553555478 0 24.594719553555478 -300.13432616589853 0 0 0 0 290.96443898901634 71.932815636151645 0 71.932815636151645 -365.52023949220893 0 0 0 0 235.27008333537378 97.423311836602807 0 97.423311836602807 -269.63779190053901 0 0 0 0 226.32900530956977 118.71495024175056 0 118.71495024175056 -239.19056957137946 0 0 0 0 326.97119115048554 194.25586247071624 0 194.25586247071624 -260.84044077936232 0 0 0 0 26.456895785056986 -41.789340850547887 0 -41.789340850547887 -384.12284466596611 0 0 0 0 89.918103732808959 -16.841733006880531 0 -16.841733006880531 -528.26308757897641 0 0 0 0 28.419161429206724 -230.78591171039534 0 -230.78591171039534 -592.32595692094765 0 0 0 0 179.19748019010876 -60.199352482683025 0 -60.199352482683025 -465.60155295261211 0 0 0 0 123.9097932362929 6.2930786917459045 0 6.2930786917459045 -349.3690045713447 0 0 0 0 263.33346881871694 4.7125564700982068 0 4.7125564700982068 -426.48110220062517 0 0 0 0 31.464303126980667 -55.663809057910839 0 -55.663809057910839 -345.87224228957712 0 0 0 0 132.71311757457443 -79.862722741084781 0 -79.862722741084781 -435.4606964479317 0 0 0 0 202.63919829291262 -77.435113760537206 0 -77.435113760537206 -476.4512183161205 0 0 0 0 300.39352666986815 111.25925103406189 0 111.25925103406189 -261.2610202636788 0 0 0 0 313.44801420354634 115.31885181297548 0 115.31885181297548 -338.13685719037312 0 0 0 0 534.19330431157141 485.20065827604776 0 485.20065827604776 -156.21526681422529 0 0 0 0 454.34403410865707 255.8308715611156 0 255.8308715611156 -461.97551535331149 0 0 0 0 256.71316960756667 252.83179355932589 0 252.83179355932589 -26.455264012322004 0 0 0 0 221.53896255267318 198.33719369000391 0 198.33719369000391 -98.562616820781841 0 0 0 0 260.61602830585616 218.2522412843191 0 218.2522412843191 -100.35801024606189 0 0 0 0 376.41146458376897 134.9154685928188 0 134.9154685928188 -325.70681524832617 0 0 0 0 360.58795057909447 269.23644647679976 0 269.23644647679976 -147.15408993460733 0 0 0 0 315.04371211875696 575.44878696544765 0 575.44878696544765 459.93453755915107 0 0 0 0 285.14121070835972 312.68509893805458 0 312.68509893805458 -22.652147546162723 0 0 0 0 18.938359654799569 258.04313573273612 0 258.04313573273612 782.94216306786439 0 0 0 0 34.754422260508989 22.059346982418354 0 22.059346982418354 5.9223199729078928 0 0 0 0 121.23509493601159 -126.9581400584284 0 -126.9581400584284 -650.28402223149897 0 0 0 0 -57.966024338151328 181.61562966525526 0 181.61562966525526 -336.06570634226227 0 0 0 0 19.694311687198933 237.35153622450525 0 237.35153622450525 -626.80450036343245 0 0 0 0 6.2667905976377938 13.091200997501105 0 13.091200997501105 4.0131564443632399 0 0 0 0 -1644.4901102526055 514.0905348262022 0 514.0905348262022 2198.5068600544273 0 0 0 0 -127.7610768562372 153.56326948682636 0 153.56326948682636 -223.17815912321385 0 0 0 0 -98.556008995947195 98.301441600298858 0 98.301441600298858 -354.00062106428231 0 0 0 0 -49.030483285052469 224.70922333905673 0 224.70922333905673 -326.50951867528056 0 0 0 0 -87.702350231302262 274.51972831910098 0 274.51972831910098 -180.69153496236686 0 0 0 0 -102.55747103740578 288.98042066135895 0 288.98042066135895 -39.180124966313087 0 0 0 0 -20.665255678119138 283.8882646347738 0 283.8882646347738 -84.58541773827892 0 0 0 0 -141.64900822154596 45.202611746783077 0 45.202611746783077 36.000533554833964 0 0 0 0 -92.921006302814931 196.64729586554313 0 196.64729586554313 -73.900342534634547 0 0 0 0 -94.722029563708929 252.13031996218342 0 252.13031996218342 -89.273898873601865 0 0 0 0 13.881126376698376 276.06956188848926 0 276.06956188848926 -303.24801605578978 0 0 0 0 3.6976682839481327 4.8500944856201045 0 4.8500944856201045 -6.5716154029855147 0 0 0 0 25.903418091678759 334.05416365348356 0 334.05416365348356 -85.728907602890104 0 0 0 0 153.90321822167607 153.80336943348084 0 153.80336943348084 13.553525618178355 0 0 0 0 47.038523294555489 -115.30610630700903 0 -115.30610630700903 -402.02989287103992 0 0 0 0 -3.7675860878941307 8.5360624592018439 0 8.5360624592018439 -2.3368173329787112 0 0 0 0 486.00063798914198 66.125258880336332 0 66.125258880336332 25.548164610764616 0 0 0 0 303.41314892197261 438.14884249262104 0 438.14884249262104 211.45304916621535 0 0 0 0 70.533979034691583 165.21151548602211 0 165.21151548602211 36.107813187962165 0 0 0 0 -133.01577911118511 -704.61767482533469 0 -704.61767482533469 -16.805450130529152 0 0 0 0 230.98927200867183 634.58500985206092 0 634.58500985206092 -135.48768724850743 0 0 0 0 -189.86980633970234 260.00269667949033 0 260.00269667949033 932.49025709580746 0 0 0 0 -29.840740684478078 99.063780411146581 0 99.063780411146581 20.207317880151095 0 0 0 0 -528.35315473505761 -750.69009698258014 0 -750.69009698258014 996.84651380780269 0 0 0 0 79.666778804676142 63.593600607895496 0 63.593600607895496 95.052998231999482 0 0 0 0 77.104966819344554 66.761094218771177 0 66.761094218771177 353.00365396174493 0 0 0 0 71.916051174979657 99.24634154254818 0 99.24634154254818 38.971845984888205 0 0 0 0 59.318226228169578 33.597493885331382 0 33.597493885331382 -5.5356631552521929 0 0 0 0 34.91372836274968 64.519391970061406 0 64.519391970061406 14.229734278542992 0 0 0 0 43.260923693422228 86.25277528600418 0 86.25277528600418 42.286029474498491 0 0 0 0 -24.426669433669304 76.166562023492588 0 76.166562023492588 -32.680505746444396 0 0 0 0 5.7267118358286098 58.671995195742056 0 58.671995195742056 -36.579076755481765 0 0 0 0 -29.533430789830163 33.217476594078107 0 33.217476594078107 -60.474105307654099 0 0 0 0 -26.648857326767256 44.807311757907421 0 44.807311757907421 -19.337209439814075 0 0 0 0 29.121976554568278 19.676623430918767 0 19.676623430918767 -12.747376914470181 0 0 0 0 0.44642038195161149 186.1426073201801 0 186.1426073201801 -56.087518010172062 0 0 0 0 52.429425645517767 15.197863449764554 0 15.197863449764554 -86.886985283825197 0 0 0 0 -117.33866006732569 93.765628635559551 0 93.765628635559551 21.467773937532911 0 0 0 0 660.69869974433095 496.64537846718304 0 496.64537846718304 -233.05171028279437 0 0 0 0 -497.87251882822602 206.84607854331261 0 206.84607854331261 414.4738334978465 0 0 0 0 4.3088594820052322 1.4034130352512761 0 1.4034130352512761 0.27477344388344704 0 0 0 0 135.00464061001549 87.530053117356147 0 87.530053117356147 -127.60440194948751 0 0 0 0 -113.26496872951975 15.965948366145312 0 15.965948366145312 260.67021706014202 0 0 0 0 279.68213705852395 233.38307338875529 0 233.38307338875529 -55.087084342434537 0 0 0 0 81.734671119396808 481.36724857447916 0 481.36724857447916 267.00572792354797 0 0 0 0 21.597259157621011 2.3032101453463838 0 2.3032101453463838 -90.515113927998755 0 0 0 0 41.212419603849412 161.77611498515398 0 161.77611498515398 -32.233979251555866 0 0 0 0 26.448805920197628 135.98980020522868 0 135.98980020522868 -72.336423293370899 0 0 0 0 17.716333707299782 114.77026781568566 0 114.77026781568566 -23.828819938760716 0 0 0 0 -21.860475692083128 152.86536042270018 0 152.86536042270018 -25.164708848678856 0 0 0 0 6.3804918018286116 0.39653143829491455 0 0.39653143829491455 -99.615133822242569 0 0 0 0 -13.019036495650653 74.797439636327908 0 74.797439636327908 -36.030381331991521 0 0 0 0 82.460620436904719 73.321933087339858 0 73.321933087339858 -37.860814038285753 0 0 0 0 -105.38035561222932 81.767606337300094 0 81.767606337300094 71.381576633757504 0 0 0 0 -43.173892098362558 101.88530208333395 0 101.88530208333395 18.733373150724219 0 0 0 0 -179.54480149690062 169.79555974659161 0 169.79555974659161 5.9762258330138138 0 0 0 0 -76.822828644275432 71.703875187809899 0 71.703875187809899 -7.8335428153513931 0 0 0 0 -44.930629543610848 123.15645461194799 0 123.15645461194799 -20.797915321087203 0 0 0 0 -54.558503563865088 157.62866712814139 0 157.62866712814139 -15.580479510608711 0 0 0 0 -88.569369764823932 55.522228965317481 0 55.522228965317481 17.788906270827283 0 0 0 0 3.4732250033140417 15.67936590643555 0 15.67936590643555 -3.9711702829698083 0 0 0 0 -0.97311752030509524 94.373972339955799 0 94.373972339955799 -35.703601575245557 0 0 0 0 -33.280854541866574 -12.895525253141386 0 -12.895525253141386 -5.2994821834436152 0 0 0 0 -59.858024573528382 15.745037545245395 0 15.745037545245395 65.343341200132272 0 0 0 0 -5.6856780391244683 14.648095953387383 0 14.648095953387383 -111.27614056449966 0 0 0 0 -21.931800311931568 23.732719913013632 0 23.732719913013632 -12.33046194060627 0 0 0 0 10.972650337254549 21.519344124629299 0 21.519344124629299 6.1734726418413288 0 0 0 0 43.308047348371474 -10.448806996821986 0 -10.448806996821986 -213.77248015343503 0 0 0 0 107.39259341781144 96.467006947350455 0 96.467006947350455 -14.153510829804873 0 0 0 0 -289.67618564335862 155.62546758222015 0 155.62546758222015 133.90576701173268 0 0 0 0 -80.398080883693183 -30.857632440805901 0 -30.857632440805901 -133.57043179689208 0 0 0 0 83.770066683195182 35.276425848265717 0 35.276425848265717 -198.64672434242675 0 0 0 0 12.965397457010113 -14.969224261236377 0 -14.969224261236377 -226.10206365970953 0 0 0 0 -7.8194796499969357 7.2280529318579667 0 7.2280529318579667 -5.6744570900386293 0 0 0 0 59.769511102873366 83.948115192320984 0 83.948115192320984 -1013.698488693306 0 0 0 0 -70.244066171886516 -101.39408394489146 0 -101.39408394489146 -223.93426765374898 0 0 0 0 510.71631083474495 -378.31472388986731 0 -378.31472388986731 -3291.0861204245593 0 0 0 0 -84.019903267966583 3009.9751098770357 0 3009.9751098770357 -46.695781721000458 0 0 0 0 -279.70995767533896 177.87015297609469 0 177.87015297609469 -213.95687519884814 0 0 0 0 -29.839284414687427 -81.881823893007095 0 -81.881823893007095 40.268095533523592 0 0 0 0 50.329573712137062 399.93513099460688 0 399.93513099460688 -1573.5063764465667 0 0 0 0 -8.8351227366509875 2.7824354041170665 0 2.7824354041170665 -1.1716586691099771 0 0 0 0 -489.57930066154222 197.05193718629016 0 197.05193718629016 345.00320026560075 0 0 0 0 -159.72873785246338 240.27547427509853 0 240.27547427509853 -294.46289164547488 0 0 0 0 -124.22131901186367 78.985650690105103 0 78.985650690105103 -951.60903008572495 0 0 0 0 165.5362744993763 164.811963417058 0 164.811963417058 -725.58053502732855 0 0 0 0 175.8438872169063 17.87395772110176 0 17.87395772110176 -492.78080349465017 0 0 0 0 -101.66285237358534 42.530414028609812 0 42.530414028609812 8.9362944907406927 0 0 0 0 -26.474105482429991 10.497776635731675 0 10.497776635731675 1.9134936354741008 0 0 0 0 11.205996544773541 20.076335373903447 0 20.076335373903447 -0.4856043877700813 0 0 0 0 -34.702655899207457 65.993209489730361 0 65.993209489730361 -54.60411394584662 0 0 0 0 -157.22584626618482 193.19343665648194 0 193.19343665648194 -184.96989336411571 0 0 0 0 -7.8948756097815931 81.565106790287246 0 81.565106790287246 -53.441548702406408 0 0 0 0 -35.033156318694722 22.772725540404508 0 22.772725540404508 60.103985221160627 0 0 0 0 -460.32000683119986 107.68252773786662 0 107.68252773786662 307.43782128663224 0 0 0 0 -10.095818641965877 5.8106139696215706 0 5.8106139696215706 11.556505617067927 0 0 0 0 -186.64255774795311 -550.00600098284485 0 -550.00600098284485 105.4483324910525 0 0 0 0 87.98118547454942 166.75778288228321 0 166.75778288228321 -502.18384504313144 0 0 0 0 -910.32787093066145 828.40940738852805 0 828.40940738852805 -760.36031425761394 0 0 0 0 -1002.7697134762766 -296.31542809080111 0 -296.31542809080111 12.525995316187618 0 0 0 0 -572.63115884573199 920.58296218747273 0 920.58296218747273 -889.26883263693162 0 0 0 0 155.83376740015228 582.93165392369701 0 582.93165392369701 -769.62393511021219 0 0 0 0 1704.8092288331827 -195.03433886326093 0 -195.03433886326093 128.61087804136332 0 0 0 0 -170.51869354158407 562.79797722543299 0 562.79797722543299 -72.675956327544554 0 0 0 0 -194.12875606608577 334.65787279892538 0 334.65787279892538 -1354.7559678288962 0 0 0 0 -2.1444737568298251 7.0749342099330192 0 7.0749342099330192 7.0492572614488793 0 0 0 0 -531.83548111259006 471.05571840934863 0 471.05571840934863 -304.21706462147267 0 0 0 0 -166.74374533188529 463.18462271514727 0 463.18462271514727 -374.33031496604963 0 0 0 0 -317.26048496470321 254.47956227067334 0 254.47956227067334 -230.43595726764852 0 0 0 0 -388.35471871838672 241.76579167941236 0 241.76579167941236 -32.130055670346337 0 0 0 0 -823.94539927542792 579.48691819260421 0 579.48691819260421 -84.074955321542802 0 0 0 0 -173.69937729413505 332.96416264925574 0 332.96416264925574 -265.0949289020773 0 0 0 0 -152.71242581514889 257.12102474682706 0 257.12102474682706 -390.67444575214176 0 0 0 0 131.90511811540182 168.0341124960529 0 168.0341124960529 -424.51973771121266 0 0 0 0 -238.0891084150353 485.48456527048256 0 485.48456527048256 -594.32489428848567 0 0 0 0 -102.06750625971472 34.183399134224601 0 34.183399134224601 272.93026878359524 0 0 0 0 -2.605020346928427 5.308666064341196 0 5.308666064341196 4.1882079922696391 0 0 0 0 -24.10781488478824 80.225397107027675 0 80.225397107027675 53.854621446618694 0 0 0 0 -7.3922865714703221 177.01575712738304 0 177.01575712738304 -62.920017788717814 0 0 0 0 -67.364309733093251 138.99284771710518 0 138.99284771710518 -22.35964297391547 0 0 0 0 -6.6437473281985149 220.84642638871264 0 220.84642638871264 78.305726822261931 0 0 0 0 -205.7797340277466 206.10716027936724 0 206.10716027936724 86.412442755687152 0 0 0 0 -121.32022245881672 141.16048016238346 0 141.16048016238346 68.709267679871118 0 0 0 0 -138.03501857355877 115.04322099402907 0 115.04322099402907 97.436754745212966 0 0 0 0 -290.69547820539447 -120.12134286715082 0 -120.12134286715082 -210.45894536458945 0 0 0 0 21.890127157967072 173.52195371688504 0 173.52195371688504 113.59453631194265 0 0 0 0 -58.218370586459059 203.04158595718036 0 203.04158595718036 -73.772169375955855 0 0 0 0 -107.04596682261035 104.41686649357598 0 104.41686649357598 79.551365273320698 0 0 0 0 91.396515477608773 -105.17173129484581 0 -105.17173129484581 304.74653125864461 0 0 0 0 -282.46736042934936 -185.01348860729195 0 -185.01348860729195 915.22780031628645 0 0 0 0 -281.15103024869313 877.09847194037502 0 877.09847194037502 -976.97961522479454 0 0 0 0 -849.67406487630797 495.03740451371596 0 495.03740451371596 50.276894327442278 0 0 0 0 7.7123261341376974 4.8785414421939493 0 4.8785414421939493 -0.051955073521895656 0 0 0 0 -0.65430361387785752 1.3840955762015028 0 1.3840955762015028 0.73297836108358894 0 0 0 0 -340.83853861825264 385.8363011555 0 385.8363011555 335.93368428142276 0 0 0 0 -406.88947373861447 304.28570986251725 0 304.28570986251725 641.46825435966821 0 0 0 0 -50.437621831180877 46.971331542787084 0 46.971331542787084 10.734104164806922 0 0 0 0 -32.108476806315593 94.325457303966687 0 94.325457303966687 -110.18085833118676 0 0 0 0 0.98692230144291671 -2.7294081917712418 0 -2.7294081917712418 -1.1861131252171617 0 0 0 0 -258.7370325524389 334.67789013245783 0 334.67789013245783 -857.05157162826026 0 0 0 0 -101.06613485177513 81.277810683444841 0 81.277810683444841 -41.364914833218791 0 0 0 0 13.949222725462789 7.4036515723744571 0 7.4036515723744571 2.3941712641046138 0 0 0 0 -34.571797741169576 66.272301606208202 0 66.272301606208202 -60.653364287965815 0 0 0 0 -57.457804785459302 86.123984160145483 0 86.123984160145483 -65.792198174327496 0 0 0 0 -57.476035877676878 79.686690651939273 0 79.686690651939273 -22.804761947081715 0 0 0 0 -53.108293209428666 55.48939134702232 0 55.48939134702232 -41.442377738236246 0 0 0 0 -44.451832795602968 70.397864640337502 0 70.397864640337502 -86.739919095671212 0 0 0 0 -48.021333370212233 65.658761700295145 0 65.658761700295145 -52.40794421607643 0 0 0 0 -44.675380728527671 58.001845530150604 0 58.001845530150604 -58.43176528046024 0 0 0 0 -11.782494349640956 67.910442240292525 0 67.910442240292525 -70.598817235812021 0 0 0 0 0.038983861573797185 88.109923188607354 0 88.109923188607354 -49.430785530745197 0 0 0 0 -94.637430241797119 115.31485023631103 0 115.31485023631103 -79.418535520999285 0 0 0 0 -11.454441202469752 81.575220347916911 0 81.575220347916911 -65.771758062635854 0 0 0 0 -31.195171550054511 80.80686242138836 0 80.80686242138836 -62.175973635930859 0 0 0 0 -2.7093750674684998 50.329197304938134 0 50.329197304938134 -48.600278944506499 0 0 0 0 -0.056268525273480918 81.602932085015709 0 81.602932085015709 -85.230206120106232 0 0 0 0 1.1025869275549667 -3.0204382059928889 0 -3.0204382059928889 -1.3590780089985017 0 0 0 0 2.615019448887324 62.043871399626369 0 62.043871399626369 -136.41230699537846 0 0 0 0 -27.411527603529976 62.943299783180919 0 62.943299783180919 -99.287207736926575 0 0 0 0 -346.29602375355898 301.87131410640723 0 301.87131410640723 -263.73742794656573 0 0 0 0 0.14898554226965643 38.739219706531003 0 38.739219706531003 -51.784954502934852 0 0 0 0 -32.173517283954425 24.187926172699008 0 24.187926172699008 -11.482696411400866 0 0 0 0 84.296663658024045 127.84033144858404 0 127.84033144858404 17.041498971550027 0 0 0 0 4.2153278322694518 1.5812257069553368 0 1.5812257069553368 -1.2701943693329554 0 0 0 0 -159.60881735145813 361.29561314700732 0 361.29561314700732 162.9148194452282 0 0 0 0 74.739760959666455 318.77255715257706 0 318.77255715257706 -69.063933813988115 0 0 0 0 0.15511715229513356 136.73543986911864 0 136.73543986911864 266.02692621766619 0 0 0 0 -308.47985841789341 152.46092068317739 0 152.46092068317739 -25.073052280854085 0 0 0 0 -634.12901857620454 428.31543260594117 0 428.31543260594117 -129.21608260163339 0 0 0 0 -187.13406137757738 109.81220913781772 0 109.81220913781772 -71.814303397928597 0 0 0 0 -209.73240718078159 -18.126077425124095 0 -18.126077425124095 114.71173153729615 0 0 0 0 -460.42335367691703 99.497523874000763 0 99.497523874000763 9.5264166783526889 0 0 0 0 -132.48383196879877 291.23060692216677 0 291.23060692216677 -105.05270572622248 0 0 0 0 -371.88639674472506 172.79258484376624 0 172.79258484376624 -121.53553580327025 0 0 0 0 -311.62273667092086 309.51920576146404 0 309.51920576146404 -497.82986125557363 0 0 0 0 -58.578236973422463 367.32192684805705 0 367.32192684805705 -418.02779418150021 0 0 0 0 -68.016295418259688 152.2804716791361 0 152.2804716791361 -139.40370936510226 0 0 0 0 -188.09453518496593 287.31850970902451 0 287.31850970902451 137.90903617719778 0 0 0 0 -146.25827394059161 60.47195253285463 0 60.47195253285463 269.63185930483451 0 0 0 0 -172.9058475906495 133.70048010639039 0 133.70048010639039 -495.90529221987526 0 0 0 0 -50.589283140259795 453.93435228842282 0 453.93435228842282 -1300.5224749625086 0 0 0 0 -2.0819400357774498 1.9956006398159332 0 1.9956006398159332 1.0849874167250029 0 0 0 0 -568.74300386837058 655.90067711049596 0 655.90067711049596 -440.26654358630913 0 0 0 0 -136.30784433981171 -1088.4700278763594 0 -1088.4700278763594 1779.3534086949094 0 0 0 0 -236.9819257837371 253.28681416758263 0 253.28681416758263 433.34034082142898 0 0 0 0 738.49517624360305 -278.40121397169059 0 -278.40121397169059 -1253.8352814979517 0 0 0 0 157.57782965288789 111.53171024766016 0 111.53171024766016 -429.08959510961722 0 0 0 0 -728.43370209066779 1365.6498817557804 0 1365.6498817557804 -1309.7009483817558 0 0 0 0 89.954420433714404 -1451.6926935186602 0 -1451.6926935186602 -1682.3008009674086 0 0 0 0 -1847.6799470995174 1002.5983591968261 0 1002.5983591968261 -142.19487196112459 0 0 0 0 -0.8669170785443896 -0.94624053820919585 0 -0.94624053820919585 -21.164916701856598 0 0 0 0 -861.46146946056251 705.36066845670302 0 705.36066845670302 -570.85496393126959 0 0 0 0 -685.01027150530354 497.0604853247869 0 497.0604853247869 -330.84796605361771 0 0 0 0 -1246.4071474617231 113.7119903027924 0 113.7119903027924 -102.53629521053517 0 0 0 0 -143.34796346725489 233.33427009530533 0 233.33427009530533 -142.78671906579621 0 0 0 0 -211.4683642902819 367.90509424648189 0 367.90509424648189 -493.95355190093687 0 0 0 0 -133.49981432785717 175.25479254705988 0 175.25479254705988 -294.15234672468068 0 0 0 0 -72.160490347763698 303.47560424569838 0 303.47560424569838 -286.29222984798253 0 0 0 0 -0.051056972719379701 287.34049822322595 0 287.34049822322595 -190.51084471190734 0 0 0 0 -72.927727033318661 235.08235315564798 0 235.08235315564798 -116.49381651775184 0 0 0 0 -81.87909367622342 234.21141301487842 0 234.21141301487842 -26.79146908540713 0 0 0 0 -35.263364852085942 250.90351358026055 0 250.90351358026055 -142.16084913633313 0 0 0 0 -11.55902757409001 18.928009229693266 0 18.928009229693266 -31.65397693665264 0 0 0 0 17.692749309208011 52.379340883428085 0 52.379340883428085 -20.140114520734642 0 0 0 0 -509.14826965394604 -1777.3325641920455 0 -1777.3325641920455 -902.99582174392708 0 0 0 0 0.02798722267471021 35.277971417668596 0 35.277971417668596 9.887216056795296 0 0 0 0 6.7055885747540742 14.624204747837211 0 14.624204747837211 -17.288514473140822 0 0 0 0 -3.7428700694224801 3.6564286370707819 0 3.6564286370707819 -9.3309340190878913 0 0 0 0 -956.88783560044249 -1516.5683292821705 0 -1516.5683292821705 -1878.2122649168377 0 0 0 0 -605.76772089334554 101.65815269960876 0 101.65815269960876 221.02869447902776 0 0 0 0 809.18715506233275 -808.28294703664869 0 -808.28294703664869 -1382.3382765701244 0 0 0 0 550.20623535571212 245.84124350905768 0 245.84124350905768 18.145874540521618 0 0 0 0 450.88882696353539 44.272769394305215 0 44.272769394305215 -368.80061765450228 0 0 0 0 140.34319262786448 787.53330144689244 0 787.53330144689244 -1121.5628691381426 0 0 0 0 530.44875416939612 -191.12621316715013 0 -191.12621316715013 5.7124946239637211 0 0 0 0 -1115.7882213636331 1770.2680590680902 0 1770.2680590680902 -425.86334818651085 0 0 0 0 0.89325055680288301 11.119156974504989 0 11.119156974504989 -47.539569637297973 0 0 0 0 1649.4141970199998 436.84336092814192 0 436.84336092814192 -816.27848270074173 0 0 0 0 1417.9490028285363 239.90198312903522 0 239.90198312903522 -392.40260558977025 0 0 0 0 -1224.3038810441794 -154.33256525267643 0 -154.33256525267643 682.36324395365227 0 0 0 0 323.37523035199411 -755.16210876448167 0 -755.16210876448167 -1042.4144407351341 0 0 0 0 -20.387359794881831 45.667710361218631 0 45.667710361218631 -68.036800291507262 0 0 0 0 231.25419295497704 729.75739919054467 0 729.75739919054467 67.141600531351287 0 0 0 0 1.3640501274889516 2.9128810141034336 0 2.9128810141034336 -23.372253129442754 0 0 0 0 -3.6675456046230295 -3.4340519394147577 0 -3.4340519394147577 -3.4491523131927124 0 0 0 0 -714.5069286765065 940.74350901917205 0 940.74350901917205 278.85209116852639 0 0 0 0 -3.9958330984968029 12.513292761610728 0 12.513292761610728 -32.806733162148817 0 0 0 0 380.84646263631294 122.23283229714798 0 122.23283229714798 -95.813695395205286 0 0 0 0 1097.4580507829087 -792.18727532390039 0 -792.18727532390039 -8170.18493489502 0 0 0 0 7.9490736960893287 30.014731220400222 0 30.014731220400222 -75.56047024815274 0 0 0 0 -35.21006438373297 107.54005692943974 0 107.54005692943974 -73.401537698686298 0 0 0 0 1271.6790652906056 1393.3118514292291 0 1393.3118514292291 -5363.0208728383295 0 0 0 0 -24.455507535612014 5.0509143760789357 0 5.0509143760789357 -83.352286155408365 0 0 0 0 12.320347359636799 39.922709221107652 0 39.922709221107652 -155.27363549554866 0 0 0 0 -13.13532981404569 44.807259830951807 0 44.807259830951807 -19.913629018410575 0 0 0 0 -0.0050415920923114754 38.81168122611416 0 38.81168122611416 -38.346288764703786 0 0 0 0 7.2504436619346961 34.330092398238776 0 34.330092398238776 -85.565768519350968 0 0 0 0 7.3203203950979514 25.129385423062558 0 25.129385423062558 -92.040612091492221 0 0 0 0 -8.7336879568538279 56.732995893447878 0 56.732995893447878 -62.128693819591717 0 0 0 0 0.026723542199761141 46.236929596481787 0 46.236929596481787 -97.226062639263546 0 0 0 0 -25.875467778227176 93.944637734282878 0 93.944637734282878 -130.68921144389424 0 0 0 0 -36.782892135983275 40.280660318367154 0 40.280660318367154 -19.174265120796917 0 0 0 0 -1.7215473824180663 62.046573586507293 0 62.046573586507293 -59.919872813563416 0 0 0 0 -4.9235751208107104 46.15156339031455 0 46.15156339031455 -18.500728518447431 0 0 0 0 -0.0018730843294179067 41.590335859549668 0 41.590335859549668 -34.000142338096339 0 0 0 0 24.51061083208333 24.368487903619098 0 24.368487903619098 -26.473293812261545 0 0 0 0 3.3814112014929663 2.4321228046938757 0 2.4321228046938757 -2.8672384540278415 0 0 0 0 2.5509772589209661 2.4054045656921517 0 2.4054045656921517 -2.6647531079823352 0 0 0 0 -178.18520973878913 130.92614047052848 0 130.92614047052848 -54.479446957804612 0 0 0 0 92.642615262542677 28.19940462086015 0 28.19940462086015 -21.508689744470757 0 0 0 0 -31.099612122707185 56.890854665978623 0 56.890854665978623 -61.986712520163564 0 0 0 0 -125.09216561639914 67.496539922680313 0 67.496539922680313 -44.432625980771263 0 0 0 0 -64.904465379637259 47.862564895773176 0 47.862564895773176 -36.599871931728558 0 0 0 0 -95.785369888835703 87.792173304049356 0 87.792173304049356 -53.886253540180405 0 0 0 0 -15.864978391087789 94.280842585007122 0 94.280842585007122 -52.831231027375907 0 0 0 0 -42.511452430416313 52.204921795968474 0 52.204921795968474 -57.41882768941818 0 0 0 0 560.92085909391608 -11.865299482877163 0 -11.865299482877163 -156.52625088626519 0 0 0 0 66.213440095278202 -450.68508019785077 0 -450.68508019785077 -251.76186722201237 0 0 0 0 -30.534436040012537 47.036847230066542 0 47.036847230066542 -57.555848537385998 0 0 0 0 -4.1779488594397947 8.6931266127490119 0 8.6931266127490119 -7.2073655233426734 0 0 0 0 -21.828720151228481 37.516970315031358 0 37.516970315031358 -45.078163505349949 0 0 0 0 -42.760084156601806 68.472397533700132 0 68.472397533700132 -37.500506512674065 0 0 0 0 -116.1925821511395 61.563010318499437 0 61.563010318499437 -23.777835708853672 0 0 0 0 50.406673773017246 20.149398676643614 0 20.149398676643614 -193.34479505626223 0 0 0 0 9.4219309082631924 -1.5106496951146511 0 -1.5106496951146511 -6.4681163209604335 0 0 0 0 16.19677385476291 36.174710067827448 0 36.174710067827448 -62.125396670279599 0 0 0 0 -113.63664352429623 -35.079554192489013 0 -35.079554192489013 -16.103101755390526 0 0 0 0 37.03528230009033 39.667954810836818 0 39.667954810836818 5.8198795316493488 0 0 0 0 -8.201552500469603 42.590804014589295 0 42.590804014589295 -77.230719616458316 0 0 0 0 105.76212513244536 360.4014423035369 0 360.4014423035369 101.63539346022299 0 0 0 0 71.795895265044237 220.69008528615086 0 220.69008528615086 -39.188226991798729 0 0 0 0 -18.819246583257353 53.712461521533335 0 53.712461521533335 -72.98680087487125 0 0 0 0 -897.50344786117785 360.10558417547145 0 360.10558417547145 -29.774332052729733 0 0 0 0 119.2428652359813 206.81406332093684 0 206.81406332093684 -6.6996021915183519 0 0 0 0 225.31156148805167 -329.40097440373211 0 -329.40097440373211 -873.61597465711384 0 0 0 0 357.53186419971462 434.79198369937512 0 434.79198369937512 -74.455483080324484 0 0 0 0 -808.62575322450721 714.79139670996665 0 714.79139670996665 -51.226410219664103 0 0 0 0 59.555310945324891 -98.464780165271804 0 -98.464780165271804 -107.54851835849695 0 0 0 0 -7.6098251464253508 -0.48276090639504332 0 -0.48276090639504332 -0.17090244045884617 0 0 0 0 -16.772377328962534 10.329754867957519 0 10.329754867957519 -22.205585780361019 0 0 0 0 -87.639120961895969 18.398050597064866 0 18.398050597064866 5.3569788203603821 0 0 0 0 239.36535095748491 334.78661379787513 0 334.78661379787513 -395.98530331194343 0 0 0 0 -126.75880032518762 5.9029151665017707 0 5.9029151665017707 47.03498821737594 0 0 0 0 -72.170826075205696 -8.500753756838094 0 -8.500753756838094 50.718714096117765 0 0 0 0 -54.82237751538014 125.30336014119302 0 125.30336014119302 12.582719459125656 0 0 0 0 -93.729499344408396 40.877701354802412 0 40.877701354802412 82.296645734008052 0 0 0 0 -42.44973480233898 57.806438620357099 0 57.806438620357099 -50.972425305783332 0 0 0 0 -44.731087827902229 204.46105220559775 0 204.46105220559775 145.11722788955376 0 0 0 0 -231.49446620987146 61.557778830916504 0 61.557778830916504 198.60086169396527 0 0 0 0 -18.883355763773466 54.691464484948959 0 54.691464484948959 -70.994470457129893 0 0 0 0 -116.97100246886839 406.09035389949349 0 406.09035389949349 0.3484747015268681 0 0 0 0 -46.537708349642344 67.870688689406961 0 67.870688689406961 -68.65904925353243 0 0 0 0 -76.017059020246961 112.96991575547509 0 112.96991575547509 -137.58484056949237 0 0 0 0 -49.446479614183772 80.083927818366647 0 80.083927818366647 169.10164825511856 0 0 0 0 -96.163267309006187 52.643892690610301 0 52.643892690610301 26.890508278360358 0 0 0 0 -311.6926481450937 382.80261461990085 0 382.80261461990085 0.32132380105031189 0 0 0 0 -24.85394909640749 40.870204512005927 0 40.870204512005927 58.708788091882113 0 0 0 0 -145.53330492030364 177.55255021531775 0 177.55255021531775 -15.213438215832866 0 0 0 0 -26.742921625933377 30.84969184914371 0 30.84969184914371 17.530401507130591 0 0 0 0 -48.683292465924751 47.047318490265752 0 47.047318490265752 26.119352837189581 0 0 0 0 -44.775739704256466 48.474568995453424 0 48.474568995453424 -25.953268395160165 0 0 0 0 -40.103156149665551 70.651964770043122 0 70.651964770043122 -63.115645066608579 0 0 0 0 -43.596374476708036 30.721575632746493 0 30.721575632746493 29.948038990045546 0 0 0 0 -32.107261472365622 46.829143716114686 0 46.829143716114686 -24.52157667333428 0 0 0 0 -29.745967176475887 36.583408767734795 0 36.583408767734795 21.590082889792257 0 0 0 0 -23.307905790265067 51.950101793674548 0 51.950101793674548 -18.029957256352645 0 0 0 0 -298.6440887296194 33.659890629940492 0 33.659890629940492 51.402538978274606 0 0 0 0 -131.36815829317493 104.87385859569622 0 104.87385859569622 43.658566105019418 0 0 0 0 -0.45205033761413915 2.7098500900487608 0 2.7098500900487608 6.3317408904891295 0 0 0 0 -71.20290097106772 281.09248564153677 0 281.09248564153677 114.28173395864724 0 0 0 0 -257.88920598995173 191.68602880278195 0 191.68602880278195 133.37905766484982 0 0 0 0 -873.56830304233881 -111.44416241298313 0 -111.44416241298313 63.419862880315122 0 0 0 0 -200.26641789610585 150.74604074520903 0 150.74604074520903 124.50048661774781 0 0 0 0 2.0931705240284231 -1.6713761234759303 0 -1.6713761234759303 -0.65397105978604486 0 0 0 0 338.16468229698876 816.24907381014782 0 816.24907381014782 699.28153076954186 0 0 0 0 292.58394588913507 191.85854733081942 0 191.85854733081942 -803.69485177297247 0 0 0 0 -977.18343421775353 500.52059532776548 0 500.52059532776548 627.74448030587519 0 0 0 0 397.77115900842909 934.35152137005207 0 934.35152137005207 -576.62973132169645 0 0 0 0 -350.35524058052397 1148.9791805681962 0 1148.9791805681962 -196.79724280479422 0 0 0 0 -24.148940074053826 711.84981014750883 0 711.84981014750883 278.94666100620816 0 0 0 0 -417.10733503331721 478.00695703973906 0 478.00695703973906 185.1564614517265 0 0 0 0 164.31938791414723 694.67464319161809 0 694.67464319161809 -291.55310828899383 0 0 0 0 272.9499340250477 338.59567785690888 0 338.59567785690888 -119.64235844300129 0 0 0 0 290.3152906648902 154.66315770131769 0 154.66315770131769 -78.284225125535158 0 0 0 0 319.53127965609019 271.01743085389171 0 271.01743085389171 -58.281741309598146 0 0 0 0 501.06943686868181 55.102019095917058 0 55.102019095917058 -79.896696260402678 0 0 0 0 592.53012636369385 317.86675554813337 0 317.86675554813337 -273.1348493177793 0 0 0 0 1131.3705384883942 -125.95819026954268 0 -125.95819026954268 -214.39913176497066 0 0 0 0 617.71667884074122 287.07755178466323 0 287.07755178466323 -247.631473585192 0 0 0 0 720.92202979953436 541.98597979512124 0 541.98597979512124 -306.36829472583304 0 0 0 0 385.24250552352169 749.65804815242882 0 749.65804815242882 -338.28447772069558 0 0 0 0 796.58816027276043 238.900999470221 0 238.900999470221 -505.23537213970849 0 0 0 0 349.93036163155921 368.52291712063743 0 368.52291712063743 94.982759051039466 0 0 0 0 60.791405376214243 543.79180129511951 0 543.79180129511951 -9.4851644405862316 0 0 0 0 616.55215063878131 506.62353975283622 0 506.62353975283622 162.70927251005196 0 0 0 0 598.89525717274228 605.27795685865567 0 605.27795685865567 -241.22461560292868 0 0 0 0 -1.6780421888136132 5.6341179689395631 0 5.6341179689395631 -14.258529952358401 0 0 0 0 -2376.990932896806 791.73156436361751 0 791.73156436361751 -24.939501361484872 0 0 0 0 1481.3164676860397 504.76516227749744 0 504.76516227749744 -417.29358136319934 0 0 0 0 788.24261128003855 -238.29258099279104 0 -238.29258099279104 -405.77671456142343 0 0 0 0 265.23709128563496 645.08165680724414 0 645.08165680724414 44.570175811197259 0 0 0 0 -305.91397659743961 216.83437060732831 0 216.83437060732831 102.33353318591253 0 0 0 0 -298.61554226900626 166.18408184275177 0 166.18408184275177 -265.93731484815362 0 0 0 0 1008.2390043013584 316.8739975145545 0 316.8739975145545 -321.3244090435619 0 0 0 0 13.236590909196821 45.09699054218072 0 45.09699054218072 70.088850223517511 0 0 0 0 -18.250417757895775 18.970071413386904 0 18.970071413386904 53.431105040406692 0 0 0 0 0.0016099424673541307 11.17443452297772 0 11.17443452297772 -17.554731835146299 0 0 0 0 744.80721424350668 655.53057296742008 0 655.53057296742008 -55.407951555680484 0 0 0 0 49.475670821251697 50.189095915564394 0 50.189095915564394 37.359058672285755 0 0 0 0 628.68650783933845 245.27188394803306 0 245.27188394803306 -45.952759460313246 0 0 0 0 -3.8646896424010038 10.091532973314571 0 10.091532973314571 -19.775674530154788 0 0 0 0 -57.894871666117979 -47.775350925716339 0 -47.775350925716339 52.089915260648922 0 0 0 0 29.291996346735687 41.759959547474864 0 41.759959547474864 -226.08017049578484 0 0 0 0 0.30910962430198019 7.1681176876539041 0 7.1681176876539041 -14.857277784100859 0 0 0 0 -87.162191322739091 49.461914237337623 0 49.461914237337623 -98.282853336684639 0 0 0 0 103.66453586267744 94.460793898175325 0 94.460793898175325 -365.61124691474834 0 0 0 0 -322.86337549034215 542.68489865844458 0 542.68489865844458 -668.24567114270758 0 0 0 0 -562.06108047401358 433.60695231091086 0 433.60695231091086 -187.27483107475018 0 0 0 0 -556.6394784477161 467.02263405722533 0 467.02263405722533 -75.258079548628302 0 0 0 0 1084.3683986638644 -167.41442691269913 0 -167.41442691269913 -41.159654788909393 0 0 0 0 1126.5837726732348 72.396986566816395 0 72.396986566816395 -203.5649300297664 0 0 0 0 266.3833718382848 333.63368695244208 0 333.63368695244208 57.19503898556286 0 0 0 0 1152.6484514080148 437.97148896972067 0 437.97148896972067 -13.425350308894849 0 0 0 0 -3.0042081105821126 -30.03600615059986 0 -30.03600615059986 788.78676344703126 0 0 0 0 108.29530058428281 671.4226163749554 0 671.4226163749554 879.99136092615663 0 0 0 0 907.52161227151373 201.37047188373981 0 201.37047188373981 878.9605418200299 0 0 0 0 654.66632735884923 1089.7496187677461 0 1089.7496187677461 122.51097082257911 0 0 0 0 1247.9833445364129 630.60107218183111 0 630.60107218183111 -144.62233555428975 0 0 0 0 1068.2475978293733 -144.34470490672538 0 -144.34470490672538 29.627574610160082 0 0 0 0 2.0188044661202298 10.184293546084859 0 10.184293546084859 9.1772324982498787 0 0 0 0 431.22613048902713 372.03990800815518 0 372.03990800815518 -145.18249703862239 0 0 0 0 -28.857848821770318 36.152595361261916 0 36.152595361261916 -14.31485822345627 0 0 0 0 289.4183428734832 73.497499115088431 0 73.497499115088431 -30.966862379329541 0 0 0 0 263.62963255666546 551.92361473977508 0 551.92361473977508 -87.786222569768142 0 0 0 0 281.8261565439243 534.66232114061495 0 534.66232114061495 -196.01242863762309 0 0 0 0 -0.29782792416517623 442.86817031025566 0 442.86817031025566 314.94492540683132 0 0 0 0 -99.421745841609663 863.88849000478513 0 863.88849000478513 -169.5595745739156 0 0 0 0 -28.426667093548645 51.307857304707525 0 51.307857304707525 -65.483689002594076 0 0 0 0 1051.1665708278597 379.76006161995247 0 379.76006161995247 -88.414271012879908 0 0 0 0 -1350.7065968602546 430.98695741767733 0 430.98695741767733 553.1305196089088 0 0 0 0 -102.45164611675136 314.73803888525435 0 314.73803888525435 -364.06132071232423 0 0 0 0 -63.837379902062821 197.94847484880665 0 197.94847484880665 -261.33654734122683 0 0 0 0 -0.034932003755940855 1.0627714554853753 0 1.0627714554853753 -1.8453808895910129 0 0 0 0 45.014255087895435 114.46017310451862 0 114.46017310451862 77.158034923631931 0 0 0 0 14.404579127798172 18.428713486747085 0 18.428713486747085 -26.717466682440445 0 0 0 0 176.22098981129511 540.75020362238865 0 540.75020362238865 342.62344254850177 0 0 0 0 147.04907434846973 491.69906169455498 0 491.69906169455498 266.1770952520601 0 0 0 0 173.61208211303165 465.20450438301486 0 465.20450438301486 239.48067121552231 0 0 0 0 546.31173907707853 160.87125092925271 0 160.87125092925271 22.381636702295509 0 0 0 0 312.39467140913621 560.79726783869773 0 560.79726783869773 249.54606259881984 0 0 0 0 100.1119198374945 543.55328623590322 0 543.55328623590322 254.49690710336108 0 0 0 0 222.1798043353856 800.93733852542209 0 800.93733852542209 147.08372159610735 0 0 0 0 483.17629440434393 818.89393223204388 0 818.89393223204388 96.050048984485329 0 0 0 0 103.56917682562198 470.46584134874865 0 470.46584134874865 260.44007280871301 0 0 0 0 38.65630961721763 519.84348011726979 0 519.84348011726979 226.86602785527066 0 0 0 0 -405.8921218907708 393.72297992335371 0 393.72297992335371 206.05617638054537 0 0 0 0 -86.41557350596122 768.35891092897509 0 768.35891092897509 51.137062121066265 0 0 0 0 -130.73689330392517 807.38066138232534 0 807.38066138232534 198.01602438627015 0 0 0 0 -0.073347152331908916 2.837522461916592 0 2.837522461916592 -5.1344551589157277 0 0 0 0 -849.34234990308141 526.41131765271075 0 526.41131765271075 30.271381520506111 0 0 0 0 -494.12725053585018 538.01890644631931 0 538.01890644631931 -8.1125342676241416 0 0 0 0 -581.09844172820158 41.939156149244809 0 41.939156149244809 266.59603616423556 0 0 0 0 -240.78345902634464 -118.2819102235444 0 -118.2819102235444 258.29663845931645 0 0 0 0 22.406209663124173 -49.679748009060859 0 -49.679748009060859 104.84508584299829 0 0 0 0 -77.510638377985742 -65.946832708770671 0 -65.946832708770671 103.77275906543946 0 0 0 0 -240.94689655462571 91.781430689981789 0 91.781430689981789 125.47501223924337 0 0 0 0 54.200285920203896 106.06304991830257 0 106.06304991830257 117.63505809787785 0 0 0 0 -137.43993216031777 205.43508089896932 0 205.43508089896932 204.04053572988778 0 0 0 0 -31.99839752909611 90.499805912928423 0 90.499805912928423 156.03467539935082 0 0 0 0 -47.596515112963971 -34.178141710061027 0 -34.178141710061027 96.491335298749618 0 0 0 0 71.868011884202133 -15.739347926548362 0 -15.739347926548362 263.63003573965398 0 0 0 0 360.93708545881964 346.15992706635734 0 346.15992706635734 241.37461282588629 0 0 0 0 198.23596293773608 351.88370370657685 0 351.88370370657685 313.45873728854349 0 0 0 0 -741.85687484931259 -91.279437445435178 0 -91.279437445435178 100.46830589060846 0 0 0 0 -366.80165016566752 168.17484157849685 0 168.17484157849685 48.666313262991025 0 0 0 0 -226.44651534745572 222.05855443027394 0 222.05855443027394 179.32628207952075 0 0 0 0 -147.07210423820652 -46.648371458344627 0 -46.648371458344627 118.15779802133329 0 0 0 0 -417.02697357839497 172.42204199704065 0 172.42204199704065 88.717923369957134 0 0 0 0 -75.39332610198835 57.296619009221104 0 57.296619009221104 35.269003374196473 0 0 0 0 -18.787058892856294 -3.2831544698492507 0 -3.2831544698492507 102.43331379258598 0 0 0 0 -124.33882064777572 -16.008496865139023 0 -16.008496865139023 113.62730600812938 0 0 0 0 36.799609070832958 3.4008588016149588 0 3.4008588016149588 94.97192360086774 0 0 0 0 -69.261577325818507 58.304443589011498 0 58.304443589011498 181.54973283656 0 0 0 0 -2.4832340757148756 9.2089532834683325 0 9.2089532834683325 5.9047636652306466 0 0 0 0 134.13920333822534 31.026498818657274 0 31.026498818657274 12.694503552091192 0 0 0 0 -38.771963659949492 38.258679538846373 0 38.258679538846373 6.105958574613453 0 0 0 0 34.747245034639491 -84.841476679133848 0 -84.841476679133848 -89.024732322417549 0 0 0 0 -0.19740994106757626 -3.2383199419392952 0 -3.2383199419392952 -1.4661085694552867 0 0 0 0 -781.62281586087192 310.34266029944411 0 310.34266029944411 -26.483227313401585 0 0 0 0 -980.64096903891186 706.39056086909841 0 706.39056086909841 -203.20849664839625 0 0 0 0 -1036.4666596264724 -3.6109100031449088 0 -3.6109100031449088 -407.50620352831902 0 0 0 0 -1115.138010522387 721.33161727379775 0 721.33161727379775 -182.24989514557819 0 0 0 0 -678.32736557211319 578.87321036357025 0 578.87321036357025 -638.14454699138878 0 0 0 0 -197.96253462167806 456.67572932943585 0 456.67572932943585 -419.36565760661324 0 0 0 0 -550.38170329768036 264.46488393273103 0 264.46488393273103 -224.68656954236212 0 0 0 0 -974.07570896405377 512.55586560285155 0 512.55586560285155 -7.6865967677440494 0 0 0 0 -671.91358091541042 483.7868548598999 0 483.7868548598999 -83.454503484550514 0 0 0 0 -1179.098844825261 571.86406438200356 0 571.86406438200356 119.67852694331668 0 0 0 0 -3.5506046137995071 5.4594571513556431 0 5.4594571513556431 -7.5337291406900135 0 0 0 0 -653.21599610582416 445.06617557235586 0 445.06617557235586 316.45950041495962 0 0 0 0 -0.84375082137859181 2.9930322802964895 0 2.9930322802964895 -5.1392630692141665 0 0 0 0 -176.08530257828534 -109.85312207051902 0 -109.85312207051902 319.77503419602363 0 0 0 0 -113.12592269602465 400.21804606601654 0 400.21804606601654 152.00421231074142 0 0 0 0 -1279.2704454486084 413.13565357508924 0 413.13565357508924 -127.89689402654767 0 0 0 0 -1620.9892480674898 454.62481770045997 0 454.62481770045997 238.67178710165172 0 0 0 0 -10.559736712198287 9.5276748167681546 0 9.5276748167681546 7.8720988562726575 0 0 0 0 -2.0396380133097409 76.049284635628283 0 76.049284635628283 99.996240923584992 0 0 0 0 22.275685152722872 21.002976973322802 0 21.002976973322802 65.952169880452857 0 0 0 0 44.230035989727185 82.380513245829206 0 82.380513245829206 19.243342614994617 0 0 0 0 -650.15409041641487 331.97058270871503 0 331.97058270871503 89.983530938756303 0 0 0 0 -32.598345517327218 21.996478570477599 0 21.996478570477599 29.499212700048361 0 0 0 0 -114.50914307154744 479.38088068132492 0 479.38088068132492 -164.72250048407295 0 0 0 0 -470.18594198769279 1023.2812587593799 0 1023.2812587593799 -996.43296435860975 0 0 0 0 87.410874289700587 205.83335213145619 0 205.83335213145619 -278.87741129365895 0 0 0 0 -252.5959569339866 255.54543645693229 0 255.54543645693229 -122.44468299375148 0 0 0 0 -120.90095671313611 -65.362404132809388 0 -65.362404132809388 58.646053405638668 0 0 0 0 11.741877822698655 49.27026350692131 0 49.27026350692131 37.6399363871204 0 0 0 0 82.792094951446416 116.84940354280661 0 116.84940354280661 -735.28265313110023 0 0 0 0 -2287.2167566219941 -191.85446626994963 0 -191.85446626994963 638.87983246843214 0 0 0 0 -5.4381766255007875 18.058046830530976 0 18.058046830530976 -10.734453587578116 0 0 0 0 -620.09425838240713 -124.86715020859265 0 -124.86715020859265 97.319804484926863 0 0 0 0 51.688476658760919 206.47029759454017 0 206.47029759454017 -402.34323348125326 0 0 0 0 78.465410443677683 133.90994972760382 0 133.90994972760382 -216.0035635568056 0 0 0 0 -114.15301285043643 468.26576390439902 0 468.26576390439902 -291.36853566850186 0 0 0 0 -1057.2901357477967 276.10483766030666 0 276.10483766030666 179.74688312169746 0 0 0 0 -45.291074739448959 311.06662206308101 0 311.06662206308101 -11.920703856078035 0 0 0 0 -402.47945295656973 181.78728192023118 0 181.78728192023118 -216.75569032151543 0 0 0 0 -399.06296376192768 150.27997812212016 0 150.27997812212016 72.979942287638551 0 0 0 0 -607.05015102195466 236.35244949160551 0 236.35244949160551 -2819.8924649377295 0 0 0 0 -1907.049848597715 1311.1641462937696 0 1311.1641462937696 692.67294361328823 0 0 0 0 -1.5960439409700626 0.54935199846954674 0 0.54935199846954674 -11.277373225502515 0 0 0 0 -1103.6051481530594 301.7131274887397 0 301.7131274887397 -161.38806732291414 0 0 0 0 -2.069548440507873 -2.4694017253552545 0 -2.4694017253552545 -6.0959416235883737 0 0 0 0 -876.30083126210229 236.72751721979876 0 236.72751721979876 727.90995493883747 0 0 0 0 -640.02482079148649 -64.885593682192848 0 -64.885593682192848 65.803517604683293 0 0 0 0 -551.96628256063559 -60.201389373163693 0 -60.201389373163693 -126.90572190766761 0 0 0 0 -474.4077366842248 174.28611198518774 0 174.28611198518774 -48.169432046066504 0 0 0 0 -306.88708828880044 189.47990416474931 0 189.47990416474931 -629.86520316041424 0 0 0 0 -299.53754967305395 78.867979855268459 0 78.867979855268459 -367.34094294488023 0 0 0 0 -450.77679113760678 311.95525475883187 0 311.95525475883187 -492.09038473189867 0 0 0 0 -446.03422289519222 367.07617268370814 0 367.07617268370814 -85.330445625764696 0 0 0 0 -787.49557159011965 425.04054185548557 0 425.04054185548557 -110.84430211619474 0 0 0 0 -228.05351309987964 343.03835902190986 0 343.03835902190986 -175.30216452722379 0 0 0 0 -320.27616745255364 262.19122537991643 0 262.19122537991643 -159.87623778199486 0 0 0 0 -315.21734794078384 358.19677852656423 0 358.19677852656423 -169.66069332788175 0 0 0 0 -358.39260285276032 413.58029538514347 0 413.58029538514347 148.34343634955803 0 0 0 0 -530.19537016434333 425.41182299877983 0 425.41182299877983 -96.083069253945723 0 0 0 0 -587.8564478644621 424.38881986693013 0 424.38881986693013 33.724527766353276 0 0 0 0 -501.26697664757739 381.57797335697978 0 381.57797335697978 -29.682184408244211 0 0 0 0 -451.67758513490844 469.6415439158809 0 469.6415439158809 -65.964683009427972 0 0 0 0 -370.61693577829283 396.77011420643248 0 396.77011420643248 -10.023955308657605 0 0 0 0 -432.30633100882642 411.01510184779454 0 411.01510184779454 -32.477809174000868 0 0 0 0 -417.0003559187071 335.50783326434203 0 335.50783326434203 46.314763520400447 0 0 0 0 -583.32626478413295 329.72417009779747 0 329.72417009779747 64.417527300218353 0 0 0 0 -622.38294970276911 463.34115927167295 0 463.34115927167295 -3.8047655635891715 0 0 0 0 -694.05318266075483 68.843827862581747 0 68.843827862581747 -444.8188386343827 0 0 0 0 -791.52095468692278 513.43079511317774 0 513.43079511317774 -125.5625246215568 0 0 0 0 -256.64136656354094 423.79966090241942 0 423.79966090241942 -158.0477005151406 0 0 0 0 126.57088560301054 362.57647902632016 0 362.57647902632016 -854.0550786314634 0 0 0 0 -112.68923234115937 166.54981880282139 0 166.54981880282139 339.35653448837365 0 0 0 0 -215.23098197740728 330.84939698799644 0 330.84939698799644 -771.41557558672503 0 0 0 0 87.221504800894763 64.020100325062231 0 64.020100325062231 -561.12456753423612 0 0 0 0 -59.854400903663191 521.48998858045525 0 521.48998858045525 125.89930058582104 0 0 0 0 76.756399262732884 224.0239729725472 0 224.0239729725472 -0.466872991191849 0 0 0 0 -84.612746349564986 335.05650568213969 0 335.05650568213969 -174.76224077878578 0 0 0 0 -47.821653311810223 343.40612791654712 0 343.40612791654712 -847.14940969774034 0 0 0 0 25.311181563221908 390.84428012210265 0 390.84428012210265 -1008.5172174012987 0 0 0 0 0.50430794742538865 4.4449149413914597 0 4.4449149413914597 0.25918061029182127 0 0 0 0 -28.352771652840602 149.53679256976829 0 149.53679256976829 229.59236483481254 0 0 0 0 4.5959849767862408 2.0674539327084176 0 2.0674539327084176 3.2034282378182297 0 0 0 0 -87.45689667177794 -209.20741471192014 0 -209.20741471192014 146.82572175296082 0 0 0 0 199.54387965290516 22.09049218823202 0 22.09049218823202 -614.99621095941984 0 0 0 0 4.2885042413947758 3.9943202853613684 0 3.9943202853613684 0.29011559069825665 0 0 0 0 -150.24602912224509 -159.86671073255275 0 -159.86671073255275 187.59571806521853 0 0 0 0 -130.54748002918495 256.74534029068309 0 256.74534029068309 -72.554377940614359 0 0 0 0 198.10385044915893 -308.53555509651051 0 -308.53555509651051 -271.29783329709608 0 0 0 0 235.13103157449223 417.27115798932937 0 417.27115798932937 -168.95077779029089 0 0 0 0 2.0963372990721609 6.2055157402629106 0 6.2055157402629106 0.58411441026794364 0 0 0 0 -713.81228573119733 880.09626901744195 0 880.09626901744195 -642.72160702152178 0 0 0 0 -318.83473193353711 -384.90067309940059 0 -384.90067309940059 -90.621192407881608 0 0 0 0 406.27676021703519 359.5735672744413 0 359.5735672744413 -768.28271661755571 0 0 0 0 647.01283326352132 -473.54472436706419 0 -473.54472436706419 295.42858451438224 0 0 0 0 -82.757470998659301 41.42342111533253 0 41.42342111533253 -1138.6118370861223 0 0 0 0 -85.315210573011427 42.374780068159453 0 42.374780068159453 335.98201931254334 0 0 0 0 -340.85484240101141 1011.1884935685594 0 1011.1884935685594 -1563.0134626849613 0 0 0 0 -71.410122259083437 357.12477998623945 0 357.12477998623945 -434.09583655813185 0 0 0 0 -72.716372402312118 694.1186836874258 0 694.1186836874258 -731.13548703368724 0 0 0 0 -662.91687376126356 711.91351060278248 0 711.91351060278248 -195.08736981090624 0 0 0 0 -357.15055065145134 553.82254799862858 0 553.82254799862858 -122.23455328672571 0 0 0 0 -354.8030148699072 541.3685679179307 0 541.3685679179307 -68.206983138865326 0 0 0 0 15.258322764129844 -54.837663498576148 0 -54.837663498576148 -46.3323049210303 0 0 0 0 -396.87766101097122 -186.47932009555961 0 -186.47932009555961 92.900164621212753 0 0 0 0 -412.06697719937074 260.82290169135376 0 260.82290169135376 108.20673439902021 0 0 0 0 -422.63788125917199 293.60216500761453 0 293.60216500761453 53.083035987889161 0 0 0 0 -1082.2950327682775 378.24337310576811 0 378.24337310576811 100.29802623615251 0 0 0 0 -670.75365415869601 741.34714177299611 0 741.34714177299611 -302.60923883120995 0 0 0 0 -823.18077909039857 -74.940850196544488 0 -74.940850196544488 125.71686065234826 0 0 0 0 -1742.2417132985865 281.01859423476526 0 281.01859423476526 29.481623257277533 0 0 0 0 -1.646352745196964 8.6995546848451824 0 8.6995546848451824 -10.703808822456722 0 0 0 0 -1497.6424564071785 1132.0598583294923 0 1132.0598583294923 -468.62732291367138 0 0 0 0 516.57129115219118 32.448838843256937 0 32.448838843256937 -576.2470665279543 0 0 0 0 521.06257412201376 614.9838736405145 0 614.9838736405145 -1114.1605054430984 0 0 0 0 987.35938987084955 159.95971994048159 0 159.95971994048159 -700.66171230298642 0 0 0 0 376.5765979851567 271.26679385520401 0 271.26679385520401 -411.14602031878167 0 0 0 0 52.278204250949784 70.440177114287508 0 70.440177114287508 -444.28827146184631 0 0 0 0 345.67509998421883 76.37920417697751 0 76.37920417697751 -220.37805027230934 0 0 0 0 66.716152730266913 -7.0365895270078909 0 -7.0365895270078909 -108.31637317125569 0 0 0 0 523.95711679646047 404.09277402373846 0 404.09277402373846 73.989729532477213 0 0 0 0 277.48415750957793 139.1064813486737 0 139.1064813486737 3.5055182836658787 0 0 0 0 289.06770346125995 57.391400840577262 0 57.391400840577262 220.3070109768305 0 0 0 0 32.964217389540863 261.15515454440902 0 261.15515454440902 16.901298256358132 0 0 0 0 9.655534881298081 72.932554732862627 0 72.932554732862627 -111.56515054844203 0 0 0 0 1061.3451118529483 618.20732936513377 0 618.20732936513377 463.88694524875609 0 0 0 0 718.82633008535049 -65.565428244466602 0 -65.565428244466602 178.6912502485502 0 0 0 0 681.64251069776947 69.303160195166129 0 69.303160195166129 -277.64863582409453 0 0 0 0 627.86266331268416 374.39183084892284 0 374.39183084892284 -29.190415827382822 0 0 0 0 563.99718916325946 576.54034251855046 0 576.54034251855046 610.66976428594353 0 0 0 0 11.55456762105419 -0.74994804181546471 0 -0.74994804181546471 -24.636447164346919 0 0 0 0 -1.7922999407295022 14.524827632735892 0 14.524827632735892 -10.386078237295692 0 0 0 0 1110.9362316452462 719.12415541890368 0 719.12415541890368 -1.918047717641457 0 0 0 0 0.49399179628269962 6.9939513758445244 0 6.9939513758445244 -22.392388799064236 0 0 0 0 35.636546652858669 16.833890575995611 0 16.833890575995611 -2.5276730203186162 0 0 0 0 38.973779254505644 43.579153183447488 0 43.579153183447488 -32.19550762232393 0 0 0 0 1161.9591702586622 372.91604496832588 0 372.91604496832588 -190.24380242549523 0 0 0 0 66.849913932441268 133.7418455699808 0 133.7418455699808 -76.148547112592496 0 0 0 0 100.83110719299293 45.434418515200377 0 45.434418515200377 113.65649470625794 0 0 0 0 533.23955189873232 432.91980576906644 0 432.91980576906644 213.75795499997912 0 0 0 0 613.6436631368415 316.15153073630063 0 316.15153073630063 -59.256179854426591 0 0 0 0 -12.464748445752775 230.11937954029418 0 230.11937954029418 149.3714995935552 0 0 0 0 756.33405671689252 -31.127291985634656 0 -31.127291985634656 144.69503077382979 0 0 0 0 169.57987391927418 453.94678900301369 0 453.94678900301369 458.98689708355232 0 0 0 0 42.844292202352335 -1.9377944289608422 0 -1.9377944289608422 -20.823048845428275 0 0 0 0 109.72745389243937 483.94959383195965 0 483.94959383195965 -39.854327263688901 0 0 0 0 363.3401983342701 -51.394583605535445 0 -51.394583605535445 197.96765656056232 0 0 0 0 -20.827805617489503 357.29764809868357 0 357.29764809868357 161.71552044930377 0 0 0 0 -388.04817601072136 556.82058391418104 0 556.82058391418104 -199.09086203433981 0 0 0 0 -348.88669216386916 264.26412063750467 0 264.26412063750467 164.24619605203043 0 0 0 0 -317.08311565352415 440.28695447271093 0 440.28695447271093 48.414148933807155 0 0 0 0 -128.41971650111373 488.40412195520184 0 488.40412195520184 -38.611326255369931 0 0 0 0 -360.41105302462165 569.13432718495824 0 569.13432718495824 -74.534891390561825 0 0 0 0 -408.90088377869688 579.67869003043597 0 579.67869003043597 -53.485880703869043 0 0 0 0 252.69860410906222 223.19332448715022 0 223.19332448715022 -103.8013690445805 0 0 0 0 -115.43040712589573 402.47114466145285 0 402.47114466145285 -9.7718681206461042 0 0 0 0 -67.180969581702811 275.77318277587619 0 275.77318277587619 27.58819303335622 0 0 0 0 -514.29454549208458 241.37449774888228 0 241.37449774888228 -21.454560154626961 0 0 0 0 -515.39216971119458 528.08437151400722 0 528.08437151400722 -42.638085011116345 0 0 0 0 -893.80916748038726 513.52447770781873 0 513.52447770781873 41.248362291662488 0 0 0 0 -1207.3983388831239 172.52757823930551 0 172.52757823930551 74.422501845430816 0 0 0 0 536.7282869337887 525.40240581147282 0 525.40240581147282 158.30311744834762 0 0 0 0 -6.0143185622739495 18.667257649217973 0 18.667257649217973 -43.245132909106928 0 0 0 0 1431.5024296483534 405.46006918777857 0 405.46006918777857 112.50580467595137 0 0 0 0 444.00871907768487 912.80511596988936 0 912.80511596988936 692.7372788242501 0 0 0 0 -24.218104412278535 414.52035909009965 0 414.52035909009965 940.19178445343277 0 0 0 0 -8.3688245631637983 -32.655014695890713 0 -32.655014695890713 182.92057782108259 0 0 0 0 373.72429135718266 502.58725616719312 0 502.58725616719312 244.30841150261404 0 0 0 0 997.85875071982446 -77.909618500201759 0 -77.909618500201759 -180.28283964356524 0 0 0 0 7.4286598356702598 6.0280575777760816 0 6.0280575777760816 8.43486431143549 0 0 0 0 8.2207041403889889 142.60275145390915 0 142.60275145390915 64.704932953784009 0 0 0 0 2.2872566493351769 89.100817998627917 0 89.100817998627917 -96.51254554730258 0 0 0 0 13.483088583144081 28.270469690493144 0 28.270469690493144 -2.33360143562453 0 0 0 0 119.14770645450335 -36.20458015010081 0 -36.20458015010081 -38.636418415284425 0 0 0 0 1.10143406751763 21.736947698428679 0 21.736947698428679 -18.593575027484832 0 0 0 0 68.45172333993105 120.74200824776199 0 120.74200824776199 -64.485773287502525 0 0 0 0 -161.9721291441856 182.58409920424492 0 182.58409920424492 -179.0098745393625 0 0 0 0 -1.1241510653563722 28.654909029887875 0 28.654909029887875 -75.739302114091117 0 0 0 0 -125.67529108730378 231.49611911807006 0 231.49611911807006 -137.798507530395 0 0 0 0 -274.04007690877916 466.75927863417019 0 466.75927863417019 -318.50928672619921 0 0 0 0 66.885085453119245 263.81281038596353 0 263.81281038596353 -392.33201927359914 0 0 0 0 13.187122485294822 331.70295451757374 0 331.70295451757374 -264.87206377158873 0 0 0 0 -114.47455596740474 179.0715928318532 0 179.0715928318532 167.75327691248822 0 0 0 0 -97.965036359179066 221.64132149753277 0 221.64132149753277 175.25155412874301 0 0 0 0 -2009.0201106171589 1426.2059410402944 0 1426.2059410402944 -0.97753898322116584 0 0 0 0 490.83216948171776 -276.68422940650271 0 -276.68422940650271 9.7413349947310053 0 0 0 0 3.301082710482774 2.6382963318107784 0 2.6382963318107784 1.2843761146311294 0 0 0 0 -144.87525641025422 182.93277449803827 0 182.93277449803827 179.00959692901233 0 0 0 0 -56.991334579768591 206.56297990493476 0 206.56297990493476 178.1284852884055 0 0 0 0 -16.46256106212968 238.78637485808576 0 238.78637485808576 168.86570886532718 0 0 0 0 63.612595123449864 187.68942068871547 0 187.68942068871547 -149.32019115625735 0 0 0 0 -3.8856895334024131 42.115820215241996 0 42.115820215241996 -76.328475749195604 0 0 0 0 47.025369933837283 -105.9000859923417 0 -105.9000859923417 165.72597093164222 0 0 0 0 -147.25004802171406 167.20849389642899 0 167.20849389642899 178.44036896739271 0 0 0 0 3.0631899361324031 51.095397559831326 0 51.095397559831326 -13.592307383769366 0 0 0 0 169.74554554867791 -61.535306613179273 0 -61.535306613179273 -403.54584264360028 0 0 0 0 13.246106397460721 14.485504852812511 0 14.485504852812511 -8.3017080837720982 0 0 0 0 373.26727879860846 4.4700153472513193 0 4.4700153472513193 -405.05688212582027 0 0 0 0 2.7378395206718267 1.9984621181923501 0 1.9984621181923501 0.11319515026134752 0 0 0 0 151.85400455600757 -78.563667636553873 0 -78.563667636553873 -429.28274595933908 0 0 0 0 40.129818642424652 -112.5876128168893 0 -112.5876128168893 -406.75519705985062 0 0 0 0 -34.97470860495514 214.09528688473142 0 214.09528688473142 -122.68871391050925 0 0 0 0 249.39536929522001 44.141522059289855 0 44.141522059289855 -668.76885895699161 0 0 0 0 -2161.4296563984171 1730.6180319038067 0 1730.6180319038067 -509.61626182425243 0 0 0 0 -1.6303330595226342 1.1055191068312524 0 1.1055191068312524 -8.796829746782123 0 0 0 0 -3348.3727026874403 1131.0281303685042 0 1131.0281303685042 2.0039103922026698 0 0 0 0 -2083.8406066075258 888.7605401603214 0 888.7605401603214 44.484955690226343 0 0 0 0 -1358.8705793778317 1726.4273559786998 0 1726.4273559786998 -509.60841929986782 0 0 0 0 -551.82460001193613 1187.8647883836147 0 1187.8647883836147 -1675.1791005876439 0 0 0 0 -649.60154890898048 586.2569938052784 0 586.2569938052784 -503.22380728418648 0 0 0 0 -894.40309347282164 628.66865183164191 0 628.66865183164191 -487.7277684628425 0 0 0 0 -4.3560326366279369 13.208599337896999 0 13.208599337896999 -19.134718533817477 0 0 0 0 -21.007694328062485 32.697424063888349 0 32.697424063888349 8.4197918243055483 0 0 0 0 4.9251520616235211 68.351123656284472 0 68.351123656284472 -132.94364508989383 0 0 0 0 -39.461518802265346 54.316858833357401 0 54.316858833357401 -58.155263789485616 0 0 0 0 2.4177059189096326 29.163852954596223 0 29.163852954596223 -38.138222723711806 0 0 0 0 181.39723355383467 404.17862690072616 0 404.17862690072616 294.87135396630765 0 0 0 0 -984.38439415553876 1997.5365762911169 0 1997.5365762911169 -2581.8017009650939 0 0 0 0 -9.9470202533840961 25.139203351378512 0 25.139203351378512 14.519284252474804 0 0 0 0 -1824.0842940397561 2241.017437025137 0 2241.017437025137 -110.60430098736833 0 0 0 0 -2.7164632491652014 12.432822216281693 0 12.432822216281693 4.2951327193608222 0 0 0 0 -1325.4585496934342 1897.5683132111162 0 1897.5683132111162 -1674.619131634252 0 0 0 0 -1350.5981365224798 1925.8009713394677 0 1925.8009713394677 -1677.8182967433386 0 0 0 0 -1315.6836471748829 1992.4407272802564 0 1992.4407272802564 -919.6750176445712 0 0 0 0 3.1469840361569368 2539.3841456703503 0 2539.3841456703503 -2057.3932007171243 0 0 0 0 -1242.1824994993658 2858.2960872545191 0 2858.2960872545191 -608.70215418790758 0 0 0 0 -1148.9015772475395 2586.9546786245046 0 2586.9546786245046 -1550.2521337056751 0 0 0 0 -688.71086004738027 2926.2290668055648 0 2926.2290668055648 -4833.6904984078137 0 0 0 0 -2.5440503727877513 1888.3695377383519 0 1888.3695377383519 -1133.8575425342206 0 0 0 0 -435.45404499295182 1460.0966706704694 0 1460.0966706704694 -1424.045738360961 0 0 0 0 -816.39024974813947 2772.8299005086747 0 2772.8299005086747 360.76736351623549 0 0 0 0 -121.48029884143034 720.14073321877731 0 720.14073321877731 2609.1239116678989 0 0 0 0 -121.62973864257219 695.80073508899295 0 695.80073508899295 28.694739458653203 0 0 0 0 1204.6963941541908 1055.8102649700886 0 1055.8102649700886 82.720301086814288 0 0 0 0 836.80773225131998 997.9749496975619 0 997.9749496975619 573.57559290574864 0 0 0 0 834.01391179990605 880.62247295305133 0 880.62247295305133 -986.72375720885611 0 0 0 0 548.1666678005422 149.87249005578633 0 149.87249005578633 -130.70502359772217 0 0 0 0 621.97953284437972 293.19867838399296 0 293.19867838399296 83.198201491017244 0 0 0 0 724.89582331430574 67.119326079591701 0 67.119326079591701 575.75676822287119 0 0 0 0 553.05091624222405 481.45088022618438 0 481.45088022618438 150.65214369313981 0 0 0 0 956.70480688335374 143.0411507986646 0 143.0411507986646 -4.7538878823961568 0 0 0 0 -1.3746240741995308 13.142883799257092 0 13.142883799257092 -41.160084390500629 0 0 0 0 728.32993293826439 39.730193427662016 0 39.730193427662016 180.60296857116919 0 0 0 0 1700.0762178522127 984.41438138152444 0 984.41438138152444 -852.26976483350882 0 0 0 0 -43.825975753286912 134.90453197577517 0 134.90453197577517 373.25282076321309 0 0 0 0 -2.6196194615380222 1230.6714269012657 0 1230.6714269012657 -589.09138021388208 0 0 0 0 -215.6326633914432 709.65953282806731 0 709.65953282806731 -1537.3483424078195 0 0 0 0 -635.69974983291468 1813.1509631271183 0 1813.1509631271183 -1124.2053137413495 0 0 0 0 -2.1156422302331777 6.8146690909660919 0 6.8146690909660919 -15.606948008330789 0 0 0 0 -1126.5385110406496 1427.9580242183874 0 1427.9580242183874 241.90112878161017 0 0 0 0 363.11963534887332 -84.86149153158658 0 -84.86149153158658 117.4652428215195 0 0 0 0 436.16190188100427 299.60074296332459 0 299.60074296332459 188.33612013906532 0 0 0 0 -6.5918310467358578 14.644827861401538 0 14.644827861401538 -30.817699756742741 0 0 0 0 1.3603250556085116 2.9286362370818111 0 2.9286362370818111 0.19808350244989015 0 0 0 0 -1221.7566733810047 457.92254658635284 0 457.92254658635284 82.422141131319222 0 0 0 0 1601.9586123937875 -4.1544085749264923 0 -4.1544085749264923 -287.75863223886699 0 0 0 0 -327.46112783129377 474.13742744373303 0 474.13742744373303 -138.676085332816 0 0 0 0 -93.234930515577503 199.56688343540009 0 199.56688343540009 67.086109054231201 0 0 0 0 415.71662743402436 211.25580360954427 0 211.25580360954427 -51.003767781105125 0 0 0 0 275.73323289050131 144.23520201617794 0 144.23520201617794 37.271514696789382 0 0 0 0 480.57170411257357 175.01372740433726 0 175.01372740433726 -0.9469710096163908 0 0 0 0 248.08515915334829 163.40856265695038 0 163.40856265695038 52.951424833940109 0 0 0 0 26.658336215524287 138.46991294766849 0 138.46991294766849 6.2452908723935252 0 0 0 0 24.18057250127822 144.09750297776191 0 144.09750297776191 87.93977405302212 0 0 0 0 192.76881286981734 75.391644924988213 0 75.391644924988213 28.389202605132596 0 0 0 0 -48.570083345294279 201.02646386276319 0 201.02646386276319 -101.2545247925591 0 0 0 0 -67.894139865843499 182.54349925923088 0 182.54349925923088 72.330757584873936 0 0 0 0 -194.4624449732944 365.83140872480908 0 365.83140872480908 -7.8269527745869709 0 0 0 0 -227.66474453656156 362.53378176048864 0 362.53378176048864 9.3089683843718376 0 0 0 0 -234.7109401077787 252.13690111700271 0 252.13690111700271 152.60190572813735 0 0 0 0 -113.85970335271622 244.72487811784413 0 244.72487811784413 -53.31561685174529 0 0 0 0 -231.20674527873416 30.955073611388798 0 30.955073611388798 511.32978142764478 0 0 0 0 2.7284047557077429 293.97917727165986 0 293.97917727165986 -1013.9859702860704 0 0 0 0 -99.771548880205955 630.43928183300886 0 630.43928183300886 -1017.8868595715612 0 0 0 0 -402.80288963751809 492.33982031866617 0 492.33982031866617 322.34324648732581 0 0 0 0 -295.09197242180039 709.85531813695161 0 709.85531813695161 -145.44671349499549 0 0 0 0 -136.08672302793639 229.55299091252527 0 229.55299091252527 -147.80704062355653 0 0 0 0 -84.237394043576387 142.26697555634382 0 142.26697555634382 -95.88907765429758 0 0 0 0 -321.50272488481278 -131.62973673177476 0 -131.62973673177476 515.97549660169898 0 0 0 0 -17.750496546163959 201.97304133870784 0 201.97304133870784 188.29891931443126 0 0 0 0 -6.2812558987877978 1.7547493323559991 0 1.7547493323559991 -0.58700061844138673 0 0 0 0 179.31259824110566 -184.56549317292229 0 -184.56549317292229 441.70994875194447 0 0 0 0 504.53075156125396 126.23094896678958 0 126.23094896678958 -69.41708284845663 0 0 0 0 422.34306610402393 43.362040371182957 0 43.362040371182957 152.17276351861074 0 0 0 0 393.36190051845688 -24.722791911008244 0 -24.722791911008244 122.02872623372241 0 0 0 0 -5.7567727657463914 11.599588680753456 0 11.599588680753456 -18.823896773928993 0 0 0 0 540.10864163855285 -111.10894222486968 0 -111.10894222486968 70.575604113866575 0 0 0 0 978.64735345061354 27.489379735074181 0 27.489379735074181 8.8849215638183523 0 0 0 0 4.0071934874542894 9.3682705061414566 0 9.3682705061414566 0.049733466967779805 0 0 0 0 -886.84954795311626 235.02331008546753 0 235.02331008546753 -1.7891300877963658 0 0 0 0 115.55376149141125 33.215493538140436 0 33.215493538140436 -139.08299945481849 0 0 0 0 -343.21611898291508 234.27723790370692 0 234.27723790370692 89.328161986486521 0 0 0 0 -359.79923028695407 166.21605181245104 0 166.21605181245104 -179.6127323398905 0 0 0 0 -702.47024090170964 21.777608288510237 0 21.777608288510237 -34.101664276618976 0 0 0 0 7.610327933008989 -31.213595936544152 0 -31.213595936544152 48.864010821234842 0 0 0 0 26.53766295341245 -39.890570729723549 0 -39.890570729723549 34.784804445749614 0 0 0 0 11.866122919588634 -1.5364615243015578 0 -1.5364615243015578 81.047985643286665 0 0 0 0 13.854006896775331 0.12277055382674007 0 0.12277055382674007 -0.63851949914533179 0 0 0 0 48.809917346947437 37.271710394699312 0 37.271710394699312 -20.820586596397334 0 0 0 0 158.6742059591993 55.850546138313803 0 55.850546138313803 17.163335810277204 0 0 0 0 -0.25417775566448986 -1.5985574564103135 0 -1.5985574564103135 3.2573245812885716 0 0 0 0 58.093453658044837 54.258563054885599 0 54.258563054885599 24.362241106153306 0 0 0 0 45.381010676337155 3.4773219112394145 0 3.4773219112394145 22.595638281069114 0 0 0 0 -9.0011662109976669 42.580496356586082 0 42.580496356586082 4.6672472929058131 0 0 0 0 41.326477549161169 33.057163822507846 0 33.057163822507846 -2.3676767192955595 0 0 0 0 41.448455342992929 42.420416871202178 0 42.420416871202178 -22.607794457144337 0 0 0 0 -361.11478576753944 -10.991245674376842 0 -10.991245674376842 24.823803343177133 0 0 0 0 -302.64829450972388 175.80814829518204 0 175.80814829518204 -125.94460399662785 0 0 0 0 -192.20645364787151 -83.756779981638829 0 -83.756779981638829 93.118022437691593 0 0 0 0 94.092641036097319 -32.274259080448928 0 -32.274259080448928 -48.850234625002486 0 0 0 0 -127.25116796899329 -29.977500861481531 0 -29.977500861481531 47.623035770506249 0 0 0 0 -12.754554840393666 -12.264601080118155 0 -12.264601080118155 50.322870806900028 0 0 0 0 -46.296945383112075 61.415049768947938 0 61.415049768947938 58.256797061061661 0 0 0 0 -115.92597320039592 85.263369284359214 0 85.263369284359214 51.406602214279701 0 0 0 0 25.019749152554908 66.880401483987953 0 66.880401483987953 58.470630243653432 0 0 0 0 23.108732571960786 65.951784596589277 0 65.951784596589277 71.621476055675885 0 0 0 0 26.861663868399091 59.758116384284222 0 59.758116384284222 62.049349061140674 0 0 0 0 -66.558108749143912 61.248332971539639 0 61.248332971539639 78.359443165783887 0 0 0 0 29.572813636295905 14.05330923863221 0 14.05330923863221 48.711758574383566 0 0 0 0 9.9405241623426264 26.297961573596695 0 26.297961573596695 -2.0105359904555371 0 0 0 0 21.627105965345436 31.166101406916738 0 31.166101406916738 3.4649575137435136 0 0 0 0 90.301588969243312 20.469437940038915 0 20.469437940038915 -75.911532558988256 0 0 0 0 13.071080853828065 29.014091465199726 0 29.014091465199726 16.998256885047478 0 0 0 0 5.8405014500240213 23.062072205451841 0 23.062072205451841 47.326181705924682 0 0 0 0 -23.758316537347127 22.243226190563291 0 22.243226190563291 -19.114502806361998 0 0 0 0 21.746157402660174 44.229927948290424 0 44.229927948290424 -42.837286591660813 0 0 0 0 9.5956193434373898 35.718003496354171 0 35.718003496354171 12.014028450769541 0 0 0 0 2.4476074703129598 22.306295500136912 0 22.306295500136912 14.025719081138959 0 0 0 0 29.279080582810082 62.416458711719315 0 62.416458711719315 49.548701960768085 0 0 0 0 91.188765457740374 149.40904569833947 0 149.40904569833947 -48.05039477356695 0 0 0 0 31.963193074363208 42.549311050340293 0 42.549311050340293 9.2793576955255475 0 0 0 0 15.904298618068424 70.101547576428857 0 70.101547576428857 -65.407211875950452 0 0 0 0 21.809833707241296 33.126816004050852 0 33.126816004050852 -38.622514267743099 0 0 0 0 23.413177581030567 45.642163261273708 0 45.642163261273708 -12.630214514181716 0 0 0 0 30.746872380113487 20.28301085921386 0 20.28301085921386 -7.5103923709089315 0 0 0 0 24.915642613724753 21.66830646850579 0 21.66830646850579 11.040404205973147 0 0 0 0 43.422881910982142 48.208694010892941 0 48.208694010892941 -34.609221117279958 0 0 0 0 47.081608039996354 47.582879181718454 0 47.582879181718454 -34.656055576328072 0 0 0 0 9.8261568504531169 39.394611798648839 0 39.394611798648839 -34.216067804562044 0 0 0 0 4.089403366417681 5.0493766286242625 0 5.0493766286242625 11.136893915118151 0 0 0 0 102.78408611700729 46.661409888394701 0 46.661409888394701 -17.439424897180288 0 0 0 0 25.745813467772123 33.928494891731134 0 33.928494891731134 23.471847668814007 0 0 0 0 75.982761688068422 23.262022103928757 0 23.262022103928757 -10.041187913811882 0 0 0 0 5.8625395458468841 13.514505354481168 0 13.514505354481168 0.78365122531374709 0 0 0 0 50.955551831149478 63.57677902445721 0 63.57677902445721 -7.9744733179104514 0 0 0 0 15.502456292953866 51.785974168597022 0 51.785974168597022 8.0695262576336972 0 0 0 0 14.842393422574833 37.351596571429184 0 37.351596571429184 19.217330951212091 0 0 0 0 17.23464621000312 52.900661877938546 0 52.900661877938546 5.6283002819109242 0 0 0 0 29.017193048534011 53.844377031145477 0 53.844377031145477 6.9865102620347557 0 0 0 0 11.801203040959081 53.115884254395496 0 53.115884254395496 8.1410931324353442 0 0 0 0 -12.960310035499788 113.00218658242466 0 113.00218658242466 78.118453811490326 0 0 0 0 -27.583102917393262 72.514027507932042 0 72.514027507932042 214.65372510673478 0 0 0 0 6.4353459602735459 21.778914591353473 0 21.778914591353473 -7.2819025677975446 0 0 0 0 15.545383758440039 -14.43152802968325 0 -14.43152802968325 -71.874442863714648 0 0 0 0 -0.58135702007164269 2.227706814725309 0 2.227706814725309 -4.2911152499324601 0 0 0 0 -117.62392546063529 54.321469626163889 0 54.321469626163889 -1.8051802162153763 0 0 0 0 -5.469729493939667 12.55841433207388 0 12.55841433207388 17.839284961679368 0 0 0 0 -23.019283857890073 11.331155916275677 0 11.331155916275677 21.161806182392013 0 0 0 0 28.261916009181888 83.387730278191995 0 83.387730278191995 14.700733739138968 0 0 0 0 20.931890866592493 30.126987189466348 0 30.126987189466348 22.560754896743887 0 0 0 0 -3.2691939809652411 54.589758678200894 0 54.589758678200894 39.768184093749852 0 0 0 0 18.83901094950852 51.890478409273783 0 51.890478409273783 7.9248942227422958 0 0 0 0 -13.849869376485913 54.067106902574778 0 54.067106902574778 -16.777408949914388 0 0 0 0 -2.8275881048134579 60.863146818043788 0 60.863146818043788 -35.853995231736917 0 0 0 0 30.679508536988482 67.964930725834009 0 67.964930725834009 9.6302255288379115 0 0 0 0 54.911912347164481 59.935558122714447 0 59.935558122714447 -15.315202027372948 0 0 0 0 15.882451640358219 36.496695271703572 0 36.496695271703572 1.1774957020585646 0 0 0 0 -5.8953002325507953 27.161099451459563 0 27.161099451459563 38.722424092849096 0 0 0 0 -33.258220012755373 22.879660001922275 0 22.879660001922275 14.023982232669368 0 0 0 0 2.402027060839373 42.464039918922936 0 42.464039918922936 -16.020954891224392 0 0 0 0 23.314559790866042 46.29299419655581 0 46.29299419655581 11.788458005117718 0 0 0 0 22.311817336980312 51.130877669900656 0 51.130877669900656 5.93362058015191 0 0 0 0 16.11126788503293 51.069199732482957 0 51.069199732482957 9.6261887543951161 0 0 0 0 44.57465396289642 43.456877310642483 0 43.456877310642483 -6.6765449969284987 0 0 0 0 33.187729915895034 64.741231392938062 0 64.741231392938062 -81.641194500785787 0 0 0 0 47.182285224156658 105.85328313668651 0 105.85328313668651 71.372687263075932 0 0 0 0 32.703252724525569 17.734731524247167 0 17.734731524247167 -8.8425764132535107 0 0 0 0 11.366145377716748 68.658330582926283 0 68.658330582926283 -63.186431269306922 0 0 0 0 88.455631308403099 68.219146845804062 0 68.219146845804062 103.27804941113936 0 0 0 0 48.223806009293185 107.46852408933228 0 107.46852408933228 65.619371460899856 0 0 0 0 -197.96101676946364 -42.481567329119571 0 -42.481567329119571 107.16903921592166 0 0 0 0 0.47906374714999456 3.5773019095054828 0 3.5773019095054828 1.977367905438399 0 0 0 0 26.664250025896763 -52.425151298903074 0 -52.425151298903074 26.553979564108886 0 0 0 0 64.77167137629192 114.44631697495333 0 114.44631697495333 231.76791002161917 0 0 0 0 3.1377452415889913 53.838150988261596 0 53.838150988261596 70.246151679983669 0 0 0 0 -87.882372419638159 -153.22571774888274 0 -153.22571774888274 129.5365433782863 0 0 0 0 -89.786948334641238 203.01459976868864 0 203.01459976868864 130.75674792066275 0 0 0 0 -4.3164830441099422 45.908261453414084 0 45.908261453414084 51.359603288503394 0 0 0 0 -40.251557417890581 81.16902893812221 0 81.16902893812221 82.586594360407616 0 0 0 0 45.555661205209617 103.47638418105453 0 103.47638418105453 60.498127777558693 0 0 0 0 -33.657890732099986 27.92655895448479 0 27.92655895448479 137.30737184308236 0 0 0 0 -33.234678354621792 91.397016071150574 0 91.397016071150574 452.19249421154382 0 0 0 0 554.39717997804019 371.2524780215208 0 371.2524780215208 -134.5870603525691 0 0 0 0 -30.165678268987847 28.770002398190236 0 28.770002398190236 63.545872787466436 0 0 0 0 409.09784378605696 86.734608764025324 0 86.734608764025324 1485.9746372142981 0 0 0 0 209.7701720360601 86.132216293830425 0 86.132216293830425 -35.554903861710045 0 0 0 0 41.343046954933016 109.80102099777287 0 109.80102099777287 290.3725084362668 0 0 0 0 106.03956702290452 -19.411007235146826 0 -19.411007235146826 -17.712780086101702 0 0 0 0 3.5513691789173478 0.64121625376829172 0 0.64121625376829172 -2.3952465443258291 0 0 0 0 56.159837823564885 179.7989712666822 0 179.7989712666822 272.53919210927597 0 0 0 0 147.0584729665261 204.85363381803472 0 204.85363381803472 54.410475815027894 0 0 0 0 70.648242778119311 91.179803709466796 0 91.179803709466796 136.22412073197484 0 0 0 0 75.457013617866323 160.88950744352042 0 160.88950744352042 142.91201233361789 0 0 0 0 107.23860685634099 29.681013878005615 0 29.681013878005615 -52.902744593811803 0 0 0 0 356.52956992095369 124.14565832981316 0 124.14565832981316 -23.696364966963301 0 0 0 0 307.84404675691377 -36.605710328804889 0 -36.605710328804889 -303.00501223970787 0 0 0 0 -84.223724346107247 464.14911398756522 0 464.14911398756522 -335.72415058552224 0 0 0 0 -215.17315952795889 184.60232570090011 0 184.60232570090011 -156.01610106375665 0 0 0 0 39.64128056419213 -188.8753851122201 0 -188.8753851122201 -124.06159899212071 0 0 0 0 -72.879297069659515 -102.89085328361762 0 -102.89085328361762 329.26743286286364 0 0 0 0 103.82652252150001 192.73994469094032 0 192.73994469094032 494.16847600916662 0 0 0 0 -14.396547590501541 37.76157693019195 0 37.76157693019195 303.29509177368891 0 0 0 0 14.107451526905834 10.032377694625438 0 10.032377694625438 7.0410216370900685 0 0 0 0 500.77479685337659 230.68481517943655 0 230.68481517943655 -325.09710851345153 0 0 0 0 -37.765550245712802 35.820910856607952 0 35.820910856607952 785.76201282910188 0 0 0 0 32.842441428192615 273.1227289699018 0 273.1227289699018 452.24757008520828 0 0 0 0 -90.492016273525223 488.13340252643684 0 488.13340252643684 1013.1729936460906 0 0 0 0 76.153354248534924 0.9085561702522682 0 0.9085561702522682 79.316835989098763 0 0 0 0 243.78909609272722 3114.803078830636 0 3114.803078830636 -147.29123889288167 0 0 0 0 -8.9943953899335849 13.147621653349347 0 13.147621653349347 19.214033219715873 0 0 0 0 681.65912559822209 264.99536541478301 0 264.99536541478301 52.781013309845548 0 0 0 0 10.259193159635206 47.092982164363789 0 47.092982164363789 34.1099753702822 0 0 0 0 638.9821317647511 112.06045174051542 0 112.06045174051542 -108.16598868760047 0 0 0 0 -0.024437243490609717 11.81057643436651 0 11.81057643436651 -4.0267411664186854 0 0 0 0 523.30172336062333 319.75261251812481 0 319.75261251812481 98.040396204742137 0 0 0 0 445.32625017966893 73.813333513971884 0 73.813333513971884 -20.83615842810832 0 0 0 0 615.08777485899077 492.66010543498669 0 492.66010543498669 386.57889616073226 0 0 0 0 216.64396441982899 246.24407427031838 0 246.24407427031838 299.41139651854564 0 0 0 0 216.99534639298872 247.52128283341881 0 247.52128283341881 236.50067237808253 0 0 0 0 91.352781144012624 123.02938897615968 0 123.02938897615968 178.47916239213373 0 0 0 0 302.74958559996412 182.479787744036 0 182.479787744036 54.804407167204772 0 0 0 0 222.07081353210469 209.79133535760775 0 209.79133535760775 154.96113632856577 0 0 0 0 120.21013683672754 140.27465224760817 0 140.27465224760817 109.07382524118293 0 0 0 0 262.03524939179351 149.93885519146352 0 149.93885519146352 44.99125471158186 0 0 0 0 349.59824668591318 161.66922302230523 0 161.66922302230523 32.49893155398604 0 0 0 0 272.06952680525319 170.85985225445984 0 170.85985225445984 51.191153559164377 0 0 0 0 343.43112051680873 119.4921136732155 0 119.4921136732155 20.578970197791932 0 0 0 0 -4.9738715572791179 22.160218671348012 0 22.160218671348012 -35.702761205763125 0 0 0 0 110.0694803095771 178.67181891972723 0 178.67181891972723 43.346272920127376 0 0 0 0 351.53894372957257 239.03361035363923 0 239.03361035363923 89.191673437353529 0 0 0 0 -89.54405708994409 122.68249095238207 0 122.68249095238207 91.470672586234286 0 0 0 0 9.5833134204876842 78.83775381941814 0 78.83775381941814 -15.579033037407498 0 0 0 0 21.200083170765083 117.04619496106534 0 117.04619496106534 106.67338901612675 0 0 0 0 121.69193692386762 120.87125006867427 0 120.87125006867427 82.62185617643263 0 0 0 0 2.4450966972399328 64.980766020555166 0 64.980766020555166 131.46607466576825 0 0 0 0 95.011142187432597 119.75737051879514 0 119.75737051879514 153.35349255420442 0 0 0 0 -64.283714868025527 62.87024958598704 0 62.87024958598704 85.819944147646311 0 0 0 0 -47.046370654001294 59.052160113911668 0 59.052160113911668 147.72741123840751 0 0 0 0 -19.590573636548015 108.78293222413595 0 108.78293222413595 124.64243584657379 0 0 0 0 -70.259616966806561 114.3618265739351 0 114.3618265739351 153.3199946537643 0 0 0 0 -64.413497079882291 143.71311547207006 0 143.71311547207006 136.80566523472953 0 0 0 0 36.977612170538123 71.23655678088835 0 71.23655678088835 89.675733600073727 0 0 0 0 13.352390343804927 128.4466811295315 0 128.4466811295315 67.354797573003452 0 0 0 0 48.710851817048024 17.325727502146037 0 17.325727502146037 163.7217061863048 0 0 0 0 41.733573227867964 19.320545382193814 0 19.320545382193814 181.96422739165064 0 0 0 0 20.739963872433691 65.671757549825998 0 65.671757549825998 95.876878227179986 0 0 0 0 98.973114160018667 -50.462191202386748 0 -50.462191202386748 141.54475270122202 0 0 0 0 147.21407190851824 230.19066044414649 0 230.19066044414649 -58.282461318871356 0 0 0 0 115.51938627656637 338.4178986488696 0 338.4178986488696 481.57760702760424 0 0 0 0 158.36344144850409 -23.743597384440363 0 -23.743597384440363 -114.43064128316473 0 0 0 0 187.10383064863754 107.33571098145421 0 107.33571098145421 72.282945612969343 0 0 0 0 34.820841666696417 28.059128999181041 0 28.059128999181041 20.936042229521547 0 0 0 0 -34.985857416744693 86.314630541106453 0 86.314630541106453 113.51204234504257 0 0 0 0 4.6025398058081919 64.008428730434389 0 64.008428730434389 70.74229505090625 0 0 0 0 21.259493939449385 118.63365363448247 0 118.63365363448247 179.90643422740686 0 0 0 0 -26.614881662735229 43.167272704863535 0 43.167272704863535 118.5920261098363 0 0 0 0 -72.870797236143517 62.748973231231503 0 62.748973231231503 56.2136327840999 0 0 0 0 -26.618256528458261 42.495376716182136 0 42.495376716182136 4.4886779742664658 0 0 0 0 -32.207351347940858 99.138211975459853 0 99.138211975459853 0.52561781248368789 0 0 0 0 -107.91475232184257 122.18481671786503 0 122.18481671786503 -11.076050078117987 0 0 0 0 -86.773733726184219 194.7082149639391 0 194.7082149639391 28.377904942568421 0 0 0 0 -117.35304171643384 223.0487681361119 0 223.0487681361119 178.1171952636505 0 0 0 0 -216.33549740800208 460.40522465118556 0 460.40522465118556 -336.57580820872681 0 0 0 0 -0.62727649922506146 2.4326235431525447 0 2.4326235431525447 2.5819327730923192 0 0 0 0 -101.03851966078764 108.58015370579233 0 108.58015370579233 -173.01138708635699 0 0 0 0 -61.047874272918307 172.01805770190731 0 172.01805770190731 -114.41529257778893 0 0 0 0 -32.375579483666115 93.977285565819329 0 93.977285565819329 -63.373645820262027 0 0 0 0 9.518692371643283 219.90918657990733 0 219.90918657990733 -104.42948674643412 0 0 0 0 -244.54234243606788 256.63765859272826 0 256.63765859272826 -99.115083165579563 0 0 0 0 -210.76441299857015 285.10113706611446 0 285.10113706611446 -121.59657917900768 0 0 0 0 -531.52831591462746 121.57141257807234 0 121.57141257807234 -95.961054402432637 0 0 0 0 -9.4694772279781319 197.79938479574048 0 197.79938479574048 -88.897495414406876 0 0 0 0 2.1648938227369854 3.8947159329153749 0 3.8947159329153749 4.9664829423559809 0 0 0 0 -58.942127501473806 -23.408404769274057 0 -23.408404769274057 307.50404389164032 0 0 0 0 -141.08683181478682 164.34128805215005 0 164.34128805215005 224.39620888348145 0 0 0 0 22.283820911809016 66.68758431457718 0 66.68758431457718 144.80492495612998 0 0 0 0 -62.143528884797774 -218.82570913452309 0 -218.82570913452309 744.05574614900979 0 0 0 0 57.566981132934416 81.743567187826557 0 81.743567187826557 -99.760020074512795 0 0 0 0 -69.291688655860526 194.70801847282564 0 194.70801847282564 -45.811414484880515 0 0 0 0 16.046568621003189 120.05851239189724 0 120.05851239189724 -137.95517667409149 0 0 0 0 5.1941687515254671 200.81412147083029 0 200.81412147083029 -171.95442291023937 0 0 0 0 -144.61635902094531 -3.1473984529075096 0 -3.1473984529075096 -117.2513456998131 0 0 0 0 -404.33481441130971 191.64812294018338 0 191.64812294018338 82.807891349504644 0 0 0 0 -177.37354853439086 134.17167768670151 0 134.17167768670151 242.32715327241749 0 0 0 0 -173.33785245069976 77.892591036739759 0 77.892591036739759 157.43332542272401 0 0 0 0 -33.25694776873388 142.76530106212158 0 142.76530106212158 89.115834962534791 0 0 0 0 -210.5076582721058 248.63419962728221 0 248.63419962728221 466.59026013807306 0 0 0 0 434.9303779362308 186.33240462885442 0 186.33240462885442 21.373772782710148 0 0 0 0 -2.0602054544608706 0.42573181094154222 0 0.42573181094154222 -1.2352981219173671 0 0 0 0 282.3936384408953 212.68291952336585 0 212.68291952336585 87.533180268670549 0 0 0 0 302.25880949082784 113.49366204536636 0 113.49366204536636 49.805319870894891 0 0 0 0 133.14914259941725 191.16522901704593 0 191.16522901704593 35.853519205033081 0 0 0 0 127.02633766125655 104.12622117763385 0 104.12622117763385 49.453125481915777 0 0 0 0 138.97297676643939 168.38306844767794 0 168.38306844767794 118.38640695293725 0 0 0 0 13.758372131801515 54.598781957874735 0 54.598781957874735 43.660367723007596 0 0 0 0 7.6422017226905155 103.81112238350761 0 103.81112238350761 40.001886564990855 0 0 0 0 -30.628080676138069 56.213249750531716 0 56.213249750531716 19.929362824740338 0 0 0 0 119.74165463099052 190.92869646773761 0 190.92869646773761 85.928006954622106 0 0 0 0 140.32046949123833 171.00204193269019 0 171.00204193269019 90.203664917862625 0 0 0 0 107.85956880054437 140.98488276530406 0 140.98488276530406 35.026960517603584 0 0 0 0 34.933058676016088 92.438914572506505 0 92.438914572506505 47.347298946854892 0 0 0 0 -12.185874983417193 80.255234245064457 0 80.255234245064457 43.341768640885519 0 0 0 0 -15.162517492426559 62.324090273570619 0 62.324090273570619 12.194175983924652 0 0 0 0 41.044680018483746 93.94098973090081 0 93.94098973090081 29.696243295280908 0 0 0 0 -56.169984631793341 6.9124715580692282 0 6.9124715580692282 62.774672774074133 0 0 0 0 -193.20989655004814 -118.33616508476553 0 -118.33616508476553 107.12607570139517 0 0 0 0 -5.0864396050251521 18.366896266523838 0 18.366896266523838 3.2867016929216959 0 0 0 0 -180.82859952650688 91.555180405179271 0 91.555180405179271 144.18683494019206 0 0 0 0 -153.73783879415987 -168.7568376650197 0 -168.7568376650197 -75.456070850195829 0 0 0 0 -174.61057530727703 98.951576235849643 0 98.951576235849643 -130.34162429446587 0 0 0 0 -12.929620443335352 44.194687349681772 0 44.194687349681772 19.457383960165316 0 0 0 0 -150.57830799592375 76.883668726288306 0 76.883668726288306 108.17974658596358 0 0 0 0 -140.48819960697074 193.11935119504778 0 193.11935119504778 107.31102549484785 0 0 0 0 32.302957327868931 48.81458982275926 0 48.81458982275926 37.820045741920637 0 0 0 0 -44.634446118716369 89.033625516209213 0 89.033625516209213 41.254166195125435 0 0 0 0 -21.690712199670088 45.477302304905606 0 45.477302304905606 38.400259938806357 0 0 0 0 -4.0671212673914852 52.314200223598164 0 52.314200223598164 40.716888162040391 0 0 0 0 -52.799869778871681 32.880637512512017 0 32.880637512512017 26.191329567662365 0 0 0 0 38.036797827176997 104.06147088574107 0 104.06147088574107 54.024323189427378 0 0 0 0 -0.40099340086817392 48.284632782910194 0 48.284632782910194 58.75807595810511 0 0 0 0 -38.332296517655777 74.493376845384773 0 74.493376845384773 144.04350294480901 0 0 0 0 76.70387484197272 239.48933976489934 0 239.48933976489934 87.349866418243323 0 0 0 0 -139.0032135497604 46.516582088741416 0 46.516582088741416 138.28817606656958 0 0 0 0 -16.577389364210831 83.424742577881261 0 83.424742577881261 41.661187305209751 0 0 0 0 -70.000534326420166 60.975008940033149 0 60.975008940033149 60.672213202662533 0 0 0 0 -45.654926536238747 29.427838875215478 0 29.427838875215478 47.248112547989535 0 0 0 0 -4.8272024630077794 47.691733484039617 0 47.691733484039617 19.263207323343778 0 0 0 0 29.328058264700303 78.453242583758765 0 78.453242583758765 66.615890080029203 0 0 0 0 4.019897317091818 29.840849271487969 0 29.840849271487969 73.201406627071265 0 0 0 0 -5.3001510270962058 38.576687121170266 0 38.576687121170266 15.212757693326566 0 0 0 0 -17.246901566806628 53.99629146582447 0 53.99629146582447 31.758580384543166 0 0 0 0 2.410548305204756 6.8588942653417178 0 6.8588942653417178 4.5053247622275876 0 0 0 0 4.992232992350182 33.928835131744563 0 33.928835131744563 87.889414053315704 0 0 0 0 -2.03002820700749 56.104515774113679 0 56.104515774113679 23.309499835886527 0 0 0 0 -41.532319697247658 65.891284205838019 0 65.891284205838019 29.869549847018789 0 0 0 0 23.411022860053546 47.886986489943162 0 47.886986489943162 30.406508718906593 0 0 0 0 -14.383348964845936 52.73245547987608 0 52.73245547987608 17.514237230934668 0 0 0 0 29.435435717092332 54.619156325483345 0 54.619156325483345 37.101039379878785 0 0 0 0 7.1484030392245757 44.168669262918584 0 44.168669262918584 6.4607574931926592 0 0 0 0 7.3310263516032137 30.322464367491193 0 30.322464367491193 85.373996847847593 0 0 0 0 52.100013003553613 56.847467230400071 0 56.847467230400071 45.96533651597565 0 0 0 0 11.371328481764252 32.546601194396601 0 32.546601194396601 22.008494369587936 0 0 0 0 19.082883450973142 43.079543381107896 0 43.079543381107896 7.76272448798737 0 0 0 0 -15.43247029200252 14.415732720366357 0 14.415732720366357 58.860588857016239 0 0 0 0 -3.6266023581847548 39.053240072331391 0 39.053240072331391 62.070051268019597 0 0 0 0 86.952957689903542 97.52481375858406 0 97.52481375858406 67.554056783759734 0 0 0 0 4.0359276212443973 3.8483465215519175 0 3.8483465215519175 0.72564633918733534 0 0 0 0 65.402602170988757 83.662206321430858 0 83.662206321430858 87.424194303734112 0 0 0 0 85.590336208471854 74.532189256085076 0 74.532189256085076 50.197491542843636 0 0 0 0 58.856370935704035 90.689854629163165 0 90.689854629163165 64.554267961531878 0 0 0 0 59.772397077711503 72.272564565544599 0 72.272564565544599 66.713304096803768 0 0 0 0 82.034196505352156 56.300729692004097 0 56.300729692004097 73.457555716813658 0 0 0 0 48.198858066934918 74.071905120632437 0 74.071905120632437 65.706994606545777 0 0 0 0 -166.30389486857894 18.507172495112172 0 18.507172495112172 -4.8314684364922869 0 0 0 0 3.0954848396385728 -1.1894379535792865 0 -1.1894379535792865 -4.3839099295189499 0 0 0 0 142.56679409135177 137.5593200337571 0 137.5593200337571 39.999846941427677 0 0 0 0 6.1956949241102848 8.187712708437175 0 8.187712708437175 50.398756567534292 0 0 0 0 20.805681085803371 6.1306350623563048 0 6.1306350623563048 -9.7410154577664798 0 0 0 0 -93.753357037094247 32.882506296882639 0 32.882506296882639 86.397359031390806 0 0 0 0 1.4782781990004707 2.611450297179772 0 2.611450297179772 -2.8231938307285418 0 0 0 0 -80.609098034285125 99.020518981538771 0 99.020518981538771 -17.83045245471294 0 0 0 0 -157.06428744828008 98.931354405649472 0 98.931354405649472 50.166209109549527 0 0 0 0 -103.16172431180894 111.34356082931481 0 111.34356082931481 8.6115507806971436 0 0 0 0 20.220627324459201 69.820929973429884 0 69.820929973429884 0.4259616413837648 0 0 0 0 -90.538963268263615 48.931896808746387 0 48.931896808746387 39.066388401406584 0 0 0 0 -22.478905766074604 66.356621530940174 0 66.356621530940174 54.081876586285944 0 0 0 0 -60.874321753537515 124.63587351646856 0 124.63587351646856 -31.615311939298408 0 0 0 0 2.5357293902766003 -2.1862690829395603 0 -2.1862690829395603 -0.57432265053622444 0 0 0 0 -6.6037781729783092 78.899682437986485 0 78.899682437986485 -70.071813228889368 0 0 0 0 -38.065544038993721 299.2043331135792 0 299.2043331135792 54.75205858641857 0 0 0 0 -192.20432360620362 268.21219807206217 0 268.21219807206217 55.544947469483304 0 0 0 0 -65.579842514958727 279.28124047978781 0 279.28124047978781 -282.61422087037499 0 0 0 0 -428.63601205065424 450.64761693980472 0 450.64761693980472 -47.504018554172944 0 0 0 0 -4.5558765466638782 0.69882519568004398 0 0.69882519568004398 -1.1094949231213889 0 0 0 0 -175.46097983023765 108.95548637376851 0 108.95548637376851 172.74439193098806 0 0 0 0 12.153297002083946 257.79392781790011 0 257.79392781790011 -531.29432864231785 0 0 0 0 -107.70205175574483 139.65177943421804 0 139.65177943421804 -6.7442614969331771 0 0 0 0 14.309424866043639 8.5422599127545098 0 8.5422599127545098 1.729087408611889 0 0 0 0 -92.698003551736065 77.966841305338676 0 77.966841305338676 16.202386674616719 0 0 0 0 82.722526276611461 -8.7010265414864989 0 -8.7010265414864989 24.730196081459326 0 0 0 0 -11.101467004096776 69.297439338755794 0 69.297439338755794 122.99607289631967 0 0 0 0 31.311843388652051 53.673105739660969 0 53.673105739660969 27.352341421908932 0 0 0 0 2.3975100177288624 37.516981571939738 0 37.516981571939738 28.006398534224218 0 0 0 0 12.182517978595826 41.483956747910668 0 41.483956747910668 27.868673540042323 0 0 0 0 31.458700479664401 52.10846849160572 0 52.10846849160572 24.075664596929684 0 0 0 0 47.602882282156315 77.22929996464336 0 77.22929996464336 62.881163498590467 0 0 0 0 12.163309908202791 40.591018256411189 0 40.591018256411189 15.084278119305964 0 0 0 0 23.941669670989356 36.258031994205822 0 36.258031994205822 22.18530809974402 0 0 0 0 -4.6820992107764958 13.218982159696324 0 13.218982159696324 6.9733170164172833 0 0 0 0 52.355743351888123 -34.37054220995924 0 -34.37054220995924 43.437133166640706 0 0 0 0 -0.3898334685678293 12.095308468047591 0 12.095308468047591 18.299234068442651 0 0 0 0 -28.744976967594994 81.78620756878081 0 81.78620756878081 -25.571330098995531 0 0 0 0 3.0150542636811224 120.91392164148419 0 120.91392164148419 48.87543363966688 0 0 0 0 -67.524933791976764 67.471896392991766 0 67.471896392991766 143.21215428930373 0 0 0 0 0.51332775431637856 48.411345055759739 0 48.411345055759739 58.377545989918872 0 0 0 0 30.882224136736117 51.536391636593308 0 51.536391636593308 68.285187204420026 0 0 0 0 27.917413793365995 92.556272152371093 0 92.556272152371093 65.271058213300421 0 0 0 0 55.839914502206739 81.629006170540379 0 81.629006170540379 52.712936970579904 0 0 0 0 47.029445138796291 75.940749622415751 0 75.940749622415751 64.441242704269825 0 0 0 0 -13.215304676527012 62.932085653192189 0 62.932085653192189 82.174231695913477 0 0 0 0 47.488798756050528 88.045494870413677 0 88.045494870413677 92.470971872658993 0 0 0 0 -22.243845259155023 115.1540537272449 0 115.1540537272449 66.351374163364198 0 0 0 0 19.767403343493697 46.561587410248791 0 46.561587410248791 57.219891525683124 0 0 0 0 -21.133695499194431 21.216313075961978 0 21.216313075961978 8.4504742087358622 0 0 0 0 53.74738532467336 67.71183007883883 0 67.71183007883883 -51.86014986698865 0 0 0 0 16.960449073709242 8.3334617583313957 0 8.3334617583313957 -68.73907071154099 0 0 0 0 53.221571089020472 147.3904082007648 0 147.3904082007648 70.582737361852196 0 0 0 0 -22.081035769055688 51.160492449842423 0 51.160492449842423 346.82333259058942 0 0 0 0 -116.62764297097783 148.41785619487928 0 148.41785619487928 185.23205601999507 0 0 0 0 -105.12185630220347 251.4281429833427 0 251.4281429833427 431.46192161575527 0 0 0 0 -17.751542896687511 3.8074883193906714 0 3.8074883193906714 -2.1507772576709954 0 0 0 0 -9.207796707356465 81.400271626458562 0 81.400271626458562 -224.28330588540848 0 0 0 0 77.303458635240816 107.9876795484015 0 107.9876795484015 5.865448487282265 0 0 0 0 79.990023893445098 137.6985072048742 0 137.6985072048742 -7.5256349253904773 0 0 0 0 105.35277096524624 114.73183087387224 0 114.73183087387224 -99.734559161755897 0 0 0 0 68.756623070165972 159.71274698124034 0 159.71274698124034 101.15695535065606 0 0 0 0 50.073131782529117 96.84332973392884 0 96.84332973392884 33.760097612990648 0 0 0 0 29.125859935745162 49.524429919523755 0 49.524429919523755 20.237301401047432 0 0 0 0 58.923452333950991 35.067950487184135 0 35.067950487184135 -14.426869040034944 0 0 0 0 7.351957035067926 17.276652860671845 0 17.276652860671845 7.5551578005592575 0 0 0 0 23.9765404096579 61.183420481756912 0 61.183420481756912 26.896654326890712 0 0 0 0 -9.6167043380337418 66.022302803532511 0 66.022302803532511 3.4352315362157242 0 0 0 0 23.851700983768751 83.704179332158674 0 83.704179332158674 -68.552277242641139 0 0 0 0 21.671363136846097 46.026292011795164 0 46.026292011795164 38.063454516340556 0 0 0 0 22.771608275211292 115.00103696513543 0 115.00103696513543 -94.795455154788215 0 0 0 0 -52.821635901585978 -13.130451902310597 0 -13.130451902310597 100.89293917015311 0 0 0 0 -5.8846630388834456 129.3343119301644 0 129.3343119301644 -33.969200964609627 0 0 0 0 17.489168239698387 54.428725639706755 0 54.428725639706755 43.449698270503546 0 0 0 0 35.537244404073135 56.806349740472797 0 56.806349740472797 44.160517756055924 0 0 0 0 59.594228886671772 78.48243547079619 0 78.48243547079619 44.503495863747958 0 0 0 0 35.848163136281073 74.989179492979019 0 74.989179492979019 57.164140275708633 0 0 0 0 233.23950936186588 174.15404125700297 0 174.15404125700297 -145.99527579876303 0 0 0 0 45.421950126012142 70.607348704315598 0 70.607348704315598 40.472273829172138 0 0 0 0 88.107022289508279 187.63861699368863 0 187.63861699368863 74.744426720077172 0 0 0 0 -27.350003376877417 26.038778920518737 0 26.038778920518737 16.749356642308385 0 0 0 0 360.161715852464 4.2692525723905419 0 4.2692525723905419 -36.671506074286299 0 0 0 0 128.32542905752712 4.1407702917786082 0 4.1407702917786082 -35.335653793328675 0 0 0 0 36.061439363107638 -36.992134105181322 0 -36.992134105181322 155.738075888803 0 0 0 0 -27.057964160440861 57.598670832405332 0 57.598670832405332 225.82754329680756 0 0 0 0 14.497111273770006 -1.8647630320859605 0 -1.8647630320859605 -9.7457026956902553 0 0 0 0 -13.294436133086492 197.51827924774261 0 197.51827924774261 212.22735611273674 0 0 0 0 252.34836063059663 -35.387839978007833 0 -35.387839978007833 -148.03795383926627 0 0 0 0 36.791685990164254 40.880650026626213 0 40.880650026626213 -13.765901216654129 0 0 0 0 64.807136474695142 16.719116021165974 0 16.719116021165974 140.32764505733212 0 0 0 0 -31.754143143110923 52.110247360664289 0 52.110247360664289 -16.845130936097121 0 0 0 0 15.376796697957474 44.960240390664836 0 44.960240390664836 38.809370628267004 0 0 0 0 -64.220912582728488 56.126238016619027 0 56.126238016619027 77.741515094814531 0 0 0 0 -30.122601755530923 61.445590548566543 0 61.445590548566543 -16.634750564851856 0 0 0 0 25.077214494725922 102.47316169621627 0 102.47316169621627 -108.11041578918957 0 0 0 0 15.411270454671467 97.87669181083038 0 97.87669181083038 48.58249523925042 0 0 0 0 16.424467137035521 47.02058755445799 0 47.02058755445799 39.482976949848535 0 0 0 0 23.083944077716296 154.65855234367336 0 154.65855234367336 -27.343004758753523 0 0 0 0 -43.195701582129914 115.60654959661042 0 115.60654959661042 4.8928965718805557 0 0 0 0 22.831841749917658 161.11966199316521 0 161.11966199316521 35.852118413702556 0 0 0 0 57.035027997394536 70.15086052953302 0 70.15086052953302 61.55688911715697 0 0 0 0 41.468593836125365 52.648684857394983 0 52.648684857394983 -41.786370211804751 0 0 0 0 -9.5297364293401188 127.04174887097906 0 127.04174887097906 16.902030851917516 0 0 0 0 59.132794360964908 42.384995992128097 0 42.384995992128097 -79.107169432041701 0 0 0 0 -487.78600387102415 106.60451628267037 0 106.60451628267037 60.872823415244056 0 0 0 0 0.47788773123715345 -1.4247965713186943 0 -1.4247965713186943 -1.3898850184832554 0 0 0 0 371.52164301291486 201.00152944456204 0 201.00152944456204 -83.017418039489712 0 0 0 0 88.171516070047801 229.74953046046721 0 229.74953046046721 35.407658085401636 0 0 0 0 -77.173712670530222 167.27876170430682 0 167.27876170430682 12.275640905092587 0 0 0 0 -78.910559572068451 191.91120774795127 0 191.91120774795127 -42.875605609398917 0 0 0 0 -53.873194978768879 224.85867258468352 0 224.85867258468352 3.4264728885755176 0 0 0 0 64.420624163797584 123.28242637250423 0 123.28242637250423 -37.346432746591745 0 0 0 0 -114.85737768928084 180.65704828201706 0 180.65704828201706 19.894677577132825 0 0 0 0 -181.86786553826096 319.0340667020937 0 319.0340667020937 -114.03006789092615 0 0 0 0 -90.493239621227985 172.73556051158084 0 172.73556051158084 -69.976203638492734 0 0 0 0 -277.63757713876475 280.08918772363359 0 280.08918772363359 31.316222244873643 0 0 0 0 -312.37390275204234 397.74297493154154 0 397.74297493154154 -91.919442647020333 0 0 0 0 -320.20413567833384 325.34840636410627 0 325.34840636410627 6.5516499376681168 0 0 0 0 -191.59258155667339 318.53187544123648 0 318.53187544123648 -22.841557839099551 0 0 0 0 -107.44890775208842 138.23598712279636 0 138.23598712279636 82.26912227855064 0 0 0 0 -192.30083378490235 117.19402497013652 0 117.19402497013652 50.072800973866833 0 0 0 0 -318.38767820735666 348.60968681048689 0 348.60968681048689 -38.191786739786039 0 0 0 0 -149.27958032343304 207.81296864772594 0 207.81296864772594 22.637564691583975 0 0 0 0 -319.23724266755016 186.75328295474901 0 186.75328295474901 58.963427811075235 0 0 0 0 -87.85551505046169 178.08999593196495 0 178.08999593196495 -14.595495229645167 0 0 0 0 -235.61965648053592 102.15202978629168 0 102.15202978629168 199.16440449461516 0 0 0 0 -0.28497191731122484 0.27573719673366526 0 0.27573719673366526 -2.6406260488998328 0 0 0 0 159.99048623143608 51.179295734073094 0 51.179295734073094 9.9879737809678772 0 0 0 0 -120.92610266643896 -44.535955818580987 0 -44.535955818580987 -3.2304192581650568 0 0 0 0 -121.3718770324358 143.21552439984589 0 143.21552439984589 -11.937212513759732 0 0 0 0 -234.57844563036451 76.289115101819334 0 76.289115101819334 205.65664026980812 0 0 0 0 39.900808321879595 4.3572325790955801 0 4.3572325790955801 107.52520105995063 0 0 0 0 -60.221226026995282 98.63550306201796 0 98.63550306201796 0.1940120705330628 0 0 0 0 4.526806742662302 45.678669226035709 0 45.678669226035709 -215.41565283652744 0 0 0 0 0.38326174709510497 3.3027072202386591 0 3.3027072202386591 -3.2927033621253656 0 0 0 0 -81.500909067268367 179.98792394385964 0 179.98792394385964 -88.56592956687382 0 0 0 0 -0.12687215291920495 -1.0056304519256685 0 -1.0056304519256685 -2.0970298779110976 0 0 0 0 188.9621900491984 -32.808178471481369 0 -32.808178471481369 -314.91905601476901 0 0 0 0 -257.842763381228 111.04459147064335 0 111.04459147064335 200.57332742615836 0 0 0 0 -494.69869904412189 415.29568916887365 0 415.29568916887365 -0.13929714468715196 0 0 0 0 -840.83971866928368 103.10671338296015 0 103.10671338296015 49.771958499506582 0 0 0 0 -614.2266723744433 377.75782309893839 0 377.75782309893839 10.162567960927845 0 0 0 0 -422.61695412474364 425.40615856898512 0 425.40615856898512 -17.655488504360619 0 0 0 0 -405.60501091650076 334.74747774469142 0 334.74747774469142 -22.243243235439877 0 0 0 0 16.951858305148562 33.626862203178462 0 33.626862203178462 19.216671409027185 0 0 0 0 28.483816472362378 24.980437306330714 0 24.980437306330714 -4.6610253585531609 0 0 0 0 7.8765378210303751 0.65272263178341916 0 0.65272263178341916 2.4908362718288117 0 0 0 0 188.19255330078522 1.1723852359609737 0 1.1723852359609737 -51.049661618162645 0 0 0 0 81.484041421993751 16.340868602409813 0 16.340868602409813 -13.167756011158673 0 0 0 0 91.740824400432757 21.794187211315148 0 21.794187211315148 -1.880793685617391 0 0 0 0 2.2211209804544296 14.471752181871949 0 14.471752181871949 -2.0920250603221007 0 0 0 0 70.357473449097597 106.52171344407543 0 106.52171344407543 73.194690706179244 0 0 0 0 78.871891095324827 68.320776858672616 0 68.320776858672616 33.700855646224227 0 0 0 0 3.8661318185854725 164.46702699198067 0 164.46702699198067 169.30538262998743 0 0 0 0 -3.7872013130810984 4.6734380871731105 0 4.6734380871731105 -4.7666316476991142 0 0 0 0 7.7340783099243708 32.497989897754451 0 32.497989897754451 -20.002441180680762 0 0 0 0 4.4116634129386512 16.967963729199255 0 16.967963729199255 5.3442901526577771 0 0 0 0 7.6197248211356055 44.110722170989902 0 44.110722170989902 -8.8211336727399612 0 0 0 0 9.2186793028276952 11.576378263513107 0 11.576378263513107 -40.852737702633021 0 0 0 0 -35.966474176646443 98.215894394881616 0 98.215894394881616 -75.557793617408606 0 0 0 0 -11.54801647090062 37.080861628390267 0 37.080861628390267 -0.10746699320588959 0 0 0 0 22.414149982616436 12.859538911146956 0 12.859538911146956 -16.217378256056691 0 0 0 0 -7.8193928449454688 29.855052379887638 0 29.855052379887638 -21.74811919649801 0 0 0 0 -2.980764484349077 -2.2975377761748206 0 -2.2975377761748206 3.1049366856584015 0 0 0 0 -23.576835385763843 28.248743980984727 0 28.248743980984727 -5.7700359900773037 0 0 0 0 110.44586162417067 98.352402028629513 0 98.352402028629513 -29.542074265933479 0 0 0 0 -37.730286248984157 72.837126845428429 0 72.837126845428429 -0.049703909593517892 0 0 0 0 91.853372217750803 112.696148685347 0 112.696148685347 2.9156289533581972 0 0 0 0 327.31844582194663 -60.440106797304907 0 -60.440106797304907 -35.921909792363294 0 0 0 0 -68.242219577297874 108.1236642043441 0 108.1236642043441 -20.75015817633539 0 0 0 0 23.102718387832329 19.349207550095286 0 19.349207550095286 15.730133019510731 0 0 0 0 127.86054319008417 65.334873904139386 0 65.334873904139386 -184.80612391885916 0 0 0 0 -41.601121245316563 161.61923057078002 0 161.61923057078002 -67.379480599614908 0 0 0 0 148.9142348548794 97.238684919539082 0 97.238684919539082 -192.30409479390073 0 0 0 0 -23.364031276776529 255.24770922208882 0 255.24770922208882 -155.19736622682831 0 0 0 0 37.049486272948059 32.335818307069871 0 32.335818307069871 27.573222178243014 0 0 0 0 -17.178744716475194 148.74227436624642 0 148.74227436624642 -121.53959857222799 0 0 0 0 9.446643860860604 206.69486032233544 0 206.69486032233544 -3.5080218828079524 0 0 0 0 124.33470667450183 119.09529264667071 0 119.09529264667071 -81.068459586545941 0 0 0 0 156.84651358726387 185.48711310884391 0 185.48711310884391 49.037908423619228 0 0 0 0 94.886791507171438 12.88728796461146 0 12.88728796461146 -44.480753909985651 0 0 0 0 113.39299269937328 41.505960103204416 0 41.505960103204416 -0.50726162945647957 0 0 0 0 42.046346985498531 173.70848661651689 0 173.70848661651689 -83.694528630443529 0 0 0 0 -122.3227135537087 159.0932743947069 0 159.0932743947069 -8.5583986232813913 0 0 0 0 -92.548208926098596 157.7442462912295 0 157.7442462912295 -66.564351963228546 0 0 0 0 99.451844573963172 88.318025358792511 0 88.318025358792511 -83.646290764507285 0 0 0 0 54.737380249683476 43.395966904486954 0 43.395966904486954 31.32317506114174 0 0 0 0 9.7587343019193735 10.299088794917111 0 10.299088794917111 3.044611019327931 0 0 0 0 56.009856508754638 49.378214550175471 0 49.378214550175471 -34.970458714553388 0 0 0 0 -119.02150188433473 115.31042071259253 0 115.31042071259253 14.88614155864343 0 0 0 0 -210.69625303567454 105.60646702416125 0 105.60646702416125 114.6294312748214 0 0 0 0 -106.17255188388435 61.806786408938933 0 61.806786408938933 88.358764059317764 0 0 0 0 -18.188902681156151 37.413899415972992 0 37.413899415972992 78.379174902889645 0 0 0 0 -60.466795704047854 124.45103419234511 0 124.45103419234511 -7.2635499913594685 0 0 0 0 -7.6720540691399037 190.91072560255998 0 190.91072560255998 76.226374040736118 0 0 0 0 72.670585314557684 260.67336254290421 0 260.67336254290421 -13.693764987998293 0 0 0 0 -282.65088897235637 378.4284873177603 0 378.4284873177603 -46.73424095431983 0 0 0 0 -125.40808268483443 175.62987662030355 0 175.62987662030355 39.072522005735664 0 0 0 0 -132.58524401206432 158.17206056993746 0 158.17206056993746 0.93203502811957151 0 0 0 0 -158.89193332362447 236.32525127604822 0 236.32525127604822 23.860715934686596 0 0 0 0 -220.22518981219878 167.31978377744781 0 167.31978377744781 38.669299614528427 0 0 0 0 -5.717684961940904 203.97453367942217 0 203.97453367942217 3.20138726013829 0 0 0 0 149.9444216636175 158.92354137553048 0 158.92354137553048 -28.746547275120975 0 0 0 0 2.4190723706968242 130.6086259985882 0 130.6086259985882 25.422502571484074 0 0 0 0 253.91910749871704 6.9361952682120318 0 6.9361952682120318 31.064413361193147 0 0 0 0 311.00403213893264 108.54008761676232 0 108.54008761676232 -75.237116496587987 0 0 0 0 344.61721509988547 155.64230575331749 0 155.64230575331749 -113.19968153684749 0 0 0 0 49.012567973313708 153.40207770939742 0 153.40207770939742 -18.345862158930686 0 0 0 0 312.07831518535659 33.383715518270037 0 33.383715518270037 -56.347030257598817 0 0 0 0 630.30945034460638 -97.566310180496657 0 -97.566310180496657 -3.3289391070429701 0 0 0 0 456.83399201523525 116.44563499692595 0 116.44563499692595 -105.65139025393 0 0 0 0 345.34609776500838 -9.8206622036668705 0 -9.8206622036668705 84.853870968226147 0 0 0 0 301.23688277132987 190.0938976995385 0 190.0938976995385 18.728105883063108 0 0 0 0 -637.0800380600167 56.994315590563929 0 56.994315590563929 404.23235172971908 0 0 0 0 178.40866012408082 35.491363241973886 0 35.491363241973886 -161.37558203190565 0 0 0 0 -3.4713917489878447 5.0101565525481888 0 5.0101565525481888 -5.7207690376473579 0 0 0 0 -474.31051931570619 410.882081853204 0 410.882081853204 100.31649837188888 0 0 0 0 -437.32724233051658 -38.296604847833805 0 -38.296604847833805 -77.543611738292384 0 0 0 0 75.206728730711092 247.93523745869413 0 247.93523745869413 -495.66069761148538 0 0 0 0 168.5921919889671 302.66742502197667 0 302.66742502197667 -291.73584837750241 0 0 0 0 -49.980824826394837 195.78271636625141 0 195.78271636625141 15.367591651405746 0 0 0 0 153.97188436540739 60.178107555511815 0 60.178107555511815 36.597592813050142 0 0 0 0 269.16732651478998 251.78293263282103 0 251.78293263282103 141.38410158982151 0 0 0 0 121.76155390430733 160.47490172503967 0 160.47490172503967 97.952895198599435 0 0 0 0 -5.8058021569173661 5.8436350285119261 0 5.8436350285119261 -28.127514294305001 0 0 0 0 -308.46607944934112 116.91303587130096 0 116.91303587130096 -5.5232336649169156 0 0 0 0 -752.78665593448181 174.12097928904404 0 174.12097928904404 22.320411911307019 0 0 0 0 5.946184394032116 14.184185074363 0 14.184185074363 0.32455092399050045 0 0 0 0 -288.77297389893397 129.94080126067638 0 129.94080126067638 -118.03920539538376 0 0 0 0 -342.72003818487201 189.19465187539026 0 189.19465187539026 -98.487851703412161 0 0 0 0 -335.48833792000045 83.745702465837212 0 83.745702465837212 108.6020682616072 0 0 0 0 457.92116573216572 6.4685552746086614 0 6.4685552746086614 -90.953724162944127 0 0 0 0 -762.61180385706302 178.76212536399544 0 178.76212536399544 85.173497903007956 0 0 0 0 6.5502218922579445 17.226246413733151 0 17.226246413733151 1.009940305183477 0 0 0 0 13.261897978215694 22.266329268779664 0 22.266329268779664 -1.7400325435489776 0 0 0 0 110.21655876557816 127.11510465624815 0 127.11510465624815 61.836652714206139 0 0 0 0 -549.62501734075386 310.95778754418279 0 310.95778754418279 50.64403899753961 0 0 0 0 321.47763755728647 40.630987581833324 0 40.630987581833324 -60.853011145103665 0 0 0 0 -354.28591898075513 163.07511057237934 0 163.07511057237934 57.380702895199647 0 0 0 0 -374.22951556364796 246.69591509183374 0 246.69591509183374 -121.92095922872977 0 0 0 0 -120.41179075135597 381.31302308934391 0 381.31302308934391 -32.585329899462522 0 0 0 0 -147.03284617523474 185.39293012524649 0 185.39293012524649 192.17703071371943 0 0 0 0 395.59093761508399 273.50522932823515 0 273.50522932823515 -40.189152314495004 0 0 0 0 4.9999566924773831 58.812034440667048 0 58.812034440667048 88.075902066600975 0 0 0 0 -189.23230568900999 290.16647128596378 0 290.16647128596378 43.227485882613109 0 0 0 0 -43.588012074037124 159.2112322528701 0 159.2112322528701 -41.204186155315256 0 0 0 0 214.12282115815492 253.5422621539692 0 253.5422621539692 111.18033570752232 0 0 0 0 284.53087431464712 170.76681958535482 0 170.76681958535482 194.0072902834363 0 0 0 0 0.58623531534864104 -0.17103679080535983 0 -0.17103679080535983 1.101863398651119 0 0 0 0 488.76473385472866 570.79495656245308 0 570.79495656245308 339.32642317008867 0 0 0 0 472.57236832750255 211.11798330450256 0 211.11798330450256 139.6350169375437 0 0 0 0 76.170230023736849 398.67384263551503 0 398.67384263551503 -37.224852253282734 0 0 0 0 -111.91901683190599 122.25459311728628 0 122.25459311728628 11.837907638997422 0 0 0 0 224.1544460667476 552.45155087000603 0 552.45155087000603 -341.82655656007955 0 0 0 0 -200.9699262152244 152.02628924900637 0 152.02628924900637 -247.88911797075707 0 0 0 0 264.45285012602045 199.18937506587463 0 199.18937506587463 -76.044687205736409 0 0 0 0 -141.52389782005821 431.7579454727238 0 431.7579454727238 71.281960105203325 0 0 0 0 342.60468464355472 -31.456261007464491 0 -31.456261007464491 -62.029865498552681 0 0 0 0 -1.2192032634725187 4.7365843864515966 0 4.7365843864515966 -5.2243174046336947 0 0 0 0 -358.63380116373764 200.2441280527928 0 200.2441280527928 -139.59703495775466 0 0 0 0 -345.08252606298538 421.07577768432384 0 421.07577768432384 -150.8120562628792 0 0 0 0 25.163697987174707 31.465271160632824 0 31.465271160632824 21.37764599978442 0 0 0 0 166.06491520596501 65.078264257703268 0 65.078264257703268 -168.97106045648979 0 0 0 0 5.128185377896239 -1.3824493991537281 0 -1.3824493991537281 -34.677330910717217 0 0 0 0 7.4503655256758066 133.99454628276362 0 133.99454628276362 -168.39469315264432 0 0 0 0 76.36607355574688 52.511740804751753 0 52.511740804751753 -74.967221958153459 0 0 0 0 126.90166876117246 74.439572518266687 0 74.439572518266687 -268.18631065091176 0 0 0 0 -56.358459912181388 34.9397581535668 0 34.9397581535668 110.49112560114008 0 0 0 0 370.95756542537947 -51.223446852080087 0 -51.223446852080087 -152.79627670304035 0 0 0 0 81.326283272997898 2348.6361630530319 0 2348.6361630530319 -6.6273915629717521 0 0 0 0 -1.2537954024425471 -1.8758952505915687 0 -1.8758952505915687 -10.521050959661977 0 0 0 0 -42.68527213420748 -172.03665121659287 0 -172.03665121659287 13.636012721093721 0 0 0 0 6.8415868907507971 6.3854360243755934 0 6.3854360243755934 5.9402250919600874 0 0 0 0 -535.1990951885673 200.28689261910586 0 200.28689261910586 265.65975138149224 0 0 0 0 -4.0541731722490706 5.4364785068334953 0 5.4364785068334953 -8.8481086531959363 0 0 0 0 219.74426319847848 666.10591143481588 0 666.10591143481588 133.59510672008037 0 0 0 0 -684.53324749601575 722.6460777395987 0 722.6460777395987 791.64442538566072 0 0 0 0 16.915171589986826 16.324147744638353 0 16.324147744638353 15.13339062095227 0 0 0 0 32.863551359308985 231.91056160150765 0 231.91056160150765 -204.2367369657004 0 0 0 0 100.49620632271171 153.00026190483186 0 153.00026190483186 0.38657044625142589 0 0 0 0 -117.69002085315378 23.372927359348978 0 23.372927359348978 -21.571467873975052 0 0 0 0 -46.55574602535826 304.23220444412891 0 304.23220444412891 53.472243151045404 0 0 0 0 3.7763028379299612 5.1862031068760075 0 5.1862031068760075 5.2965727180982185 0 0 0 0 -1052.2786242122706 -972.11575082532363 0 -972.11575082532363 -1477.601482931932 0 0 0 0 1163.6810021297492 82.944424733519554 0 82.944424733519554 -1676.7151290578477 0 0 0 0 590.83444968620324 203.61621688721061 0 203.61621688721061 -0.047462581453146413 0 0 0 0 200.17793635030603 495.9180193445136 0 495.9180193445136 500.6058005058876 0 0 0 0 849.31750163630261 902.60538942260246 0 902.60538942260246 -469.22613554805866 0 0 0 0 -32.671780987421016 -31.107559708827466 0 -31.107559708827466 -692.87206791363678 0 0 0 0 186.95443216085414 -780.56692124695837 0 -780.56692124695837 -1422.287189788447 0 0 0 0 133.41599352894832 262.81603221031401 0 262.81603221031401 -173.83845762340934 0 0 0 0 -102.00463599379873 387.35478341180715 0 387.35478341180715 -218.77751340343093 0 0 0 0 -117.94635839745297 570.85672354308917 0 570.85672354308917 0.53311265811498743 0 0 0 0 204.75721911280812 536.59434576864624 0 536.59434576864624 -155.88001612004882 0 0 0 0 -533.38895960458103 283.52169659460924 0 283.52169659460924 62.513329281893675 0 0 0 0 1.4788269214817582 0.072222738425182342 0 0.072222738425182342 -4.2695550716567254 0 0 0 0 80.599709486305073 37.565324295079336 0 37.565324295079336 43.356945631137933 0 0 0 0 151.10461037055939 72.098749510292691 0 72.098749510292691 -0.010584494113572873 0 0 0 0 237.36669030814483 127.95843918710307 0 127.95843918710307 7.7420512337994296 0 0 0 0 0.45117239100428108 2.2320146435639288 0 2.2320146435639288 -7.112189338434689 0 0 0 0 -94.341503105843202 181.74826726542778 0 181.74826726542778 81.79204438724264 0 0 0 0 77.369199888791627 107.84765923180385 0 107.84765923180385 -13.422314653944341 0 0 0 0 25.083687854044911 128.34790926518326 0 128.34790926518326 -0.70144624171371106 0 0 0 0 -56.707558135155523 62.277341487497324 0 62.277341487497324 19.94857153169869 0 0 0 0 97.537875887178416 162.61843974729345 0 162.61843974729345 63.996106431208318 0 0 0 0 195.66438220239979 59.706410467479145 0 59.706410467479145 9.1798652004290489 0 0 0 0 87.112791199700951 65.390091870111064 0 65.390091870111064 38.347879928827751 0 0 0 0 178.74483613305711 90.612119146462646 0 90.612119146462646 -2.7999536899151281 0 0 0 0 2.8496190031073638 46.146345302804548 0 46.146345302804548 8.1588862000498921 0 0 0 0 -5.7024810833705812 8.3178329078052009 0 8.3178329078052009 0.25453387782192749 0 0 0 0 59.726307785400422 53.048030486505013 0 53.048030486505013 -55.104829593168688 0 0 0 0 70.901479020089027 88.494135004722921 0 88.494135004722921 8.594125131436158 0 0 0 0 73.530223863648644 15.565282228897559 0 15.565282228897559 2.0271665300042514 0 0 0 0 -31.156467414438339 107.64026351718348 0 107.64026351718348 1.0031096979819267 0 0 0 0 -15.578139526040347 28.353712777885193 0 28.353712777885193 -38.433981424915714 0 0 0 0 181.60953917834377 108.23459056594947 0 108.23459056594947 -57.57562186436553 0 0 0 0 -22.111912181222579 34.110818790679332 0 34.110818790679332 12.24373519153778 0 0 0 0 223.99882376008486 127.19174568433664 0 127.19174568433664 -202.14259598589751 0 0 0 0 6.7354850788194653 -181.14307505614124 0 -181.14307505614124 -227.61959894358915 0 0 0 0 141.57461549944765 -6.0272036052992917 0 -6.0272036052992917 -83.486952422994364 0 0 0 0 204.69734979335931 275.64988892035035 0 275.64988892035035 67.515164001863013 0 0 0 0 -11.824508795227498 17.100144900751616 0 17.100144900751616 -24.025982897626307 0 0 0 0 58.516184678881473 22.369735651744122 0 22.369735651744122 -145.17000881962304 0 0 0 0 34.488606007989802 141.4650791221502 0 141.4650791221502 -224.37610570880497 0 0 0 0 -76.895095504702113 74.288125866558403 0 74.288125866558403 -32.004859592561843 0 0 0 0 -31.18144855540595 21.737796443805564 0 21.737796443805564 -55.091353914314823 0 0 0 0 -60.031946382317983 82.715646920420113 0 82.715646920420113 -58.477853783017054 0 0 0 0 -32.941120890933234 47.866453366579663 0 47.866453366579663 -19.697130342538003 0 0 0 0 -54.355461731174728 71.378586211765651 0 71.378586211765651 -30.391035350359743 0 0 0 0 -84.406263695374037 90.410763250007221 0 90.410763250007221 -29.811718172262772 0 0 0 0 -78.531432878386113 76.633871793477738 0 76.633871793477738 -16.415705970255658 0 0 0 0 -103.26350708039809 83.453498232036509 0 83.453498232036509 0.0034677480289246887 0 0 0 0 -86.019720237822185 70.794357253129419 0 70.794357253129419 -130.68268855536007 0 0 0 0 -86.369697038255254 87.750199972098926 0 87.750199972098926 -47.402831129234983 0 0 0 0 -150.57428800712296 123.03405988957093 0 123.03405988957093 -9.2178411177692396 0 0 0 0 -66.124597542926494 48.859723783891241 0 48.859723783891241 -39.780819980107481 0 0 0 0 -68.395380441461384 59.19843729549757 0 59.19843729549757 -2.4024409846524577 0 0 0 0 -45.986075600767435 84.707487490981293 0 84.707487490981293 0.045190497970907018 0 0 0 0 83.521982611917338 19.370368261246767 0 19.370368261246767 -9.8120362828194629 0 0 0 0 -48.793339240204659 83.996184083473054 0 83.996184083473054 31.394413497691858 0 0 0 0 -136.22660366207856 34.92417481069424 0 34.92417481069424 130.03271661507461 0 0 0 0 162.4908693023026 -29.96454203661051 0 -29.96454203661051 -13.4922949016036 0 0 0 0 154.7758218004019 263.46989043876238 0 263.46989043876238 -120.01067936564505 0 0 0 0 228.34442672860314 158.8186626388997 0 158.8186626388997 31.930576210885192 0 0 0 0 0.22584472963236024 2.5252715092014739 0 2.5252715092014739 -7.1578595650216812 0 0 0 0 148.39567428684313 113.23781852688626 0 113.23781852688626 105.84053252605372 0 0 0 0 -193.02547434424559 62.999579133997031 0 62.999579133997031 182.7258447597269 0 0 0 0 -109.32648976741166 6.1682257999382273 0 6.1682257999382273 155.53602166102792 0 0 0 0 -79.964885925652197 -68.127188357146224 0 -68.127188357146224 266.76222172322741 0 0 0 0 -93.292553649127512 255.16477601658335 0 255.16477601658335 -305.7689455326763 0 0 0 0 -4.2926461803562788 1.9214706398925614 0 1.9214706398925614 1.1177505859265011 0 0 0 0 -245.07799025149507 235.13068368710083 0 235.13068368710083 0.48002265182731207 0 0 0 0 -37.986259100962343 67.410316925524967 0 67.410316925524967 89.869349050481105 0 0 0 0 19.178044627306832 27.108446866277504 0 27.108446866277504 37.508564836815367 0 0 0 0 38.637050765334607 30.772645492445008 0 30.772645492445008 10.779749906709185 0 0 0 0 -65.881088597314374 134.76276648558269 0 134.76276648558269 31.697046809944368 0 0 0 0 -62.405139758846417 103.00383136012533 0 103.00383136012533 35.064248605987814 0 0 0 0 52.659543713783933 40.954986956319772 0 40.954986956319772 -37.085041342186742 0 0 0 0 21.687641269170854 88.819380242028274 0 88.819380242028274 -16.124779752950417 0 0 0 0 -10.859796810882642 3.0875226571333769 0 3.0875226571333769 5.3791611594318738 0 0 0 0 17.013799459686808 28.414531754957352 0 28.414531754957352 34.856132532344958 0 0 0 0 -11.460953468682419 49.706908542939345 0 49.706908542939345 17.302813282236457 0 0 0 0 -65.774173435500416 31.584029207027925 0 31.584029207027925 116.31928944293031 0 0 0 0 -57.669445340412494 85.224460762045055 0 85.224460762045055 -80.480235702940263 0 0 0 0 12.373463411848206 58.412530677713221 0 58.412530677713221 11.561441698213457 0 0 0 0 -14.829776936834605 36.133958541275206 0 36.133958541275206 26.396514138250495 0 0 0 0 17.720741844419081 60.995623326140958 0 60.995623326140958 4.4932478099362925 0 0 0 0 -43.153558678241097 63.175974000674614 0 63.175974000674614 9.3325962978342432 0 0 0 0 18.861475430947436 26.736667888426837 0 26.736667888426837 38.387322637868124 0 0 0 0 -73.133197011120501 -28.230507838292397 0 -28.230507838292397 -254.68930296401959 0 0 0 0 -172.69732587383578 261.00250918488746 0 261.00250918488746 56.187697262881557 0 0 0 0 -216.42519429030835 191.17311441506172 0 191.17311441506172 4.2059987225657096 0 0 0 0 -283.77608364482694 33.131289429264143 0 33.131289429264143 151.38840920592338 0 0 0 0 1.0339183962663157 0.4634491284969755 0 0.4634491284969755 -4.1218949160923444 0 0 0 0 186.22767445605464 38.556857532557132 0 38.556857532557132 -35.975843146123225 0 0 0 0 186.51564356258496 138.43198118756118 0 138.43198118756118 -132.09354037430603 0 0 0 0 127.8959199097917 56.31921124875953 0 56.31921124875953 84.360667575791012 0 0 0 0 87.930642539594373 127.78870799602737 0 127.78870799602737 -97.847095064556925 0 0 0 0 39.348594460843742 266.62798872623534 0 266.62798872623534 -180.56122910106205 0 0 0 0 91.963871177723377 153.1373246596595 0 153.1373246596595 -14.756371403840603 0 0 0 0 27.111199911453696 69.531198885211779 0 69.531198885211779 -22.877143884834368 0 0 0 0 17.381290080872972 32.477618921254134 0 32.477618921254134 32.302207476868034 0 0 0 0 1.5863795983550517 136.94940141725965 0 136.94940141725965 -14.036289554675932 0 0 0 0 -18.061621841345186 115.93139867687569 0 115.93139867687569 84.801601900466267 0 0 0 0 25.047227655588358 69.573401292262133 0 69.573401292262133 52.497424571978627 0 0 0 0 22.418821293032575 34.105172889887143 0 34.105172889887143 -67.852770164824648 0 0 0 0 65.808384863557876 18.36391452029784 0 18.36391452029784 -65.336909632620518 0 0 0 0 3.1179818594645567 4.0577060664029716 0 4.0577060664029716 -5.2313025345835555 0 0 0 0 111.38450264648964 191.63068035202741 0 191.63068035202741 347.53537793245596 0 0 0 0 19.13861064906996 75.352794879880094 0 75.352794879880094 49.712939601537073 0 0 0 0 -10.138869778776996 30.596620271370682 0 30.596620271370682 -18.592888510890674 0 0 0 0 47.075176615173405 111.48295876510383 0 111.48295876510383 272.42049524089089 0 0 0 0 75.098440704533459 173.61396999399585 0 173.61396999399585 299.33886017979239 0 0 0 0 -25.576777546557572 28.889946519595441 0 28.889946519595441 -2.1789814678324433 0 0 0 0 -6.774373844453649 32.358062704591305 0 32.358062704591305 -26.561394419111842 0 0 0 0 -124.634668386876 22.562060767333605 0 22.562060767333605 47.975796686216199 0 0 0 0 0.36632874391783332 1.9825381291981614 0 1.9825381291981614 2.8870793727793682 0 0 0 0 -27.591233091698086 59.652552499344893 0 59.652552499344893 11.765629359419108 0 0 0 0 -26.93501735637301 55.691947096673175 0 55.691947096673175 19.229775659114239 0 0 0 0 -15.47177284501231 53.91535982984351 0 53.91535982984351 10.747333128969331 0 0 0 0 -12.445811771934501 34.733574223084304 0 34.733574223084304 -0.59303576505501354 0 0 0 0 -17.424136054371047 61.770886495200102 0 61.770886495200102 21.41799819865264 0 0 0 0 -20.662054007903592 22.13750359980466 0 22.13750359980466 0.16804779138564641 0 0 0 0 -15.079970747967309 29.7466555313149 0 29.7466555313149 26.670211074913823 0 0 0 0 -7.6806345863770957 41.506536217687312 0 41.506536217687312 38.786814272117041 0 0 0 0 -22.803073560644407 45.338856239803135 0 45.338856239803135 47.170986559591256 0 0 0 0 -5.4461909687859134 57.589567377639014 0 57.589567377639014 -9.4563924719113857 0 0 0 0 -5.8295593194525281 59.836240898122924 0 59.836240898122924 12.828362714797549 0 0 0 0 47.023645128067528 35.06526099464827 0 35.06526099464827 18.766381095978431 0 0 0 0 60.878909926603683 -30.503957785906096 0 -30.503957785906096 -54.673363257723395 0 0 0 0 51.978511531980075 61.098717093358573 0 61.098717093358573 37.439887340035057 0 0 0 0 6.3624488901012342 5.6697112923313284 0 5.6697112923313284 2.9057095272299591 0 0 0 0 4.8275038127375609 -2.5635553826331119 0 -2.5635553826331119 -0.14512224078760028 0 0 0 0 409.61176533888386 344.85113963862386 0 344.85113963862386 319.64413046232949 0 0 0 0 636.62744773967972 503.78096271678805 0 503.78096271678805 219.20205797827293 0 0 0 0 429.79586784298522 210.86312897822791 0 210.86312897822791 93.826184683457541 0 0 0 0 641.38171797297537 310.17579380710959 0 310.17579380710959 114.44994966140075 0 0 0 0 393.55337966372895 319.81433456056402 0 319.81433456056402 192.86938442266546 0 0 0 0 12.602250761445021 32.990661781393555 0 32.990661781393555 -43.72890099324286 0 0 0 0 109.73244816437227 39.880540377329453 0 39.880540377329453 -92.357468085057917 0 0 0 0 57.681918989845144 22.263617653581605 0 22.263617653581605 -55.393124937989342 0 0 0 0 97.826879020296929 54.309407737271613 0 54.309407737271613 -31.069303247830248 0 0 0 0 58.783164237924211 15.345163835831045 0 15.345163835831045 -30.918399986090662 0 0 0 0 -5.9646933539981148 29.661188359912366 0 29.661188359912366 -17.920266413273453 0 0 0 0 1.1710728738643681 16.807475484390068 0 16.807475484390068 -40.698922534355574 0 0 0 0 44.802960702601922 49.804022018019168 0 49.804022018019168 -36.783720126622939 0 0 0 0 52.640792849602803 47.283553735018359 0 47.283553735018359 -20.31106161524076 0 0 0 0 125.15486008810694 22.848090038140072 0 22.848090038140072 40.122473728246405 0 0 0 0 114.87401135667824 54.263151470440789 0 54.263151470440789 -27.142783916569897 0 0 0 0 112.91421460468018 76.121548366802017 0 76.121548366802017 -30.387283916206798 0 0 0 0 33.687420707957244 96.051430384833111 0 96.051430384833111 -34.321982657231274 0 0 0 0 22.735391406381495 60.750782727503974 0 60.750782727503974 -15.498589311624528 0 0 0 0 39.620322621876767 23.038897381673451 0 23.038897381673451 -10.563505907481158 0 0 0 0 3.2467186607707177 31.09641418471395 0 31.09641418471395 -33.485393743373123 0 0 0 0 -1.8858818533263757 17.748292553141564 0 17.748292553141564 33.281583385771228 0 0 0 0 -40.198529420694967 66.875173698116669 0 66.875173698116669 82.803319292070228 0 0 0 0 24.477071770994371 76.771918895865383 0 76.771918895865383 46.488105710755917 0 0 0 0 -6.7078050262948317 29.133427773539111 0 29.133427773539111 -33.114539017817776 0 0 0 0 34.251763510712408 82.282793784848764 0 82.282793784848764 8.3115409331221599 0 0 0 0 6.6966012216733546 24.395932936813736 0 24.395932936813736 -47.382160633344284 0 0 0 0 14.088637980348722 177.30196053556574 0 177.30196053556574 -16.740907185230753 0 0 0 0 230.7113416156335 180.48543178658292 0 180.48543178658292 -30.958231604621687 0 0 0 0 -85.209132679988215 324.39146747919585 0 324.39146747919585 85.596172531673801 0 0 0 0 63.08709428997372 -97.696101538509538 0 -97.696101538509538 -52.977382502460387 0 0 0 0 299.68910206544388 92.631603797170101 0 92.631603797170101 73.042545106582111 0 0 0 0 -103.94001910855559 137.96307614748366 0 137.96307614748366 -67.80644960598147 0 0 0 0 726.50082912592336 275.37406080729124 0 275.37406080729124 55.646248427481623 0 0 0 0 2.7590370536843389 2.0565175328569829 0 2.0565175328569829 22.055977619444548 0 0 0 0 -373.65530915679847 6.4255287413252518 0 6.4255287413252518 54.093156592574815 0 0 0 0 5.5537371596084046 5.8423553807001696 0 5.8423553807001696 2.1513199468132598 0 0 0 0 -414.99646932175256 89.040234125801362 0 89.040234125801362 94.20005181551096 0 0 0 0 579.09144719780306 256.85226549804065 0 256.85226549804065 38.095871201887348 0 0 0 0 441.81720112553523 376.27528875793359 0 376.27528875793359 107.65071965452807 0 0 0 0 568.6117968630665 226.82056709366589 0 226.82056709366589 157.60098068186198 0 0 0 0 485.27375068962044 265.70884291105619 0 265.70884291105619 143.19397320624557 0 0 0 0 484.96945131325867 307.94436545675126 0 307.94436545675126 150.54628285639046 0 0 0 0 12.32562813452752 -1.252973588054175 0 -1.252973588054175 5.8026721686912879 0 0 0 0 274.68345516680188 271.13840089711448 0 271.13840089711448 183.39864639382722 0 0 0 0 321.46127367032295 142.15686297512002 0 142.15686297512002 36.11868155447155 0 0 0 0 -7.914693280276424 -52.141616634631646 0 -52.141616634631646 22.141925771866227 0 0 0 0 -0.013906031605531277 -0.019897225901152282 0 -0.019897225901152282 -0.67818425817972638 0 0 0 0 23.090861919819531 372.76225952967434 0 372.76225952967434 472.39976747185574 0 0 0 0 579.3357325037714 268.47563490822176 0 268.47563490822176 179.0277426870889 0 0 0 0 372.28359045495336 432.5943130676078 0 432.5943130676078 846.87624000066717 0 0 0 0 382.23400972640047 -165.41058476141188 0 -165.41058476141188 148.5124314738423 0 0 0 0 261.04793914514789 -46.077584070884768 0 -46.077584070884768 -218.30635579720547 0 0 0 0 -0.99521427424348996 -1.7688970948512708 0 -1.7688970948512708 -5.778251931809109 0 0 0 0 -259.31335610725978 -88.916390501333808 0 -88.916390501333808 280.85909444861318 0 0 0 0 -65.105418600034682 -9.6937445659859804 0 -9.6937445659859804 35.707827106598415 0 0 0 0 12.376717179482966 -59.996106621125364 0 -59.996106621125364 -67.919942374042876 0 0 0 0 26.438598764110793 -120.12878953316977 0 -120.12878953316977 -56.953474359921529 0 0 0 0 54.479844200858224 27.57550965565315 0 27.57550965565315 36.910883537188056 0 0 0 0 -105.94756440752508 -102.96483347341564 0 -102.96483347341564 -66.973963760145125 0 0 0 0 44.210705610763171 -14.125085897663666 0 -14.125085897663666 -221.68972031823705 0 0 0 0 36.89163028160101 -89.952041415541316 0 -89.952041415541316 -220.41794789212872 0 0 0 0 236.963122030676 -47.45586779939913 0 -47.45586779939913 -407.49990259068727 0 0 0 0 341.26015768226307 35.775753240690392 0 35.775753240690392 -537.64182440616423 0 0 0 0 7.9315665425602582 -0.040191322049821565 0 -0.040191322049821565 -18.824314755089461 0 0 0 0 11.618586533707269 6.334733484103225 0 6.334733484103225 -2.5835816758146564 0 0 0 0 -4.7555218897759914 -6.7668797426740639 0 -6.7668797426740639 -32.945230265002465 0 0 0 0 17.4172868338635 -18.768329437643843 0 -18.768329437643843 -165.66313199613069 0 0 0 0 5.4460979654260866 -0.93713533930768733 0 -0.93713533930768733 -16.018319526406003 0 0 0 0 -28.585440860357494 24.960901671045576 0 24.960901671045576 1.6277397660596762 0 0 0 0 41.332338635635097 61.402103869520943 0 61.402103869520943 112.10073401606496 0 0 0 0 616.92796675744694 236.87128648902944 0 236.87128648902944 -640.67943480546819 0 0 0 0 72.146247917987694 65.740757632044605 0 65.740757632044605 31.108578761243528 0 0 0 0 -46.518673178084555 -355.42869404487283 0 -355.42869404487283 88.216708984375146 0 0 0 0 -7.6896228013565633 -170.38495842021075 0 -170.38495842021075 451.15214244766685 0 0 0 0 1.871147022441944 2.1730535831287767 0 2.1730535831287767 2.8432397950731456 0 0 0 0 146.21569091275637 413.88917563028735 0 413.88917563028735 -169.71487190164044 0 0 0 0 -141.58236611160009 180.17534216254717 0 180.17534216254717 348.56779591272425 0 0 0 0 217.25325228295196 89.867266927798482 0 89.867266927798482 228.25849507034582 0 0 0 0 -66.392732098325723 24.852603398787323 0 24.852603398787323 426.85421695023251 0 0 0 0 348.15179920879007 455.87027784981365 0 455.87027784981365 537.22164582673577 0 0 0 0 861.61692926406522 355.68250741355587 0 355.68250741355587 -170.91484373352534 0 0 0 0 -44.450320912839743 172.22740440828056 0 172.22740440828056 605.64200090399936 0 0 0 0 1552.0596775002721 495.01153287540365 0 495.01153287540365 27.792893351332168 0 0 0 0 0.71219438192250006 -0.077995730217718773 0 -0.077995730217718773 7.2863558541487805 0 0 0 0 -311.77185915893637 -116.41836820386516 0 -116.41836820386516 311.75638839851308 0 0 0 0 -32.006102337907578 32.429569994550548 0 32.429569994550548 72.054292245407851 0 0 0 0 -33.75382883792426 -79.914002486772915 0 -79.914002486772915 261.41565663469373 0 0 0 0 -17.436548183634045 -89.863128982397484 0 -89.863128982397484 141.20127510117891 0 0 0 0 93.317178877230617 8.6615438973312848 0 8.6615438973312848 223.67519996128976 0 0 0 0 40.434213994720267 91.168276695683744 0 91.168276695683744 280.54925141503918 0 0 0 0 -88.315591998532909 80.187534906246583 0 80.187534906246583 309.50195523250477 0 0 0 0 22.170261594983458 95.664157497914857 0 95.664157497914857 311.52601203235463 0 0 0 0 -56.15929249563851 163.89605314440269 0 163.89605314440269 298.65159545346978 0 0 0 0 -49.250176543244379 161.14980616817411 0 161.14980616817411 232.43602893897332 0 0 0 0 -55.647459172992967 167.53130813967437 0 167.53130813967437 228.59499999434047 0 0 0 0 5.6887867583682237 274.78976196188887 0 274.78976196188887 408.18519705842482 0 0 0 0 -94.006319311145489 143.74886293806776 0 143.74886293806776 358.76459013996646 0 0 0 0 -70.244795478163724 172.85697106912994 0 172.85697106912994 341.47700531754526 0 0 0 0 -44.512372475983284 113.2186050444725 0 113.2186050444725 259.39597446896369 0 0 0 0 -130.68931910005449 210.23217219876096 0 210.23217219876096 194.48039056517155 0 0 0 0 -40.089304480061401 67.899475460435497 0 67.899475460435497 440.32184729189248 0 0 0 0 -56.318577751630983 81.677382781716005 0 81.677382781716005 287.87612802798685 0 0 0 0 -154.38551284475579 67.273495613328123 0 67.273495613328123 306.58162993699079 0 0 0 0 -53.636733163992176 27.6912895636342 0 27.6912895636342 33.481226729418267 0 0 0 0 -32.802948809015334 12.273532506461606 0 12.273532506461606 47.735371145831749 0 0 0 0 -15.74171872741681 58.880923642172093 0 58.880923642172093 40.693751212093048 0 0 0 0 -23.470049792062653 21.945822435347182 0 21.945822435347182 43.46281242396401 0 0 0 0 -12.927779633202462 32.558790814835262 0 32.558790814835262 19.453613273947724 0 0 0 0 -22.342932077409387 34.037310568572138 0 34.037310568572138 26.017943828715943 0 0 0 0 18.498196208114678 -28.987994816692662 0 -28.987994816692662 39.419416007513064 0 0 0 0 -68.526849486523133 28.529013498555287 0 28.529013498555287 191.88282554915349 0 0 0 0 -15.375617305791302 21.969379471025235 0 21.969379471025235 16.871399843808717 0 0 0 0 62.352437185330928 69.78820082040329 0 69.78820082040329 66.889027597630047 0 0 0 0 -11.394742015401974 3.328136450151348 0 3.328136450151348 7.0914847850348508 0 0 0 0 -42.918570736578658 28.562306040155818 0 28.562306040155818 435.66784179623937 0 0 0 0 243.87476823204634 222.38190828662482 0 222.38190828662482 68.738543498652916 0 0 0 0 122.18225439395519 328.88113110256018 0 328.88113110256018 333.94781282340409 0 0 0 0 -98.075124699818844 96.157233337231446 0 96.157233337231446 165.65751901882322 0 0 0 0 -86.710582882601102 245.81468146231146 0 245.81468146231146 561.85028895759024 0 0 0 0 81.689370346852229 311.53523979600868 0 311.53523979600868 401.86842090303253 0 0 0 0 449.43463107717253 403.1203824851691 0 403.1203824851691 339.39492622250691 0 0 0 0 -24.18685334307029 -16.928876721726663 0 -16.928876721726663 24.423781285076586 0 0 0 0 26.983253713252452 139.77209352467253 0 139.77209352467253 162.21375127256033 0 0 0 0 382.38681568655011 326.87463748190203 0 326.87463748190203 253.17747359185887 0 0 0 0 162.62342827674001 480.06631411722628 0 480.06631411722628 777.84741741954349 0 0 0 0 -344.62941103875346 -1216.9912450975098 0 -1216.9912450975098 1156.8571795466269 0 0 0 0 62.12053052489253 67.263769441508657 0 67.263769441508657 31.739509717302909 0 0 0 0 212.80959858106326 -12.383056339967879 0 -12.383056339967879 -515.08113119135669 0 0 0 0 -41.014752310606127 234.99042362743785 0 234.99042362743785 92.33901041216086 0 0 0 0 115.34073157782768 128.72890123260004 0 128.72890123260004 -105.94844847960849 0 0 0 0 0.59915121081212419 6.581654931202138 0 6.581654931202138 137.55157942292863 0 0 0 0 75.262882745547358 131.76650689133021 0 131.76650689133021 -44.861140749577316 0 0 0 0 46.080976944876795 39.158579599809933 0 39.158579599809933 21.226758688377998 0 0 0 0 -140.92954472748625 367.67470212817716 0 367.67470212817716 -8.2044836267450592 0 0 0 0 29.399192826508624 314.39365074568195 0 314.39365074568195 -396.61647933781205 0 0 0 0 -125.65683292976064 31.351393594712135 0 31.351393594712135 8.8795167903590482 0 0 0 0 54.136974238695984 -13.163473868029541 0 -13.163473868029541 -50.159274966186786 0 0 0 0 68.106301399030741 68.472621001559389 0 68.472621001559389 34.107967905650845 0 0 0 0 54.195012420066632 74.123829256866884 0 74.123829256866884 137.44476375924569 0 0 0 0 69.42150162305019 49.800272541545183 0 49.800272541545183 19.611515810258425 0 0 0 0 137.18923544637801 116.8789512542935 0 116.8789512542935 -108.90841261352944 0 0 0 0 108.09935666136153 76.893393737194856 0 76.893393737194856 -103.63478326288168 0 0 0 0 32.363311563442608 98.209546070563476 0 98.209546070563476 -44.429071480946732 0 0 0 0 101.52603361968067 41.891379731459892 0 41.891379731459892 94.478591564344242 0 0 0 0 5.4341100219208869 25.680195148633899 0 25.680195148633899 -16.261929266977006 0 0 0 0 32.790097336565736 76.570592289404686 0 76.570592289404686 9.3081392363237683 0 0 0 0 57.131901738084707 83.176059665704088 0 83.176059665704088 -0.3642431559128454 0 0 0 0 5.5210451693092182 123.4123473459731 0 123.4123473459731 -54.72888470982798 0 0 0 0 14.864077883947175 130.20666174956932 0 130.20666174956932 -75.641304608496284 0 0 0 0 59.093151241855935 43.748307900087596 0 43.748307900087596 24.326670898137607 0 0 0 0 -6.9042835226864554 139.7867036060743 0 139.7867036060743 14.517751260693331 0 0 0 0 -8.1572859310545027 149.13352321260413 0 149.13352321260413 -54.976231243108487 0 0 0 0 91.838875564892078 245.01829860592261 0 245.01829860592261 36.576191011259652 0 0 0 0 -73.761198713487829 98.397514015294291 0 98.397514015294291 34.98090573600166 0 0 0 0 -61.609032076345102 93.201572063917411 0 93.201572063917411 34.936050213953422 0 0 0 0 -112.98806963239622 174.84094003232713 0 174.84094003232713 105.51167493653156 0 0 0 0 106.18864782427772 67.734145454884128 0 67.734145454884128 -3.4385752896268968 0 0 0 0 -16.306464949062502 66.908248053929128 0 66.908248053929128 20.47259395448782 0 0 0 0 -40.493029099983687 117.20157780695081 0 117.20157780695081 45.609296745380561 0 0 0 0 -89.974159969831817 65.663898621638509 0 65.663898621638509 29.722010220240918 0 0 0 0 -7.5716307813024883 9.3700741090123643 0 9.3700741090123643 -17.420052976911933 0 0 0 0 94.528402955660567 63.327006984243781 0 63.327006984243781 46.308558612268826 0 0 0 0 110.67484050712665 79.028332872305327 0 79.028332872305327 46.721422275742498 0 0 0 0 101.02317120886437 82.97427251794943 0 82.97427251794943 108.23869475629181 0 0 0 0 89.130264920546324 62.65503012433328 0 62.65503012433328 48.422005939203245 0 0 0 0 95.940174251481949 39.969722184290731 0 39.969722184290731 -22.19368345516159 0 0 0 0 107.49170875343407 60.374650174922863 0 60.374650174922863 5.5128489467897452 0 0 0 0 79.884427552125999 67.93517926612185 0 67.93517926612185 3.4449640424027166 0 0 0 0 88.294629841519054 58.407621969290631 0 58.407621969290631 -38.191982591655687 0 0 0 0 94.365886977524497 84.10635869923135 0 84.10635869923135 -42.827650227547565 0 0 0 0 62.205409074602358 89.174836502363178 0 89.174836502363178 2.7159482802308048 0 0 0 0 110.54485427796317 86.258699319405423 0 86.258699319405423 2.7927750072503841 0 0 0 0 94.662647912358807 88.641599727252469 0 88.641599727252469 33.684138120879652 0 0 0 0 139.4013407574821 109.93778943713914 0 109.93778943713914 43.501139947195043 0 0 0 0 90.726233432455047 87.644544001030226 0 87.644544001030226 40.689823825116036 0 0 0 0 115.4814551522868 101.7793693835265 0 101.7793693835265 94.559907672082772 0 0 0 0 118.77626005017373 68.145715433834994 0 68.145715433834994 54.154172390652093 0 0 0 0 117.77043571692775 121.15905217653199 0 121.15905217653199 74.479217441970832 0 0 0 0 157.89234602410579 97.471062470103789 0 97.471062470103789 85.947414547328663 0 0 0 0 91.265255009086104 134.19607735652971 0 134.19607735652971 80.777172226680705 0 0 0 0 81.480091682009515 128.23465011402368 0 128.23465011402368 46.867423997995502 0 0 0 0 101.99913625953195 149.40289792909607 0 149.40289792909607 68.690208404852456 0 0 0 0 121.67949446418788 107.22744040350517 0 107.22744040350517 43.330720004691102 0 0 0 0 84.692456195058185 154.44995516263589 0 154.44995516263589 78.999829573662282 0 0 0 0 54.158578556671273 150.50905127127771 0 150.50905127127771 78.706129082984262 0 0 0 0 30.88274591370282 121.01450092707091 0 121.01450092707091 56.414714395847113 0 0 0 0 54.203616105936817 105.51538493350017 0 105.51538493350017 66.068382570852918 0 0 0 0 51.216798988367373 90.047767526826647 0 90.047767526826647 9.7768769332615193 0 0 0 0 85.33826045418391 89.667652341053326 0 89.667652341053326 -0.34908615965105128 0 0 0 0 110.85642776922396 121.73342840702389 0 121.73342840702389 30.204613981288276 0 0 0 0 84.975820900814142 128.21546841262898 0 128.21546841262898 46.634265618000427 0 0 0 0 93.729682121804217 100.60679709761098 0 100.60679709761098 -9.6217140960288816 0 0 0 0 89.709150033959304 78.418150334748134 0 78.418150334748134 -49.55217862950667 0 0 0 0 95.263465452084347 90.05840449979587 0 90.05840449979587 -54.471444122536923 0 0 0 0 57.777241558179512 54.954961747571247 0 54.954961747571247 9.3508122682718717 0 0 0 0 -19.805492859009973 99.352024386900666 0 99.352024386900666 37.287468291571713 0 0 0 0 103.81114907220035 36.326671075628838 0 36.326671075628838 -112.12194557492785 0 0 0 0 55.330693757314918 57.652813623740926 0 57.652813623740926 10.189050978862923 0 0 0 0 58.128882439210429 -20.975064677681075 0 -20.975064677681075 -21.782208070479101 0 0 0 0 -2.3505493818374816 48.492440100992098 0 48.492440100992098 -67.228796789691842 0 0 0 0 152.27308212255593 29.696404893657927 0 29.696404893657927 -8.3565371166041587 0 0 0 0 10.561648718825516 22.835813764257836 0 22.835813764257836 10.39984741304022 0 0 0 0 16.231317083016549 19.649262527017001 0 19.649262527017001 -3.2916126844842495 0 0 0 0 73.051269641131157 58.914666593147651 0 58.914666593147651 -33.378115240249372 0 0 0 0 119.6066736990033 -18.705828915000893 0 -18.705828915000893 53.704418830966461 0 0 0 0 21.080350217131215 29.369893048469379 0 29.369893048469379 5.1829856959443816 0 0 0 0 45.59095499418676 40.434972950978988 0 40.434972950978988 -4.8275739086297449 0 0 0 0 26.014398642123659 18.809652170101543 0 18.809652170101543 -11.901005240548869 0 0 0 0 5.612186125748849 40.358920638973359 0 40.358920638973359 -41.78688077503466 0 0 0 0 59.137604480583832 71.45256220997544 0 71.45256220997544 -96.341818926783162 0 0 0 0 4.3204946802288759 38.127025668392889 0 38.127025668392889 -60.480856553011108 0 0 0 0 58.071199945659593 35.355704171968803 0 35.355704171968803 -42.896638897710204 0 0 0 0 66.713675049026534 64.261182538175433 0 64.261182538175433 35.859134013167349 0 0 0 0 53.59802538218355 37.378508060435706 0 37.378508060435706 85.914788748581486 0 0 0 0 74.631299634209427 103.25262580851449 0 103.25262580851449 36.267293094977504 0 0 0 0 76.92976835634181 62.375769477650465 0 62.375769477650465 -17.464448820732287 0 0 0 0 119.01307755656671 41.197173282944277 0 41.197173282944277 -25.936289167002542 0 0 0 0 40.160597909518401 2.2224742145772325 0 2.2224742145772325 2.2908340673602652 0 0 0 0 18.030506648676237 49.012351028359262 0 49.012351028359262 -110.42230611392006 0 0 0 0 8.5482916621158722 22.00070922214806 0 22.00070922214806 18.304227360934732 0 0 0 0 68.960737916568178 126.98585689048195 0 126.98585689048195 -23.844063134863973 0 0 0 0 18.365717855313051 122.68329971131789 0 122.68329971131789 14.477218561602058 0 0 0 0 0.41289096231642475 10.22838539295492 0 10.22838539295492 16.390902709254025 0 0 0 0 116.6333762066206 68.328915144204075 0 68.328915144204075 -53.217182543412491 0 0 0 0 53.536607319772784 61.314371130772557 0 61.314371130772557 20.200477022819683 0 0 0 0 30.43463027456346 233.53597616206935 0 233.53597616206935 204.85524163525406 0 0 0 0 99.039262944621441 27.385421294946354 0 27.385421294946354 -132.31193510421872 0 0 0 0 11.107864864025032 39.844816460212314 0 39.844816460212314 -40.031188172307338 0 0 0 0 94.28030985998339 73.200980008929037 0 73.200980008929037 -47.94306149167096 0 0 0 0 44.458514836187533 114.7942162708714 0 114.7942162708714 -59.71008828884078 0 0 0 0 7.2771745710374489 -6.7356179633965851 0 -6.7356179633965851 -19.051484996600287 0 0 0 0 22.405227022791223 -3.7315631735036732 0 -3.7315631735036732 -89.988228623467876 0 0 0 0 -53.12677727361006 57.624853892875763 0 57.624853892875763 10.594326333841309 0 0 0 0 -6.4059012152138166 24.537131065455469 0 24.537131065455469 -108.5890244206621 0 0 0 0 -50.835493372263983 25.155018229570487 0 25.155018229570487 -22.280218380452425 0 0 0 0 68.579066325095482 30.259567495922965 0 30.259567495922965 -64.280424600194237 0 0 0 0 59.709207390274969 100.99841987688706 0 100.99841987688706 40.145081041831872 0 0 0 0 109.04845111511531 79.403506519032817 0 79.403506519032817 -31.993829753311729 0 0 0 0 110.47982640916598 115.79884797705381 0 115.79884797705381 -14.555685060026008 0 0 0 0 172.80460687990126 80.053886584784777 0 80.053886584784777 5.3592848048647284 0 0 0 0 80.458423267205944 222.92712835458224 0 222.92712835458224 50.433473898759985 0 0 0 0 198.06681050808402 167.58821864319907 0 167.58821864319907 -1.3578506239427952 0 0 0 0 168.0607467796508 176.44142502581963 0 176.44142502581963 22.792859002722253 0 0 0 0 128.06423032987732 282.95141231833622 0 282.95141231833622 7.8360664707870455 0 0 0 0 52.160460058352328 182.67239409627655 0 182.67239409627655 3.0230218382057501 0 0 0 0 -291.97326391733077 274.74713151803007 0 274.74713151803007 -178.12875968586741 0 0 0 0 -146.54164057334856 101.02989637893916 0 101.02989637893916 -0.37799068859021645 0 0 0 0 -43.506656130775809 266.63578608910393 0 266.63578608910393 41.291596826122259 0 0 0 0 35.586048487079097 -10.473921356278879 0 -10.473921356278879 37.495160487036628 0 0 0 0 -9.8004890566444374 -49.707969331753702 0 -49.707969331753702 22.654485365128494 0 0 0 0 90.410615727908407 98.411871985257676 0 98.411871985257676 136.70590340410126 0 0 0 0 -68.155813922203379 118.67124745374531 0 118.67124745374531 -12.537761471019621 0 0 0 0 6.9047536414000206 2.8429471436629683 0 2.8429471436629683 -34.074323507556983 0 0 0 0 29.692371030786774 40.391524940822372 0 40.391524940822372 26.542459162418041 0 0 0 0 23.143061770319036 154.66742383709425 0 154.66742383709425 52.346564183520968 0 0 0 0 84.179177545913262 56.567813481007761 0 56.567813481007761 -63.593667493551038 0 0 0 0 1.3025016188514087 0.76049465969073538 0 0.76049465969073538 0.25684086592735866 0 0 0 0 121.83278455744585 -78.802043996445718 0 -78.802043996445718 -73.949975132740292 0 0 0 0 -18.671584747282395 120.93991396314595 0 120.93991396314595 -196.84639486667584 0 0 0 0 35.789645707255715 29.760763498559957 0 29.760763498559957 22.655910668651174 0 0 0 0 -54.625301730193314 201.13761672574401 0 201.13761672574401 -151.65687825293207 0 0 0 0 -63.017828469943197 298.0865379869756 0 298.0865379869756 -410.65364538540234 0 0 0 0 -151.14453351333214 249.48589521607209 0 249.48589521607209 -202.34372557922597 0 0 0 0 42.279846568570065 -42.361785093709841 0 -42.361785093709841 25.210081877635275 0 0 0 0 29.799976342339761 26.612487046585429 0 26.612487046585429 19.458433716395916 0 0 0 0 -18.343490973935332 111.50330073987243 0 111.50330073987243 -24.18345873344515 0 0 0 0 2.1785905576443554 1.3573012880564903 0 1.3573012880564903 0.56112723463243697 0 0 0 0 -43.632209436178528 18.974670671619606 0 18.974670671619606 66.853673553596309 0 0 0 0 0.66838628373807296 99.016962983921985 0 99.016962983921985 61.049005276228854 0 0 0 0 0.7665882809943696 0.66564172633184882 0 0.66564172633184882 0.4023651333135092 0 0 0 0 46.761435156899097 73.154149583890103 0 73.154149583890103 -105.79162679993169 0 0 0 0 3.0894147465223796 5.8986707106960239 0 5.8986707106960239 -48.410201325612434 0 0 0 0 127.92475352772453 193.4831442968698 0 193.4831442968698 0.27385925119233434 0 0 0 0 94.023475910107663 213.53102963769925 0 213.53102963769925 62.058616299485948 0 0 0 0 -129.17214833019534 236.38452857407356 0 236.38452857407356 72.906103480307138 0 0 0 0 1.1093647679393541 1.2550184885363755 0 1.2550184885363755 0.81757631348887116 0 0 0 0 203.82768574537113 66.711099066876159 0 66.711099066876159 -96.085070608431124 0 0 0 0 -32.698585324520536 110.2441086226172 0 110.2441086226172 -95.795774130887366 0 0 0 0 -34.522777827016398 118.09544166357682 0 118.09544166357682 -127.18170643525809 0 0 0 0 34.508302404217829 82.376225229381816 0 82.376225229381816 -143.74580489566506 0 0 0 0 69.083867684184952 131.37183708510929 0 131.37183708510929 -165.35297547135633 0 0 0 0 -61.79324000361521 34.758158261765857 0 34.758158261765857 -73.191677866201644 0 0 0 0 -6.3455555615577452 38.743915618036056 0 38.743915618036056 -92.911955287316232 0 0 0 0 2.6852619891210452 2.9516306045341061 0 2.9516306045341061 1.9844751916204189 0 0 0 0 -104.50119844384608 144.76054818648481 0 144.76054818648481 -127.00094996106509 0 0 0 0 -59.240798993414501 105.63707310445534 0 105.63707310445534 -127.69649351162002 0 0 0 0 -50.803552787991407 47.055659362738481 0 47.055659362738481 -91.61398407179513 0 0 0 0 -188.81496700970456 112.00771521621209 0 112.00771521621209 -50.119380826281485 0 0 0 0 -173.60330683559005 205.98654325426105 0 205.98654325426105 -310.94744862275547 0 0 0 0 2.9607594357401013 3.6281006187765392 0 3.6281006187765392 2.7676825038374204 0 0 0 0 -177.65414130768295 208.33210086333474 0 208.33210086333474 -208.35555300156557 0 0 0 0 45.858230916957837 105.09737310092169 0 105.09737310092169 -361.61244448121579 0 0 0 0 1.890784230852546 5.1495358412135914 0 5.1495358412135914 8.5456105725457832 0 0 0 0 -5.5621782770613208 17.336429149517244 0 17.336429149517244 108.6238610960645 0 0 0 0 -2.3359546059084266 2.717932173444126 0 2.717932173444126 10.249265840382343 0 0 0 0 -182.23337020228792 71.557838796972646 0 71.557838796972646 18.008634140853246 0 0 0 0 5.6131226613542822 69.531598621897501 0 69.531598621897501 301.66433093739033 0 0 0 0 -99.641534052352654 146.89864643577312 0 146.89864643577312 248.11984793587908 0 0 0 0 -152.02544527177815 213.49281251292268 0 213.49281251292268 270.06556978745357 0 0 0 0 -338.00790845543088 146.03464503973737 0 146.03464503973737 246.36623116037663 0 0 0 0 -80.370624927905737 209.12182818153087 0 209.12182818153087 -310.84491298150806 0 0 0 0 -15.660296955884405 66.370515501623231 0 66.370515501623231 -161.19366444659681 0 0 0 0 -2.5704451039819105 126.14694605537807 0 126.14694605537807 -190.29178211530962 0 0 0 0 10.635743288585218 70.394319330356666 0 70.394319330356666 58.738889023094089 0 0 0 0 -21.230765722728393 -2.3912586790195576 0 -2.3912586790195576 40.511385006004858 0 0 0 0 30.290619860131898 34.101124902714204 0 34.101124902714204 23.675359803278518 0 0 0 0 38.349731411449028 68.510713519515846 0 68.510713519515846 52.284306012533236 0 0 0 0 8.1848074210940922 955.2385022317535 0 955.2385022317535 416.52717516758275 0 0 0 0 -16.550425363297109 36.504109477395104 0 36.504109477395104 131.48027984189321 0 0 0 0 -55.219324266724456 -25.87692341369106 0 -25.87692341369106 86.437277743923545 0 0 0 0 -50.546115129221107 -100.98019643890075 0 -100.98019643890075 195.4612718627468 0 0 0 0 -7.673665474729205 50.899625651898532 0 50.899625651898532 202.33122799628109 0 0 0 0 -97.072218158755277 48.205015478553833 0 48.205015478553833 571.89499571503256 0 0 0 0 0.38708179039531387 -0.21388554788427427 0 -0.21388554788427427 328.05584783600352 0 0 0 0 -27.615230619740032 149.00867191128236 0 149.00867191128236 271.93732870885287 0 0 0 0 28.77177903080883 135.54062971674648 0 135.54062971674648 107.43686180576333 0 0 0 0 -18.401496862992644 25.111808102032228 0 25.111808102032228 41.122914708004828 0 0 0 0 0.50520901076379232 108.03698771956988 0 108.03698771956988 150.3735536806671 0 0 0 0 6.4382645930163562 85.966736703128845 0 85.966736703128845 163.52255422490271 0 0 0 0 -27.478667572562699 88.549260958599916 0 88.549260958599916 214.75149031793262 0 0 0 0 -15.004863960317586 35.758925870385497 0 35.758925870385497 94.504955455256379 0 0 0 0 -33.7705466584448 67.97186129410693 0 67.97186129410693 180.84239891623292 0 0 0 0 -0.28125705249840394 74.844788288617565 0 74.844788288617565 149.36472117541416 0 0 0 0 6.3955254410415137 95.084374758603232 0 95.084374758603232 152.41048988493276 0 0 0 0 -69.2588176948193 31.716712792564067 0 31.716712792564067 513.52234363877506 0 0 0 0 -71.265146090401686 85.694543065961625 0 85.694543065961625 209.64401307190565 0 0 0 0 -116.13758630545271 193.62889393337446 0 193.62889393337446 85.737533856270602 0 0 0 0 -129.07549954025126 151.47802063124345 0 151.47802063124345 363.76648274633044 0 0 0 0 -65.266864751334651 254.60631031569937 0 254.60631031569937 269.18741749573383 0 0 0 0 93.5238125713513 244.39634787347313 0 244.39634787347313 295.92716262522299 0 0 0 0 -1.6288936662868423 5.5125510883695199 0 5.5125510883695199 25.523861688756909 0 0 0 0 33.519093431634246 111.30642830237775 0 111.30642830237775 87.593006061050801 0 0 0 0 88.595181921904441 252.22062071580876 0 252.22062071580876 351.06535842177982 0 0 0 0 168.72034664481907 50.757367357968178 0 50.757367357968178 154.83477037414559 0 0 0 0 29.557828033677652 94.894784548305324 0 94.894784548305324 -43.268737885955488 0 0 0 0 -40.688274636093411 93.359692999947583 0 93.359692999947583 238.74237517549773 0 0 0 0 -0.90644367889984778 3.5850369558313631 0 3.5850369558313631 -18.989569242279735 0 0 0 0 79.537910425882728 116.28029150007205 0 116.28029150007205 16.394945485466451 0 0 0 0 -19.244726128259032 36.357946568224534 0 36.357946568224534 1.8228035375900618 0 0 0 0 -46.05665885390772 47.993225952483044 0 47.993225952483044 157.92709571728483 0 0 0 0 -8.3144388083019294 98.918505770474439 0 98.918505770474439 -101.08439836089383 0 0 0 0 -4.4278018403638271 7.3419499084411655 0 7.3419499084411655 48.213133049517637 0 0 0 0 -74.061809533377527 66.846617565563065 0 66.846617565563065 240.91976444762258 0 0 0 0 -87.322170693485532 13.077137114843936 0 13.077137114843936 220.42647146054514 0 0 0 0 -47.190297854860546 56.007609972177306 0 56.007609972177306 132.60632860277838 0 0 0 0 -51.972183961850732 34.581224201097314 0 34.581224201097314 22.833414309732078 0 0 0 0 30.409813927023606 54.174548234799673 0 54.174548234799673 -10.885380979728685 0 0 0 0 -83.534881695173681 55.263884597487049 0 55.263884597487049 73.265456006673048 0 0 0 0 -20.510280843009241 47.649752842495218 0 47.649752842495218 56.846320392636699 0 0 0 0 126.43387700730818 114.01079744689196 0 114.01079744689196 -12.1231323398315 0 0 0 0 198.86624996234605 103.98022028185551 0 103.98022028185551 89.493584133408149 0 0 0 0 -55.565720054401027 59.92975216832383 0 59.92975216832383 182.781922818569 0 0 0 0 -73.965084857237343 67.05622469373543 0 67.05622469373543 180.10305594823149 0 0 0 0 -14.969844093910524 -2.901415139651931 0 -2.901415139651931 4.6763324412474248 0 0 0 0 229.65532675985014 177.1221213205863 0 177.1221213205863 43.970935449083299 0 0 0 0 93.204085834418947 8.3473423176492361 0 8.3473423176492361 -131.16082568524143 0 0 0 0 29.64851257976261 182.78418902139674 0 182.78418902139674 52.818487135002215 0 0 0 0 -123.93834520830569 12.004087838142368 0 12.004087838142368 51.487819120608037 0 0 0 0 119.03979159312439 117.55162990494136 0 117.55162990494136 50.756189227533184 0 0 0 0 -2.3446653203573078 156.28767764434451 0 156.28767764434451 182.36759638399963 0 0 0 0 15.449001817891258 49.086921006131888 0 49.086921006131888 33.82765142172866 0 0 0 0 130.03293451268109 207.18957699163002 0 207.18957699163002 44.102301899780286 0 0 0 0 -55.74158167779953 19.59949426535141 0 19.59949426535141 10.51355705549291 0 0 0 0 138.39610177546274 233.29705909635595 0 233.29705909635595 141.5486944813365 0 0 0 0 201.37227686967526 98.109129002234113 0 98.109129002234113 475.63295801475761 0 0 0 0 6.9505689862715485 6.4243640243134479 0 6.4243640243134479 -1.3567317203188765 0 0 0 0 2.9566358667890995 9.3631594678770966 0 9.3631594678770966 -5.2842923674727444 0 0 0 0 236.48090034144116 96.356405399877985 0 96.356405399877985 49.552923582130461 0 0 0 0 152.45898257027147 124.58702085139521 0 124.58702085139521 52.263902140119171 0 0 0 0 154.47426578815794 24.279771451463603 0 24.279771451463603 170.68651944147132 0 0 0 0 61.364169149823283 205.14105256381481 0 205.14105256381481 20.431617692098371 0 0 0 0 -41.393070088350214 89.105214465460449 0 89.105214465460449 193.59211467773275 0 0 0 0 85.847385331449914 101.39992517251085 0 101.39992517251085 -106.26211746092304 0 0 0 0 -265.50603302325908 552.88208514252983 0 552.88208514252983 374.91503881894459 0 0 0 0 -241.307979232457 340.72442982798384 0 340.72442982798384 357.70842888910556 0 0 0 0 -120.14617197177722 390.62896607833682 0 390.62896607833682 -99.014082930766563 0 0 0 0 -110.70252086030087 303.45814857209916 0 303.45814857209916 301.35560439300025 0 0 0 0 -254.81949109686684 312.47058710850615 0 312.47058710850615 304.9293681136769 0 0 0 0 1.3916324972925906 1.9268370580261696 0 1.9268370580261696 1.6039125915569912 0 0 0 0 -278.67452649865663 289.16522568397704 0 289.16522568397704 316.29202996859385 0 0 0 0 164.56951217713504 240.91292418995363 0 240.91292418995363 -16.608346772576624 0 0 0 0 158.79248940553043 315.34966599345853 0 315.34966599345853 169.50058132270351 0 0 0 0 143.7335527472751 313.11556760654639 0 313.11556760654639 222.65466737459064 0 0 0 0 170.87221881456207 246.26927719019295 0 246.26927719019295 214.33403145618468 0 0 0 0 238.93155463784615 286.66781713001342 0 286.66781713001342 159.35588332381303 0 0 0 0 231.55846517789178 207.2039908126535 0 207.2039908126535 104.17222462835343 0 0 0 0 200.1541859131612 238.08230813410773 0 238.08230813410773 74.277460262514069 0 0 0 0 175.18852775343112 270.01953358482569 0 270.01953358482569 61.185587061874685 0 0 0 0 150.06096781903761 186.37733805730386 0 186.37733805730386 62.444860137799537 0 0 0 0 137.60497708819457 161.7645767841459 0 161.7645767841459 78.688621482797316 0 0 0 0 195.87253694246465 150.54996254745674 0 150.54996254745674 22.869204314854869 0 0 0 0 90.173066677132738 79.22622905208118 0 79.22622905208118 50.610444454287062 0 0 0 0 69.791469919931842 65.580467940351809 0 65.580467940351809 -129.66055283472087 0 0 0 0 -6.1605341086979024 67.585559321931214 0 67.585559321931214 -12.740053297347913 0 0 0 0 -77.155208560143365 -30.192506200350181 0 -30.192506200350181 -58.073533846516511 0 0 0 0 139.03936217186083 84.092985126895144 0 84.092985126895144 -66.274431135781924 0 0 0 0 176.6551436966547 184.24571382938302 0 184.24571382938302 -13.321937771979719 0 0 0 0 -63.529277399138493 30.213153844822813 0 30.213153844822813 6.9311824546880132 0 0 0 0 166.69501949864207 388.27122691292971 0 388.27122691292971 466.1401531956908 0 0 0 0 117.8195907913032 289.75391317010508 0 289.75391317010508 527.12473169275654 0 0 0 0 200.49183169694152 50.422145489021204 0 50.422145489021204 467.47246901010294 0 0 0 0 501.90633372875163 7.3672057940184459 0 7.3672057940184459 -128.7994290018396 0 0 0 0 253.46415942373278 97.33697630228562 0 97.33697630228562 50.801796594911139 0 0 0 0 225.63938971603056 364.25239752539346 0 364.25239752539346 263.97723072973895 0 0 0 0 -125.9589276262268 28.979890022877953 0 28.979890022877953 -68.43844763028028 0 0 0 0 281.17198110857862 260.20680896722479 0 260.20680896722479 10.301057529462923 0 0 0 0 -48.162988950371073 -247.76943921552629 0 -247.76943921552629 75.043538519486901 0 0 0 0 -0.52935722546236263 1.1180888841875003 0 1.1180888841875003 -0.8977757039072003 0 0 0 0 277.18732720892876 115.19102600054975 0 115.19102600054975 56.059848141005205 0 0 0 0 155.34132262744242 151.80160552362395 0 151.80160552362395 221.73155952418165 0 0 0 0 30.304650612146361 552.24161798302521 0 552.24161798302521 -90.417967242596205 0 0 0 0 -2.0168189057360451 1.7065145604483689 0 1.7065145604483689 -1.757064387213461 0 0 0 0 -55.022688810464444 26.788496672776631 0 26.788496672776631 5.9150123451692025 0 0 0 0 -19.02867051344947 216.74339500047063 0 216.74339500047063 177.63811290726881 0 0 0 0 164.35782847284099 39.493514469468209 0 39.493514469468209 380.09944390023156 0 0 0 0 -12.844598125299058 -0.11508894518695456 0 -0.11508894518695456 -0.46008345413581253 0 0 0 0 -51.85421794175636 284.90952636467046 0 284.90952636467046 49.358773263375042 0 0 0 0 278.29743821971351 216.44187442530165 0 216.44187442530165 -75.64553729549516 0 0 0 0 125.59119370245025 199.58100587286026 0 199.58100587286026 -73.924229342974286 0 0 0 0 70.770186156994896 395.31420104002973 0 395.31420104002973 -180.13250281600631 0 0 0 0 211.52903088658786 89.550969353655091 0 89.550969353655091 -76.720490328676533 0 0 0 0 248.13733649169444 179.10301019109465 0 179.10301019109465 -12.007491506003134 0 0 0 0 123.51651645861966 58.810287251002904 0 58.810287251002904 -108.36284181858355 0 0 0 0 20.281096888837055 173.2264671256853 0 173.2264671256853 -7.4742458614491625 0 0 0 0 25.320467827288667 86.598633302710368 0 86.598633302710368 -0.43502964380741105 0 0 0 0 60.427167052592267 47.881763725697965 0 47.881763725697965 -86.293402668277849 0 0 0 0 43.380138097563758 67.30779841876938 0 67.30779841876938 89.277572439194046 0 0 0 0 27.594008539395873 98.024479004132445 0 98.024479004132445 234.48489957516722 0 0 0 0 -12.539887323175208 167.25844798382604 0 167.25844798382604 126.17749107837153 0 0 0 0 6.5206865384534467 181.40097561029688 0 181.40097561029688 126.76087774452026 0 0 0 0 16.004173291363259 75.560544458752702 0 75.560544458752702 -13.094770166964736 0 0 0 0 6.9266393432408222 98.543502701302714 0 98.543502701302714 69.256396569311619 0 0 0 0 66.51954663527431 55.918208721006522 0 55.918208721006522 -8.5508474482558086 0 0 0 0 57.915594802587293 53.921366739923542 0 53.921366739923542 84.48601934447106 0 0 0 0 62.975119661714416 108.12081607145956 0 108.12081607145956 95.347116997392732 0 0 0 0 27.051072864458973 45.670583231179734 0 45.670583231179734 -7.5672719961687527 0 0 0 0 98.755324778838258 78.171375537418498 0 78.171375537418498 -93.283167300211062 0 0 0 0 -25.749057443725178 40.826914785779081 0 40.826914785779081 -17.524547919429097 0 0 0 0 0.5886851971881697 86.112213444084773 0 86.112213444084773 -16.447107792690076 0 0 0 0 24.787833531422621 47.491815915001851 0 47.491815915001851 -3.1401111665448536 0 0 0 0 36.558798887286684 11.674871674200404 0 11.674871674200404 -100.44759770908786 0 0 0 0 20.139291727682576 39.329253483334469 0 39.329253483334469 -55.418635040106892 0 0 0 0 -29.244853261414391 30.683795612470931 0 30.683795612470931 -19.311280409965548 0 0 0 0 112.09036694560928 -13.899004532973777 0 -13.899004532973777 -151.53182032761106 0 0 0 0 12.591171992738964 -10.615692059072899 0 -10.615692059072899 -130.41876412988495 0 0 0 0 -25.753633676620666 84.853418143480667 0 84.853418143480667 519.77182560435904 0 0 0 0 4.7618945091239766 3.9234909584489515 0 3.9234909584489515 1.7332525062074069 0 0 0 0 30.37473162675451 25.539311061813351 0 25.539311061813351 204.23510075457307 0 0 0 0 27.301070618486847 42.595611830322014 0 42.595611830322014 117.86612885419527 0 0 0 0 64.165135721501429 70.979155477281893 0 70.979155477281893 -237.35000355030206 0 0 0 0 1.5571027947808034 108.11770562957554 0 108.11770562957554 -118.25770375799038 0 0 0 0 15.443154407279224 7.904785546536317 0 7.904785546536317 4.5282550916105251 0 0 0 0 13.304842384153744 32.525050327327335 0 32.525050327327335 129.79723465673669 0 0 0 0 49.967942759103607 -56.948754683035077 0 -56.948754683035077 -154.33917228059727 0 0 0 0 -10.346364142664243 127.26770575274713 0 127.26770575274713 -106.70485406864009 0 0 0 0 19.015028767229524 40.403725006886816 0 40.403725006886816 22.404709476675635 0 0 0 0 23.354348957059102 14.507125187951473 0 14.507125187951473 -6.5728524629217375 0 0 0 0 25.034952485468239 56.160156729252776 0 56.160156729252776 -168.49513619788922 0 0 0 0 22.557906049798476 25.284605046654178 0 25.284605046654178 31.229472338818596 0 0 0 0 7.8350740060704993 13.502500841161236 0 13.502500841161236 72.227570750372251 0 0 0 0 13.575016986811534 51.17950817818928 0 51.17950817818928 81.050762400278472 0 0 0 0 5.8113480152605916 20.654088910290739 0 20.654088910290739 111.32719458165229 0 0 0 0 19.224171953028417 50.736027597020438 0 50.736027597020438 96.463188388450362 0 0 0 0 19.622331109341758 44.494842281657839 0 44.494842281657839 131.0638581244566 0 0 0 0 10.444278999784729 46.96427921151917 0 46.96427921151917 99.611891569569707 0 0 0 0 26.68883125751745 72.866979857557453 0 72.866979857557453 91.839439868054797 0 0 0 0 9.5418756907492934 45.559743835478002 0 45.559743835478002 82.233616849189275 0 0 0 0 22.161731445083205 61.814196194677606 0 61.814196194677606 72.92113388042344 0 0 0 0 -193.62964307528455 164.35049823322333 0 164.35049823322333 -308.17452731291996 0 0 0 0 -89.803962701676937 278.60728923427814 0 278.60728923427814 -206.48900369850162 0 0 0 0 32.348945989255299 57.321793716679437 0 57.321793716679437 70.064624578141547 0 0 0 0 28.667204851215502 73.449732818820848 0 73.449732818820848 77.270558698204695 0 0 0 0 38.533780604295316 76.173750892237877 0 76.173750892237877 70.694538891228149 0 0 0 0 -19.88137038989953 1.8327404857500369 0 1.8327404857500369 29.913767892634496 0 0 0 0 94.749583965645797 68.015595353745994 0 68.015595353745994 22.001384123723255 0 0 0 0 72.573435238960883 135.52708462220926 0 135.52708462220926 158.82636514290061 0 0 0 0 50.570421072203317 85.203019809479883 0 85.203019809479883 68.10444908844147 0 0 0 0 35.818584720509534 93.080564171974402 0 93.080564171974402 129.16187063496909 0 0 0 0 12.036974369919363 32.624268595916362 0 32.624268595916362 30.211863734251381 0 0 0 0 27.636517840179579 43.414474120504053 0 43.414474120504053 -7.9054661914120175 0 0 0 0 34.312143590283085 135.38159349458874 0 135.38159349458874 -76.120677578204777 0 0 0 0 -3.382568907312816 62.634381364070578 0 62.634381364070578 -54.074361503939144 0 0 0 0 -12.470506992336595 67.473731868114555 0 67.473731868114555 7.5938539696362568 0 0 0 0 -35.018087442927254 70.477460355430537 0 70.477460355430537 101.5905327723631 0 0 0 0 -0.22203009458681322 66.365821179540305 0 66.365821179540305 27.230983347803033 0 0 0 0 -4.3657795002218336 85.781141459767241 0 85.781141459767241 123.32183688413352 0 0 0 0 -11.543377443565987 60.651707014068961 0 60.651707014068961 -41.233300130115822 0 0 0 0 15.778571004505999 71.929905356078621 0 71.929905356078621 -21.57293554815675 0 0 0 0 -11.201261398309754 34.562633485455791 0 34.562633485455791 32.762882136926606 0 0 0 0 -4.4358867982584229 45.144348473349069 0 45.144348473349069 19.436021663670729 0 0 0 0 13.785124463320244 89.497818866133457 0 89.497818866133457 126.17129102963372 0 0 0 0 -21.208142242052418 45.250081772286649 0 45.250081772286649 57.936581777663378 0 0 0 0 6.2275805615499848 40.370629208140599 0 40.370629208140599 21.834037920329138 0 0 0 0 -0.51661533824380967 31.275540316666408 0 31.275540316666408 48.277260368823562 0 0 0 0 0.63969005503167864 62.835053603565029 0 62.835053603565029 19.465421135049837 0 0 0 0 -145.02655127867183 92.700720567212556 0 92.700720567212556 66.191009169211611 0 0 0 0 -86.887700219667749 206.12440180132398 0 206.12440180132398 62.086082584399264 0 0 0 0 -204.77875816778396 186.56705361689092 0 186.56705361689092 81.750134640773467 0 0 0 0 -275.62890556799539 54.182763736127526 0 54.182763736127526 66.0736599213555 0 0 0 0 -40.628091250750003 83.561968270230864 0 83.561968270230864 -232.9906129266019 0 0 0 0 -6.9896502049296885 9.1285716155637147 0 9.1285716155637147 26.218012953221546 0 0 0 0 13.253573170411983 32.98963680655288 0 32.98963680655288 72.78233858443491 0 0 0 0 -1.0402522545819011 56.635083347085128 0 56.635083347085128 45.792477391019929 0 0 0 0 -5.9538007925496288 14.202858827611863 0 14.202858827611863 14.51062295886021 0 0 0 0 2.4318735748456675 35.944106072021896 0 35.944106072021896 46.373815499449847 0 0 0 0 18.362379321057233 48.822418145515257 0 48.822418145515257 56.534469206235372 0 0 0 0 0.1315146277042345 42.890167436153803 0 42.890167436153803 -3.5907837719908855 0 0 0 0 14.294298424822045 29.306805092703144 0 29.306805092703144 47.371893717718194 0 0 0 0 -0.91188103280728683 32.427149990253383 0 32.427149990253383 17.053372898324596 0 0 0 0 -3.0256171854006766 19.890184902252713 0 19.890184902252713 2.510557423276623 0 0 0 0 8.2958931597313494 59.405655338501674 0 59.405655338501674 60.79943023098167 0 0 0 0 10.358255081617358 49.764006227780641 0 49.764006227780641 -30.074253065401635 0 0 0 0 6.6346506340385076 67.244724442253215 0 67.244724442253215 36.327538465989193 0 0 0 0 16.547970452171285 44.489897542287508 0 44.489897542287508 71.11954069075 0 0 0 0 19.069858638198639 36.353089339769213 0 36.353089339769213 50.224895870680484 0 0 0 0 14.354800454988435 360.04649763082853 0 360.04649763082853 -211.45571480199578 0 0 0 0 -84.464668645181519 101.27222378420993 0 101.27222378420993 45.128502086605295 0 0 0 0 23.2027975725141 47.431545816412836 0 47.431545816412836 -327.53531270561507 0 0 0 0 3.6697021421238389 5.1748562999189858 0 5.1748562999189858 2.9195440734835643 0 0 0 0 -48.807955380820204 66.924173954423168 0 66.924173954423168 6.5109094126673881 0 0 0 0 34.016136565043581 26.436894452257079 0 26.436894452257079 10.158189125641911 0 0 0 0 23.557224729906238 60.114333004617379 0 60.114333004617379 -58.484346845463733 0 0 0 0 -31.594402548151265 193.91115694809559 0 193.91115694809559 -18.179853348177858 0 0 0 0 13.933501647592919 42.953939000317305 0 42.953939000317305 56.83449364712186 0 0 0 0 -2.1912512016569963 165.42611833827686 0 165.42611833827686 -79.020373561797896 0 0 0 0 -30.617929744636058 169.30261868887465 0 169.30261868887465 -75.055553831953148 0 0 0 0 153.87298590683349 119.25289176294973 0 119.25289176294973 -35.790329964715056 0 0 0 0 40.998342733437227 36.891662321381993 0 36.891662321381993 24.229418669103495 0 0 0 0 -154.11233560458641 -45.962320532140438 0 -45.962320532140438 -116.71581246305868 0 0 0 0 48.302051743332413 229.45473795192083 0 229.45473795192083 -115.04988879240409 0 0 0 0 -34.782482336173416 2.5200747118215077 0 2.5200747118215077 37.620370131451637 0 0 0 0 -65.461569867598882 33.497568409569794 0 33.497568409569794 23.62284724379424 0 0 0 0 -35.119881368169445 29.769810010562651 0 29.769810010562651 -17.045651054897462 0 0 0 0 1.3627630857372424 52.797197845153278 0 52.797197845153278 -7.3945414933405118 0 0 0 0 -42.021155481183087 24.899337578593986 0 24.899337578593986 9.7144005618756637 0 0 0 0 63.604820505497628 43.589675426512258 0 43.589675426512258 12.383036456769332 0 0 0 0 235.2191707557904 53.645317058340879 0 53.645317058340879 -9.6495840129791759 0 0 0 0 57.788417335646045 132.5463045603824 0 132.5463045603824 27.065833763161208 0 0 0 0 -158.68272364860604 47.065164174397069 0 47.065164174397069 36.28352727292804 0 0 0 0 -5.4374791006848682 112.92504488558552 0 112.92504488558552 21.278217855899129 0 0 0 0 -0.22834904961659497 -2.503566056938169 0 -2.503566056938169 0.8696164294037203 0 0 0 0 30.2967701688749 107.04399423330688 0 107.04399423330688 80.293302283156663 0 0 0 0 11.032407019518494 1.8402758554572074 0 1.8402758554572074 -1.6559847762585491 0 0 0 0 -2.2353836033798871 34.120456772609032 0 34.120456772609032 62.640215155504848 0 0 0 0 -77.575940592196275 114.05596159435299 0 114.05596159435299 29.704360155039467 0 0 0 0 -9.5678368681619759 40.615635323934839 0 40.615635323934839 2.8046937353938119 0 0 0 0 115.56727412005421 144.4804695493367 0 144.4804695493367 1.7630551676556934 0 0 0 0 3.0799807848473506 19.065866948804171 0 19.065866948804171 19.917198260795431 0 0 0 0 5.454176228149592 8.998951341978696 0 8.998951341978696 3.2092124885676867 0 0 0 0 1.7645076025874005 11.772685479969368 0 11.772685479969368 0.47876941572758369 0 0 0 0 4.2470871165391042 14.50426979623942 0 14.50426979623942 2.0511213131951536 0 0 0 0 13.268208914043498 15.22035912006686 0 15.22035912006686 1.989412882423494 0 0 0 0 4.5336833180481335 16.734397180160158 0 16.734397180160158 9.8290141726611182 0 0 0 0 6.3161695098060591 14.600999462081745 0 14.600999462081745 4.6366346519207582 0 0 0 0 12.832819961615726 17.411884945457587 0 17.411884945457587 0.55904778540033817 0 0 0 0 4.1511817871542007 18.281305188043916 0 18.281305188043916 12.535664736205945 0 0 0 0 91.317301254886843 50.041817538258329 0 50.041817538258329 -26.387136758537963 0 0 0 0 -35.876920613184211 36.084636771598525 0 36.084636771598525 15.967071293736808 0 0 0 0 1.9527505997602379 2.0491801233916149 0 2.0491801233916149 1.4686317919581597 0 0 0 0 49.35261476746382 47.997968747273262 0 47.997968747273262 24.006730928987963 0 0 0 0 -18.676873006013921 40.582678857652354 0 40.582678857652354 24.012535133108031 0 0 0 0 35.965746774752915 70.757427929536789 0 70.757427929536789 -7.1851721804805493 0 0 0 0 -5.2431110122378755 4.3673209612326644 0 4.3673209612326644 1.2813342242286012 0 0 0 0 -40.986920397517679 -19.222811502520926 0 -19.222811502520926 -14.461428734881338 0 0 0 0 -0.89226183916199986 22.915793911044815 0 22.915793911044815 -1.9256915488208506 0 0 0 0 14.054047368255851 46.367591062240535 0 46.367591062240535 -0.93127894203644246 0 0 0 0 16.791812224262685 17.496144206132158 0 17.496144206132158 -4.190427242036094 0 0 0 0 9.2933177416543202 11.447133906601636 0 11.447133906601636 -12.476449322301676 0 0 0 0 -18.443737465135271 22.209652095533443 0 22.209652095533443 -10.031240785931175 0 0 0 0 -26.605561172640591 52.353333840183041 0 52.353333840183041 6.9475792829000511 0 0 0 0 -15.516965582697594 51.199928130503395 0 51.199928130503395 6.8947363593542832 0 0 0 0 7.9459202784615144 11.801296968406412 0 11.801296968406412 7.8622883957737599 0 0 0 0 -0.64315997571975458 -50.882241955332574 0 -50.882241955332574 -16.188075735553866 0 0 0 0 -7.2137802972420104 21.56989625337701 0 21.56989625337701 37.222172189853154 0 0 0 0 -46.329710212688951 53.061953671691299 0 53.061953671691299 17.871042121645587 0 0 0 0 -19.292863841292274 212.23451074506011 0 212.23451074506011 -206.38254794605018 0 0 0 0 37.553940915283661 13.568025217054128 0 13.568025217054128 4.7277841788840362 0 0 0 0 26.837652230071399 17.518133560413844 0 17.518133560413844 -0.014906714619428385 0 0 0 0 39.683302125176851 19.482245011473424 0 19.482245011473424 -11.475216879887739 0 0 0 0 42.380895663163756 26.104935243099135 0 26.104935243099135 0.0052992656055721454 0 0 0 0 -22.562990352191264 51.081639626732795 0 51.081639626732795 7.703308077485417 0 0 0 0 -21.209017716341464 79.263149340233213 0 79.263149340233213 -27.792379013975733 0 0 0 0 47.405619204290872 19.952878131189294 0 19.952878131189294 4.0270330017852274 0 0 0 0 72.738606689967128 23.741092546308209 0 23.741092546308209 -14.077644807639444 0 0 0 0 9.3115765147053473 -3.1939674507846973 0 -3.1939674507846973 -4.0263252715251951 0 0 0 0 1.9545544920209643 4.5834018216244488 0 4.5834018216244488 3.4976078465050477 0 0 0 0 -70.441312249779003 64.031302934556152 0 64.031302934556152 -0.033796280904639903 0 0 0 0 -79.634267455021472 54.094198170241725 0 54.094198170241725 -10.716810810452444 0 0 0 0 28.84993359656437 7.349798822800949 0 7.349798822800949 4.0393907611723989 0 0 0 0 -39.638601747414214 30.438582817692804 0 30.438582817692804 -9.0220469340856653 0 0 0 0 -7.1058511963501587 11.975285885977428 0 11.975285885977428 -0.59539505309658125 0 0 0 0 1.8009946607335365 9.3572402406861812 0 9.3572402406861812 8.5003157984004929 0 0 0 0 -0.87926511986006517 11.331992174207699 0 11.331992174207699 -0.20493008433550131 0 0 0 0 6.5776283659215551 13.450451273587532 0 13.450451273587532 2.435115182044683 0 0 0 0 4.7031174762177557 14.573215004465283 0 14.573215004465283 3.8345548804864933 0 0 0 0 11.882187465118538 7.257171354793627 0 7.257171354793627 0.90150878152115865 0 0 0 0 -3.534621652379343 9.5342366941427485 0 9.5342366941427485 10.112613263057028 0 0 0 0 -11.195571297663264 10.766759399033617 0 10.766759399033617 20.09963547316147 0 0 0 0 1.9182965835146177 12.667113422956049 0 12.667113422956049 8.4040893180288663 0 0 0 0 14.98504315088212 34.984085745294578 0 34.984085745294578 -23.9554089945741 0 0 0 0 -0.61267925319502581 0.90395040185092057 0 0.90395040185092057 3.176309465644124 0 0 0 0 -22.567010208571446 57.080490098393057 0 57.080490098393057 -13.273295478371438 0 0 0 0 -29.154715536060394 31.966545768344076 0 31.966545768344076 9.402062482200563 0 0 0 0 -248.38560438567765 423.48251311655258 0 423.48251311655258 32.932572679230361 0 0 0 0 61.257444565330331 84.383442655267459 0 84.383442655267459 96.964590434574973 0 0 0 0 -27.272026290658687 108.83149873047296 0 108.83149873047296 78.513505459062799 0 0 0 0 33.946737017104169 74.438211497137672 0 74.438211497137672 93.300511906913016 0 0 0 0 41.595690132897289 84.0884505510694 0 84.0884505510694 67.156400090341776 0 0 0 0 -23.226274454980739 497.95943559711304 0 497.95943559711304 -236.34026158586494 0 0 0 0 48.923427447682855 72.367566523756679 0 72.367566523756679 82.388594659353885 0 0 0 0 53.120143955517051 143.20759213888778 0 143.20759213888778 -53.351334709936054 0 0 0 0 -35.558322482436779 53.043168325508304 0 53.043168325508304 -138.84396458387891 0 0 0 0 337.47257818065555 -124.40905204776936 0 -124.40905204776936 -55.996015173234127 0 0 0 0 4.2211434702860657 2.8559977274569306 0 2.8559977274569306 2.7899575412019146 0 0 0 0 3.1963901661601994 -66.492945785086704 0 -66.492945785086704 182.85107593488647 0 0 0 0 33.792503940429015 155.68204641409102 0 155.68204641409102 -256.1586756954116 0 0 0 0 272.61188234393194 409.29405009051698 0 409.29405009051698 12.973747340976843 0 0 0 0 49.718868238705909 92.232035404813359 0 92.232035404813359 -490.67435650457628 0 0 0 0 179.93173336846667 -178.97331973484688 0 -178.97331973484688 59.61218992970862 0 0 0 0 -95.742660133675599 178.56096757385421 0 178.56096757385421 176.78442439499486 0 0 0 0 405.21420734572894 134.25359082539217 0 134.25359082539217 -399.67099499382311 0 0 0 0 24.193148455894999 8.8047669360655334 0 8.8047669360655334 2.7532722347386169 0 0 0 0 20.321490577938675 10.325364282274677 0 10.325364282274677 -7.8581026054453105 0 0 0 0 12.400222919532098 8.626774805074092 0 8.626774805074092 -0.0073962872047559358 0 0 0 0 8.0025554604404192 3.3733401357931712 0 3.3733401357931712 1.602316464661854 0 0 0 0 276.61702914089983 -474.88998861063737 0 -474.88998861063737 72.530840293027723 0 0 0 0 137.81037995081351 334.22569915368149 0 334.22569915368149 16.602025057625724 0 0 0 0 -235.91789976676955 -157.95889229740715 0 -157.95889229740715 661.15680168881227 0 0 0 0 -5.4660284803934474 0.59767409417608519 0 0.59767409417608519 -1.9204036950119487 0 0 0 0 -430.76803513504274 484.61001782283711 0 484.61001782283711 0.01129585511807818 0 0 0 0 673.91825240078288 1114.0794344990518 0 1114.0794344990518 -1450.9947088640765 0 0 0 0 -335.57241577923196 469.51635943751535 0 469.51635943751535 -377.13235611902201 0 0 0 0 -21.63485680355771 12.079451752249383 0 12.079451752249383 23.580247419916951 0 0 0 0 -104.57123436858092 128.0353144952096 0 128.0353144952096 -0.58416651203151559 0 0 0 0 4.0454450225907692 5.9878163886201889 0 5.9878163886201889 -19.840921004236662 0 0 0 0 255.56047622396727 312.95972101102598 0 312.95972101102598 152.17536910659146 0 0 0 0 21.631251701202928 39.62860939328948 0 39.62860939328948 -129.59705526726611 0 0 0 0 -18.49136760829424 280.96966350215371 0 280.96966350215371 60.793269292407786 0 0 0 0 -145.04940331411854 314.01297718152136 0 314.01297718152136 187.66306800719758 0 0 0 0 73.679905441316862 97.895819996294847 0 97.895819996294847 88.752295081307594 0 0 0 0 28.463294636938372 134.61077418471541 0 134.61077418471541 45.088168604569091 0 0 0 0 -26.758698463647306 102.45399240950132 0 102.45399240950132 146.86344809703587 0 0 0 0 22.970912825636333 183.71880409715777 0 183.71880409715777 226.67006416164804 0 0 0 0 47.359145208676637 67.378882492808771 0 67.378882492808771 189.37192954547936 0 0 0 0 11.313448131171754 119.04632606087398 0 119.04632606087398 148.3798163278625 0 0 0 0 -95.875653689407045 61.741356041085965 0 61.741356041085965 185.74744546680085 0 0 0 0 211.79560213410878 374.06458181756898 0 374.06458181756898 512.29130772936605 0 0 0 0 46.051295436816872 108.64081546167654 0 108.64081546167654 311.06043075393245 0 0 0 0 9.8846579475612089 180.11872280842545 0 180.11872280842545 365.19357294469955 0 0 0 0 265.22993544323253 283.5699079795304 0 283.5699079795304 231.64401645254839 0 0 0 0 202.06062065179867 253.8784327540634 0 253.8784327540634 217.69320616488403 0 0 0 0 586.67920197437343 277.80735128453671 0 277.80735128453671 206.46433298098418 0 0 0 0 272.38003006910958 160.92491347828854 0 160.92491347828854 179.84211972678895 0 0 0 0 90.693854210854624 132.09838405978371 0 132.09838405978371 230.93807526391538 0 0 0 0 169.85739069058036 342.18892371924085 0 342.18892371924085 363.37307688669534 0 0 0 0 158.75329358171439 166.76237224605211 0 166.76237224605211 134.51318015118159 0 0 0 0 3.0189224585246279 2.7599260234930512 0 2.7599260234930512 -2.1272597084505804 0 0 0 0 170.85107059633447 226.87904978981896 0 226.87904978981896 274.43513627628272 0 0 0 0 248.57384456150612 177.21719270775066 0 177.21719270775066 -137.18546685879119 0 0 0 0 -21.748150439641904 98.079650798696093 0 98.079650798696093 -0.38575614506340472 0 0 0 0 93.724103754400858 13.411802646165597 0 13.411802646165597 -526.75684886498129 0 0 0 0 255.7377873184887 320.98352271339536 0 320.98352271339536 -283.81855268692743 0 0 0 0 67.758138364057089 98.526752780404394 0 98.526752780404394 47.631427645202322 0 0 0 0 -14.815684526882251 99.71440741870174 0 99.71440741870174 -5.3295208898489363 0 0 0 0 8.6809546627009695 20.867840347446872 0 20.867840347446872 -173.8337158879549 0 0 0 0 67.026917036711779 90.203580060323475 0 90.203580060323475 7.3310727078899092 0 0 0 0 54.176579801482148 66.107517594937235 0 66.107517594937235 0.086026064542238601 0 0 0 0 1185.1173992070035 654.76020569778484 0 654.76020569778484 1.1036517695793009 0 0 0 0 67.763033987488598 182.71637221961282 0 182.71637221961282 455.17739038832951 0 0 0 0 1.9676695442953758 -5.2148178559567953 0 -5.2148178559567953 -9.5410269981611719 0 0 0 0 32.570059148870655 62.695941335333089 0 62.695941335333089 103.39567768602183 0 0 0 0 55.155483163352415 56.281044014728877 0 56.281044014728877 -97.170428100571826 0 0 0 0 668.70574365458742 706.19470164817903 0 706.19470164817903 636.5574085003027 0 0 0 0 123.92029296922556 199.83167854190469 0 199.83167854190469 81.724485114827985 0 0 0 0 73.58223108787206 95.005765788975168 0 95.005765788975168 5.8774383505151491 0 0 0 0 80.206794051933684 74.414481768919359 0 74.414481768919359 -137.38079660605581 0 0 0 0 4.6853752837913589 3.8875849303128405 0 3.8875849303128405 -3.0157661470929185 0 0 0 0 169.04546904593008 26.882837423131605 0 26.882837423131605 156.70029059240915 0 0 0 0 943.6114977058096 652.71869978451286 0 652.71869978451286 494.11156910617137 0 0 0 0 1705.0978666094015 1143.2022181397624 0 1143.2022181397624 24.218573811263923 0 0 0 0 1703.1827774575941 1472.7843021957378 0 1472.7843021957378 772.83715140557251 0 0 0 0 43.418974595324329 47.968982569265791 0 47.968982569265791 -109.76986111055712 0 0 0 0 -300.94380044292484 382.85321945340183 0 382.85321945340183 394.2378621202588 0 0 0 0 146.01311645284295 -140.82573704089737 0 -140.82573704089737 -537.23641005835088 0 0 0 0 108.98829239851329 200.74023627622228 0 200.74023627622228 445.44396810545732 0 0 0 0 2.7547747873513231 2.6820151199103464 0 2.6820151199103464 -2.0813861275214691 0 0 0 0 -5.8321082237234805 50.471360903649838 0 50.471360903649838 -317.72356668858265 0 0 0 0 290.28752617203645 186.72361964779429 0 186.72361964779429 67.601867302320898 0 0 0 0 410.21709046088654 333.19273554640677 0 333.19273554640677 -217.5122921892762 0 0 0 0 2.5876609686432914 0.18061389749016143 0 0.18061389749016143 -2.9077197223693076 0 0 0 0 175.03353791487461 50.008286935648357 0 50.008286935648357 -514.64125749653977 0 0 0 0 -83.857531980422209 27.698096017258649 0 27.698096017258649 250.26476904524316 0 0 0 0 -29.931392299193249 118.54394930362832 0 118.54394930362832 153.46685936687572 0 0 0 0 471.1871040770111 -152.42348931557899 0 -152.42348931557899 250.27735200649477 0 0 0 0 4.5823301137055523 4.0420915448485744 0 4.0420915448485744 -3.0066821839119484 0 0 0 0 -15.132858332246542 161.96738860284677 0 161.96738860284677 -35.659920199817861 0 0 0 0 117.9125934993499 252.23539589538268 0 252.23539589538268 11.246513431484345 0 0 0 0 -127.62857036189234 403.2027274138527 0 403.2027274138527 -81.032180421301746 0 0 0 0 -190.18442891183076 333.11277207333478 0 333.11277207333478 356.04614417665289 0 0 0 0 26.635834568391147 842.69562778825821 0 842.69562778825821 228.33539741692948 0 0 0 0 606.06927635807369 432.40281401824905 0 432.40281401824905 -58.596104305295739 0 0 0 0 2.4797192515003132 -0.18289790023510477 0 -0.18289790023510477 -2.3079049739049537 0 0 0 0 236.24693224834482 515.37831658936921 0 515.37831658936921 -51.189993500665878 0 0 0 0 -557.79869768982462 547.84612106080021 0 547.84612106080021 231.78880224326713 0 0 0 0 -577.4745893747604 -172.80559086350695 0 -172.80559086350695 761.72968832212064 0 0 0 0 154.3632501847751 1269.6690322783688 0 1269.6690322783688 -305.35432543030038 0 0 0 0 -950.10582947608782 1328.927216788572 0 1328.927216788572 185.07488960394403 0 0 0 0 -4.4015218841018822 8.4952186581735134 0 8.4952186581735134 -9.8719139649250849 0 0 0 0 -2142.3224562631476 0.11634454617160372 0 0.11634454617160372 421.98808821286366 0 0 0 0 1382.7937912444322 646.82715736815226 0 646.82715736815226 33.127921130890172 0 0 0 0 670.94552199940517 298.66924677889619 0 298.66924677889619 228.76514682561537 0 0 0 0 -564.25069642321614 21.461694962956244 0 21.461694962956244 -269.97298174748357 0 0 0 0 124.386538511033 18.666884640993885 0 18.666884640993885 114.27389183149353 0 0 0 0 419.66578454467162 136.7614832393765 0 136.7614832393765 271.38026218599407 0 0 0 0 403.37475569127128 222.55696145570619 0 222.55696145570619 47.368927671310303 0 0 0 0 548.59808903254452 374.61629736560644 0 374.61629736560644 109.8943824735652 0 0 0 0 2.1345506607107154 0.80952395347202355 0 0.80952395347202355 -3.1509335459262502 0 0 0 0 333.89124585458922 214.91880260622565 0 214.91880260622565 48.407000584884372 0 0 0 0 404.36528372523026 125.82054823671569 0 125.82054823671569 160.50903252808348 0 0 0 0 1.6382815432725693 1.1817849177553228 0 1.1817849177553228 -3.3450942017242369 0 0 0 0 550.08910368348006 346.77627731365646 0 346.77627731365646 74.111366155388168 0 0 0 0 651.63782824514783 282.32352999952673 0 282.32352999952673 130.39558431754995 0 0 0 0 603.43819836502371 295.07552847758052 0 295.07552847758052 130.46267999978488 0 0 0 0 -623.33144538581064 180.73625162098108 0 180.73625162098108 162.517098671844 0 0 0 0 -536.13445158236573 224.58506074777688 0 224.58506074777688 126.50057720973928 0 0 0 0 -10.451599000288269 23.31580999832974 0 23.31580999832974 -31.701529306744533 0 0 0 0 893.88591258086672 447.90693455816654 0 447.90693455816654 145.82731199117188 0 0 0 0 -160.22789028513944 78.804250187324214 0 78.804250187324214 128.07601935734237 0 0 0 0 -624.49820727825863 219.57406731756419 0 219.57406731756419 188.12445025005582 0 0 0 0 -387.54865019975114 45.992691394756548 0 45.992691394756548 215.68222717689605 0 0 0 0 -343.95550432416712 92.289260112036573 0 92.289260112036573 75.298814254580066 0 0 0 0 -295.99403760628775 182.89298870251878 0 182.89298870251878 47.153449843335693 0 0 0 0 -213.77009705716046 56.822223349914566 0 56.822223349914566 60.275481766817393 0 0 0 0 -88.620807277147833 149.09273581212983 0 149.09273581212983 17.680923481202626 0 0 0 0 -96.228795464965515 1.3242511388234561 0 1.3242511388234561 15.206017631772738 0 0 0 0 5.6810900056397813 33.520887259023368 0 33.520887259023368 22.850134622369296 0 0 0 0 31.909925747342641 69.470918422190152 0 69.470918422190152 57.2686242867494 0 0 0 0 9.3717963179224171 92.991148575501938 0 92.991148575501938 33.638134809210896 0 0 0 0 -12.254990762347006 263.0052846427061 0 263.0052846427061 -204.67560443175535 0 0 0 0 9.2830986644167695 28.876090718794174 0 28.876090718794174 31.622444707373489 0 0 0 0 -22.330450972847757 109.45717018047435 0 109.45717018047435 -168.20779748440691 0 0 0 0 196.80224516826274 217.09918215159269 0 217.09918215159269 -251.21079407853176 0 0 0 0 211.09016027691541 45.926649729000928 0 45.926649729000928 -189.54298334522173 0 0 0 0 99.87218661091174 278.72905475080188 0 278.72905475080188 248.29190184881736 0 0 0 0 -442.83133958465623 -9.0975019145989791 0 -9.0975019145989791 524.99288392185554 0 0 0 0 37.161085681931581 1.1612184860969137 0 1.1612184860969137 10.555239393777811 0 0 0 0 102.49138147398796 85.349173393112721 0 85.349173393112721 -80.299249007090111 0 0 0 0 16.157460960160876 30.183977388073423 0 30.183977388073423 45.020882778759301 0 0 0 0 5.2060662283472432 5.1773762085376234 0 5.1773762085376234 1.8659416526359109 0 0 0 0 -7.7684664768457878 -27.790918585196778 0 -27.790918585196778 102.78365800229221 0 0 0 0 169.59602238985826 163.66926660871832 0 163.66926660871832 -125.63644199175178 0 0 0 0 -1.9563377880840562 -124.10800806756743 0 -124.10800806756743 -156.18192823171057 0 0 0 0 54.475815710960887 68.562157828724594 0 68.562157828724594 47.932085015963821 0 0 0 0 297.43108258904107 61.539960070601893 0 61.539960070601893 -57.331338879201212 0 0 0 0 -0.80299310667196233 -3.2331132449029099 0 -3.2331132449029099 1.3981465759437697 0 0 0 0 65.597910742711974 82.710916798256221 0 82.710916798256221 304.78335252295619 0 0 0 0 -315.31724876885357 -88.240709934136845 0 -88.240709934136845 97.447301438180148 0 0 0 0 7.9860132061439799 -56.453383072872384 0 -56.453383072872384 -30.018318496586289 0 0 0 0 1177.1318976635521 -70.341623409280146 0 -70.341623409280146 -334.59886038510012 0 0 0 0 -372.94869250361808 -54.279805153724737 0 -54.279805153724737 71.816029192639689 0 0 0 0 -173.48454722139286 122.84001310906388 0 122.84001310906388 467.13960210676669 0 0 0 0 4.1278563553290724 5.7006771059680688 0 5.7006771059680688 9.0874145135249762 0 0 0 0 -109.65383581537753 364.83475995455956 0 364.83475995455956 -76.081461114230478 0 0 0 0 -635.65823373488092 167.37979499497033 0 167.37979499497033 129.12982724716858 0 0 0 0 123.01363465403847 -23.245755412775907 0 -23.245755412775907 -8.4598534965189174 0 0 0 0 14.538874340463337 18.856113349075912 0 18.856113349075912 24.238103127002603 0 0 0 0 -37.967117137101013 231.83160732646138 0 231.83160732646138 -46.346574066576068 0 0 0 0 822.53689163783565 2371.3673021430513 0 2371.3673021430513 1.7169294418345089 0 0 0 0 -2.2099747900028888 3050.4133842239808 0 3050.4133842239808 2409.7045351275447 0 0 0 0 1016.7657353141694 920.01316398546624 0 920.01316398546624 -412.57019032848621 0 0 0 0 6.9060169303770067 9.4560619005622755 0 9.4560619005622755 8.1587416182460117 0 0 0 0 -574.04410483087304 760.27120307288897 0 760.27120307288897 838.47936225110607 0 0 0 0 -541.7374559690943 1148.1195584642337 0 1148.1195584642337 4831.7323734895435 0 0 0 0 287.53649469328957 2912.9697932295239 0 2912.9697932295239 989.3674661458499 0 0 0 0 1023.2671566110876 1952.1611008852269 0 1952.1611008852269 874.05298437409965 0 0 0 0 264.83623710856773 1553.7339469321123 0 1553.7339469321123 771.83616794913542 0 0 0 0 583.10728122112778 1788.0418595522242 0 1788.0418595522242 837.90395621776406 0 0 0 0 125.0877310376527 1703.2968574097249 0 1703.2968574097249 1827.3257249338421 0 0 0 0 755.88696104027622 1568.3522119552217 0 1568.3522119552217 -70.845981279970147 0 0 0 0 985.43692360830028 2127.2291253938165 0 2127.2291253938165 1113.3145106056691 0 0 0 0 771.57033015872003 1479.1036945482338 0 1479.1036945482338 752.85487257011118 0 0 0 0 -151.60557111218804 890.47604248156131 0 890.47604248156131 1290.73021552508 0 0 0 0 752.65371143910397 1691.9399122181071 0 1691.9399122181071 452.98645016938099 0 0 0 0 2083.7447979329881 2538.729853637029 0 2538.729853637029 -18.712868757655087 0 0 0 0 962.50256433033792 681.89023885589995 0 681.89023885589995 -1351.6199846294403 0 0 0 0 1787.0538412190654 1504.708408450002 0 1504.708408450002 706.03180906944908 0 0 0 0 738.7251047375139 1567.198611117984 0 1567.198611117984 859.95615344698308 0 0 0 0 805.36611003507278 1863.2943232382604 0 1863.2943232382604 549.90706634054368 0 0 0 0 977.88831148644022 1826.0597658934357 0 1826.0597658934357 579.61147274421091 0 0 0 0 1827.720322393674 1682.0675575197019 0 1682.0675575197019 0.21622795271000406 0 0 0 0 1729.8534352998613 1300.4619497594654 0 1300.4619497594654 762.27270019729622 0 0 0 0 1786.5785836943614 1557.5526644603342 0 1557.5526644603342 635.16729981754906 0 0 0 0 662.67641259840457 29.823999624655698 0 29.823999624655698 -415.54436414026713 0 0 0 0 1698.5543239991675 1976.97155199384 0 1976.97155199384 1379.5137398732913 0 0 0 0 2239.6933230708091 2041.8250121932579 0 2041.8250121932579 1340.2523962925407 0 0 0 0 1545.0915742149227 2252.519776322315 0 2252.519776322315 2697.6312874005816 0 0 0 0 161.48506867420656 5.0288467348573249 0 5.0288467348573249 -94.850958958093543 0 0 0 0 34.039744800582156 49.099602635270742 0 49.099602635270742 -98.538101765651618 0 0 0 0 2.5562448931258075 0.52153134294405845 0 0.52153134294405845 -3.1780270019713157 0 0 0 0 128.49558249067923 241.89216864353511 0 241.89216864353511 31.505390900903876 0 0 0 0 31.917539051279164 -66.984043086677502 0 -66.984043086677502 -26.410706852002477 0 0 0 0 22.738108473181967 45.059577231937425 0 45.059577231937425 -82.374098661912171 0 0 0 0 2309.3808227664413 2992.935253355965 0 2992.935253355965 2530.6223568436453 0 0 0 0 87.427277025672083 211.69141875344576 0 211.69141875344576 94.73961895674438 0 0 0 0 1.4818819103834073 0.2572814953993543 0 0.2572814953993543 -1.7092524443779382 0 0 0 0 27.949052344942174 -7.2445893390213314 0 -7.2445893390213314 31.861719751941564 0 0 0 0 336.45354156034591 101.8649879057848 0 101.8649879057848 82.464882132779167 0 0 0 0 209.52855497826386 220.75326976001998 0 220.75326976001998 -11.071842565826955 0 0 0 0 322.82317934095045 405.13041503469503 0 405.13041503469503 115.98642857559071 0 0 0 0 52.699642316933023 163.49653631846741 0 163.49653631846741 15.36152062589963 0 0 0 0 102.94869691395434 344.0448909621482 0 344.0448909621482 -3.9370995290278188 0 0 0 0 50.774038181261858 64.497314066768013 0 64.497314066768013 -30.85397129257035 0 0 0 0 90.632292387614143 296.30365184190305 0 296.30365184190305 -187.32175906006614 0 0 0 0 50.577406001041709 137.44271775153538 0 137.44271775153538 -165.96434191506705 0 0 0 0 159.39604749029968 177.95200862477213 0 177.95200862477213 -208.31608913328819 0 0 0 0 115.02446334261913 26.700517929137277 0 26.700517929137277 -345.27576550569211 0 0 0 0 10.579589984061329 40.18485258653169 0 40.18485258653169 -65.607968830876018 0 0 0 0 1900.3566157755304 2531.653710155505 0 2531.653710155505 3365.7674646714004 0 0 0 0 -3.6693104079458863 61.591901773776044 0 61.591901773776044 -29.914347826195808 0 0 0 0 2030.6232767715646 3652.8488867010892 0 3652.8488867010892 5184.8879115578457 0 0 0 0 8.8820123375004982 9.8675680833800072 0 9.8675680833800072 -1.5074783706570543 0 0 0 0 1102.9668798834609 1727.874225999527 0 1727.874225999527 3584.081446907614 0 0 0 0 1331.2066217663487 1566.7734524592815 0 1566.7734524592815 2856.4614893523976 0 0 0 0 190.56507212012366 1984.2856004340429 0 1984.2856004340429 2639.1751604530436 0 0 0 0 2435.4704424650408 1981.8322740390431 0 1981.8322740390431 2558.79768846347 0 0 0 0 16.663542767958859 17.803879987756034 0 17.803879987756034 -4.4604577673976848 0 0 0 0 8.6432766336569102 15.00339711503139 0 15.00339711503139 -2.4787750742571717 0 0 0 0 -345.88641035988985 1444.0542925702102 0 1444.0542925702102 5096.6461395499282 0 0 0 0 -574.87207778345328 1099.2205052311765 0 1099.2205052311765 4781.4780447398953 0 0 0 0 6.2936488692718058 10.491129462895358 0 10.491129462895358 8.0084298471054325 0 0 0 0 767.14675752066887 1034.6602514492797 0 1034.6602514492797 1436.964364510437 0 0 0 0 687.17292225272104 608.9115755937928 0 608.9115755937928 1315.746130986372 0 0 0 0 68.939925625250908 812.74614767298044 0 812.74614767298044 2155.8420784102054 0 0 0 0 723.69122018768212 1532.8378859524018 0 1532.8378859524018 2347.9124758102989 0 0 0 0 1669.0245592061547 1816.6017330904706 0 1816.6017330904706 2351.9208615465759 0 0 0 0 488.57581869044225 1431.1481105715357 0 1431.1481105715357 2855.2162468194874 0 0 0 0 907.35129228723235 1513.3475312521477 0 1513.3475312521477 2274.2384444439376 0 0 0 0 1481.9061096327932 2135.8543738039079 0 2135.8543738039079 2338.677592944638 0 0 0 0 -0.31002345214153593 34.551485519044036 0 34.551485519044036 -50.67486880503813 0 0 0 0 -421.37691812265257 348.43179114875238 0 348.43179114875238 -356.38638485324918 0 0 0 0 118.55606161856304 -28.003702501699536 0 -28.003702501699536 -423.930601990578 0 0 0 0 173.95758336654035 116.99697329845412 0 116.99697329845412 -530.67745251997258 0 0 0 0 144.68974935785809 287.75367402683696 0 287.75367402683696 -269.56956847404945 0 0 0 0 -33.723739279346773 -803.31593470241933 0 -803.31593470241933 -879.37380354605011 0 0 0 0 -2.3055440905546902 21.581161681692492 0 21.581161681692492 -30.729338328058361 0 0 0 0 0.5725877330497724 2.7237480217784196 0 2.7237480217784196 -7.6306184861649626 0 0 0 0 1050.977759153302 1219.000499609343 0 1219.000499609343 1654.3344511003525 0 0 0 0 351.55414760152053 1471.0160888342725 0 1471.0160888342725 2134.5393062758449 0 0 0 0 1068.6619084583945 1857.5222566708035 0 1857.5222566708035 2027.8131839580838 0 0 0 0 -0.430461310694227 1195.7281339012552 0 1195.7281339012552 1895.6293184419883 0 0 0 0 513.3697620960229 1030.7997793285413 0 1030.7997793285413 1629.3307050159347 0 0 0 0 -0.0095573456928832456 1420.5317633129671 0 1420.5317633129671 1392.7013200062138 0 0 0 0 380.55690952765872 606.88038760234485 0 606.88038760234485 237.19249644527008 0 0 0 0 -0.29344569168887347 5.4776097967607882 0 5.4776097967607882 2.3948326048319615 0 0 0 0 -511.56910967259319 692.16384516729886 0 692.16384516729886 4457.2605380447494 0 0 0 0 212.43528058900847 1089.2519620248422 0 1089.2519620248422 1853.3142069085698 0 0 0 0 403.20418938575312 -437.89028904290353 0 -437.89028904290353 1374.2793827902933 0 0 0 0 -4.4161624830885557 1249.4180170593754 0 1249.4180170593754 1923.393530629517 0 0 0 0 3.8936666649096878 1251.4023841657327 0 1251.4023841657327 1923.0236983004579 0 0 0 0 824.15930107700115 975.72376810235073 0 975.72376810235073 -1310.1845883998103 0 0 0 0 -1.318051899981648 795.60281221094351 0 795.60281221094351 1080.949787524718 0 0 0 0 398.79089798509813 1273.3735552604485 0 1273.3735552604485 770.75223658526374 0 0 0 0 253.75115918466327 671.68918674112865 0 671.68918674112865 -1010.5875081563863 0 0 0 0 198.43662433434656 703.15333294361881 0 703.15333294361881 -40.138908410342992 0 0 0 0 21.787037645088276 427.68933766104601 0 427.68933766104601 228.72281547011517 0 0 0 0 205.86921407585032 200.2268288278392 0 200.2268288278392 -461.74802000101772 0 0 0 0 -1.3028628252863972 1079.3175364178383 0 1079.3175364178383 -333.22009588006767 0 0 0 0 -2.1086178759390179 4.0688396998737062 0 4.0688396998737062 -6.2530428728782965 0 0 0 0 320.15333381234086 -294.14660833724338 0 -294.14660833724338 -1732.4580205212951 0 0 0 0 232.19622569203784 -1241.982420596978 0 -1241.982420596978 -908.26934804880875 0 0 0 0 575.57742654092726 1049.7075706073738 0 1049.7075706073738 1797.0978766005646 0 0 0 0 2.1106927031393012 952.54357631893117 0 952.54357631893117 1782.8668363613397 0 0 0 0 -1.8370972122239664 5.9575119400265351 0 5.9575119400265351 -7.9023147059784549 0 0 0 0 -523.85724811216642 409.82048141394625 0 409.82048141394625 -438.57897687483637 0 0 0 0 -1.4370734004477583 7.0625250750935606 0 7.0625250750935606 -13.435766692128283 0 0 0 0 295.1463363615112 393.01410303273587 0 393.01410303273587 -73.974533437816717 0 0 0 0 204.26151085113815 76.482280812771933 0 76.482280812771933 6.5423586512224574 0 0 0 0 142.02612935939396 118.93817090012453 0 118.93817090012453 238.79672373821813 0 0 0 0 205.43034639740654 164.49693398507952 0 164.49693398507952 133.9690341526948 0 0 0 0 -79.505229662900092 -767.21126636207919 0 -767.21126636207919 -811.93183594968286 0 0 0 0 206.80329108114529 128.78732108071563 0 128.78732108071563 59.010650278927642 0 0 0 0 134.9895689151308 259.97321957811437 0 259.97321957811437 80.39241346813651 0 0 0 0 119.78244270865252 180.93423450094951 0 180.93423450094951 60.884517654587398 0 0 0 0 143.36597638584499 92.026433075938257 0 92.026433075938257 152.28481786897464 0 0 0 0 84.670434423576808 138.79819941199094 0 138.79819941199094 -12.311138772951381 0 0 0 0 175.04353317736968 398.76849025090087 0 398.76849025090087 398.06592318449839 0 0 0 0 1.0009596553861684 2.2579566710556946 0 2.2579566710556946 -2.2003126829375219 0 0 0 0 214.57955477178621 119.87570898282866 0 119.87570898282866 -794.82717081016017 0 0 0 0 225.19440777262207 613.14683227824571 0 613.14683227824571 -531.10943791315367 0 0 0 0 91.269654912481201 428.26485840700479 0 428.26485840700479 -68.248319715712569 0 0 0 0 18.030314601550344 466.03037128609139 0 466.03037128609139 -0.5036967252381146 0 0 0 0 133.43596909834741 428.92720219622424 0 428.92720219622424 -198.45630035673094 0 0 0 0 85.291804618827882 501.97801051827264 0 501.97801051827264 -17.220922808475734 0 0 0 0 92.156180142032099 299.05915316900428 0 299.05915316900428 124.01251995215171 0 0 0 0 131.67994297433324 378.58195811227051 0 378.58195811227051 -25.440013149695005 0 0 0 0 138.98775200253203 304.56937538376792 0 304.56937538376792 58.496936746807478 0 0 0 0 213.99073513095209 226.93443868879694 0 226.93443868879694 70.693667489698782 0 0 0 0 1.1287248623996788 3.9559284779541031 0 3.9559284779541031 -3.3786555217590006 0 0 0 0 129.92637897468376 301.20073663169387 0 301.20073663169387 181.91627258541848 0 0 0 0 113.33845778596879 154.45548001001953 0 154.45548001001953 -178.95474911119891 0 0 0 0 55.453534036831115 192.93652762502097 0 192.93652762502097 76.39077655984147 0 0 0 0 126.20982502440529 100.68287292041759 0 100.68287292041759 -433.50898924816283 0 0 0 0 0.79559131238607961 2.2292000950480428 0 2.2292000950480428 -1.8326414350053994 0 0 0 0 225.09804570936831 430.6364842484727 0 430.6364842484727 437.61163415464762 0 0 0 0 170.41081510511867 225.28109845904692 0 225.28109845904692 285.42530586122302 0 0 0 0 233.66946495692537 398.53701538869882 0 398.53701538869882 5.6168475423546624 0 0 0 0 248.49995250413485 269.77226287339909 0 269.77226287339909 -92.2550957000567 0 0 0 0 255.72431779647013 282.79755936465153 0 282.79755936465153 124.58754064969253 0 0 0 0 256.62723306956468 276.42212107725209 0 276.42212107725209 153.47035398529988 0 0 0 0 270.3127753445151 242.25468295239261 0 242.25468295239261 144.67310304144848 0 0 0 0 411.02579945555772 236.10601220460376 0 236.10601220460376 60.820622312472551 0 0 0 0 269.36364081093416 248.70478983884914 0 248.70478983884914 103.82206269254675 0 0 0 0 239.13229006108304 207.13392355333235 0 207.13392355333235 105.42630731677491 0 0 0 0 124.93900842763833 191.63013926401982 0 191.63013926401982 75.143752467913146 0 0 0 0 231.62319864869642 245.56977480414935 0 245.56977480414935 93.341218507419399 0 0 0 0 287.5523247344463 176.61353592635714 0 176.61353592635714 51.914379803471093 0 0 0 0 396.20388320958591 231.73348340484517 0 231.73348340484517 60.031994208966353 0 0 0 0 264.21640381414545 213.32630444419374 0 213.32630444419374 38.977735510561615 0 0 0 0 257.03755616714625 196.54190282992749 0 196.54190282992749 9.1106968447420513 0 0 0 0 41.59953668617527 151.79289379347392 0 151.79289379347392 11.957435086151236 0 0 0 0 175.27637469264664 245.53652854092343 0 245.53652854092343 -124.34114332235913 0 0 0 0 251.88451614512451 71.710575767668161 0 71.710575767668161 -52.816366380480758 0 0 0 0 359.56431043129123 329.51677894038949 0 329.51677894038949 -136.08763932432339 0 0 0 0 551.15788954184973 270.723104366607 0 270.723104366607 -217.28074623410794 0 0 0 0 -16.63612052239867 42.62978686497371 0 42.62978686497371 -81.837033134594407 0 0 0 0 366.33932061727683 50.218321754131466 0 50.218321754131466 -90.528830839357397 0 0 0 0 -10.385732789698523 475.69067724988417 0 475.69067724988417 -583.44811882965587 0 0 0 0 69.695841689041117 168.4158096049614 0 168.4158096049614 -37.198769444679783 0 0 0 0 -53.430149538660771 85.035316508714459 0 85.035316508714459 -232.77484974081381 0 0 0 0 -235.40807174546353 301.86852712970722 0 301.86852712970722 -144.12474806928367 0 0 0 0 -1.7453698911866695 1.0017837850322167 0 1.0017837850322167 0.89595718399553448 0 0 0 0 -46.144525731535396 -65.690157452787389 0 -65.690157452787389 487.71092311109533 0 0 0 0 4.0853848044935148 -82.938759940887394 0 -82.938759940887394 119.36417074488418 0 0 0 0 -5.6666567676119257 1.9039308986738703 0 1.9039308986738703 2.1969773132847621 0 0 0 0 -167.64153698380687 138.54473127996971 0 138.54473127996971 91.243461295046018 0 0 0 0 -110.43800976196508 361.73621004957022 0 361.73621004957022 -524.86871008714661 0 0 0 0 -201.88083429299877 107.37146406307147 0 107.37146406307147 -162.97945650526162 0 0 0 0 -210.78555106848216 296.78900530169267 0 296.78900530169267 89.040220859955298 0 0 0 0 -164.70216466058628 303.34500216878951 0 303.34500216878951 -71.404821225245541 0 0 0 0 -67.635087156399095 181.47774158269021 0 181.47774158269021 -86.564735339183244 0 0 0 0 39.289744012159645 284.34572612507691 0 284.34572612507691 11.935108692217909 0 0 0 0 -50.924332990078256 296.89724957291764 0 296.89724957291764 72.079536249933881 0 0 0 0 -11.027609790471615 335.83990851993076 0 335.83990851993076 69.308960215648767 0 0 0 0 -87.369334362294467 442.4407559659976 0 442.4407559659976 127.0706445928372 0 0 0 0 38.446454857374192 469.71194428433228 0 469.71194428433228 78.806611422805872 0 0 0 0 171.92627152852947 585.12151131637074 0 585.12151131637074 96.005673779916833 0 0 0 0 37.554593276995547 479.82847045816743 0 479.82847045816743 13.516617384535493 0 0 0 0 84.219115714629879 307.27983652515832 0 307.27983652515832 66.238134334096685 0 0 0 0 242.31452743119735 386.73787809586793 0 386.73787809586793 27.187469959542796 0 0 0 0 3.2957796787662232 1.2929468314962662 0 1.2929468314962662 -2.8889880446711231 0 0 0 0 2269.6288221777068 166.32815635355655 0 166.32815635355655 1996.2319756534998 0 0 0 0 211.25050541252494 864.71653057068579 0 864.71653057068579 567.6706507744675 0 0 0 0 98.561264565301826 1398.465918609334 0 1398.465918609334 1828.88252620399 0 0 0 0 -491.98145832645241 333.91797713041888 0 333.91797713041888 2176.5200897374452 0 0 0 0 -288.93278295791242 -500.52591069584014 0 -500.52591069584014 751.45902589792968 0 0 0 0 -384.42877361632418 -246.79789197354694 0 -246.79789197354694 1676.1977396823931 0 0 0 0 5302.7365492739482 398.00660522485123 0 398.00660522485123 -694.73308373481268 0 0 0 0 2.0634508919604286 6.671499021141841 0 6.671499021141841 5.4350574362697159 0 0 0 0 3867.9053127970546 -1360.5092248682631 0 -1360.5092248682631 511.05309338099323 0 0 0 0 130.03032855386846 -370.20304804451007 0 -370.20304804451007 5.3110446570935892 0 0 0 0 27.615214754026965 222.97777757929362 0 222.97777757929362 416.51516129268566 0 0 0 0 -38.384765014459845 447.54231865276233 0 447.54231865276233 1312.7714435655507 0 0 0 0 -39.949780890630791 533.38668663882709 0 533.38668663882709 174.25049614666568 0 0 0 0 -144.87761791609228 135.90556163548899 0 135.90556163548899 480.03107698720669 0 0 0 0 -25.104082427613321 490.42146835082895 0 490.42146835082895 158.3806907439066 0 0 0 0 -245.69408557269344 371.84265064794454 0 371.84265064794454 266.93077959431685 0 0 0 0 -274.10554835110088 195.48294275059015 0 195.48294275059015 35.62770372050727 0 0 0 0 -13.561889972682422 2.8581093134659312 0 2.8581093134659312 5.9632660379539288 0 0 0 0 71.602049473818624 263.01055667554465 0 263.01055667554465 -234.64928510293248 0 0 0 0 -183.24664027168183 348.25160293615045 0 348.25160293615045 140.87868928573153 0 0 0 0 -122.18538494152381 60.45459724254215 0 60.45459724254215 76.588647148666496 0 0 0 0 58.550657570478506 70.178237967229506 0 70.178237967229506 -419.63496038369522 0 0 0 0 57.394100774632534 150.54111736617779 0 150.54111736617779 -192.87791681682211 0 0 0 0 193.05723439509165 338.19756699964637 0 338.19756699964637 -499.22736629270184 0 0 0 0 229.55376941667055 447.0428785368058 0 447.0428785368058 -256.79283529499662 0 0 0 0 359.71295690700936 381.93002185280056 0 381.93002185280056 -108.83104527198884 0 0 0 0 338.54341205445235 321.75985974880314 0 321.75985974880314 -193.81192611795268 0 0 0 0 26.81716075594764 24.340527077418031 0 24.340527077418031 14.39544904559537 0 0 0 0 399.50459735954792 339.2116374684374 0 339.2116374684374 -205.15918270472321 0 0 0 0 -50.555196440313011 343.40797513458529 0 343.40797513458529 -67.726985965753556 0 0 0 0 65.97323135426268 491.84339069677662 0 491.84339069677662 -218.3605561851582 0 0 0 0 363.82047333283117 451.5144758601964 0 451.5144758601964 -217.10352051311202 0 0 0 0 730.31886736280285 454.16684764574165 0 454.16684764574165 -227.63336727232672 0 0 0 0 192.41606028849492 -225.18545136851753 0 -225.18545136851753 -327.16262289477163 0 0 0 0 -5.5258327130610496 4.8805018769545185 0 4.8805018769545185 4.9157495735012873 0 0 0 0 1905.6970750344335 -874.00703851222352 0 -874.00703851222352 -693.28583554367651 0 0 0 0 1695.4265528912911 776.35712430799322 0 776.35712430799322 -525.47809390307521 0 0 0 0 840.87382496852661 836.9176840766886 0 836.9176840766886 -23.59928683200269 0 0 0 0 -285.3366176566924 1161.1472693258693 0 1161.1472693258693 185.09708378887444 0 0 0 0 -3.458468224349815 11.153865949089095 0 11.153865949089095 -3.138103026363126 0 0 0 0 -48.024033233436057 84.378012186414708 0 84.378012186414708 -2.6254327128262958 0 0 0 0 1460.1383167476597 2544.8166966333483 0 2544.8166966333483 -11.356173938896973 0 0 0 0 130.05728262805496 466.35809514713037 0 466.35809514713037 223.72877060181054 0 0 0 0 2234.8280991119682 408.54067461981322 0 408.54067461981322 -275.0597229222185 0 0 0 0 760.65198563819285 538.13566709170118 0 538.13566709170118 -568.03381621759036 0 0 0 0 416.52704783782247 459.00056652864805 0 459.00056652864805 21.297305799700553 0 0 0 0 578.9533532524656 233.42602782241011 0 233.42602782241011 292.70194281188014 0 0 0 0 527.19695827766554 524.83869686003163 0 524.83869686003163 -102.54554912085405 0 0 0 0 575.03814313444309 472.47593568484444 0 472.47593568484444 -191.41693900495011 0 0 0 0 648.74014173357864 243.87789128542499 0 243.87789128542499 -37.321556494418473 0 0 0 0 789.92655639883014 203.11058481098735 0 203.11058481098735 -103.58459566159763 0 0 0 0 727.09232887615508 297.76708249799412 0 297.76708249799412 -83.559358642072766 0 0 0 0 577.32573479021084 196.18279268279002 0 196.18279268279002 -164.08939057972657 0 0 0 0 537.46026420089765 406.2889999727704 0 406.2889999727704 -195.5316482992348 0 0 0 0 907.01476752646704 217.46922875038217 0 217.46922875038217 -69.721504835877568 0 0 0 0 -0.33996443191733627 12.507140707075081 0 12.507140707075081 7.3874037498287919 0 0 0 0 -3.8592355135042453 16.696093393229603 0 16.696093393229603 17.28501787600544 0 0 0 0 815.1601672209581 125.47754884944516 0 125.47754884944516 35.053655712748878 0 0 0 0 -1.9150075129633635 5.3876810178497294 0 5.3876810178497294 30.458180406507665 0 0 0 0 -57.467411509573594 93.91914519982106 0 93.91914519982106 -3.3694289927370846 0 0 0 0 -0.52651859747641083 4.1201000104360617 0 4.1201000104360617 10.496044395200471 0 0 0 0 -0.34602963484940119 13.379675099338783 0 13.379675099338783 34.918166457740881 0 0 0 0 1.4243088518996956 82.8948557582371 0 82.8948557582371 163.23087346426109 0 0 0 0 63.149414660976618 92.852987157970347 0 92.852987157970347 129.45350735983811 0 0 0 0 55.202126051561208 -0.19022830696485471 0 -0.19022830696485471 8.1844546381726104 0 0 0 0 -2.1275794122193474 80.10632024869119 0 80.10632024869119 -103.3894655941549 0 0 0 0 46.432408340275288 -20.49562059398886 0 -20.49562059398886 -38.17773232026957 0 0 0 0 3720.6692115312908 2246.9555452363129 0 2246.9555452363129 -361.10737604717724 0 0 0 0 39.369470129749971 -81.106860246873111 0 -81.106860246873111 -46.461281582018273 0 0 0 0 50.627772486943286 23.375728058425011 0 23.375728058425011 -60.364696204167558 0 0 0 0 27.858840396336745 34.960689660074422 0 34.960689660074422 213.74044574802974 0 0 0 0 -74.982497975230217 -15.774576683295891 0 -15.774576683295891 243.24406792185619 0 0 0 0 -120.65282336663222 318.05329192168574 0 318.05329192168574 155.45920560723607 0 0 0 0 -134.39861218070291 329.66838131404074 0 329.66838131404074 740.13385215366725 0 0 0 0 -300.20893047392019 276.44650687235844 0 276.44650687235844 1210.8508089729585 0 0 0 0 689.12957926034869 898.20887333934661 0 898.20887333934661 921.39577951063984 0 0 0 0 0.39588975735944842 1.3498970482749826 0 1.3498970482749826 10.881815733456165 0 0 0 0 -140.27931622479809 49.685135659257867 0 49.685135659257867 898.54338772852498 0 0 0 0 -149.77745859163406 -94.535511165282514 0 -94.535511165282514 397.80768209365488 0 0 0 0 -316.4864303719587 124.63940366254883 0 124.63940366254883 -259.3809027749885 0 0 0 0 -343.75796401321713 97.668257192912279 0 97.668257192912279 -47.559350751202146 0 0 0 0 -584.99302139657811 303.35088994281796 0 303.35088994281796 -22.315086735539808 0 0 0 0 -559.26827943289391 210.70536533021004 0 210.70536533021004 17.034312741612666 0 0 0 0 0.13925778347910978 1.506864026355089 0 1.506864026355089 -0.20629630754979189 0 0 0 0 -703.35222220127253 198.47863120404327 0 198.47863120404327 42.603889411599084 0 0 0 0 -408.125652961171 42.407302620460541 0 42.407302620460541 -75.297502839603112 0 0 0 0 -609.7124745890651 71.398637099852749 0 71.398637099852749 -39.612319455984107 0 0 0 0 -386.42794035315455 141.94864585976029 0 141.94864585976029 119.82092713426391 0 0 0 0 -195.44894710446533 -88.739544164545805 0 -88.739544164545805 -80.73943358156248 0 0 0 0 -43.578601239612908 286.10401559765887 0 286.10401559765887 391.94180009443517 0 0 0 0 -143.46923699289619 311.71001102688388 0 311.71001102688388 -114.62815018948459 0 0 0 0 470.20309151962283 465.58549861230131 0 465.58549861230131 262.03593729973727 0 0 0 0 187.33363222738262 261.76869581246865 0 261.76869581246865 191.48001557114549 0 0 0 0 444.09557416848838 95.865189421332616 0 95.865189421332616 232.71842089905113 0 0 0 0 278.54263474146137 260.95504652531235 0 260.95504652531235 68.438379655744484 0 0 0 0 133.69575694747618 83.679316249443218 0 83.679316249443218 57.775532061238209 0 0 0 0 199.91854195082851 330.46337648163171 0 330.46337648163171 18.015271248179488 0 0 0 0 140.58575850052875 43.547036892829055 0 43.547036892829055 -97.799638366162981 0 0 0 0 261.54703211292872 90.19242023851848 0 90.19242023851848 -201.14970740406716 0 0 0 0 176.67262462097278 -30.326243825526035 0 -30.326243825526035 -381.50654011048573 0 0 0 0 199.37489580834517 101.42127592526958 0 101.42127592526958 -86.883925651287427 0 0 0 0 -44.120808386180528 -97.159296447394937 0 -97.159296447394937 -88.200511906172324 0 0 0 0 -179.59610031422926 221.15849037635417 0 221.15849037635417 -201.36519180078176 0 0 0 0 -0.094707707297638555 -0.33777671852661229 0 -0.33777671852661229 -2.8390232694428903 0 0 0 0 29.04346586392785 20.959897807297239 0 20.959897807297239 -44.140896095603239 0 0 0 0 27.909722361495369 51.813413121650228 0 51.813413121650228 -110.82922443315329 0 0 0 0 -3.5334444439236004 4.0943431884533652 0 4.0943431884533652 -7.501823368057785 0 0 0 0 -93.164695236162515 37.735272263007573 0 37.735272263007573 -51.257199104482424 0 0 0 0 35.960568835638696 40.309925468485744 0 40.309925468485744 -77.258686672528711 0 0 0 0 36.840909242106136 2.4018998886749614 0 2.4018998886749614 -18.223188043768459 0 0 0 0 52.74576029968739 18.337692014083586 0 18.337692014083586 -65.212883166823303 0 0 0 0 44.32392932404764 33.633006617383217 0 33.633006617383217 -80.602169201465586 0 0 0 0 3.4111263228114694 65.372781782622042 0 65.372781782622042 -65.713277858072502 0 0 0 0 11.084888430153455 10.213553285925627 0 10.213553285925627 -17.876614832275664 0 0 0 0 19.050368180331134 30.885465932255102 0 30.885465932255102 -9.9045895493982243 0 0 0 0 1.3347539960234371 24.889066175267644 0 24.889066175267644 14.846668599003909 0 0 0 0 -5.8397694122249959 33.467652874081978 0 33.467652874081978 6.2285143259941833 0 0 0 0 -34.367684696131619 88.705340321728727 0 88.705340321728727 139.22254922477805 0 0 0 0 -24.770776454204508 4.3094403718882859 0 4.3094403718882859 1.3288184624000117 0 0 0 0 43.825750957446871 95.00090438355619 0 95.00090438355619 25.12864124095131 0 0 0 0 -138.03299034088559 74.435277716507699 0 74.435277716507699 -32.923226594553853 0 0 0 0 -303.32188012201368 298.65834710340641 0 298.65834710340641 -266.34858688365057 0 0 0 0 9.4879302482440835 27.736075285534753 0 27.736075285534753 -142.64128965518103 0 0 0 0 -314.24547528917174 452.10535905157849 0 452.10535905157849 -698.52714545680647 0 0 0 0 -9.6094259496221639 -1.0863967641374046 0 -1.0863967641374046 -0.25776277981327844 0 0 0 0 -386.41008124683867 -210.0685950723655 0 -210.0685950723655 91.21959808266547 0 0 0 0 -1012.559347482209 55.710883333998936 0 55.710883333998936 230.94313420218805 0 0 0 0 -213.13714679989789 -48.084280957740702 0 -48.084280957740702 -629.96403339872995 0 0 0 0 -764.01624979409098 630.78883930452776 0 630.78883930452776 -276.93358694079507 0 0 0 0 366.99736595609284 433.90920294963871 0 433.90920294963871 -350.03447753755609 0 0 0 0 -13.169269929249637 32.423821747586999 0 32.423821747586999 -53.671065973263666 0 0 0 0 -155.37536666819506 192.87976687203036 0 192.87976687203036 134.35746890684823 0 0 0 0 218.94205570987833 -163.57996727111276 0 -163.57996727111276 -113.18790446041567 0 0 0 0 -1236.5452490985044 351.31788262419286 0 351.31788262419286 -79.612576259532943 0 0 0 0 -366.9006941387197 129.1452467364652 0 129.1452467364652 -44.594948057237161 0 0 0 0 523.97131800401257 184.49474790566819 0 184.49474790566819 -1.7889539997122483 0 0 0 0 556.01603821746539 326.63549315442651 0 326.63549315442651 -96.942026674005319 0 0 0 0 1.2062877261945744 0.53796600475715195 0 0.53796600475715195 -1.8963739126077712 0 0 0 0 631.56210005396861 206.7598270315284 0 206.7598270315284 2.2431393416773062 0 0 0 0 823.17771179405099 302.87647940601892 0 302.87647940601892 -5.6933210177157889 0 0 0 0 607.24179510416434 345.11273416229596 0 345.11273416229596 12.999740918052339 0 0 0 0 380.1176835429651 419.3172304870568 0 419.3172304870568 -10.284458503756468 0 0 0 0 412.3301177771009 217.19106261307138 0 217.19106261307138 53.925851061547291 0 0 0 0 556.83126639469265 253.99049278322855 0 253.99049278322855 5.2587729220249457 0 0 0 0 -14.697032245903756 36.9862102357026 0 36.9862102357026 -68.225011831009255 0 0 0 0 454.28599824987396 319.94847511234002 0 319.94847511234002 -182.9374169410803 0 0 0 0 322.90976174738171 14.056460028161382 0 14.056460028161382 -19.926393789241956 0 0 0 0 -15.87873522409167 39.491320823239391 0 39.491320823239391 -75.596176449804972 0 0 0 0 399.53006163952523 213.05658648246026 0 213.05658648246026 53.116130233183867 0 0 0 0 503.03696027649858 237.55107963188857 0 237.55107963188857 -9.2192361551351496 0 0 0 0 -207.08495309932914 154.37574896609658 0 154.37574896609658 -16.785506246960722 0 0 0 0 -353.40202048663195 150.57724306819182 0 150.57724306819182 -13.506302722125838 0 0 0 0 0.15291078734428609 1.4119857954901534 0 1.4119857954901534 -1.3813531889856279 0 0 0 0 -99.182744596895645 174.43332728560927 0 174.43332728560927 -66.89549358023578 0 0 0 0 -310.93463515744588 247.62702169142904 0 247.62702169142904 -51.660136891441653 0 0 0 0 -193.77824255065207 120.03061508518113 0 120.03061508518113 -105.82537836613028 0 0 0 0 -198.22946039038652 121.9535612628315 0 121.9535612628315 48.620614251896768 0 0 0 0 -79.36463604657547 34.015847050930915 0 34.015847050930915 71.601126168679912 0 0 0 0 0.30503744804214517 1.8351584538886527 0 1.8351584538886527 -3.0920239237706824 0 0 0 0 194.23588522107457 99.235664833649935 0 99.235664833649935 -114.49499131455013 0 0 0 0 397.75071643204865 127.70641506895845 0 127.70641506895845 -25.471689349637018 0 0 0 0 386.82577549704001 64.488324712394387 0 64.488324712394387 -24.07866812462089 0 0 0 0 169.56792340386164 66.34208303442756 0 66.34208303442756 -21.791841854603263 0 0 0 0 203.91012498350028 82.51485032641358 0 82.51485032641358 -21.50687887391814 0 0 0 0 256.73266807720574 226.12897113773124 0 226.12897113773124 -23.285871729050996 0 0 0 0 465.32419918146479 210.84564362413221 0 210.84564362413221 -73.260573086414297 0 0 0 0 -16.804921446765348 41.513217502488317 0 41.513217502488317 -80.404971261924658 0 0 0 0 163.85586958946078 68.735933015424962 0 68.735933015424962 -49.728222116826601 0 0 0 0 -127.27725715772976 150.26585394712856 0 150.26585394712856 -3.7696536003204528 0 0 0 0 92.161069480280275 193.55411546981213 0 193.55411546981213 -247.77822550571727 0 0 0 0 -70.412499115016544 -51.002449905230606 0 -51.002449905230606 -278.81178066811526 0 0 0 0 454.1785362019109 269.07020638966424 0 269.07020638966424 -253.99594710604651 0 0 0 0 -115.40957290885854 160.13272515824201 0 160.13272515824201 -221.06070045225351 0 0 0 0 -179.83471159872715 89.94228766669039 0 89.94228766669039 -145.89309461986704 0 0 0 0 0.14041351904057553 0.84693626982033265 0 0.84693626982033265 -1.6949312596394179 0 0 0 0 306.65140630791575 -81.179673475347954 0 -81.179673475347954 -281.09838004768244 0 0 0 0 100.41046995043871 19.193993774364571 0 19.193993774364571 -310.53080901230715 0 0 0 0 97.872174222473404 1.1768039718517684 0 1.1768039718517684 -369.6007527997499 0 0 0 0 -19.7521512209496 54.379332696196798 0 54.379332696196798 -555.38374310186555 0 0 0 0 -54.762928757936606 35.341860537510001 0 35.341860537510001 -309.55707988268841 0 0 0 0 -369.69977486717107 291.02004597351333 0 291.02004597351333 -352.85951418623881 0 0 0 0 -1.2182213049179893 -1.1155976903081068 0 -1.1155976903081068 -5.2909157007087373 0 0 0 0 -429.29817064342205 211.4891061132912 0 211.4891061132912 -236.70682504818978 0 0 0 0 -785.86347187984211 625.53793170039535 0 625.53793170039535 -472.3922370011569 0 0 0 0 -522.05163927891408 287.54287481199572 0 287.54287481199572 -161.41828670314499 0 0 0 0 -802.09808778275328 139.15533444557332 0 139.15533444557332 -1883.4772994369559 0 0 0 0 -434.78346699749818 242.8389225775536 0 242.8389225775536 -250.78782044968466 0 0 0 0 -120.37464878486207 2127.3925917083784 0 2127.3925917083784 -1228.6513712071392 0 0 0 0 -202.207206291685 188.32286951999777 0 188.32286951999777 -293.59458110359992 0 0 0 0 -406.06998437205038 154.09460473401396 0 154.09460473401396 -128.85976749885594 0 0 0 0 -314.03816793177975 79.893083289309288 0 79.893083289309288 -62.385616591694998 0 0 0 0 -511.82064304755477 235.44286485280827 0 235.44286485280827 -128.47188479925012 0 0 0 0 -775.30155610601287 651.71928940937778 0 651.71928940937778 174.72423433104996 0 0 0 0 0.064205758063920371 0.89283118235995573 0 0.89283118235995573 -8.0909308043654988 0 0 0 0 -480.8422881278093 357.01697760139359 0 357.01697760139359 16.59926949606961 0 0 0 0 -479.62422453476756 47.412325520752347 0 47.412325520752347 258.55734629178187 0 0 0 0 -846.44662850594977 375.23534122185629 0 375.23534122185629 95.560374367028999 0 0 0 0 -425.48889118948136 237.13277784085585 0 237.13277784085585 -34.233979595679557 0 0 0 0 0.32793854381860399 2.2660421520872092 0 2.2660421520872092 -1.8401877319426774 0 0 0 0 -9.3297087484090184 22.606693225750604 0 22.606693225750604 -12.608503011247294 0 0 0 0 293.2477932869806 483.03628708826363 0 483.03628708826363 356.95481545821167 0 0 0 0 115.05964742590731 410.7484945384349 0 410.7484945384349 795.4141472754709 0 0 0 0 -15.773378124217317 4.9070664075700492 0 4.9070664075700492 4.7448230602093417 0 0 0 0 95.099846981131122 130.02577300020494 0 130.02577300020494 563.07358386005217 0 0 0 0 687.28858415863942 546.71447441676355 0 546.71447441676355 367.13690745097847 0 0 0 0 394.61314300197409 164.77066113071487 0 164.77066113071487 165.8648732488 0 0 0 0 -71.473894997165189 35.028273098312638 0 35.028273098312638 128.99877703024686 0 0 0 0 -313.67625919771672 332.64381220961877 0 332.64381220961877 268.95154276647736 0 0 0 0 -648.63555565989373 406.19773378359059 0 406.19773378359059 399.70664045243757 0 0 0 0 -7.054858810526099 5.9238643535713322 0 5.9238643535713322 -6.5435183692938352 0 0 0 0 31.368685836088844 -48.510136530203454 0 -48.510136530203454 -151.83491958694685 0 0 0 0 -293.9310421249902 25.106493952369419 0 25.106493952369419 434.54331141839793 0 0 0 0 -8.9254557603271678 138.97273272852181 0 138.97273272852181 -44.66918562160572 0 0 0 0 14.009934165100276 117.77115272714582 0 117.77115272714582 -206.5633317591637 0 0 0 0 -33.189489221458643 247.80054444025154 0 247.80054444025154 -460.85069732322881 0 0 0 0 19.508043572590395 215.4172723274587 0 215.4172723274587 -337.32919818894879 0 0 0 0 67.063134311887552 -23.573524878906028 0 -23.573524878906028 -1339.1941450368759 0 0 0 0 -208.45663665242319 342.83780478416156 0 342.83780478416156 -319.82324360841085 0 0 0 0 -219.93621795160288 326.89393997379375 0 326.89393997379375 205.0968390161288 0 0 0 0 -2.5927451594470767 55.345140223656927 0 55.345140223656927 -179.5035141426888 0 0 0 0 -8.2662588391976897 166.00371238463049 0 166.00371238463049 -665.98187563569081 0 0 0 0 -130.77335757983383 272.77809923680616 0 272.77809923680616 -295.55307776556219 0 0 0 0 -114.45652172619884 325.52408117310551 0 325.52408117310551 -325.13546888259225 0 0 0 0 -91.899334991219803 525.77130765966285 0 525.77130765966285 -522.06293875507617 0 0 0 0 1.1714450995059451 530.00199405599051 0 530.00199405599051 -684.4390200091957 0 0 0 0 -472.97197388682252 323.94102535044112 0 323.94102535044112 -342.98569501969905 0 0 0 0 196.16574421208952 54.701270847921251 0 54.701270847921251 -313.6396854180166 0 0 0 0 113.78574599570493 500.43713194773272 0 500.43713194773272 -548.73919258849492 0 0 0 0 -1.7235179881721479 3.2235201268835993 0 3.2235201268835993 -2.9094508674592134 0 0 0 0 -272.29675586209487 198.31122128021525 0 198.31122128021525 427.77419045974784 0 0 0 0 149.55081939365118 262.40527975104396 0 262.40527975104396 278.15525533515756 0 0 0 0 83.542455037553736 117.21304792916817 0 117.21304792916817 189.08760138845901 0 0 0 0 -159.8726297610483 225.80628027629791 0 225.80628027629791 295.56532120347401 0 0 0 0 -1.3985614278316234 2.8558725061549524 0 2.8558725061549524 -1.6706086126476691 0 0 0 0 245.08386490249541 523.96912058873204 0 523.96912058873204 376.51406107935009 0 0 0 0 122.5787766132853 265.8448761030777 0 265.8448761030777 442.96776456667794 0 0 0 0 -4.1660650084132556 5.5339987523318257 0 5.5339987523318257 -3.9554767128323363 0 0 0 0 175.24287994873885 329.18123960895537 0 329.18123960895537 267.87844890916313 0 0 0 0 60.125900146340427 75.244917306887146 0 75.244917306887146 81.876555763508804 0 0 0 0 106.59500357063371 -35.030847641501168 0 -35.030847641501168 266.78331791003711 0 0 0 0 93.632385000746581 -115.9968010645207 0 -115.9968010645207 -190.82061256461748 0 0 0 0 -139.31568978320865 116.42636375465372 0 116.42636375465372 225.23172497670612 0 0 0 0 -179.10840280367484 44.293642863724017 0 44.293642863724017 -318.22615691845567 0 0 0 0 -42.683277249656385 205.69183786300346 0 205.69183786300346 -875.47571049317958 0 0 0 0 -21.643557723291451 97.477946077990055 0 97.477946077990055 -314.492164387495 0 0 0 0 118.78231696723378 -71.038557526982913 0 -71.038557526982913 -368.73889191391208 0 0 0 0 47.446071820704674 -66.293529993614356 0 -66.293529993614356 -111.56502338850987 0 0 0 0 68.779672348216991 2.436465915885492 0 2.436465915885492 -318.85310760575521 0 0 0 0 12.778278302670515 7.8798224522579403 0 7.8798224522579403 10.058264698931453 0 0 0 0 77.9461746029192 89.44944138910796 0 89.44944138910796 -33.879814416979571 0 0 0 0 108.62181509820221 261.47516595170782 0 261.47516595170782 -116.84511837954778 0 0 0 0 242.78826750617009 -114.88813090150143 0 -114.88813090150143 -297.8342436876228 0 0 0 0 17.553082761933183 -79.16582878162717 0 -79.16582878162717 -309.56088086452655 0 0 0 0 -43.794340357228066 34.971780979764844 0 34.971780979764844 -8.7686968707785127 0 0 0 0 25.116887903262977 68.129252246155374 0 68.129252246155374 -203.54266386839663 0 0 0 0 -67.47747609471844 -157.16145195822537 0 -157.16145195822537 -126.57474116938465 0 0 0 0 -0.13944558343621338 0.90495474048347546 0 0.90495474048347546 -3.1429900821920569 0 0 0 0 -2.1165551863065986 2.3541836023501332 0 2.3541836023501332 -9.6859669353599713 0 0 0 0 13.09915894200094 8.8554399760814704 0 8.8554399760814704 13.213991341104702 0 0 0 0 22.501938152810908 7.7238543137427769 0 7.7238543137427769 25.309391890681582 0 0 0 0 32.866110138274962 20.687735480405536 0 20.687735480405536 -13.763948974181403 0 0 0 0 18.732594924527803 39.585446213921387 0 39.585446213921387 69.398890148189821 0 0 0 0 41.441197306630784 25.622345114310519 0 25.622345114310519 -3.6083955619396875 0 0 0 0 60.608596676060913 -181.12434959343076 0 -181.12434959343076 -304.89372366614407 0 0 0 0 -0.052371996965007384 -0.43957293357209437 0 -0.43957293357209437 0.64926426382085367 0 0 0 0 51.215758889236895 93.349289984469578 0 93.349289984469578 63.344773018930937 0 0 0 0 -2.370368689053123 -0.16899733165581665 0 -0.16899733165581665 2.5693695340889775 0 0 0 0 -114.18136418068752 -476.90780760765847 0 -476.90780760765847 -296.24115801450534 0 0 0 0 -43.807250768935774 121.57109345969366 0 121.57109345969366 159.68228662455658 0 0 0 0 566.08230247342726 125.71114730518821 0 125.71114730518821 -131.86638446027791 0 0 0 0 1167.2326004698007 -482.49570868316903 0 -482.49570868316903 632.03198761049134 0 0 0 0 1126.8467645678841 1005.0201558483004 0 1005.0201558483004 391.61971028220432 0 0 0 0 300.77235656345147 176.41689766280615 0 176.41689766280615 545.9829167378175 0 0 0 0 312.2255805163586 52.187380277260672 0 52.187380277260672 1865.6359502728083 0 0 0 0 441.97771856677718 180.91225044906605 0 180.91225044906605 108.66501712138415 0 0 0 0 290.58288478809118 -261.87950539022313 0 -261.87950539022313 418.08928980854398 0 0 0 0 84.748620040190872 69.350916152561695 0 69.350916152561695 -114.12562381048338 0 0 0 0 -393.07650024369559 -60.940786550858434 0 -60.940786550858434 379.26243670877011 0 0 0 0 38.387466302450775 120.48813709642127 0 120.48813709642127 737.73827450834506 0 0 0 0 51.32372242709971 53.130396175802161 0 53.130396175802161 227.48040537291308 0 0 0 0 191.92867626792577 337.58309275706779 0 337.58309275706779 260.57287889916188 0 0 0 0 10.092673236911651 326.1297474724779 0 326.1297474724779 487.59815609537327 0 0 0 0 -152.8349174256291 81.071552778577825 0 81.071552778577825 218.61662709216762 0 0 0 0 183.64522868511267 295.5800592199048 0 295.5800592199048 92.206686516881746 0 0 0 0 77.774134471430443 321.33587496489781 0 321.33587496489781 259.09477561824951 0 0 0 0 399.3883943304827 543.8732972060352 0 543.8732972060352 324.0510359170039 0 0 0 0 805.2631000050169 677.985077113226 0 677.985077113226 245.89081872276074 0 0 0 0 623.86100339794939 472.13389285489757 0 472.13389285489757 12.328164502658183 0 0 0 0 825.74489742799778 354.77880217210623 0 354.77880217210623 -125.4664108605939 0 0 0 0 911.03486022967991 1021.9536462606802 0 1021.9536462606802 1055.1072095029085 0 0 0 0 1051.2332913273203 644.98868451558792 0 644.98868451558792 223.1941443001997 0 0 0 0 499.75750056744437 704.71477292056079 0 704.71477292056079 698.42501647134486 0 0 0 0 602.55891607282683 525.55973292273848 0 525.55973292273848 272.18886940311586 0 0 0 0 27.236895526584703 42.734265313301876 0 42.734265313301876 34.456905062299484 0 0 0 0 27.89235615429061 61.014318847337563 0 61.014318847337563 9.5694569331099046 0 0 0 0 30.923870568134589 46.619654265259669 0 46.619654265259669 56.946479707170511 0 0 0 0 69.385266774086631 77.154516757007514 0 77.154516757007514 50.835018984424096 0 0 0 0 -382.37287676934648 -405.31121664766647 0 -405.31121664766647 -24.21510563728225 0 0 0 0 -7.447286331655306 2.0488500158884619 0 2.0488500158884619 0.81079196747171522 0 0 0 0 -207.03120548909646 114.44192577454669 0 114.44192577454669 167.6469474440164 0 0 0 0 -82.211103438661667 78.541954979322327 0 78.541954979322327 -13.350943646629048 0 0 0 0 -18.974916528284666 86.839627879653563 0 86.839627879653563 79.81776014604111 0 0 0 0 -7.3471273184532606 16.566318498183307 0 16.566318498183307 7.7836361527907201 0 0 0 0 -231.72106915216136 -35.978782512205953 0 -35.978782512205953 55.892058641307813 0 0 0 0 20.393745289911749 75.805818259999796 0 75.805818259999796 54.189589164064046 0 0 0 0 -17.78437192295678 63.64643260450066 0 63.64643260450066 45.402776422077295 0 0 0 0 -87.884301615398726 116.56103217341115 0 116.56103217341115 46.110961429090707 0 0 0 0 16.589082324957047 28.352483212457116 0 28.352483212457116 35.975624044223281 0 0 0 0 -97.107861926939222 166.132147606535 0 166.132147606535 149.20385135605102 0 0 0 0 108.97749810318055 89.602357249843408 0 89.602357249843408 7.3084026120995986 0 0 0 0 547.59080184322374 155.21150621269408 0 155.21150621269408 -93.228279386481518 0 0 0 0 70.068852619602694 -239.13950067931546 0 -239.13950067931546 667.53986894007539 0 0 0 0 1163.3621807604213 425.31032505941585 0 425.31032505941585 11.587792120664744 0 0 0 0 7.8121278700689061 9.1411551809812437 0 9.1411551809812437 13.151530011266857 0 0 0 0 -60.848622999037616 47.403925086366144 0 47.403925086366144 42.730158963949634 0 0 0 0 -138.74389768777473 58.581827503329805 0 58.581827503329805 275.57986380510192 0 0 0 0 418.38717243177234 194.39601107258932 0 194.39601107258932 -9.7518741646126728 0 0 0 0 658.81255499101826 356.51630310930341 0 356.51630310930341 -75.988844931755011 0 0 0 0 687.03044857698842 328.60075258777761 0 328.60075258777761 -156.40066509444296 0 0 0 0 536.31534047953755 457.03676514191284 0 457.03676514191284 13.900213296881702 0 0 0 0 481.38303805849864 395.08363287363318 0 395.08363287363318 89.369413473990107 0 0 0 0 501.8448658498819 418.86013471726437 0 418.86013471726437 -25.191187684526085 0 0 0 0 653.83555277509731 503.5548220104356 0 503.5548220104356 -19.719688707453315 0 0 0 0 186.68226880079601 445.29678734068148 0 445.29678734068148 384.9371992329252 0 0 0 0 158.07448017509887 355.09850216988707 0 355.09850216988707 287.07890001780834 0 0 0 0 195.90389320043323 306.85059780965821 0 306.85059780965821 337.62136204855051 0 0 0 0 424.32567759799713 498.61937614289855 0 498.61937614289855 241.8503816476441 0 0 0 0 302.39455578693742 240.45216290514873 0 240.45216290514873 28.303476403096283 0 0 0 0 32.746388866158668 134.53985207302321 0 134.53985207302321 197.02725352770722 0 0 0 0 65.827244814543519 131.60518946513912 0 131.60518946513912 187.80177629140235 0 0 0 0 -8.6173738719080575 100.2612360679741 0 100.2612360679741 182.69789996290638 0 0 0 0 -50.444270733976737 145.32983289030381 0 145.32983289030381 172.28444431360549 0 0 0 0 -6.5603708041307982 72.418730437137128 0 72.418730437137128 35.779588639568829 0 0 0 0 -39.219556593568996 103.4254411204729 0 103.4254411204729 264.97441783096292 0 0 0 0 35.710611286893254 113.20516856309405 0 113.20516856309405 169.63758511333072 0 0 0 0 126.17373300125473 -227.19536797994897 0 -227.19536797994897 -235.17262356812716 0 0 0 0 -516.01374337490415 -93.71824452115834 0 -93.71824452115834 267.38886604613072 0 0 0 0 595.51362795217028 -0.91870075640008508 0 -0.91870075640008508 -312.93859933861677 0 0 0 0 165.23042046584305 834.89918251046038 0 834.89918251046038 -376.08544694005877 0 0 0 0 -49.568705795463757 -526.26317636480962 0 -526.26317636480962 -132.04825703097322 0 0 0 0 -201.45351769664558 403.39380834504209 0 403.39380834504209 273.51831052097987 0 0 0 0 -259.23053493704356 73.18985144862927 0 73.18985144862927 -12.348210211173864 0 0 0 0 4.8538326051112506 1.2291850623428502 0 1.2291850623428502 -2.1249306394546608 0 0 0 0 -257.75874355161795 -36.135712014925957 0 -36.135712014925957 -394.52142966803513 0 0 0 0 19.38749039130397 21.588646438552864 0 21.588646438552864 22.444501186760306 0 0 0 0 -47.847927292037639 145.26603299468115 0 145.26603299468115 -16.409740747301839 0 0 0 0 -40.264888461941155 109.33512995015917 0 109.33512995015917 -348.35540203930577 0 0 0 0 -39.845325332542416 102.42353686031129 0 102.42353686031129 -260.07491196405317 0 0 0 0 -179.3585492742277 -11.187182018613385 0 -11.187182018613385 -207.44476840213611 0 0 0 0 49.753961491311202 7.9123575031371729 0 7.9123575031371729 -133.13701716008291 0 0 0 0 -107.32192031020531 41.237117976606896 0 41.237117976606896 -25.505253623654426 0 0 0 0 -9.6173018936679 96.571805846757343 0 96.571805846757343 -186.92007723017014 0 0 0 0 -50.035934721934609 126.22809789273742 0 126.22809789273742 -159.75991362193872 0 0 0 0 22.069139987951672 1.8808791601424986 0 1.8808791601424986 0.72484363274915786 0 0 0 0 -9.7358627970788802 80.672462191516388 0 80.672462191516388 234.08458522114233 0 0 0 0 -30.49598904823506 -45.185989906968643 0 -45.185989906968643 101.70077056752052 0 0 0 0 -197.88240026013227 123.68972981670231 0 123.68972981670231 28.900200111783306 0 0 0 0 -42.519889723145752 135.54282192202663 0 135.54282192202663 -60.08099481165118 0 0 0 0 6.8534466141148869 1.3194287466215613 0 1.3194287466215613 0.4735691927356136 0 0 0 0 118.72978590556886 170.52438085883477 0 170.52438085883477 500.08021955385948 0 0 0 0 33.195521538611501 31.834479748544254 0 31.834479748544254 280.3879007099531 0 0 0 0 18.775594089471269 162.5356196027933 0 162.5356196027933 288.93154860620939 0 0 0 0 -18.940445776010165 118.3839039153263 0 118.3839039153263 264.16449854210077 0 0 0 0 111.46119492637808 102.05862651446478 0 102.05862651446478 277.20392100646131 0 0 0 0 121.879445840259 138.18312546156449 0 138.18312546156449 385.54300522176345 0 0 0 0 110.25691034065676 185.15030210119039 0 185.15030210119039 312.02353495018178 0 0 0 0 228.23535309624276 367.47382388689584 0 367.47382388689584 156.96277384980203 0 0 0 0 -9.7159369025903288 648.46051850751974 0 648.46051850751974 928.06374083330957 0 0 0 0 122.84754774418889 354.7835727209806 0 354.7835727209806 484.12208671647386 0 0 0 0 -229.16886936774245 257.11953476177587 0 257.11953476177587 457.15871577491271 0 0 0 0 9.1746129622976582 10.078803669786893 0 10.078803669786893 10.117844869833533 0 0 0 0 -630.25310295425516 -223.80995072111455 0 -223.80995072111455 441.92678325079032 0 0 0 0 879.4135975901263 270.26256482942972 0 270.26256482942972 -104.58738506209193 0 0 0 0 -508.4664148389129 292.89383650143282 0 292.89383650143282 748.9868437750556 0 0 0 0 -47.735818896107958 -2.4989031288678234 0 -2.4989031288678234 287.40666511882955 0 0 0 0 410.51329433880164 50.956640735916153 0 50.956640735916153 196.28674470620172 0 0 0 0 -38.190379233332351 90.529484077222151 0 90.529484077222151 602.45470670625946 0 0 0 0 0.52657013727002777 379.6645335951689 0 379.6645335951689 271.2185374894234 0 0 0 0 492.9028355795308 213.09851978540974 0 213.09851978540974 129.18501553151509 0 0 0 0 275.1986890588596 243.3458919156401 0 243.3458919156401 125.06935691470881 0 0 0 0 339.13988512240758 146.51794536730176 0 146.51794536730176 271.36469364950608 0 0 0 0 399.57435123749019 154.86254819785609 0 154.86254819785609 116.60453328699805 0 0 0 0 658.04363035368442 137.34568133176344 0 137.34568133176344 42.038792329956777 0 0 0 0 601.07802936432745 432.65514133063016 0 432.65514133063016 226.4961214284267 0 0 0 0 378.37220441438694 400.83707425862485 0 400.83707425862485 104.14175723606604 0 0 0 0 328.0870107106166 321.83013202718575 0 321.83013202718575 182.70503998381173 0 0 0 0 -0.64433496205310803 643.37522067959071 0 643.37522067959071 -50.69542004952018 0 0 0 0 -400.88117424221855 168.78827346881917 0 168.78827346881917 -28.390481741997064 0 0 0 0 1620.4397286405913 209.37971440339066 0 209.37971440339066 -198.59680164788733 0 0 0 0 1.0278344115423677 6.0763794738454635 0 6.0763794738454635 1.4164719222690962 0 0 0 0 -0.074806201994860697 12.048853163359363 0 12.048853163359363 -21.983196192319156 0 0 0 0 826.67588636379514 279.01973222253946 0 279.01973222253946 50.182700208228198 0 0 0 0 624.68813136650715 301.32460544596324 0 301.32460544596324 13.531830527426791 0 0 0 0 801.11810653188149 204.79744200893765 0 204.79744200893765 -67.783294111082796 0 0 0 0 1034.2766783879197 -102.67157944283827 0 -102.67157944283827 115.00499899168426 0 0 0 0 774.10613167917472 119.37197360790014 0 119.37197360790014 241.19997267408326 0 0 0 0 589.71273236096022 193.68525845402473 0 193.68525845402473 99.101583919131372 0 0 0 0 587.42289653564512 170.1851411829175 0 170.1851411829175 -111.03580661116575 0 0 0 0 594.05294250283623 176.66264659050648 0 176.66264659050648 95.497188704204746 0 0 0 0 962.9878624631674 180.67701109409245 0 180.67701109409245 -48.76603039343172 0 0 0 0 1087.933085451863 532.16206343213707 0 532.16206343213707 77.729794821792893 0 0 0 0 833.2282539075386 116.53156795520044 0 116.53156795520044 31.201986237385427 0 0 0 0 533.54596177162603 259.73041296731026 0 259.73041296731026 121.18075262882485 0 0 0 0 263.67613337262446 228.77278561390631 0 228.77278561390631 16.331383855140302 0 0 0 0 398.36517959760386 70.129612869106495 0 70.129612869106495 88.021778658781841 0 0 0 0 89.770949449128238 64.541694174851727 0 64.541694174851727 15.418282093522066 0 0 0 0 595.63523499450457 170.75468648024707 0 170.75468648024707 -52.874270646963851 0 0 0 0 278.07611380473827 252.95027389750612 0 252.95027389750612 53.176431710780889 0 0 0 0 36.161322319225292 366.36143438083309 0 366.36143438083309 -152.98065784198116 0 0 0 0 192.76345211760781 108.59856469063925 0 108.59856469063925 11.647070930339396 0 0 0 0 338.30843977615586 258.18691093570669 0 258.18691093570669 4.9998585673019988 0 0 0 0 331.61209826786217 306.42209720632854 0 306.42209720632854 -253.85979658701399 0 0 0 0 -383.66644845344126 164.36914773637545 0 164.36914773637545 -2.7724311970450799 0 0 0 0 -401.93755147931688 564.09564125889938 0 564.09564125889938 -269.70382268261892 0 0 0 0 34.195723663544527 36.979216206966754 0 36.979216206966754 34.342067909294258 0 0 0 0 -111.72783108078875 268.71341923997534 0 268.71341923997534 -25.180259762426431 0 0 0 0 -148.11465971876169 179.28094942036842 0 179.28094942036842 -219.97883489375818 0 0 0 0 -64.280072680747253 105.18343650702627 0 105.18343650702627 9.817887386532675 0 0 0 0 -161.96337631854112 306.24458059063545 0 306.24458059063545 -11.179468883252412 0 0 0 0 -39.598605254774156 83.117491024226183 0 83.117491024226183 72.522780886458349 0 0 0 0 222.62442302537966 49.459196006744605 0 49.459196006744605 102.53234445450835 0 0 0 0 409.66496440622359 125.19322301829561 0 125.19322301829561 53.073547043852159 0 0 0 0 136.05342116985412 186.02829649041814 0 186.02829649041814 47.937030465058342 0 0 0 0 244.07198758784216 149.41443507634722 0 149.41443507634722 133.97198782123451 0 0 0 0 270.39263413118897 86.584968692339316 0 86.584968692339316 130.95861080272152 0 0 0 0 248.76486593339359 137.09856562402274 0 137.09856562402274 313.95257471452351 0 0 0 0 337.80286287964555 127.64121820237779 0 127.64121820237779 154.12681311339111 0 0 0 0 232.36331377494207 80.142059241472452 0 80.142059241472452 157.99473853285599 0 0 0 0 116.07365673049935 147.52842795775359 0 147.52842795775359 273.70451707522091 0 0 0 0 94.807812597136945 92.491183305915911 0 92.491183305915911 131.56913807026285 0 0 0 0 -15.279052451078314 187.45382049911132 0 187.45382049911132 147.3313486070474 0 0 0 0 128.70128929929342 62.307400949714065 0 62.307400949714065 93.372660727094626 0 0 0 0 -206.4742670293781 229.99656284126468 0 229.99656284126468 -21.829614735226642 0 0 0 0 -240.42273697556811 152.42685531119059 0 152.42685531119059 190.34713519494471 0 0 0 0 -81.533825014717877 107.60229120809163 0 107.60229120809163 90.840149590258079 0 0 0 0 -296.37937237764709 256.91882978695867 0 256.91882978695867 -65.789975991221581 0 0 0 0 -432.55644506753015 343.07722831109095 0 343.07722831109095 -4.3111206333378504 0 0 0 0 -322.37922681764758 179.88722269205027 0 179.88722269205027 111.52002292688121 0 0 0 0 -361.77467396565771 167.83632978065998 0 167.83632978065998 -17.877749093939201 0 0 0 0 -426.01395659676928 480.12740238950028 0 480.12740238950028 -173.18099913820333 0 0 0 0 -401.62950569135137 193.69340900270799 0 193.69340900270799 24.130711643108953 0 0 0 0 105.28629743093916 121.51895626981059 0 121.51895626981059 -55.430080709949834 0 0 0 0 15.142897451791214 -74.583311224141653 0 -74.583311224141653 176.62471107242163 0 0 0 0 -146.42059902668552 276.1327307361571 0 276.1327307361571 -8.7554029791499488 0 0 0 0 39.347162714274816 44.388779697740404 0 44.388779697740404 48.016827300816871 0 0 0 0 278.6176571122196 180.42832264157914 0 180.42832264157914 -8.3870111159121734 0 0 0 0 65.219021364006039 72.658724104549037 0 72.658724104549037 -36.468295893835602 0 0 0 0 42.878174955745635 185.32639729504081 0 185.32639729504081 343.21201450553781 0 0 0 0 57.245248917963181 246.76030781539339 0 246.76030781539339 -7.8623614584939787 0 0 0 0 415.04983620507846 85.402191045543987 0 85.402191045543987 -229.79840415332728 0 0 0 0 146.43810619952274 68.797037460219144 0 68.797037460219144 -23.354007932990498 0 0 0 0 -19.246428292388273 39.58483579808518 0 39.58483579808518 -77.083581236974084 0 0 0 0 115.17609388096753 22.274001567511732 0 22.274001567511732 -22.032319944498568 0 0 0 0 2.3460717682914805 44.408235056090689 0 44.408235056090689 -63.484690884892615 0 0 0 0 92.196164227490954 181.23649963438947 0 181.23649963438947 -85.15081589098736 0 0 0 0 37.447426245766906 53.510905497428283 0 53.510905497428283 51.280350553821009 0 0 0 0 144.50406554570509 50.07178504066087 0 50.07178504066087 -12.002907920876169 0 0 0 0 26.396803778436151 48.949119535616774 0 48.949119535616774 10.376553009235067 0 0 0 0 11.710737502957144 13.15739242872317 0 13.15739242872317 -11.538508046518956 0 0 0 0 99.427450074857916 76.983611040814139 0 76.983611040814139 -23.488324437515985 0 0 0 0 122.29016791842878 -22.459431718700216 0 -22.459431718700216 -18.884122464827669 0 0 0 0 7.249099907242055 79.746010460433581 0 79.746010460433581 -0.032367370670371542 0 0 0 0 3.9516847255471532 46.301972999284189 0 46.301972999284189 1.7736189914409124 0 0 0 0 9.0361437010578811 35.66635487012536 0 35.66635487012536 4.3785462723171804 0 0 0 0 36.005994823150104 49.868120332357648 0 49.868120332357648 -10.909790494428307 0 0 0 0 4.676049423343386 13.622156622231316 0 13.622156622231316 10.261692531780199 0 0 0 0 37.042965169865056 33.758729783912713 0 33.758729783912713 24.514965601163567 0 0 0 0 22.531399515134041 13.608722724346478 0 13.608722724346478 2.8358859573829562 0 0 0 0 131.45389480734593 95.006456303453888 0 95.006456303453888 47.460976102316636 0 0 0 0 -763.08553260314511 254.68099433632506 0 254.68099433632506 58.167445390987268 0 0 0 0 52.662085223755128 69.54176559537359 0 69.54176559537359 5.7481990528449387 0 0 0 0 117.07479395461269 55.937840633057931 0 55.937840633057931 100.71993200596262 0 0 0 0 128.60936837164627 93.38926856974831 0 93.38926856974831 73.849561822993564 0 0 0 0 -83.403687660794162 53.048343043282863 0 53.048343043282863 -7.8285844506882682 0 0 0 0 -234.67596736128326 122.13551678269505 0 122.13551678269505 132.50929104374336 0 0 0 0 -631.76456556428457 356.71834808816493 0 356.71834808816493 199.83988415222302 0 0 0 0 -193.43803634581855 30.986452602821373 0 30.986452602821373 86.129471153542909 0 0 0 0 -218.30176590097835 197.78759127407466 0 197.78759127407466 -41.208997737154277 0 0 0 0 -202.52402378144325 155.67937369953506 0 155.67937369953506 -16.168684159543773 0 0 0 0 -181.09716029916308 230.13457016642133 0 230.13457016642133 79.721225213834259 0 0 0 0 21.662425167107358 69.473415690780257 0 69.473415690780257 62.448282765704789 0 0 0 0 -145.52734789490933 163.20188614956714 0 163.20188614956714 12.089443381537421 0 0 0 0 -111.68862959637772 137.6317989013769 0 137.6317989013769 143.29603818069154 0 0 0 0 -100.02989594408427 92.985505053638917 0 92.985505053638917 48.717770717024905 0 0 0 0 -171.8818661767873 92.831057281153335 0 92.831057281153335 141.63371136151727 0 0 0 0 32.791839201774565 179.99065999747836 0 179.99065999747836 135.03084703776403 0 0 0 0 -33.216507815697696 91.843383437291777 0 91.843383437291777 39.868368930672659 0 0 0 0 1.4878664298335025 65.015898060608947 0 65.015898060608947 15.245093448142725 0 0 0 0 -21.758109415006032 22.694245817288078 0 22.694245817288078 22.972851641247281 0 0 0 0 5.4248366359896636 39.422050549688791 0 39.422050549688791 52.985642847777747 0 0 0 0 -33.974766534083756 54.754077709814737 0 54.754077709814737 89.499478006386198 0 0 0 0 -151.98356512899045 18.43747140891719 0 18.43747140891719 65.416868007661833 0 0 0 0 -81.491239381488413 17.907461653092469 0 17.907461653092469 60.954449481030679 0 0 0 0 6.4893215447520447 10.46806622646838 0 10.46806622646838 12.765589252775264 0 0 0 0 -20.303089311172698 132.73536819657568 0 132.73536819657568 -61.607191742659779 0 0 0 0 -214.07594474081998 84.465589848503441 0 84.465589848503441 39.098672653262838 0 0 0 0 -264.8653825809015 128.56047175860294 0 128.56047175860294 5.2700590708554955 0 0 0 0 -166.01573031433509 150.77232667608769 0 150.77232667608769 -59.36221263740299 0 0 0 0 -169.95346661799704 109.38779607447213 0 109.38779607447213 -78.333643773446965 0 0 0 0 -331.89843074169949 113.64056036331999 0 113.64056036331999 -46.540691845060792 0 0 0 0 -173.41146721009864 130.31621959453696 0 130.31621959453696 92.742332965848618 0 0 0 0 -192.17954996298067 160.05124444774992 0 160.05124444774992 84.515187241625426 0 0 0 0 -190.85994675889378 198.18186679983955 0 198.18186679983955 83.930933250161615 0 0 0 0 -211.48251666211581 150.30776182049522 0 150.30776182049522 185.0148888076219 0 0 0 0 -169.26470728626009 96.73813419551152 0 96.73813419551152 178.63447289209762 0 0 0 0 -40.619756526095443 81.821219539204321 0 81.821219539204321 154.83566810145931 0 0 0 0 -121.16270347953832 328.76674232955884 0 328.76674232955884 -362.17924136612783 0 0 0 0 -65.711256888564094 -8.0735959322828421 0 -8.0735959322828421 261.4658113287669 0 0 0 0 -4.0860312996907737 1.863540111501031 0 1.863540111501031 3.4292486895755054 0 0 0 0 -364.53351776457748 316.4038582269975 0 316.4038582269975 -65.713072167491191 0 0 0 0 -178.92592498502927 261.25345848650068 0 261.25345848650068 -111.15312160125904 0 0 0 0 -47.374915668609901 92.998823887126491 0 92.998823887126491 -298.97374802193008 0 0 0 0 -15.336399211359094 28.34320128152649 0 28.34320128152649 103.49344771554752 0 0 0 0 -36.430179533577757 86.228805173874207 0 86.228805173874207 110.85712173848879 0 0 0 0 -46.939245545931044 86.733013827677496 0 86.733013827677496 121.74731863508805 0 0 0 0 -70.582145518288598 86.573922156747358 0 86.573922156747358 90.982945652591866 0 0 0 0 -61.507364446886641 71.213537164468107 0 71.213537164468107 114.28498687782849 0 0 0 0 -65.270893879060168 56.039521727465399 0 56.039521727465399 91.958744005187327 0 0 0 0 -47.33091065872577 52.596228046701071 0 52.596228046701071 56.307104556139166 0 0 0 0 -35.403200734217535 61.012531133619632 0 61.012531133619632 51.080789079354872 0 0 0 0 -47.259812406387937 48.401851113916564 0 48.401851113916564 33.353517946958164 0 0 0 0 -138.61232873456902 16.67787872516783 0 16.67787872516783 321.90820080004414 0 0 0 0 -12.258394512182178 7.7934550790823884 0 7.7934550790823884 -6.5261876466995261 0 0 0 0 -58.68679719440712 35.663217501093122 0 35.663217501093122 -9.2206981966636476 0 0 0 0 -81.205807779246243 94.299352915655618 0 94.299352915655618 -60.405042144118852 0 0 0 0 -59.037280120886862 7.7767241712226678 0 7.7767241712226678 -133.70013804340488 0 0 0 0 -64.749021281444584 -66.084419361494838 0 -66.084419361494838 198.9986632552318 0 0 0 0 119.99123104571481 337.98757036667303 0 337.98757036667303 -176.76683672373838 0 0 0 0 -21.125801544360002 -18.493678711382017 0 -18.493678711382017 219.71216111494141 0 0 0 0 -121.10799780322122 135.43435206700087 0 135.43435206700087 7.8400279485504143 0 0 0 0 -144.84578980393781 21.713178235503619 0 21.713178235503619 243.53784152025037 0 0 0 0 17.715580842312193 -183.24483853330457 0 -183.24483853330457 300.55064329781817 0 0 0 0 -79.061669829301536 69.683937169877026 0 69.683937169877026 312.78109564315673 0 0 0 0 36.789732412464218 151.4212625861328 0 151.4212625861328 352.71080102428095 0 0 0 0 169.48487103672232 93.716626540950529 0 93.716626540950529 629.60573458125873 0 0 0 0 195.25895011253306 66.615408715158992 0 66.615408715158992 273.28776997501274 0 0 0 0 228.36555467869039 142.27615843881358 0 142.27615843881358 313.08682270859208 0 0 0 0 316.15711487493536 285.71867457771441 0 285.71867457771441 547.02891144191381 0 0 0 0 1.4630011214511569 1.1453060201557754 0 1.1453060201557754 -3.2253903012596368 0 0 0 0 106.80887378012994 263.71629674341784 0 263.71629674341784 647.80964285474329 0 0 0 0 45.362170520180371 173.95317631975922 0 173.95317631975922 618.13269157017839 0 0 0 0 -4.9452419787063491 3.0243405436306716 0 3.0243405436306716 5.974597251994993 0 0 0 0 441.15555205673445 180.3899843033214 0 180.3899843033214 -58.852891879552772 0 0 0 0 32.882547217945103 73.770328224332843 0 73.770328224332843 87.416851254085486 0 0 0 0 -11.093427071192622 15.923011468612799 0 15.923011468612799 -11.479962695881454 0 0 0 0 -10.352161705425601 20.224108892961844 0 20.224108892961844 -15.635415894973258 0 0 0 0 -15.68642707435356 21.170720380754574 0 21.170720380754574 -11.430503926392703 0 0 0 0 -21.671428802974674 15.409770404717264 0 15.409770404717264 -2.6864263789564617 0 0 0 0 -11.548357635823777 18.7089171850821 0 18.7089171850821 -28.375802780807135 0 0 0 0 -20.510899030341534 -23.774743158149704 0 -23.774743158149704 169.59013375372888 0 0 0 0 -25.645008464693092 72.569666030642111 0 72.569666030642111 -128.913538230222 0 0 0 0 -20.450116350515316 17.133965675514858 0 17.133965675514858 -3.2198855759407081 0 0 0 0 -38.226819662202615 138.27911620083796 0 138.27911620083796 15.130950579685305 0 0 0 0 -94.06417565663287 96.469848650875065 0 96.469848650875065 108.52273196772876 0 0 0 0 -93.372553054621676 90.725330585577467 0 90.725330585577467 49.182232911130086 0 0 0 0 -161.7020591769442 80.545257059914775 0 80.545257059914775 106.9940156571065 0 0 0 0 -92.693722511685337 58.330853706764174 0 58.330853706764174 91.887299661157158 0 0 0 0 -154.66479314670414 165.75125282189686 0 165.75125282189686 371.25929733679732 0 0 0 0 -378.10437327359978 -57.973928275889193 0 -57.973928275889193 159.04390730548585 0 0 0 0 0.53548131908175378 -0.44919571323072205 0 -0.44919571323072205 6.3632278645160483 0 0 0 0 -34.052486711167148 104.76416386160668 0 104.76416386160668 -95.88379667281697 0 0 0 0 177.21149614854949 373.23676793006962 0 373.23676793006962 58.000768997553678 0 0 0 0 152.78493114018056 112.23292411405419 0 112.23292411405419 -368.64868246127662 0 0 0 0 -254.99173068900564 -286.46468508375438 0 -286.46468508375438 23.712791626418039 0 0 0 0 99.074448534316616 15.613680866117647 0 15.613680866117647 -48.270951981372491 0 0 0 0 1.1348829111615828 1.1593761437762566 0 1.1593761437762566 -9.1612696543028882 0 0 0 0 -7.1467259939083476 15.909997719558788 0 15.909997719558788 -27.159521353785614 0 0 0 0 135.11294004337469 113.2103769047535 0 113.2103769047535 11.200937876550597 0 0 0 0 1007.3557828021731 808.64652363831556 0 808.64652363831556 -74.876910279969707 0 0 0 0 -4.2456798223446128 6.7473444343570463 0 6.7473444343570463 -11.534169814438087 0 0 0 0 525.89174800627006 -501.79869865417595 0 -501.79869865417595 -33.157853222095582 0 0 0 0 55.360875401529483 52.790086167546178 0 52.790086167546178 10.866131325659808 0 0 0 0 0.14342999493237585 91.951694776023032 0 91.951694776023032 63.635470809025719 0 0 0 0 61.613824588004718 63.360685016618163 0 63.360685016618163 15.225503038338502 0 0 0 0 61.559148454631213 62.294713653976942 0 62.294713653976942 -5.3077220321065397 0 0 0 0 55.923215151662589 154.98192195060983 0 154.98192195060983 133.60745680367836 0 0 0 0 0.0045906245795777068 213.79326439475153 0 213.79326439475153 280.41538529601894 0 0 0 0 153.60060922375123 186.33686715089061 0 186.33686715089061 123.59202705400639 0 0 0 0 171.33965585513943 229.0669020662408 0 229.0669020662408 175.32432988173969 0 0 0 0 238.93647147135925 186.17383327116841 0 186.17383327116841 108.70110961887076 0 0 0 0 186.79179588679108 341.32939205701405 0 341.32939205701405 271.79784508603188 0 0 0 0 186.20213921423419 161.82940104997033 0 161.82940104997033 416.98369756517423 0 0 0 0 391.19357410985685 180.79367211763656 0 180.79367211763656 256.2670131333216 0 0 0 0 201.65206736877008 223.32766801427442 0 223.32766801427442 329.83271683789644 0 0 0 0 122.53768406212839 275.51358341830746 0 275.51358341830746 306.89655684319587 0 0 0 0 185.47785778850084 267.47407052789322 0 267.47407052789322 -1324.9813794294823 0 0 0 0 147.93490424555785 143.84872724810066 0 143.84872724810066 -1016.0515756131645 0 0 0 0 -0.13783530965156388 262.23382747056939 0 262.23382747056939 -934.83996564863264 0 0 0 0 0.84887555260843328 5.155143572875879 0 5.155143572875879 -6.9308434477013963 0 0 0 0 -14.955084429455127 46.917482874569288 0 46.917482874569288 -83.005867594118143 0 0 0 0 394.85566391634347 362.40579391484243 0 362.40579391484243 94.744134310840309 0 0 0 0 -11.483813570674315 8.1273184626938644 0 8.1273184626938644 47.796657898824982 0 0 0 0 26.111388673569309 351.48917638137209 0 351.48917638137209 684.10317590526893 0 0 0 0 -0.48129515847540461 626.6419737818087 0 626.6419737818087 170.88882166062467 0 0 0 0 -2.9853535293126754 2.9363475784938942 0 2.9363475784938942 -1.4835288966630387 0 0 0 0 -122.20559403885272 -206.72229929405876 0 -206.72229929405876 2.054696365570635 0 0 0 0 267.36820796705433 191.53302384837298 0 191.53302384837298 -451.69231813844453 0 0 0 0 0.042619159969035536 29.034715139278887 0 29.034715139278887 20.39238342223689 0 0 0 0 55.354372216375396 52.69268643661411 0 52.69268643661411 26.541851582245727 0 0 0 0 48.126399644366757 -227.99445652537815 0 -227.99445652537815 177.87928083675433 0 0 0 0 108.50805765014593 404.56697426727033 0 404.56697426727033 148.22331824128923 0 0 0 0 903.03787605205434 211.87678352024705 0 211.87678352024705 -101.18020289883498 0 0 0 0 1.6001831040629213 -3.5249394970273897 0 -3.5249394970273897 21.089035345811922 0 0 0 0 222.92342316821305 350.3794993024851 0 350.3794993024851 165.24899260792154 0 0 0 0 -220.69554094610066 36.05309962918318 0 36.05309962918318 73.599886385120044 0 0 0 0 -110.25300552786211 9.5081374275978305 0 9.5081374275978305 -6.1922730454316479 0 0 0 0 -110.14630663896247 58.697796563394938 0 58.697796563394938 95.40079537299971 0 0 0 0 -34.181318101211218 73.382963073932842 0 73.382963073932842 45.548788893227538 0 0 0 0 -51.540429309710362 116.53844808809424 0 116.53844808809424 102.04779563235934 0 0 0 0 -40.918961589282844 90.332210290298462 0 90.332210290298462 147.88778912622678 0 0 0 0 -101.55558595365437 54.406523169752745 0 54.406523169752745 144.30202890181317 0 0 0 0 -51.892604503322218 27.847081867765155 0 27.847081867765155 53.691622270212974 0 0 0 0 -96.134955449986592 102.81902910794315 0 102.81902910794315 -669.34649921981872 0 0 0 0 -38.098947070481756 79.268314155895951 0 79.268314155895951 -0.98632286009954973 0 0 0 0 19.988518739468418 316.82326042947716 0 316.82326042947716 -1081.9346705702062 0 0 0 0 -9.2109031402360415 240.05871215353545 0 240.05871215353545 -757.58878238458124 0 0 0 0 -12.198557976976986 81.11022496330267 0 81.11022496330267 1.5588730446885128 0 0 0 0 20.790320064052139 154.05360351937929 0 154.05360351937929 -641.32374652636645 0 0 0 0 13.06888019011177 83.494009801365337 0 83.494009801365337 2.1596988009020546 0 0 0 0 1.0061708534194622 213.59773174786824 0 213.59773174786824 -511.9151422032628 0 0 0 0 18.954152839360177 265.62220837260793 0 265.62220837260793 -418.04519803280709 0 0 0 0 -4.8234012379070919 125.81562634020429 0 125.81562634020429 71.597856578991923 0 0 0 0 0.09395607730402844 116.19625365489173 0 116.19625365489173 89.79213641196111 0 0 0 0 -43.706056235865617 105.58866754966243 0 105.58866754966243 99.666839486795652 0 0 0 0 -32.712342740676831 103.36842998155225 0 103.36842998155225 86.130029937144172 0 0 0 0 -30.562790949657938 120.10870166429709 0 120.10870166429709 141.92237306699462 0 0 0 0 -6.462901179518667 123.86527724190819 0 123.86527724190819 95.426764622218798 0 0 0 0 39.115071704531147 192.64564005148713 0 192.64564005148713 173.72152558383459 0 0 0 0 -118.6433952665684 119.92082668941475 0 119.92082668941475 167.88471329624736 0 0 0 0 -214.75245573389111 277.52594572869384 0 277.52594572869384 121.40383491766261 0 0 0 0 -91.430540853441926 173.40940390801916 0 173.40940390801916 189.41778899337623 0 0 0 0 448.33294226485305 390.21156019300361 0 390.21156019300361 139.32257486601748 0 0 0 0 103.35851314150204 117.36764014359233 0 117.36764014359233 90.189598410375766 0 0 0 0 156.36988442370784 173.11530184744515 0 173.11530184744515 -8.2709021288064832 0 0 0 0 123.03113445868075 121.41838069491496 0 121.41838069491496 -74.169326581621135 0 0 0 0 61.27772249285772 139.12001056985173 0 139.12001056985173 97.633954177374108 0 0 0 0 2.7020436392485863 140.76583822830253 0 140.76583822830253 100.46622381394764 0 0 0 0 32.69445367409935 89.52460609141599 0 89.52460609141599 16.436331081426033 0 0 0 0 79.295123539726774 212.43995044379699 0 212.43995044379699 -393.56848200200693 0 0 0 0 -143.53432014605642 167.59630697045122 0 167.59630697045122 2.694377953226649 0 0 0 0 38.894319455695211 85.154181097054717 0 85.154181097054717 -2.0391439994421816 0 0 0 0 17.513148448968423 165.66780427352478 0 165.66780427352478 -147.02268264870509 0 0 0 0 -343.09399673906228 260.49530637733005 0 260.49530637733005 -62.876661594611505 0 0 0 0 5.172530735602777 379.2924393402609 0 379.2924393402609 -403.79972714062205 0 0 0 0 -123.31078984409396 573.68659572408251 0 573.68659572408251 -697.88274952909342 0 0 0 0 106.90632821043255 327.5291161304358 0 327.5291161304358 -701.79119425582576 0 0 0 0 104.3426879789622 338.01902407654416 0 338.01902407654416 -653.56540996310287 0 0 0 0 -957.02986144628085 759.9017432538476 0 759.9017432538476 -465.83528208200187 0 0 0 0 -53.168036487288191 651.69396914713798 0 651.69396914713798 -1226.1252697667442 0 0 0 0 8.2329942926589865 113.66949474427201 0 113.66949474427201 -833.92938622037764 0 0 0 0 105.58175251384091 308.43037782232204 0 308.43037782232204 -519.21113818626327 0 0 0 0 119.59643693971884 121.48958725389821 0 121.48958725389821 110.97904265634133 0 0 0 0 247.7762839486677 58.148364542833406 0 58.148364542833406 -381.67626564169041 0 0 0 0 153.77686526416801 213.6607329970102 0 213.6607329970102 2.7027921318749577 0 0 0 0 199.6317220369383 63.724269911943338 0 63.724269911943338 -131.13147535134885 0 0 0 0 194.69637390329444 206.76925423309331 0 206.76925423309331 -322.82456975037712 0 0 0 0 206.97183530390612 209.58530456008339 0 209.58530456008339 -721.12146439196022 0 0 0 0 133.90190666341641 68.809643604061534 0 68.809643604061534 -426.5648374146258 0 0 0 0 199.47786113817529 135.66397155277264 0 135.66397155277264 -487.06257935998656 0 0 0 0 137.15924685265054 182.39709701852371 0 182.39709701852371 -363.67521833768842 0 0 0 0 182.76888097847859 51.11251081981618 0 51.11251081981618 -290.88753524905405 0 0 0 0 102.4661235202002 161.63187179380293 0 161.63187179380293 -277.96881858431516 0 0 0 0 160.03196884046338 168.90253915608173 0 168.90253915608173 -475.25057302056302 0 0 0 0 75.992326445819344 132.79742768148571 0 132.79742768148571 -295.20668529256727 0 0 0 0 128.23933846560249 194.60367545177542 0 194.60367545177542 -461.70267225115185 0 0 0 0 120.31097681967367 238.96591542680017 0 238.96591542680017 -543.99638095160299 0 0 0 0 154.32735598490399 279.01037677128897 0 279.01037677128897 -604.51809963785126 0 0 0 0 141.54415604315 267.12925448650276 0 267.12925448650276 -615.48420316721422 0 0 0 0 87.257140572080971 347.70908203689214 0 347.70908203689214 -616.15981470303495 0 0 0 0 115.92265632027556 301.52011679812131 0 301.52011679812131 -545.19155678346215 0 0 0 0 33.823509776688297 246.99590258494482 0 246.99590258494482 -544.1300980363194 0 0 0 0 -51.643188673115219 165.93200728408283 0 165.93200728408283 -525.04455122213949 0 0 0 0 38.527605898154434 270.35026097426271 0 270.35026097426271 -600.54542357734226 0 0 0 0 -16.012019023444736 209.96014084706712 0 209.96014084706712 -656.82688037513253 0 0 0 0 -12.80942506833162 142.19510897739065 0 142.19510897739065 -510.92270614091103 0 0 0 0 -20.48725373295747 184.17010002668462 0 184.17010002668462 -433.2460520740533 0 0 0 0 3.975646172373672 185.75574467036222 0 185.75574467036222 -423.20945405304519 0 0 0 0 49.379064428547281 204.23352579763014 0 204.23352579763014 -519.23661318472205 0 0 0 0 86.442511794710299 185.12161853970611 0 185.12161853970611 -423.82509202151959 0 0 0 0 -1.5855719943210715 172.05837449454339 0 172.05837449454339 -276.05255795612538 0 0 0 0 22.877496169152437 163.45091759935531 0 163.45091759935531 -281.4595247266443 0 0 0 0 46.420922066459752 96.204168280019985 0 96.204168280019985 -153.67326219388269 0 0 0 0 1.4804490634123795 104.07197536447165 0 104.07197536447165 -152.98666934267749 0 0 0 0 -41.927532999485265 107.50556659161521 0 107.50556659161521 -116.04070094844246 0 0 0 0 -25.966531396450591 180.991453715631 0 180.991453715631 -294.67315014019186 0 0 0 0 -53.683480453750235 133.25235180925847 0 133.25235180925847 -124.35898427093343 0 0 0 0 10.034195384272607 200.48973630450564 0 200.48973630450564 -427.60438862890624 0 0 0 0 -25.466953260984155 193.05485803009287 0 193.05485803009287 -286.80736453446298 0 0 0 0 -15.810353947483236 233.9608017383398 0 233.9608017383398 -485.67861345092024 0 0 0 0 -56.867057173411013 224.40272769727562 0 224.40272769727562 -326.50615972837841 0 0 0 0 -64.059580886620097 240.9137463928455 0 240.9137463928455 -288.70735030078595 0 0 0 0 -129.40096351064858 258.59247621130339 0 258.59247621130339 -212.38889638020191 0 0 0 0 -120.83963392479927 175.52603724241271 0 175.52603724241271 -179.69040823422984 0 0 0 0 -109.25182691431837 171.16778787685325 0 171.16778787685325 -41.748125379344856 0 0 0 0 -68.095273774524685 195.07034978922457 0 195.07034978922457 -280.16069276848702 0 0 0 0 -48.60215065794182 73.630671757920936 0 73.630671757920936 -57.807983161402262 0 0 0 0 -73.332252866617637 127.12809566021315 0 127.12809566021315 -125.18534267028735 0 0 0 0 -87.27258237911883 60.598121109738713 0 60.598121109738713 12.42010475533607 0 0 0 0 55.999233109672787 3.8988810102800926 0 3.8988810102800926 -43.742465214054391 0 0 0 0 12.57472140705795 -31.74297281334475 0 -31.74297281334475 -14.023989169363631 0 0 0 0 -28.627502345421817 30.10253246699358 0 30.10253246699358 -77.215163962304359 0 0 0 0 -8.5290981162906974 46.940816419177281 0 46.940816419177281 -63.547640129130741 0 0 0 0 -9.201620994048298 33.000609410930451 0 33.000609410930451 -64.397822310355338 0 0 0 0 249.4385642537236 25.729815389249779 0 25.729815389249779 -92.874052293627756 0 0 0 0 373.99722846905934 137.88099834836612 0 137.88099834836612 -435.36589323537191 0 0 0 0 7.3020135293051567 4.4399179589946129 0 4.4399179589946129 -18.713473864126854 0 0 0 0 47.784487297940359 58.191096644317668 0 58.191096644317668 -73.936953674476172 0 0 0 0 207.23787953806459 -89.28472805036472 0 -89.28472805036472 -28.671715776643396 0 0 0 0 -3.2981282290129457 -98.557247534930866 0 -98.557247534930866 149.4000055176366 0 0 0 0 -2.4725265986068621 4.3426947857249445 0 4.3426947857249445 -5.160982846196255 0 0 0 0 329.20261510891214 4.0308735370047089 0 4.0308735370047089 608.68698974883591 0 0 0 0 -215.48777199858159 269.68365999215166 0 269.68365999215166 -192.99258706339606 0 0 0 0 -0.10726023522902536 102.57745230499181 0 102.57745230499181 -16.830858265342613 0 0 0 0 -197.96653460488596 146.63589483910891 0 146.63589483910891 113.10327764810791 0 0 0 0 143.58061905135401 45.46623020977313 0 45.46623020977313 -130.82959514425875 0 0 0 0 241.19476849486819 438.5834736036777 0 438.5834736036777 -1223.332008441459 0 0 0 0 0.28155516667812674 252.55008355952913 0 252.55008355952913 -429.30756373179429 0 0 0 0 -12.124482081818357 35.723710556672415 0 35.723710556672415 -80.800296818632091 0 0 0 0 -202.19852572266245 364.71842832348375 0 364.71842832348375 -357.71086545163416 0 0 0 0 -111.64012472406466 425.9096907354533 0 425.9096907354533 -643.05501708594966 0 0 0 0 64.800753284667735 108.09801210125079 0 108.09801210125079 -514.73977525239025 0 0 0 0 191.70020828009001 -533.94460520796201 0 -533.94460520796201 -536.17055424677164 0 0 0 0 90.224022593698464 93.291595018754379 0 93.291595018754379 -1100.3667553314335 0 0 0 0 -85.023548252152978 301.60046577292042 0 301.60046577292042 -556.47138178960631 0 0 0 0 -168.02135287267083 78.724972068313036 0 78.724972068313036 -96.454828545036435 0 0 0 0 -173.971873853734 135.96046915896113 0 135.96046915896113 -504.45958700905067 0 0 0 0 13.389500124423648 84.222448964343585 0 84.222448964343585 -488.78681596890419 0 0 0 0 -13.440337403764715 45.841943535508108 0 45.841943535508108 8.9893398897220322 0 0 0 0 -21.058950022606524 25.437965474334632 0 25.437965474334632 -5.2993000052090267 0 0 0 0 7.1401449035474798 69.628707430932081 0 69.628707430932081 62.573145314559952 0 0 0 0 -10.689462056721823 56.477274316855073 0 56.477274316855073 -49.46101484466999 0 0 0 0 -20.245627454474743 37.423990478407177 0 37.423990478407177 4.7273807026213035 0 0 0 0 -51.347287793192663 52.859110552828497 0 52.859110552828497 -58.381886892884722 0 0 0 0 -12.231917813827749 23.841743923791 0 23.841743923791 -93.559532137413044 0 0 0 0 3.1473202078245208 26.594097045288805 0 26.594097045288805 -27.123893237046971 0 0 0 0 1.2564627942642801 67.574184589384402 0 67.574184589384402 19.437215474142757 0 0 0 0 12.725673644221388 30.069619147034246 0 30.069619147034246 -20.636361768046754 0 0 0 0 17.195757048492823 75.340803753780776 0 75.340803753780776 -63.289192662617467 0 0 0 0 25.023610918069608 -3.7911749503618921 0 -3.7911749503618921 -111.97462531570091 0 0 0 0 20.912475226941751 31.303852872282732 0 31.303852872282732 -156.32590686534337 0 0 0 0 3.0220329143328968 56.556784547632219 0 56.556784547632219 -12.678858693483495 0 0 0 0 44.60060294761206 77.25019015966609 0 77.25019015966609 -167.37588317747552 0 0 0 0 -11.518675871501557 53.417506581048727 0 53.417506581048727 0.78833333744799128 0 0 0 0 -15.515831115029869 55.735735360709441 0 55.735735360709441 35.964716679346282 0 0 0 0 -36.347181866862229 101.58416430462876 0 101.58416430462876 -55.118937936123984 0 0 0 0 -17.238054559646116 47.181697299939515 0 47.181697299939515 15.735522099639638 0 0 0 0 -20.626431010901797 85.210805887902097 0 85.210805887902097 3.6415030548541836 0 0 0 0 -17.745026358621544 73.693656681932225 0 73.693656681932225 43.356459882937997 0 0 0 0 2.1189916986604658 50.016135112281972 0 50.016135112281972 33.976864291331367 0 0 0 0 -25.069076386819688 30.092795266348446 0 30.092795266348446 -14.812517742281294 0 0 0 0 -29.860297940540477 52.011764478010264 0 52.011764478010264 12.231805321796855 0 0 0 0 -53.940537506889086 50.168969192833174 0 50.168969192833174 14.232877959080724 0 0 0 0 -32.838003394426778 18.474211574817673 0 18.474211574817673 4.2264518743686494 0 0 0 0 -271.16557503049262 77.551222707159468 0 77.551222707159468 57.916620759711805 0 0 0 0 -125.38085690721346 97.734895848872839 0 97.734895848872839 60.669713471950672 0 0 0 0 -0.078075863972628667 30.386276624551101 0 30.386276624551101 49.727123961346081 0 0 0 0 0.89885314393779936 7.5054811171369238 0 7.5054811171369238 16.337785708251189 0 0 0 0 -54.340750356284843 176.38622286481768 0 176.38622286481768 -289.27942178398371 0 0 0 0 -120.50734739389736 235.04102717085698 0 235.04102717085698 -272.65596218106657 0 0 0 0 -61.120768292588764 183.00558105393793 0 183.00558105393793 -270.6589815262123 0 0 0 0 -80.153051035886165 170.24820106358311 0 170.24820106358311 -177.30775154072035 0 0 0 0 -46.420591443660669 195.87007848351277 0 195.87007848351277 -260.01247303684067 0 0 0 0 20.691220754363997 25.742437815918649 0 25.742437815918649 18.585967559370332 0 0 0 0 -2.1549522536541303 6.9998592051662882 0 6.9998592051662882 2.545781582516085 0 0 0 0 -54.770573179092025 190.56946666236763 0 190.56946666236763 -280.47604753581982 0 0 0 0 -104.85237461404176 273.30451334455574 0 273.30451334455574 15.941743429313647 0 0 0 0 -68.251207687804708 42.15746712922919 0 42.15746712922919 10.41442560633368 0 0 0 0 -89.243432889183168 5.1055852288882306 0 5.1055852288882306 1.5920240289269714 0 0 0 0 -51.670237648882903 165.10105016783928 0 165.10105016783928 -315.28008307424898 0 0 0 0 -53.139627564465627 186.47083569165989 0 186.47083569165989 -228.74481514486251 0 0 0 0 -72.751101261354052 -10.52822815469699 0 -10.52822815469699 -20.14856223591778 0 0 0 0 -30.98225105178426 6.9913572749792365 0 6.9913572749792365 -58.476515934216877 0 0 0 0 -20.847656182188075 31.551949293767393 0 31.551949293767393 -14.579542891427991 0 0 0 0 -10.639781609192141 -7.4202815448079491 0 -7.4202815448079491 -12.564137276924157 0 0 0 0 -37.991139729361748 -9.6888765103867627 0 -9.6888765103867627 3.4564774449227116 0 0 0 0 -38.898331384349149 5.2703600859931612 0 5.2703600859931612 -13.045159074765252 0 0 0 0 -69.663392376794945 14.515299764472729 0 14.515299764472729 5.3113564248778857 0 0 0 0 -28.059560377732851 13.847216680404017 0 13.847216680404017 -3.9181541928501247 0 0 0 0 1.3590548332867911 23.639579652990506 0 23.639579652990506 -15.692237543400552 0 0 0 0 -2.8372493684582878 -4.0065482306017657 0 -4.0065482306017657 -13.848387522681151 0 0 0 0 -13.582759439072106 47.675660064592194 0 47.675660064592194 -72.321420325373765 0 0 0 0 10.173803796016728 -0.71505003700258385 0 -0.71505003700258385 -57.575698104708863 0 0 0 0 -6.8699016137979925 27.759949452243745 0 27.759949452243745 -17.622295555796882 0 0 0 0 3.3721574225346558 1.4210331825634057 0 1.4210331825634057 -40.500221001984755 0 0 0 0 1.4935389944002964 -0.62475176154475776 0 -0.62475176154475776 -31.602388428524137 0 0 0 0 12.353234297595918 -26.713057169450622 0 -26.713057169450622 -32.184621493275245 0 0 0 0 -7.4935781882813899 -37.779654269474122 0 -37.779654269474122 54.605010419014434 0 0 0 0 2.1203208210208686 -0.66048872413375648 0 -0.66048872413375648 57.148038754181471 0 0 0 0 -7.925349556360743 -18.732559084422974 0 -18.732559084422974 26.910314858505444 0 0 0 0 -21.06333243278641 22.388165573891456 0 22.388165573891456 64.93800391026889 0 0 0 0 -3.694107371091377 10.364650704141241 0 10.364650704141241 18.919490721789771 0 0 0 0 -10.060453464223428 102.64207570324129 0 102.64207570324129 262.77221178199397 0 0 0 0 -13.856519296532497 48.976438439352933 0 48.976438439352933 99.13248222682887 0 0 0 0 -15.87613403092837 8.7480506089814298 0 8.7480506089814298 123.07166414186941 0 0 0 0 -14.280057243828196 74.410302279192365 0 74.410302279192365 324.93212569883326 0 0 0 0 -47.673901052970905 -16.39761557654856 0 -16.39761557654856 155.14480488092158 0 0 0 0 -21.655314398027258 -29.747926839459979 0 -29.747926839459979 7.4096165019818727 0 0 0 0 -164.04220414672818 -39.655157498385961 0 -39.655157498385961 713.97011726669734 0 0 0 0 -93.078992901369929 -176.29542469338776 0 -176.29542469338776 77.483405442417279 0 0 0 0 -88.181962454633322 130.12376391614816 0 130.12376391614816 282.94233574301688 0 0 0 0 40.558466132904869 368.43611391275954 0 368.43611391275954 703.75072843053931 0 0 0 0 1058.6258052959893 -391.72255362761643 0 -391.72255362761643 -65.544370362356858 0 0 0 0 436.43204702706134 949.13925662748989 0 949.13925662748989 1128.6643559035365 0 0 0 0 -231.75336224763305 -100.33580794311274 0 -100.33580794311274 1405.4810931243719 0 0 0 0 -211.59970894960861 -449.49420125636243 0 -449.49420125636243 44.435475293677882 0 0 0 0 232.24763363743841 145.66667171230438 0 145.66667171230438 -332.42870503979066 0 0 0 0 650.47176054808369 -101.99841178155111 0 -101.99841178155111 -574.87285182921005 0 0 0 0 -124.06549575658573 194.40735442283039 0 194.40735442283039 -228.91854010144198 0 0 0 0 -1.5740381618049923 -2.677102899823808 0 -2.677102899823808 -2.6386558032479996 0 0 0 0 -17.751512607865152 -511.37901299847272 0 -511.37901299847272 -893.77087531662255 0 0 0 0 -77.034337039440288 31.935912317307157 0 31.935912317307157 -56.909682160752709 0 0 0 0 24.283974603444221 -47.857365424273667 0 -47.857365424273667 -78.27790582722082 0 0 0 0 -26.073424449888989 50.672113565857217 0 50.672113565857217 -107.14227026823937 0 0 0 0 117.80626491320436 -46.583948270385008 0 -46.583948270385008 -382.699997865162 0 0 0 0 -324.66576800236362 187.97062383286084 0 187.97062383286084 332.30255610806853 0 0 0 0 -169.95773571758764 165.41045728008066 0 165.41045728008066 189.53021364816959 0 0 0 0 -360.73123227791802 747.86581700492752 0 747.86581700492752 383.11331252436048 0 0 0 0 -178.55837133673776 343.30687942966324 0 343.30687942966324 1090.9158196672161 0 0 0 0 630.74033635485102 953.80926947230182 0 953.80926947230182 585.1342551543421 0 0 0 0 1396.9836176609133 397.77986778243849 0 397.77986778243849 -331.21770325420221 0 0 0 0 483.42916385731951 266.87691506517331 0 266.87691506517331 -308.14421012207458 0 0 0 0 390.77261518573505 192.94457036360473 0 192.94457036360473 -329.82604249593163 0 0 0 0 88.317710938339587 509.81558768663672 0 509.81558768663672 -71.427727453911245 0 0 0 0 -2.4496274350531166 297.02964802530732 0 297.02964802530732 -67.569774788622453 0 0 0 0 -1114.9897279197321 263.17636286186826 0 263.17636286186826 281.88555811022161 0 0 0 0 -0.9969827457622269 -6.515292351700225 0 -6.515292351700225 -2.2529427403144524 0 0 0 0 -85.511419730290072 254.00554196029043 0 254.00554196029043 -132.71710649007582 0 0 0 0 -163.26516745184199 288.89807963587918 0 288.89807963587918 -100.78756063296714 0 0 0 0 13.610291965585397 27.888325447105359 0 27.888325447105359 -8.3330404004818632 0 0 0 0 56.353942679728789 188.68012760949023 0 188.68012760949023 -115.46693917495577 0 0 0 0 155.93996448696271 199.65020742836896 0 199.65020742836896 -284.51666958607893 0 0 0 0 -17.906165629799943 167.38058953103791 0 167.38058953103791 358.34088679799606 0 0 0 0 -25.363179669438978 228.06706847060377 0 228.06706847060377 195.21092944451811 0 0 0 0 13.974583817773491 29.243422600188097 0 29.243422600188097 -18.525776749836815 0 0 0 0 296.08815528970445 189.90218658993035 0 189.90218658993035 -126.61674548967102 0 0 0 0 55.460442764353843 91.125207314361219 0 91.125207314361219 -2.4849165396221622 0 0 0 0 -1.627860731590772 -17.48771906334332 0 -17.48771906334332 -116.82114549684047 0 0 0 0 10.982580161468277 12.109635154650334 0 12.109635154650334 -16.240923184904574 0 0 0 0 4.3248078510805499 221.51518624998425 0 221.51518624998425 326.71799497331085 0 0 0 0 -29.539422205234587 65.711183533858275 0 65.711183533858275 -61.431356500503171 0 0 0 0 0.60055351162316128 6.8743580788867575 0 6.8743580788867575 -25.941697992278904 0 0 0 0 -32.388740816953941 29.783064466912037 0 29.783064466912037 -80.567588510981295 0 0 0 0 -3.5328634207544383 -48.831082983337183 0 -48.831082983337183 -187.80070054352109 0 0 0 0 65.385595566389384 -147.27756660844898 0 -147.27756660844898 -369.44593948742113 0 0 0 0 247.83459943463095 2.616125743138582 0 2.616125743138582 -248.39644884706649 0 0 0 0 62.741242639473057 -2.9336729143324192 0 -2.9336729143324192 -156.04425189244284 0 0 0 0 57.29640624794348 91.687048877151625 0 91.687048877151625 12.537525794688417 0 0 0 0 -7.432839488319587 206.6510391344018 0 206.6510391344018 68.470881394456228 0 0 0 0 27.661798246874241 157.35198467522423 0 157.35198467522423 18.951781377878433 0 0 0 0 -14.519880313680915 146.42658566399314 0 146.42658566399314 148.77158683591551 0 0 0 0 -23.567400159838144 121.90793425422089 0 121.90793425422089 97.470569796855671 0 0 0 0 70.420622576057212 95.755814889038447 0 95.755814889038447 86.087398955296521 0 0 0 0 18.077236746678352 54.843978044098783 0 54.843978044098783 2.2761659109615424 0 0 0 0 28.171906698029488 73.644246326287885 0 73.644246326287885 -29.834726549654533 0 0 0 0 32.977595441858284 64.613587116639792 0 64.613587116639792 -41.961038924521148 0 0 0 0 18.523813797160983 43.041892816234622 0 43.041892816234622 -9.4050911273270685 0 0 0 0 23.573496296128724 75.876040117026605 0 75.876040117026605 -11.66123571999438 0 0 0 0 -53.543661636605975 38.985147711844547 0 38.985147711844547 13.784850317224482 0 0 0 0 2.8239755598348779 46.594816729571249 0 46.594816729571249 -3.0013381896977123 0 0 0 0 24.417542505973501 73.563746017579689 0 73.563746017579689 33.57877549118728 0 0 0 0 13.984041945514036 44.126789246379303 0 44.126789246379303 15.798493517992029 0 0 0 0 11.989094030108504 23.234591528811734 0 23.234591528811734 12.859248051164165 0 0 0 0 32.555477922927821 41.288922984960664 0 41.288922984960664 -28.124343828278143 0 0 0 0 9.0495879959489685 55.352536166555183 0 55.352536166555183 -0.87206036368297646 0 0 0 0 8.9180837633639953 8.895627146853883 0 8.895627146853883 6.0499843470811214 0 0 0 0 -22.952528051151603 56.843234368306184 0 56.843234368306184 82.083187334708782 0 0 0 0 -5.9423301969800377 46.037724187403001 0 46.037724187403001 88.842693228432836 0 0 0 0 -119.95954018132761 249.45271963245978 0 249.45271963245978 -638.30517660327132 0 0 0 0 -3.5896764816097857 3.3445255248063859 0 3.3445255248063859 91.527749957454944 0 0 0 0 7.1549386157475396 6.0186959360482319 0 6.0186959360482319 3.4821448789687643 0 0 0 0 5.8857405151048852 13.659827155132362 0 13.659827155132362 5.3625022076363429 0 0 0 0 -10.845174146641511 32.191073974083338 0 32.191073974083338 4.009597042162568 0 0 0 0 189.87374226865359 591.13778276193079 0 591.13778276193079 -649.38242611427268 0 0 0 0 -9.7889035044099728 26.740042651804288 0 26.740042651804288 11.118043027861859 0 0 0 0 -1.6644183769691381 16.693522632403784 0 16.693522632403784 276.59021379131445 0 0 0 0 267.33943450826337 271.29325485867957 0 271.29325485867957 172.09218680571939 0 0 0 0 265.76652358886349 367.6991281649407 0 367.6991281649407 -348.19238637410308 0 0 0 0 -26.650533038176945 -15.201599189111221 0 -15.201599189111221 472.21130981896113 0 0 0 0 170.3255405240343 173.29246150149083 0 173.29246150149083 -564.79459926513664 0 0 0 0 2.0429869064753916 2.4342431556119095 0 2.4342431556119095 1.5427531188063455 0 0 0 0 6.3737501057767076 1.3559014840484451 0 1.3559014840484451 250.2767784256589 0 0 0 0 -115.72872173125506 271.00305951002883 0 271.00305951002883 -594.10648641565058 0 0 0 0 -13.708745996773359 687.06336739445032 0 687.06336739445032 -1164.7024277053879 0 0 0 0 -1.0449502272716715 -3.0640686351618172 0 -3.0640686351618172 -6.5621444195661667 0 0 0 0 499.29428581650427 128.04513363525621 0 128.04513363525621 -462.01540217163711 0 0 0 0 528.93331321291043 178.07569430719559 0 178.07569430719559 -791.55870329064783 0 0 0 0 -257.54008455976145 672.51735874716815 0 672.51735874716815 -747.2750361406288 0 0 0 0 -354.99133068387164 563.54644585549795 0 563.54644585549795 -638.01672457890527 0 0 0 0 93.124725059089542 375.60007168647644 0 375.60007168647644 -564.08208535045924 0 0 0 0 -229.71195109342079 950.10050456749866 0 950.10050456749866 -378.57772658255635 0 0 0 0 289.794837563888 249.10585020487179 0 249.10585020487179 -454.34292158280005 0 0 0 0 122.65202202586806 622.64287401436604 0 622.64287401436604 -843.91518451053707 0 0 0 0 -2.5583825659825834 3.206928295360072 0 3.206928295360072 -2.0991633037851329 0 0 0 0 -170.27660538484633 318.24373621677842 0 318.24373621677842 -504.33010852705047 0 0 0 0 -157.50341028727416 460.28875268090633 0 460.28875268090633 -254.18714414363467 0 0 0 0 -165.99695276096827 72.832061809226616 0 72.832061809226616 -362.62394381939521 0 0 0 0 -180.70672929382999 360.87377345446293 0 360.87377345446293 -548.70467285648556 0 0 0 0 -584.22328845046104 358.92159893326516 0 358.92159893326516 -8.3997571401559981 0 0 0 0 1.7857836146613124 2.0748740138008657 0 2.0748740138008657 3.4805893982330076 0 0 0 0 430.29793369244726 -17.70690211283727 0 -17.70690211283727 -145.0410725914262 0 0 0 0 -1653.5288937175501 766.37486175471167 0 766.37486175471167 248.70645804192282 0 0 0 0 -4.558588171341583 -5.646421275782842 0 -5.646421275782842 -4.8651406245349875 0 0 0 0 -242.3678794442385 681.67198923579417 0 681.67198923579417 -567.06818880275023 0 0 0 0 358.71840538845572 -229.60719641114702 0 -229.60719641114702 -192.87532895879849 0 0 0 0 147.3584284746903 -13.045312923099118 0 -13.045312923099118 -246.42839595952682 0 0 0 0 240.33524901635246 -6.2618028677024995 0 -6.2618028677024995 -577.78217592327564 0 0 0 0 15.493453855160624 41.907274043529469 0 41.907274043529469 69.157571675219515 0 0 0 0 69.491153711816878 27.99813463263672 0 27.99813463263672 -113.02860354983568 0 0 0 0 13.28739016741747 84.031880338508927 0 84.031880338508927 -182.54705819036826 0 0 0 0 6.6053457735397387 109.61966567945638 0 109.61966567945638 -197.48192896369437 0 0 0 0 150.5399764587346 62.105664722914298 0 62.105664722914298 -163.84523870333578 0 0 0 0 -73.85096358829469 191.7329770193528 0 191.7329770193528 11.145282578374463 0 0 0 0 206.69722783809993 68.030140012842821 0 68.030140012842821 -214.20699172414606 0 0 0 0 -16.850440751222777 179.40095766697959 0 179.40095766697959 -194.78417194941721 0 0 0 0 -91.496780091169057 131.75599874387262 0 131.75599874387262 -35.597083262648084 0 0 0 0 -99.534972043707967 226.35311700108468 0 226.35311700108468 160.38374073650994 0 0 0 0 8.0536380313645566 -0.63610028307095945 0 -0.63610028307095945 -30.913078344188335 0 0 0 0 222.8497093240876 115.9371515644325 0 115.9371515644325 -132.0423550347914 0 0 0 0 -812.48023360600928 723.78765802665475 0 723.78765802665475 -364.36648224396959 0 0 0 0 39.450772087109328 51.050512786385696 0 51.050512786385696 31.420871955572508 0 0 0 0 -639.23622306007019 375.55331823271808 0 375.55331823271808 -297.59224561528754 0 0 0 0 29.487689171284728 30.224323990592893 0 30.224323990592893 14.495662493294731 0 0 0 0 21.393364485652654 27.252602218836955 0 27.252602218836955 14.6722753745088 0 0 0 0 -84.121916720832814 -19.725317303991687 0 -19.725317303991687 -0.16859416570696339 0 0 0 0 -85.091621826519258 84.294792452888942 0 84.294792452888942 7.9039835559869971 0 0 0 0 -89.721152176120086 53.364156621963048 0 53.364156621963048 98.774167279931135 0 0 0 0 116.86720020613575 76.937925241086305 0 76.937925241086305 109.55564814556055 0 0 0 0 -2.255508599060903 -1.6891586170968083 0 -1.6891586170968083 5.6186366041207805 0 0 0 0 -100.9506437786913 98.833867100420321 0 98.833867100420321 156.68137878254527 0 0 0 0 112.30107164017681 -20.533205418358193 0 -20.533205418358193 -19.191216593917488 0 0 0 0 -13.688113239171798 25.400454520897256 0 25.400454520897256 -32.745326941732856 0 0 0 0 -50.636981182528871 101.20427407660054 0 101.20427407660054 -10.613010459870566 0 0 0 0 -2.3947511933544092 11.43007693241978 0 11.43007693241978 -6.0466468584700834 0 0 0 0 6.2295015109266387 93.805367694068536 0 93.805367694068536 -45.654811771706591 0 0 0 0 1.9781631766600185 97.059240318762022 0 97.059240318762022 -54.992730836798728 0 0 0 0 15.712190530190128 138.61420855424149 0 138.61420855424149 15.655138050500682 0 0 0 0 14.345153124864737 101.57232254909155 0 101.57232254909155 -80.10424851820062 0 0 0 0 174.6924743779673 142.50661506601682 0 142.50661506601682 -5.1316000918977807 0 0 0 0 52.344318931252928 60.046168041426426 0 60.046168041426426 -57.816508859057649 0 0 0 0 -20.753863152393023 13.202249098546417 0 13.202249098546417 114.1019804777427 0 0 0 0 6.9453101721883286 118.87113805128047 0 118.87113805128047 141.88494973834349 0 0 0 0 -10.435643256656476 64.173662132036043 0 64.173662132036043 18.361568876447961 0 0 0 0 -24.627452463937516 65.961640117350726 0 65.961640117350726 51.251039623810357 0 0 0 0 -20.130390729143983 2.5596324129583081 0 2.5596324129583081 35.695642606090132 0 0 0 0 3.3048142831933092 30.43910838286288 0 30.43910838286288 2.5537551422852154 0 0 0 0 -47.936710825073533 175.29654287736048 0 175.29654287736048 -188.46902373016928 0 0 0 0 -4.4727337759678676 5.3337900283922863 0 5.3337900283922863 -1.7119568741832865 0 0 0 0 94.18092557174532 113.23584453190642 0 113.23584453190642 52.536332616968139 0 0 0 0 33.568208747528843 7.1934013906302425 0 7.1934013906302425 -27.994477601483595 0 0 0 0 27.901632057484392 42.794081423053569 0 42.794081423053569 28.207320698827385 0 0 0 0 -4.4310771743766963 130.50980547021027 0 130.50980547021027 -268.44483275678067 0 0 0 0 8.2622445230954327 105.47569401470173 0 105.47569401470173 -205.86520662647672 0 0 0 0 27.216698062198702 87.667903457106149 0 87.667903457106149 -228.7698659121088 0 0 0 0 -23.575885709142312 118.68356948223663 0 118.68356948223663 -211.33186154918803 0 0 0 0 3.1448013525973693 5.2006581214421423 0 5.2006581214421423 4.5474448872919879 0 0 0 0 -55.27297403261764 150.7591132509624 0 150.7591132509624 -231.8805307130242 0 0 0 0 -19.696027370780939 162.1512855467372 0 162.1512855467372 -318.84966756142239 0 0 0 0 11.110292405763175 214.21697300072628 0 214.21697300072628 -356.83189202063932 0 0 0 0 66.344577271054732 143.52362007920601 0 143.52362007920601 -271.07303320465871 0 0 0 0 77.62463059896254 119.75505912221706 0 119.75505912221706 -461.83032575888319 0 0 0 0 5.794956397061469 41.154696171259275 0 41.154696171259275 -10.608124889095052 0 0 0 0 -46.967101226917293 211.16899404436572 0 211.16899404436572 -157.04130534270735 0 0 0 0 -29.692578479060103 138.37555776974523 0 138.37555776974523 -167.38092440877153 0 0 0 0 14.891878520999313 20.843108593041322 0 20.843108593041322 10.02808845059764 0 0 0 0 20.640467842936062 24.429724502156645 0 24.429724502156645 5.8353954265189287 0 0 0 0 -8.6919528384023579 23.77714597414888 0 23.77714597414888 -19.624089409298904 0 0 0 0 2.1804918668640312 53.410103525369777 0 53.410103525369777 -42.88815912494465 0 0 0 0 3.0856360902592996 16.310609693151974 0 16.310609693151974 14.071059836598437 0 0 0 0 18.52894997325626 8.6605291390837493 0 8.6605291390837493 -0.24128559659632032 0 0 0 0 -116.04443617205106 162.24607081164868 0 162.24607081164868 -53.958668541346924 0 0 0 0 -57.878741756561794 3.3145828990564041 0 3.3145828990564041 35.660556892880777 0 0 0 0 128.75856261790614 114.6414824821095 0 114.6414824821095 28.430545920276927 0 0 0 0 31.658650010620477 47.773370571054329 0 47.773370571054329 12.941880111714454 0 0 0 0 -65.798638039181242 -10.468829383746197 0 -10.468829383746197 51.366524935202506 0 0 0 0 -19.641761433282227 55.277722262051611 0 55.277722262051611 86.739113735824503 0 0 0 0 -35.267991134587987 18.761029528353074 0 18.761029528353074 -3.6002989785233765 0 0 0 0 -22.690740614052629 31.056899885067651 0 31.056899885067651 0.54949321372714621 0 0 0 0 -68.522762035630876 78.368684151939306 0 78.368684151939306 25.979908545488797 0 0 0 0 -27.619770580145996 18.879523459826942 0 18.879523459826942 0.47520563618672895 0 0 0 0 317.41349017886364 177.33583150399605 0 177.33583150399605 -13.307381972164876 0 0 0 0 323.96704261435661 346.23794058480235 0 346.23794058480235 10.273746341961669 0 0 0 0 415.39555064403976 402.90304128981552 0 402.90304128981552 34.172460279665927 0 0 0 0 350.06832094526908 131.25796206342056 0 131.25796206342056 -161.15908879553172 0 0 0 0 158.47170661269047 204.95241291693037 0 204.95241291693037 130.34095669260569 0 0 0 0 -179.0384027883847 85.227961915958076 0 85.227961915958076 176.69145336267502 0 0 0 0 15.007881261612056 124.54313604780691 0 124.54313604780691 93.661439568433707 0 0 0 0 39.371504671435105 139.34268507500747 0 139.34268507500747 184.1916464456117 0 0 0 0 87.265529505180893 285.30559288056702 0 285.30559288056702 225.33980822989543 0 0 0 0 187.70263335478376 264.08843777902257 0 264.08843777902257 141.62534386999687 0 0 0 0 123.89905590032868 246.95149983437113 0 246.95149983437113 143.98598760332607 0 0 0 0 883.71117761504865 477.19479867417522 0 477.19479867417522 78.661503878422081 0 0 0 0 663.32575307186926 266.78223911516216 0 266.78223911516216 -5.9497019282771362 0 0 0 0 252.79811272544248 454.10690217126103 0 454.10690217126103 395.25417580016074 0 0 0 0 169.9211756818404 155.90189938367257 0 155.90189938367257 205.01823675604282 0 0 0 0 222.62936877120228 -244.14760004108757 0 -244.14760004108757 -26.109519434729009 0 0 0 0 -5.9708052892261492 3.52789366069638 0 3.52789366069638 -2.0645664267238715 0 0 0 0 199.07044560700888 -40.307604785972217 0 -40.307604785972217 -331.60939039926961 0 0 0 0 -65.327128855016781 -351.58664629931809 0 -351.58664629931809 525.40103298636313 0 0 0 0 312.43216169936568 490.01651480144483 0 490.01651480144483 884.91355750744333 0 0 0 0 168.74892645521322 191.23610015689337 0 191.23610015689337 43.017337089957437 0 0 0 0 -91.607458826292714 130.16270132782847 0 130.16270132782847 -431.28754360813582 0 0 0 0 74.563647354225395 233.65251982773043 0 233.65251982773043 25.471277984928747 0 0 0 0 -88.877485225777491 235.50200453518119 0 235.50200453518119 120.27063566273137 0 0 0 0 209.68397474787344 -85.006214752044798 0 -85.006214752044798 -144.77827388163132 0 0 0 0 -4.0407896670838284 -1.2380736991531194 0 -1.2380736991531194 7.1312727746817686 0 0 0 0 28.715352313738549 171.12554073161664 0 171.12554073161664 -426.61016456332618 0 0 0 0 -146.75162224603264 51.232570586845213 0 51.232570586845213 -223.66673874410844 0 0 0 0 -20.994469281824422 44.960355455986701 0 44.960355455986701 -42.014314104677396 0 0 0 0 -28.16221025698178 27.003505057594339 0 27.003505057594339 7.757229277100123 0 0 0 0 -21.81523278674598 8.4247062818537799 0 8.4247062818537799 -3.8625744917948772 0 0 0 0 -19.359716489634593 50.238650710789443 0 50.238650710789443 -114.10672244165835 0 0 0 0 -63.063288415942225 85.306868817988288 0 85.306868817988288 -116.55195990201901 0 0 0 0 -137.31219141968904 101.441874713792 0 101.441874713792 -87.450925182321953 0 0 0 0 -43.778764204813342 137.23082422690732 0 137.23082422690732 -153.62808729722656 0 0 0 0 -97.268637864224729 62.359441619622885 0 62.359441619622885 -81.683249430177966 0 0 0 0 -38.741714262148889 113.71297662072811 0 113.71297662072811 -48.346116008149693 0 0 0 0 -26.459856203262461 120.51128108155353 0 120.51128108155353 -57.286241748791781 0 0 0 0 -26.813458233329584 109.10154222187884 0 109.10154222187884 -49.441192521200719 0 0 0 0 -27.057921788122655 56.44616817513834 0 56.44616817513834 19.626024058722635 0 0 0 0 -35.117683586315252 106.86457861152303 0 106.86457861152303 -41.151710603415268 0 0 0 0 -47.791385749624169 71.799710679458258 0 71.799710679458258 12.353890572447199 0 0 0 0 20.943368330008525 193.59421588007172 0 193.59421588007172 -31.221311321849498 0 0 0 0 -8.9512411652062269 35.292106795475704 0 35.292106795475704 32.454793952066254 0 0 0 0 -8.0127636377583258 110.87222291410399 0 110.87222291410399 95.476108837003267 0 0 0 0 -13.731771856435714 50.027200963844336 0 50.027200963844336 15.78060772098641 0 0 0 0 4.8650539533917083 96.241622281365835 0 96.241622281365835 0.88515374631293431 0 0 0 0 70.431972315636813 83.978708671218556 0 83.978708671218556 -243.69045396900219 0 0 0 0 -113.24420421518153 168.05286331627576 0 168.05286331627576 -50.598784247515141 0 0 0 0 -34.810732651429134 101.33232934129774 0 101.33232934129774 137.21949958325058 0 0 0 0 -12.125439392266912 32.446335260608407 0 32.446335260608407 14.096910657661688 0 0 0 0 -2.390729523115283 19.594340023109368 0 19.594340023109368 -32.278065894500052 0 0 0 0 -38.82165358356724 111.57983248943128 0 111.57983248943128 -151.23568660493322 0 0 0 0 -15.966358930678496 91.494636678197907 0 91.494636678197907 2.5001379793219014 0 0 0 0 -7.4147994105223916 112.95322804107491 0 112.95322804107491 -218.99120714691526 0 0 0 0 -36.356220541187213 130.80631064196496 0 130.80631064196496 78.69559981995917 0 0 0 0 -28.609404366400213 157.85151146221733 0 157.85151146221733 26.10906690707634 0 0 0 0 -0.10352957287250319 104.61678036384183 0 104.61678036384183 29.457505979211419 0 0 0 0 -21.909099694676115 71.914266555404538 0 71.914266555404538 91.549842563315906 0 0 0 0 -136.80831239652252 70.98518777055051 0 70.98518777055051 27.620080418091675 0 0 0 0 -21.349147415741754 155.72255013904396 0 155.72255013904396 22.728892077800992 0 0 0 0 -267.87821651496051 222.44269147291561 0 222.44269147291561 0.12536500560054264 0 0 0 0 -53.562280141275551 187.09249974669001 0 187.09249974669001 1.0991477292554919 0 0 0 0 -191.86153817257582 41.009739053857629 0 41.009739053857629 -1.1597184411148191 0 0 0 0 -125.88708100848453 74.755188669367271 0 74.755188669367271 14.108505707732547 0 0 0 0 -12.286331030742083 26.805999616261062 0 26.805999616261062 1.0407346850170569 0 0 0 0 264.22823123109993 149.64305925070767 0 149.64305925070767 -116.37600800246219 0 0 0 0 8.6487448013649555 181.41943528396951 0 181.41943528396951 -283.40958447881712 0 0 0 0 -249.16128763055895 24.593218782356416 0 24.593218782356416 -50.413229662277445 0 0 0 0 18.234296034264844 -4.2106456545661786 0 -4.2106456545661786 -102.37798318235582 0 0 0 0 -147.6400170552879 123.2752086598648 0 123.2752086598648 76.241215880196251 0 0 0 0 82.241167549116653 0.90030675814250571 0 0.90030675814250571 -3.4808850568661001 0 0 0 0 -21.939760953424411 107.55828186162944 0 107.55828186162944 -14.459907354743336 0 0 0 0 15.801912821743869 21.162669163983153 0 21.162669163983153 41.302235197481494 0 0 0 0 -35.530211833342037 -14.881770749303541 0 -14.881770749303541 -15.836649502314685 0 0 0 0 46.495304662501439 65.340823760217972 0 65.340823760217972 -17.561541104136268 0 0 0 0 69.892574233410414 185.53128032675886 0 185.53128032675886 -73.303892296429694 0 0 0 0 -18.138605504012958 168.32030429329097 0 168.32030429329097 -25.496980651172635 0 0 0 0 -13.063201642864442 124.3749058058047 0 124.3749058058047 -19.035004938454222 0 0 0 0 -21.761599288402067 130.00768615002198 0 130.00768615002198 18.359238180455577 0 0 0 0 -36.85982671044971 91.959580505178764 0 91.959580505178764 0.5391045500715248 0 0 0 0 -17.457360472835717 150.49087594249795 0 150.49087594249795 -103.54470040446745 0 0 0 0 -49.43823765686102 97.836097733697898 0 97.836097733697898 -16.232814512317418 0 0 0 0 15.541564131125682 58.388091606887713 0 58.388091606887713 36.810711771331626 0 0 0 0 -67.086797023323015 125.92517297075938 0 125.92517297075938 -59.865604639526282 0 0 0 0 -58.086498364446612 96.616006544983662 0 96.616006544983662 14.820609993509249 0 0 0 0 -93.436675145418121 139.80063688945938 0 139.80063688945938 53.366114909771568 0 0 0 0 -50.879104981061573 158.93858528512465 0 158.93858528512465 -91.184129862282134 0 0 0 0 -51.564673829620006 157.98948341558844 0 157.98948341558844 32.848199307005416 0 0 0 0 -98.32566139633127 239.59570691907857 0 239.59570691907857 66.562023830498219 0 0 0 0 -122.96562443154835 191.5372111074912 0 191.5372111074912 33.553658765009885 0 0 0 0 -124.73740909517073 174.44862637028473 0 174.44862637028473 94.674706057472577 0 0 0 0 -15.295657020105864 108.76621679296113 0 108.76621679296113 -206.71094432046084 0 0 0 0 -18.414515859655239 139.50497928947163 0 139.50497928947163 -125.45218283690338 0 0 0 0 157.29504919405736 146.49769020735221 0 146.49769020735221 -637.58913969657078 0 0 0 0 146.82516256401141 382.33936259816983 0 382.33936259816983 -19.315903273076401 0 0 0 0 -0.16859109955112217 256.38628072068423 0 256.38628072068423 -3.9984451550517406 0 0 0 0 2.1114610170625383 227.61811770738132 0 227.61811770738132 -180.20938907777236 0 0 0 0 -122.8361498210943 249.50102443740434 0 249.50102443740434 351.4930002502897 0 0 0 0 -123.35748718769173 225.21563998057172 0 225.21563998057172 58.314114782257093 0 0 0 0 -110.11796703838627 382.5895102636423 0 382.5895102636423 -18.148604509762208 0 0 0 0 -1.1131954092707019 663.41988852906616 0 663.41988852906616 704.68078678266102 0 0 0 0 555.07245447083551 749.18735559653214 0 749.18735559653214 -275.93693566383081 0 0 0 0 0.46696025158667354 1.7382268406102384 0 1.7382268406102384 11.171042465080269 0 0 0 0 -180.39651550318376 39.079498727905047 0 39.079498727905047 49.933632917071009 0 0 0 0 -289.16364761081786 78.917042013419632 0 78.917042013419632 430.34415945936257 0 0 0 0 -79.330153879760474 88.491262746006214 0 88.491262746006214 -25.880034107822212 0 0 0 0 -10.285938216067734 69.645961117210391 0 69.645961117210391 -30.003190927543983 0 0 0 0 -70.071876092139064 49.895192295829588 0 49.895192295829588 -30.437444191389659 0 0 0 0 -63.483846706635632 70.802177729337643 0 70.802177729337643 -27.002615313207571 0 0 0 0 50.691919508555543 221.86845392579022 0 221.86845392579022 -352.87159511078789 0 0 0 0 -183.45022313968366 250.31913335610852 0 250.31913335610852 75.22954591456255 0 0 0 0 -113.6256183798323 250.56173522510403 0 250.56173522510403 -77.498495561892923 0 0 0 0 -93.923720679958933 194.61943340341531 0 194.61943340341531 81.346133314258623 0 0 0 0 -14.371868078619855 127.15285592615933 0 127.15285592615933 -126.91928914831806 0 0 0 0 -524.85601258389215 434.98642651152113 0 434.98642651152113 -44.974878344472017 0 0 0 0 97.383075490681222 -8.5180975271723582 0 -8.5180975271723582 -444.37641596934964 0 0 0 0 -183.26493879056216 255.88843110584548 0 255.88843110584548 47.470757830542425 0 0 0 0 -25.108663502087438 -86.532485518391695 0 -86.532485518391695 204.30905269377945 0 0 0 0 77.639338389592012 31.115476347540607 0 31.115476347540607 17.527465614528865 0 0 0 0 -490.48137438448066 -90.336144531199494 0 -90.336144531199494 -8.0860411809935613 0 0 0 0 162.04083445155993 144.45295557651662 0 144.45295557651662 -100.4053039841383 0 0 0 0 176.79148547471414 111.2264154472241 0 111.2264154472241 -45.69218809902577 0 0 0 0 186.58807341293141 117.78344143888171 0 117.78344143888171 -49.577570759392984 0 0 0 0 315.12817506160354 134.49369333637151 0 134.49369333637151 -48.502805822117807 0 0 0 0 76.238546048312855 160.14346878942251 0 160.14346878942251 73.609036879583073 0 0 0 0 47.920247533402289 -53.762569158341648 0 -53.762569158341648 -94.819780700787135 0 0 0 0 69.142365135907312 75.973998738447335 0 75.973998738447335 128.90342201759086 0 0 0 0 -99.836323911891668 107.45359112316783 0 107.45359112316783 222.82844292478694 0 0 0 0 459.29613999509456 377.95423109782132 0 377.95423109782132 174.81588563558671 0 0 0 0 -351.95063861497329 -258.21599140953367 0 -258.21599140953367 254.35107075077985 0 0 0 0 -121.28879437915953 297.93562747414671 0 297.93562747414671 454.85549921930578 0 0 0 0 -62.345287068834295 178.41027635775117 0 178.41027635775117 -143.37656905361746 0 0 0 0 -133.23651307580269 -41.230438141247276 0 -41.230438141247276 57.182545023053535 0 0 0 0 84.746038908000628 93.999077443257192 0 93.999077443257192 -30.219762477103359 0 0 0 0 -4.8341038939459793 -2.9919246005234044 0 -2.9919246005234044 9.6089421590650232 0 0 0 0 -96.585493816477538 0.71490666587123997 0 0.71490666587123997 -57.507337524868035 0 0 0 0 -55.529171759946621 106.55848059341042 0 106.55848059341042 56.376125093113842 0 0 0 0 -188.16239806644444 111.77129501784839 0 111.77129501784839 57.297751135368117 0 0 0 0 -336.93079564571599 232.02831990995492 0 232.02831990995492 262.97376643907774 0 0 0 0 -115.47192207248736 -28.162812390806721 0 -28.162812390806721 323.60371604968714 0 0 0 0 -121.66036387809072 67.335349946368979 0 67.335349946368979 390.01222445413805 0 0 0 0 -92.769701554167113 29.302777910587793 0 29.302777910587793 -1.635087781794482 0 0 0 0 -89.884562667848513 25.947379976312732 0 25.947379976312732 -9.1325978200923146 0 0 0 0 -82.778257759367079 40.411179477669066 0 40.411179477669066 6.1010416112803796 0 0 0 0 -87.25252497317706 46.169070722375182 0 46.169070722375182 12.836275356592523 0 0 0 0 -84.267083170354454 42.589906693654484 0 42.589906693654484 3.0451578473266636 0 0 0 0 -85.016924557490711 97.119763512986538 0 97.119763512986538 -12.815258208385785 0 0 0 0 -86.1017727285398 36.069111020105993 0 36.069111020105993 -9.9694847985483648 0 0 0 0 -85.858190385919443 44.007610999335839 0 44.007610999335839 1.197570499178255 0 0 0 0 3.3188685814308982 21.547554834891542 0 21.547554834891542 18.639569199570367 0 0 0 0 -12.13024179284433 51.683601508263976 0 51.683601508263976 -48.214911757643804 0 0 0 0 0.23639721404470038 78.194043464191964 0 78.194043464191964 6.3791590170912968 0 0 0 0 -26.633035126650725 30.417855302929325 0 30.417855302929325 -22.54027913586269 0 0 0 0 -65.397515547847888 104.36132014615777 0 104.36132014615777 31.617928579396903 0 0 0 0 -62.148913140270452 50.30294708534143 0 50.30294708534143 75.331465669481076 0 0 0 0 137.78123311047239 85.779215489126727 0 85.779215489126727 -21.725386162576569 0 0 0 0 -3.3426759918155824 23.165104084630649 0 23.165104084630649 17.670710945236245 0 0 0 0 -29.468097246910133 41.564965936162665 0 41.564965936162665 -41.804160885702665 0 0 0 0 197.87555371408962 86.760406622279334 0 86.760406622279334 -22.387229330168338 0 0 0 0 200.16265550354728 114.47400515460049 0 114.47400515460049 -52.823651365017213 0 0 0 0 209.34168205830792 23.303225235368245 0 23.303225235368245 -27.957416232198739 0 0 0 0 681.15056207167981 0.33704758150497582 0 0.33704758150497582 -31.649774962994343 0 0 0 0 1.0380604690190012 1.5543651908199934 0 1.5543651908199934 12.300253358440735 0 0 0 0 -269.72985417016753 352.29143740587278 0 352.29143740587278 -1.3362641109692959 0 0 0 0 -275.29332993971184 209.47665656197933 0 209.47665656197933 298.66663093128636 0 0 0 0 -139.04712126687446 63.400766947321699 0 63.400766947321699 42.073988673164422 0 0 0 0 -17.750313307653414 89.648745328104269 0 89.648745328104269 12.112525862785333 0 0 0 0 -85.0812949808751 -37.99074482044125 0 -37.99074482044125 218.87001939238371 0 0 0 0 147.45443198055 94.447154762303398 0 94.447154762303398 -376.92470211552973 0 0 0 0 156.71893180712868 157.09043069199925 0 157.09043069199925 -138.85905398902287 0 0 0 0 -7.6798992795668255 157.1858849008477 0 157.1858849008477 37.939127656623896 0 0 0 0 -62.772053232984035 138.86566408769113 0 138.86566408769113 37.567576847361124 0 0 0 0 -60.974492652436311 128.67029256081878 0 128.67029256081878 91.583697557494816 0 0 0 0 -60.392987814730077 85.208753580942357 0 85.208753580942357 -67.644455882189504 0 0 0 0 33.419052798883058 333.05193358000543 0 333.05193358000543 -383.03179203355467 0 0 0 0 163.85700931121755 207.55988712061298 0 207.55988712061298 -580.68540134873911 0 0 0 0 8.4680117595438702 137.23089405621604 0 137.23089405621604 2.4390192389726515 0 0 0 0 157.22502599471045 -1.5983555619077379 0 -1.5983555619077379 -145.77027326079042 0 0 0 0 126.97959743076717 291.49640393682057 0 291.49640393682057 -398.73999346824894 0 0 0 0 -297.33877378243051 351.91811046849762 0 351.91811046849762 -243.2198475698242 0 0 0 0 851.54434171679532 394.29958170159807 0 394.29958170159807 -974.97105887276484 0 0 0 0 12.490627732739824 136.05916815724919 0 136.05916815724919 2.2796531687255204 0 0 0 0 -173.47485551463524 455.73070409525917 0 455.73070409525917 328.77422474769264 0 0 0 0 0.89556858531520334 4.0383731827783151 0 4.0383731827783151 -5.7036268675413311 0 0 0 0 -80.319503662201896 369.50318437878923 0 369.50318437878923 -14.754849603799812 0 0 0 0 -4.658967917688642 199.61449916910169 0 199.61449916910169 354.38432411728718 0 0 0 0 187.7396352384676 180.30132763111396 0 180.30132763111396 -335.86030399238371 0 0 0 0 -25.954000481877301 351.52015409212618 0 351.52015409212618 -9.2159539117092208 0 0 0 0 287.88460326594213 117.36196680018293 0 117.36196680018293 -25.4125999873213 0 0 0 0 187.72169086702343 163.79596043053607 0 163.79596043053607 -44.984282731755229 0 0 0 0 -1.1159499768617138 6.7467525940427606 0 6.7467525940427606 -8.1169285239846829 0 0 0 0 72.150185978378431 356.38929033585009 0 356.38929033585009 247.79725333466013 0 0 0 0 226.23634120340648 270.64657027522117 0 270.64657027522117 153.92821846232619 0 0 0 0 182.43052741629435 154.11993868993341 0 154.11993868993341 -94.314186985790002 0 0 0 0 -197.98930817695509 185.71176143996126 0 185.71176143996126 187.75428136077983 0 0 0 0 -40.035644712133944 240.46485565813055 0 240.46485565813055 187.97804553317837 0 0 0 0 18.234469643364719 112.16489338559768 0 112.16489338559768 83.106269070332928 0 0 0 0 -4.0262955279295767 34.169724726190879 0 34.169724726190879 -26.986022702372516 0 0 0 0 13.241962040770886 74.457588212788778 0 74.457588212788778 -277.80653382170385 0 0 0 0 -151.98933872531416 165.91460896526769 0 165.91460896526769 154.32300351226149 0 0 0 0 -10.489019177913093 132.76539549645659 0 132.76539549645659 9.1465564913484734 0 0 0 0 5.1322242806193117 131.78502836884388 0 131.78502836884388 1.7171705478876973 0 0 0 0 101.04210862787295 -116.79016982297526 0 -116.79016982297526 -700.65641186256653 0 0 0 0 161.10094117758854 108.74226868509868 0 108.74226868509868 -10.601477831186912 0 0 0 0 -200.44131169252614 557.04653920539658 0 557.04653920539658 152.73303619153739 0 0 0 0 -50.188935676342226 456.80624317320326 0 456.80624317320326 -214.19653244231813 0 0 0 0 88.351653977861133 -0.34601304940224509 0 -0.34601304940224509 -160.15139761997852 0 0 0 0 16.080911217541143 261.81856978186988 0 261.81856978186988 356.40891668984841 0 0 0 0 298.15078903982067 75.982031215047755 0 75.982031215047755 -9.9102438628106029 0 0 0 0 178.83186104382912 504.87831848714268 0 504.87831848714268 96.082152672268421 0 0 0 0 17.726141114694656 -70.336847483602014 0 -70.336847483602014 42.493654900943511 0 0 0 0 -81.390053445589729 360.97890228912365 0 360.97890228912365 33.539945975739101 0 0 0 0 -137.00766459027363 485.72733562801295 0 485.72733562801295 203.99589272202866 0 0 0 0 -50.182244890498623 513.12855663445043 0 513.12855663445043 -506.67582316947664 0 0 0 0 -516.32986151225487 459.64042348813746 0 459.64042348813746 21.114816568922379 0 0 0 0 -380.45936880547379 -38.575908412960416 0 -38.575908412960416 48.746891084360414 0 0 0 0 -10.075315381371865 51.323227040055087 0 51.323227040055087 -166.41846131200145 0 0 0 0 -141.32805483838456 24.822864252702857 0 24.822864252702857 42.800175039443275 0 0 0 0 -5.5405214758009151 173.38803312801218 0 173.38803312801218 -599.4528160622649 0 0 0 0 -190.04045145380951 233.29872410758981 0 233.29872410758981 -92.092673909031873 0 0 0 0 0.14441924060614042 2.9431309741003986 0 2.9431309741003986 5.1667640730955924 0 0 0 0 7.3650616314040462 8.893898939568551 0 8.893898939568551 9.2285702857631975 0 0 0 0 -350.84069544948215 376.09054691850542 0 376.09054691850542 -223.11189214477781 0 0 0 0 -43.505725052767957 170.99880946634221 0 170.99880946634221 -294.91003528640795 0 0 0 0 -165.6180321259526 188.2432257317505 0 188.2432257317505 -249.14213873420522 0 0 0 0 -191.50411633992553 172.29504486186488 0 172.29504486186488 35.136683038206684 0 0 0 0 -499.31977993214605 88.733621914198011 0 88.733621914198011 102.69416480667496 0 0 0 0 115.38702698425186 -15.604263178156543 0 -15.604263178156543 -643.22845218761631 0 0 0 0 -0.51820391775238761 2.6272296050395454 0 2.6272296050395454 -8.1606100097380647 0 0 0 0 90.024501514768417 -19.690233944957981 0 -19.690233944957981 -148.78928644568805 0 0 0 0 -162.36533269192387 108.77130494694029 0 108.77130494694029 64.022480354800791 0 0 0 0 13.391926883436099 150.28751580126664 0 150.28751580126664 18.915732903291428 0 0 0 0 -3.9854627639319204 9.2863479502324822 0 9.2863479502324822 -19.061952134217137 0 0 0 0 107.72071402063011 109.199800331804 0 109.199800331804 9.0260949070652714 0 0 0 0 -301.62010691838805 128.23642557374842 0 128.23642557374842 142.35577338975509 0 0 0 0 -235.12345201217249 5.8354723687116348 0 5.8354723687116348 158.29989886323165 0 0 0 0 -182.82604107081988 177.59600284838098 0 177.59600284838098 37.80942964492715 0 0 0 0 40.934117679154951 227.01727807178486 0 227.01727807178486 1.7668751257442636 0 0 0 0 -56.626945912976225 365.90879722919635 0 365.90879722919635 -195.79359833201306 0 0 0 0 0.85629628792710832 3.5477992041107882 0 3.5477992041107882 -5.2104891249685181 0 0 0 0 142.16971110181476 150.24043187940151 0 150.24043187940151 -306.76266016807494 0 0 0 0 139.47575996770081 70.830094813299468 0 70.830094813299468 -0.97046565364144044 0 0 0 0 179.11212654297196 141.56782897829544 0 141.56782897829544 -145.53430183097407 0 0 0 0 20.035283856421302 174.4884260168983 0 174.4884260168983 -91.904275246593897 0 0 0 0 142.87311757903808 42.597982842635247 0 42.597982842635247 -78.880205418965488 0 0 0 0 102.69492171442471 98.584909447206883 0 98.584909447206883 -72.406273097843723 0 0 0 0 195.90965662820145 36.730654913003946 0 36.730654913003946 -109.49922713330307 0 0 0 0 161.8851513283953 72.398583639493154 0 72.398583639493154 -66.323150721524144 0 0 0 0 144.14805451485881 59.14479078477234 0 59.14479078477234 -62.071113622256235 0 0 0 0 130.76291024664715 54.445418388474536 0 54.445418388474536 -8.2601313410232251 0 0 0 0 137.76071863330071 157.51058981195274 0 157.51058981195274 42.05057354948076 0 0 0 0 -6.911327036733752 14.505873717410196 0 14.505873717410196 -27.348141355098505 0 0 0 0 166.05079520728759 144.41817952354177 0 144.41817952354177 -21.50342851861069 0 0 0 0 45.615729556442602 82.581916092791289 0 82.581916092791289 41.053507531996729 0 0 0 0 -46.688019887955306 98.856379406455744 0 98.856379406455744 -4.5120300305970886 0 0 0 0 106.8892612292284 112.21796513736808 0 112.21796513736808 -48.929636422188196 0 0 0 0 -12.194284863326175 164.88696136603176 0 164.88696136603176 -55.700770173029014 0 0 0 0 -134.35515669719462 21.299893189850991 0 21.299893189850991 63.294009737102897 0 0 0 0 0.906745707714677 1.5948296193961511 0 1.5948296193961511 -3.1321588455452201 0 0 0 0 -114.57154450320741 276.91377100324462 0 276.91377100324462 114.4235019117823 0 0 0 0 -143.14047196976935 220.09671164384326 0 220.09671164384326 1.507616322953254 0 0 0 0 -42.490353865774523 69.31678991607987 0 69.31678991607987 78.251227247041243 0 0 0 0 -55.491881494985137 33.090712861194334 0 33.090712861194334 41.723538482856384 0 0 0 0 -104.14014766001492 24.146178956216318 0 24.146178956216318 128.27289577643387 0 0 0 0 -110.41723510524571 79.823760420866847 0 79.823760420866847 92.66764213222632 0 0 0 0 -183.01420155486085 88.276129658792343 0 88.276129658792343 97.411062323786609 0 0 0 0 -43.281469829821617 75.104999911451159 0 75.104999911451159 39.01508260074479 0 0 0 0 -8.0925019049318507 78.761291536098724 0 78.761291536098724 36.335159279103209 0 0 0 0 199.93451260827715 156.49564346457191 0 156.49564346457191 40.933787854073671 0 0 0 0 -8.947814775345222 18.181639520421314 0 18.181639520421314 -35.083655910773189 0 0 0 0 98.508979816477222 139.48179704111499 0 139.48179704111499 11.677155394350848 0 0 0 0 142.82748337142039 103.37038908806971 0 103.37038908806971 23.715218224344426 0 0 0 0 181.67574459475509 142.15572041357791 0 142.15572041357791 36.757519247978053 0 0 0 0 122.10695694020615 123.19473843073138 0 123.19473843073138 96.633234558794356 0 0 0 0 117.37654696646132 125.05669361882246 0 125.05669361882246 107.14861338688206 0 0 0 0 103.34575159201449 95.831975359871194 0 95.831975359871194 101.38876680361136 0 0 0 0 124.29057396641292 74.484672152917483 0 74.484672152917483 111.14506456549861 0 0 0 0 108.73858592759279 113.34657295533907 0 113.34657295533907 142.23456658120267 0 0 0 0 118.94216655151104 102.70723071113025 0 102.70723071113025 153.11781816475559 0 0 0 0 136.22920605746913 95.30719883139318 0 95.30719883139318 96.536814269580645 0 0 0 0 138.19477497517801 72.676885497927287 0 72.676885497927287 163.2002252300299 0 0 0 0 191.97165160931763 131.93646409924986 0 131.93646409924986 109.5395171695418 0 0 0 0 198.25043416019616 82.642679246822809 0 82.642679246822809 227.85564917179727 0 0 0 0 154.68402765193605 135.77763564776978 0 135.77763564776978 163.05346851594254 0 0 0 0 151.77337370972464 170.20263503314118 0 170.20263503314118 223.4099698002683 0 0 0 0 185.89730336691719 142.95573977049844 0 142.95573977049844 75.627900140156271 0 0 0 0 152.4569733566168 166.27560711946717 0 166.27560711946717 138.01418218052095 0 0 0 0 387.05607766483445 234.2566113005887 0 234.2566113005887 -5.256827783814515 0 0 0 0 -11.675891987023817 24.437765255254931 0 24.437765255254931 -38.190234655948771 0 0 0 0 -10.231243361473588 4.0868851997418574 0 4.0868851997418574 8.6284435917355182 0 0 0 0 19.668686603850801 149.275236452635 0 149.275236452635 416.86249023347045 0 0 0 0 52.421266854536952 227.93474778466043 0 227.93474778466043 552.11528086576436 0 0 0 0 -4.9213845800022114 6.8992119423670459 0 6.8992119423670459 -3.5957689305165488 0 0 0 0 361.58180364762666 189.45799216554951 0 189.45799216554951 188.55659632125753 0 0 0 0 172.02276040246943 331.95314704898192 0 331.95314704898192 447.78459751923947 0 0 0 0 160.564521144217 117.62734055973124 0 117.62734055973124 179.82047997603968 0 0 0 0 131.5938978218328 170.66097921594974 0 170.66097921594974 113.44058524882712 0 0 0 0 194.97384372429951 154.52139189599256 0 154.52139189599256 115.52651309038629 0 0 0 0 48.820869601637241 172.11279576702509 0 172.11279576702509 275.1169805698446 0 0 0 0 138.76433744920359 264.16601960143089 0 264.16601960143089 347.82755634142086 0 0 0 0 -55.263429803395411 36.250485377775476 0 36.250485377775476 127.05772276677271 0 0 0 0 47.320008568961157 121.54835496138048 0 121.54835496138048 117.18693990720203 0 0 0 0 15.057980889672763 129.24908677610074 0 129.24908677610074 142.25733862492052 0 0 0 0 19.255333417728252 123.41125575051046 0 123.41125575051046 82.585654262060416 0 0 0 0 -15.680955630261451 59.222363132803366 0 59.222363132803366 -3.4600447891643853 0 0 0 0 -31.671577826327848 7.71064754636609 0 7.71064754636609 29.768333153439016 0 0 0 0 -27.766179541773425 18.439025660590289 0 18.439025660590289 18.586829733031813 0 0 0 0 -37.607477655994444 75.588056200587744 0 75.588056200587744 175.95204950996958 0 0 0 0 -1.4453311213806472 2.0450791802924186 0 2.0450791802924186 -3.5582660287901433 0 0 0 0 -899.78361329060499 -4.3714456912184687 0 -4.3714456912184687 49.295944021941978 0 0 0 0 -407.87230774497584 386.64364547546211 0 386.64364547546211 -24.536817042844632 0 0 0 0 -88.533713988050295 204.66854698469615 0 204.66854698469615 -124.64408080825524 0 0 0 0 -387.65328978457728 49.047548644527524 0 49.047548644527524 186.09972819795803 0 0 0 0 -450.44332642454538 173.33257739543478 0 173.33257739543478 168.02420024709591 0 0 0 0 -128.97987360218031 367.7914780828487 0 367.7914780828487 -44.325455845359102 0 0 0 0 -7.446330271079205 103.24448355111963 0 103.24448355111963 55.643883618358814 0 0 0 0 103.3113519689141 162.42788445767383 0 162.42788445767383 30.401575471340038 0 0 0 0 114.51906567291735 109.67094392537365 0 109.67094392537365 57.584336645233634 0 0 0 0 267.86133287680423 218.60963411520788 0 218.60963411520788 -2.6752669398720172 0 0 0 0 108.52415375558485 108.1676361210375 0 108.1676361210375 103.07681799298007 0 0 0 0 100.90992603214909 94.199350334849441 0 94.199350334849441 104.48432864150527 0 0 0 0 114.9635013650477 81.081739371664298 0 81.081739371664298 27.808903319009914 0 0 0 0 -4.3984196141909138 7.1925073071397634 0 7.1925073071397634 -9.2122595228391333 0 0 0 0 143.55563092527518 123.72047875320277 0 123.72047875320277 90.638510756747564 0 0 0 0 -274.94588372706312 36.788298433252749 0 36.788298433252749 46.062036033075856 0 0 0 0 -181.32481634261057 57.95367380499556 0 57.95367380499556 -5.4401015959165306 0 0 0 0 -211.28433596566583 317.79334439912452 0 317.79334439912452 -2.0799711378713255 0 0 0 0 -57.759551823455695 182.29330507867417 0 182.29330507867417 -47.895732303750265 0 0 0 0 71.907848137787369 180.82824573620383 0 180.82824573620383 2.1564967226627232 0 0 0 0 141.52950277622585 216.86177313742246 0 216.86177313742246 -85.062219770017691 0 0 0 0 410.0632657079459 147.56013180703121 0 147.56013180703121 -99.262979250979697 0 0 0 0 159.1853657380052 377.65264748731715 0 377.65264748731715 0.76411956121228286 0 0 0 0 398.12941154270811 490.71343514088221 0 490.71343514088221 360.27147624300051 0 0 0 0 -79.016264513673377 148.98635232662855 0 148.98635232662855 122.33217840444377 0 0 0 0 -866.83048418398539 324.2932881710185 0 324.2932881710185 663.0745421155807 0 0 0 0 430.40167922712135 616.05076501704389 0 616.05076501704389 -420.59415068234011 0 0 0 0 5.0815080443876752 6.9098758773740414 0 6.9098758773740414 8.5738171705155537 0 0 0 0 -947.26290610201249 529.88585683211568 0 529.88585683211568 678.44308159962384 0 0 0 0 976.19197966800857 -44.866075774029014 0 -44.866075774029014 -15.248696297561764 0 0 0 0 229.06151227019291 47.152482415043778 0 47.152482415043778 -20.483233252111972 0 0 0 0 -728.26928262782167 893.17307841987349 0 893.17307841987349 -332.61444702613881 0 0 0 0 17.587893580793164 18.33015820098376 0 18.33015820098376 15.784928520445675 0 0 0 0 246.00924076701085 19.824414293047994 0 19.824414293047994 4.8002359161873756 0 0 0 0 61.995209154178156 41.225965511550385 0 41.225965511550385 3.2375710098094714 0 0 0 0 143.7426204704916 86.017201230564751 0 86.017201230564751 24.55198409978766 0 0 0 0 163.10076936297264 164.8280689577623 0 164.8280689577623 -2.047199837394146 0 0 0 0 66.03106620170729 25.22552151720447 0 25.22552151720447 66.488622201772614 0 0 0 0 -115.8611300208795 276.37731925856133 0 276.37731925856133 -365.99483881569222 0 0 0 0 25.493260772532125 23.576982025320756 0 23.576982025320756 17.758923400626202 0 0 0 0 -255.9710708589555 501.22460925544874 0 501.22460925544874 -516.67668605791187 0 0 0 0 -336.09017665247666 326.81545997013018 0 326.81545997013018 -353.62759818138875 0 0 0 0 -132.08964249378187 260.24188365387454 0 260.24188365387454 -360.77598997062887 0 0 0 0 -147.68986938107082 332.66794650757174 0 332.66794650757174 -168.6944802849066 0 0 0 0 -155.98092111980077 386.90262873172651 0 386.90262873172651 -522.06005783954242 0 0 0 0 -341.70645015145419 459.64384328931374 0 459.64384328931374 -13.44977308029047 0 0 0 0 -261.99407461135524 297.58213748879098 0 297.58213748879098 -153.95985572504651 0 0 0 0 -219.38072984656901 106.909163278915 0 106.909163278915 288.92923698147933 0 0 0 0 -389.73350426540128 253.84566583222841 0 253.84566583222841 257.52762169794914 0 0 0 0 -305.67669741443387 226.80533436297264 0 226.80533436297264 333.50805318221319 0 0 0 0 -170.28643589756393 203.27180561916612 0 203.27180561916612 294.95541995434178 0 0 0 0 -24.90623553309706 145.80833335182433 0 145.80833335182433 -356.23101878046145 0 0 0 0 -174.84910637250141 240.6227642402082 0 240.6227642402082 -192.85346975210268 0 0 0 0 -333.28038165252656 209.96289937538677 0 209.96289937538677 909.02698374040847 0 0 0 0 108.90559999203833 -286.25459999667146 0 -286.25459999667146 417.22325190721313 0 0 0 0 487.92335492052916 7.6567750430422166 0 7.6567750430422166 62.856669484819577 0 0 0 0 331.52669352568046 476.69269171684937 0 476.69269171684937 398.63485740191754 0 0 0 0 -334.13531356759995 155.75714386456275 0 155.75714386456275 424.55725930231711 0 0 0 0 -492.45618280456983 327.26027093004086 0 327.26027093004086 481.45111490316231 0 0 0 0 -263.68624186290253 394.64915436805677 0 394.64915436805677 157.26260645587172 0 0 0 0 -302.97190335151208 86.541625522767845 0 86.541625522767845 172.88137874303357 0 0 0 0 -813.44752926216461 160.8248781142247 0 160.8248781142247 63.473527823887707 0 0 0 0 -394.91494908630557 347.97941740077658 0 347.97941740077658 -570.07239166367071 0 0 0 0 -414.74728281088755 51.711942458168778 0 51.711942458168778 -114.77349244817742 0 0 0 0 236.25235653462005 275.56551882853819 0 275.56551882853819 -234.40669346636423 0 0 0 0 201.16669693462609 -22.754990653746063 0 -22.754990653746063 -113.52270775431134 0 0 0 0 350.02494543277135 165.88847036060542 0 165.88847036060542 110.20186937959807 0 0 0 0 83.202756243976182 268.16006133768678 0 268.16006133768678 -61.569475131851505 0 0 0 0 -99.851299761387054 248.24701313017067 0 248.24701313017067 115.26243043596332 0 0 0 0 -279.21780915873387 235.86975221151806 0 235.86975221151806 297.6641343846095 0 0 0 0 -306.65775596265303 317.53674977029914 0 317.53674977029914 297.2768758246566 0 0 0 0 -440.36799388777035 450.06402843472051 0 450.06402843472051 172.01755604064965 0 0 0 0 -180.69726162772713 289.53851997630591 0 289.53851997630591 149.86052806534281 0 0 0 0 -545.00293329869237 720.94383820825442 0 720.94383820825442 -346.73221684896271 0 0 0 0 10.579357838287251 78.480409384839732 0 78.480409384839732 186.88173493243812 0 0 0 0 -64.108053179654235 259.94311638438921 0 259.94311638438921 -141.92966517700188 0 0 0 0 38.864287899348994 7.2346049396397873 0 7.2346049396397873 -1.818760207890362 0 0 0 0 100.53432349197101 -10.126911810571983 0 -10.126911810571983 36.417411288559379 0 0 0 0 -62.460825090660364 77.816631126686843 0 77.816631126686843 113.84658626655073 0 0 0 0 229.34415952615382 87.695527425501496 0 87.695527425501496 -490.24998633402265 0 0 0 0 176.94508835740271 1.1142209029276273 0 1.1142209029276273 -34.891938313652645 0 0 0 0 -9.3051364404448904 30.775431587451394 0 30.775431587451394 0.34502168147301404 0 0 0 0 99.918250018294202 -60.67584975952559 0 -60.67584975952559 23.234132610834422 0 0 0 0 39.726511085304082 -53.67191523092697 0 -53.67191523092697 13.209003546980966 0 0 0 0 14.815721122256946 16.830005967625766 0 16.830005967625766 -34.358710143329517 0 0 0 0 34.150310108059784 28.672697991940368 0 28.672697991940368 -37.575046992344141 0 0 0 0 -174.21714172780776 286.35097926984236 0 286.35097926984236 -118.2587504866824 0 0 0 0 179.38736150192562 295.59919464107224 0 295.59919464107224 -434.78313024325325 0 0 0 0 179.89436389913925 228.78027995486894 0 228.78027995486894 -173.65008318985929 0 0 0 0 438.47509901316516 -23.782732077577748 0 -23.782732077577748 -165.67059175022587 0 0 0 0 5.9525890182667354 139.38646627717208 0 139.38646627717208 -159.5221064411744 0 0 0 0 -64.222207426497334 369.23515840917298 0 369.23515840917298 -483.39193587403861 0 0 0 0 -616.19331834702461 70.247780981000687 0 70.247780981000687 -371.7612763523357 0 0 0 0 7.8017982019032956 3.276870672391226 0 3.276870672391226 -2.8890171800091196 0 0 0 0 -1262.1251906447324 636.14878299079101 0 636.14878299079101 -299.18320374186442 0 0 0 0 -1193.3468955913995 695.18788402441714 0 695.18788402441714 -349.88507345436665 0 0 0 0 -1400.9715039546427 46.876389464792737 0 46.876389464792737 221.59781729979022 0 0 0 0 -3.2820672208098358 10.280635297922565 0 10.280635297922565 1.188965659633368 0 0 0 0 -265.88412099948619 463.18574322167842 0 463.18574322167842 -445.09718993596471 0 0 0 0 -348.3867881399492 76.325190946685325 0 76.325190946685325 -59.896577230960247 0 0 0 0 -386.50127089103989 74.118448133668608 0 74.118448133668608 8.8923021410373622 0 0 0 0 -30.208556259851321 231.72944127019946 0 231.72944127019946 -81.157414821747807 0 0 0 0 -10.835715451754368 296.64918682634925 0 296.64918682634925 -88.336279266914062 0 0 0 0 -454.92502356366094 422.76841978855919 0 422.76841978855919 -132.88028320204467 0 0 0 0 155.17260633623664 132.908207944065 0 132.908207944065 -49.398947147819854 0 0 0 0 176.83091890110518 136.468539917616 0 136.468539917616 -69.249091116082127 0 0 0 0 377.75669954920886 128.31714085790372 0 128.31714085790372 -236.98981370900401 0 0 0 0 296.50129913028104 -77.422083544099223 0 -77.422083544099223 136.12429246193642 0 0 0 0 876.93467672570841 -281.57692788527856 0 -281.57692788527856 -175.14333328863722 0 0 0 0 -172.38108007271512 577.27393214251424 0 577.27393214251424 -336.44983520674668 0 0 0 0 221.91307211360981 35.207041669960745 0 35.207041669960745 -46.604696640344628 0 0 0 0 9.8519516338105575 13.551359544833055 0 13.551359544833055 16.357096493041766 0 0 0 0 -203.6942321770548 361.1674773209179 0 361.1674773209179 -213.81645952995859 0 0 0 0 -107.71659514066414 -96.734620909355726 0 -96.734620909355726 -98.366771018423606 0 0 0 0 14.019833874039648 14.707691112971151 0 14.707691112971151 13.193777095326126 0 0 0 0 -47.976993179098599 220.87871760662711 0 220.87871760662711 -405.46791585379106 0 0 0 0 -2.2180728859893861 32.54529547410857 0 32.54529547410857 -374.11481934197764 0 0 0 0 -302.16132064773956 208.72329388338676 0 208.72329388338676 -178.42802398969798 0 0 0 0 -115.3425563184901 38.286725054047565 0 38.286725054047565 25.47869247890776 0 0 0 0 -103.87238194404563 -65.80931541938844 0 -65.80931541938844 600.48954010828675 0 0 0 0 -112.32391576805458 75.597709545374528 0 75.597709545374528 34.221733716884046 0 0 0 0 664.50283423560177 -172.81856089525536 0 -172.81856089525536 -147.11322009777973 0 0 0 0 710.68199123220256 764.93673054921146 0 764.93673054921146 -217.40394378555357 0 0 0 0 -400.04782208550023 667.23218068361166 0 667.23218068361166 701.96796172222093 0 0 0 0 -773.67131808784325 316.10424505695482 0 316.10424505695482 373.78927713081066 0 0 0 0 5.7556332740641949 7.7450038229001059 0 7.7450038229001059 8.6371457741770854 0 0 0 0 -803.1499785936976 274.81430909039409 0 274.81430909039409 648.36847213075725 0 0 0 0 997.75912783162494 355.38575771613614 0 355.38575771613614 -201.01368031206948 0 0 0 0 3.2789311129411516 3.4343008014884902 0 3.4343008014884902 4.3867349920921299 0 0 0 0 -481.68283693779085 -240.04457845418801 0 -240.04457845418801 -279.84823665046133 0 0 0 0 753.79024242458399 176.07559093952295 0 176.07559093952295 -240.30766343875439 0 0 0 0 42.713399324404236 817.85137628075972 0 817.85137628075972 -656.81930549883691 0 0 0 0 15.066931351403611 16.626735980053237 0 16.626735980053237 14.603148261644307 0 0 0 0 197.18498814360646 262.88083739652939 0 262.88083739652939 -707.82888866680878 0 0 0 0 
</DataArray>
<DataArray type="Float64" Name="cross_section_updated" format="ascii">
1 1 1 0.0086136096491701425 1 1 1 1 0.0080230578641985306 1 1 0.0066394698397358176 1 1 1 1 1 1 1 1 1 1 1 1 1 1 1 1 1 1 1 1 1 1 1 0.0077612373183886738 1 1 1 1 1 1 1 1 1 1 1 1 1 1 1 1 1 1 1 1 1 1 0.010671606481199011 1 1 1 1 1 1 1 1 1 0.0097482632539026594 1 1 1 0.01327513509434617 0.01194743268051118 1 1 0.0095555394384707407 1 1 0.009823028296807073 1 1 1 0.0031408856528329643 1 0.0048018157629823241 0.0094770310460225993 1 1 1 1 0.0087881457656443021 1 1 1 1 1 1 1 1 0.0039595094703873818 1 1 1 1 1 1 1 0.0077581796407444822 1 1 1 0.0097581247778236995 1 1 0.0085120587450237678 1 1 0.0094743826580494794 1 1 1 1 1 1 1 1 1 0.010567727739892188 1 1 1 1 1 1 1 1 1 1 1 1 1 1 0.010566938427589545 1 1 1 1 1 1 1 1 1 1 1 1 1 1 1 1 1 1 1 1 1 1 1 0.010159487299215442 1 1 0.0096198192682839384 1 1 1 1 1 1 1 1 1 1 1 1 1 1 1 1 1 1 1 1 1 1 1 1 1 1 1 1 1 1 1 1 1 1 1 1 1 1 1 1 1 1 1 1 1 0.010240194181282747 1 1 1 1 1 1 1 1 1 1 0.0095054030011239108 1 1 0.011477762150748139 1 1 0.0013756814756388965 1 1 0.0014910898560056788 1 1 1 0.0088536166478648624 0.00081640303868776506 1 1 0.0067004004841477727 1 0.020158915507566731 1 1 1 1 0.0080042821631914826 1 0.0099859715758303311 1 1 0.0057757672059771253 1 0.0071332925577285156 1 1 1 1 1 1 1 0.019689158083503456 1 1 1 1 1.7226598342245936e-09 0.0099930706169467226 1 1 1 0.00019941364902560307 1 1 1 1 1 -1.2437204953419378e-08 0.0073877890932595273 1 1 0.0098767924213510952 1 1 1 1 0.0082950764670181518 1 1 1 1 -1.1489703764799852e-08 1 1 1 1 1 -1.4394322572428009e-08 1 1 0.0092420039718738231 1 1 1 0.0012875963101251775 1 1 1 1 1 1 1 1 1 1 1 1 1 1 1 1 1 1 1 1 1 1 1 1 1 1 1 1 1 1 1 1 1 1 1 1 1 1 1 1 1 1 1 1 1 1 1 1 1 1 1 1 1 1 1 1 1 1 1 1 1 1 1 0.015627432168323442 1 1 1 0.011800133190605647 1 1 1 1 1 1 1 1 1 1 0.0056182557540778097 1 1 1 1 1 1 1 1 1 1 1 1 1 1 1 1 1 0.014497503106325776 1 1 1 1 1 1 1 1 1 1 1 1 1 1 0.010009138020807457 1 1 1 0.01072927902975529 1 1 1 1 1 1 1 1 1 1 1 1 1 1 1 1 0.010050946151168631 1 1 1 5.7936348796909509e-05 1 1 0.0076628180498339096 1 1 1 1 1 1 1 1 1 1 1 0.0070174923739277917 1 1 1 1 0.0079606266556150121 1 1 1 1 1 0.0041151569881761087 1 1 1 1 0.0079308813310145845 1 1 1 1 1 1 1 1 1 1 1 1 1 1 1 1 1 1 1 1 1 1 1 1 1 1 1 1 1 1 1 1 1 1 1 1 1 1 0.010467278227617748 1 0.01046802297969987 1 1 1 1 1 1 1 1 1 1 1 1 1 1 0.0084767527644765122 1 1 1 1 1 1 0.0093815561898032938 1 1 1 1 1 1 1 0.0089253098672800874 1 1 1 1 1 1 1 1 1 1 1 1 1 1 1 1 0.0047461660183343735 1 1 1 1 1 1 0.0051269288737207791 1 1 1 1 1 1 1 1 1 1 1 1 1 1 1 1 1 0.0095457219198964091 1 1 1 0.005828182106313062 1 1 1 1 1 1 1 1 1 1 1 1 1 1 1 1 1 1 1 1 1 1 1 1 1 1 1 1 1 1 1 1 1 1 1 1 1 1 1 1 1 1 1 1 1 1 1 1 1 1 1 1 1 1 1 1 1 0.0084591319867151141 1 0.010039170111242224 1 0.009548237082087737 0.013493793318232319 1 1 1 1 1 1 1 1 1 1 0.012437445957763367 1 1 0.013799392269150314 0.010335340796280559 1 1 1 1 0.012298514949726759 1 1 0.010934074873012574 1 1 1 1 1 1 1 1 1 1 0.017866012240744175 5.7617968625411908e-09 1 0.0091196370261033867 1 0.016865878751185802 1 1 1 1 1 1 1 1 0.01003505035682882 0.015704906963922745 0.0099579783376703146 1 1 1 1 1 1 1 1 1 1 1 1 1 1 1 1 1 1 1 1 1 1 1 1 1 1 1 1 1 1 1 1 1 1 1 1 1 1 1 1 0.012333415771677549 1 1 1 1 1 1 1 1 1 0.010954310444446454 1 1 1 0.010935560199466114 1 0.013361605875017651 1 1 1 1 0.012191798469694882 1 1 1 1 0.010679244553166335 1 1 1 1 1 1 1 0.013487269969059745 0.0045308128339788829 1 1 1 0.0075846914427676517 1 1 1 1 0.0065508212166471812 1 1 1 1 1 1 0.00069638075192305152 1 1 1 1 1 0.013888267000158459 1 1 1 1 1 1 1 1 1 1 1 1 0.0092256872823506531 1 1 1 1 0.009596833803650992 1 1 1 1 1 1 1 1 1 1 2.8883193822770714e-09 1 1 1 1 1 1 1 1 1 1 1 1 1 1 1 1 1 1 1 0.022091450695302411 1 1 1 0.010717404171794478 1 1 1 1 1 1 0.010080054439404748 1 1 1.9747561259830793e-09 1 1 1 1 1 1 1 1 1 1 1 1 0.0099878876234056543 0.012214647824219551 1 1 1 1 1 1 0.01034899511842427 1 1 1 1 1 1 1 1 1 1 1 1 1 1 1 1 0.011823980672274834 1 1 1 1 1 1 1 1 1 1 1 1 1 0.011337647345242719 1 1 0.0098597862755020471 1 1 1 0.010105952750393186 1 1 1 1 1 1 0.0088295805331467941 1 1 1 1 1 1 1 1 0.010246166474891141 1 1 1 1 1 1 0.0088601233913403795 1 1 1 1 1 1 1 1 1 1 1 1 1 1 1 0.0094138804199483932 1 1 1 1 1 1 1 1 1 1 1 1 1 1 1 1 1 1 1 1 1 1 1 1 1 1 1 0.0064455979783788328 1 0.0085984051620364155 1 0.0090779844768363298 0.0099966468080917425 1 1 1 1 1 1 1 1 1 1 1 1 0.0099292143293577689 1 0.007755244175366131 1 0.0066762896517289609 0.010258062076027287 1 0.0099795949873036829 0.0072924868341853813 1 1 1 1 0.0094951506434198078 0.0093806886665822251 1 0.0098665370680820815 0.0057744036935202733 1 1 0.010400326613561238 1 1 0.0060780019307931088 1 1 1 1 1 1 1 1 0.010462193861069242 1 1 0.010379616823513377 1 1 1 1 0.011128262897331029 1 1 1 1 0.010064600776839606 1 0.0099751474471197806 1 1 1 1 1 0.0099011639193769124 1 1 1 1 1 1 0.011198972726548843 1 1 0.0096470124387295214 1 1 1 1 1 1 1 1 1 0.0097458438166046421 1 1 0.010556170429409206 1 1 1 1 0.010032706972767372 1 1 0.010047822538226461 1 1 1 1 1 1 1 1 1 1 1 1 1 1 1 1 1 0.010152375775591832 1 1 1 0.0097654753590125584 1 1 1 1 1 1 0.0091674518638302678 1 1 1 0.0094053708728165271 1 1 1 1 1 1 1 1 1 1 1 1 1 1 1 1 1 0.0097359547966808443 1 1 1 1 0.0051749753615459096 1 1 0.0057257483056805444 1 1 1 1 1 0.009028375724298484 1 1 1 1 1 0.006631275463772953 1 1 0.009738372961019431 0.0061231695465227935 1 1 1 1 1 1 1 0.011089273014938922 1 1 1 1 1 1 1 0.010405376421043742 1 1 1 1 1 1 1 1 1 1 1 1 1 1 1 1 1 1 1 1 1 1 0.010448924296435347 0.012683092975267755 1 1 1 1 0.011483069993491008 1 1 1 1 1 1 1 1 1 1 1 1 0.0029183521459190745 1 0.0037854201637206042 1 1 1 1 1 1 1 1 0.0054508519702156297 1 1 1 1 0.0090819871280944237 1 1 1 1 1 1 0.0074818830875514513 1 1 1 1 0.013188804302924344 1 0.014957461341868681 1 1 1 1 0.01088546235351419 1 1 1 0.010000297909408836 1 1 1 1 1 1 1 1 1 0.0098569152497219852 1 1 1 1 0.0095563862485283629 1 1 1 0.0096729468444313477 1 1 1 0.0093104778874696908 1 0.01222459467497132 1 1 1 1 1 1 1 1 1 1 1 0.010945602754281959 0.01030731557334171 1 1 1 1 1 0.011027473253962626 1 1 1 1 1 1 1 1 1 1 1 1 1 1 1 1 0.0096557002331841592 1 1 1 1 0.0097943850767047008 1 1 1 1 1 1 1 1 1 0.0087524177304883193 1 1 1 1 1 1 1 0.0062119617143451076 1 1 1 1 1 1 1 1 0.01047251618723267 1 0.024471110239821414 0.0036793566675758956 1 1 1 1 1 1 1 1 1 1 1 1 1 1 1 1 1 1 1 1 1 0.0091965806490909418 1 1 1 1 1 1 1 1 1 1 0.016017404986829756 1 1 0.017887543927185504 1 1 1 0.016315422221410081 1 1 1 1 1 0.013144359300673441 0.011690654865570815 1 1 0.0082925724199928268 1 1 1 1 1 0.0086883600960037163 1 1 1 0.0097929020259659542 0.014988288490144384 1 1 1 0.0095164737364752498 1 1 0.0077342783844596644 0.0099745758262584968 1 1 1 1 1 1 1 1 1 1 1 1 1 1 1 0.0099230308359396693 1 1 1 1 1 0.010216461551485015 1 1 1 1 0.010401142581005919 1 1 1 1 1 1 0.004831302468669375 1 1 1 0.0086353173793491094 1 1 0.010046408997664664 0.010432757704642652 1 1 1 1 1 1 1 1 0.010269072024462467 1 1 1 1 1 1 0.014803800301444035 1 1 1 1 1 1 1 1 1 1 1 1 1 1 1 1 1 1 1 1 1 1 1 1 1 1 1 1 1 1 1 1 1 1 0.012491348391361151 1 1 0.014213161485704513 1 1 1 1 1 1 1 1 1 1 1 1 1 1 1 1 0.01496969330846183 1 1 1 1 1 1 1 1 1 1 0.0097889671787181678 1 1 1 1 1 0.010103291018797325 1 1 1 1 1 0.0099700066893907008 1 1 0.0011534197601445265 1 1 0.0098913959687159103 1 1 0.008410541513703516 1 1 0.0022102455663615111 1 1 1 1 1 1 1 1 1 1 1 1 1 1 1 1 1 1 9.2234095709865446e-05 1 1 1 1 1 1 1 1 1 0.0095758006276797456 1 1 1 1 1 0.011160655116569863 0.011444563022954747 1 1 1 1 1 1 1 1 1 1 1 1 1 1 1 0.01101452338715142 1 1 1 1 1 1 1 1 1 1 1 1 1 0.008992315350941674 1 1 1 1 1 1 0.012857803242808847 1 1 1 1 0.0094264360284774112 1 1 1 0.010909298336406061 1 1 1 1 1 0.01016426983206788 1 1 1 1 1 1 1 1 1 1 1 1 1 1 1 1 1 1 1 1 1 1 0.019954336357158341 1 1 1 1 0.015166986641897836 1 1 1 1 1 1 1 1 1 0.012344449206637248 1 1 1 1 1 1 1 1 1 1 0.010125651382081992 1 1 1 1 1 0.010881714541507277 1 1 1 1 1 1 1 1 0.008440247468090311 1 1 0.010566533974484432 1 1 1 1 1 1 0.010034280575733381 1 1 1 1 1 1 1 1 1 1 0.010439798080932372 0.009544537358643362 1 1 1 0.0075510526110652045 1 0.009666809219906777 1 1 0.0039278177312951149 1 1 1 1 1 0.010875674507745785 1 0.0050840622479612699 1 1 0.011141541779895806 0.0099572726036930674 0.0057629511872528683 1 0.010018243291943382 1 1 1 0.0049588698980306597 1 1 0.010894151115045325 1 0.0034406283081349111 1 1 1 0.014853518795550176 1 0.0076237371393832083 1 1 1 1 0.00473953175329487 1 1 1 0.0099606667258530842 1 1 0.010908942382063613 0.0070031348318651456 0.0063673130635281197 1 0.012494965993613329 1 0.0045579889333022764 0.0064950715730181328 1 1 1 1 0.0037297021261461089 1 1 1 1 1 1 1 1 0.0070553809316642449 1 0.0039839812323596933 1 1 1 1 1 1 1 1 1 1 1 1 1 1 0.001554750009818022 1 0.006822888117725608 1 1 1 1 1 1 1 1 1 3.1551105374172383e-09 1 1 0.015208296218681914 1 1 1 1 1 1 1 0.0025896399227860328 1 1 0.010131805728978448 1 0.018217953922203781 1 -7.664454269168397e-09 1 0.0089159523518358708 1 1 1 1 0.0093024731586516564 1 0.018368486381094881 1 1 1 1 1 1 1 1 1 1 1 1 1 1 1 1 1 1 1 1 1 1 1 1 1 1 1 1 1 0.010013172276323694 1 1 1 1 1 1 1 1 1 1 1 2.5480539934952251e-09 1 1 0.0076932250462113296 1 1 1 0.025417510438226591 1 1 1 1 0.002009198387198919 0.016903055365581281 1 1 0.0034939096408439039 1 1 1 1 1 1 0.0092376291304615624 1 1 1 1 1 1 1 0.0031500739816772653 1 1 1 1 1 1 1 0.01008845825873636 1 1 1 0.007181652487264531 1 1 1 1 1 1 0.0010303921546627286 1 1 1 1 0.0058725830286029748 1 1 1 0.0063254827702591207 1 1 1 1 1 1 1 1 1 1 1 1 1 1 1 1 1 1 1 1 1 1 1 0.0096698233111171886 1 1 1 1 1 0.0074141318434326128 1 1 1 1 1 1 1 1 1 1 1 1 1 1 1 1 1 1 1 1 1 1 1 1 1 1 1 1 1 1 1 1 1 1 1 1 1 1 1 1 1 1 1 1 1 1 1 1 0.01136417658259533 1 1 1 0.0081592477529055657 1 1 1 1 0.0095803823054275844 1 1 1 1 0.0041669957029165546 1 1 1 1 1 1 1 1 1 1 0.0093256245215046236 1 1 1 7.5062524598767943e-10 1 0.008942976911542961 1 1 1 1 1 1 1 1 1 1 1 1 1 1 1 0.0091913661830401189 1 1 0.0097919940618887147 0.0099000785936093905 1 1 1 1 1 0.0089672817818973079 1 1 0.010655665853681065 1 1 1 1 1 1 1 1 1 1 1 1 1 1 1 1 1 1 1 1 1 1 1 1 1 1 1 1 1 1 1 1 1 1 1 1 1 1 1 1 1 0.009551466551140541 1 1 1 1 1 1 1 1 1 1 1 1 1 1 1 1 1 1 1 1 1 1 1 1 1 1 1 1 1 1 1 1 1 1 1 0.011686077968986977 1 1 1 1 1 1 1 1 1 1 1 0.0099454112921715538 1 1 1 0.01005793449528202 1 0.008651700999042446 0.0052905278892293583 0.010541587583630373 0.007085953475433426 1 1 1 1 1 1 1 1 1 1 0.013170430191805787 1 1 1 0.017808685871053737 1 1 1 1 1 1 1 1 1 1 1 1 1 1 1 0.0098872006274436878 1 0.0039638608971544614 1 1 0.0041651349088057919 1 1 0.0064652265939783449 1 0.0098777686561878179 0.0049027715088757751 1 1 0.011907452987848404 1 1 1 1 1 1 1 1 1 1 1 1 1 1 1 0.0068816550836620638 1 1 1 1 1 1 1 0.0089146851743745897 1 1 1 1 1 1 1 0.010571710047181829 1 1 1 1 0.0094891156220486758 0.0094411211332818268 1 1 1 1 1 1 1 1 1 1 1 1 1 1 1 1 1 1 1 0.009892228398375752 1 1 1 1 1 1 1 1 1 0.010010585158352417 1 1 1 1 1 1 0.0090668371887132025 1 1 1 1 1 1 1 1 1 1 1 1 1 1 1 1 1 1 1 1 1 1 1 1 1 1 1 1 1 1 1 1 0.0098890641006158329 1 1 1 1 0.0098888820084319269 1 1 1 1 1 1 1 1 1 1 1 1 1 1 1 1 1 1 1 1 1 1 1 1 1 1 1 1 1 1 1 1 1 1 1 0.0059753043064517536 1 1 1 1 0.013133207732051084 1 1 1 1 1 1 1 0.011210039072817098 1 1 1 1 1 1 1 1 1 1 1 1 1 1 1 1 1 0.0087154942495077659 1 1 1 1 1 1 1 1 1 1 1 1 1 1 1 1 1 1 1 1 1 1 1 0.010547698793615563 1 0.0059371553573658916 1 1 1 1 1 1 1 1 0.0095356480680997766 1 0.0078827170267946542 1 1 1 0.0099010326308246119 1 1 1 1 1 1 1 0.0073421931181246736 1 1 0.0094387156391110075 1 1 1 0.0096236221254636933 1 1 1 1 1 1 1 1 1 1 1 1 1 1 1 1 1 1 0.0091987282170286275 1 1 1 1 1 1 1 1 1 1 1 1 1 0.0076577379302076448 1 1 1 1 1 1 1 1 1 1 1 1 1 1 1 1 1 1 1 1 1 0.010474055402726883 1 1 0.0099472651886899216 1 1 1 1 1 1 1 1 0.010119967778787341 1 0.0099910258710884867 0.010307049892787773 1 1 1 1 1 1 1 1 0.010169767799093496 1 1 1 1 1 1 1 1 1 1 0.010862860714005475 1 1 0.010034818046011543 1 0.010617726481155984 1 0.010193218816937459 1 0.010406658558588987 0.010155554331353636 1 1 0.010293144034367478 0.010674511975377464 1 1 1 1 1 1 1 1 1 0.010157703109513617 1 1 1 1 0.010480192890165996 1 1 1 1 1 1 0.0099842240313424823 1 1 0.0080144761214214506 1 0.012320385700815471 1 1 0.0068205579696255757 1 0.010983773402311336 1 0.0081611781151350524 1 1 0.011721718738327613 1 0.010514001117860612 1 1 1 1 1 0.010463840911129264 0.0099449909420629631 1 0.010125003589698894 1 1 1 1 0.0074380008389829735 1 1 1 1 1 1 1 0.0089016368861299915 1 1 1 0.009017894414907239 1 1 1 0.010105437452493225 1 1 1 1 1 1 1 1 1 0.0099115641166102504 1 1 0.010118462832235754 0.0082310844678173747 1 1 1 1 1 1 1 0.0094851580220246326 1 1 1 1 1 1 1 1 1 1 1 1 1 1 1 1 1 1 1 1 1 1 1 1 1 1 1 1 1 1 1 1 1 1 1 1 1 1 1 1 1 1 1 1 1 1 1 1 1 1 1 1 1 1 1 1 1 1 1 1 1 1 1 1 1 1 1 1 1 1 0.0092603506019850249 1 1 0.0090909682281566859 1 1 1 1 1 0.0096067855904385727 1 1 1 1 1 1 1 1 1 1 1 1 1 1 1 1 1 1 1 1 1 1 1 1 1 1 1 1 1 1 1 1 1 1 1 1 1 1 1 1 1 0.011704058414290838 1 0.01210211524065373 1 1 1 0.021623943156252018 1 1 1 1 1 1 0.009973127844667605 1 0.0087657578092486758 1 1 1 1 1 1 1 1 1 1 1 0.017724488506303725 1 1 1 1 1 1 1 1 1 1 1 1 1 1 1 1 1 0.008621705183302443 1 1 1 1 1 1 1 1 1 1 0.011605663306197965 1 0.008948140095014552 1 1 1 1 1 1 1 1 1 1 1 1 1 1 1 1 0.016437460996104138 1 1 1 1 1 1 1 1 1 1 1 1 1 1 1 1 1 1 1 1 1 0.0056263347891882792 1 1 1 1 1 0.019839368400413424 1 1 1 0.0079931492908029284 1 1 1.5894800337035164e-09 1 1 1 1 1 9.8912328141909089e-05 1 1 1 1 1 1 0.014538893236362628 1 1 1 1 1 1 1 0.020726941895718019 0.0099445817338536871 1 1 1 1 1 1 1 1 0.012754871360200745 1 1 1 1 1 1 1 1 1 1 1 0.01043021227493092 1 1 1 1 1 0.0020974660155620405 1 0.010175526249258479 1 1 1 0.0012041684921675344 1 1 1 0.01563982770416697 4.1555294726103309e-09 1 1 1 1 0.014575303805190572 1 0.0091606087238173296 1 1 1 1 0.0097103972405704515 1 1 1 1 1 1 1 0.0077735852801764753 1 1 1 0.012166164682668901 1 1 1 1 1 1 1 1 1 1 1 1 1 1 1 1 1 1 1 1 1 1 0.010266777391982892 1 1 1 0.010870954917399915 1 1 0.010175589267241415 1 1 1 1 1 1 1 1 1 1 1 1 1 1 1 1 1 1 1 1 0.01024594795395109 1 1 1 0.0072487914534627648 1 1 1 1 1 1 1 1 1 1 1 1 1 1 1 1 1 1 1 1 1 1 1 0.0098179053159418769 1 0.016064248622634107 1 1 1 1 1 1 0.012356379960443899 1 1 1 1 1 1 1 1 1 1 1 1 1 1 1 1 1 1 1 1 1 1 1 1 1 1 1 1 1 0.0089405802751255162 1 1 1 1 1 1 1 1 1 1 1 0.0084994757829816199 1 1 1 1 0.010303867022966755 1 0.0070991147027502505 1 0.010517918047021589 0.0066621206218679223 1 1 1 1 1 1 1 1 1 1 1 1 1 1 1 1 1 1 1 1 1 1 1 1 1 1 1 1 1 1 1 1 1 0.0091564550308884454 1 1 0.0073929693054393814 1 1 0.012666054613989015 1 1 0.0098716000216312744 0.011429506183684143 0.0099795500040536986 1 1 0.014151428112510286 1 1 0.018820981303411609 1 0.0088194939303374367 1 1 1 1 0.0096013364768330403 1 1 1 1 0.01066399224342076 1 1 1 1 1 0.0099062325838032775 1 1 1 1 1 1 1 0.011039116040273585 0.011041008887831875 1 1 1 1 1 1 1 1 1 1 1 0.011725242345387216 1 1 1 1 1 0.015323497905351875 1 1 1 1 1 1 0.0096878053731392424 1 1 1 1 1 1 0.0098500023561025121 1 1 1 1 1 1 1 1 1 1 1 1 0.009951305474389268 1 1 1 1 1 1 0.0097416108205609434 1 1 0.010883504106060447 1 0.009994793433043242 1 1 1 0.0077687317337153741 1 1 0.0099985778500635003 1 1 1 1 1 0.01352729566760625 1 1 1 1 1 1 1 1 1 1 0.014149296335062095 1 1 1 1 1 1 0.010757749375503396 1 1 1 1 1 1 1 1 1 1 1 1 1 1 1 1 1 1 0.010127846715599055 1 1 1 1 1 1 1 1 0.0062014104957176103 1 1 1 1 1 1 1 1 0.0071409726252537539 1 1 1 1 0.0099268408337789618 0.010000116855457014 1 1 1 1 1 1 1 0.010481432435128675 1 0.013285058558466277 1 1 1 1 1 0.012139415385125392 1 0.0038652008296350092 0.0099924242262658478 1 1 1 0.012074599864904285 1 0.0083126152553141541 0.011050105563220065 1 1 1 0.012966465956333696 1 0.008442109204667772 1 1 1 1 1 1 1 1 0.013123265441061457 1 1 0.010010292868513007 1 1 0.0098835437645274221 0.011189357010846231 1 1 0.014469269743173412 1 0.011602786067208938 0.010000598423557897 1 0.012155953229636543 1 0.0092253043072570359 1 1 0.011133649531991582 0.0086654231506690868 0.0094032499072705181 1 1 1 0.01031454855041665 1 1 0.010026412999914448 1 1 1 1 1 1 1 0.0099617616437828044 1 1 1 0.0098780398066695488 0.0096103999195605028 1 0.0096936767644955971 1 1 1 1 1 1 1 1 1 1 0.012962688094677648 1 1 0.01000731569460004 1 1 0.011308048384975573 1 1 1 0.011056971022120787 0.013557647447810864 0.0084922242246842222 1 1 0.010602412236855581 1 0.010415118400933891 1 1 1 1 1 1 1 1 0.0098671664605670256 1 1 1 1 1 1 1 1 1 1 1 1 1 1 1 1 0.0094835470616677214 1 1 1 1 1 1 1 0.0096605808256102627 1 1 1 1 0.0093196338476753265 1 1 0.0089867025094663433 1 1 0.0095678910119516569 0.011540396788071778 1 1 1 1 1 1 1 1 1 0.004342973902369214 1 0.010911436716537704 1 0.007820336939211546 1 0.011978215484784985 0.010008913305788502 1 0.010583587986194546 1 1 1 0.0084846616665467736 1 1 1 1 1 1 0.007749786729401964 1 1 1 1 1 1 1 1 1 1 0.008366713054223901 0.0090946708886651961 1 1 1 1 1 1 1 1 1 1 0.010018591833078591 1 1 1 1 1 1 1 1 1 1 1 1 1 1 1 1 1 1 1 1 0.0097123033992736196 1 1 1 1 1 0.009274059419375362 1 1 1 1 1 1 1 1 1 1 1 1 1 1 1 1 1 1 1 1 0.010629975802240364 1 1 1 1 0.0080941220441042815 1 1 0.0075157443231443077 1 1 0.010124949115572827 0.010322579593310521 1 0.012249779525280776 1 1 0.0098150672911395467 1 1 1 1 1 1 1 1 1 1 1 1 1 1 1 1 1 1 1 1 1 1 1 1 1 1 1 1 1 1 1 1 1 1 1 0.0088483383751054717 1 1 1 1 0.0096026775012658105 1 1 1 1 1 1 0.0130028843536122 0.013298144691891795 1 1 1 0.013116714714317343 1 0.012956139491701119 1 0.010037754960449339 1 1 1 1 1 1 1 1 1 1 1 1 1 1 0.013265429838352071 1 1 1 1 0.0092399359665287992 1 1 0.0054661799881178946 0.011560758262769524 1 1 1 0.013405345551398253 1 1 1 1 1 0.012696501725483133 1 1 0.0095198321070368193 1 1 0.012413789257230705 1 1 1 0.009932297015679839 1 1 0.0095617560201017374 1 1 1 1 1 1 1 1 0.0099685348674499671 1 1 0.0099081104097569969 0.010410630616039255 1 1 0.0013690415832309649 1 1 1 1 0.0057200976284517771 1 1 1 1 1 1 1 1 1 1 1 1 1 1 1 1 0.012930479225966657 1 1 1 1 0.015929409491544103 1 1 1 1 1 0.009989714100657611 0.015768750097620059 1 0.010486220148544525 1 0.0067069492155603719 1 1 0.0089558920657339738 1 1 1 1 1 0.0060762364985118 1 1 0.0063235924065083021 1 1 1 1 1 1 1 1 1 1 0.0099757728660905057 1 1 1 0.0099884216009841903 1 1 1 1 0.009892294859883119 1 0.0066247103742140892 1 1 1 1 1 1 1 0.010177689129181523 1 1 1 1 1 1 1 1 1 1 1 1 0.0069306123085550453 1 1 1 1 1 1 1 1 1 1 0.0099934806329990619 1 0.008639386127599586 1 1 0.0098801877857971759 1 1 1 1 0.0092063680222512698 1 0.012508111276090118 1 0.010197304753865403 1 1 1 0.01311414388903087 1 0.011029552944626229 1 1 0.014333138338267812 0.0098499121844513454 1 1 1 0.0099944617628475452 0.010018946796002343 1 0.010395754168248755 1 1 1 1 1 0.0087463039325569453 1 1 1 1 1 1 0.0071569978395848652 1 1 1 1 0.010040525772692599 1 1 0.0075177605703462339 1 0.0095381625911976076 1 1 1 1 1 1 1 1 1 1 1 1 1 1 1 1 1 1 1 1 1 1 1 1 1 1 1 1 1 1 1 1 1 1 1 1 1 1 1 0.010428157654574366 1 1 1 1 1 1 1 1 1 0.015826314009719126 1 1 1 0.015671043573759744 1 1 1 1 1 1 1 1 1 1 1 1 1 1 1 1 1 1 1 1 1 1 1 1 1 1 1 1 1 1 1 0.0099695923697619253 1 0.010106376226080727 1 1 1 1 1 1 1 1 1 1 1 1 1 1 1 1 1 1 1 1 1 1 1 1 1 1 1 1 1 1 1 1 1 1 0.010337927126528115 1 1 0.010008613583445083 1 1 0.01002663379095264 1 0.012068095570454561 1 1 0.0083460398213888731 1 1 0.0096156649505541904 0.013469464588493915 1 1 1 1 1 0.014114214995873876 1 1 1 1 1 0.012731678632042727 1 1 1 1 1 1 1 1 1 1 1 1 1 1 1 1 1 1 1 1 1 1 1 1 1 1 1 1 1 1 0.0096896366647588883 1 1 1 1 1 0.010035936595886429 1 1 1 1 1 1 1 0.010030304905669411 1 1 0.012440859200802165 1 1 1 0.010678662778368302 0.014044398787198431 0.010619858410243328 1 1 1 1 0.010861363281366498 0.013708534437964114 1 1 0.0099808371284141467 0.011378235273469059 1 1 0.010005397752123592 1 1 1 0.0099165673774973609 1 1 0.010638811434070238 1 0.010923908063840498 1 1 1 1 1 1 1 1 0.010023397953006354 0.010864512070294631 1 0.012968105947596162 1 1 1 1 1 0.011286582041835063 1 0.013720428873032819 1 0.009084426748448754 1 1 1 0.012826968674869155 0.0099997003771010104 1 0.010608027212821556 0.010278337633211905 1 1 1 1 0.0096613900228447597 0.014524238626544887 1 0.010007672605072307 1 0.015062279058004363 1 1 1 1 1 1 1 1 1 0.010059755633891557 0.013954075908535162 1 1 1 1 1 1 1 0.010061951378850534 1 1 1 1 0.010018362607182134 1 1 1 1 1 1 1 1 1 1 1 1 1 1 0.0073523517841191932 1 0.0093768613515736871 0.0040030717368924607 1 1 1 1 0.021661527606946916 1 1 1 0.019451967596440349 1 1 1 1 0.0078958654562888905 0.015014837629274615 1 1 0.01171141127185856 1 1 0.010392049280027436 1 1 1 1 1 0.0098879557189792827 1 1 1 1 1 1 0.014692757274928213 1 0.0081024401927056733 1 1 1 0.010312361665356541 1 1 1 1 1 1 1 1 1 1 1 1 1 1 1 1 1 1 1 1 1 1 1 1 1 1 1 1 1 1 1 1 1 1 1 1 0.0093755958697130937 0.00957813786391069 1 1 1 1 1 1 1 1 1 1 1 1 1 0.007971471097320354 1 1 0.0080020771421160982 1 1 0.018765792780890106 1 1 0.0085879426936229606 1 1 1 1 1 0.019085094827442611 1 0.019001154835059545 1 1 1 1 1 1 1 1 1 1 1 1 1 1 0.0072103521816977052 1 1 1 0.017785168081496321 1 0.014302740313226949 1 1 1 1 1 1 1 1 1 1 1 1 1 1 1 1 1 1 1 1 1 1 1 0.008286660191015309 1 1 1 1 1 1 1 1 1 1 1 1 1 1 1 1 1 1 1 1 1 1 0.0067178584025628305 0.010321716954319063 1 1 1 1 1 1 1 1 1 1 1 1 0.0051644180067023648 1 1 1 1 1 1 1 1 1 0.0073623780342963602 1 1 1 1 0.011242414593494822 1 1 0.0085132656016510336 1 1 1 1 1 1 1 1 0.0093487940792725335 1 0.0072339572800877126 1 1 1 1 1 1 1 1 1 1 1 1 1 0.0095659685125786195 1 1 1 1 1 1 1 1 1 1 1 1 1 1 1 1 1 1 1 1 0.018209296798271987 1 1 1 1 1 1 0.021269814548482036 1 1 1 1 1 1 1 1 1 1 1 1 1 1 1 1 1 1 1 1 1 1 1 1 1 1 1 1 0.010419316210283872 1 0.0099871467864118841 1 1 1 1 1 1 1 0.010096760787084007 1 1 1 1 0.0098847990476457481 0.010882354906313729 1 0.0096222804876784432 1 1 1 1 0.010008591500977167 1 1 1 1 1 1 1 1 1 0.010040956284644837 1 0.0039173199587422252 0.0078143410810442501 1 1 1 1 1 1 1 1 1 1 0.011939067447565392 1 1 1 1 1 1 1 1 1 1 1 0.0096450579264085214 1 0.017862248074947101 1 1 1 1 1 1 0.01404557219946995 1 0.014496062362414892 1 1 1 1 1 1 1 1 1 1 1 0.0092521122063246621 1 1 0.016378073002025921 0.0072698186105617513 1 1 1 1 0.0023491846725189822 1 0.016418001869834831 0.012151610939366429 1 1 1 1 0.010025858925043861 1 0.015430847874807583 1 1 1 1 1 1 1 1 1 1 1 1 1 1 1 1 1 1 1 1 1 0.0067479226462450765 1 0.0046036525389232252 1 0.010226811856318435 1 0.018082033199458409 1 1 1 1 1 1 1 1 1 1 1 1 1 1 1 1 1 1 1 1 1 1 1 1 1 1 1 1 1 1 1 1 1 1 1 1 1 1 1 1 1 1 1 1 1 1 1 1 1 1 1 1 1 1 1 1 1 1 0.010080171643804424 1 1 1 1 1 1 1 1 0.0099853444314800047 1 1 1 1 1 1 0.010855473967782378 1 1 1 1 1 1 1 1 1 1 1 0.010026713079291774 1 1 1 1 1 1 1 0.0015612268007141814 0.0035459208325538741 1 1 0.010080155127858514 1 1 1 0.011698438922565097 0.009123738279627723 0.0041826958868800557 0.0025251539667151268 1 1 1 1 1 1 0.0098447859245347873 1 1 1 1 0.009960713038931918 1 1 1 0.0095092059257380537 1 1 0.01006339434823519 0.0022311682663355339 1 1 1 1 1 1 1 0.0087984035450947157 1 1 1 1 1 1 1 1 1 1 1 1 1 0.0095868896825556504 1 1 1 1 1 1 0.010155954255786973 1 1 1 1 1 1 1 0.0056206000243205177 1 1 1 1 1 1 1 1 0.004708329036211642 1 1 1 0.0036442855861372331 1 1 0.010224319169112747 1 0.01069410299799297 1 1 1 1 1 1 1 1 1 1 0.0087392395214636771 1 0.013883202457935399 1 0.0114660682236883 1 1 1 1 1 1 0.0085340912365654067 1 1 1 1 1 1 0.011930791614161688 1 1 1 1 1 1 1 1 1 1 1 1 1 0.010889281809479524 0.0065980895502607828 1 1 1 1 0.0099957897234222142 1 1 1 0.0093401305735504227 1 1 0.018999572952318501 1 1 0.0075101331524268251 1 1 1 1 1 0.0076762416602654433 1 1 1 1 1 0.0083312220028437488 1 1 1 1 1 0.0075135944951866956 1 0.009163144967122068 1 0.010012075176836218 1 1 1 1 1 1 1 1 1 1 0.010175188914178195 1 1 1 1 1 1 1 1 1 1 1 1 1 1 0.0095265432474695051 1 1 1 1 1 0.016509509490806717 1 1 0.010142494566572652 1 1 1 0.014281402083989302 1 1 1 0.011491671992421959 1 1 1 1 1 1 1 1 1 1 1 1 1 1 0.010054238267537235 1 1 1 1 1 1 1 1 1 1 1 1 1 1 1 1 1 1 1 1 1 1 1 0.011209470858936359 0.0066746230320375508 0.015828958881497979 1 1 1 1 0.011064527062175164 1 1 1 1 1 1 1 1 1 1 1 1 1 1 1 1 1 1 1 1 1 1 1 1 1 1 1 1 1 1 1 1 1 1 1 1 1 1 0.0090199763277026331 0.0075021272169420346 1 1 0.0094637543053506471 1 1 1 1 1 0.0066840550777217053 1 1 1 1 0.0091079257755851233 1 1 1 1 1 0.010018149413533175 1 0.002857126867781069 1 1 1 0.0078231695312808817 1 0.0088360799844048356 1 1 0.010001466349456541 0.010000804414038184 1 1 1 1 1 1 1 0.0069932588210039268 1 1 1 1 0.0049131129592331589 1 1 1 1 1 1 0.0029649356692267679 1 1 1 1 1 1 1 1 1 0.0099728694735253844 1 1 1 1 1 1 1 1 1 1 1 1 1 1 1 1 1 0.0098572673471136584 1 1 1 1 1 1 0.0098843978735882465 1 1 1 1 1 1 1 0.010707674958733048 1 1 1 1 0.012119423050994692 1 1 1 1 1 0.0089630847711448663 1 1 1 1 1 1 0.0069531839132107309 1 1 0.010011216806232293 1 1 1 1 0.0075474771294870048 1 1 1 1 0.0091478042778582024 1 1 1 1 1 1 1 1 1 1 1 1 1 1 1 1 1 1 1 1 1 1 1 1 1 1 0.02396428977568827 1 1 1 1 0.026316004041380028 1 1 1 1 1 1 0.010003343418116734 0.0039826536991001311 1 1 1 1 1 1 1 1 1 0.0059806915874015699 0.0099157368470788043 1 1 1 1 1 0.0053102271307810239 1 1 1 1 1 1 0.0044441009230546061 1 1 1 0.014496277885695224 1 1 0.0099522334082605829 1 1 0.010789232400403109 0.012875827115187605 1 1 1 0.007273811272788271 0.0076860235616013402 1 1 1 0.004285479474777424 1 1 1 1 1 1 1 1 1 1 1 1 1 1 1 1 1 1 1 1 1 0.0072094231266395387 1 1 1 1 1 0.0099856068181865525 0.0060115527197005976 1 0.010049722633400237 1 1 1 0.0065049444471789938 1 1 1 1 1 1 1 1 1 1 1 1 1 1 1 1 1 1 1 1 1 1 1 1 1 1 1 1 1 1 1 0.006687883093526031 1 1 0.010010931679153928 1 1 1 1 1 1 1 1 1 1 1 1 1 1 1 1 1 1 1 0.0078032948842906534 0.0089940842753413949 1 0.0080476462807117389 1 1 1 1 1 1 1 1 1 1 1 1 1 1 1 0.01108775795542976 1 0.010213563443212127 0.0089604935475279066 1 1 0.0070396652901076624 1 0.020689618551021086 1 0.0097525689601078991 1 1 1 0.010755193401038216 1 1 1 0.0065679678103467334 0.01623894170726075 0.0099198129044725455 1 1 1 0.018507038283173533 1 1 0.013937863747136476 1 1 1 0.0030721539222210749 1 1 1 1 0.0026313350056630311 1 1 1 1 0.0097473061090847263 1 1 1 0.010001419495807001 0.010224337926201451 0.0092533899974866149 1 1 1 1 1 1 1 1 1 0.0020862718742114166 1 1 1 1 1 1 1 1 1 1 1 1 1 1 1 1 1 1 0.011025475543828623 1 1 1 1 0.010664858460003836 1 1 1 1 1 1 1 1 1 0.010211793809480129 1 1 1 1 1 1 1 1 1 1 1 1 1 1 1 1 1 1 1 1 0.0091031865160968988 1 1 1 1 0.011229888685140282 1 0.0098652746756238072 1 1 1 1 1 1 1 1 0.010572410893304917 1 1 1 1 1 1 1 1 1 1 1 1 1 1 1 1 1 1 1 1 1 0.0093687272505701899 1 1 0.0071591529429611937 1 1 1 1 1 1 1 1 1 1 1 1 1 1 1 1 1 1 1 1 0.0062617048322197357 1 1 1 1 0.011868586331549512 0.0099523228200137925 1 1 1 1 1 1 1 1 0.013166126033522576 1 1 0.0062480741768080276 1 0.0055894170900027042 1 1 1 0.010124854981418302 0.0054009146107269757 1 1 0.0096945546388757242 0.0083456112174244597 1 1 1 1 0.0090824201882713108 1 0.0079321125321535728 1 1 1 1 1 1 1 1 1 1 1 1 1 1 1 1 1 0.0051804436107432857 1 1 1 0.0090618926733770366 1 1 1 1 1 0.0096942169327249618 1 1 1 1 1 1 1 1 0.0064102937128585544 1 1 1 0.0063527037192074214 1 1 1 1 1 0.0061333543665040473 1 0.0074998309207345935 0.011368068374193675 0.011692026775931319 1 1 1 1 0.01223989584900443 1 1 1 0.0099913204391420193 1 1 1 1 0.0090202151854145603 0.0083084935830759921 1 1 0.0095143172910932914 1 0.0085300328947680738 1 0.0070775954733791301 1 1 1 1 1 1 1 1 1 1 1 0.0083955784171079358 1 1 0.0073947688816900477 1 0.012487830077011625 0.0083736111067441305 1 0.0065740719437324237 0.0099896675351980359 1 1 0.0070703067980727322 1 1 1 0.0078509882156861804 1 0.0096123416743395945 1 1 1 0.007491088191649951 1 1 0.010001085297772175 1 0.0097456635142755457 1 1 1 1 1 1 1 1 1 1 1 1 1 1 1 1 1 1 1 1 1 1 1 1 1 1 1 1 1 0.011116616663141028 1 1 1 1 1 0.0060962569667369418 0.009885449169530186 0.0089496683859614321 1 1 1 1 0.0099982931919294134 1 1 1 1 1 1 1 1 1 1 1 1 1 1 1 1 1 1 1 1 1 1 1 1 1 1 1 1 1 1 1 1 1 1 1 1 1 1 1 1 0.013117572036020694 1 1 1 1 0.011037928360951915 1 1 1 1 1 1 1 1 1 1 1 0.0081052725610731291 0.0102512561370183 1 1 1 1 1 1 0.0098239196225135949 1 0.0095216652656726387 1 1 1 1 1 1 1 1 1 1 1 1 1 1 1 1 1 1 1 1 0.010069845088867286 1 1 1 1 0.0091366031687118918 0.010084287747952161 1 0.0092097307191424116 1 1 1 1 1 1 1 1 1 1 1 1 1 1 1 1 1 1 1 1 1 1 1 1 0.015136323223454868 1 1 1 1 1 1 1 1 1 1 1 1 1 1 1 1 1 1 1 1 1 1 1 1 1 1 1 1 0.0088644050623962085 1 1 1 1 1 1 1 1 1 1 1 1 0.0097789910465295171 1 1 1 1 1 1 0.0091354929391574118 1 1 1 1 0.0092239820742304676 0.0076716561950668869 0.010460782030058749 1 1 1 1 1 1 1 1 1 1 0.0095838891568662092 1 1 1 1 1 1 1 1 1 1 1 1 1 1 1 0.012764660501415698 1 1 1 1 0.010865324516429695 1 1 1 0.0081573187218675677 1 1 1 1 1 1 1 0.010102296116057136 1 1 1 0.0099175253905997435 1 1 1 1 1 0.018129616839223456 0.0128666861648381 1 1 1 0.019275232848583818 0.0053750146253168929 1 1 1 1 0.014990447991278858 1 0.0057067349467752795 1 0.01600061896491797 1 0.010096383639139771 1 1 0.0057133996133488362 0.018606879777384337 1 0.0042419282187532376 1 1 0.022559541567236094 1 1 0.0098948594167807338 1 1 0.004026412275912692 1 0.0099332320545441489 1 0.0097008595600568352 1 1 0.013728207122201999 1 1 0.014116955689509044 1 0.0058732711698684919 0.00015116392236186327 1 0.0097528529709687926 1 1 1 0.0056488261899082896 1 1 1 1 1 1 1 1 1 1 1 0.0098999696716945904 1 1 1 1 1 1 1 1 1 1 1 1 1 1 1 1 1 1 0.010076443425245213 1 1 1 0.01008040302375967 1 1 0.012580502782781805 1 0.018175233950950751 1 1 1 0.0066480875090382061 1 0.011303331021350234 1 0.015222535720453139 1 1 0.010097929447788494 1 1 1 1 1 0.0081451190262776842 1 0.012348911848243474 1 1 1 1 1 1 1 1 1 1 0.010165808468457986 1 0.0059023636427709379 1 1 1 1 0.01795861171746806 1 1 0.0099692226315521004 1 0.0055246934361063392 0.017864242907980249 1 1 1 1 1 1 0.0029931745517152025 1 1 0.015961767761169404 1 1 1 1 0.0056539387924119042 1 1 1 0.0064704270465817948 0.0067032797552190673 1 1 1 0.011014044456440171 1 0.022993356222490297 1 1 1 1 1 1 1 1 1 0.0077934220564390214 1 1 0.0094944836617778215 1 1 1 1 1 1 1 1 1 1 1 1 1 1 1 1 1 1 1 1 1 1 1 1 1 1 1 1 1 1 1 1 1 1 1 1 1 1 1 1 1 1 1 1 1 1 1 1 1 1 1 1 1 1 1 1 1 1 1 1 1 1 1 1 1 1 1 1 1 1 1 1 1 1 1 1 1 1 1 1 1 1 1 1 1 1 1 0.0032128738269589507 1 1 1 1 1 1 1 1 1 0.029399160099836952 1 0.010002196914446305 1 1 1 1 1 1 1 1 1 1 1 1 1 1 1 1 1 1 1 1 1 1 1 1 1 1 1 1 1 1 1 1 1 1 1 1 1 1 1 1 1 1 1 1 1 1 1 1 0.026854162287206843 1 1 1 0.0094878468233760074 1 0.010010469694872008 1 0.017433610968708234 1 1 1 1 1 1 1 1 1 1 1 1 1 1 0.010004967985167201 0.0159147136669834 0.016257712385831458 1 1 0.010287606944316872 1 1 1 1 1 1 1 1 0.012919616358220424 1 0.0092086391862397209 1 0.015709206016528476 1 1 1 0.010126890582779519 1 1 1 1 0.0090125073412833136 1 1 1 1 1 1 1 1 1 1 1 1 1 1 1 1 1 1 1 1 0.0075329916318444511 1 1 0.0096508248922373696 1 1 1 1 1 1 1 1 1 1 0.020318047719795153 0.010176155375729613 1 1 1 1 1 1 1 1 1 1 1 1 1 1 0.017942955585444037 1 1 1 1 0.010267710222077168 1 1 1 1 1 1 1 1 1 1 1 0.010854590565044927 1 1 1 1 1 1 1 1 1 1 1 1 1 1 1 1 1 1 1 1 0.012416411221036162 1 1 1 1 1 0.017570884570348309 0.011188682095145458 1 1 1 1 1 1 1 1 1 1 1 1 1 1 1 1 1 0.010652634887698832 0.0085208572630217066 1 0.010262634020082562 1 1 1 1 1 1 1 1 1 0.012746555583150659 1 0.0091234397798076738 1 0.010104284145114819 1 1 0.017742332141870848 0.019977561009911087 0.0095008798436493208 1 1 0.010211325251632578 1 1 0.012083234260632437 1 0.010937320122373364 1 1 1 1 1 1 0.01029722926422395 1 1 1 1 0.022471151574028563 1 1 1 1 1 1 1 1 1 1 1 1 1 1 1 1 1 1 1 1 1 1 1 1 1 1 1 1 1 1 1 1 1 1 1 1 1 1 1 1 1 1 1 1 0.011068292692374642 1 1 1 0.012427003250408899 1 1 1 1 1 1 1 1 1 1 1 1 1 1 1 1 1 1 1 0.0055361929927972738 1 1 1 1 0.009936826955791303 1 1 1 1 1 1 1 1 1 1 0.0053043350254325661 1 1 1 1 0.010004516708551021 0.0085340896040698375 0.010117956885868987 1 1 0.009320711549356063 1 1 0.01001213275267579 1 1 1 1 1 1 1 1 1 0.0099698094562352332 1 1 1 1 1 0.010559322433331023 1 1 1 1 1 0.01048978940916428 1 1 1 1 1 1 0.017711358765428661 0.010913555041438342 1 1 0.018782571681158607 1 1 0.010423765632274056 1 1 1 0.011921038851708726 1 1 1 1 1 1 0.013038555123593552 1 0.010296184142707488 0.01272048783157669 1 1 1 1 1 1 1 0.016635218733927752 0.0097950503922971874 1 1 1 1 1 1 0.020285933604158361 1 1 0.010005774851024402 1 1 1 1 1 1 1 1 1 1 0.0093686084437103728 1 0.0081568560362599452 1 1 1 1 0.0094837861814198281 1 1 1 1 1 1 1 1 1 1 1 1 0.017617534501556568 1 1 1 1 1 0.007792620664298644 1 1 1 1 0.0098947453580006187 1 1 1 0.00455469431625081 1 0.0056749603173065714 1 1 0.0080068436648855681 1 0.014727220581827792 1 1 1 0.0074937816189313937 0.0078891391045400779 0.014954707519077098 1 0.012645196968717964 1 0.015288711156245843 0.013298678413026694 1 0.0095842593800642695 1 0.007585292788275369 1 0.0099983460860469525 1 0.015383973292863395 1 1 1 0.015832550290584411 1 1 0.0087582692948758242 0.0077320998679150238 1 1 1 0.0076377405983651808 0.0096642936598523091 0.013415750784541183 0.014901934582369075 1 1 1 0.0095577723894090805 1 0.010598012530045109 0.01057282510572987 1 0.0094842211541743583 1 1 1 0.010019217327749214 1 1 1 1 0.0064449174506394178 1 1 1 0.011011927263795285 0.0091718381165140569 1 1 1 1 1 1 0.0087541030516644462 1 1 1 1 1 1 1 1 1 1 1 1 1 1 1 1 1 1 1 1 1 1 1 1 0.018133026826977885 0.012814112922850437 1 1 1 1 1 1 1 0.0098387423827202888 0.01513706637238571 1 0.012619987780291782 1 1 1 0.0086602249076338407 1 1 1 1 1 1 1 1 1 0.011353031204955608 0.010350066831120186 1 1 0.013008494965693056 1 1 1 0.015006178093678798 1 1 1 1 0.0091436251136525239 1 1 1 1 1 0.0098422167146344029 0.0084231990466249063 1 1 0.015608460836398592 1 1 0.012050983941627548 1 1 0.0076434149892295987 1 1 1 1 1 1 0.01000320206752088 1 0.0089407726726938239 1 1 0.0082538370176039183 1 0.011526261455755051 1 0.011028724482514492 1 1 1 0.0067714558766375065 1 0.0071928284398218092 1 0.015063446908358822 1 1 0.0071692818911934242 1 1 0.013297445961453751 1 0.012213146956529159 0.012779331206044037 1 1 0.0011957556118532033 0.012508070594820793 1 0.0097704773894176592 1 1 1 1 1 1 0.0061435391021575202 0.0056965128663040918 1 1 1 1 1 0.0099856034893568979 1 1 1 1 0.009250331216391499 1 1 0.010261496076996562 1 1 1 1 1 0.010087294991671488 1 1 1 1 1 1 1 1 1 1 1 1 1 1 1 0.0092466499744625914 1 1 1 1 1 1 1 1 0.0077048704083566549 1 0.010000406596332355 1 1 1 1 1 0.0068285204066508166 1 0.0099741587992092443 1 1 0.010033927820781642 1 1 0.0092917423976202982 1 1 0.016593246339258037 1 1 1 1 1 1 1 1 0.010378328884216352 1 1 1 1 1 1 1 1 1 1 1 1 1 1 1 0.0091696936475110409 1 1 1 1 1 1 1 0.0099884111356030002 1 1 0.015182661418585045 1 1 1 1 0.009381565735512392 1 1 1 1 1 1 1 1 1 1 1 1 1 0.009455319846928073 1 1 1 1 0.017156364186004958 1 1 1 1 1 1 0.01304003497737374 0.010039691509693206 1 1 1 1 1 0.011831874557010045 1 0.011201643180070959 1 1 1 1 1 1 0.010439450843819986 1 1 0.0033574698374119714 1 1 1 1 1 1 1 1 1 0.0022039582833023779 1 1 1 1 0.011009572766035947 1 1 1 1 1 1 1 1 -7.5647184905047737e-09 1 0.019668771778416076 1 1 1.2904392471257964e-08 1 1 0.024419100463941468 1 1 1 1 1 1 1 1 1 1 0.02300355190008839 1 1 1 1 1 1 1 1 1 1 1 1 1 1 1 1 1 1 1 1 1 1 1 1 1 1 1 1 1 1 1 1 1 1 1 1 1 1 1 1 1 1 1 1 1 1 1 1 1 1 0.001291612153208525 1 1 0.010091827341080998 0.008337761656229974 1 0.0026137346521265085 1 1 1 0.0062146582380926208 1 1 1 1 1 1 1 1 1 1 1 1 0.010351678511611687 1 0.0096416569571932346 1 1 1 1 1 1 1 1 1 1 1 1 1 1 1 1 1 1 1 1 1 1 1 1 1 1 1 1 1 1 0.010909504055254156 1 1 1 1 1 1 -3.1784452621946846e-09 1 1 0.0099866233870650953 1 1 1 0.0092860638073275978 1 1 0.0027089075116084067 1 1 1 0.010204336524031486 0.011101951919337397 0.00098332892125650197 1 1 0.0076999553211822488 1 0.0081849155125216753 0.0056561677542073321 1 1 0.010211322682621038 1 1 0.010043453834476024 1 1 0.0054316822906234578 1 0.010629301850397038 1 0.0057436601820567822 0.012419768442819182 1 1 0.0068164568937541178 0.003721857544980646 0.011212464624142576 1 1 1 1 1 1 1 1 1 0.0098736548284138609 1 1 1 1 1 1 1 1 1 1 1 1 0.0063689551766021417 0.011836574364979875 0.011899440798719026 1 0.0041716499799559631 1 0.014696735072361002 0.00718497433397834 1 1 1 0.01094317200927087 0.011165605322995799 0.0084437633456383235 1 1 1 1 0.010297078867034093 0.0074121627882489504 0.013696895203966799 1 1 1 1 1 1 1 0.0099060116171149695 1 0.012640901630356378 1 1 0.0089042781921523859 1 0.0064347778192702168 1 1 1 1 1 1 1 1 1 0.010014831716230624 1 1 1 1 1 1 1 1 1 1 1 1 1 1 1 1 1 1 1 1 1 1 1 1 1 1 0.0094795773375848345 1 1 1 1 1 1 1 1 1 1 1 1 1 1 1 1 1 1 1 1 1 0.017275004685410225 1 1 1 1 1 1 0.016733296537255575 1 1 0.0074781667340335888 1 1 0.0094431552471800229 1 1 1 1 1 1 0.0097503275186186771 1 1 1 1 1 1 1 1 0.009635195303907225 1 1 1 1 0.0027840738326844021 1 1 1 1 1 1 1 1 1 1 1 1 1 1 1 1 1 1 1 1 1 1 1 1 1 1 1 1 1 1 1 1 1 1 1 1 1 1 1 1 1 1 1 1 1 1 1 1 1 1 1 1 1 1 0.013942716465585543 1 1 1 0.010923764408894837 1 1 1 1 1 1 1 1 1 1 1 0.0095345469606455315 1 1 1 0.010551335859936638 1 1 1 1 1 1 1 1 1 1 1 0.01661562475253496 1 1 1 1 1 0.0032969515870382854 0.012582126326212473 1 1 1 1 1 0.010467549311246702 1 1 1 1 1 1 1 1 1 1 1 1 1 1 1 1 1 1 1 0.011401127041899287 1 1 1 1 0.0060142369735245518 0.012597064754940754 1 1 1 1 1 1 0.0086535680820879028 1 1 1 1 1 1 1 0.0090792909572691496 1 1 1 1 1 1 0.0072119570627074137 0.012554597871691435 1 1 1 0.013438263358917589 1 0.010055033458165455 1 1 1 1 1 1 1 1 1 0.01045060883717143 1 1 1 1 1 1 1 1 1 1 0.010236841205541379 1 1 1 1 1 1 1 1 1 1 1 1 1 1 1 0.010878299538339971 0.01005811038427247 1 1 1 1 0.0099919550784926883 1 1 0.011568585032382145 1 1 1 1 1 1 1 1 1 1 1 1 1 1 0.0099919454069949468 1 1 1 1 1 1 0.01031066134912715 1 1 1 1 1 1 1 1 1 1 1 1 1 1 1 1 1 0.0098417668509973924 1 1 1 1 1 1 1 1 0.0078979726740675514 1 1 1 1 1 1 1 1 1 1 1 0.0059322736536202725 1 1 1 1 0.0089766805710174893 1 1 1 1 1 1 1 1 0.0050630292032243646 1 1 1 1 0.00097817954604006475 1 0.0077351907671252031 0.0093910837933549735 1 0.0081679770495128104 1 1 0.0035581283243886173 1 1 1 1 1 1 1 1 1 1 1 1 1 1 1 1 0.010006112197646626 0.010006392985761808 1 1 1 1 1 1 1 2.5144996778933212e-05 1 1 0.00079744855465960565 0.0099905897554715822 1 1 1 1 0.0099163965748239255 0.0078890779253365795 1 1 0.0014200358796145358 1 1 -5.6185640168182616e-10 1 1 1 1 1 1 0.0093170598272709348 0.0077517086389478542 1 1 1 1 1 1 -8.9318534686466666e-10 1 1 1.3205111292630134e-09 1 1 1 1 1 1 0.015698080115961674 1 1 1 0.003159401368935541 0.011925214891674918 0.0062987079425173356 0.0044307125541480242 0.013200150638205808 1 1 1 0.010254097731570828 1 1 1 1 0.010136060251540107 1 1 1 1 1 1 1 1 1 1 1 1 1 1 1 1 1 1 1 1 1 1 0.0084336040898382383 1 1 1 1 1 1 1 1 1 0.0081276059618845473 1 1 1 0.0075376265162696472 1 1 0.0084404409702568128 1 1 1 1 1 1 1 1 1 1 1 1 1 1 1 0.011571108523651369 1 0.0052212157814661084 1 1 1 1 1 -2.0045136488178183e-09 1 1 1 1 0.0098488496912814139 1 0.010197038620269775 1 1 1 1 1 1 1 1 1 1 1 1 1 0.0094570455734771935 1 1 1 1 1 1 1 1 1 1 1 1 1 1 1 1 1 1 1 1 1 1 1 1 0.010115705482412293 1 0.0061132454861545157 1 0.009858015836772975 1 1 1 1 1 1 1 1 1 1 0.0089112188437142463 1 0.0095904945227336877 1 1 1 1 0.0099901759527629766 1 1 1 1 0.0094312789651609559 1 1 1 1 1 0.015370197923764609 1 1 0.007484413093391552 1 1 1 1 1 1 1 1 1 1 0.0089137495798207386 1 0.0093232550570870668 1 1 1 1 1 1 1 1 1 1 1 1 1 1 1 1 1 1 1 1 1 1 1 1 1 1 1 1 1 1 1 1 1 1 0.010130021928660964 1 0.010565432879534736 1 1 0.010497304641977429 1 1 1 1 0.0103198001181764 1 1 1 1 1 1 1 1 1 1 1 1 1 1 1 1 1 1 1 1 0.0084380125913902856 1 1 1 1 1 1 1 1 1 1 1 1 1 1 1 1 1 1 0.0081633860795154965 0.008865135533425765 1 0.0076123011720975048 1 1 1 1 1 1 1 1 1 1 1 1 1 1 1 1 1 1 1 1 1 1 1 1 1 1 1 1 0.0051994857533653599 1 1 1 1 1 1 0.011340823222330543 1 1 0.013483052122384737 1 0.011505894970489212 1 1 0.0017359842935054243 1 1 1 1 1 1 1 1 0.010511702178141152 1 1 1 1 0.0012663736608334725 1 1 1 1 0.011959926914650171 1 0.010307526452461999 1 1 1 1 1 0.0091036594390046521 1 1 1 1 1 1 0.0077228378456290839 0.010036479635600247 1 1 1 1 1 0.010665092433634477 1 0.010503386166173578 1 1 1 1 1 1 1 1 1 1 1 1 1 1 1 1 1 1 1 1 0.0054932246486821823 1 1 1 1 1 1 0.0081653862125830087 1 1 1 0.0062327881005686467 0.010145070235817157 1 1 1 1 1 1 1 1 1 1 1 1 1 1 1 1 1 1 1 1 1 1 1 1 1 1 0.0093252914774977942 1 1 1 1 0.0074781771688080083 1 1 0.010406722083081618 1 1 1 1 1 1 1 1 1 1 1 0.010336268243244323 1 1 1 1 1 1 1 1 1 1 1 1 1 1 1 1 1 1 1 0.013700703687220105 1 0.011392197172723124 1 1 1 0.011064259600396592 1 1 1 0.015312741751323572 1 1 1 0.013717938105266399 0.013550996641214546 1 1 1 0.011078280376883177 1 1 1 0.0099971329022542771 1 1 0.011593765064603674 1 0.010332473667855058 1 1 1 0.0091242629837643766 1 0.010028787930822179 1 1 0.0099966330464986396 0.019987653951540747 0.013731501103707858 0.0098339401165293099 1 1 1 0.010554091997483027 0.0081125845823669506 0.014536072285193869 0.0094910035768912323 1 1 1 1 1 0.0090743304951536735 1 1 0.013680006610973924 1 1 1 1 0.010173061038725241 1 1 0.016693021210759246 1 1 0.01485334880338398 1 1 1 1 1 0.012779898423115518 1 1 1 1 0.010241954128108161 1 1 1 1 1 1 1 1 1 1 1 1 1 0.012107612876736047 1 1 1 1 1 1 0.010032808038440914 1 0.0096023581624843073 1 0.010032072718218658 1 1 1 1 1 1 1 1 1 1 1 1 1 0.0052990360030119345 1 1 1 1 1 1 1 1 1 1 1 1 1 1 1 1 1 1 1 1 1 1 1 0.015672611017107888 1 1 1 1 1 1 1 1 1 1 1 0.010205657243272354 1 1 1 1 1 1 1 1 0.010596122097089601 1 1 1 1 1 1 1 1 1 1 1 1 1 1 1 0.0098611711525790902 1 1 1 1 1 0.01748883582543484 1 0.0057803679421456703 1 1 1 0.020454922095551886 0.016557005375205054 1 0.0050508648913595577 1 1 0.011177972743265634 1 1 1 1 1 1 0.016814461010625011 1 1 1 0.0077149817138402656 1 1 1 1 1 1 1 0.0097648473100446012 0.011336140032478723 1 1 0.010944739683986788 1 0.0098105330664290495 1 1 1 0.015997537501234525 1 1 0.0064927987809419163 1 1 0.009103107142480759 0.01343774981270174 0.01201707631636046 1 1 0.0098203295190856504 1 1 1 1 1 1 1 0.0099263554976022003 1 1 1 1 0.0099190150345653452 1 1 1 1 1 1 1 0.010163311782130341 1 1 1 1 1 0.0095416945291506121 1 1 1 0.0097895043471672091 1 1 1 1 0.014889062445376688 0.008652762413376109 0.015017535640959652 1 1 0.014537305526530639 0.0087990139342225045 1 0.010465465440306 1 1 1 1 0.019672132892671036 1 1 1 1 1 1 0.018249624588072944 0.0071567509421352829 1 1 1 1 1 1 0.0081375436358333171 1 1 1 1 1 1 0.015264474328427653 1 0.010039457680965282 1 1 1 0.015950465778500747 1 1 1 0.016337914718340694 1 1 1 1 0.018580045829950223 1 0.010014370642719705 1 1 1 1 0.010277694671242964 1 1 0.011788413118690982 1 1 0.015363137380575386 1 1 1 1 0.015617890473781582 1 1 1 1 1 1 1 1 0.0099115070770251085 1 1 1 1 1 1 1 1 1 1 1 1 1 1 1 1 1 1 1 1 0.0097333065117196707 1 1 1 1 1 1 1 0.0096921038681244635 1 0.0098247299762590848 1 1 1 1 1 1 1 1 1 0.01035151278196101 1 0.014829800603877117 1 0.0089526936166375269 1 1 1 0.0092200212933108722 1 1 1 1 1 1 1 1 0.010098488163999143 1 1 1 1 1 1 0.01391135661935558 1 1 1 1 0.016496648967649415 1 1 1 1 1 1 1 1 1 1 0.018784051712169639 0.0099959393047789856 1 1 1 1 1 1 1 1 1 1 1 1 1 1 1 1 1 1 1 1 1 1 1 1 1 1 1 0.0090982077145154369 1 1 1 1 1 1 1 1 1 1 1 0.010639099955346638 1 1 1 1 1 0.010832080604080835 0.010805494806865969 1 1 1 1 1 1 1 1 1 1 1 1 1 0.010106054842484752 1 1 1 1 1 1 1 1 1 0.010167824125776615 1 1 0.015477712694723094 1 0.0066507477314944677 1 1 1 1 1 1 0.0089117246346431048 1 0.011275857543924375 1 0.0087777904522897479 1 1 0.01323614462300384 1 1 1 1 0.010963129111142705 1 1 1 1 1 1 1 1 1 1 1 1 0.009711866920238392 1 1 1 0.009285774502094328 1 1 1 1 1 1 1 1 1 0.0099495632354737115 1 1 1 1 0.0043082795404835519 1 1 1 1 1 1 0.006417321754935236 1 1 1 1 1 1 1 1 1 1 1 1 1 1 1 1 1 1 1 1 1 1 0.0092511946751203042 1 1 1 1 1 0.0097239383120808695 1 1 0.015668799376508259 1 1 1 1 1 0.0092243580452458368 0.015551698924629301 1 1 1 1 1 1 1 0.015671571952699852 1 1 1 1 0.0096776861404819989 1 1 1 1 1 1 1 0.015814173562384556 1 1 1 0.0064895884960226406 1 0.010244749119526358 1 1 0.005476900731676719 1 1 0.0054980260309934817 0.0088154682768669321 1 0.009989408787644552 1 1 1 0.0082306060173306817 1 0.0065290072590228777 1 0.0086238303657128063 1 1 1 1 1 1 0.010018661423860854 0.010439103993376582 1 1 1 1 1 1 1 1 1 1 0.0079440559784565642 0.0060038123205347037 1 1 1 1 1 1 1 1 0.0064162743315745851 0.013161691092686403 1 1 0.0049100554783031124 1 0.0068626732487920717 1 1 1 1 1 1 1 0.012183234585220144 1 0.0097794409597440589 1 1 1 1 1 1 0.010968095531583349 1 1 1 0.0099323068391910727 1 1 1 1 1 0.0093963303814055578 1 1 1 1 1 1 1 1 1 1 0.010018983438457873 0.011288218122101498 1 1 0.0083973750689010918 1 1 1 0.020437269161070439 1 1 0.010423738700564707 1 1 1 1 1 1 1 1 0.010728008133918318 1 1 1 1 1 1 1 1 1 1 1 1 1 1 1 1 1 1 1 1 0.007963860510385572 1 0.012418956747212448 0.013663725575939022 1 1 1 0.0074077396263457339 1 0.010166372302930176 1 1 1 1 1 1 1 0.011004095171129172 1 1 1 1 0.01960107390156389 1 1 1 1 1 0.016810236983093588 1 1 1 1 0.020236289305496018 1 0.019536156769718663 1 1 1 1 0.0067961490877571883 1 1 1 1 0.01829012519918076 1 1 1 1 1 1 1 1 1 1 0.0077166693695758567 1 1 1 1 1 1 1 1 1 1 1 1 1 1 1 1 1 1 1 1 1 1 1 1 1 1 1 1 1 1 1 1 1 0.015937690493066856 1 1 0.015701010318607961 1 1 1 0.012286946964877737 0.010007429409510396 0.0077040273136742138 1 0.013567012886424857 0.016769101414640639 0.013117361097632028 1 1 1 0.0063608395396481041 0.019894648185864075 1 1 1 1 1 1 0.0099752906715288147 1 1 0.010071598922148558 1 0.018865101139820248 1 1 1 1 1 0.010001581085478786 1 1 1 1 1 1 1 1 1 1 1 1 1 1 1 1 1 1 1 1 1 1 0.016751328614085889 1 1 0.010170074498672639 1 1 0.015724559074551073 1 1 1 1 0.014981789287859822 1 0.010294982708761859 1 1 0.010124908210089222 1 1 1 1 1 0.010214867712095257 1 1 1 1 1 1 1 0.010512059654123142 1 1 1 1 1 0.010636720665027752 1 1 0.0099153604082413624 1 0.010081671540248499 1 1 1 1 1 1 1 1 1 0.0099051259545211382 0.015117364707654872 0.017641438026275953 1 1 0.010987964787045564 1 1 1 1 1 1 1 1 1 1 0.02050888420269328 1 1 1 1 1 1 1 1 1 0.010349081677769292 1 1 1 1 1 0.0099688292887147537 1 0.0075312764457261434 1 1 1 1 1 1 0.0047276439254852302 0.012187178498887417 1 1 1 1 1 1 0.010003486625068437 1 1 1 1 1 1 1 1 0.0066341092065549181 1 1 0.0097112885959500378 0.0089932889316057009 1 1 1 1 1 1 1 1 1 1 1 0.010339528722999876 1 1 1 1 1 1 1 1 1 1 1 1 1 1 1 1 1 1 0.0036281237702048622 1 1 1 1 1 1 1 1 1 0.0098156888967479601 1 1 1 0.0096402117484686717 0.0044163114684072843 1 1 0.009495058051790569 1 1 1 1 1 1 1 1 1 1 1 1 1 1 1 1 1 1 1 0.011985443490349523 1 1 1 0.011735179139751993 1 1 1 1 1 1 0.010649443501717468 1 1 1 1 0.011862317032111321 1 1 1 1 0.012855182742346902 1 1 1 1 1 1 1 1 1 1 1 1 1 0.020263363400876304 1 1 1 1 1 1 1 0.015418609749600735 0.01206647606511011 1 1 1 0.0054996567077013839 0.017491502056013235 1 1 0.01237535537978179 0.013934154116503216 0.0088792864060748995 1 1 1 0.014868561175849592 1 1 1 1 1 1 0.0098868204194054038 1 1 0.008912196355073683 1 1 0.0093542723414142166 1 1 0.0079675041307934735 1 0.013220286179746377 0.0053087361748277578 1 1 1 1 1 0.0098303531164909419 1 0.014785171169466987 1 1 0.017223239409343827 1 1 1 0.016900702433697786 1 1 1 1 1 1 1 1 1 1 1 1 0.010062933087865315 1 0.010059831135896584 1 1 1 1 0.0091121102183968072 0.011296162106814875 1 0.010343378634751217 1 1 1 0.0090891541283009622 1 1 1 0.010166436938430438 1 1 1 0.010022577835985598 1 0.0092979347572865259 1 1 0.0089408142360389783 0.0063161389417140737 1 1 0.011968645021607093 1 1 1 1 0.014233174997335464 1 1 1 1 1 0.015484802747700376 1 0.0097327140477538113 0.010392947787660978 1 1 1 1 1 0.011496942855916915 1 1 0.01127592978703635 0.010161566139684344 0.010294482584560826 1 0.01095365069318904 1 0.010001224964103099 1 1 1 0.02571015126724634 1 1 1 1 0.023221314903859772 1 1 1 0.010631941561604163 1 1 1 1 1 1 1 0.012728191514728433 1 1 0.010934019794907192 1 1 1 0.0094820553882774342 1 1 1 0.0083454049267239535 1 0.010068325927650985 1 1 1 1 0.027473429593560181 1 1 1 1 1 1 1 1 1 1 1 1 1 1 1 1 0.010081981987458563 1 1 1 1 1 0.0198924856376002 1 1 0.019446346748268083 1 1 1 0.0099983747816197368 0.0099975277393723749 0.0037200985803071962 1 1 1 1 0.010154148843102 1 1 1 1 0.0033288717924489508 1 1 1 0.010063460379349999 1 1 1 0.0099435596531677883 1 1 1 1 0.010135627234993436 1 1 1 1 1 1 0.0098931374817050263 1 1 1 1 1 0.008587789176797242 1 1 1 1 1 1 1 1 0.0097370041378049832 1 1 0.0096795543339754098 1 1 1 1 1 0.0057156288359415941 1 1 1 1 1 1 1 1 1 0.012300151114220075 1 1 1 0.015136065214472348 1 1 1 1 1 1 1 0.016404023364060244 0.010188935267978115 1 1 1 1 1 0.010138352651613487 1 1 1 1 1 1 0.011282336465252131 1 1 1 0.01385574883913742 1 1 1 1 0.011194594065032711 1 1 1 1 1 1 1 1 1 1 1 1 1 1 1 1 1 1 1 1 1 1 1 1 1 1 0.0031264096449893017 0.0098935202496571659 1 1 0.0035220698789815985 1 1 0.0099499605964893725 1 1 1 1 1 1 1 1 1 1 1 0.0039741097288907984 1 1 1 0.010249816280410842 1 1 1 1 0.010494328989763435 0.009933380098087502 1 1 0.011190925666726295 1 1 1 1 1 1 1 1 0.0045002584786838079 1 1 1 1 1 0.0064782830005689837 0.0093505557518598348 1 1 1 1 1 1 1 0.0096880883882560428 1 1 1 1 1 1 1 1 1 1 1 1 1 0.0091633100265419085 1 1 1 1 0.0089809330250445601 1 0.008515312433306256 1 1 1 1 1 1 1 1 1 1 1 0.009862168557376913 1 1 1 1 1 1 1 1 1 1 0.009716939121600647 1 1 1 1 0.0098547705642237429 1 1 1 1 1 1 1 1 1 1 1 1 1 1 1 1 1 1 1 1 1 6.1403397644266278e-10 1 1 1 1 1 0.0099474176545054829 1 1 0.0097146192273763129 1 1 1 1 1 1 1 1 1 1 1 1 1 1 1 0.0099439401848612219 1 1 1 1 1 1 1 0.011062367107060904 1 1 1 1 1 1 1 1 1 0.0092004710780197157 1 1 1 1 1 1 1 1 1 0.014212999049593417 1 1 1 1 1 1 0.0099993149203421432 1 1 1 1 0.0085674807777614617 1 1 1 1 1 1 1 1 1 1 1 1 1 1 1 0.010716141571138618 1 1 0.01303584742494094 1 0.010001033394060631 1 1 1 1 1 1 1 1 1 1 1 1 1 1 1 0.011085664133783616 1 1 1 1 1 1 0.010087544671387651 1 1 1 1 1 1 1 1 1 1 1 1 1 1 1 1 1 1 1 0.0097159464493837087 1 1 0.0092516697180315063 1 1 1 1 1 1 0.009989077946653914 1 0.0097603684453521217 1 1 0.0074723276851668408 1 1 1 1 1 0.009061204147528458 1 1 1 1 1 0.0031752310556237839 1 1 1 1 1 1 0.0098356876778754529 1 1 1 1 1 1 0.0015761569836706922 1 1 0.00075207602682366564 1 1 1 1 0.0098566762887616136 1 1 1 1 1 0.009684102597196537 1 1 1 1 1 1 1 0.00019167584385852005 1 1 1 1 1 1 1 0.0098274263084349289 1 1 1 1 1 1 0.0094498950275059904 1 1 1 1 1 1 1 1 1 1 1 0.0093635028534384615 1 1 1 1 0.010001152497320108 0.0066970596837137505 1 1 0.010121319521247601 1 1 1 1 1 1 0.0087311409971982876 1 1 1 1 1 1 1 1 1 1 1 1 1 1 1 1 1 1 0.0094887454732713733 1 1 1 1 0.0095848550044889159 1 1 0.0090736004777603047 1 1 1 1 1 1 1 1 1 1 1 1 1 1 1 1 1 1 1 0.0096658550311166484 0.0089761680182529613 1 1 1 1 1 1 0.010077707050354556 1 0.010056472808983252 1 1 1 1 1 1 1 1 1 1 1 1 1 1 1 1 1 1 1 1 1 1 1 1 1 1 1 1 1 1 1 0.0095145099888431749 1 1 1 0.008468366215783122 1 1 1 1 0.015622493990971372 1 1 1 1 1 0.01200045694250805 1 1 1 1 1 1 1 1 1 1 1 1 1 1 1 1 1 1 1 1 1 1 1 1 1 1 1 1 0.010241302566636943 1 0.01423111829125092 1 1 1 1 1 1 1 1 0.012222302109867076 1 1 1 1 0.010699777308478532 1 1 1 1 1 1 1 1 1 1 1 0.011958142154320027 1 1 1 1 1 1 1 1 1 1 1 1 1 1 1 1 1 1 0.010130695271187732 1 1 1 1 1 1 1 1 1 1 1 1 1 1 1 1 1 1 1 1 1 1 1 1 0.016970498980443498 1 1 1 1 1 1 1 1 1 1 1 1 1 1 1 1 1 1 1 1 1 1 1 1 1 1 1 1 1 0.018744059178983252 1 1 1 1 1 1 0.00058238803043937637 1 0.0017419376114070628 1 0.019760165742155274 1 1 0.0082558674422671327 1 1 0.0044445320353823335 0.014689271915871173 1 1 0.0099948704998059565 1 0.009694393559936702 1 1 0.018905529056459237 1 1 -7.6679627925013705e-09 1 1 1 1 1 1 1 1 1 1 1 1 1 0.007849053920779725 0.01002564144797626 0.017380294306261548 1 1 1 0.0099613528265557645 1 1 1 1 1 1 1 1 1 1 1 1 1 1 0.0098080650978240626 1 1 1 1 1 1 1 1 1 1 1 1 1 0.0093602359113164196 0.0030110633876996376 1 1 1 1 1 1 1 1 1 1 1 1 1 1 0.010163545047941445 1 1 0.010100310837047519 1 1 0.0075324299499140816 0.0082172055905923372 1 0.0090869747090514784 1 1 1 0.007394759071406791 1 1 1 1 1 1 1 0.010626934468225508 1 1 1 1 1 0.010036967492904239 0.006405663521246642 1 1 0.00844718212363311 1 1 1 1 1 1 1 1 1 1 1 1 1 1 1 1 1 1 0.010097470363628298 9.2862344333241587e-10 1 0.014132992954039683 1 1 0.0095730300655134104 1 1 1 1 1 1 1 0.012165318101151113 1 1 1 1 1 1 1 1 1 1 0.0063859642983585853 1 1 0.0089801867120831852 1 0.011512429160877559 1 1 1 1 1 1 1 1 1 1 1 1 1 1 1 1 1 1 1 1 1 0.014098607616460888 1 1 1 1 1 1 1 1 1 1 1 1 1 1 1 1 1 1 1 1 1 1 1 1 1 1 1 1 1 1 1 1 1 1 1 1 1 1 1 1 1 1 1 1 1 1 1 1 1 1 1 1 1 1 1 1 1 1 1 1 1 0.0024012326027945639 1 1 0.0080651934575009833 1 1 1 0.009308060355792281 1 1 1 1 1 1 1 0.00070959123536260124 1 1 1 1 1 1 1 1 1 1 0.0060272857673286453 1 1 1 1 1 0.010379793267785285 0.00442063847103491 1 0.012511033787642322 1 1 0.010441305653282721 1 0.0089799255228470258 1 1 1 1 1 1 0.0049643622161780303 1 1 1 1 1 0.015658419609512961 0.0098082387760484793 1 1 1 1 1 0.014451710702365429 0.010729554462088235 1 1 1 1 1 1 1 1 1 1 1 1 1 1 1 1 1 1 1 1 1 1 1 1 1 1 1 1 1 1 1 1 1 1 1 1 1 1 1 1 1 1 1 1 0.0095274208829562168 1 1 1 1 1 1 1 1 1 1 1 1 1 1 1 1 0.009769007973637207 1 1 0.009191137132223583 1 1 1 1 0.0081730692584839858 1 0.015769672751620813 1 0.0094390764415954106 1 1 0.0087280238978947374 1 1 1 1 1 0.015954853460108047 1 1 1 1 1 0.011942604622933641 1 1 1 1 1 0.0057702802155876181 0.017878487892752884 1 0.01273619349726314 1 1 0.0099750744609891934 1 1 1 1 0.011106154241975634 0.011609077527822941 1 1 1 1 1 1 1 1 0.010379182823616086 1 1 1 0.0093411153967437998 1 1 1 1 1 1 1 1 0.0094462429713919917 1 1 1 1 1 0.010479334388677689 1 1 0.0091621005051252778 1 1 1 1 1 1 1 1 1 1 1 1 1 1 0.0073013782519499183 1 1 0.017654886404180135 1 1 0.013254252320230548 1 1 1 1 0.010200660059676899 1 1 1 1 0.010506604676636193 1 1 1 1 1 1 1 1 1 1 1 0.0083495268900777107 1 0.01019904993314639 1 1 0.016020567589362274 1 1 1 1 0.0099942616484270611 1 1 1 1 1 1 1 1 0.012976677678272409 0.013847285931532075 1 1 0.011726055941405713 0.011905262934659204 1 1 1 1 1 1 0.0056349787611934266 1 1 1 1 1 1 1 1 1 1 1 1 1 1 1 1 1 1 1 0.0092208938066742838 1 1 1 1 1 1 1 1 0.010059534016263572 1 1 1 1 0.007486526801171442 1 1 1 1 1 1 1 1 0.0074339844825209896 1 1 1 0.014888540312834129 1 0.0094551821429848058 0.010723558382182807 1 1 1 0.010003326344484691 0.010214612944806243 1 0.0086290624759221349 1 1 1 1 1 1 1 1 1 1 1 0.0089769404442533798 1 1 1 1 1 1 1 0.015322277680206206 1 1 1 1 1 1 0.0065411485358042639 1 1 0.018273138042335445 1 0.0044304924632547604 1 1 1 1 1 1 1 1 1 1 1 1 1 1 1 1 1 0.011133485944291328 1 1 1 1 1 1 1 1 1 1 1 1 1 1 1 1 1 1 1 1 1 1 1 1 1 1 1 1 1 1 1 0.010313212272903901 1 1 1 1 1 1 1 1 1 1 1 1 1 1 0.01334828572269699 0.0018463985260475761 1 0.0044964613660634645 1 1 1 0.013219005747043454 0.0022911940197656629 1 1 1 1 0.011115294900394559 1 1 1 1 1 1 1 1 1 1 1 1 1 0.011184809569752398 1 1 1 1 0.011584120879736386 1 0.0094610265240381054 1 1 1 1 1 1 0.0089846867270168794 1 1 1 1 1 1 0.010928750973331635 1 1 0.009278494209138996 0.010837853350460325 1 1 1 1 1 1 1 1 1 1 1 1 1 1 1 1 1 1 0.010541216997613049 0.011710163614271466 1 1 1 1 1 1 0.0091517221924313687 1 1 1 0.007670678761012099 1 1 1 1 1 1 0.0095236602029787724 1 1 1 1 1 1 1 1 1 1 1 0.0065235696095029359 1 1 1 1 1 1 0.0098412292508274594 1 1 1 1 1 1 1 1 1 1 0.0055755751818764542 1 1 1 1 1 1 1 1 1 1 1 1 1 1 1 1 1 1 0.0047265286377209878 0.010016124501755532 1 1 0.010082643048232899 1 1 1 1 1 1 1 1 1 1 1 1 1 0.0096024087564836845 1 0.0095253763892327366 1 1 1 1 1 1 1 1 1 1 1 1 1 0.0086144701869747681 1 1 1 1 1 1 1 1 1 1 1 1 1 0.011394164267302161 1 1 1 1 0.013453003749667122 1 1 1 1 1 1 0.014407428127346075 1 1 1 1 1 1 1 1 1 1 1 1 1 1 1 1 1 1 1 1 1 1 1 1 1 1 1 1 1 1 1 1 1 1 1 1 0.013963151221261995 1 1 1 1 0.0087640187734112449 1 1 1 1 1 1 1 1 1 1 1 0.0096246729635378354 1 1 1 0.009807186781279344 1 1 1 1 1 1 1 1 1 1 1 1 1 0.012659839484134988 1 1 0.012830650956998809 1 1 1 1 1 1 1 1 1 1 0.011481894435025095 1 1 0.010712574208161307 1 1 1 0.013143598775365507 1 
</DataArray>
</CellData>
</Piece>
</UnstructuredGrid>
</VTKFile>
